LAMMPS (30 Jul 2021)
Processor partition = 0
  using 1 OpenMP thread(s) per MPI task
using multi-threaded neighbor list subroutines
variable        pid world 0 1
variable        phase world IceII IceIII

shell cd ${phase}
shell cd IceII
include Restart.lmp
echo both
log log.lammps
#include		in.partitions
include		in.temp
variable        temperature equal 92.84
variable	tempDamp equal 100.0
include		in.pressure
variable        pressure equal 1668.8
variable        pressureDamp equal 1000.0 # This is 1 ps
include		in.seed
variable        seed equal 745823

units		real
atom_style	full
box tilt large
read_restart	restart.lmp.${pid}
read_restart	restart.lmp.0
Reading restart file ...
  restart file = 30 Jul 2021, LAMMPS = 30 Jul 2021
  restoring atom style full from restart
  triclinic box = (-10.596333 -9.2297638 0.10203236) to (12.576333 12.219762 21.757967) with tilt (-9.2045031 1.7384861 2.9357885)
  4 by 4 by 4 MPI processor grid
  restoring pair style lj/cut/tip4p/long/omp from restart
  restoring bond style harmonic/omp from restart
  restoring angle style harmonic/omp from restart
  1296 atoms
  864 bonds
  432 angles
Finding 1-2 1-3 1-4 neighbors ...
  special bond factors lj:    0        0        0       
  special bond factors coul:  0        0        0       
     2 = max # of 1-2 neighbors
     1 = max # of 1-3 neighbors
     1 = max # of 1-4 neighbors
     2 = max # of special neighbors
  special bonds CPU = 0.005 seconds
  read_restart CPU = 0.013 seconds
include 	in.setup
variable	out_freq equal 1000
variable	out_freq2 equal 10000
variable	out_freq3 equal 1000

timestep	2.0

neigh_modify    delay 7 every 1

include		in.tip4p
# This is TIP4P/Ice

# create groups ###
group ox type 2
432 atoms in group ox
group hy type 1
864 atoms in group hy

# set charges - beside manually ###
set group ox charge -1.1794
Setting atom values ...
  432 settings made for charge
set group hy charge 0.5897
Setting atom values ...
  864 settings made for charge

# ### TIP3P Potential Parameters ###
pair_style lj/cut/tip4p/long/omp 2 1 1 1 0.1577 8.5
pair_coeff 1 1*2 0.000 0.000
pair_coeff 2 2 0.21084 3.1668
bond_style  harmonic
bond_coeff  1 450 0.9572
angle_style harmonic
angle_coeff 1 55 104.52
kspace_style pppm/tip4p/omp 1.0e-5
pair_modify tail yes

thermo          ${out_freq}
thermo          1000
thermo_style    custom step temp pe etotal epair emol press lx ly lz vol pxx pyy pzz pxy pxz pyz enthalpy

restart 	${out_freq3} restart.lmp.${pid} restart2.lmp.${pid}
restart 	1000 restart.lmp.${pid} restart2.lmp.${pid}
restart 	1000 restart.lmp.0 restart2.lmp.${pid}
restart 	1000 restart.lmp.0 restart2.lmp.0


include         in.dump
dump            myDump all atom ${out_freq2} dump.water.${pid}
dump            myDump all atom 10000 dump.water.${pid}
dump            myDump all atom 10000 dump.water.0
dump            myDump2 all dcd ${out_freq2} dump.dcd
dump            myDump2 all dcd 10000 dump.dcd
dump_modify     myDump append yes
dump_modify     myDump2 append yes


variable natoms 	equal  "count(all)"                        # NUMBER ATOMS
variable H      	equal  "enthalpy/v_natoms"                 # ENTHALPY-per-atom
variable Vol      	equal  "vol/v_natoms"                 # volume-per-atom
fix AVG all 		ave/time ${out_freq} 1 ${out_freq} v_Vol v_H file vol_enthalpy.dat
fix AVG all 		ave/time 1000 1 ${out_freq} v_Vol v_H file vol_enthalpy.dat
fix AVG all 		ave/time 1000 1 1000 v_Vol v_H file vol_enthalpy.dat


timer           timeout 10:00:00 every 1000
New timer settings: style=normal  mode=nosync  timeout=10:00:00

fix 		1 all shake 1e-6 200 0 b 1 a 1
Finding SHAKE clusters ...
       0 = # of size 2 clusters
       0 = # of size 3 clusters
       0 = # of size 4 clusters
     432 = # of frozen angles
  find clusters CPU = 0.001 seconds
fix             2 all nph tri ${pressure} ${pressure} ${pressureDamp}
fix             2 all nph tri 1668.8 ${pressure} ${pressureDamp}
fix             2 all nph tri 1668.8 1668.8 ${pressureDamp}
fix             2 all nph tri 1668.8 1668.8 1000
fix             3 all temp/csvr ${temperature} ${temperature} ${tempDamp} ${seed}
fix             3 all temp/csvr 92.84 ${temperature} ${tempDamp} ${seed}
fix             3 all temp/csvr 92.84 92.84 ${tempDamp} ${seed}
fix             3 all temp/csvr 92.84 92.84 100 ${seed}
fix             3 all temp/csvr 92.84 92.84 100 745823


run             250000
PPPM initialization ...
  extracting TIP4P info from pair style
  using 12-bit tables for long-range coulomb (../kspace.cpp:340)
  G vector (1/distance) = 0.36762475
  grid = 30 40 32
  stencil order = 5
  estimated absolute RMS force accuracy = 0.0044648916
  estimated relative force accuracy = 1.3445888e-05
  using double precision FFTW3
  3d grid and FFT values/proc = 5168 640
Last active /omp style is kspace_style pppm/tip4p/omp
Neighbor list info ...
  update every 1 steps, delay 7 steps, check yes
  max neighbors/atom: 2000, page size: 100000
  master list distance cutoff = 10.8154
  ghost atom cutoff = 10.8154
  binsize = 5.4077, bins = 7 5 5
  1 neighbor lists, perpetual/occasional/extra = 1 0 0
  (1) pair lj/cut/tip4p/long/omp, perpetual
      attributes: half, newton on, omp
      pair build: half/bin/newton/tri/omp
      stencil: half/bin/3d/tri
      bin: standard
Setting up Verlet run ...
  Unit style    : real
  Current step  : 1500000
  Time step     : 2
  Walltime left : 9:59:59.92
Per MPI rank memory allocation (min/avg/max) = 9.437 | 9.442 | 9.446 Mbytes
Step Temp PotEng TotEng E_pair E_mol Press Lx Ly Lz Volume Pxx Pyy Pzz Pxy Pxz Pyz Enthalpy 
 1500000    97.757336   -6760.2991   -6508.8243   -6760.2991            0    2078.7323    23.172667    21.449526    21.655934    10763.924    2242.8238    1863.4293    2129.9436    184.51519    838.47876    -183.7671   -6182.5033 
 1501000    94.708832   -6787.2115   -6543.5788   -6787.2115            0    1615.8389    23.284134    21.281541    21.737945    10771.635    1281.8963    1674.1266    1891.4939    138.94168   -218.81997   -78.282917   -6289.7414 
 1502000    94.552583   -6782.0751   -6538.8443   -6782.0751            0    1900.8985    23.269123    21.348092    21.637895    10748.654    1329.4507    2392.9592    1980.2856   -351.79323   -309.13142    164.40694   -6240.8631 
 1503000    95.844439   -6787.3031   -6540.7491   -6787.3031            0    852.88126    23.207106    21.503016     21.63951    10798.608    670.71356    172.79791    1715.1323   -52.504704    420.40945    910.94955   -6406.4317 
 1504000    87.763954   -6778.8584    -6553.091   -6778.8584            0    817.47107    23.365151    21.321976    21.693734    10807.627    625.65598    298.24248    1528.5148    108.66291   -638.25236    671.34456   -6424.2427 
 1505000    94.182037   -6784.2309   -6541.9533   -6784.2309            0    958.01641    23.160957    21.444361    21.753964    10804.583    1283.9394    486.96685     1103.143    123.37963    137.66972     57.47969   -6390.9951 
 1506000    91.135255   -6766.5954   -6532.1555   -6766.5954            0    1340.0943    23.325085    21.369693    21.692557    10812.653      631.884    2045.3686    1343.0302    381.56855    355.28684   -67.416368   -6320.8341 
 1507000    91.501633   -6779.8646   -6544.4823   -6779.8646            0    2259.6559    23.254287    21.332368    21.671612    10750.615    2010.1899    2474.4261    2294.3517   -214.39262   -356.27751   -25.854595   -6190.1983 
 1508000    92.002319   -6771.4047   -6534.7343   -6771.4047            0    3192.1428    23.098933    21.431197    21.646352    10715.763    3983.2267    3268.3675    2324.8342   -1120.7024    648.87912    342.15476   -6035.8713 
 1509000    97.351104   -6774.9878   -6524.5581   -6774.9878            0    1471.9535    23.323095    21.303394    21.695425    10779.612    2026.4796    1486.2324    903.14856   -239.77405   -483.99843   -411.07443   -6293.1528 
 1510000    93.309681   -6777.0844   -6537.0509   -6777.0844            0    719.20976    23.251145    21.466422    21.682016    10821.904    780.06768   -360.16596    1737.7275    378.57263    105.87118    304.33692   -6423.5406 
 1511000    91.427871    -6774.899   -6539.7064    -6774.899            0    1405.4548      23.2663    21.363574    21.695651    10783.852    853.60838    2069.3452    1293.4109    499.82088     380.7496   -276.80029   -6318.6685 
 1512000    94.403231    -6766.884   -6524.0375    -6766.884            0    1406.3569     23.26288    21.325824    21.748798    10789.581    407.53457    2822.5853    988.95074    219.46319    460.30938   -758.66714   -6302.7402 
 1513000    95.863141   -6776.5267   -6529.9246   -6776.5267            0    1647.9792    23.221389    21.400334    21.703688     10785.55    1065.3784    1987.7954    1890.7638    641.67517   -574.50954    354.16177   -6270.7038 
 1514000    88.897779   -6778.3946   -6549.7104   -6778.3946            0    1571.7521    23.230216    21.367678    21.697537    10770.132    1521.7707     1973.892    1219.5934    79.884276   -348.15052    60.230957   -6302.8333 
 1515000    92.375334   -6776.6853   -6539.0554   -6776.6853            0    2012.4733    23.201054    21.376217    21.683889    10754.141    2821.0619    1583.7825    1632.5756    87.024629   -770.03021   -243.33883   -6223.4229 
 1516000    92.761879   -6777.4228   -6538.7985   -6777.4228            0    2472.0211    23.298669    21.270282    21.665609     10736.81    1921.8348    2503.1769    2991.0517    1560.9909   -373.19656    217.96191   -6151.7162 
 1517000    91.355137   -6773.5788   -6538.5733   -6773.5788            0    2176.3537    23.220419     21.36466    21.667565      10749.2    3274.4969    712.54009    2542.0243    56.481126   -561.37005    106.81849   -6197.3949 
 1518000    90.147753    -6783.101   -6551.2014    -6783.101            0    1723.4212    23.216717    21.372478    21.704938    10769.963     2324.493    1189.0777    1656.6927   -397.18301      121.267   -96.430321   -6280.5056 
 1519000    90.792721   -6776.4981   -6542.9394   -6776.4981            0    1772.7362    23.301666    21.311377    21.660195    10756.249    941.05507     1889.151    2488.0025     391.5221    275.19743     187.0177   -6264.8522 
 1520000    91.264998   -6780.1886    -6545.415   -6780.1886            0    1985.9002    23.165043    21.400813     21.66347    10739.681    2859.9447    1869.9414    1227.8146     103.1481   -348.40937    468.49068   -6234.3689 
 1521000    87.014235   -6776.9744   -6553.1356   -6776.9744            0    1592.0621    23.241447    21.337277    21.711522    10766.943     1644.055    1746.0022    1386.1292   -527.53864    654.17199    266.80019   -6303.1423 
 1522000    94.738528   -6781.3456   -6537.6365   -6781.3456            0    1784.6188    23.266307    21.265679    21.732133     10752.49    1384.3168    2205.5393    1764.0002    221.43506    491.55186    1138.2513   -6257.7833 
 1523000     93.07564   -6784.4336   -6545.0021   -6784.4336            0    1935.7082    23.237602    21.353772    21.682978     10759.32    2040.4961    1395.0744    2371.5543    445.00727    528.43445    880.74476   -6241.2631 
 1524000    100.39925   -6772.2729   -6514.0019   -6772.2729            0    1821.5078    23.218407    21.370347    21.709941    10772.156    2034.0524    1808.3751    1622.0959    238.65336    486.22268   -132.43696   -6227.8415 
 1525000    96.849375   -6773.9552   -6524.8161   -6773.9552            0    1854.8724    23.298367    21.300281    21.663751    10750.891    2325.0937    1259.3178    1980.2058   -332.25216     20.78804     38.64024   -6233.9893 
 1526000    93.910594   -6769.5566   -6527.9773   -6769.5566            0    1378.8485    23.214582    21.439876    21.660795    10780.962    1882.2483    559.68436    1694.6129    -161.3248    777.61897    47.482522   -6311.1819 
 1527000    93.322707   -6769.7605   -6529.6936   -6769.7605            0    1880.0597    23.302812    21.379116    21.601124     10761.54    1413.3595    1964.9509    2261.8687   -0.4371696   -37.227256    -45.68513   -6234.6257 
 1528000    87.767141   -6777.4225   -6551.6469   -6777.4225            0    1420.4946    23.295463    21.328374    21.699243    10781.363    1207.3437    2289.9389    764.20101   -251.85459   -182.23786   -256.88876   -6328.2953 
 1529000    92.461763   -6784.2413   -6546.3891   -6784.2413            0    2225.9132    23.131355    21.431045    21.661322    10738.148    2192.1334    2703.1704     1782.436    470.29051     82.27971   -735.30474   -6197.8002 
 1530000    97.888279   -6775.0285   -6523.2169   -6775.0285            0    2272.2502    23.367911    21.235427    21.651877    10744.258    2200.5663    2389.5045    2226.6799    503.42573   -278.38004    272.80128    -6167.169 
 1531000     95.52588   -6772.4491   -6526.7146   -6772.4491            0      2009.98     23.21399    21.394868    21.690063    10772.592     2939.773    1851.9134    1238.2536   -121.87697   -469.55967   -907.74847   -6210.9322 
 1532000    95.214811    -6778.735   -6533.8007    -6778.735            0    1407.3148    23.172699     21.46919     21.66492    10778.278    1596.3881    863.68206    1761.8742    331.37896    6.9977668    485.46878   -6312.5848 
 1533000    91.550138   -6775.0704   -6539.5632   -6775.0704            0    1657.6418    23.277762    21.329991    21.688531     10768.67    1537.9192     1652.869    1782.1371    64.194749    88.898663    166.92236   -6279.2306 
 1534000    93.563927    -6786.267   -6545.5795    -6786.267            0    790.98406    23.227119    21.469947    21.653756    10798.403    1307.2204   -673.34362    1739.0754   -522.92091   -524.31762    298.47776   -6421.0124 
 1535000    92.047132   -6783.3592   -6546.5736   -6783.3592            0    1986.8868    23.228158    21.385869    21.636332    10747.942    2045.4981    1765.7727    2149.3897    49.507797   -65.819288   -48.916339   -6235.1336 
 1536000     91.38263   -6781.0418   -6545.9655   -6781.0418            0    2099.9199    23.283778    21.287695    21.666203    10739.026    1977.8196    2217.1688    2104.7713    398.94243   -288.20084   -1150.2458   -6217.0809 
 1537000    93.481159   -6776.7043   -6536.2298   -6776.7043            0    1097.9446    23.250771    21.459682    21.647715    10801.217    2179.4884   -649.79428    1764.1398   -130.53909   -532.75766   -47.143432   -6363.2764 
 1538000    94.443736   -6784.4162   -6541.4654   -6784.4162            0    1676.3614    23.233778    21.440124    21.630497    10774.909    1653.6704    1124.8404    2250.5734   -366.32417   -58.918844   -96.908448   -6278.0403 
 1539000    94.574381   -6780.8556   -6537.5687   -6780.8556            0    1671.7187    23.286932    21.308106    21.701168    10768.129    1407.1898    1916.3179    1691.6485   -171.22442   -149.93275    353.47651   -6275.0385 
 1540000    90.718229   -6779.7563   -6546.3892   -6779.7563            0    894.40503      23.1986    21.433508    21.764885    10822.097    1370.5709    977.23781    335.40633   -124.98781    45.182758   -158.09377    -6405.226 
 1541000    94.470853   -6791.9186   -6548.8981   -6791.9186            0    1021.4356    23.259979    21.404355    21.717777    10812.518    1557.1759    678.02126    829.10963    301.76387   -418.92177   -271.18035   -6387.8285 
 1542000    90.487892   -6773.7771   -6541.0025   -6773.7771            0    2195.8106    23.280312     21.32005    21.629112    10735.337    2269.8415    2434.2734     1883.317    292.89017   -629.55429   -794.00135   -6197.2179 
 1543000    94.045328    -6777.594   -6535.6682    -6777.594            0    1051.7307    23.285776     21.44256    21.633112    10801.557    20.289134    1396.0058    1738.8971    -348.4214    504.93912   -603.86542   -6369.9894 
 1544000    93.305504   -6776.4681   -6536.4454   -6776.4681            0    1458.4154    23.295851     21.30098    21.741235    10788.532    1861.6135    1506.9234    1006.7092   -126.03588    -808.5473   -324.01018   -6306.9788 
 1545000    85.160013   -6782.0255   -6562.9565   -6782.0255            0    1777.9105    23.214047     21.38605    21.675091    10760.745    1443.2934    2019.9211     1870.517    227.19216   -526.62003    210.07287   -6283.9412 
 1546000    92.829681   -6772.7685   -6533.9698   -6772.7685            0    2267.9383    23.209908     21.44996     21.59231    10749.766    2089.1246    1642.5438    3072.1465   -344.35921    10.622532    210.64957   -6178.4154 
 1547000     89.28362    -6780.383   -6550.7063    -6780.383            0    1599.4435    23.285665    21.376568    21.635991    10769.695    2219.1258    1303.5299    1275.6747   -332.87683   -389.38941   -419.32909   -6299.4898 
 1548000    94.035675   -6773.3058   -6531.4048   -6773.3058            0    1604.7036    23.274866    21.370863    21.665439    10776.475    927.05845    1543.7628    2343.2897    92.052385   -325.70817   -85.194017   -6279.2034 
 1549000    95.534261   -6777.4027   -6531.6466   -6777.4027            0    1232.9799    23.213738    21.415948    21.712845    10794.415    1275.5097    1407.8546    1015.5753     369.9632    187.19295   -628.23965   -6337.5442 
 1550000    93.065755    -6779.103    -6539.697    -6779.103            0     1307.042    23.246697    21.315717    21.751946    10778.525    1936.3931    1187.1026    797.63018   -494.02416   -526.34683   -153.62135   -6334.2382 
 1551000    92.486439   -6766.9008   -6528.9851   -6766.9008            0    1593.1014    23.286263    21.368247    21.666397    10780.909    1176.3546     1501.864    2101.0855   -418.04991    102.04957   -553.11777   -6278.5041 
 1552000     91.11715   -6785.3124   -6550.9191   -6785.3124            0    1249.2939    23.248395    21.473416     21.60435    10785.376    1176.1291    494.05866    2077.6939   -365.46124    6.5128214     183.9469   -6354.4131 
 1553000    90.892974   -6779.0625   -6545.2459   -6779.0625            0    1476.3629    23.340774    21.380925    21.585635    10772.254    891.74245    2042.5439    1494.8025    -550.9181   -131.16983   -43.957671   -6313.3059 
 1554000    93.220483   -6772.5847   -6532.7807   -6772.5847            0    1484.6422    23.237288    21.380072    21.718409    10790.029    2226.8378    1049.4514    1177.6374    -764.3581    829.83488   -312.06699   -6299.1551 
 1555000    95.388847   -6781.1779   -6535.7959   -6781.1779            0    1395.9178    23.219041    21.425596    21.679424    10785.119    2340.5494    1111.6816    735.52255    21.928288    -26.99117   -1367.5332   -6316.2322 
 1556000      94.8043   -6770.7314   -6526.8531   -6770.7314            0    2194.5365    23.329928    21.245442    21.706798    10759.075    2719.6115    2416.6262    1447.3719     87.07433    75.550175   -475.56933   -6182.5082 
 1557000    90.708555   -6771.4939   -6538.1517   -6771.4939            0    2495.4782    23.185278    21.429118    21.605961    10734.707    2657.5199    1921.9767    2906.9379   -173.27915     299.9322    152.36548   -6147.4729 
 1558000    91.075021   -6773.8621   -6539.5772   -6773.8621            0    1828.0582    23.192411    21.460422    21.656006    10778.604    1829.2287    1608.2427    2046.7033    401.22916   -271.16747   -108.11754   -6252.2158 
 1559000    90.826368   -6769.7033    -6536.058   -6769.7033            0    2125.0887    23.311692    21.274763     21.70694    10765.573    2422.2261    1957.0913    1995.9486    227.77005   -1788.9991    392.81021   -6202.4088 
 1560000    89.068469   -6783.4188   -6554.2955   -6783.4188            0     2463.859    23.077591    21.497834    21.649882    10740.901    3050.3937    1233.3029    3107.8803    363.47499    474.47988    1058.5188   -6168.3443 
 1561000    91.516597    -6776.583   -6541.1621    -6776.583            0    1772.6589    23.323505    21.288034    21.682467    10765.595     506.9147    2566.9491    2244.1129    75.440296    702.72699   -55.955796   -6262.8455 
 1562000    91.728651   -6770.1733    -6534.207   -6770.1733            0    2086.7236    23.242039    21.360653     21.63952    10743.267    2534.9552    2078.4508     1646.765   -2.3955417    275.07867    34.986698   -6207.2601 
 1563000    97.331759   -6774.4679   -6524.0879   -6774.4679            0    1470.8447    23.226162    21.442495    21.647659    10781.116    1683.2213   -207.87926     2937.192    206.61239    786.15176    506.68987   -6292.8248 
 1564000    91.141259   -6779.0827   -6544.6274   -6779.0827            0    1136.1313    23.402835    21.200178    21.715507    10774.025    1022.5909    1371.4664    1014.3366   -527.17671    10.234598    215.88308   -6366.1092 
 1565000    90.763207   -6791.6601   -6558.1772   -6791.6601            0    1405.9085    23.115865    21.439022    21.754872    10781.313    2108.6728    938.55798    1170.4946   -657.26876   -542.15803   -225.15722   -6337.1201 
 1566000    93.181375   -6767.8566   -6528.1532   -6767.8566            0    1864.6766     23.24781    21.358925    21.686204    10768.246    1494.7917    2131.4867    1967.7515    265.22444    -105.5138    35.732068   -6235.3173 
 1567000     87.23834   -6780.1899   -6555.7746   -6780.1899            0    1712.3747    23.327431    21.347152    21.597571    10755.034     1490.306    1898.7079    1748.1101   -575.56809   -385.19328   -146.93806   -6287.1867 
 1568000     89.79904   -6783.1146    -6552.112   -6783.1146            0    1908.4325     23.16771    21.493427    21.592599     10752.11    1999.0333    1887.0931    1839.1712    -435.2474    813.57533   -156.12985   -6252.8536 
 1569000    88.150982   -6784.6751   -6557.9121   -6784.6751            0    1608.3531    23.320336    21.274572    21.690872    10761.496     1080.426    2090.2174     1654.416   -193.03442    400.40216    84.560248   -6305.4885 
 1570000    95.216905     -6791.95   -6547.0103     -6791.95            0    1161.3444    23.229983    21.358271    21.749096    10790.863    989.79548    1683.9825    810.25522    78.493261   -108.26687   -9.2554554   -6364.2453 
 1571000    95.661245   -6785.0885   -6539.0057   -6785.0885            0    1443.4885    23.133548     21.40568    21.759826    10775.233    1560.9682    1400.5238    1368.9735    59.408331    154.28757     465.5478   -6312.1677 
 1572000    97.819369   -6770.4713    -6518.837   -6770.4713            0    403.85885    23.336464    21.335354    21.748567    10828.432    492.90456    904.65378    -185.9818    421.86131   -468.09988    582.30036   -6455.0589 
 1573000    91.275332   -6787.0732    -6552.273   -6787.0732            0     1372.573    23.158106    21.466024    21.652506     10763.73    1709.5607    1622.0157    786.14273    17.753556    146.01634   -59.487988   -6336.8092 
 1574000    93.120147   -6780.7106   -6541.1647   -6780.7106            0    1853.1798    23.234016    21.349274    21.669188    10748.554    2459.4678    1310.3314    1789.7401   -674.08915   -156.73478    313.82293   -6250.6665 
 1575000     97.10129   -6791.3678   -6541.5807   -6791.3678            0    1374.7034    23.271625    21.280589     21.77907    10785.734    1849.7004    1675.6121    598.79763   -136.21257    19.453407   -202.42535   -6325.3414 
 1576000    92.460867   -6780.0195   -6542.1695   -6780.0195            0    2252.8035    23.117979    21.445445    21.660978    10738.979    2213.1792    2004.1474    2541.0839    599.41957    46.788267    305.41781   -6189.3422 
 1577000    93.127325   -6787.9211   -6548.3568   -6787.9211            0    1979.4846    23.319835    21.287004    21.655186    10749.838    1557.2899    2754.0011    1627.1628    98.265395    -168.5123    345.26964   -6238.0224 
 1578000     96.02013   -6774.0469   -6527.0409   -6774.0469            0    1556.4628    23.280018    21.366428    21.656327    10772.091    1310.4302    1945.8315    1413.1268   -503.28135   -133.22223    436.34944   -6282.5208 
 1579000    90.901818   -6782.6468   -6548.8074   -6782.6468            0    2045.2698    23.104938    21.434495    21.692513    10743.058    2092.4025    1451.3417    2592.0651   -127.94609    334.64581    396.87489   -6228.3617 
 1580000    98.132732   -6780.5582   -6528.1177   -6780.5582            0    1613.9573    23.318565     21.21019    21.778238    10771.324    2077.8607    2429.9181    334.09289    8.7367968    -335.2874   -160.78159   -6274.5832 
 1581000    93.043134   -6788.4275   -6549.0797   -6788.4275            0    2033.1075    23.203617    21.375609    21.666335    10746.317    1986.8042    2447.7057    1664.8126    469.45675    827.76605    110.81647    -6230.443 
 1582000    92.581435    -6784.324   -6546.1639    -6784.324            0     1597.654    23.248798    21.399167    21.604718    10748.454    832.90793    1863.2825    2096.7715   -270.31821     511.5491   -352.74899   -6295.7234 
 1583000      93.9724   -6785.9538   -6544.2155   -6785.9538            0    1200.2208    23.378992    21.280693    21.688244     10790.36    1054.7439    1423.0412    1122.8774    356.23286   -680.12934    417.13848   -6355.3412 
 1584000    98.758678   -6776.0695   -6522.0189   -6776.0695            0    1234.8955    23.104701    21.469903    21.791528    10809.812    2312.9287    1035.1321    356.62561   -82.365074     -199.935    387.57502   -6327.3376 
 1585000    94.676692   -6788.6605   -6545.1105   -6788.6605            0    1662.1755    23.222823    21.352905    21.719259    10770.032    1475.0547    2055.2938    1456.1779   -31.062794    303.43082   -130.78729   -6284.0328 
 1586000    92.016524   -6783.1605   -6546.4536   -6783.1605            0    1404.1315    23.315327    21.299399    21.679186    10765.937    1344.9631    1610.7222    1256.7092    -205.1508   -541.95228    268.21047   -6325.9907 
 1587000    88.167644   -6779.0979    -6552.292   -6779.0979            0    1556.4339    23.201027    21.484295    21.600999    10767.185    1122.4988    1614.8946    1931.9083    837.95233   -162.01104    264.38763   -6307.8878 
 1588000    92.431705   -6775.2244   -6537.4495   -6775.2244            0    1601.6421    23.269152    21.356896    21.687378    10777.691    1834.9698    1785.3804     1184.576   -633.44742    97.391426   -562.14753   -6285.7009 
 1589000    90.819456   -6793.2467   -6559.6192   -6793.2467            0     1381.131    23.256557    21.296286    21.757981    10776.256     1163.797    1739.2986    1240.2973   -826.48631    1001.4385    84.110442   -6342.5598 
 1590000    88.806927   -6776.2928   -6547.8423   -6776.2928            0     2022.349    23.144481     21.36245    21.731812    10744.704    2350.6993    2289.8682    1426.4794   -464.74051    198.72999    629.54881   -6230.9393 
 1591000    91.737516   -6788.4078   -6552.4186   -6788.4078            0    1142.1959    23.239059    21.380774    21.701386    10782.748    1019.6437    1423.7371    983.20695    637.01974   -150.25353    140.56675   -6372.8022 
 1592000    90.505754   -6772.5643   -6539.7438   -6772.5643            0    2050.6132    23.353559    21.284758     21.63484    10754.135    787.50364    3026.6971    2337.6388    336.62829    225.46948    260.24427   -6218.1297 
 1593000    94.973728   -6784.6623   -6540.3482   -6784.6623            0    2112.3663    23.156209    21.327828    21.748484    10740.959    2497.2643    2398.4269    1441.4076    728.11794    51.648286     300.5438   -6209.4547 
 1594000    92.585787   -6775.2412   -6537.0699   -6775.2412            0    1694.9999    23.156041    21.345022    21.806378    10778.156     2406.563    1710.5559    967.88071    602.13993    350.00041    1053.8122   -6270.6357 
 1595000    89.792909   -6789.0033   -6558.0165   -6789.0033            0    1325.5886    23.244056    21.291146     21.77883    10778.181    716.72008    2839.9197    420.12618   -353.87295     340.4915    300.53609   -6349.6489 
 1596000    97.011531   -6779.7961   -6530.2399   -6779.7961            0    2177.4255    23.212529    21.402997    21.644308    10753.275    1484.1599    2817.0546     2231.062    127.73014   -114.90941    953.88402   -6188.7641 
 1597000    88.384461   -6769.3617   -6541.9981   -6769.3617            0     2130.974    23.255868    21.366055     21.61922    10742.291    2270.9888    1824.5946    2297.3384    139.57355   -281.98666    560.24681   -6208.1484 
 1598000    88.010371   -6782.0221   -6555.6208   -6782.0221            0    2394.1627    23.177359    21.288952    21.752863    10733.334    2309.8022    3397.5884    1475.0975   -213.57241    421.05765   -206.73608   -6180.8513 
 1599000    92.563333   -6774.6578   -6536.5443   -6774.6578            0    1989.9989    23.157852    21.331235    21.764739    10751.468    2258.5759     2152.101    1559.3198    25.471441    13.631227     537.0141   -6224.5142 
 1600000    88.420194   -6777.4106   -6549.9551   -6777.4106            0    2139.7569    23.290843    21.264597    21.713283    10753.946    2034.5195    2810.5816    1574.1697    235.30786   -413.10037   -165.48422   -6214.3657 
 1601000    91.304845   -6787.9418   -6553.0657   -6787.9418            0    2453.2208    23.114936     21.43212    21.633471    10717.267    2855.7984    1923.1157    2580.7483    637.93522   -450.00528    622.95222   -6169.6264 
 1602000    94.952948   -6786.9074   -6542.6468   -6786.9074            0    1725.1257    23.284624    21.331571    21.657806     10757.38    1307.0573    1833.7627    2034.5572    655.52719   -152.85935    677.23972   -6271.9998 
 1603000    92.306382   -6767.6474   -6530.1949   -6767.6474            0    2075.9024    23.166776    21.487827    21.599857    10752.488    1691.9673    1804.1306    2731.6094     27.59702    257.21612    691.57647   -6204.6643 
 1604000    94.604687   -6781.7229   -6538.3581   -6781.7229            0    1194.9615    23.232146    21.315386    21.767777     10779.45    1453.3246     1459.267    672.29283   -234.96195    604.65886    523.98821   -6350.5016 
 1605000      96.1519   -6781.9187   -6534.5738   -6781.9187            0    1704.3356     23.26588    21.279298    21.738632    10762.396    2037.3685     1801.395    1274.2434     538.9691   -24.568858     327.5944   -6267.0638 
 1606000    89.320857   -6778.0967   -6548.3242   -6778.0967            0    1432.3445    23.156107     21.43936    21.726203    10786.019    2048.1555    1381.4149    867.46314     52.42788   -23.983874    45.518143   -6323.0121 
 1607000    89.551516   -6777.2048    -6546.839   -6777.2048            0     1497.958    23.276863    21.287272    21.744577    10774.458     1459.054    2264.6216    770.19861   -349.47842   -233.32839    400.30262   -6311.4583 
 1608000    91.830494   -6782.6416   -6546.4133   -6782.6416            0    1076.0275    23.220464    21.418691    21.678349    10781.769    1439.9163    586.80581    1201.3604   -122.73442    662.61441    181.07657   -6377.2176 
 1609000    88.848161   -6775.5319   -6546.9754   -6775.5319            0      1591.76    23.272751    21.374228      21.6508    10769.911    1079.1656    1275.9667    2420.1477   -66.033484    371.15143    855.85523   -6296.9607 
 1610000    89.024213   -6777.0929   -6548.0835   -6777.0929            0    1595.4722    23.301814      21.3365    21.666823    10772.292    1272.3083    1385.9473     2128.161   -271.91941   -368.76036    777.21166   -6297.4303 
 1611000    90.934573   -6774.6086    -6540.685   -6774.6086            0    1729.0742    23.129076     21.41234     21.74963    10771.453    2437.5582     1309.769    1439.8955   -939.03948    652.83007    301.38008   -6269.0637 
 1612000    95.277719   -6784.9788   -6539.8827   -6784.9788            0    2054.3459    23.254896    21.283249    21.745871    10762.896    1261.4166    2205.0104    2696.6107    371.39029    605.73039    775.25609   -6217.4207 
 1613000    89.340235   -6767.5307   -6537.7084   -6767.5307            0    3033.0657    23.227553    21.325342    21.620768    10709.534    3943.4742    2105.7422    3049.9807    165.06383   -321.78594    171.09256   -6063.9812 
 1614000    90.078355   -6766.3582   -6534.6371   -6766.3582            0    1773.0485    23.209252    21.422962     21.63235    10755.841    2159.8883    1027.6735    2131.5837   -38.784658    514.27849    45.226238   -6256.5116 
 1615000    93.884171   -6778.2258   -6536.7145   -6778.2258            0     1390.491    23.251629      21.3578    21.717225    10784.853    1516.4713    1491.9927    1163.0091    243.47388   -15.146661    347.11172   -6318.0097 
 1616000    91.611695   -6794.0216   -6558.3561   -6794.0216            0    1338.0885    23.240706    21.325358    21.739245    10774.326    1081.8123    2315.7832    616.66993    526.59137    129.18284   -120.22359    -6348.099 
 1617000    88.970796   -6795.6499   -6566.7779   -6795.6499            0    1600.1589    23.102907    21.427361    21.740093    10762.092    2948.9737     1222.202    629.30092    42.246385   -299.59992   -120.22756   -6315.6265 
 1618000    90.591649   -6785.0292   -6551.9877   -6785.0292            0    1830.7491     23.28723    21.323259    21.640443    10745.771    1853.8924    1617.2361    2021.1187    434.71059    267.31411   -472.20679     -6265.08 
 1619000    93.966979   -6785.0423   -6543.3179   -6785.0423            0    1995.5511    23.260372    21.338712    21.652566    10747.173    1456.9903    1849.0752    2680.5878   -65.688977    643.39043    424.79988   -6230.5423 
 1620000     92.27345   -6782.3385   -6544.9707   -6782.3385            0     1414.245    23.168895    21.463267    21.663222    10772.691    1243.3624    802.95544    2196.4172   -441.36697   -76.795756    8.6826346   -6322.7806 
 1621000    91.143516   -6778.3717   -6543.9106   -6778.3717            0    991.67808    23.299617    21.296934    21.777276    10806.111     975.6857    1140.8759    858.47262   -357.17602    -1006.687    562.99501    -6387.626 
 1622000    98.764842   -6783.0337   -6528.9672   -6783.0337            0    1222.7219     23.19363    21.413182    21.732654     10793.51    1891.4101    1228.2039    548.55179   -203.91632   -26.259006   -562.58391   -6336.4958 
 1623000    92.030037   -6784.2661   -6547.5244   -6784.2661            0    1289.8501    23.234175    21.415728    21.665782     10780.39    2165.1372    975.86453    728.54862   -580.18035    361.01137    201.54661    -6344.733 
 1624000    91.352111   -6770.7969   -6535.7991   -6770.7969            0    902.23357    23.439956    21.323534    21.630938    10811.634   -340.84168    1325.1646    1722.3778    843.93633    505.01595    467.45943    -6393.538 
 1625000    95.346806   -6778.7943   -6533.5204   -6778.7943            0    346.79991    23.273542    21.467818    21.664209    10824.136    799.89009    376.26598   -135.75635   -599.42997   -339.90801   -810.41941    -6478.775 
 1626000    93.664135   -6784.0386   -6543.0933   -6784.0386            0    1268.7307    23.202348    21.395495    21.721433    10783.078    1492.8228    1040.6022    1272.7672   -291.03522    573.27154    -176.3116   -6343.5725 
 1627000    90.147009   -6776.0558   -6544.1581   -6776.0558            0    1551.0318    23.250106    21.375534    21.711335    10790.174    1725.0997     1578.878    1349.1178   -947.15106     -61.8638   -526.00838   -6300.0821 
 1628000    89.521542   -6771.8757   -6541.5869   -6771.8757            0    1929.4284    23.248342     21.41152    21.640847    10772.432    1574.6633    1920.4274    2293.1946    433.79524   -330.90176   -740.31986   -6238.4644 
 1629000    96.625176   -6773.8104   -6525.2481   -6773.8104            0    2061.2487    23.283031    21.390597    21.601723    10758.478    1588.8546    1786.9763    2807.9152     57.39455    4.1283693    163.50771   -6201.8353 
 1630000    86.711789    -6781.216   -6558.1552    -6781.216            0    2150.2132    23.254252     21.39907    21.593915     10745.55    2452.1212    1021.7038    2976.8146   -510.41742      727.071   -33.494078   -6221.1892 
 1631000    90.701381   -6789.6084   -6556.2846   -6789.6084            0    1661.5817    23.288169    21.405902    21.619114    10777.221    2449.2489    796.33104     1739.165   -514.30722   -405.91582   -277.15855    -6295.126 
 1632000     97.50653   -6782.8083   -6531.9787   -6782.8083            0    959.05498    23.236871    21.427783    21.694043    10801.781      1507.68   -8.1058953    1377.5908    367.37808   -660.69741    694.60746    -6380.896 
 1633000     94.69736   -6780.8847   -6537.2815   -6780.8847            0    1568.2911    23.164448    21.362502     21.78124    10778.459    1688.6208    1773.4326    1242.8199    -237.5728    27.089236    -248.9789   -6290.7575 
 1634000    92.468319   -6792.6517   -6554.7826   -6792.6517            0     1442.518    23.277166    21.341432    21.658279    10759.142    1308.3895    1454.3931    1564.7715    553.06373   -325.21496    675.03553   -6328.4356 
 1635000    89.870457   -6785.9274   -6554.7411   -6785.9274            0    1673.8066     23.24921    21.380792    21.650702    10762.272    1734.8641    1700.8449    1585.7107    43.985619    186.66895    190.64912   -6292.0259 
 1636000    96.803833   -6779.6197   -6530.5978   -6779.6197            0    1333.7639    23.247087    21.348066    21.711586    10775.034    1860.5521    1708.4669    432.27268    339.32153     138.5994    187.26839   -6321.0064 
 1637000      94.5572   -6788.5799   -6545.3372   -6788.5799            0    1191.5405    23.252876    21.304531    21.770139    10784.744    1456.3799    1629.7477    488.49385   -142.42542    323.72896    41.816077   -6357.9265 
 1638000    88.946076   -6781.0227   -6552.2144   -6781.0227            0    1104.2341    23.231776    21.423256    21.671595    10785.959    1596.0421    155.34347    1561.3169   -449.27249   -329.15438    559.94022   -6378.5159 
 1639000    91.683886   -6782.6247   -6546.7735   -6782.6247            0    1271.1405    23.301566    21.370179    21.637615    10774.637    943.50875    921.52435    1948.3884   -152.19372   -598.91211     1103.268   -6347.0302 
 1640000    91.892791   -6778.5942   -6542.2056   -6778.5942            0    1404.7489    23.262671    21.411575    21.640974    10779.162    1173.1761    1507.2126     1533.858   -340.82743   -136.49367    594.68478   -6321.3748 
 1641000    92.101184   -6787.0235   -6550.0988   -6787.0235            0    1073.9588    23.263352    21.316084    21.761855    10791.346    1024.1975      1462.19    735.48884    53.932776    358.67813    136.53711   -6381.0784 
 1642000    93.255437   -6781.1717   -6541.2777   -6781.1717            0    1193.0439    23.231454    21.270334    21.842105    10793.075     2379.733    1048.4121    150.98673   -263.24721    88.209281   -235.57802   -6353.4855 
 1643000    91.232028   -6776.0234   -6541.3346   -6776.0234            0    2839.6673    23.158075    21.393323    21.612456     10707.42    2465.6243    2754.2199    3299.1579    629.22061    275.28721    338.21708   -6097.9014 
 1644000    92.153898   -6779.6646   -6542.6043   -6779.6646            0    2345.3594    23.369966    21.265787     21.59704    10733.312    1959.4907    2730.4895    2346.0979   -229.97545    314.00906    115.99374    -6175.475 
 1645000    94.755558   -6772.5634   -6528.8105   -6772.5634            0    2133.6351    23.200973    21.416015    21.676043    10770.228     2398.099    1761.0148    2241.7917   -838.00094    206.57825    632.19568   -6193.6747 
 1646000    93.982012   -6787.2076   -6545.4446   -6787.2076            0    2012.7236    23.176628    21.373753    21.698275    10748.708    2253.6914    1609.4167    2175.0626    69.784551   -812.60035    27.496305   -6229.9324 
 1647000    90.673365   -6785.3137    -6552.062   -6785.3137            0    2336.8375    23.272385    21.274811    21.704614    10746.293    2086.6863    3073.7213    1850.1048   -960.87477    -177.3708   -345.48594   -6185.8243 
 1648000    87.840542     -6780.81   -6554.8456     -6780.81            0    1514.6274    23.166793    21.425809    21.680317      10761.4    2422.8636    1026.7651    1094.2536    193.79601   -55.905346    460.16849   -6317.1339 
 1649000    95.585382   -6774.9304   -6529.0428   -6774.9304            0     1484.522    23.271696    21.377358    21.689063    10790.035    1432.2037    873.68635    2147.6758   -120.91869    642.17402   -178.75771   -6295.4361 
 1650000    89.581189    -6778.617   -6548.1748    -6778.617            0    1899.8408    23.318306    21.272664    21.696674    10762.472    1831.0245    1665.9931    2202.5048    118.99982   -290.17877    563.90287   -6249.9765 
 1651000    93.016069   -6770.4704   -6531.1922   -6770.4704            0    1694.3936    23.095399    21.460987    21.745732    10778.273    2145.9481    1442.2167     1495.016    200.90675    26.448079    550.49045   -6264.8504 
 1652000    89.561299    -6783.064    -6552.673    -6783.064            0    1181.3016    23.260784    21.381592    21.709978    10797.514    1263.9956    1089.8539    1190.0555   -1007.0978    605.06908   -681.29899   -6366.6526 
 1653000    97.353234   -6781.0669   -6530.6316   -6781.0669            0    1717.5957    23.326132    21.370996    21.594479    10764.906    1724.3434    1431.2367    1997.2069   -406.68281   -492.85292    692.50651   -6260.9775 
 1654000    91.441701   -6775.8797   -6540.6515   -6775.8797            0     2054.747     23.15279    21.506921    21.562621    10737.004    2392.3098    1741.4231    2030.5081    608.70956   -207.01773   -358.46578   -6218.9024 
 1655000    88.087159    -6779.911   -6553.3121    -6779.911            0    1593.9072    23.339073    21.271907    21.722501    10784.496    661.93755    2732.6773    1387.1069    -391.0297    437.19607   -628.11959   -6302.6211 
 1656000     90.50185   -6795.4972   -6562.6867   -6795.4972            0    2414.2565    23.138639    21.338685    21.748117    10738.092    2646.8264    2128.2566    2467.6864   -242.67972    175.08524   -219.16496   -6184.6043 
 1657000    91.526792   -6784.6874   -6549.2403   -6784.6874            0    1610.0931    23.175334     21.41466    21.703227    10771.136    1824.3578    1005.1334    2000.7879    184.11951   -17.478554    -195.9703   -6296.3173 
 1658000    89.422648   -6780.6768   -6550.6425   -6780.6768            0    1432.3019    23.420711    21.313886    21.587311    10776.091     1013.059    1652.0573    1631.7895   -355.97111   -4.9071036    271.36068   -6325.5444 
 1659000    93.300531   -6779.4507   -6539.4407   -6779.4507            0    1685.3423    23.214316    21.435889    21.628401    10762.714    1761.9337    1321.0043    1973.0887   -420.51506    21.010022    136.24023   -6274.9041 
 1660000    92.463369   -6782.2314   -6544.3751   -6782.2314            0    1217.9093    23.150824    21.362747    21.836936    10799.788    1593.3128    1518.8121    541.60306   -169.01241   -277.77084   -417.66357   -6352.5497 
 1661000    91.176593   -6791.8855   -6557.3392   -6791.8855            0    1116.8931     23.36392    21.265058    21.737381    10799.894    287.73432    1908.3694    1154.5757    356.54738    -7.614589   -333.02159   -6381.4226 
 1662000    96.546087   -6791.9054   -6543.5464   -6791.9054            0    1047.2424    23.225702    21.452996    21.639063    10781.899    1552.0118    520.49573    1069.2196   -416.20423    -256.4903   -83.352749    -6378.875 
 1663000    93.054624   -6783.3758   -6543.9984   -6783.3758            0    729.83881    23.314291    21.357852    21.708633    10809.665    563.87851    1033.3401     592.2978   -28.944075    823.91724   -61.196528   -6428.9409 
 1664000    92.468098   -6790.3599   -6552.4914   -6790.3599            0    1659.6869    23.286856    21.223545    21.795163    10771.816    1491.9993     2250.637    1236.4243   -192.72717    61.695426    96.310169   -6291.7614 
 1665000    94.184617   -6782.9071   -6540.6229   -6782.9071            0    1655.8971    23.059805    21.493304     21.72226    10766.234    2106.9776    1143.2397    1717.4741     475.9288    48.651852    2.8993202   -6280.6231 
 1666000    93.174903   -6770.4757   -6530.7889   -6770.4757            0    1544.5396    23.347178    21.326955    21.701261    10805.583    1417.2307    742.60404    2473.7841    -628.7138    243.71793    -57.40848   -6287.3875 
 1667000    94.060149   -6786.5611   -6544.5971   -6786.5611            0    2710.6358    23.158363    21.393934    21.606438    10704.877    2680.3037    3135.7235    2315.8801     223.4261    -10.71283    43.763983   -6121.4136 
 1668000    96.561296   -6782.0562   -6533.6581   -6782.0562            0    1156.4673    23.237919    21.498836    21.600721    10791.465    1628.9577   -112.98095    1953.4253    -328.5137   -875.22148    625.38867   -6351.6504 
 1669000    99.220762   -6777.2529   -6522.0135   -6777.2529            0    1021.4184    23.375372    21.291627    21.685198    10792.717    437.54681    1197.3305    1429.3779     233.8771    44.033426   -57.258597   -6361.2415 
 1670000    90.784879   -6776.5665    -6543.028   -6776.5665            0    1487.0958     23.12045     21.45001     21.72777    10775.537    2560.9393    843.73562    1056.6123    284.50541    444.76256   -926.85289   -6309.3306 
 1671000    94.469537   -6785.2751    -6542.258   -6785.2751            0    1326.1445     23.25974    21.310373    21.780317    10795.931     1741.296    1445.0778    792.05961     -342.136   -139.64646    3.1228277   -6333.4597 
 1672000    92.365116    -6777.898   -6540.2944    -6777.898            0    2139.0867    23.313746    21.372403    21.565408    10745.412    1171.4597    2399.6041    2846.1965   -161.11218    98.687855    51.061474   -6205.0764 
 1673000    89.749832   -6779.7456   -6548.8697   -6779.7456            0    1711.7127    23.235604    21.445574    21.616016    10771.279    1659.2174    1752.6905    1723.2302    219.65442   -355.79344   -8.8755368     -6279.98 
 1674000    89.295056   -6784.0888   -6554.3827   -6784.0888            0    1443.7179    23.299747    21.272412    21.761393    10785.857    1082.0437    2014.7014    1234.4087   -504.14653    637.34232     175.5941   -6327.2849 
 1675000     91.31797   -6775.3427   -6540.4328   -6775.3427            0    1063.7161    23.133393    21.388152    21.830901    10801.505    1486.2163    1030.3508    674.58137    394.08982   -142.69605    581.94895   -6372.8668 
 1676000    91.325223   -6784.4094   -6549.4808   -6784.4094            0    712.05681    23.263687    21.411862    21.678819    10798.628    787.37834    1037.9881    310.80395    38.857188    155.97214   -247.00404   -6437.3412 
 1677000    97.091877   -6774.4875   -6524.7246   -6774.4875            0    1657.4247      23.4429    21.334306    21.520874    10763.407     740.0621    1287.3821    2944.8298   -397.12769    559.14302    224.94993   -6264.5533 
 1678000    94.541799   -6780.7152   -6537.5122   -6780.7152            0    1432.0289    23.195632    21.442109    21.663542     10774.65    2016.3289    1321.2352    958.52267   -616.38813   -172.72144   -318.55688   -6312.4871 
 1679000    91.204767    -6775.408   -6540.7893    -6775.408            0    1285.5722    23.195146    21.370034    21.793725    10802.736    1124.7197    2086.3487     645.6483   -520.04878   -52.770798   -507.96347   -6338.2515 
 1680000    91.629179   -6775.1306   -6539.4201   -6775.1306            0    2230.0387    23.226077    21.288487    21.767516    10762.906     2641.467    2354.9361    1693.7129   -449.27329   -734.78223    41.952031     -6189.38 
 1681000    91.092823   -6778.8021   -6544.4713   -6778.8021            0    2086.3526    23.221694    21.386258    21.625783    10739.907    2044.5066    1909.3893    2305.1619    224.28613    401.09176   -90.736001   -6217.6848 
 1682000      93.8014   -6775.8767   -6534.5784   -6775.8767            0    1769.6144     23.31972    21.406801     21.58416    10774.826    1095.5334    1263.0212    2950.2886   -817.28594     615.8797     65.73248   -6256.5015 
 1683000    91.841283   -6788.1627   -6551.9066   -6788.1627            0    2220.6123    23.246015    21.427733     21.58526    10751.821    2097.2247    2446.2339    2118.3784     135.4936   -297.90333   -457.14039    -6203.705 
 1684000    91.086129   -6785.0588   -6550.7452   -6785.0588            0    1880.0687     23.15215    21.364319    21.746854    10756.645    2355.0693    1899.7137    1385.4232   -628.48778    -4.700002   -437.80703   -6255.8102 
 1685000    93.667239   -6775.2035   -6534.2502   -6775.2035            0    1214.1016    23.201929    21.379527    21.758088    10793.018     1891.265    1134.2301    616.80991    48.370102   -599.18764    188.65393   -6343.1444 
 1686000    93.441944   -6773.4451   -6533.0714   -6773.4451            0    1471.2831    23.227805    21.424291    21.703232     10800.38     1805.865    1199.3196    1408.6645   -460.03213    -70.64244    92.817209   -6301.3259 
 1687000    92.990374   -6794.6658   -6555.4538   -6794.6658            0    2284.3421    23.354179    21.248295    21.608322    10722.838    1880.9954    2282.5473    2689.4837   -80.641552   -737.90583    554.12729   -6198.2247 
 1688000    94.557725   -6774.6307   -6531.3867   -6774.6307            0    1752.2837    23.175528    21.449317    21.680474    10777.347    2626.5221    1336.4078    1293.9213    22.732889    83.049254   -47.938364   -6255.9688 
 1689000    91.096451   -6793.1999   -6558.8598   -6793.1999            0    1255.8577    23.259634    21.343333    21.684762    10765.142    1240.6829    1338.9778    1187.9123    128.16984   -607.12865   -295.60808   -6361.6919 
 1690000    100.58379   -6781.1925   -6522.4469   -6781.1925            0    834.03147    23.332205    21.311521    21.721502    10800.904    384.91178    729.89647    1387.2861   -42.031361   -192.22396    257.22351   -6391.0702 
 1691000     97.38201   -6780.1742   -6529.6649   -6780.1742            0    2264.3285    23.100612    21.444674    21.670459    10735.223    2504.9472    2340.5114    1947.5269    1376.8749    83.254322   -173.70475   -6175.1566 
 1692000    93.684014   -6778.4579   -6537.4614   -6778.4579            0    1519.9848    23.292089    21.303687    21.700958    10768.176    1322.8857    1734.1936    1502.8752    153.50433     -195.095    60.624304   -6298.7588 
 1693000    94.014582   -6788.6682   -6546.8215   -6788.6682            0     1734.908    23.157777    21.425872    21.698471    10766.251    2323.2243    941.74944    1939.7504   -108.45701   -622.46832    60.526866   -6274.4153 
 1694000    94.648145   -6783.3759   -6539.8993   -6783.3759            0    2656.6189    23.177364    21.336727    21.695493    10729.053    2463.5152    2508.7273    2997.6144    1038.3819   -1123.0637   -364.13298   -6124.2122 
 1695000    92.376956   -6773.3921    -6535.758   -6773.3921            0    2053.7366    23.311328    21.303787    21.629991    10741.877    1033.0014    2339.4528    2788.7555    539.49983     58.84774   -233.26754   -6214.0212 
 1696000    95.440615    -6793.127   -6547.6118    -6793.127            0    1707.9667    23.215842    21.473629    21.581033    10758.757    2221.6409     1048.715    1853.5443   -15.242214   -102.69694   -332.54728   -6279.6225 
 1697000    92.805241   -6780.2504   -6541.5146   -6780.2504            0    1820.8763    23.293167    21.364889    21.640933    10769.739    1593.2364    1311.3643    2558.0282    65.225051    434.38754     802.7249   -6255.5176 
 1698000    94.634355   -6779.8282   -6536.3871   -6779.8282            0    1911.6627     23.21407    21.328946    21.741217    10764.765    2461.8472    2458.7521    814.38886    333.74873   -162.06823   -981.91117   -6236.2693 
 1699000    92.965065    -6773.704    -6534.557    -6773.704            0    1758.8584    23.176455    21.393615    21.721281    10770.022    2505.7915    1615.2928    1155.4911   -10.081221    252.70515   -380.89426   -6258.2936 
 1700000    91.349031   -6782.8942   -6547.9044   -6782.8942            0    1502.6901    23.435146    21.243887    21.625237    10766.202    1193.7293    2224.9964    1089.3445   -26.159015     76.78623    38.685961    -6311.961 
 1701000    95.241194   -6786.9337   -6541.9316   -6786.9337            0     1794.616    23.181271    21.465471    21.611363    10753.748    2022.6846    1184.8791    2176.2844    211.87602   -4.7062799   -31.578164   -6260.4777 
 1702000    93.210781   -6782.6832   -6542.9041   -6782.6832            0    2263.6293    23.227569    21.337959    21.655993    10733.336    2485.7518    2266.9713    2038.1647   -474.69983   -261.48536    597.21392   -6188.5676 
 1703000    85.598949   -6780.3923   -6560.1942   -6780.3923            0    1869.7679    23.220859    21.264998    21.820947    10774.998    1507.3085     2445.418    1656.5772   -489.88004    165.87296    645.27636   -6266.3746 
 1704000    91.107015   -6782.2443    -6547.877   -6782.2443            0    1276.0646    23.193365    21.467777    21.678796    10794.089    1552.0489    732.16947    1543.9754      524.704   -104.79148    391.19472    -6346.998 
 1705000    94.960133   -6793.5336   -6549.2544   -6793.5336            0    1654.3485    23.331386    21.327664    21.601351    10748.918     1487.739    1840.7786    1634.5279   -536.01249    62.386661    -140.0482   -6289.9155 
 1706000    91.317458   -6790.3088   -6555.4002   -6790.3088            0    1336.3392      23.3083    21.325132    21.700649    10786.364    894.18885    1797.0609    1317.7679    60.861993    586.46847    12.280067   -6345.1833 
 1707000     88.32085   -6779.2053   -6552.0052   -6779.2053            0    1359.7111    23.152211    21.444104    21.715649    10781.352    1826.1093    919.84932    1333.1748   -524.69566    411.43007   -240.04884   -6338.2111 
 1708000    93.114475   -6781.0332   -6541.5019   -6781.0332            0    1089.6224    23.366562    21.297013    21.706067    10801.763    774.39786    1022.9205    1471.5489   -18.179097   -139.69184    488.31452   -6369.8508 
 1709000    91.657878   -6772.3478   -6536.5635   -6772.3478            0    1670.9366    23.180983    21.415768    21.682894    10764.224    2114.7953    1706.7596     1191.255   -308.59334   -174.71687    59.941541   -6274.2512 
 1710000    94.874219   -6789.0589   -6545.0007   -6789.0589            0     1138.502    23.276974    21.407982    21.646159    10786.563    724.23536    673.90351     2017.367   -257.95867    965.67426    1039.1203   -6365.9019 
 1711000    93.249961     -6777.55   -6537.6702     -6777.55            0    678.25889    23.421361    21.278024    21.713077    10820.935   -93.469063    1640.2491     487.9966   -100.04377    55.326858   -112.36986   -6430.6326 
 1712000    94.578559   -6794.5857   -6551.2881   -6794.5857            0    1620.0299    23.103032    21.440213    21.739788    10768.455    2410.0373    1255.9289    1194.1236     264.2407   -76.302263     429.9453   -6296.8675 
 1713000    93.118964   -6786.1169   -6546.5741   -6786.1169            0    1239.6688    23.255304    21.371002     21.69696    10783.154    1027.5971    1016.1296    1675.2799   -20.473321    477.68152    79.759682   -6351.6222 
 1714000    94.107368   -6785.0211   -6542.9356   -6785.0211            0    829.52814    23.429704    21.302124    21.623827    10792.505    134.84208    1202.2597    1151.4827     153.3891   -117.79636    576.38092   -6412.3699 
 1715000    88.164888   -6786.0094   -6559.2106   -6786.0094            0    1211.1216    23.173295    21.483207     21.63491    10770.652    550.39606    2023.7568    1059.2119    457.29827   -121.64339   -50.459299   -6368.9689 
 1716000    93.957669   -6786.0284    -6544.328   -6786.0284            0    2030.0585    23.248818    21.270081    21.740904    10750.969     2174.024    2166.4753    1749.6762   -818.90146   -117.56737     133.6996   -6226.0314 
 1717000    95.295559   -6790.4997   -6545.3577   -6790.4997            0     1939.459    23.124065    21.367985    21.782051    10762.831    2224.4947    2104.1953    1489.6869    288.74878     294.8626    355.01585   -6240.9308 
 1718000     94.46063   -6776.5224   -6533.5282   -6776.5224            0    2124.6508    23.244354    21.364693    21.635331    10744.289    1646.3764    3077.1761    1650.3999    825.91629     240.0607    304.58592   -6200.6073 
 1719000    93.488815   -6787.3346   -6546.8403   -6787.3346            0    1928.7639    23.283838     21.25725    21.709896    10745.321    1626.6033    2114.4477    2045.2406   -381.49122    342.42404    881.41184   -6244.5847 
 1720000    90.302675      -6788.8   -6556.5019      -6788.8            0    1392.9857    23.156782    21.346191     21.78281    10767.441    1129.6752     1836.236    1213.0458    442.78094    597.65385    758.13046   -6337.7584 
 1721000    93.938156   -6789.3256   -6547.6754   -6789.3256            0    1668.5009    23.182554    21.335225    21.764771    10764.965    2088.3576    1608.7832    1308.3621   -225.28628   -742.41624    677.83537   -6285.7275 
 1722000    92.322748   -6788.2473   -6550.7526   -6788.2473            0    1925.4826    23.182512    21.325341    21.711363    10733.554    2038.8821    2041.8537    1695.7119   -389.98406     498.8566    330.63182   -6249.3417 
 1723000    91.431524   -6785.1711   -6549.9691   -6785.1711            0    1558.4197    23.289701    21.338935    21.619972    10744.638    840.21602    1905.1636    1929.8796   -437.22885    585.42256    459.18685   -6305.7655 
 1724000    95.193675   -6775.8767   -6530.9968   -6775.8767            0    1150.4739    23.280691    21.413756    21.633819    10785.044    467.33982    1590.9584    1393.1234    940.27057    118.04743   -271.20307   -6350.0401 
 1725000    91.503176   -6785.1722   -6549.7858   -6785.1722            0    1047.2191    23.274925    21.347873    21.725434    10794.719    1767.4703  -0.76515833    1374.9523    260.02674   -807.05409   -274.37892   -6384.9222 
 1726000    92.118494   -6778.4818   -6541.5125   -6778.4818            0    2064.2046    23.068428    21.432155    21.749547    10753.109    2385.0222    1500.6332    2306.9582   -183.67327    863.53192    95.047006   -6217.7977 
 1727000    98.015694   -6775.6304    -6523.491   -6775.6304            0     1517.113    23.273553    21.344315    21.712155    10785.688      1078.67    1767.3311     1705.338   -1014.4062    848.00561    57.437392   -6284.8519 
 1728000    95.214861   -6772.7745   -6527.8401   -6772.7745            0    1336.8328     23.29105    21.424927    21.602712    10779.948    866.46596    1634.0991    1509.9334    316.08517   -849.65834    674.18251   -6317.6706 
 1729000    91.158393   -6769.1656   -6534.6661   -6769.1656            0    2499.9169    23.224902    21.402822    21.581957    10727.926    2666.0176    1868.4287    2965.3045    412.56715   -873.66884    340.16358   -6143.5397 
 1730000    91.420462   -6765.2723   -6530.0987   -6765.2723            0    1583.6171     23.24501    21.313296    21.760261    10780.638    1768.6353    1707.3352    1274.8809   -405.66374   -135.20754   -95.359618   -6281.1153 
 1731000    95.473417   -6779.4091   -6533.8095   -6779.4091            0    1530.9534    23.188929    21.375509    21.761458    10786.614    1488.4125    2228.9423    875.50548    577.28538    255.08411   -160.15729   -6292.9726 
 1732000    95.166151   -6779.2332   -6534.4241   -6779.2332            0     2523.888    23.203384    21.341985    21.672316    10732.267    2779.8984    2485.6172    2306.1485    1379.0665   -211.12236   -526.82604   -6139.3874 
 1733000    90.921719   -6782.7238   -6548.8332   -6782.7238            0    1863.0868    23.291768    21.346192    21.669385    10773.814    1937.8971    1632.1997    2019.1635   -1055.2225    20.758733   -121.58391   -6256.0956 
 1734000    93.826606   -6783.9924   -6542.6292   -6783.9924            0    1719.5763    23.190426    21.419968    21.636405    10747.629    2085.0047    1279.9092    1793.8151   -122.11404   -495.94445   -306.65266   -6273.0974 
 1735000    93.505181   -6785.4304    -6544.894   -6785.4304            0    1956.6641    23.382248    21.297936    21.610444    10761.863    876.69206    2521.9187    2471.3815   -24.760474   -546.86434   -168.29935   -6237.7941 
 1736000    90.949791   -6781.5623   -6547.5995   -6781.5623            0    1551.8971    23.247997    21.448622    21.613409    10777.257    1724.9699    862.82711    2067.8943   -169.11673   -853.08942   -256.13112   -6303.6798 
 1737000    88.785936   -6780.4914    -6552.095   -6780.4914            0    2160.2742    23.258826    21.342453     21.66565    10754.838    2552.5302      1902.57    2025.7225   -335.28134   -706.46016   -983.20417   -6213.2597 
 1738000    93.900874   -6772.4685   -6530.9142   -6772.4685            0    832.20206    23.291426    21.477568    21.608534    10809.522    1019.2793    241.22598    1236.1009    27.937873    -277.0181    96.971968   -6399.7211 
 1739000    93.608651   -6786.1402   -6545.3376   -6786.1402            0    1367.2997    23.343162    21.426699    21.555078    10781.136    1186.0618      1014.03    1901.8072   -560.36841   -127.34825   -570.55055   -6330.3546 
 1740000    94.073081   -6780.2043   -6538.2071   -6780.2043            0    1754.6094    23.355071    21.319205    21.643771    10776.684    1365.9958    2380.1803    1517.6523    389.75621    229.80622    -896.3858   -6262.4406 
 1741000    92.405399   -6784.4264   -6546.7191   -6784.4264            0    1361.1432    23.157232     21.42969    21.761734     10799.31     2185.985     915.0002    982.44456   -557.32512   -502.23805    -387.4974   -6332.3433 
 1742000      91.1304   -6784.1531   -6549.7257   -6784.1531            0    1644.8205      23.2453    21.392596    21.703704     10792.76    1390.6009     1858.121    1685.7395   -564.69017    399.78445   -608.66705   -6290.8288 
 1743000    93.370093   -6778.0501   -6537.8612   -6778.0501            0    1714.6665    23.311974    21.392246    21.591877    10767.772     1626.178    513.35895    3004.4625   -480.64944     228.3824    66.361297   -6268.5953 
 1744000    92.243214   -6776.8373   -6539.5473   -6776.8373            0    1449.5064    23.338981     21.49172    21.467859    10768.168    1713.5583    895.33553    1739.6254    -338.7595   -88.923763   -436.12083   -6311.9129 
 1745000    98.921745    -6780.419   -6525.9488    -6780.419            0     1428.853    23.270751    21.359352    21.709073    10790.455     1016.119    1196.8749     2073.565   -232.32105    260.78692   -507.97339   -6301.0935 
 1746000     90.15441   -6781.9475   -6550.0308   -6781.9475            0    1708.6958    23.218923    21.327931    21.744851    10768.302    1192.3283    2092.2057    1841.5535    1000.3168    239.56535   -41.378517   -6281.6893 
 1747000    90.611626   -6773.5146   -6540.4218   -6773.5146            0    2083.9098    23.137435    21.440785    21.695207    10762.661    2184.2143    1876.4241     2191.091    343.75044    824.91728    497.23645   -6213.3263 
 1748000    95.706722   -6785.3704   -6539.1707   -6785.3704            0    2052.7357    23.323819    21.322579    21.644703    10764.429    1111.6108    1603.9043     3442.692   -178.23013    85.490658    834.33305   -6216.9155 
 1749000    92.667692   -6785.9952   -6547.6132   -6785.9952            0    2483.9057    23.225704    21.409421    21.554393    10717.898    2241.4315    2624.7603    2585.5252    147.85452    74.592008   -151.66943    -6159.355 
 1750000    97.477974   -6771.9859   -6521.2297   -6771.9859            0    2063.9572    23.234864    21.410394     21.65188    10771.109    1823.9117     1850.908    2517.0519   -285.63631    45.037291    188.01005   -6197.0118 
Loop time of 527.946 on 64 procs for 250000 steps with 1296 atoms

Performance: 81.827 ns/day, 0.293 hours/ns, 473.534 timesteps/s
99.1% CPU use with 64 MPI tasks x 1 OpenMP threads

MPI task timing breakdown:
Section |  min time  |  avg time  |  max time  |%varavg| %total
---------------------------------------------------------------
Pair    | 29.056     | 40.502     | 52.376     | 116.2 |  7.67
Bond    | 0.281      | 0.28994    | 0.30398    |   0.7 |  0.05
Kspace  | 265.46     | 277.54     | 289.29     |  44.5 | 52.57
Neigh   | 1.2404     | 1.2688     | 1.2941     |   1.2 |  0.24
Comm    | 90.138     | 91.179     | 92.475     |   6.0 | 17.27
Output  | 0.72753    | 0.72896    | 0.7309     |   0.1 |  0.14
Modify  | 104.23     | 105.41     | 107.85     |   6.4 | 19.97
Other   |            | 11.02      |            |       |  2.09

Nlocal:        20.2500 ave          27 max          14 min
Histogram: 6 8 7 7 1 5 14 11 3 2
Nghost:        2600.92 ave        2625 max        2570 min
Histogram: 2 5 3 7 7 8 9 10 11 2
Neighs:        6483.98 ave        8614 max        4459 min
Histogram: 6 8 7 4 4 5 10 15 3 2

Total # of neighbors = 414975
Ave neighs/atom = 320.19676
Ave special neighs/atom = 2.0000000
Neighbor list builds = 2293
Dangerous builds = 0

unfix		3
unfix		2
unfix		1

write_data	data.final.${pid}
write_data	data.final.0
System init for write_data ...
PPPM initialization ...
  extracting TIP4P info from pair style
  using 12-bit tables for long-range coulomb (../kspace.cpp:340)
  G vector (1/distance) = 0.36695637
  grid = 30 40 32
  stencil order = 5
  estimated absolute RMS force accuracy = 0.0046268789
  estimated relative force accuracy = 1.3933708e-05
  using double precision FFTW3
  3d grid and FFT values/proc = 5168 640
Last active /omp style is kspace_style pppm/tip4p/omp
WARNING: Not all mixed pair coeffs generated from mixing. Use write_data with 'pair ij' option to store all pair coeffs. (../write_data.cpp:312)

write_restart   restart.lmp.${pid}
write_restart   restart.lmp.0
System init for write_restart ...
PPPM initialization ...
  extracting TIP4P info from pair style
  using 12-bit tables for long-range coulomb (../kspace.cpp:340)
  G vector (1/distance) = 0.36695637
  grid = 30 40 32
  stencil order = 5
  estimated absolute RMS force accuracy = 0.0046268789
  estimated relative force accuracy = 1.3933708e-05
  using double precision FFTW3
  3d grid and FFT values/proc = 5168 640
Last active /omp style is kspace_style pppm/tip4p/omp
Total wall time: 0:08:48
