LAMMPS (30 Jul 2021)
Processor partition = 1
  using 1 OpenMP thread(s) per MPI task
using multi-threaded neighbor list subroutines
variable        pid world 0 1
variable        phase world IceII IceIII

shell cd ${phase}
shell cd IceIII
include Restart.lmp
echo both
log log.lammps
#include		in.partitions
include		in.temp
variable        temperature equal 92.84
variable	tempDamp equal 100.0
include		in.pressure
variable        pressure equal 1668.8
variable        pressureDamp equal 1000.0 # This is 1 ps
include		in.seed
variable        seed equal 745823

units		real
atom_style	full

read_restart	restart.lmp.${pid}
read_restart	restart.lmp.1
Reading restart file ...
  restart file = 30 Jul 2021, LAMMPS = 30 Jul 2021
  restoring atom style full from restart
  orthogonal box = (0.036283722 0.030106528 -0.071536616) to (19.963717 19.969894 20.771535)
  4 by 4 by 4 MPI processor grid
  restoring pair style lj/cut/tip4p/long/omp from restart
  restoring bond style harmonic/omp from restart
  restoring angle style harmonic/omp from restart
  972 atoms
  648 bonds
  324 angles
Finding 1-2 1-3 1-4 neighbors ...
  special bond factors lj:    0        0        0       
  special bond factors coul:  0        0        0       
     2 = max # of 1-2 neighbors
     1 = max # of 1-3 neighbors
     1 = max # of 1-4 neighbors
     2 = max # of special neighbors
  special bonds CPU = 0.005 seconds
  read_restart CPU = 0.016 seconds
include 	in.setup
variable	out_freq equal 1000
variable	out_freq2 equal 10000
variable	out_freq3 equal 1000

timestep	2.0

neigh_modify    delay 7 every 1

include		in.tip4p
# This is TIP4P/Ice

# create groups ###
group ox type 2
324 atoms in group ox
group hy type 1
648 atoms in group hy

# set charges - beside manually ###
set group ox charge -1.1794
Setting atom values ...
  324 settings made for charge
set group hy charge 0.5897
Setting atom values ...
  648 settings made for charge

# ### TIP3P Potential Parameters ###
pair_style lj/cut/tip4p/long/omp 2 1 1 1 0.1577 8.5
pair_coeff 1 1*2 0.000 0.000
pair_coeff 2 2 0.21084 3.1668
bond_style  harmonic
bond_coeff  1 450 0.9572
angle_style harmonic
angle_coeff 1 55 104.52
kspace_style pppm/tip4p/omp 1.0e-5
pair_modify tail yes

thermo          ${out_freq}
thermo          1000
thermo_style    custom step temp pe etotal epair emol press lx ly lz vol pxx pyy pzz pxy pxz pyz enthalpy

restart 	${out_freq3} restart.lmp.${pid} restart2.lmp.${pid}
restart 	1000 restart.lmp.${pid} restart2.lmp.${pid}
restart 	1000 restart.lmp.1 restart2.lmp.${pid}
restart 	1000 restart.lmp.1 restart2.lmp.1


include         in.dump
dump            myDump all atom ${out_freq2} dump.water.${pid}
dump            myDump all atom 10000 dump.water.${pid}
dump            myDump all atom 10000 dump.water.1
dump            myDump2 all dcd ${out_freq2} dump.dcd
dump            myDump2 all dcd 10000 dump.dcd
dump_modify     myDump append yes
dump_modify     myDump2 append yes


variable natoms 	equal  "count(all)"                        # NUMBER ATOMS
variable H      	equal  "enthalpy/v_natoms"                 # ENTHALPY-per-atom
variable Vol      	equal  "vol/v_natoms"                 # volume-per-atom
fix AVG all 		ave/time ${out_freq} 1 ${out_freq} v_Vol v_H file vol_enthalpy.dat
fix AVG all 		ave/time 1000 1 ${out_freq} v_Vol v_H file vol_enthalpy.dat
fix AVG all 		ave/time 1000 1 1000 v_Vol v_H file vol_enthalpy.dat


timer           timeout 02:55:00 every 1000
New timer settings: style=normal  mode=nosync  timeout=02:55:00

fix 		1 all shake 1e-6 200 0 b 1 a 1
Finding SHAKE clusters ...
       0 = # of size 2 clusters
       0 = # of size 3 clusters
       0 = # of size 4 clusters
     324 = # of frozen angles
  find clusters CPU = 0.004 seconds
fix             2 all nph aniso ${pressure} ${pressure} ${pressureDamp}
fix             2 all nph aniso 1668.8 ${pressure} ${pressureDamp}
fix             2 all nph aniso 1668.8 1668.8 ${pressureDamp}
fix             2 all nph aniso 1668.8 1668.8 1000
fix             3 all temp/csvr ${temperature} ${temperature} ${tempDamp} ${seed}
fix             3 all temp/csvr 92.84 ${temperature} ${tempDamp} ${seed}
fix             3 all temp/csvr 92.84 92.84 ${tempDamp} ${seed}
fix             3 all temp/csvr 92.84 92.84 100 ${seed}
fix             3 all temp/csvr 92.84 92.84 100 745823


run             250000
PPPM initialization ...
  extracting TIP4P info from pair style
  using 12-bit tables for long-range coulomb (../kspace.cpp:340)
  G vector (1/distance) = 0.37252809
  grid = 24 24 25
  stencil order = 5
  estimated absolute RMS force accuracy = 0.003392545
  estimated relative force accuracy = 1.0216548e-05
  using double precision FFTW3
  3d grid and FFT values/proc = 2366 288
Last active /omp style is kspace_style pppm/tip4p/omp
Neighbor list info ...
  update every 1 steps, delay 7 steps, check yes
  max neighbors/atom: 2000, page size: 100000
  master list distance cutoff = 10.8154
  ghost atom cutoff = 10.8154
  binsize = 5.4077, bins = 4 4 4
  1 neighbor lists, perpetual/occasional/extra = 1 0 0
  (1) pair lj/cut/tip4p/long/omp, perpetual
      attributes: half, newton on, omp
      pair build: half/bin/newton/omp
      stencil: half/bin/3d
      bin: standard
Setting up Verlet run ...
  Unit style    : real
  Current step  : 1500000
  Time step     : 2
  Walltime left : 2:54:59.92
Per MPI rank memory allocation (min/avg/max) = 9.229 | 9.232 | 9.239 Mbytes
Step Temp PotEng TotEng E_pair E_mol Press Lx Ly Lz Volume Pxx Pyy Pzz Pxy Pxz Pyz Enthalpy 
 1500000    98.737879      -5054.4   -4863.9757      -5054.4            0     2229.352    19.927434    19.939788    20.843071    8281.9693    1815.0823     2398.198    2474.7758   -234.28759    101.57646   -484.77155   -4594.7055 
 1501000    92.399094    -5069.422   -4891.2225    -5069.422            0    1502.5341    20.090771    19.978657    20.790123    8344.8769    152.24774    2476.4194     1878.935     118.9379     485.6263    80.961795   -4708.3619 
 1502000    91.870742   -5066.1496   -4888.9691   -5066.1496            0    839.15992    20.048362    20.021241    20.757143    8331.7739    178.04226    658.83328    1680.6042     33.25427   -146.37907    793.04941   -4787.0025 
 1503000    90.104433   -5067.4842   -4893.7102   -5067.4842            0    909.62401    20.080795    19.939103    20.795765    8326.4796    1045.7206    610.81921    1072.3323    204.96058     -195.149   -114.66238   -4783.2517 
 1504000    90.466428   -5075.8192   -4901.3471   -5075.8192            0    996.54289    20.055484     20.01015    20.750318    8327.3777    1185.2335    26.512428    1777.8828   -240.22792    347.46659    99.768605   -4780.3206 
 1505000    89.668594   -5061.7033   -4888.7699   -5061.7033            0    1989.8221    20.010385    20.079676    20.621687    8285.8358     2782.224    1319.7121    1867.5301    213.21986    396.61971    223.13811    -4648.319 
 1506000    93.928229    -5061.116   -4879.9675    -5061.116            0    2508.4611    20.063581    19.810955     20.73858    8243.1437    1922.5901    2941.3063     2661.487   -211.07187   -614.28536   -104.00675   -4578.4059 
 1507000    94.260958   -5068.5362    -4886.746   -5068.5362            0    765.95918     20.05992    20.064454    20.556784    8273.9275     171.0377    524.05034    1602.7895   -60.950953     257.2022   -425.37839   -4794.3202 
 1508000    92.582273   -5062.5029   -4883.9502   -5062.5029            0    2875.6387    19.981573    19.909974    20.781978    8267.7484    3066.9598    3152.2721    2407.6842   -223.32128    10.961354   -388.86633   -4537.2154 
 1509000    94.575568   -5057.8551   -4875.4582   -5057.8551            0    2308.3621    19.877282    19.951531    20.780042    8240.9952    3568.2001    1221.2443     2135.642    111.54459   -847.48561   -91.295891   -4598.0243 
 1510000    95.627015   -5069.0789   -4884.6542   -5069.0789            0     782.9321     19.96345     20.12487    20.788252    8351.9263    1108.2797    163.10652    1077.4101   -37.417113   -163.42707   -312.07505   -4789.2897 
 1511000    96.194194   -5073.5822   -4888.0636   -5073.5822            0     2272.949    20.020453    19.762426     20.87249    8258.2572    1710.6355    2668.1997    2440.0118   -284.92375   -56.345978   -1087.9858   -4614.3137 
 1512000    93.109308   -5051.0816   -4871.5125   -5051.0816            0    1607.4421    19.923937    20.010478    20.814907    8298.6434    604.26596    2497.3261    1720.7342    -14.98877    40.737027    749.74602   -4676.9683 
 1513000    95.062889   -5055.0495   -4871.7127   -5055.0495            0      1340.92    20.079047    19.899997    20.760095    8295.1729    34.832458    2001.9788    1985.9488    -135.9796   -497.36255   -1079.9842   -4709.4928 
 1514000    94.977735   -5076.0496    -4892.877   -5076.0496            0    1738.1216     19.95619    19.989865    20.772235     8286.492    1975.0083    2223.9925     1015.364   -410.13833    540.57604    330.81243   -4682.8251 
 1515000    91.165213   -5067.6478    -4891.828   -5067.6478            0    1206.3984    19.934604     19.93582    20.939863     8321.767    312.18859    2180.9768    1126.0297   -234.95813    746.72608   -219.87694   -4745.4142 
 1516000    93.407669   -5068.4118   -4888.2672   -5068.4118            0    1920.9056    19.906482    19.992409    20.750841    8258.3893    3283.7504    696.47768    1782.4889   -67.732782    1146.2616   -411.41979   -4656.9131 
 1517000    90.077727    -5062.194   -4888.4716    -5062.194            0    1240.8954    19.972327    20.039811    20.794886    8322.9801    234.16094    1851.0688    1637.4565    314.36665    192.61058    -12.83725    -4737.849 
 1518000    91.466016   -5074.3183   -4897.9184   -5074.3183            0    2203.2694     19.96687    19.931383    20.816915    8284.4525     2653.651    1769.8975    2186.2597   -135.81778    509.58755    228.33789   -4631.7188 
 1519000    93.043035   -5068.4467   -4889.0054   -5068.4467            0    1960.6027    19.939344    19.986747    20.807382    8292.2128    2435.1139    2012.5003    1434.1938   -320.58819   -17.099167    63.519434    -4651.903 
 1520000    90.253717   -5063.3969    -4889.335   -5063.3969            0    1863.4477    20.146214    19.911521    20.689058    8299.2454    1332.5067    1836.3619    2421.4744   -110.65095    -451.8514   -551.39452   -4663.7908 
 1521000    92.922837    -5075.536   -4896.3265    -5075.536            0    1806.1738    19.999961    19.916683    20.819195    8292.9702    1431.1777    1699.7882    2287.5556    -296.0237    67.871346   -58.833316   -4677.8797 
 1522000    90.782969   -5061.7981   -4886.7155   -5061.7981            0    2112.2748    20.015127    19.937455    20.859037    8323.8133    1626.6867    2209.0782    2501.0595   -82.296962    896.02842    494.70912   -4630.2974 
 1523000    88.461232   -5067.5748   -4896.9699   -5067.5748            0    734.84632    19.979917     19.82718    21.103168     8359.923    104.82853    2261.4996   -161.78917   -926.13221   -395.76609    128.83209   -4807.3767 
 1524000    96.255857   -5057.8119   -4872.1744   -5057.8119            0    2399.2239    19.944369    19.877564     20.96319    8310.7621     2676.695    2983.9956    1536.9809    81.310173    137.72356   -871.62328    -4581.379 
 1525000    95.268099   -5057.5822   -4873.8497   -5057.5822            0    2212.9544    19.930342    19.882375    20.849599    8261.9152    2120.2619     2829.862    1688.7393    -134.0293   -307.41059    155.32103   -4607.2074 
 1526000    95.259295   -5060.1118   -4876.3962   -5060.1118            0    2276.4939    19.872287    19.902435    20.985045    8299.7303    2908.4521    2437.6971    1483.3327   -415.27724    416.12427   -339.77897   -4600.8424 
 1527000    96.800063    -5060.602   -4873.9149    -5060.602            0    1947.1558    19.782467    20.046514    20.918417    8295.6065    2526.6853    1628.6287    1686.1535   -321.79361    7.1795586   -49.546784   -4638.3423 
 1528000    91.371836   -5069.2717   -4893.0535   -5069.2717            0     2168.724    20.025021    19.878482     20.81764     8286.816    2759.7577    1298.6498    2447.7645   -417.28995    117.59981    440.44442    -4630.953 
 1529000    96.649774   -5072.0523    -4885.655   -5072.0523            0    1600.9951    19.862617     20.02313    20.960066     8336.065     3256.211    401.97115    1144.8033   -25.729729   -459.73996   -14.772215   -4691.0173 
 1530000    91.922285   -5058.4357   -4881.1558   -5058.4357            0    1636.9873    20.008989    19.988158    20.827686    8329.8837    1284.7363    1808.7894    1817.4363   -501.42688    -655.9552    -199.1775     -4682.29 
 1531000    96.781357   -5066.9169   -4880.2659   -5066.9169            0    1427.6986    19.914255    20.062522    20.932115    8363.0119    2347.3786    1076.9543    858.76303   -32.494337    134.58223    967.96109   -4706.1353 
 1532000    95.268773   -5066.5112   -4882.7774   -5066.5112            0    1195.2461    19.901232    20.005659    20.807428    8284.2125    2978.6576   -519.99468    1127.0755   -246.72593   -367.63855    26.307632   -4738.3716 
 1533000    92.296446   -5064.3771   -4886.3757   -5064.3771            0    1224.2977    20.062075    19.973756     20.72732    8305.7474    1752.8281    516.41016    1403.6549   -446.19751   -190.13217   -36.445109   -4738.0755 
 1534000    93.114873    -5075.652   -4896.0722    -5075.652            0    1275.4667    19.931576    19.987185    20.862451    8311.1017    1197.0854    1822.0936    807.22096   -134.24804    628.11703   -103.57661   -4741.4743 
 1535000    89.405668   -5076.4944    -4904.068   -5076.4944            0    3014.8641    20.035376    19.687642    20.811218    8208.9704    2425.6692    4094.7952    2524.1277   -514.61654    159.67503   -113.93409   -4543.1303 
 1536000     88.25834   -5069.7906    -4899.577   -5069.7906            0     471.1549    19.998476    20.027551    20.822774     8339.948    251.24607    699.75707    462.46156   -62.053363    346.36295    91.960761   -4842.2706 
 1537000    95.829374   -5072.1495   -4887.3345   -5072.1495            0    1657.8737    19.963415    20.012792    20.637924    8245.3392    1746.0254    1211.5956    2016.0003   -187.23991    922.82832    585.27229   -4687.9755 
 1538000    92.646067   -5063.8581   -4885.1824   -5063.8581            0    589.08663    20.079082    19.986466    20.796152    8345.7014   -25.564853    935.64713    857.17762   -198.24817    1204.4255     550.7573   -4813.4826 
 1539000    91.362091    -5070.606   -4894.4066    -5070.606            0     1564.029    19.952761    20.009884    20.791691    8301.1331    712.84297    2449.0066    1530.2375   -466.11106   -415.39523   -781.74916   -4705.0597 
 1540000    91.056627   -5062.3344   -4886.7241   -5062.3344            0     3201.615    19.874246    19.916829    20.757421     8216.451    4833.7095    2755.6213    2015.5143    160.57608     743.7462    51.905055   -4503.0793 
 1541000    92.958104    -5065.006   -4885.7285    -5065.006            0    1891.0854    19.955062    19.986865    20.822767    8304.9338    1607.9626    2021.2697    2044.0241   -241.10029    539.74299   -140.02106   -4656.6822 
 1542000     94.69942   -5074.3041   -4891.6683   -5074.3041            0    2341.0362    19.910191    19.862467    20.972306    8293.8235    851.73946    4202.5625    1968.8066    59.671021    221.34014   -407.52534   -4608.5038 
 1543000    98.611409   -5070.7299   -4880.5495   -5070.7299            0    1511.5996    19.992101    19.916212     20.86856    8309.1704    1321.4676     1516.455     1696.876    243.50769   -67.122905   -162.66869   -4697.3727 
 1544000     92.55974   -5078.8875   -4900.3782   -5078.8875            0    1106.1153    20.068454    19.825209    20.934553    8329.0484    960.43862     1404.647     953.2602   -355.56562    280.25414     19.52989   -4766.0177 
 1545000    93.010843   -5078.8414   -4899.4622   -5078.8414            0    1703.7078    19.840205     20.00342    20.814382    8260.6445    3167.0979    263.91363    1680.1119   -192.83648    557.10853   -117.69319   -4694.2113 
 1546000    93.510201   -5074.9347   -4894.5924   -5074.9347            0    710.86882    19.986006    19.867138    20.923033    8307.7986    1146.7751    1319.2367   -333.40537   -502.65585   -310.70522    488.19994    -4808.463 
 1547000    93.921477   -5069.7188   -4888.5833   -5069.7188            0    2462.1879    19.960693    19.836607     20.93841    8290.6142    2370.2967    2243.8433    2772.4237   -377.13673     633.5865    277.32049   -4590.8799 
 1548000    90.923666   -5074.3405   -4898.9866   -5074.3405            0    1995.6486    19.918452    19.945016    20.884802    8296.9854    2226.5224    2438.8541    1321.5691    159.56291     274.2699     374.7273   -4657.5071 
 1549000    91.534226   -5060.1728   -4883.6413   -5060.1728            0    2149.1744    20.008865      19.9072    20.939224    8340.5218    2319.6054    2224.1711    1903.7467    63.812341    249.83465    378.40879   -4622.2201 
 1550000     93.53854   -5077.5331   -4897.1361   -5077.5331            0    2277.3062    19.857372    19.877283    20.942364    8266.1731    3158.9889    2031.6394    1641.2903   -364.06067    -75.61436    73.829671   -4622.5986 
 1551000    103.02734   -5062.6143   -4863.9174   -5062.6143            0    779.01877    20.026003    19.990177    20.841173    8343.2082     1195.448   -99.603109    1241.2114   -51.602229    393.94909    267.46012   -4769.1286 
 1552000    87.493455    -5066.264   -4897.5255    -5066.264            0    1606.7728    20.055824    19.994666    20.695179    8298.9632    1638.3238    1293.7145    1888.2802    48.426632   -317.86826    121.53508   -4703.0548 
 1553000    89.009564   -5073.4114    -4901.749   -5073.4114            0    427.53829    19.941953    19.953526    20.936567    8330.9165    1521.9161    1.7540447   -241.05522    28.996591    379.75602   -351.52246    -4849.804 
 1554000    94.128811   -5060.9481   -4879.4128   -5060.9481            0    2787.2957    19.955922    19.854308    20.847267    8259.9173    2269.0153    3439.1207    2653.7511    52.515097   -345.55221   -668.22498   -4543.6484 
 1555000    92.147787   -5063.9223   -4886.2075   -5063.9223            0    1146.1682    19.890051    20.015153    20.921808    8329.0223    1311.6862    1598.7803    528.03802   -32.335473   -595.35804   -164.37923   -4746.9822 
 1556000    97.588682   -5060.3457   -4872.1377   -5060.3457            0     1699.417    19.863764    19.908362    21.038745    8319.8769    699.15728    2967.3218    1431.7719    26.217073   -45.497142    333.74137   -4665.9358 
 1557000    86.423298   -5065.5764   -4898.9018   -5065.5764            0    2538.0271    19.990593    19.825305     20.86066    8267.4885     2941.072    3079.2307    1593.7786    81.207423    263.13572   -650.21932   -4592.8847 
 1558000    90.917731   -5061.6935    -4886.351   -5061.6935            0    1871.3481    19.944835    20.051257    20.705982    8280.7157    1754.8447    969.71045    2889.4892   -347.72376   -212.66218   -460.97843   -4660.3562 
 1559000    93.147905   -5069.6022   -4889.9586   -5069.6022            0    1711.1691    20.102355    19.809418    20.781965    8275.7098    -137.9658    2443.7414    2827.7316   -369.45469    20.393622    371.18384   -4683.4329 
 1560000     93.88839   -5071.2053   -4890.1336   -5071.2053            0    1773.4286    19.981559    19.941264    20.858158    8311.0903    2078.1801    1635.1498    1606.9558    147.83008      673.471     363.8586   -4675.1786 
 1561000    87.366445   -5054.6121   -4886.1185   -5054.6121            0    792.11522    19.901977     20.01535    20.889031    8321.0415     1563.369    743.89132    69.085363    82.920847    131.27149    110.53954   -4789.9923 
 1562000    95.698763   -5058.7978   -4874.2347   -5058.7978            0    1390.8295    20.043089    19.977982    20.754393    8310.4841    1219.0692     1459.509    1493.9104   -435.92362    686.11107   -767.56351   -4705.6663 
 1563000    97.520196   -5070.2518   -4882.1759   -5070.2518            0    1509.5863    20.017156    19.983662    20.837414    8335.3007    862.14331    1751.8141    1914.8015    181.30582    559.35159    254.13758   -4698.6679 
 1564000    90.051974    -5062.835   -4889.1622    -5062.835            0    982.59243    19.882172    20.058273    20.857873    8318.1622    2383.4876   -442.39076    1006.6805   -41.395368    897.96881   -395.00977   -4769.9621 
 1565000    95.202516   -5077.3545   -4893.7484   -5077.3545            0    1741.5737    19.973655    19.996992    20.705549    8270.0658    2789.6086    595.99435    1839.1181   -87.705031   -223.14916    49.373627   -4683.6965 
 1566000    97.928271   -5063.5822   -4874.7193   -5063.5822            0    1242.5905    19.966136    19.916939      20.8435    8288.7161    1071.5377    1563.0797     1093.154   -232.22054    673.70745    260.43946   -4724.5119 
 1567000    90.321262   -5068.4552    -4894.263   -5068.4552            0    1607.8777    19.970822    19.858488    20.846204    8267.4031    1890.4193    1652.3361    1280.8777    -88.94972    717.42634   -108.05222   -4700.3986 
 1568000    94.427709   -5072.2067    -4890.095   -5072.2067            0    1078.8805    19.917993    20.057626    20.797375    8308.7102    2393.9519   -191.12425    1033.8137   -413.56909    212.89147     401.2823   -4759.3627 
 1569000    86.839937   -5069.8848   -4902.4067   -5069.8848            0     2265.748    20.009906    19.885628    20.869414    8304.1386      2215.64    2623.8692    1957.7347   -354.90444    224.74864   -299.24438    -4628.008 
 1570000    93.612608   -5064.2257   -4883.6859   -5064.2257            0    949.39324    19.968399    19.895751    21.013711    8348.4597    2173.9181    13.800349    660.46127     94.66995   -166.61939   -45.864232   -4768.0937 
 1571000      92.3982   -5061.6629   -4883.4652   -5061.6629            0    1633.9328    19.949314    19.868405    20.926896    8294.6065    2620.9279    967.73966     1313.131   -313.41177    -459.9451     999.7562   -4685.8111 
 1572000     99.03961   -5060.1183   -4869.1121   -5060.1183            0    1550.6024    19.941765    19.965952    20.890507    8317.6874    1700.2722    1867.2305    1084.3045    -53.13856   -929.00615    78.392134   -4681.0163 
 1573000     93.91018   -5083.7053   -4902.5916   -5083.7053            0     2471.675    19.936284    19.893555    20.969997    8316.7756    3191.4437    2352.2267    1871.3545   -186.58168    358.19188    2.5242185   -4602.7981 
 1574000    90.083845   -5069.8742   -4896.1399   -5069.8742            0     1419.629    20.010849    19.896656    20.782243    8274.4287    1138.9978     1645.063    1474.8262   -104.39369    191.69486   -606.04879   -4724.8276 
 1575000    91.983347   -5070.9226    -4893.525   -5070.9226            0    1964.8986    19.883166    19.994265    20.788462    8264.4379     2097.228     1832.523    1964.9448   -466.40745    262.05579   -496.80972    -4656.699 
 1576000    92.180404   -5067.2221   -4889.4445   -5067.2221            0    2587.3838    19.993577    19.916139    20.731655    8255.2383    2871.0946    2659.7805    2231.2763   -63.838675   -30.063647   -9.2510976   -4577.9385 
 1577000    89.971125   -5077.2721   -4903.7552   -5077.2721            0    703.61942    19.949478    19.953947    20.847621    8298.8301    1369.3456     237.2407    504.27193    451.07094    80.099078    889.58025   -4818.5962 
 1578000    97.609632   -5061.4099   -4873.1615   -5061.4099            0    1767.6134    19.939584    20.007281    20.887446    8332.7723    1981.5591    1529.4551    1791.8259    267.83897    596.11741    556.53326   -4658.3524 
 1579000    95.565924   -5080.0741   -4895.7672   -5080.0741            0    1733.1503    20.062154    19.908346    20.739818    8283.5728    1464.4226    2078.7106    1656.3176    199.37146   -176.35683    135.94712   -4686.3898 
 1580000    96.630328   -5065.2374   -4878.8776   -5065.2374            0    1649.0074    19.918862    19.993518    20.717648    8250.7648     1813.251    1276.6557    1857.1156   -77.305412     404.6611    360.89436   -4680.4543 
 1581000    93.858225   -5064.4111   -4883.3976   -5064.4111            0    1385.4152    20.098271    19.949688    20.697219    8298.6373    1379.2862    1064.7827    1712.1766   -88.594914    172.57583   -704.46115   -4715.7248 
 1582000    91.083833   -5071.8389   -4896.1761   -5071.8389            0    1251.3599    19.984035    19.886355    20.807906    8269.2619    1425.9127    1525.7059    802.46102    36.187499     913.8802    574.00816   -4745.2637 
 1583000    93.043722   -5064.2582   -4884.8156   -5064.2582            0    2307.4901    20.062531    19.914509    20.785804    8304.6658     1791.889    3334.6158    1795.9656   -24.410537   -632.60715    80.430575   -4605.3439 
 1584000    92.981115   -5053.8241   -4874.5022   -5053.8241            0    587.72665     20.04359    20.046581    20.707689    8320.4625    1441.0223   -494.19777    816.35538   -160.17802     27.22039   -292.67958   -4803.1843 
 1585000    88.491562   -5065.5109   -4894.8474   -5065.5109            0    1614.6147    20.052732    19.934606    20.678489    8266.0879    1339.4319    1499.6568    2004.7555    329.26012    509.75015   -148.25422   -4700.2017 
 1586000    90.990357   -5066.8597   -4891.3772   -5066.8597            0    2036.8475    20.028605    19.937755    20.656281     8248.578    1940.2793    1693.4229    2476.8404   -212.77703   -86.149713    249.52799   -4646.3504 
 1587000     89.33911   -5063.4643   -4891.1663   -5063.4643            0     1478.597    20.009458    19.991953    20.617934    8247.7533    1893.9035    762.56141    1779.3263   -385.01332    629.59232    54.850349   -4713.3133 
 1588000    96.347016   -5072.0225   -4886.2092   -5072.0225            0    999.39586    19.959674    20.053839    20.702633     8286.603   -85.290492    1888.3542    1195.1239    207.88918   -182.89657   -467.58827   -4765.4306 
 1589000    86.795292   -5072.4741   -4905.0821   -5072.4741            0    2153.8475    20.014863    19.820414    20.794178    8249.1104    1863.0773    2641.8565    1956.6086    -120.7629    684.40544   -579.91827   -4645.9639 
 1590000    90.800222   -5067.9225   -4892.8067   -5067.9225            0    1116.6538    19.921246    20.110029    20.694071    8290.3928    1536.9897    227.10015    1585.8715   -124.43494    584.44303     7.535274   -4757.7956 
 1591000    91.820218   -5072.3172   -4895.2342   -5072.3172            0    1631.5681    19.971771    20.024551    20.691798    8275.1828    2752.6733    800.35917    1341.6718   -420.19332    279.02769    375.45376   -4698.3283 
 1592000    91.262666   -5066.2055   -4890.1978   -5066.2055            0     940.1686    20.122554    19.950362    20.651785    8290.7052    69.105163    1533.6793    1217.7213    214.49783    308.23432   -393.73624   -4776.5206 
 1593000    95.491502   -5060.2291   -4876.0658   -5060.2291            0    1785.5784     19.90121    20.122598    20.592813    8246.6814    2884.7003    214.63458    2257.4005     56.64802   -194.77165    553.37463   -4661.3153 
 1594000    93.006433   -5067.2866   -4887.9159   -5067.2866            0    1517.6948    20.022628    20.033007    20.713104    8308.3044    1726.7948    885.70439    1940.5852    288.15183    601.44302    833.88033   -4704.0197 
 1595000    90.033075    -5077.308   -4903.6717    -5077.308            0    1115.7099    20.002267    20.023926    20.767169    8317.7478     1839.633    385.03598    1122.4607   -368.92758   -45.307351    79.348786   -4768.3296 
 1596000    93.558245   -5060.7353   -4880.3003   -5060.7353            0    2760.3813     19.96653    19.889632    20.740682    8236.6836     1020.842    5328.9553    1931.3467   -374.23731   -420.60538    532.88672   -4548.7134 
 1597000    95.957961   -5074.1011   -4889.0381   -5074.1011            0    1555.7984    20.025288    19.874003    20.815448    8284.1868   -455.64707    3818.7098    1304.3325    66.398758    434.94478     23.74169   -4701.0722 
 1598000    93.987838   -5070.8706   -4889.6072   -5070.8706            0    2375.8593    20.003815    19.905039    20.855254    8304.0767     2181.711    2155.9756    2789.8914   -137.10383    704.34608    -449.5913   -4601.8753 
 1599000    90.611403   -5065.2607   -4890.5089   -5065.2607            0    2098.7989    19.898792    19.826814    21.114562    8330.3209    2799.7957    2380.7174    1115.8836    -398.9397    105.93394    417.20642   -4635.5276 
 1600000    89.439213   -5061.6811   -4889.1901   -5061.6811            0    2520.9357    19.918949    19.928136    20.865585    8282.5427    3611.7073    1756.2942    2194.8054    19.711194    117.36811    661.01647   -4584.6802 
 1601000    87.151897   -5072.8762   -4904.7965   -5072.8762            0    1110.1813    20.030126    19.890749    20.971571    8355.3717    788.95973    1332.5965    1208.9876    -440.9669    134.09305   -439.00767   -4769.5159 
 1602000    90.212028   -5061.0978   -4887.1163   -5061.0978            0    1389.7784    20.007075    20.013309    20.815341    8334.6242    3010.1937   -273.02965    1432.1711   -182.35578    422.76204     46.65577    -4718.186 
 1603000    93.712621   -5062.2081   -4881.4754   -5062.2081            0    2184.2003    19.999344    19.771698    20.885215    8258.4528     1655.692    2959.3886    1937.5203    42.659211    256.59346    802.19682    -4618.408 
 1604000    93.018053   -5064.1158   -4884.7226   -5064.1158            0    2581.2196    19.945893    19.884115    20.873775    8278.6736    2509.3766     2812.162    2422.1201    165.07613    90.363292   -297.12377   -4573.0766 
 1605000    98.710019   -5064.7931   -4874.4226   -5064.7931            0    530.85423    19.975404     20.01242    20.935127    8368.9464    249.97338    583.22773    759.36156    46.214839    408.07806   -344.82242   -4809.6305 
 1606000    90.295862   -5072.5035   -4898.3603   -5072.5035            0    1447.3677    19.972194    19.893946     20.87241    8293.1462    1025.5472    1918.9473    1397.6086   -9.9219502   -76.689036    77.095352   -4723.3055 
 1607000    96.782026   -5073.6321   -4886.9798   -5073.6321            0    1641.1051    19.880595    19.971004    20.807272    8261.2244    1940.1071    1197.1088    1786.0995    76.098619    54.364299    529.88076    -4689.257 
 1608000    91.260757   -5059.2698   -4883.2657   -5059.2698            0    816.58869    19.869954    19.952699    21.033626    8338.9749    1133.9404    708.50233    607.32332   -377.88927   -637.57337     226.5498    -4783.956 
 1609000    90.938874   -5065.9647   -4890.5814   -5065.9647            0    193.51431    19.954617    20.009217    20.903459    8346.2552    412.04075    199.59185   -31.089675   -665.78516    1056.2353    916.46334   -4867.0266 
 1610000    92.183245   -5057.9095   -4880.1264   -5057.9095            0    1639.8376    19.882546    19.952662    20.953759    8312.5598    1822.7312    1932.5563    1164.2254    179.39763   -218.01485   -42.979214   -4681.3286 
 1611000    97.072979   -5065.1329   -4877.9195   -5065.1329            0     2194.295    19.938628    19.968424    20.892141    8318.0589    1724.9943    2554.9415    2302.9493   -42.400563   -301.65065    648.68242   -4611.7288 
 1612000    92.850504   -5062.7251    -4883.655   -5062.7251            0    1949.8405    19.959031    20.016797     20.75489    8291.9081    1455.1131    2103.1751    2291.2334    98.421571     199.5713    820.24797   -4647.8628 
 1613000    87.084218   -5063.6502    -4895.701   -5063.6502            0    2022.4296    19.941319    19.913277    20.734433    8233.5812    1943.9221    2089.9992    2033.3676   -210.36261    -442.4252   -207.73485    -4652.851 
 1614000    93.862496   -5064.6155   -4883.5937   -5064.6155            0    1487.9397    20.005677    19.962938    20.852838    8328.0414    658.18319    2355.7807    1449.8552   -263.95341   -412.63656   0.50610769   -4702.8746 
 1615000    89.012454   -5058.1512   -4886.4832   -5058.1512            0    1382.7201    19.971214    20.072578    20.748241    8317.4248    1487.2723    446.01673    2214.8713   -16.377746   -313.87537   -355.46395   -4718.7577 
 1616000    87.761054   -5069.9998   -4900.7452   -5069.9998            0    230.29642    19.943318    20.020501    20.894845    8342.7939    1442.2134   -845.53894    94.214805   -31.622172   -28.382067   -344.47183   -4872.7248 
 1617000    87.498473   -5068.9783   -4900.2301   -5068.9783            0    1325.6031    20.004511    19.943044    20.854091    8319.7575    1103.1731    1504.7397    1368.8967    384.66743   -412.25125   -951.77368   -4739.3879 
 1618000    91.106815   -5069.3381    -4893.631   -5069.3381            0    2814.9222    19.874775    19.954181    20.802809     8250.079     3164.105    2484.3733    2796.2883    379.31669   -129.25279   -767.35633   -4554.9425 
 1619000    90.709612   -5071.1461    -4896.205   -5071.1461            0    672.22811    20.092059    19.899733    20.834088    8330.0229   -415.51154    2507.8884   -75.692567    145.03889    745.96248   -297.95942   -4814.5395 
 1620000    92.248411   -5064.9357   -4887.0269   -5064.9357            0     1944.222    20.034914    19.847531    20.775489    8261.2394     1671.261    2725.8343    1435.5709   -727.76816    55.058628    34.447123   -4652.7837 
 1621000    92.300386   -5076.8058   -4898.7968   -5076.8058            0     1692.864    20.038525    19.879078    20.704798    8247.7026    976.59681    2114.3427    1987.6523   -241.37488    553.03739    31.968626   -4695.1719 
 1622000    90.002745   -5052.7293   -4879.1515   -5052.7293            0    1928.7867    19.979548    20.041062    20.652929    8269.6676    1873.2813    1178.8938    2734.1849   -286.56966   -336.84973   -587.59991   -4646.5309 
 1623000    91.551416   -5063.3714   -4886.8068   -5063.3714            0     1887.471    20.018022    19.969978    20.704336    8276.7541     1726.109    2244.5072    1691.7969    119.18865    469.41401   -272.59076    -4658.974 
 1624000    93.020319   -5064.8125    -4885.415   -5064.8125            0    1281.0037    20.011265    19.995966    20.748615    8302.4456    1796.0101    736.51906     1310.482    497.99131   -389.57481    448.85672   -4730.3077 
 1625000    99.095043    -5069.248   -4878.1349    -5069.248            0    1348.1293    20.034125    19.948291    20.719736     8280.571    671.34862    1340.8559    2032.1833   -96.581423     294.9381   -485.62183   -4715.3299 
 1626000    91.028121   -5076.3982   -4900.8428   -5076.3982            0    1224.0328    19.959441    20.003399    20.753684    8286.0465    1162.3338    746.88819    1762.8763   -396.97986    253.61794   -874.03794   -4752.9264 
 1627000    95.062893   -5074.0029   -4890.6661   -5074.0029            0    1820.4044    19.966106    20.012753    20.730371    8283.3743    1016.6045    2017.0142    2427.5945    20.287045   -368.03692    -10.93179   -4670.7531 
 1628000    91.323817    -5068.219   -4892.0933    -5068.219            0    1681.5323    19.996596    19.969866     20.75347    8287.4694     1216.344    2082.0021    1746.2509    51.956687     108.8673    6.3123987   -4688.8562 
 1629000    97.364682   -5060.8744   -4873.0985   -5060.8744            0    1242.5134    19.959943    19.989752    20.755499    8281.3264    790.31798     1281.556    1655.6663   -188.44438    727.79931    821.44106   -4723.0343 
 1630000    85.606247   -5068.1801   -4903.0812   -5068.1801            0     2259.808    19.959653    19.875685     20.80895    8255.1555    3067.9402    1600.5354    2110.9484   -4.0943196    116.89725   -218.02198   -4631.0162 
 1631000    89.058863   -5074.9979   -4903.2404   -5074.9979            0    2028.9869    19.868768    19.969876    20.843037    8270.0344     1270.002    2396.8826    2420.0762    319.61649    1036.7868   -439.99791   -4658.5244 
 1632000    95.464848   -5061.2984   -4877.1864   -5061.2984            0    1412.1875    20.030337    19.974566    20.734542     8295.834    1954.9188    615.43199    1666.2119   -379.59461    196.63303    698.28597   -4706.3312 
 1633000    96.354299   -5062.5184   -4876.6911   -5062.5184            0     1156.927    20.084154    19.976989     20.60329    8266.4707    794.94484    1301.5457    1374.2904   -125.22713   -216.48928   -130.99611   -4737.2143 
 1634000    90.216012   -5067.5709   -4893.5818   -5067.5709            0    2052.9556    20.031836    19.956315    20.677747      8266.17    2026.2974    2148.3218    1984.2477    51.538277     66.57034    206.08732   -4646.0906 
 1635000    92.585442   -5069.4049   -4890.8461   -5069.4049            0    2017.5978    20.005484    20.023769    20.611556    8256.6841    1503.7259    2358.9774    2190.0901    58.632845    133.01849   -599.00578   -4647.8965 
 1636000    95.395848   -5070.4029    -4886.424   -5070.4029            0    1407.8063    19.999652    19.918215     20.80474    8287.7216    1018.3693    2272.0018    933.04783    150.91979    43.982877   -920.75388   -4716.2654 
 1637000    87.650053   -5066.1784   -4897.1379   -5066.1784            0    1773.3502    19.953296    20.031054    20.837025    8328.2581    2283.8683    792.19007    2243.9922   -122.40352    239.02303    267.00739   -4681.7484 
 1638000    92.634971   -5072.4418   -4893.7875   -5072.4418            0    2368.5141    19.958495    20.056629    20.763437    8311.6063    2174.4236    1479.9669    3451.1519    -348.2338   -592.49697    142.88745   -4606.6851 
 1639000    88.738825   -5075.2971   -4904.1568   -5075.2971            0    2041.2742     20.03105    19.923319    20.728572    8272.4621    340.11957    3292.7311    2490.9719   -219.94544   -174.46076   -2.5506953   -4657.8865 
 1640000    95.967946   -5068.8339   -4883.7517   -5068.8339            0     1820.143    20.040464    19.873816    20.744135    8261.9843    2166.9172    2059.6337    1233.8782   -195.04151    556.75979    57.023122    -4664.438 
 1641000    93.531821   -5071.8308   -4891.4468   -5071.8308            0    1040.6648    20.038505    19.953283    20.733894    8290.1148    1483.1533    697.09982    941.74126    -305.5252    719.44817   -683.02982   -4765.6275 
 1642000    88.816796   -5062.5876    -4891.297   -5062.5876            0    777.18664    20.042211    19.999494    20.798946    8336.9267    869.32451    524.49669    937.73871    172.96318   -165.82809   -159.04043   -4796.8023 
 1643000    94.918313   -5077.0123   -4893.9544   -5077.0123            0    941.23626     19.91532    20.009541    20.885379    8322.7485    2123.6993   -39.056245    739.06572   -34.079296   -300.53175    -149.6989   -4779.7083 
 1644000    94.015541   -5071.9205   -4890.6036   -5071.9205            0    1539.8872    20.018224     19.94465    20.805073    8306.5601    1522.3412    1380.4622    1716.8582    226.18172     33.49108    674.54715   -4704.0576 
 1645000     92.58738   -5065.9049   -4887.3424   -5065.9049            0    2134.1452    19.911113    19.875648      20.9347    8284.8293    1587.3254    3580.5718    1234.5384    211.91752    302.99094    1190.1988   -4629.4827 
 1646000     87.20281   -5063.8711   -4895.6932   -5063.8711            0    2079.8296    20.020289    19.822836    20.833602    8268.0005    1927.0594    2682.0081    1630.4213   -245.76235   -31.507691    422.64927   -4644.9067 
 1647000    93.169708   -5081.0599   -4901.3743   -5081.0599            0    1763.7748    19.900687    19.960248     20.89056    8298.2034    2397.7037    1417.6285    1475.9921   -251.47388    197.65393    54.085991   -4687.9209 
 1648000    89.446799    -5068.335   -4895.8294    -5068.335            0    1284.8282    20.071009    19.877981    20.851322    8319.0757    1247.2324    1007.6563     1599.596   -190.26368   -21.362389     481.4815   -4739.9473 
 1649000    95.626634   -5064.7428   -4880.3188   -5064.7428            0    1854.0925    19.884653    19.829827    21.045098    8298.2758    2429.9203    2578.4161    553.94089    360.62389    271.60019    1002.3002   -4655.9331 
 1650000    92.950727   -5073.6169   -4894.3536   -5073.6169            0    2422.1139     19.90579    20.028128    20.779122    8284.1317    2251.7837    2247.9741    2766.5839    6.0417414    294.96828    933.04392   -4601.7246 
 1651000    98.153221   -5066.8701   -4877.5734   -5066.8701            0    1647.7443    19.908668    19.978519    20.948931    8332.3473    2273.2725    1593.7018    1076.2586    -129.5973   -198.86244   -800.05581   -4677.3416 
 1652000    98.448151   -5073.2395    -4883.374   -5073.2395            0     1665.617     19.91906    19.918432    20.839151    8268.0674    2193.3932    1643.9698    1159.4881    196.86656     400.6649   -754.33188   -4682.5318 
 1653000    93.592696   -5073.2752   -4892.7739   -5073.2752            0    2159.0417    19.898309    20.064834    20.637825    8239.7808    2199.2912    1338.3649    2939.4689   -17.449313   -1058.6106     497.4292   -4633.3245 
 1654000     95.80072   -5074.7362   -4889.9765   -5074.7362            0     2293.919     19.95164    19.960238    20.752078    8264.2969    2258.4426     2016.781    2606.5334   -398.12239    180.75021    1303.2302   -4613.4989 
 1655000     91.31849   -5067.9843   -4891.8689   -5067.9843            0    1386.9707    19.972384    19.953844    20.789533    8285.1661     256.9774    2868.2305    1035.7041   -185.40672    41.178066    204.23313   -4724.2804 
 1656000    91.385212    -5072.542   -4896.2979    -5072.542            0    2079.2802    19.894593    20.087233    20.639035    8247.9224    1466.2891     2373.612    2397.9394    184.01673    252.49457    601.38447   -4646.1865 
 1657000    95.348671   -5070.5597   -4886.6717   -5070.5597            0    859.48588    20.036077    19.934645    20.799949    8307.7511    521.73165    1577.9179    478.80809    91.467756    99.187997   -427.20579   -4782.5364 
 1658000    90.555722   -5074.6934   -4900.0491   -5074.6934            0    1845.8475    19.942037    19.925038    20.863606    8290.0671    2348.8715    1026.6917    2161.9792   -11.612003    524.51889   -238.23622   -4676.8822 
 1659000    91.856124   -5072.7087   -4895.5564   -5072.7087            0    1749.0504    19.964781    19.945507    20.759117    8266.4397    334.66689    2726.4508    2186.0337   -448.52096     333.9134    691.75911   -4684.6952 
 1660000    93.644528   -5067.9432   -4887.3418   -5067.9432            0    1707.3765    20.044623    19.861968    20.809722    8284.8842    1522.3216    1795.4394    1804.3684    145.25889     1162.488    224.09686   -4681.0455 
 1661000    92.072407   -5071.4493   -4893.8799   -5071.4493            0    1856.2793    20.044956    19.879303    20.741781    8265.1796    1419.5486    2554.1455    1595.1437    2.9026679    167.77882   -466.17898   -4670.1256 
 1662000    91.258014   -5062.8008    -4886.802   -5062.8008            0    600.67599    20.009936    20.004068    20.787557    8320.8461   -48.080411     110.1456    1739.9628   -675.08961   -49.698531   -182.22371   -4813.9094 
 1663000    93.676755   -5069.2424   -4888.5789   -5069.2424            0    304.17642    19.971959    20.096066    20.739044    8323.7773    958.80239   -816.24799    769.97485    610.11405    132.36354   -355.35597   -4851.6538 
 1664000    94.085404   -5075.3384   -4893.8868   -5075.3384            0    1316.5413    19.988262    19.936073     20.76852    8275.9947    851.60399    1684.3453    1413.6746   -85.543696   -688.27957   -114.36738   -4734.9844 
 1665000    94.363041   -5071.3181    -4889.331   -5071.3181            0     824.5169    20.077799     20.14528    20.580739     8324.351    286.43062      518.861    1668.2591   -169.70015    8.1128933    -191.0403   -4789.2329 
 1666000      90.4022   -5059.3786   -4885.0303   -5059.3786            0    646.97696    19.923388    20.059392    20.830114    8324.7774   -338.08326     1443.536     835.4781   -226.12175    781.16121   -54.897931   -4806.4819 
 1667000    91.006848   -5061.4248   -4885.9105   -5061.4248            0    2833.4006    19.904179    19.857281    20.844873    8238.7877    1874.3516    4031.9757    2593.8745    263.54442    1352.5419   -59.464244   -4545.4653 
 1668000    94.282899   -5057.1792   -4875.3467   -5057.1792            0   -487.80935    19.965623    20.060945    20.872537    8360.0618   -409.46126   -303.95749   -750.00931      130.036    177.73913    173.22127   -4934.8219 
 1669000    95.356772   -5060.2401   -4876.3366   -5060.2401            0    2173.1607    19.885679    20.071099    20.768044    8289.0961    2612.6926    508.07845     3398.711   -29.637576    876.98247    517.35426   -4613.6276 
 1670000    92.031285   -5064.1747   -4886.6846   -5064.1747            0    3128.0291    19.932049    19.808263    20.889439    8247.5528    2638.7441    4505.4611    2239.8819   -63.824845   -666.75595    618.59306   -4510.4387 
 1671000    95.097953   -5066.8916   -4883.4872   -5066.8916            0     2464.795    19.930033    20.002833    20.806286    8294.5745     2266.731    2659.9993    2467.6547    172.13212   -250.10298   -902.67323   -4585.3262 
 1672000     89.75911   -5068.4089   -4895.3009   -5068.4089            0    1948.8936    20.088545    19.872155    20.743705    8280.9427    2394.6297    1347.1804    2104.8706   -284.06192    285.15489   -117.45927   -4659.9349 
 1673000    89.719278   -5070.7803   -4897.7491   -5070.7803            0    1794.9163    19.879498    19.904365    20.947082    8288.5257    2192.8378    1719.6322    1472.2788   -281.66017    1080.5089    837.63328   -4680.7802 
 1674000    96.583659   -5074.0054   -4887.7357   -5074.0054            0    1060.4277    19.935925    19.856804    21.088943    8348.3482    2252.8082    426.74907    501.72575   -444.70833    12.770266    463.82319   -4758.6264 
 1675000    92.195769    -5070.042   -4892.2347    -5070.042            0    1101.8862    19.966378    19.947342    20.838214    8299.3642    1731.2715    474.86289    1099.5242   -123.11089    18.667966    456.71536   -4758.8649 
 1676000    91.638632   -5078.5106   -4901.7778   -5078.5106            0    1320.4377    19.877756    20.026207    20.913233    8325.0574    1426.8378    1154.4904     1379.985    -196.2464     49.55892    182.39109   -4741.4602 
 1677000    94.821193   -5070.6224   -4887.7517   -5070.6224            0    1524.5169    19.942892    19.983239    20.834612    8303.0843    1849.3645    1376.5338    1347.6524   -133.88517    596.51204    498.93683    -4703.145 
 1678000    95.803471   -5074.6394   -4889.8744   -5074.6394            0    1515.2712    19.984137    19.997794    20.837141     8327.327    1018.9369    1824.3192    1702.5575   -28.375091   -115.89208   -398.26573   -4705.8515 
 1679000    95.267247   -5063.0333   -4879.3024   -5063.0333            0    1912.4909    19.916607    19.947898    20.933088    8316.5998    2408.0463    1934.2042    1395.2223   -329.56954    513.06298    823.93529   -4647.3382 
 1680000    100.33661   -5077.4003   -4883.8927   -5077.4003            0    918.96159    20.026123    19.949874    20.860912     8334.323    394.34798    858.08562    1504.4512    -116.3265   -172.91364    39.123509   -4772.1951 
 1681000     93.13626   -5070.8022    -4891.181   -5070.8022            0    2674.5507    19.888359    19.971024    20.866446    8287.9625    2474.4969    2576.6533    2972.5018   -102.53512    88.790016    68.600568   -4567.9043 
 1682000      93.4807    -5071.655   -4891.3696    -5071.655            0    1169.9668    19.946401    20.026387    20.875454    8338.7911    1076.7956    849.60285    1583.5019   -361.61355    545.47218    363.28664   -4749.0867 
 1683000    87.799328   -5068.6336   -4899.3052   -5068.6336            0    1856.5819    19.966349    19.885177    20.853867    8279.7022    1300.0091    2220.6271    2049.1097    191.45798   -291.55306    101.79022   -4675.1211 
 1684000    88.586976   -5066.8078   -4895.9604   -5066.8078            0    2001.4367    19.926219    19.819152    20.887755    8249.0083     909.7189    3690.3052     1404.286    33.232832   -446.30749     -179.066   -4655.1809 
 1685000    95.003202   -5065.2232   -4882.0016   -5065.2232            0    476.45953    20.099762    20.019068    20.718463    8336.6642    629.55959   -182.23792    982.05692   -616.70812   -397.31975   -42.656437   -4824.0728 
 1686000    93.548253   -5058.9287    -4878.513   -5058.9287            0    2438.6166    19.927177    20.017191    20.670601    8245.2158    2567.3979    1965.9301    2782.5218    18.876093    927.80174   -190.66537   -4585.2742 
 1687000    90.197837   -5067.3807   -4893.4266   -5067.3807            0    1869.0639     19.97369    19.984033    20.729103     8274.123    1366.3599    1667.0881    2573.7436   -45.687517    600.61384   -239.08696   -4667.8874 
 1688000    97.071593    -5071.207   -4883.9963    -5071.207            0    1648.9801    20.005905    19.946418    20.787974    8295.3609    1632.4981    1238.5544    2075.8877   -288.39746    850.03611   -446.27364   -4684.5038 
 1689000    90.724444   -5075.0046   -4900.0349   -5075.0046            0    1582.1237    19.957504    19.923579    20.805466    8272.7716    1872.1892    1274.0688     1600.113   -12.324676   -793.53002    554.34854   -4709.1518 
 1690000    94.570572   -5058.9483    -4876.561   -5058.9483            0    2380.1974    19.997974    19.812427    20.928445    8292.0256    1827.2228    3124.8066    2188.5627   -119.67265    562.81608   -255.61182   -4588.7221 
 1691000     91.43004   -5063.8791   -4887.5486   -5063.8791            0    1433.4025    20.037518    19.903206    20.798685    8294.7409    1382.8932    1689.1209    1228.1936    8.3091044   -57.220097    339.22815   -4714.1495 
 1692000    93.791902    -5068.374   -4887.4884    -5068.374            0    696.84004    20.068814    19.878891    20.969788    8365.8079     439.9129    837.64671    812.96051    235.90555    603.65817   -940.43482   -4802.4692 
 1693000    94.806661   -5068.9915   -4886.1489   -5068.9915            0    1536.6641    20.096444    19.854845    20.744683     8277.373    1086.9616    1565.8376     1957.193   -75.727803    847.09246   -528.11195   -4700.6474 
 1694000    94.873365   -5065.6467   -4882.6754   -5065.6467            0    1029.9316    19.999653    20.009484    20.807955    8326.9844     1265.716    902.29535    921.78345   -255.90953     637.5854   -705.39105      -4757.6 
 1695000    96.661057   -5072.6677   -4886.2487   -5072.6677            0    1735.9666    19.953476    19.940492    20.755388    8258.1979    1755.1091     1720.907    1731.8836     17.30264    1022.2849    670.99513   -4677.1735 
 1696000     91.49152   -5067.7526   -4891.3035   -5067.7526            0    1952.5485    20.000968    19.928649    20.701964     8251.643    2047.0724    2123.0077    1687.5654    120.52706    75.600223    99.112594   -4656.3304 
 1697000    92.429534   -5068.6247   -4890.3666   -5068.6247            0    819.59134    19.924732    20.078397    20.803686    8322.6537    675.70194    483.98441    1299.0877   -302.25694    52.625541   -320.75531   -4790.8867 
 1698000      93.2262   -5068.9926    -4889.198   -5068.9926            0    769.84268    19.989675    19.986468    20.826974     8320.855     762.2088    543.49301    1003.8262   -8.1781452   -401.84398   -510.49595   -4795.7768 
 1699000    97.553058    -5066.001   -4877.8617    -5066.001            0    1395.2737      19.9988    19.936716    20.721005    8261.6803    1418.8113    1708.2214    1058.7885   -134.24168    442.27892   -570.99424   -4709.7478 
 1700000    92.132838    -5073.202   -4895.5161    -5073.202            0    654.53118    20.103795    20.043209    20.708632     8344.431    631.02187    272.88624    1059.6854     81.26938    878.50523    408.74256    -4815.863 
 1701000    90.841863   -5066.4389   -4891.2427   -5066.4389            0    1856.5439    20.019633    19.855023    20.829874    8279.6724    1766.8181    1773.4386     2029.375   -75.248137   -275.26175    644.26735   -4667.0641 
 1702000    96.470241   -5074.0545   -4888.0035   -5074.0545            0    899.74922    19.853509    20.057147    20.865508    8308.7443    1810.4541     122.5481    766.24543    -452.6412    183.63592    501.98487   -4778.9768 
 1703000    89.630682    -5071.881   -4899.0207    -5071.881            0    1634.0707    20.025773    19.891445    20.792349    8282.4565    1442.2958     2296.888    1163.0281   -95.815851   -700.01624    578.41455   -4701.6394 
 1704000    87.988081   -5065.1991   -4895.5067   -5065.1991            0    2942.3731    19.906909    19.879252     20.79195    8228.0907      2527.97    3649.3051    2649.8442   -308.52333    238.08857    75.982266   -4542.4271 
 1705000     89.21065   -5074.9369   -4902.8867   -5074.9369            0    1592.8987    20.066302    19.882361    20.906786    8341.0852    1229.1622    2262.6153    1286.9187    -7.019883    504.44937   -220.22667   -4709.1166 
 1706000    92.863868   -5077.6639   -4898.5681   -5077.6639            0    1983.2309    19.984583    19.956838     20.80882    8299.1625     2719.542    1433.9475    1796.2032   -85.547206    858.03974    1186.4571   -4658.5282 
 1707000    94.733253   -5074.7795   -4892.0785   -5074.7795            0    988.23072    20.022219    19.968181    20.952498    8376.9619    863.67618    1363.6485    737.36747   -309.28349    460.56613    1211.7399   -4771.3469 
 1708000    92.465739    -5065.793   -4887.4651    -5065.793            0    139.63496    19.983757    19.995778     20.85944    8335.2398    737.34363   -667.28346    348.84472   -326.36894    130.41223    469.08068   -4870.4909 
 1709000    86.601989   -5054.4925   -4887.4733   -5054.4925            0    2046.6035    19.985177    19.790168    20.810151    8230.6234    1779.8129    2549.8429    1810.1548   -349.74434     278.7115   -182.45075   -4641.8089 
 1710000    98.060318   -5069.2377   -4880.1201   -5069.2377            0    2394.9826    19.851376     19.95896    20.822738     8250.236    2888.7431    2346.3416    1949.8631   -463.55379    850.34608     305.3808   -4591.9528 
 1711000    93.457298   -5068.2083   -4887.9681   -5068.2083            0     2433.581    19.910586    19.917192    20.900987    8288.5573     2388.278    3003.8725    1908.5924   -202.36006    472.41906   -163.97815   -4593.7965 
 1712000     91.75389    -5066.692   -4889.7369    -5066.692            0    1329.8522    19.940871    19.936713    20.914952    8314.8526    1293.5394    839.16181    1856.8554   -186.22606   -700.48067     22.05884   -4728.4742 
 1713000    96.183309   -5064.9586    -4879.461   -5064.9586            0    1886.6907    19.922542    20.023228    20.728124     8268.731     1312.824    1667.0258    2680.2223    92.252751    363.16048   -109.74277   -4651.9431 
 1714000    93.907864   -5066.6601   -4885.5509   -5066.6601            0    2561.9196    20.002811    19.975609    20.653235    8252.3786    2100.4796    2009.7068    3575.5725   -383.39967    658.71591   -158.97775   -4577.2175 
 1715000    88.853126   -5077.5754   -4906.2147   -5077.5754            0    1791.0904    20.044936    19.972116      20.6597    8270.8997    3190.7948    531.28328    1651.1933     176.2068    176.48124    284.01344   -4690.1687 
 1716000    90.452632    -5069.136   -4894.6905    -5069.136            0    1948.4889    19.866307    19.992322    20.735984    8235.7854    2319.3287    1646.1051    1880.0328   -191.82193   -43.870993   -587.89874   -4660.6565 
 1717000    89.140253   -5076.7121   -4904.7976   -5076.7121            0    880.72289    19.914876    20.035837    20.848275    8318.6951    1072.1018    690.04681    880.02008   -34.715489   -665.80765   -142.74874   -4797.9487 
 1718000    94.648003   -5063.3327    -4880.796   -5063.3327            0     1950.738    19.958832    19.871684    20.895105    8287.3247    2381.8954    1019.3114    2451.0073   -176.31607     -538.531   -180.99332   -4645.0257 
 1719000    90.171418   -5057.8753   -4883.9722   -5057.8753            0    1428.9075    19.933816    20.086776    20.737043    8303.2384    1600.4245    791.36631    1894.9316    93.239546    336.73015    100.08117   -4710.9397 
 1720000     90.52053   -5075.2609   -4900.6844   -5075.2609            0    1032.9538    19.972096    19.971719    20.827701    8307.6925    523.37756    1022.8034    1552.6804     196.7568   -480.51946    362.32759   -4775.5326 
 1721000    89.452801   -5064.3339   -4891.8167   -5064.3339            0    1365.6043    19.905136    20.090236    20.755225    8299.9914    2180.4022   -33.374525    1949.7853   -357.77792   -473.36932     703.0089   -4726.5146 
 1722000     91.53543   -5073.2063   -4896.6725   -5073.2063            0     1800.473    19.981432    19.994366     20.77251    8298.9517    1381.1796    1903.2832    2116.9562   -384.62887    628.51535    38.675703   -4678.7582 
 1723000    92.168732   -5073.9987   -4896.2435   -5073.9987            0    2390.2818    19.999076    19.930925    20.824879    8300.7987    2916.8654    2201.9092    2052.0708    -272.4743    128.11363    395.08236   -4606.8793 
 1724000    94.038524   -5073.6188   -4892.2576   -5073.6188            0    833.09263    19.958896    19.972777    20.922418    8340.3993    1032.3271    1732.6516   -265.70087   -179.39135   -74.359009   -613.70913   -4790.9234 
 1725000    91.221615   -5072.7655   -4896.8369   -5072.7655            0    1788.4941    19.881723    19.953778    20.803925    8253.2393    1361.7252    2159.3721     1844.385   -303.51983    232.61596    237.19725   -4681.5648 
 1726000    93.035764   -5068.3257   -4888.8984   -5068.3257            0    2283.0048    19.967422    19.822911    20.858437    8256.0288    1508.9726    2780.6439    2559.3978   -78.282553     78.10851    869.28693   -4614.0116 
 1727000    95.544775   -5052.1833   -4867.9172   -5052.1833            0    1058.2863    19.874787    20.136287    20.824955    8334.2387    1607.9167    189.58018    1377.3619   -181.96709     977.9825    417.67825   -4739.2864 
 1728000    95.495091   -5066.4757   -4882.3054   -5066.4757            0    540.97601    20.134883     19.88523    20.778842    8319.5735   -29.803216    1259.6957    393.03552   -382.79575    408.45407     433.7508   -4816.6674 
 1729000    97.684714   -5073.3879   -4884.9947   -5073.3879            0    1513.6557    19.963961    19.996049    20.788557    8298.7993    1758.2684    1027.2902    1755.4083    185.03443    579.79039    454.27034   -4701.7977 
 1730000    97.721295   -5066.3595   -4877.8957   -5066.3595            0     1157.931    20.014587    20.048374    20.729053    8317.7384    1503.6221    90.872367    1879.2987   -386.55611   -526.55017   -574.82883   -4737.4321 
 1731000    92.457831   -5062.3259   -4884.0132   -5062.3259            0    1772.1351    19.964547    19.917594    20.892618    8307.8606    2075.6775    1671.1659     1569.562    -352.8178   -289.34619   -391.74896   -4669.2984 
 1732000    92.603604   -5068.3484   -4889.7546   -5068.3484            0    1021.8282    19.997502    19.970217    20.825173    8316.6256    1205.5467    6.7708208    1853.1671   -90.959682    369.83513   -1279.4017   -4765.8176 
 1733000    93.086433   -5074.5867   -4895.0617   -5074.5867            0    923.90981    20.070004    19.974701    20.699007    8298.0734     789.3737    321.11278    1661.2429   -5.8317768    481.02034   -51.166285   -4783.2511 
 1734000    93.419005   -5061.9506   -4881.7842   -5061.9506            0    1653.9212    20.021275    20.068814    20.531899    8249.7837    1295.7791     748.2913    2917.6934   -617.78317    936.31264   -302.20973   -4682.7933 
 1735000     88.17047    -5065.909   -4895.8648    -5065.909            0    1468.2308    19.944597    20.033136    20.714059    8276.3608     1734.855    1048.1654     1621.672    269.42285    800.10483   -680.42892   -4718.6461 
 1736000    90.790143   -5070.4947   -4895.3983   -5070.4947            0    1509.9108    20.016183     20.02578    20.624019    8266.9251    2412.5158    460.59459    1656.6219   -455.25482    802.41071    67.570657   -4713.3564 
 1737000    91.995822   -5068.7674   -4891.3458   -5068.7674            0    1561.8874    19.995537    19.984941    20.728481    8283.3006    1163.6683    1000.7114    2521.2824   -89.013318    128.90093    426.36726   -4702.6644 
 1738000    96.508857   -5070.0189   -4883.8934   -5070.0189            0    2530.8375    19.847825    19.984652    20.841931    8266.9909    3010.6021    2241.6548    2340.2556   -381.92526    254.39078   -666.71777   -4578.7615 
 1739000    91.043004   -5066.8646   -4891.2805   -5066.8646            0    1901.1821    19.967162    19.862405    20.949817    8308.6105    1886.7686    1987.7083    1829.0696    24.248851    757.12443   -338.51614   -4660.9094 
 1740000    92.926443   -5063.2333   -4884.0169   -5063.2333            0     2147.986    19.950534    19.891858    20.785511    8248.7965    2889.7254    1660.4516    1893.7809    321.98734    592.58886    606.72239   -4625.6136 
 1741000    89.131816   -5070.3488   -4898.4506   -5070.3488            0    144.11965    19.887193    19.996046    20.989088    8346.6307    723.54622   -744.24535    453.05807   -153.55082    -74.46331   -611.18519   -4880.9073 
 1742000    91.328952   -5064.3566   -4888.2211   -5064.3566            0    2415.1424    19.970375    19.896734    20.861747    8289.3159    3116.5523    2056.1725    2072.7025    44.993133    114.75755    461.32319   -4596.2517 
 1743000    92.048828   -5059.0786   -4881.5546   -5059.0786            0      2860.83    19.946023    19.852428    20.847552    8255.1508    2292.4084    3632.7369    2657.3448   -148.92775    591.62576    256.81608    -4537.131 
 1744000     89.88348   -5054.7557   -4881.4079   -5054.7557            0    773.48844     19.97573    19.844069    21.081027    8356.5145    1400.9414    687.71948    231.80444   -292.63446    483.75905      718.948   -4787.1419 
 1745000    98.660229   -5064.7879   -4874.5133   -5064.7879            0    1299.6516    19.956866    19.997243    20.819219    8308.5819    399.49091    1415.6955    2083.7683    24.091153   -37.458714    284.48842   -4717.0318 
 1746000     95.43047   -5067.5877    -4883.542   -5067.5877            0    1214.9222     19.96125    19.967399    20.909378    8333.9397    1138.3202    848.97947    1657.4671   -18.601529    121.63662   -291.69574    -4735.878 
 1747000    94.911921   -5075.5862   -4892.5406   -5075.5862            0    1971.3491    19.892539    19.893184    20.894015    8268.3041    1370.3438     2877.113    1666.5906   -84.165293   -766.73227    -63.81806    -4654.826 
 1748000    98.285132   -5070.4617   -4880.9105   -5070.4617            0    1983.7606    19.903835    19.966606    20.896873    8304.6686    2510.3178    888.26809     2552.696    -462.2316    525.99833     391.7593   -4640.6472 
 1749000    89.507224   -5070.3743   -4897.7521   -5070.3743            0    1805.9663    19.957961    19.905395    20.884314    8296.7342    1188.8304    2662.2881    1566.7803   -143.71794    609.65049   -177.31761   -4679.2314 
 1750000    98.497353   -5064.1335    -4874.173   -5064.1335            0    1215.9304    19.920506    20.015422    20.832052    8306.1002    2191.9479   -70.632394    1526.4756   -339.30013    -133.1002    -406.9206   -4726.8801 
Loop time of 351.622 on 64 procs for 250000 steps with 972 atoms

Performance: 122.859 ns/day, 0.195 hours/ns, 710.991 timesteps/s
99.1% CPU use with 64 MPI tasks x 1 OpenMP threads

MPI task timing breakdown:
Section |  min time  |  avg time  |  max time  |%varavg| %total
---------------------------------------------------------------
Pair    | 18.283     | 27.383     | 36.981     |  87.2 |  7.79
Bond    | 0.25672    | 0.27435    | 0.28528    |   1.1 |  0.08
Kspace  | 140.17     | 149.64     | 159.36     |  37.7 | 42.56
Neigh   | 0.45821    | 0.46418    | 0.47187    |   0.5 |  0.13
Comm    | 81.516     | 82.538     | 83.299     |   3.8 | 23.47
Output  | 0.59184    | 0.59319    | 0.59546    |   0.1 |  0.17
Modify  | 81.509     | 83.113     | 85.99      |  11.6 | 23.64
Other   |            | 7.615      |            |       |  2.17

Nlocal:        15.1875 ave          20 max          11 min
Histogram: 1 5 15 1 14 8 11 5 3 1
Nghost:        2253.12 ave        2297 max        2227 min
Histogram: 2 8 17 13 8 6 4 5 0 1
Neighs:        4743.72 ave        6220 max        3116 min
Histogram: 1 6 6 11 8 6 7 10 4 5

Total # of neighbors = 303598
Ave neighs/atom = 312.34362
Ave special neighs/atom = 2.0000000
Neighbor list builds = 1354
Dangerous builds = 0

unfix		3
unfix		2
unfix		1

write_data	data.final.${pid}
write_data	data.final.1
System init for write_data ...
PPPM initialization ...
  extracting TIP4P info from pair style
  using 12-bit tables for long-range coulomb (../kspace.cpp:340)
  G vector (1/distance) = 0.37244381
  grid = 24 24 25
  stencil order = 5
  estimated absolute RMS force accuracy = 0.0034030463
  estimated relative force accuracy = 1.0248173e-05
  using double precision FFTW3
  3d grid and FFT values/proc = 2366 288
Last active /omp style is kspace_style pppm/tip4p/omp
WARNING: Not all mixed pair coeffs generated from mixing. Use write_data with 'pair ij' option to store all pair coeffs. (../write_data.cpp:312)

write_restart   restart.lmp.${pid}
write_restart   restart.lmp.1
System init for write_restart ...
PPPM initialization ...
  extracting TIP4P info from pair style
  using 12-bit tables for long-range coulomb (../kspace.cpp:340)
  G vector (1/distance) = 0.37244381
  grid = 24 24 25
  stencil order = 5
  estimated absolute RMS force accuracy = 0.0034030463
  estimated relative force accuracy = 1.0248173e-05
  using double precision FFTW3
  3d grid and FFT values/proc = 2366 288
Last active /omp style is kspace_style pppm/tip4p/omp
Total wall time: 0:05:51
