#include		in.partitions
include		in.temp
variable        temperature equal 94.91
variable	tempDamp equal 100.0
include		in.pressure
variable        pressure equal 1793.8
variable        pressureDamp equal 1000.0 # This is 1 ps
include		in.seed
variable        seed equal 745823

units		real
atom_style	full
box tilt large
read_restart	restart.lmp.${pid}
read_restart	restart.lmp.0
Reading restart file ...
  restart file = 30 Jul 2021, LAMMPS = 30 Jul 2021
  restoring atom style full from restart
  triclinic box = (-10.624380 -9.1661121 0.079929623) to (12.604380 12.156110 21.780069) with tilt (-9.0707115 1.8660579 2.8600010)
  4 by 4 by 4 MPI processor grid
  restoring pair style lj/cut/tip4p/long/omp from restart
  restoring bond style harmonic/omp from restart
  restoring angle style harmonic/omp from restart
  1296 atoms
  864 bonds
  432 angles
Finding 1-2 1-3 1-4 neighbors ...
  special bond factors lj:    0        0        0       
  special bond factors coul:  0        0        0       
     2 = max # of 1-2 neighbors
     1 = max # of 1-3 neighbors
     1 = max # of 1-4 neighbors
     2 = max # of special neighbors
  special bonds CPU = 0.004 seconds
  read_restart CPU = 0.011 seconds
include 	in.setup
variable	out_freq equal 1000
variable	out_freq2 equal 10000
variable	out_freq3 equal 1000

timestep	2.0

neigh_modify    delay 7 every 1

include		in.tip4p
# This is TIP4P/Ice

# create groups ###
group ox type 2
432 atoms in group ox
group hy type 1
864 atoms in group hy

# set charges - beside manually ###
set group ox charge -1.1794
Setting atom values ...
  432 settings made for charge
set group hy charge 0.5897
Setting atom values ...
  864 settings made for charge

# ### TIP3P Potential Parameters ###
pair_style lj/cut/tip4p/long/omp 2 1 1 1 0.1577 8.5
pair_coeff 1 1*2 0.000 0.000
pair_coeff 2 2 0.21084 3.1668
bond_style  harmonic
bond_coeff  1 450 0.9572
angle_style harmonic
angle_coeff 1 55 104.52
kspace_style pppm/tip4p/omp 1.0e-5
pair_modify tail yes

thermo          ${out_freq}
thermo          1000
thermo_style    custom step temp pe etotal epair emol press lx ly lz vol pxx pyy pzz pxy pxz pyz enthalpy

restart 	${out_freq3} restart.lmp.${pid} restart2.lmp.${pid}
restart 	1000 restart.lmp.${pid} restart2.lmp.${pid}
restart 	1000 restart.lmp.0 restart2.lmp.${pid}
restart 	1000 restart.lmp.0 restart2.lmp.0


include         in.dump
dump            myDump all atom ${out_freq2} dump.water.${pid}
dump            myDump all atom 10000 dump.water.${pid}
dump            myDump all atom 10000 dump.water.0
dump            myDump2 all dcd ${out_freq2} dump.dcd
dump            myDump2 all dcd 10000 dump.dcd
dump_modify     myDump append yes
dump_modify     myDump2 append yes


variable natoms 	equal  "count(all)"                        # NUMBER ATOMS
variable H      	equal  "enthalpy/v_natoms"                 # ENTHALPY-per-atom
variable Vol      	equal  "vol/v_natoms"                 # volume-per-atom
fix AVG all 		ave/time ${out_freq} 1 ${out_freq} v_Vol v_H file vol_enthalpy.dat
fix AVG all 		ave/time 1000 1 ${out_freq} v_Vol v_H file vol_enthalpy.dat
fix AVG all 		ave/time 1000 1 1000 v_Vol v_H file vol_enthalpy.dat


timer           timeout 10:00:00 every 1000
New timer settings: style=normal  mode=nosync  timeout=10:00:00

fix 		1 all shake 1e-6 200 0 b 1 a 1
       0 = # of size 2 clusters
       0 = # of size 3 clusters
       0 = # of size 4 clusters
     432 = # of frozen angles
  find clusters CPU = 0.001 seconds
fix             2 all nph tri ${pressure} ${pressure} ${pressureDamp}
fix             2 all nph tri 1793.8 ${pressure} ${pressureDamp}
fix             2 all nph tri 1793.8 1793.8 ${pressureDamp}
fix             2 all nph tri 1793.8 1793.8 1000
fix             3 all temp/csvr ${temperature} ${temperature} ${tempDamp} ${seed}
fix             3 all temp/csvr 94.91 ${temperature} ${tempDamp} ${seed}
fix             3 all temp/csvr 94.91 94.91 ${tempDamp} ${seed}
fix             3 all temp/csvr 94.91 94.91 100 ${seed}
fix             3 all temp/csvr 94.91 94.91 100 745823


run             250000
PPPM initialization ...
  extracting TIP4P info from pair style
  using 12-bit tables for long-range coulomb (../kspace.cpp:340)
  G vector (1/distance) = 0.36754069
  grid = 30 40 32
  stencil order = 5
  estimated absolute RMS force accuracy = 0.0044887202
  estimated relative force accuracy = 1.3517648e-05
  using double precision FFTW3
  3d grid and FFT values/proc = 5168 640
Last active /omp style is kspace_style pppm/tip4p/omp
Neighbor list info ...
  update every 1 steps, delay 7 steps, check yes
  max neighbors/atom: 2000, page size: 100000
  master list distance cutoff = 10.8154
  ghost atom cutoff = 10.8154
  binsize = 5.4077, bins = 7 5 5
  1 neighbor lists, perpetual/occasional/extra = 1 0 0
  (1) pair lj/cut/tip4p/long/omp, perpetual
      attributes: half, newton on, omp
      pair build: half/bin/newton/tri/omp
      stencil: half/bin/3d/tri
      bin: standard
Per MPI rank memory allocation (min/avg/max) = 9.437 | 9.442 | 9.448 Mbytes
Step Temp PotEng TotEng E_pair E_mol Press Lx Ly Lz Volume Pxx Pyy Pzz Pxy Pxz Pyz Enthalpy 
 1250000    95.479751   -6765.2294   -6519.6136   -6765.2294            0    2362.5594     23.22876    21.322222     21.70014    10747.836    2219.7798    2656.1463    2211.7519   -675.88954   -193.34286    257.58149   -6149.2915 
 1251000    96.058222   -6776.6152   -6529.5113   -6776.6152            0    2959.8435    23.193114    21.382167    21.599391    10711.549    2898.9247    2795.8085    3184.7973   -71.944729   -100.98485    269.06335   -6067.1336 
 1252000    94.789421   -6771.5187   -6527.6787   -6771.5187            0    1763.1645    23.319101    21.431925    21.540742    10765.486    750.36117    2449.2958    2089.8365   -47.190828    136.66537    56.214726   -6250.8556 
 1253000    95.270623   -6775.9862   -6530.9084   -6775.9862            0    1375.0593    23.298711    21.346464    21.692549    10788.683    1002.8155     1781.822    1340.5403    200.83847   -510.29971    77.413782    -6314.554 
 1254000    96.528095    -6790.285   -6541.9724    -6790.285            0    1663.2222    23.129634    21.388002    21.775373    10772.204    2437.3658    1886.5693    665.73164   -133.03348    13.463501   -483.75931   -6280.6776 
 1255000    96.674344   -6781.2403   -6532.5514   -6781.2403            0    1548.0594     23.24523    21.357155    21.715342    10780.624    1281.2652    1441.2463    1921.6665    671.66671    289.95043    219.06707   -6289.1588 
 1256000    95.606726   -6766.6865    -6520.744   -6766.6865            0    1761.0003     23.30808    21.324236    21.685169    10778.115    999.91031    1933.8166    2349.2739    321.92708    239.60695   -54.845555   -6243.9364 
 1257000      94.6141   -6777.8556   -6534.4666   -6777.8556            0    2183.4344    23.186443     21.40753     21.65234    10747.452    1924.2028    2303.9447    2322.1557    116.70953    596.24915    223.53992   -6192.2339 
 1258000    94.123969   -6767.7535   -6525.6253   -6767.7535            0    1875.3345    23.227662    21.339153    21.727396    10769.371    1865.2046    2567.7757    1193.0232   -869.01927    713.21114   -364.41804   -6231.0848 
 1259000     99.27037   -6770.2118   -6514.8448   -6770.2118            0    2084.5362    23.257952     21.36922     21.65548    10762.867    1922.1006    2773.1407    1558.3672   -39.036256    161.37948   -291.59685   -6187.6448 
 1260000     97.47399   -6774.7471   -6524.0012   -6774.7471            0    1849.9329    23.206188    21.391574    21.679503    10762.072    2393.5775    1157.5919    1998.6294   -83.696572   -672.03933    47.935141   -6233.6472 
 1261000    94.518453   -6771.8282   -6528.6852   -6771.8282            0    2650.9544    23.197656    21.300717    21.730147    10737.446    2715.3429    3211.6445    2025.8757    40.876679    483.95192   -858.64991     -6113.56 
 1262000    96.895037   -6763.4174   -6514.1608   -6763.4174            0     1327.858    23.259623    21.372903    21.745298    10810.146    560.39187    1503.5282     1919.654    267.76198    258.74223    209.39154   -6304.8175 
 1263000    94.784952   -6763.2962   -6519.4677   -6763.2962            0    1358.6157    23.245833    21.449025    21.643588    10791.503    451.67417    1797.2836    1826.8894    891.39319    264.21791    205.39786   -6305.6447 
 1264000    91.252558   -6773.6943   -6538.9527   -6773.6943            0    2479.1062     23.33635     21.31273    21.568547    10727.361    1188.1489    2969.7055    3279.4641   -493.21448    514.70975    42.794368   -6151.1026 
 1265000    93.985603   -6770.5873   -6528.8151   -6770.5873            0    1933.2994    23.214547    21.401688    21.664322    10763.495    2571.9533    1185.5845    2042.3602   -702.77546    461.17542    380.83135   -6225.3363 
 1266000    93.185831   -6770.6185   -6530.9036   -6770.6185            0    1476.4901    23.199889    21.376271    21.745972    10784.418      1780.79    1565.6559    1083.0244   -425.97022    651.87114    26.787194   -6298.6818 
 1267000    94.249311   -6771.8329   -6529.3823   -6771.8329            0    1945.6679     23.22703    21.288992     21.79072    10775.076    2378.9087    2360.8541    1097.2408   -216.00307    324.92545   -275.15298   -6223.6334 
 1268000    91.556119   -6778.9059   -6543.3834   -6778.9059            0     1947.755    23.188061    21.350912    21.736252    10761.319    2216.7046    1890.7183     1735.842    119.26653    512.60325     304.9098   -6237.6972 
 1269000    99.156063   -6785.5072   -6530.4342   -6785.5072            0    2229.4841     23.24585    21.352406    21.626133    10734.235    1410.1887    3176.9165     2101.347    237.79188     654.3058    -930.9543   -6181.4134 
 1270000    94.231962   -6777.1282   -6534.7223   -6777.1282            0    1790.4566    23.364406     21.30646    21.610247    10757.857     1170.569    2251.5695    1949.2312   -38.254034    411.96401    478.55616   -6253.8134 
 1271000    93.978878   -6782.4291   -6540.6742   -6782.4291            0    2032.1034    23.136188     21.46852    21.627042    10742.146    2345.0021    1745.1335    2006.1747    284.93133   -738.20412    230.17733   -6222.3184 
 1272000    95.589483   -6772.1748   -6526.2767   -6772.1748            0    1716.8313    23.246311    21.333292    21.748811    10785.678    1934.1902    1983.4148    1232.8889    382.69112   -571.34896    14.856265   -6256.2225 
 1273000    95.304929   -6780.8392   -6535.6731   -6780.8392            0    1549.7211    23.270336    21.337781    21.696425    10773.085    1665.6579    1637.0545    1346.4509   -457.97764   -368.39878    140.79974   -6292.1896 
 1274000    99.309952   -6756.7936   -6501.3248   -6756.7936            0    2273.6628    23.162982    21.446966    21.645196    10752.807    1982.7905    2659.5706    2178.6272   -212.63839    762.37839    274.65809   -6144.7721 
 1275000    97.260897   -6763.7984   -6513.6006   -6763.7984            0    2063.8957    23.346184    21.321286    21.606758     10755.21    2350.2568    1229.5434     2611.887   -471.86919   -708.69146   -295.46184   -6189.8709 
 1276000    94.494693   -6757.9761   -6514.8942   -6757.9761            0    2014.7795     23.23488    21.399075    21.648679     10763.83    2697.0497    1450.5538     1896.735    162.88927    918.53097   -99.894982   -6198.6153 
 1277000    99.865321   -6779.1337   -6522.2363   -6779.1337            0    1957.1255     23.28442    21.388702    21.606616    10760.603    1338.4555    3305.1833    1227.7378   -315.27324    445.01347   -677.44472      -6215.1 
 1278000    94.841029   -6783.8191   -6539.8463   -6783.8191            0    2126.5751     23.21109     21.35711    21.701792    10758.052    2019.7622    2328.4301    2031.5329    -528.5385    -256.9623   -533.35286    -6206.197 
 1279000     89.59487   -6767.6319   -6537.1545   -6767.6319            0    1812.8367    23.140083    21.425846    21.728424    10772.863    2038.9404    2253.2522    1146.3176    143.66957   -321.84532   -214.05686   -6252.3377 
 1280000    101.92178   -6775.7206    -6513.533   -6775.7206            0    1380.4958    23.350521     21.32708    21.665364    10789.317    1323.1277    1342.7897    1475.5701   -977.16076    351.83855   -581.76964   -6296.3104 
 1281000    98.412912   -6770.3331   -6517.1719   -6770.3331            0    1693.9716    23.341995    21.407286    21.575229      10780.9    1554.2135     1384.851    2142.8503   -700.10016    -84.60356   -1344.6721   -6250.8315 
 1282000    94.940863   -6765.2466    -6521.017   -6765.2466            0     2204.804    23.227277    21.457761    21.578116    10754.649    1552.6914    3093.6562    1968.0644    1075.5735   -92.719162   -137.62623   -6175.2034 
 1283000    94.884507   -6771.8441   -6527.7595   -6771.8441            0    2085.4168    23.249525    21.326295    21.703227    10761.029    2217.6682    1432.9647    2605.6175   -749.28022    19.531185    238.82406   -6200.4771 
 1284000    92.753779   -6774.4381   -6535.8347   -6774.4381            0    1329.4044    23.152116    21.460442    21.730103    10796.702    1658.7848     1238.238    1091.1904    152.99373     231.1428   -499.09295   -6326.5082 
 1285000    96.377881   -6786.2743   -6538.3481   -6786.2743            0    1376.1067    23.297585    21.371472    21.665412    10787.288    752.27851    1556.4954    1819.5462    643.96454   -538.16455   -366.52093   -6321.8569 
 1286000    92.890262   -6774.5902   -6535.6357   -6774.5902            0    1297.9867    23.350667    21.346909    21.632068     10782.82    912.85409    993.41581    1987.6902    267.85313   -693.99949   -67.164005    -6331.519 
 1287000    96.495671   -6772.6457   -6524.4165   -6772.6457            0     1896.319    23.206681    21.486527    21.578728    10759.822     1494.636    1736.9833    2457.3377    658.91459      271.118    249.22717   -6226.8442 
 1288000    92.692399     -6766.86   -6528.4145     -6766.86            0    1812.3268    23.336603    21.194944    21.813929    10789.562    1512.6785    3232.2552     692.0468    -502.4577   -398.04372   -573.95537   -6243.2363 
 1289000    97.850582   -6779.4969   -6527.7823   -6779.4969            0    2159.9684    23.143882     21.41715    21.707625    10759.949     2327.808    2111.9501    2040.1472    269.58693   -124.19277   -639.95616   -6188.8339 
 1290000    94.205663   -6778.6024   -6536.2641   -6778.6024            0    1943.6266    23.257993    21.395162    21.617099    10756.853    1614.7652    1283.4297    2932.6848    273.82798    403.96539    485.92861   -6231.3525 
 1291000    93.017457   -6777.2451   -6537.9634   -6777.2451            0    2579.6534    23.323875    21.339253    21.591258    10746.273    2098.5528    2047.8707    3592.5366   -546.72157   -332.19005   -552.55171   -6133.6714 
 1292000    93.530183   -6772.6966   -6532.0959   -6772.6966            0    776.54069    23.183933     21.57306    21.618087    10812.251    1187.1845   -159.63541     1302.073   -808.38198    173.43054   -522.93123   -6409.6466 
 1293000    99.623394   -6779.3087   -6523.0335   -6779.3087            0    1549.7368    23.330797    21.283808     21.70045    10775.753    1235.9246    2534.0448    879.24099   -255.54801   -169.91236   -133.59879   -6279.4873 
 1294000     96.65533   -6774.5409    -6525.901   -6774.5409            0    1247.1542    23.241332    21.414611     21.66041    10780.474    1178.0933    1492.6577    1070.7116   -113.77279    27.642706   -82.523036   -6329.8207 
 1295000    88.644021    -6781.175   -6553.1437    -6781.175            0    1224.2174    23.153198    21.464456    21.707519    10788.003    1679.5634    1015.3035     977.7853    688.10268    -17.92883    146.10131   -6360.5351 
 1296000    96.508472   -6771.6178   -6523.3556   -6771.6178            0    2286.4203    23.341597    21.242877    21.704747    10762.139    2166.3975    2174.1732    2518.6902    548.09969   -768.00128   -63.032158   -6164.4911 
 1297000    94.528398   -6782.1793   -6539.0108   -6782.1793            0    2408.8148    23.066458      21.5592    21.589335    10736.255    3725.0087    861.69006    2639.7457    761.90214   -653.18792   -365.62186   -6161.8451 
 1298000     98.32524   -6773.7127    -6520.777   -6773.7127            0    1781.2853    23.355353     21.27031    21.687969    10774.054    999.15326    2399.2306    1945.4719    258.18671     337.2497   -499.48812   -6240.8863 
 1299000     95.38925   -6769.3492   -6523.9662   -6769.3492            0    1886.0844    23.244616    21.408355    21.655517    10776.413    1556.9153    2121.9545    1979.3834    485.37494    -62.91396    423.80601   -6227.5437 
 1300000    98.127301    -6779.892   -6527.4655    -6779.892            0     1990.403    23.225249    21.480914    21.519825    10736.232     1364.027    2005.2519    2601.9302    435.59807    418.44586   -125.51556   -6215.8143 
 1301000    94.346402   -6761.0775   -6518.3771   -6761.0775            0    2306.5595    23.342648    21.302623    21.610446    10746.002    1738.9746    2503.3378    2677.3662   -453.22613   -71.171631    327.90451   -6156.8945 
 1302000    95.882323   -6784.1468   -6537.4954   -6784.1468            0     926.8873    23.200737    21.482077    21.676275    10803.456    1338.9869    779.85869    661.81635   -674.93754   -150.70466    105.33155   -6391.4575 
 1303000    94.581628   -6778.6048   -6535.2993   -6778.6048            0    2367.0141    23.217616    21.249847     21.76887    10740.124    2305.1118    2872.8725    1923.0581    449.08634    597.43687    230.79273   -6164.5451 
 1304000    95.510945   -6766.1225   -6520.4264   -6766.1225            0    3100.4533    23.196483    21.280635    21.718156    10720.861    2631.3551    4273.8196    2396.1853   -319.76945    913.84406   -549.95977    -6035.662 
 1305000    94.318908   -6768.8614   -6526.2318   -6768.8614            0    1298.7145    23.229214    21.489352    21.650306    10807.416    1135.6136    1029.8298    1730.7001    207.06895    823.70907   -270.69083   -6321.5348 
 1306000    99.375065   -6771.6519   -6516.0156   -6771.6519            0    1844.9085    23.377219     21.29671    21.621931    10764.648    643.72525     2441.662    2449.3381   -206.60556    493.41161    14.994359   -6226.3809 
 1307000    95.002943   -6772.5406   -6528.1514   -6772.5406            0    1557.7356     23.14875    21.457268    21.675206    10766.269     1276.704    1866.2261    1530.2768    -19.97609    -126.8586    426.20116   -6283.5635 
 1308000    94.456006   -6771.0647   -6528.0824   -6771.0647            0     2731.396    23.166325    21.342692    21.727154    10742.594    2905.8604    3103.8786    2184.4489    442.31381   -226.59053    270.27351   -6100.1554 
 1309000    96.417658   -6777.1887   -6529.1601   -6777.1887            0    1560.8991    23.288959     21.36032    21.684267    10787.047     1514.652    1766.7526    1401.2926   -894.29363   -467.76971    272.28787   -6283.6026 
 1310000    92.803775   -6782.1342   -6543.4021   -6782.1342            0    1106.6103    23.220373    21.484194    21.606501    10778.857    1368.3039     1021.491    930.03585    111.73361   -46.480261   -120.48478   -6369.4445 
 1311000    90.716682   -6762.9061    -6529.543   -6762.9061            0    2192.6615    23.306606     21.28657    21.676467    10754.079    1941.6897    2566.0853    2070.2096     114.3543    113.74342   -496.74649   -6185.6521 
 1312000    94.020312   -6765.6147   -6523.7532   -6765.6147            0    1143.5356    23.307116    21.332707    21.697755    10788.208    461.06823    1585.8755    1383.6631    212.08378    661.72384    -85.60855   -6343.8351 
 1313000    95.356564   -6756.9656   -6511.6666   -6756.9656            0    1912.7365    23.143826    21.519874    21.628596    10772.171    3130.1715    399.29788      2208.74   -317.78647   -197.81728    192.61184   -6211.1737 
 1314000    91.595255   -6771.0851   -6535.4619   -6771.0851            0    2042.7785    23.329506    21.213614    21.719192    10748.896    1307.4613    2793.7393    2027.1347     232.5873  0.041506027   -361.98373   -6215.2326 
 1315000    93.336098   -6787.7445   -6547.6431   -6787.7445            0    1462.7903    23.157155    21.460928     21.65841    10763.668    1299.0602    1540.3999    1548.9108    -211.5617   -219.79761    478.31165   -6318.0186 
 1316000    99.508001   -6775.6867   -6519.7084   -6775.6867            0    837.31768    23.302905    21.333129    21.755541    10815.199    323.65483    1215.5837    972.71456   -58.470756    123.40791    607.37884   -6387.6395 
 1317000     92.67275   -6784.4284   -6546.0334   -6784.4284            0    1040.2293    23.204475    21.397677    21.750053    10799.377    910.92337    1619.0729    590.69175    -220.9849    82.549914    285.34628   -6382.1995 
 1318000    92.037733   -6774.3526   -6537.5912   -6774.3526            0    1779.3377    23.120384    21.431296    21.724229    10764.351    2605.6523    1251.7493    1480.6115   -156.07175    96.888361    -101.6674   -6258.2582 
 1319000     92.44928   -6784.9576   -6547.1375   -6784.9576            0    1641.3939    23.327412    21.222706    21.741885    10763.772    972.95683    2385.5582    1565.6668    509.68847   -223.58829     255.4333   -6289.4738 
 1320000    92.949924    -6770.686    -6531.578    -6770.686            0    1939.7638    23.084672    21.537459    21.658901    10768.484    2697.7464    674.61666    2446.9283    46.190271    161.62467    333.29232   -6226.9433 
 1321000    99.317907   -6783.6134   -6528.1241   -6783.6134            0    1446.3288    23.255454    21.335138    21.726269    10779.669    1684.1607    1937.5384    717.28735     284.1164   -464.05764    481.98337   -6300.7461 
 1322000    97.480789   -6759.2915   -6508.5281   -6759.2915            0    1675.5283    23.303907     21.36385    21.663789    10785.559    1318.3886    1455.3571    2252.8394   -744.47703    358.33519   -218.74937   -6244.9737 
 1323000    92.860441   -6776.7437   -6537.8659   -6776.7437            0    1926.8166    23.170805    21.498199    21.571061    10745.205    2427.8242    743.25389    2609.3716    568.52516    419.49631    138.70998   -6235.9187 
 1324000    96.147705   -6778.8357   -6531.5015   -6778.8357            0    1681.2645    23.326892    21.202266    21.777144    10770.605    1755.1688    2718.2138    570.41071    331.90118   -732.61821   -412.42568   -6267.4115 
 1325000    95.771498   -6777.8367   -6531.4703   -6777.8367            0    2176.7265    23.148197    21.401399    21.724761    10762.529    2283.5577    2157.9364    2088.6853    651.76981   -48.337188    89.765074   -6189.8104 
 1326000    97.717024    -6783.607   -6532.2359    -6783.607            0    1303.4472    23.246357    21.313078    21.793094    10797.419    744.20772    2376.7255    789.40831    885.98315   -330.11569   -42.034735    -6326.983 
 1327000    94.454849   -6781.8177   -6538.8383   -6781.8177            0    1353.4965    23.231171    21.386551    21.689821    10776.254    1693.4377    1472.8133    894.23851   -504.84432   -9.4869568    93.204616    -6326.122 
 1328000    98.244928   -6767.0765   -6514.3474   -6767.0765            0    1286.2444    23.255113    21.446227    21.602453    10773.888    780.32024    1355.9284    1722.4846    637.11167   -10.050373   -19.969841   -6312.2448 
 1329000    92.688947   -6777.0251   -6538.5885   -6777.0251            0    1894.3092    23.383377    21.293616    21.611141    10760.547    1065.1448    2077.8011    2539.9817    92.110627   -311.61234    222.37091   -6241.3116 
 1330000    97.888216   -6769.9911   -6518.1796   -6769.9911            0    1102.9368    23.126067    21.476934    21.729014    10792.302    1688.1178    159.79423    1460.8985   -144.16913    423.62342   -86.230281   -6344.5833 
 1331000    92.784766   -6773.1921    -6534.509   -6773.1921            0    1262.1219    23.286417    21.281637    21.762214    10784.767    1266.5612    1446.4283     1073.376    51.953882    427.76579    21.464251   -6335.9964 
 1332000    93.967113   -6773.2655   -6531.5409   -6773.2655            0    2480.1462    23.260672    21.365613    21.614754    10742.068    2930.4142    2082.6859    2427.3384    476.26306   -326.65563   -247.38682   -6142.9961 
 1333000    95.205815   -6776.3503   -6531.4391   -6776.3503            0    1434.3363    23.193666    21.468213    21.645209    10777.724     1179.667    1025.2778    2098.0642    22.759791    287.71944    305.88012   -6305.9872 
 1334000    100.36073   -6767.8955   -6509.7236   -6767.8955            0    1844.0205    23.398918    21.235263     21.69225    10778.492    2070.4885    1726.8419    1734.7312   -1211.5687   -432.87192    367.91707   -6219.8561 
 1335000    92.341438   -6771.8579   -6534.3152   -6771.8579            0    1524.5184      23.1083    21.523088    21.688946    10787.257    2866.7291   -10.980198    1717.8063   -23.104794    42.294868    914.65706   -6294.4763 
 1336000    94.658455   -6780.6462   -6537.1431   -6780.6462            0     1650.157    23.267737    21.355906     21.69595    10780.796    1125.4425    1604.6654    2220.3631    287.27183   -121.98025     408.5342   -6277.6941 
 1337000    92.366175   -6778.5732   -6540.9669   -6778.5732            0      2088.51     23.22066    21.316681    21.740896     10761.47     2404.799    2232.1433    1628.5877     97.61375    451.60356    -160.8948   -6213.1857 
 1338000    91.686142   -6761.5019   -6525.6449   -6761.5019            0    1874.1113    23.260486     21.41624    21.608492    10764.316    1863.1718     1984.653     1774.509    55.322524    796.67491   -204.71557   -6231.4347 
 1339000     90.81036   -6781.8803   -6548.2762   -6781.8803            0    2426.0273    23.328933    21.311317    21.583756    10730.802    1846.7684     3475.076    1956.2376    -7.011955    641.07567   -376.12993   -6168.6084 
 1340000    92.757235   -6775.8051   -6537.1928   -6775.8051            0    1278.0309    23.142823     21.46773    21.699062    10780.612    1994.4168     1064.834    774.84202    450.61301   -421.89512    160.01311   -6336.2554 
 1341000    93.819644    -6783.881   -6542.5356    -6783.881            0    1598.6109    23.226392     21.26515    21.823146    10778.729    1985.5737    2336.1529    474.10602   -837.22518    100.77447   -603.11261   -6291.2393 
 1342000    93.796004   -6773.2592   -6531.9747   -6773.2592            0    1770.9685    23.279772    21.320524     21.70964    10775.296    1275.7368    2660.6754    1376.4932    693.12448    197.35272   -20.806009   -6253.6729 
 1343000    94.975521   -6777.1085   -6532.7898   -6777.1085            0    1352.7449    23.155256    21.517269    21.638267    10781.004    1636.7651    1352.6938    1068.7758   -154.92909    505.13765   -504.71476   -6320.0979 
 1344000    95.891757   -6772.8764   -6526.2007   -6772.8764            0    1345.4503    23.484639    21.259886    21.589189    10779.066    662.67026    1352.9466     2020.734   -627.90969    397.21156   -370.77934   -6314.6937 
 1345000    92.187891    -6781.889   -6544.7413    -6781.889            0    1708.1949    23.145565    21.506552    21.654054    10778.983    2261.3786    978.11367    1885.0924   -98.034051   -152.17729     45.27304   -6276.2124 
 1346000    96.602642   -6769.4497   -6520.9453   -6769.4497            0     2090.405    23.308437    21.332939     21.63018    10755.336    1971.0878    1934.4202     2365.707   -620.92893    -148.7767   -532.41232   -6193.0537 
 1347000    92.591003   -6768.8303   -6530.6456   -6768.8303            0    1715.7585     23.24181    21.402903    21.642843    10766.064     2552.148     1690.147    904.98059   -960.33805   -321.46267   -80.917949   -6261.2509 
 1348000    92.521171   -6785.2799   -6547.2748   -6785.2799            0     1768.685    23.152444    21.490629    21.647666    10771.026    2407.9353    611.10278    2287.0167    486.85318   -720.83071   -172.25862   -6269.4421 
 1349000    95.864347   -6775.5563   -6528.9511   -6775.5563            0    1125.3809    23.356673    21.336045    21.699265     10813.59    1032.2924     1378.243    965.60736   -358.83449    173.70243   -781.38602   -6351.4728 
 1350000    95.515989   -6783.7568   -6538.0477   -6783.7568            0    839.77539    23.158585    21.474656    21.730301    10806.971    1862.6336    437.55758    219.13501   -245.86634   -41.707992   -991.58404   -6405.6919 
 1351000    93.728194   -6784.4842   -6543.3741   -6784.4842            0    1696.3619    23.250046    21.355971    21.677463    10763.453    1427.2895    2911.1241    750.67217    101.34649    46.815592   -869.59267   -6277.0895 
 1352000    95.679037   -6776.0456   -6529.9171   -6776.0456            0     1678.762    23.344239    21.393725    21.561826    10768.412    1243.9178    1825.5422    1966.8261   -542.40401    361.05395   -242.92941   -6266.2738 
 1353000    96.065959   -6765.4478    -6518.324   -6765.4478            0     2122.652    23.248779     21.48716    21.556353    10768.481    2211.8207    1832.0012    2324.1341    -199.3454   -131.12575   -644.69058   -6184.9673 
 1354000    97.307076    -6778.836   -6528.5195    -6778.836            0    2486.4479    23.194646    21.329957    21.717839    10744.701    3275.4985    2503.6096    1680.2356   -141.04684   -823.40687   -104.34842    -6138.892 
 1355000    93.772142   -6766.0591    -6524.836   -6766.0591            0    1826.8091    23.228606    21.324922    21.755718    10776.656    1381.2824    2344.6283    1754.5167   -344.81313    205.09688   -845.84007   -6237.7228 
 1356000     90.22359   -6770.5547     -6538.46   -6770.5547            0    902.51223     23.28275    21.441113    21.675393    10820.531    771.77993    521.06066    1414.6961    388.97732   -151.69553    117.13668   -6396.0378 
 1357000    93.267666   -6775.2461   -6535.3207   -6775.2461            0     1858.856    23.378969    21.318844    21.561444    10746.495    327.02866    3011.3243    2238.2151    580.82391    139.71495   -563.69427   -6243.9885 
 1358000    92.647248   -6770.8374    -6532.508   -6770.8374            0    1993.3835    23.226418    21.400914    21.636831    10754.946    1945.6449    2537.2539    1497.2517   -84.514842    193.32791   -247.84505   -6219.8461 
 1359000    94.536638   -6781.9598   -6538.7701   -6781.9598            0    1497.5577    23.278593    21.330103    21.723839    10786.642    1544.1134    1960.2142    988.34558   -820.80457   -137.99248    70.908878   -6303.1861 
 1360000    92.857095     -6775.52   -6536.6508     -6775.52            0    1832.5223    23.195083    21.377716    21.726017    10773.017    1673.9092    1927.7878    1895.8701    -124.7823   -146.16308    251.69672   -6248.7369 
 1361000    94.038511   -6769.0644   -6527.1561   -6769.0644            0    2058.2366    23.160906    21.348533    21.780042    10769.172    2656.7824    2137.9496    1379.9778   -361.17742   -155.85073   -99.633852   -6203.8949 
 1362000    98.245745   -6779.8458   -6527.1146   -6779.8458            0    1677.2633    23.262471    21.302135    21.740791    10773.438    2051.4327    812.75161    2167.6056   -173.60173     244.1576    256.90238   -6263.5837 
 1363000    98.287692    -6781.016   -6528.1769    -6781.016            0    1708.1369    23.262598    21.408701    21.606339    10760.433    881.26672    1891.9436    2351.2005    962.93973    480.08799    211.77259   -6260.1191 
 1364000    92.599376   -6761.1921   -6522.9859   -6761.1921            0     1512.477     23.31255     21.39126    21.621441    10782.284    1531.7943    853.38664    2152.2502    282.74276   -187.31883    363.23168    -6285.151 
 1365000    94.953339   -6769.9814   -6525.7198   -6769.9814            0    2136.6457    23.241847    21.319781     21.69156    10748.408    1643.1129    3062.5482    1704.2761   -151.37462    463.08439   -241.22468   -6190.7909 
 1366000    90.554368   -6779.3083   -6546.3627   -6779.3083            0    1949.4308    23.174367     21.41289    21.653387    10745.064    2276.0283    1416.9484    2155.3156   -269.35102     358.3599   -590.85883   -6240.8758 
 1367000    90.891978   -6789.1666   -6555.3525   -6789.1666            0    1890.7747    23.310503    21.321502    21.652726    10761.728    1310.5957    2044.3963    2317.3321    194.71156     -276.606    92.912659   -6258.5977 
 1368000    93.178017   -6781.5894   -6541.8947   -6781.5894            0    1313.3079    23.197484     21.43059    21.689064     10782.41    1571.0662    843.38419    1525.4732    434.95544   -239.15792   -266.11619   -6335.3765 
 1369000    92.951138   -6769.7188   -6530.6077   -6769.7188            0    2322.4383    23.167533    21.351911    21.720595    10744.551    3207.0974    2051.2269    1708.9905    327.37784   -149.86797    50.218837   -6166.6857 
 1370000    95.799652   -6779.8509   -6533.4121   -6779.8509            0    1862.3912    23.296546    21.347637    21.670024    10777.071    1762.6447    2031.1271    1793.4018   -204.12118   -105.74353    -122.1766   -6240.6954 
 1371000    87.478546   -6758.3515   -6533.3183   -6758.3515            0    2494.6426    23.229277    21.445827    21.549491    10735.333    2747.2801    1775.1808    2961.4668    826.98547   -351.85438    21.046231   -6142.7475 
 1372000    98.198448   -6768.3597   -6515.7502   -6768.3597            0    1623.7678    23.277093    21.377289     21.63858    10767.382    1732.2434    896.67885     2242.381   -332.77011    -106.0135    301.86019    -6260.768 
 1373000    93.223472   -6772.3407    -6532.529   -6772.3407            0    1770.4186    23.247523    21.294372     21.73031    10757.403    2047.0409    2317.4047    946.81013    -530.0004    674.05929   -599.99154   -6254.7757 
 1374000    93.333151    -6765.602   -6525.5082    -6765.602            0     1765.633    23.133608    21.430837      21.7297    10772.989    1913.7115    1334.1268    2049.0606   -42.053148    247.01818    385.17437   -6248.1043 
 1375000    96.239315   -6768.6177   -6521.0479   -6768.6177            0     2124.965    23.283029    21.289055    21.699061    10755.653    2021.5422    3264.7323    1088.6205    92.297779   -452.76521   -609.94949   -6187.7255 
 1376000    94.072107    -6774.353   -6532.3582    -6774.353            0    1750.3221    23.233455    21.394975    21.637984    10755.791    801.92529    2006.5092    2442.5318    200.72721    523.51356    189.91437   -6257.7989 
 1377000    94.342796   -6774.4605   -6531.7694   -6774.4605            0    1851.3954     23.23003    21.340543    21.691124     10753.19    1669.9999    1818.6922    2065.4941   -40.136905     102.5256     329.6308   -6241.4257 
 1378000    92.798135   -6767.3544   -6528.6368   -6767.3544            0    2485.9761    23.292327    21.232067    21.709848    10736.481    2030.4465     4046.662    1380.8199    154.57134    40.568332   -375.43469   -6139.3813 
 1379000    99.891686   -6772.4129   -6515.4476   -6772.4129            0    1561.4745    23.148932    21.413373    21.758332    10785.534    1480.6556    1865.2844    1338.4835   -6.7598419    493.78732   -288.52798    -6269.834 
 1380000    91.080877   -6785.3904   -6551.0904   -6785.3904            0      1975.52    23.301765    21.211577    21.753802     10752.19    1182.9078    3081.6365    1662.0156   -10.675428    954.16593    626.14951   -6241.3098 
 1381000    93.146133   -6784.7342   -6545.1214   -6784.7342            0    1769.0166    23.177584     21.41438    21.646051    10743.662    1792.0175    1622.6174     1892.415   -351.95126   -67.511837    273.28676   -6267.9426 
 1382000    97.188613   -6766.6891   -6516.6773   -6766.6891            0    1963.5949    23.213191    21.403619    21.651101    10757.269    2126.9594    1475.4574    2288.3679   -4.3427951   -294.86812    794.82412   -6208.6212 
 1383000    94.896781   -6768.9867   -6524.8705   -6768.9867            0    2512.8909     23.26906    21.258857    21.717742    10743.194     2213.711    2088.5466    3236.4151   -383.35219    366.23768    907.12515   -6131.1546 
 1384000    94.397779   -6787.1789   -6544.3464   -6787.1789            0    1449.8696    23.120798    21.413319    21.744383    10765.492    2369.2047   -64.069071    2044.4733    759.67285   -158.01855    1378.7681   -6316.7116 
 1385000    93.734543   -6785.3143   -6544.1879   -6785.3143            0    888.41308    23.243581    21.370729    21.716362    10787.218     752.0678    1366.9313    546.24014    223.96201    -71.89465    262.50512   -6404.4223 
 1386000    98.299916   -6773.0733   -6520.2028   -6773.0733            0     1706.059    23.341106     21.27203    21.676542    10762.679     1466.942    1970.8096    1680.4253   -47.931765     60.07696    514.23962   -6252.4153 
 1387000    96.057871   -6780.7302   -6533.6272   -6780.7302            0    1662.7437    23.124364    21.437236    21.714039    10764.137    2257.7505    1603.3462    1127.1343   -258.91381    157.75218     531.7882   -6272.6033 
 1388000    91.641388   -6776.1339    -6540.392   -6776.1339            0     1694.283    23.226935    21.291791    21.745636    10754.153      1313.87    1820.7102    1948.2688   -178.85041    354.01104    591.86644   -6274.6635 
 1389000    96.314673   -6782.6752   -6534.9115   -6782.6752            0    2290.7474    23.233231    21.324932    21.663726     10733.23     2441.498    2544.8725    1885.8716     703.1499   -979.92282    498.25092   -6176.3336 
 1390000    93.494531   -6775.5986   -6535.0896   -6775.5986            0    1920.8912    23.160006    21.411553    21.695759    10758.747    1678.2744    1918.3639    2166.0351    712.87626    28.175466    330.66586   -6233.6916 
 1391000    91.120317   -6773.1252   -6538.7238   -6773.1252            0      1585.47    23.291094    21.272493    21.744999    10773.769    820.14804    2204.6499     1731.612    9.3741306    845.13798    263.61241   -6289.6078 
 1392000    96.438823   -6777.9735   -6529.8905   -6777.9735            0    1115.7655    23.209222    21.411477     21.71867    10792.956    1241.7126    686.54339    1419.0404    422.23613    75.110115    772.84316   -6354.2643 
 1393000    96.077366   -6776.9918   -6529.8387   -6776.9918            0    2180.3595    23.178746    21.383374    21.682275    10746.599     2287.759     1868.202    2385.1175    -329.1161    353.26298    659.33306    -6188.115 
 1394000     99.37071   -6788.3916   -6532.7665   -6788.3916            0    1918.7487    23.365996    21.211276    21.702346    10756.173     1165.108    2295.3092    2295.8288   -238.28998    887.17608     666.6178   -6231.7767 
 1395000    94.495484   -6759.9832   -6516.8993   -6759.9832            0    2145.1711    23.207401    21.460407    21.602875    10759.101    1953.5609    1377.0614    3104.8911   -157.22111   -248.28476    587.69873   -6180.2995 
 1396000    92.508342   -6773.1603   -6535.1882   -6773.1603            0     2237.278    23.263941    21.330373    21.628464    10732.661    2774.5076    2339.4151    1597.9112    361.54012   -412.82261    450.61434   -6184.9986 
 1397000    94.091584   -6783.1612   -6541.1164   -6783.1612            0    1914.2683    23.234967    21.312312    21.739313    10765.109    2046.7543    2460.0311    1236.0196    461.50492    20.355268    556.30059   -6240.5799 
 1398000    92.434084   -6782.9291   -6545.1481   -6782.9291            0    1833.9279    23.149712    21.427566    21.718309    10773.193    2491.2285    1519.1087    1491.4466    546.73406   -383.52317    275.55951   -6257.0087 
 1399000    96.859957   -6768.8955   -6519.7292   -6768.8955            0     1483.617    23.437215    21.242159     21.64831    10777.764    623.17022    1887.2868    1940.3941    425.45239   -251.98583   -59.025671   -6286.5303 
 1400000    93.943044   -6777.7971   -6536.1343   -6777.7971            0    2155.0178    23.243288    21.414995    21.582658    10742.873     1980.145    815.05252    3669.8557    823.27896    513.83728    520.13167   -6198.4995 
 1401000    95.839406   -6769.2185   -6522.6775   -6769.2185            0    1902.5488    23.194832    21.395441    21.678579    10758.291    2385.4689    1125.8911    2196.2863   -889.57176    87.157731    365.54399   -6224.1702 
 1402000    92.431417    -6779.295   -6541.5208    -6779.295            0      1363.07    23.364409    21.223217    21.754879    10787.547       507.54    2409.9669    1171.7033   -477.13207   -56.481864    81.678614   -6327.0754 
 1403000     96.52581    -6765.902   -6517.5953    -6765.902            0    1718.2674    23.064221    21.520083      21.7037      10772.5    2444.6629    1038.6791    1671.4603      812.703    323.05753   -732.75026   -6247.6454 
 1404000    90.460112   -6765.7477   -6533.0446   -6765.7477            0    2087.9806     23.31407    21.275004    21.695324    10761.031    1866.1015    2057.0406    2340.7998    636.35579   -320.75641   -13.060615   -6205.3598 
 1405000     92.31751   -6778.7494   -6541.2682   -6778.7494            0    2076.4159    23.216187    21.452744    21.583392    10749.628    1912.5004     2113.375    2203.3723    366.71326   -81.264547   -453.23232   -6215.7437 
 1406000    92.616816   -6788.9424   -6550.6913   -6788.9424            0    1841.9401    23.289974    21.400642    21.584055    10757.933    1608.2642    852.56687    3064.9893    -490.0972   -49.011053    694.55711    -6261.703 
 1407000    94.282943   -6780.1156   -6537.5785   -6780.1156            0    2159.4425    23.236581    21.327728    21.699629    10753.978    2347.0045    1649.2443    2482.0786   -471.59763    130.79463    378.86722   -6198.9008 
 1408000    97.553938   -6791.0026   -6540.0511   -6791.0026            0    2248.0446    23.084535    21.409558    21.708218    10728.846    3033.5066     1707.449    2003.1782    36.467762    573.44979   -302.99083   -6188.3013 
 1409000    97.055253   -6779.3053   -6529.6366   -6779.3053            0    2107.6151    23.335735    21.178285    21.741883    10745.075    1800.7717    2916.5303    1605.5433    909.18041   -244.04826    75.335943   -6199.3609 
 1410000    92.206371   -6774.5558   -6537.3605   -6774.5558            0    2190.2647    23.223518    21.417053    21.598265     10742.53    2386.6734    2030.4443    2153.6764     287.2431    441.93801   -321.68091   -6194.2144 
 1411000    93.101686   -6782.0583   -6542.5599   -6782.0583            0    2696.0157    23.260552    21.305696    21.619101    10714.043    2329.6733    3273.6835    2484.6902    164.47555   -13.390815   -159.60386   -6121.2985 
 1412000    95.879864   -6779.7186   -6533.0735   -6779.7186            0    912.00175    23.244852    21.405539    21.720414    10807.396    1084.8607    642.70919    1008.4353   -353.38606   -251.45445   -67.346826   -6389.3285 
 1413000     92.04989   -6769.2909   -6532.4982   -6769.2909            0    1361.3399    23.160379    21.432899    21.747346    10795.254    2456.1501    764.08922    863.78033    223.48432   -653.98081   -95.534848    -6318.172 
 1414000    91.980096   -6777.1539   -6540.5408   -6777.1539            0    1904.6005    23.306246    21.273236    21.708796    10763.205    1224.1816    2496.2113    1993.4085    592.98409   -274.24162   -325.94232    -6241.575 
 1415000    96.063413    -6778.167   -6531.0498    -6778.167            0    1593.9521    23.232904    21.506945     21.54085     10763.29     1876.406    873.91095    2031.5394    170.68866    346.66321     173.8343   -6280.8446 
 1416000    93.855752   -6760.3194   -6518.8811   -6760.3194            0    2436.8392    23.320151    21.347016    21.560194    10733.002    2222.3103    2236.7756    2851.4318   -45.210753    220.14486   -334.29529   -6137.4431 
 1417000    91.716813   -6768.6756   -6532.7397   -6768.6756            0    2279.3977    23.232024    21.365044    21.669127    10755.541    1746.1178    2115.3125    2976.7627    526.59486   -301.19755    55.440731   -6175.1967 
 1418000    99.838604   -6781.4072   -6524.5785   -6781.4072            0    1536.0511     23.15847    21.393794    21.771914    10786.841    2159.8812    857.85283    1590.4192    412.62852   -108.10246    106.49328   -6282.9346 
 1419000    99.796259   -6767.3774   -6510.6576   -6767.3774            0    2481.2889     23.30722    21.174237    21.790932      10754.1    1812.3985     3793.284     1838.184   -55.197289   -247.60753   -153.64852   -6121.4984 
 1420000    92.998719   -6774.2003   -6534.9668   -6774.2003            0    1230.2233    23.182203    21.461494    21.718289    10805.386    1191.5306     1277.125    1222.0143   -177.36413   -153.45504   -171.40366   -6341.1015 
 1421000    94.973016    -6776.855   -6532.5427    -6776.855            0    1663.0172    23.260313    21.363279    21.662336    10764.373    1041.0363    2224.2589    1723.7564   -187.11338    454.26854   -135.21727   -6271.4701 
 1422000    95.047244   -6772.9007   -6528.3974   -6772.9007            0    2164.5116    23.332234    21.302353    21.603461      10737.6    2144.7022    2078.8837    2269.9488   -389.86373    230.94197   -185.26615   -6189.4417 
 1423000    95.189369   -6782.1406   -6537.2718   -6782.1406            0    1205.2848    23.202438     21.48144    21.644707    10788.194    1297.2496    582.02674    1736.5781    105.34579    0.8359277    261.19432   -6347.6386 
 1424000    94.659608   -6783.6653   -6540.1592   -6783.6653            0    1773.4707    23.354568    21.224137    21.714772     10763.59    1412.8293     2146.857    1760.7259    791.64752    29.376894   -105.91411    -6261.767 
 1425000    96.013362   -6773.9444   -6526.9558   -6773.9444            0    1901.9031    23.088181    21.476168    21.711812    10765.707    2556.0497     1580.427    1569.2328    977.57749   -354.69695    412.43794   -6228.3441 
 1426000    91.527612   -6774.9194   -6539.4702   -6774.9194            0    1570.0837    23.234457    21.297985    21.770934    10773.284    2517.4385    1643.9697    548.84287    -370.1095   -326.84324    131.90233   -6292.7829 
 1427000    100.59143   -6772.0257   -6513.2604   -6772.0257            0    1958.2913    23.239713    21.323002    21.699846    10753.151    2202.9607     1989.044    1682.8692    482.79289   -503.69126    441.57685   -6206.1539 
 1428000      96.8014   -6770.9479   -6521.9322   -6770.9479            0    2607.7303    23.092977    21.491391    21.614482    10727.272    3186.7122    2045.6175    2590.8613    575.61457    407.81718    594.37524   -6113.9625 
 1429000    91.984802   -6768.3246   -6531.6993   -6768.3246            0    1882.6097    23.368152    21.254699    21.696762    10776.414    2312.2749     1848.222    1487.3321   -544.21206     456.3033    183.01971   -6235.8228 
 1430000    94.797624   -6773.5538   -6529.6927   -6773.5538            0    1303.7856    23.164582    21.496661    21.664284    10787.972    1615.2588    476.28896    1819.8089    -78.90134    1161.9316    845.05989   -6324.5661 
 1431000    95.166508   -6776.9062   -6532.0962   -6776.9062            0    1556.7523    23.296964    21.303205    21.693853    10766.659    1171.5447    2361.2631     1137.449    317.97894    -339.3675   -316.07568   -6287.6539 
 1432000    96.132625   -6770.1434   -6522.8481   -6770.1434            0    2323.9926    23.307229    21.305713     21.66189    10756.799     1763.679    2964.8158    2243.4829    463.47016    185.99006   -61.741806   -6158.2674 
 1433000    94.300828   -6781.7541    -6539.171   -6781.7541            0    2265.8712    23.116633    21.452985    21.678009    10750.575    1445.0832    2673.6002    2678.9303    698.95746   -109.98824     92.88062   -6183.9139 
 1434000    91.769959   -6772.6383   -6536.5657   -6772.6383            0    2746.2824    23.340187    21.197929    21.689716    10731.283    2543.3844     3645.172    2050.2909    169.65634   -695.12836    208.47586   -6106.7594 
 1435000    98.928765   -6774.0064   -6519.5182   -6774.0064            0    3006.9489    23.106775    21.452621     21.62011    10717.108    2845.0755    2615.7508    3560.0203    889.62628    600.78275    152.29836    -6049.538 
 1436000    97.194233   -6772.7605   -6522.7343   -6772.7605            0    1698.3836    23.290985    21.353517    21.648123    10766.573    1053.1765     1970.067    2071.9074   -1.9721397   -20.687252    28.714332   -6256.0551 
 1437000    91.049027   -6780.1059   -6545.8878   -6780.1059            0    1725.3086    23.262293    21.325705    21.719048    10774.489    1196.9621    2081.6847    1897.2789   -401.15381    -25.95309    244.03256   -6274.7816 
 1438000    96.843549   -6767.6876   -6518.5635   -6767.6876            0     1965.967    23.100639    21.416772    21.741324    10756.326     2471.317    1706.8451    1719.7389    20.443864    361.82074    163.84066   -6210.1623 
 1439000    93.700675   -6789.8472   -6548.8079   -6789.8472            0    1590.8129    23.317427    21.236314    21.726467    10758.429    1150.6304    2435.4206    1186.3877   -144.20208    552.33124   -106.54972   -6299.2083 
 1440000    103.20796   -6777.1505   -6511.6543   -6777.1505            0    1304.7384    23.176028    21.444654    21.712083    10790.946    1821.0317    1034.8577    1058.3259    459.66527   -255.90694    464.89079   -6306.3213 
 1441000        94.64   -6763.2285   -6519.7728   -6763.2285            0     1340.385    23.280983    21.382782    21.675573    10790.364    1276.2934    266.86635    2477.9952   -91.695655   -722.38993    816.17903   -6308.8413 
 1442000    97.287023   -6776.9554   -6526.6905   -6776.9554            0    1937.0967    23.275403    21.349179    21.696285    10781.117    1689.8874    1992.5134    2128.8891   -661.62725    227.62786    351.14165   -6222.1178 
 1443000    93.400259   -6776.9219   -6536.6554   -6776.9219            0    2045.7603     23.14117     21.46531    21.649724    10754.119    2735.4801    2275.1775    1126.6232   -695.89254   -12.934367   -702.09852   -6215.8029 
 1444000    95.304453   -6774.9833   -6529.8184   -6774.9833            0    2455.0594    23.254532    21.290594    21.666483    10727.136    3169.1021    2628.6513    1567.4248   -310.57821    96.208982   -3.9771588   -6145.7384 
 1445000    93.018671    -6763.987   -6524.7022    -6763.987            0    1504.7748    23.214765    21.356557    21.768571    10792.584    1906.6361    1256.1669    1351.5213    242.12724   -208.16843   -121.55599   -6287.8525 
 1446000    95.698717   -6780.6764   -6534.4973   -6780.6764            0    1958.2908    23.150607    21.383652    21.760366     10772.35    2491.4579    1358.6778    2024.7369    11.465907   -216.44192    74.822521   -6226.8426 
 1447000    93.900707   -6770.4951   -6528.9412   -6770.4951            0    2544.1197    23.232363    21.289633    21.729213    10747.453    2414.8644    2442.3849    2775.1097    542.88102    207.47968   -719.56623   -6130.1744 
 1448000     96.82341   -6771.9462   -6522.8739   -6771.9462            0    1875.0669    23.288444    21.404645    21.579637    10757.037    1557.5302    1213.8678    2853.8028    547.76652    28.696975    233.69459   -6228.7128 
 1449000    93.986751   -6765.2878   -6523.5126   -6765.2878            0     2504.538    23.285008    21.409518    21.562581    10749.395    2907.8439    1637.7393    2968.0306   -250.37223   -530.17014   -337.91379    -6130.879 
 1450000     92.72515   -6774.6419   -6536.1121   -6774.6419            0    1289.2086    23.251081    21.386712    21.712426    10796.812     1665.407    1290.9182    911.30068   -701.65818   -920.76104    212.90739   -6333.1128 
 1451000    97.150286   -6777.1542    -6527.241   -6777.1542            0     1884.194     23.14626    21.422064    21.734626    10776.911     2632.162    1705.8964    1314.5237   -37.104233   -782.26765    225.50221   -6231.1019 
 1452000    96.523447   -6781.6882   -6533.3875   -6781.6882            0    2716.6629    23.270924    21.289991    21.652255    10727.345    2603.3188    2439.4394    3107.2304    428.65548   -687.73099   -355.11668   -6108.3729 
 1453000     92.13776   -6787.8461   -6550.8273   -6787.8461            0    2320.4241    23.233699    21.426157     21.55987    10732.695      2153.48     1477.581    3330.2113    561.71864    76.791769   -415.92817   -6187.6221 
 1454000    93.592759   -6777.0631   -6536.3014   -6777.0631            0    2310.1982    23.287757    21.389969    21.566537    10742.819    1961.9669    2176.6297     2791.998   -249.13677    650.54658   -226.58289   -6174.3557 
 1455000    95.362702   -6785.4231   -6540.1084   -6785.4231            0    1881.3465    23.328222    21.332634    21.618905      10758.7    1287.8927    2296.7745    2059.3721    11.799667    275.19856   -181.03377   -6244.9164 
 1456000    89.335359   -6777.1092   -6547.2994   -6777.1092            0    1416.9565    23.116872    21.461771     21.74644     10789.04     2692.205     485.1734    1073.4912   -605.56506   -497.90221    84.824355   -6324.3454 
 1457000    90.188629   -6774.7373   -6542.7325   -6774.7373            0    1670.2358    23.275378    21.225851    21.809415    10774.717    1977.8694     2698.292    334.54602   -791.42362   -397.58535   -585.71944   -6280.2747 
 1458000    97.301835   -6780.9677   -6530.6647   -6780.9677            0    1352.5313    23.244451    21.398574    21.653384    10770.352    1272.2519    1539.0963    1246.2456    85.056053    41.363806   -273.19107   -6318.2164 
 1459000    94.291762   -6766.7995   -6524.2397   -6766.7995            0     2086.343    23.257667    21.414085    21.611048    10763.203    2037.2249    1890.6951     2331.109    400.38097    70.550995    221.05686   -6196.7459 
 1460000    93.982447   -6774.6213   -6532.8572   -6774.6213            0    2327.9227    23.335685    21.230591    21.685419    10743.616     1228.725    3235.2497    2519.7933   -411.52552    848.59663   -355.83601   -6168.1075 
 1461000    94.898592   -6769.2958   -6525.1749   -6769.2958            0    1605.9897    23.157838    21.465989    21.696561    10785.488    1791.9249     1508.603    1517.4412   -199.72064    204.45497   -250.26173   -6272.5603 
 1462000    91.503938   -6775.3903    -6540.002   -6775.3903            0    1203.7701     23.36571    21.321944    21.679566    10800.811    1215.4401    914.01912    1481.8511   -563.75248   -355.08751   -270.57759   -6350.3857 
 1463000    95.920932   -6781.0364   -6534.2856   -6781.0364            0    1274.8316    23.323159    21.411977    21.561018    10767.463   -21.340402    2522.6113     1323.224    1285.0307   -1255.5527   -316.32236   -6334.0958 
 1464000    94.958216   -6775.2481   -6530.9738   -6775.2481            0    1905.5333    23.204028    21.489104    21.570532    10755.796    1710.0762    1689.0734    2317.4504    -98.51928   -348.81376   -468.49942   -6232.0676 
 1465000    89.708486   -6776.8003   -6546.0307   -6776.8003            0    1719.8046     23.32714    21.314962    21.664733    10772.076    1907.9366    1276.9479    1974.5291   -924.04194     131.5219   -72.969361     -6275.85 
 1466000    91.434292   -6770.4502    -6535.241   -6770.4502            0     1601.763    23.173373    21.450433    21.688718    10781.004    2172.5321    988.94845    1643.8083    399.14395   -241.79039    15.535702    -6283.396 
 1467000    95.311295   -6776.7708   -6531.5883   -6776.7708            0    1442.7798    23.245962    21.333567    21.779332    10800.791    2130.5697     943.5881    1254.1816    216.43574    58.167057   -330.68154   -6304.3238 
 1468000    95.722475   -6771.2628   -6525.0225   -6771.2628            0    1315.5757    23.303203    21.337767     21.72124    10800.633    1363.3607    1473.5251    1109.8412   -854.19534    346.16073   -705.91677   -6317.7981 
 1469000     92.56296   -6774.6017   -6536.4891   -6774.6017            0    1270.0361    23.143736    21.566292    21.611448    10786.804    1659.2737    1.5870554    2149.2474    64.490973    89.419345    484.42104    -6336.694 
 1470000    92.626725    -6785.539   -6547.2624    -6785.539            0    1589.9568    23.372378    21.332216    21.599326    10769.092     904.9976    1656.4986    2208.3741   -272.07126   -537.16929   -11.482753   -6297.5499 
 1471000    90.236513   -6768.5598   -6536.4319   -6768.5598            0    2155.7009    23.275661    21.364288    21.648914    10765.311     2060.952     2255.667    2150.4836    467.55795   -307.62916   -457.16917   -6197.9846 
 1472000    95.220866   -6783.7054   -6538.7555   -6783.7054            0    2108.2479    23.084555    21.461494    21.720781    10761.106    2170.8824    2728.1613    1425.6999    593.93462    314.30251   -681.65557   -6207.8878 
 1473000    93.061713   -6776.6897   -6537.2941   -6776.6897            0    2719.5057    23.320379    21.177338    21.723181    10728.288     2169.013    3619.8552    2369.6487   -247.41274    406.95359    372.63188   -6111.7974 
 1474000    96.969385   -6769.6241   -6520.1763   -6769.6241            0    1728.1092    23.117232    21.497447    21.712849    10790.449     2774.067    958.51242    1451.7481   -166.99985   -281.23455    -129.8208   -6248.2278 
 1475000    89.674705   -6770.7442   -6540.0615   -6770.7442            0    1450.4742    23.336483    21.341162    21.658921    10786.742    1418.4645    1075.0508    1857.9072    117.56908   -232.94463   -72.122844   -6311.8822 
 1476000    98.079872   -6787.7186   -6535.4141   -6787.7186            0    1531.4431    23.253291    21.417563    21.626435    10770.588    1665.1795    1273.1007    1656.0491   -979.66924   -633.88648   -513.64049   -6294.8581 
 1477000    96.252341   -6759.6276   -6512.0243   -6759.6276            0    1359.8002    23.236062    21.470307    21.660901    10806.307    1288.7069    932.24462    1858.4491     137.4882    211.64354   -76.315453   -6297.7213 
 1478000    100.13542   -6771.6961   -6514.1038   -6771.6961            0    1518.5817    23.332144    21.269707    21.731467    10784.628    1131.6691      2389.24     1034.836    218.01414   -451.51092   -944.77895   -6275.2571 
 1479000    96.306551   -6776.6101   -6528.8674   -6776.6101            0    1690.9812    23.171081    21.447693    21.682929    10775.684    1453.3283    1747.0426    1872.5726    547.51338    483.02935   -569.20153   -6263.1258 
 1480000     97.50672   -6771.2258   -6520.3957   -6771.2258            0    1345.6946    23.367025    21.377428    21.594303    10786.935    1101.5025    1479.8841    1455.6972    204.46541    -1264.731   -250.45707   -6308.6959 
 1481000     98.79776   -6772.9348   -6518.7836   -6772.9348            0    2095.5236    23.330304    21.357734    21.594457    10760.138    1641.7934    1918.7579    2726.0193    -285.2178    174.02764    34.773479   -6189.9424 
 1482000    93.742778   -6768.2818   -6527.1342   -6768.2818            0     2052.876    23.124053    21.505698     21.62881    10755.983    2735.8148    1765.5198    1657.2934      26.0953   -388.06616    9.1327612   -6205.1098 
 1483000    92.024357     -6773.96    -6537.233     -6773.96            0    2148.9694    23.333634    21.257347    21.672808    10749.954     1307.623    2437.7109    2701.5744    234.29415   -552.34231    408.86686   -6200.3239 
 1484000    96.349756   -6779.6043   -6531.7505   -6779.6043            0    987.93868    23.129148    21.537051    21.715921    10817.431    1344.7036    495.57896    1123.5334    321.55852    457.72941    238.96973   -6375.8922 
 1485000    93.567406   -6776.5096   -6535.8131   -6776.5096            0    1642.5147    23.261675    21.373222    21.706972    10792.206    1834.2651    1618.6919     1474.587   -564.55126    618.21293    4.6933983   -6277.2924 
 1486000    91.645525   -6771.2042   -6535.4517   -6771.2042            0    1449.0278     23.31342     21.34667    21.647064    10772.962     2196.564    1005.7535    1144.7659   -96.413204   -507.33256   -174.75052   -6307.7912 
 1487000    92.257828   -6775.6587   -6538.3311   -6775.6587            0    1817.9031    23.180727    21.463562    21.588823    10741.324    2710.2401    635.33173    2108.1375    673.14102   -24.453759    419.77786   -6253.5544 
 1488000    98.349401   -6770.6545   -6517.6566   -6770.6545            0    2104.9117    23.385669    21.215594    21.700743    10766.625    932.12383    2497.0091    2885.6023   -89.019048    123.33721   -148.01335    -6187.143 
 1489000    93.997122   -6778.2312   -6536.4293   -6778.2312            0     2076.441    23.154454    21.438263     21.67827    10760.904    2956.3201    1113.5096    2159.4934   -192.87459   -19.538492   -25.044891   -6210.5594 
 1490000    94.189967   -6768.5147   -6526.2167   -6768.5147            0    2573.7326    23.238474    21.360928    21.619764    10731.951    3311.2761     2409.583    2000.3387    649.14917   -687.70356   -545.65853   -6123.3903 
 1491000    95.309038   -6780.6125   -6535.4358   -6780.6125            0    1485.7097    23.349568    21.253042    21.720299    10778.685    277.67239    2937.9699    1241.4869    430.89855    496.22343    250.82058   -6301.8881 
 1492000    96.588383   -6787.5953   -6539.1276   -6787.5953            0    1798.6629    23.094549    21.433073    21.743048    10762.529    3047.4535    1267.0137    1081.5214   -530.47484    15.070518   -285.71741   -6256.8086 
 1493000    92.987791   -6764.4342   -6525.2287   -6764.4342            0    2893.4709    23.290522    21.242068    21.698437     10735.06    3185.8414    2916.8539    2577.7175   -869.98764   -705.06204   -89.336146   -6072.2274 
 1494000    96.496505   -6781.0078   -6532.7764   -6781.0078            0     893.2157    23.297868    21.473532    21.583232    10797.822     1049.849    671.20084    958.59723   -714.91206   -646.20067   -127.63774   -6392.1171 
 1495000    94.951997   -6760.0263   -6515.7681   -6760.0263            0    1612.6864    23.254085     21.48577    21.570612    10777.367    1198.6248      969.856    2669.5783   -93.130662   -157.56943    106.28653   -6262.2912 
 1496000     92.60629   -6775.4503   -6537.2263   -6775.4503            0    2026.3217    23.422497    21.262125     21.60849    10761.289    384.97415    2567.5284    3126.4627   -22.393406    311.25438     136.5018   -6219.2105 
 1497000    97.876447   -6783.9621   -6532.1809   -6783.9621            0    1703.7118    23.158269    21.488334    21.650362    10773.926     1796.464    1219.6589    2095.0125   -270.15618    47.714454    194.66187   -6264.4823 
 1498000    94.297933    -6770.167   -6527.5913    -6770.167            0     2043.802    23.295722    21.314109    21.684837    10767.119    2380.5622    1996.1826    1754.6613     113.6005   -571.08075    -328.4959   -6206.6584 
 1499000    93.197615   -6777.0128   -6537.2676   -6777.0128            0    1615.7845    23.236458     21.29048    21.754753     10762.41    1875.8388    1632.3179    1339.1968    331.06438    273.78935    -151.1518   -6283.6561 
 1500000    97.757336   -6760.2998    -6508.825   -6760.2998            0    2109.9551    23.172667    21.449526    21.655934    10763.924    2282.1606    2013.7587    2033.9459    149.60184    852.08854     -208.557   -6177.6026 
Loop time of 547.559 on 64 procs for 250000 steps with 1296 atoms

Performance: 78.896 ns/day, 0.304 hours/ns, 456.572 timesteps/s
99.1% CPU use with 64 MPI tasks x 1 OpenMP threads

MPI task timing breakdown:
Section |  min time  |  avg time  |  max time  |%varavg| %total
---------------------------------------------------------------
Pair    | 29.336     | 40.714     | 52.333     | 116.0 |  7.44
Bond    | 0.28223    | 0.28976    | 0.29794    |   0.8 |  0.05
Kspace  | 278.06     | 290.15     | 301.96     |  43.8 | 52.99
Neigh   | 1.1835     | 1.2045     | 1.2288     |   0.9 |  0.22
Comm    | 92.894     | 93.76      | 95.62      |   7.8 | 17.12
Output  | 0.63004    | 0.63092    | 0.63229    |   0.0 |  0.12
Modify  | 107.25     | 108.85     | 111.49     |   8.6 | 19.88
Other   |            | 11.96      |            |       |  2.18

Nlocal:        20.2500 ave          27 max          13 min
Histogram: 3 5 11 6 2 9 5 14 6 3
Nghost:        2606.31 ave        2639 max        2583 min
Histogram: 4 6 7 16 10 7 7 4 2 1
Neighs:        6488.39 ave        8655 max        4124 min
Histogram: 3 5 9 8 2 9 6 13 6 3

Total # of neighbors = 415257
Ave neighs/atom = 320.41435
Ave special neighs/atom = 2.0000000
Neighbor list builds = 2133
Dangerous builds = 0

unfix		3
unfix		2
unfix		1

write_data	data.final.${pid}
write_data	data.final.0
System init for write_data ...
PPPM initialization ...
  extracting TIP4P info from pair style
  using 12-bit tables for long-range coulomb (../kspace.cpp:340)
  G vector (1/distance) = 0.36762475
  grid = 30 40 32
  stencil order = 5
  estimated absolute RMS force accuracy = 0.0044648916
  estimated relative force accuracy = 1.3445888e-05
  using double precision FFTW3
  3d grid and FFT values/proc = 5168 640
Last active /omp style is kspace_style pppm/tip4p/omp
WARNING: Not all mixed pair coeffs generated from mixing. Use write_data with 'pair ij' option to store all pair coeffs. (../write_data.cpp:312)

write_restart   restart.lmp.${pid}
write_restart   restart.lmp.0
System init for write_restart ...
PPPM initialization ...
  extracting TIP4P info from pair style
  using 12-bit tables for long-range coulomb (../kspace.cpp:340)
  G vector (1/distance) = 0.36762475
  grid = 30 40 32
  stencil order = 5
  estimated absolute RMS force accuracy = 0.0044648916
  estimated relative force accuracy = 1.3445888e-05
  using double precision FFTW3
  3d grid and FFT values/proc = 5168 640
Last active /omp style is kspace_style pppm/tip4p/omp
Total wall time: 0:09:07
