LAMMPS (30 Jul 2021)
Processor partition = 1
  using 1 OpenMP thread(s) per MPI task
using multi-threaded neighbor list subroutines
variable        pid world 0 1
variable        phase world IceII IceIII

shell cd ${phase}
shell cd IceIII
include Restart.lmp
echo both
log log.lammps
#include		in.partitions
include		in.temp
variable        temperature equal 122.92
variable	tempDamp equal 100.0
include		in.pressure
variable        pressure equal 5168.8
variable        pressureDamp equal 1000.0 # This is 1 ps
include		in.seed
variable        seed equal 745823

units		real
atom_style	full

read_restart	restart.lmp.${pid}
read_restart	restart.lmp.1
Reading restart file ...
  restart file = 30 Jul 2021, LAMMPS = 30 Jul 2021
  restoring atom style full from restart
  orthogonal box = (0.0051191564 0.10314008 0.12464626) to (19.994882 19.896861 20.575352)
  4 by 4 by 4 MPI processor grid
  restoring pair style lj/cut/tip4p/long/omp from restart
  restoring bond style harmonic/omp from restart
  restoring angle style harmonic/omp from restart
  972 atoms
  648 bonds
  324 angles
Finding 1-2 1-3 1-4 neighbors ...
  special bond factors lj:    0        0        0       
  special bond factors coul:  0        0        0       
     2 = max # of 1-2 neighbors
     1 = max # of 1-3 neighbors
     1 = max # of 1-4 neighbors
     2 = max # of special neighbors
  special bonds CPU = 0.010 seconds
  read_restart CPU = 0.022 seconds
include 	in.setup
variable	out_freq equal 1000
variable	out_freq2 equal 10000
variable	out_freq3 equal 1000

timestep	2.0

neigh_modify    delay 7 every 1

include		in.tip4p
# This is TIP4P/Ice

# create groups ###
group ox type 2
324 atoms in group ox
group hy type 1
648 atoms in group hy

# set charges - beside manually ###
set group ox charge -1.1794
Setting atom values ...
  324 settings made for charge
set group hy charge 0.5897
Setting atom values ...
  648 settings made for charge

# ### TIP3P Potential Parameters ###
pair_style lj/cut/tip4p/long/omp 2 1 1 1 0.1577 8.5
pair_coeff 1 1*2 0.000 0.000
pair_coeff 2 2 0.21084 3.1668
bond_style  harmonic
bond_coeff  1 450 0.9572
angle_style harmonic
angle_coeff 1 55 104.52
kspace_style pppm/tip4p/omp 1.0e-5
pair_modify tail yes

thermo          ${out_freq}
thermo          1000
thermo_style    custom step temp pe etotal epair emol press lx ly lz vol pxx pyy pzz pxy pxz pyz enthalpy

restart 	${out_freq3} restart.lmp.${pid} restart2.lmp.${pid}
restart 	1000 restart.lmp.${pid} restart2.lmp.${pid}
restart 	1000 restart.lmp.1 restart2.lmp.${pid}
restart 	1000 restart.lmp.1 restart2.lmp.1


include         in.dump
dump            myDump all atom ${out_freq2} dump.water.${pid}
dump            myDump all atom 10000 dump.water.${pid}
dump            myDump all atom 10000 dump.water.1
dump            myDump2 all dcd ${out_freq2} dump.dcd
dump            myDump2 all dcd 10000 dump.dcd
dump_modify     myDump append yes
dump_modify     myDump2 append yes


variable natoms 	equal  "count(all)"                        # NUMBER ATOMS
variable H      	equal  "enthalpy/v_natoms"                 # ENTHALPY-per-atom
variable Vol      	equal  "vol/v_natoms"                 # volume-per-atom
fix AVG all 		ave/time ${out_freq} 1 ${out_freq} v_Vol v_H file vol_enthalpy.dat
fix AVG all 		ave/time 1000 1 ${out_freq} v_Vol v_H file vol_enthalpy.dat
fix AVG all 		ave/time 1000 1 1000 v_Vol v_H file vol_enthalpy.dat


timer           timeout 02:55:00 every 1000
New timer settings: style=normal  mode=nosync  timeout=02:55:00

fix 		1 all shake 1e-6 200 0 b 1 a 1
Finding SHAKE clusters ...
       0 = # of size 2 clusters
       0 = # of size 3 clusters
       0 = # of size 4 clusters
     324 = # of frozen angles
  find clusters CPU = 0.001 seconds
fix             2 all nph aniso ${pressure} ${pressure} ${pressureDamp}
fix             2 all nph aniso 5168.8 ${pressure} ${pressureDamp}
fix             2 all nph aniso 5168.8 5168.8 ${pressureDamp}
fix             2 all nph aniso 5168.8 5168.8 1000
fix             3 all temp/csvr ${temperature} ${temperature} ${tempDamp} ${seed}
fix             3 all temp/csvr 122.92 ${temperature} ${tempDamp} ${seed}
fix             3 all temp/csvr 122.92 122.92 ${tempDamp} ${seed}
fix             3 all temp/csvr 122.92 122.92 100 ${seed}
fix             3 all temp/csvr 122.92 122.92 100 745823


run             250000
PPPM initialization ...
  extracting TIP4P info from pair style
  using 12-bit tables for long-range coulomb (../kspace.cpp:340)
  G vector (1/distance) = 0.37199665
  grid = 24 24 24
  stencil order = 5
  estimated absolute RMS force accuracy = 0.0035320801
  estimated relative force accuracy = 1.0636754e-05
  using double precision FFTW3
  3d grid and FFT values/proc = 2197 216
Last active /omp style is kspace_style pppm/tip4p/omp
Neighbor list info ...
  update every 1 steps, delay 7 steps, check yes
  max neighbors/atom: 2000, page size: 100000
  master list distance cutoff = 10.8154
  ghost atom cutoff = 10.8154
  binsize = 5.4077, bins = 4 4 4
  1 neighbor lists, perpetual/occasional/extra = 1 0 0
  (1) pair lj/cut/tip4p/long/omp, perpetual
      attributes: half, newton on, omp
      pair build: half/bin/newton/omp
      stencil: half/bin/3d
      bin: standard
Setting up Verlet run ...
  Unit style    : real
  Current step  : 12500000
  Time step     : 2
  Walltime left : 2:54:59.90
Per MPI rank memory allocation (min/avg/max) = 9.224 | 9.226 | 9.228 Mbytes
Step Temp PotEng TotEng E_pair E_mol Press Lx Ly Lz Volume Pxx Pyy Pzz Pxy Pxz Pyz Enthalpy 
12500000    125.76971   -4984.7758   -4742.2184   -4984.7758            0     6797.078    19.989763    19.793721    20.450705    8091.7671      5987.76    7699.7521     6703.722   -253.99135    9.6306321    -145.0393   -3940.0944 
12501000    124.25624   -5001.2258   -4761.5872   -5001.2258            0    5500.8374    19.987283    19.624799    20.568627    8067.9703    6153.0568    4405.1204     5944.335    154.11972    456.28325   -1147.7032   -4114.3418 
12502000    121.30749   -4995.6346   -4761.6829   -4995.6346            0    4891.6967    19.699808    19.941897    20.611852    8097.3977    6512.4934    3336.9821    4825.6147    29.884054   -1345.9629     112.9629   -4184.0115 
12503000    123.66448   -5001.8116   -4763.3142   -5001.8116            0    7177.1248     19.74774    19.855983    20.494462    8036.0997    6981.6219    7923.8419    6625.9108    538.43343    533.15044   -1042.0426   -3922.1676 
12504000    122.85547   -5017.5608   -4780.6237   -5017.5608            0    4966.7074    19.812442    19.890969    20.518151    8085.9711     5413.113    4449.3106    5037.6987   -197.75606    579.29945    29.194082   -4194.9217 
12505000    117.52154   -4991.8638   -4765.2136   -4991.8638            0    4315.1063     19.97133    19.810759     20.57297    8139.6381    4974.4115    3513.3232    4457.5842    49.843433   -63.260847    316.28918   -4252.9748 
12506000    123.45246   -4995.4228   -4757.3343   -4995.4228            0    5546.2707    19.958161    19.892758    20.512102    8143.7734    5293.5665     5303.403    6041.8427    340.20112   -141.69899   -226.14137   -4098.6116 
12507000    127.33423   -5009.9847   -4764.4099   -5009.9847            0    4518.0278    20.000968    19.787522    20.525733     8123.461    2882.9697    4976.0146    5695.0991    269.83988    1310.0044    36.764008   -4229.1486 
12508000    124.55563   -4999.1323   -4758.9163   -4999.1323            0    5408.8867    19.952564    19.718822    20.596309    8103.4339    3141.2552    7368.8381    5716.5669   -38.566413   -723.02807    1202.3179   -4119.6926 
12509000    126.30226   -4993.8917   -4750.3072   -4993.8917            0    5329.1549    19.904133    19.753673    20.555351    8081.9476    4013.6366    6679.7164    5294.1117    368.15103    756.18488    306.75746   -4122.1761 
12510000    126.72821   -5001.0646   -4756.6586   -5001.0646            0    5588.1795     20.00592    19.796702    20.456275    8101.7331    5310.1359     5224.648    6229.7545    118.22038    1226.5127    367.55546   -4096.3846 
12511000    116.93974   -4990.3203   -4764.7921   -4990.3203            0    5279.4181     19.93355    19.858317    20.464468    8100.7933    5334.0611    5756.4073     4747.786   -409.57732    123.58346    331.11214   -4141.0724 
12512000    129.84848    -4997.109   -4746.6853    -4997.109            0    3946.7423    20.008252    19.902875     20.43469    8137.5376    3745.0247    3643.5775    4451.6247   -59.949026     575.7399   -767.85265   -4278.2952 
12513000    131.93601   -4999.6266   -4745.1769   -4999.6266            0    4973.1332    19.907781    19.850077    20.581496    8133.2101    4933.5077     5383.164    4602.7279   -476.92871   -224.06467    867.16783   -4155.2911 
12514000    122.27636   -5009.4705   -4773.6503   -5009.4705            0    4662.9674    19.690623    20.003318    20.685075    8147.3915    6177.6816    3949.1416    3862.0789   -803.85719    517.72458    -399.1411   -4219.5902 
12515000    122.86585   -5008.6488   -4771.6917   -5008.6488            0    4422.2672    19.807464    19.950072    20.665564    8166.2108    4785.4814    5035.1847    3446.1354   -554.52746     1690.304    79.194451   -4245.0182 
12516000     122.3957   -4999.4391   -4763.3887   -4999.4391            0    6000.5026    19.832775    19.900931    20.509188    8094.7856    6930.1689    4789.3958    6281.9432    205.25302    225.25361    -204.2297   -4055.0045 
12517000    120.90418   -4997.4516   -4764.2778   -4997.4516            0    5129.3245    19.870457    19.914931    20.521143    8120.6015    5505.0882    4630.5994    5252.2859    94.643365    439.07912    112.77188   -4156.8086 
12518000    116.84577     -5002.08   -4776.7331     -5002.08            0    4707.8604    19.960352    19.809964    20.543227    8123.0768    4319.8066    5106.2547    4697.5199   -223.65806   -1006.7853    697.04986   -4219.0082 
12519000    118.81709    -4994.359   -4765.2102    -4994.359            0    4650.1292    19.899858    19.948316    20.448714    8117.4982    2609.0245    5545.0566    5796.3063    -163.0662   -346.53007   -418.46226   -4214.7029 
12520000    122.64839   -5002.1722   -4765.6345   -5002.1722            0    5534.0321    19.796896    19.921139    20.481627     8077.477    6800.3881    4451.4277    5350.2805   -60.861534   -191.45035    291.67871    -4113.716 
12521000    119.04057   -5010.3012   -4780.7214   -5010.3012            0    4172.2835    19.957317    19.812443    20.616448    8151.8098    5089.2295    3815.1099    3612.5112    -330.7758    -1236.514   -704.95943   -4284.6962 
12522000    127.42396   -5009.4727   -4763.7249   -5009.4727            0    5583.5653     19.75921    19.873027    20.754132    8149.6354    4438.8547    6508.7048    5803.1364    1.5629894    107.39594    565.32632   -4100.0954 
12523000    119.91118   -5004.5929   -4773.3341   -5004.5929            0    5989.6406    19.897893    19.686521     20.64533    8087.1945    5161.1182    7663.4406    5144.3629     -105.229    602.24065    841.90783   -4066.8953 
12524000    131.45606   -4997.7943   -4744.2703   -4997.7943            0    5262.2347    19.857348    19.858979    20.606283    8126.0188    5973.7862    5095.3228     4717.595    -96.51945     724.9016    297.29769   -4120.6447 
12525000     124.2042   -4990.8968   -4751.3585   -4990.8968            0    4046.9673    19.919529     19.79582    20.665256    8148.7941    4262.7777    4131.6221    3746.5021   -279.48225   -1345.1391   -36.038492   -4270.4096 
12526000    130.46649   -5003.9634   -4752.3478   -5003.9634            0    3907.0403    19.852876    19.844424    20.722575    8164.0503    3738.1255    3991.5519    3991.4433    -242.8068    8.3304956   -1175.3785   -4287.1588 
12527000     126.0971   -4990.6156   -4747.4268   -4990.6156            0    5949.9496      19.8033    19.808751    20.645745    8098.8845    7407.7909    4824.5925    5617.4655    45.139942    -1105.594   -440.11208   -4044.6549 
12528000    124.20301   -5005.7751   -4766.2391   -5005.7751            0    5813.5287    19.929281    19.872142    20.374402    8069.0274    4537.6362     6459.083    6443.8668   -349.95046     213.6289    1184.3891   -4082.1118 
12529000    126.52426    -5003.687   -4759.6743    -5003.687            0    5720.9649    19.948894    19.779292    20.462661    8074.0546    6828.5218    4096.1831    6238.1898    289.37779    178.79031   -134.48025   -4086.0203 
12530000    125.51487   -4994.6081   -4752.5421   -4994.6081            0    5163.7614     19.81415    20.038853    20.372319    8088.8871    5813.1262    3292.1163    6386.0418   -289.91194   -8.0912513    1114.1109   -4143.3829 
12531000    125.95338   -4992.9042   -4749.9925   -4992.9042            0    5697.6457    19.866696    19.846025    20.552373    8103.2856    5306.4985    6553.4641    5232.9746   -91.811233    792.75212   -297.19544   -4076.6555 
12532000    125.76263   -4996.1484   -4753.6046   -4996.1484            0    5469.0056    19.981822    19.783946     20.49067    8100.3573    6031.6553    4043.0736    6332.2878    273.04426    822.43967   -344.84862   -4107.5215 
12533000    124.25323   -4999.6296   -4759.9968   -4999.6296            0    4571.3442    19.970079    19.683405    20.668707    8124.4379    5571.3365    3158.3584    4984.3378      211.261    86.812299    667.39618   -4218.3538 
12534000    119.01964   -5000.6932   -4771.1538   -5000.6932            0     5340.255    19.770553    19.837204    20.667026    8105.4524    5577.6396    5954.0837    4489.0417   -448.58411    528.47463   -478.83514   -4139.8838 
12535000    114.90025    -5006.034   -4784.4392    -5006.034            0      5499.24    19.837835    19.827144    20.594058    8100.2115     5161.053    5976.8296    5359.8373   -666.95192   -532.58595   -869.72969    -4134.796 
12536000    116.95509   -5001.1634   -4775.6057   -5001.1634            0    4627.4353     19.78408    19.874361    20.624205    8109.3538     5627.798     3560.896    4693.6117    514.80118    518.40421    1102.1018   -4228.3346 
12537000    124.89977   -5003.6159   -4762.7362   -5003.6159            0    6158.6717    19.768153    19.777416    20.653237    8074.6511    5382.8638    7851.3377    5241.8135   -97.861267    1573.7618   -363.43003    -4037.488 
12538000     132.2208   -5008.7726   -4753.7737   -5008.7726            0    5420.7707    19.797991    19.785222    20.626683    8079.6294    6968.8207    4914.0907    4379.4008    58.490676    924.69239   -34.589577   -4115.0274 
12539000     123.1903   -5012.4886   -4774.9058   -5012.4886            0    4124.0682    19.771016    19.963987    20.533511    8104.7476    4719.2367    3588.9276    4064.0404   -75.399479    790.12734   -13.386467   -4287.4433 
12540000    120.78824   -4991.6321   -4758.6819   -4991.6321            0    6432.8079    19.853419    19.883003    20.413712    8058.2228     7312.417    6186.9188    5799.0878   -287.90886    1406.9426   -461.77714   -4002.6924 
12541000    123.52341    -4997.462   -4759.2367    -4997.462            0    5471.4107    19.859543    19.885733     20.46728    8082.9704    6116.3229    3803.6957    6494.2136    187.82788    1140.9328    629.19785   -4114.2568 
12542000    124.71334   -5003.4191   -4762.8989   -5003.4191            0    6963.6237    20.039852    19.794787     20.28498    8046.7393    6397.9789     6483.654    8009.2381    -650.4112   -292.35605    698.14581   -3945.6938 
12543000    124.25599   -4993.4804   -4753.8422   -4993.4804            0    5173.8292    19.866012    19.874549    20.450755    8074.5313    5517.8168    4186.5804    5817.0903   -198.33751    1732.5693    -768.2696   -4144.5786 
12544000      115.676   -5000.7443   -4777.6534   -5000.7443            0     5399.922    19.928733    19.840895    20.474595    8095.7348    4228.9097    6241.8538    5729.0025   -313.89118    1266.1925   -1113.3215   -4140.0954 
12545000    119.58917   -5009.5843   -4778.9465   -5009.5843            0    6284.9674    19.905899    19.736846    20.575633     8083.748    5769.8175    6403.2238     6681.861    56.785015    168.24075    316.01501   -4037.9918 
12546000    120.54423   -5003.0942   -4770.6146   -5003.0942            0    5193.5047    19.835317     19.84786    20.639565     8125.561    4386.5725    6303.8788    4890.0629    305.92776    422.43541   -1288.8116   -4155.1688 
12547000    120.56159   -5000.7333   -4768.2202   -5000.7333            0     4680.711      19.7894     19.87921    20.665646     8129.816    5084.3977    4356.3085    4601.4269   -127.38116     581.7223   -603.09141   -4213.2515 
12548000    117.74631   -5003.4701   -4776.3864   -5003.4701            0    6555.7238       19.705    19.762941     20.70193    8061.9269     7298.476    7438.9245    4929.7711   -123.88525    801.91325   -83.455967   -4005.5976 
12549000    124.18357   -4990.4135    -4750.915   -4990.4135            0    7023.6212    19.774448    19.761641    20.502435    8011.8504    6991.6461    7618.3682    6460.8492    366.85572   -15.710064   -49.829747   -3930.2426 
12550000    117.59839   -5000.1456   -4773.3472   -5000.1456            0    5116.7574    19.897535    19.696353    20.671958    8101.5241    6072.6438    4716.9211    4560.7072    12.050261    477.58151    162.33412   -4168.7899 
12551000    133.69804   -4989.4306   -4731.5827   -4989.4306            0    4742.9824    19.941346     19.76393    20.628803    8130.2108    3259.0221    6931.4415    4038.4836    -91.71451    263.20783   -27.547255   -4169.2035 
12552000    122.86023   -5007.9314   -4770.9851   -5007.9314            0    5475.1894    19.744205    19.944825    20.517678    8079.7532     6592.931    3957.7154    5874.9219    185.58226    449.37017    1008.4333   -4125.8167 
12553000    125.11613   -5023.5254   -4782.2284   -5023.5254            0    5467.9064    19.957858    19.714111    20.541653    8082.1429     4680.505    6545.1081    5178.1063   -392.23717   -163.94252   -336.88804   -4137.7276 
12554000    130.10398   -5002.9799   -4752.0635   -5002.9799            0    4414.3354    20.034553     19.90541    20.461247    8159.8636    4421.2177    4286.3647    4535.4237    23.866395   -330.97003   -305.65784   -4226.7432 
12555000    130.68677   -5012.6059   -4760.5655   -5012.6059            0    4703.9249    19.893096    19.975818    20.370715    8094.9327    4636.2642    4235.9843    5239.5263   -541.20022     977.9457   -1031.9189   -4205.2376 
12556000    129.17381   -4991.5254   -4742.4028   -4991.5254            0    5723.3639    19.824517    19.913064     20.50537    8094.8412    4925.2535    6481.9226    5762.9156   -125.92297    -373.4128     191.7863   -4066.7313 
12557000    120.76733   -5012.9013   -4779.9914   -5012.9013            0    4932.9493    19.868596    19.994448    20.387511    8099.1757    4116.4552    5082.2292    5600.1636    38.661884    439.28023    336.09117   -4197.3204 
12558000    122.36098   -5001.0974    -4765.114   -5001.0974            0     4224.009    19.979375    19.917835     20.43787    8133.1665    3924.1389     4432.331    4315.5573    15.109542   -838.53592   -570.82756   -4264.0879 
12559000    121.28659   -4998.2205   -4764.3091   -4998.2205            0    4771.5594    19.918614    19.792551    20.479265     8073.749    3605.1831    6421.2045    4288.2905    157.04612    -1052.085   -1499.2364   -4202.4706 
12560000    123.58654   -5002.4906   -4764.1436   -5002.4906            0    4855.0106    19.859926    19.831881    20.583748    8107.1085    4457.2113    5321.3556     4786.465   -322.24083    3.4872334    1145.0048   -4190.1169 
12561000    126.48049   -5009.8075   -4765.8793   -5009.8075            0    4925.7956    19.851099      19.8446    20.721835    8163.0996     3992.572    5696.7737     5088.041   -338.29608    49.114341   -70.212256   -4179.4612 
12562000    130.59369   -4989.2807   -4737.4198   -4989.2807            0     5930.181    19.689781    19.755432    20.716589    8058.3417    7168.4899    5274.8739    5347.1793    -288.8047     141.4792    565.61306   -4040.4892 
12563000     124.2513   -4990.4114   -4750.7823   -4990.4114            0    4760.2873     19.75804    19.999788    20.542476    8117.4954     6034.284     4466.498    3780.0798   -123.13686    34.950374   -247.14821   -4187.2341 
12564000    116.93894   -4989.0518   -4763.5252   -4989.0518            0    6142.1718    19.965834    19.761447    20.549735    8107.9755    5072.0952    7393.7551     5960.665   -475.26325    392.71551   -720.66831   -4037.2349 
12565000    122.81787   -5009.1923   -4772.3277   -5009.1923            0    4507.7649     19.89247    19.841819    20.614519    8136.6085    5943.3316    3168.4424    4411.5206    67.661472    48.837359   -295.75722   -4237.4179 
12566000    129.71203   -4997.2979   -4747.1373   -4997.2979            0    4819.7469    19.743188      19.9155    20.613277     8105.047    4495.8848    4609.1308    5354.2252   -245.18208    231.41596   -233.61167   -4177.4249 
12567000    119.34173   -5002.8487   -4772.6881   -5002.8487            0    4194.8107    19.765457    19.961762    20.637153    8142.4583    4195.3956    3628.2791    4760.7574    372.80967    636.97652   -304.50877   -4274.5568 
12568000     121.9294   -4997.1635   -4762.0124   -4997.1635            0    4860.2106    19.830635    19.781393    20.640912    8096.9667    5015.9993    5751.1705     3813.462    22.445507    770.35502   -438.22942   -4188.0898 
12569000    116.47948   -5007.8391   -4783.1986   -5007.8391            0    5382.7873    19.791311    19.963329    20.534222    8113.0807    4855.5243    5903.2335    5389.6041   -158.78304    740.02985     529.6265   -4146.3021 
12570000    128.69024   -5006.5025   -4758.3125   -5006.5025            0     4707.962    19.905199    19.756316    20.629857    8112.7617     5262.151    5023.0665    3838.6686   -653.64429   -1090.7592   -463.88593   -4201.2838 
12571000    128.21389   -5008.3639   -4761.0927   -5008.3639            0    4819.5263    19.900828    19.775322    20.586964    8101.9025      5169.82     4059.989    5228.7698   -107.35733   -453.93822    326.89873   -4191.6274 
12572000    133.55655   -4990.9404   -4733.3654   -4990.9404            0    6030.5201    19.813603    19.734142    20.585039    8048.8422    5525.8429    6472.7341    6092.9832    150.56967    1181.4924    689.52447   -4025.4782 
12573000    122.50423   -5017.9948   -4781.7351   -5017.9948            0    4610.8102    19.873457     19.95306    20.452585    8110.1919    5468.4272    2887.3057    5476.6976    143.39333    1462.1746   -623.08752   -4236.3738 
12574000    116.06736   -5001.1105   -4777.2649   -5001.1105            0    5658.6893    19.982973    19.836281    20.499083    8125.5883    4352.0593    6091.4636    6532.5451   -619.46985    173.97837    73.086164   -4106.6911 
12575000    121.93399   -5007.5188   -4772.3588   -5007.5188            0    4866.5356    19.751182    19.989801    20.596302    8131.8776    5743.1857    4586.1847    4270.2364    216.87283    575.54485   -251.25295   -4195.2116 
12576000     121.3467   -5004.3296   -4770.3023   -5004.3296            0    4144.7535    19.888341    19.934036    20.572342    8156.0059     2645.648    4408.3984    5380.2142   -24.378796    644.37593    102.30696   -4277.2964 
12577000    112.46186   -5000.1301    -4783.238   -5000.1301            0       4957.2    19.801045    19.802148    20.721671     8125.034    4635.4851     5362.146     4873.969   -313.93584    272.61128   -178.73096   -4195.8331 
12578000    126.14862   -4987.9951   -4744.7069   -4987.9951            0    5342.5256    19.731699    19.912294    20.581527     8086.552    6025.9631    4526.8672    5474.7466    98.688638    437.47322    798.87205   -4114.6411 
12579000     119.6763   -4999.4238    -4768.618   -4999.4238            0    5854.2454    19.956104    19.746624    20.451452    8059.2156    6472.7526    5965.1711    5124.8126    180.85063    838.54647    1146.3824   -4080.5369 
12580000    126.74856   -4999.4567   -4755.0114   -4999.4567            0    3267.9659    19.930506    19.839608     20.56793    8132.8356    3370.6848     3590.346    2842.8669    107.93245   -134.05319     401.1738    -4367.401 
12581000    125.07929   -5001.1938   -4759.9679   -5001.1938            0    5419.4863    19.929269    19.698054    20.617492    8093.7638    5028.7933    6249.7073    4979.9584   -358.54643    645.44231   -230.18478   -4120.2558 
12582000    122.75414   -5014.1595   -4777.4178   -5014.1595            0    5438.7293    19.761037    19.870305    20.707749      8131.06    6492.2751    5945.4608    3878.4519    80.221864   -322.18244    86.353628    -4132.476 
12583000     123.4403   -4995.7521   -4757.6871   -4995.7521            0    5909.7313    19.867824    19.789246    20.582825    8092.5337    5503.7803    6367.1089    5858.3048   -825.51122    531.43525   -216.38622   -4060.2129 
12584000    128.81295   -4991.3097   -4742.8831   -4991.3097            0    5867.1584    19.804463    19.974676    20.445883    8088.1403    5745.4894    5193.4059    6662.5798    17.608959    191.20874   -1036.5498   -4050.8094 
12585000    124.93838    -5015.935   -4774.9808    -5015.935            0    3856.2074    19.899486    19.875262    20.524965    8117.7773     3779.641    4180.5988    3608.3824   -107.88314    293.92602    488.02666   -4318.4465 
12586000    125.71348   -5009.6461   -4767.1971   -5009.6461            0    4733.7949    19.841479      19.9526    20.392815    8073.2929    5066.2487    3815.9588    5319.1773   -294.84024    498.42619   -108.91104   -4209.8368 
12587000     120.9666   -5002.2395   -4768.9452   -5002.2395            0    4822.1186    19.915616    19.871643    20.449389    8092.9685    4289.1137    4358.8292    5818.4129    256.24052   -899.86591   -441.36448   -4199.8019 
12588000    126.52601   -5007.6094   -4763.5933   -5007.6094            0    5245.9311    19.931672    19.859192    20.502567    8115.4675    5359.5084    5632.9785    4745.3065   -117.51164    -154.3609   -314.82298   -4142.7071 
12589000    110.49149   -5000.5868   -4787.4947   -5000.5868            0    3981.1078    19.852745    19.940983    20.563276    8140.6567    6168.3119    2023.5007    3751.5109   -147.50016   -292.97293    426.79706   -4314.8451 
12590000     120.0276      -5000.1   -4768.6166      -5000.1            0    5353.8446    19.951126    19.767284    20.548848     8104.046    5474.9048    5053.9881    5532.6409    7.2434165    510.22576    560.68622     -4135.85 
12591000    120.26698   -5006.0776   -4774.1327   -5006.0776            0    4360.7706    19.900434    19.929872    20.492183    8127.4683     4212.416    4565.0039    4304.8921   -31.857941   -106.96035    382.04341   -4257.2471 
12592000    123.27171   -5006.3252   -4768.5853   -5006.3252            0    4421.2432    19.912147    19.820687    20.556136    8112.9402    4907.1112    4034.6231    4321.9951    317.86877     572.5787    203.63083   -4245.4686 
12593000    126.08555   -4997.2135   -4754.0469   -4997.2135            0    5171.8581    19.803046    19.960601    20.528273    8114.4303    4996.4391    4870.2052      5648.93    417.72761   -767.83658   -342.25941   -4142.0059 
12594000    125.47158   -5001.8307   -4759.8482   -5001.8307            0    5531.5704    19.810078    20.020854    20.325413    8061.3573      5068.09     4507.363    7019.2581    18.451966    65.161192    372.77635   -4109.5201 
12595000    117.63353   -5011.9898   -4785.1237   -5011.9898            0    5034.8881    19.762817    19.982046    20.487456    8090.5272    5166.4692    5305.0302    4633.1651    235.71882    987.91607    785.56514   -4191.0469 
12596000    127.86583    -5004.249    -4757.649    -5004.249            0    5914.9992    19.872954    19.780115    20.593109    8094.9308    6598.2529    5420.5722    5726.1726   -381.89591    444.28149    100.11298   -4059.3463 
12597000    121.90048   -4999.0903    -4763.995   -4999.0903            0    5188.7364     19.70832    19.910309     20.67866      8114.28    5978.0908    4829.3052    4758.8134   -27.173215    34.397132    92.087814   -4149.9679 
12598000    120.38433   -5001.5729   -4769.4016   -5001.5729            0    4394.5653    20.071306    19.732127    20.683332    8191.6246      3873.65    4493.0427    4817.0032   -160.31302    1637.5099    211.16325   -4244.3986 
12599000    117.94953   -4998.6066    -4771.131   -4998.6066            0    4213.3405    19.942916    19.852431    20.606447    8158.4092    2944.8291     5300.349    4394.8434   -499.63521   -172.87084   -709.72743   -4269.8192 
12600000    119.55727   -5000.5468   -4769.9705   -5000.5468            0    5768.7305    19.925572    19.825915    20.603643     8139.319    5558.4571    5380.4571    6367.2773    127.32473   -496.63247    733.43182   -4085.2013 
12601000    121.50643   -5017.9762   -4783.6408   -5017.9762            0    5642.3718    19.919526    19.766317     20.50262    8072.6125    5730.5475    6033.1807    5163.3871    293.56019   -479.20505   -634.99415     -4119.36 
12602000    127.42637   -5004.4611   -4758.7086   -5004.4611            0    4687.1761     19.78802    19.967905     20.41161    8065.1436    3871.2736    4318.0069    5872.2477   -404.60547   -197.72917   -81.486448   -4207.3943 
12603000    126.05686   -5000.8645   -4757.7533   -5000.8645            0    4653.2272    19.669177    20.000333    20.693673    8140.6858    5288.6755    3955.5582    4715.4478   -151.80865   -390.03994   -113.51448   -4205.3056 
12604000    125.38032   -4996.5263   -4754.7198   -4996.5263            0    6275.6445    19.881535    19.763969    20.572807    8083.8386    6250.9887    5744.7955    6831.1492   -587.51397   -511.74529    548.68055   -4014.8559 
12605000    127.75447    -4992.397   -4746.0118    -4992.397            0     5016.437    19.791639    19.879597    20.681627    8137.1822    4862.0037    4958.8317    5228.4758    -582.3692   -182.51762   -934.74247   -4150.6989 
12606000      115.698   -5001.8672   -4778.7339   -5001.8672            0    3474.8153    19.844192    19.869311    20.597566    8121.4228    3603.8221    3868.6483    2951.9754   -168.99264   -332.05902    579.13081   -4367.1677 
12607000    125.31379   -5005.4698   -4763.7916   -5005.4698            0    5619.0229    19.942733    19.798905    20.510907     8098.614    5298.3005    5843.2612     5715.507   -635.91802    743.62005    648.58834    -4100.129 
12608000    122.75065   -4994.0776   -4757.3427   -4994.0776            0    4895.2498    20.126154    19.628817    20.622748    8147.0699     4241.473    5362.2632    5082.0134    114.63569    210.39465    1343.9207   -4175.7054 
12609000    124.89755   -5006.2728   -4765.3974   -5006.2728            0    5051.8178    19.911482    19.746434    20.549468    8079.6554    3958.1342    5516.9419    5680.3772    71.002313    108.04789   -462.23999   -4170.1241 
12610000    123.60243   -4984.9749   -4746.5972   -4984.9749            0    6521.6395    19.824394    19.789813    20.507087    8045.3617    6754.9251    6187.3093     6622.684    347.00465    200.16717    791.00184   -3981.3914 
12611000    124.95699   -4989.2301     -4748.24   -4989.2301            0    4730.6745    20.017583    19.756632    20.483921    8100.9815    3113.6697    6415.2496    4663.1043    267.26675   -346.02528    807.69323   -4189.3368 
12612000     120.8023   -4989.1245   -4756.1471   -4989.1245            0    6166.9821    19.926858    19.845364    20.446827    8085.8155    6498.4659    5783.8174    6218.6629   -340.89312    157.47018   -870.75175   -4028.9161 
12613000    118.45858   -5011.2925   -4782.8352   -5011.2925            0    4611.7644     19.91865    19.939886    20.482823     8135.278    4929.8756    4256.6252    4648.7923    96.431903    200.82638    1737.6526   -4235.6739 
12614000    122.29241   -4990.8792    -4755.028   -4990.8792            0    5081.8023    19.909358    19.912568    20.405549    8089.7071    4778.7974    5438.6989    5027.9106   -426.44485    608.43382   -785.07353   -4155.4765 
12615000    123.94807    -5004.766   -4765.7217    -5004.766            0    4008.9802    19.902007    19.938151    20.485669    8128.9024    4380.8214    3127.8878    4518.2314    153.35955    63.346857    158.56358   -4290.4503 
12616000    120.86615   -5013.4267   -4780.3262   -5013.4267            0     4924.847     19.80562    19.816875    20.659868    8108.6985    6229.0614    3752.0235    4793.4562   -223.88788    56.741709    20.017198   -4197.9283 
12617000    119.87474    -5008.539   -4777.3505    -5008.539            0    6337.5608    19.624153    20.031065    20.591599     8094.407    6774.7164    5769.1761    6468.7899   -465.13632    683.68391    1008.5161   -4029.2102 
12618000    121.12268   -5003.7502   -4770.1549   -5003.7502            0    6147.1891    19.897671    19.736366    20.522883    8059.4941    6980.3044    5869.7041    5591.5587   -371.16901    623.11288   -859.37275   -4047.6177 
12619000    121.88189   -5013.0373   -4777.9779   -5013.0373            0    4822.0454      20.1474    19.650377    20.594709    8153.5276    4222.0415     4759.973    5484.1215    -161.6158   -401.47749    332.73374   -4204.5844 
12620000    128.53872   -5009.3487    -4761.451   -5009.3487            0     5001.265    19.805493    19.874254    20.562065    8093.6278    4055.1984    6320.9309    4627.6658   -796.13814    821.06145    40.034287   -4171.1154 
12621000    118.69389   -5014.0623   -4785.1512   -5014.0623            0    4568.0099    19.866214    19.760578     20.69566    8124.4511    4049.2219     5187.922    4466.8858   -100.73747    655.97248    915.62555   -4243.9024 
12622000    123.69414   -4990.0152   -4751.4606   -4990.0152            0    5274.8347    19.854474    19.821326    20.592072    8103.8452    5184.7552    5093.2532    5546.4955    346.27831   -982.99862    382.71162   -4128.0476 
12623000    125.42847   -5003.9403   -4762.0409   -5003.9403            0    5818.4849    19.860934    19.726372    20.656871    8093.0354    5761.0589    6554.1151    5140.2809   -38.087728    1481.2084    862.70193   -4075.2932 
12624000    126.23275   -5006.5214   -4763.0709   -5006.5214            0    4832.8585    19.927395    19.769827    20.595382    8113.7803    4673.4885    5485.6219    4339.4652   -102.12939    842.18399    155.76533   -4191.1932 
12625000    128.19555   -4993.9807   -4746.7448   -4993.9807            0    6058.8402    19.842499    19.820258     20.46933    8050.2491    6154.9864    6754.3272    5267.2071   -321.50464   -74.710227    228.89997    -4035.409 
12626000    120.66386    -5012.315   -4779.6046    -5012.315            0    4683.6472     20.00698     19.90698     20.34676    8103.6778    3703.3267    4450.5846    5897.0305   -59.119424   -50.193396    373.16013   -4226.0732 
12627000    125.58102   -5004.9727   -4762.7792   -5004.9727            0    6842.5686    19.923315    19.737207    20.393084    8019.1846    5534.1767    7750.8095    7242.7197   -280.33287    217.38401    342.09018   -3962.5299 
12628000    125.63978    -5009.344   -4767.0371    -5009.344            0    5380.1097     19.92849    19.745965    20.471257    8055.5881    5320.7827    5374.2635     5445.283    366.83251   -231.20546   -267.42532   -4134.9684 
12629000    129.05629   -4993.2824   -4744.3865   -4993.2824            0    6300.3212     19.88931    19.705295    20.609735    8077.4647    6222.9485    6932.2343    5745.7809    522.39399    652.90659    797.30014    -4002.199 
12630000    116.94274   -5015.1116   -4789.5777   -5015.1116            0    3586.3869    19.910523    19.913385    20.554292    8149.4869    3505.6424    3290.3303    3963.1879    -293.6883   -5.8283726    424.87821   -4363.3288 
12631000    119.14705   -5010.8735   -4781.0884   -5010.8735            0    5718.5688    19.742172    19.870974    20.570516    8069.7349    5479.6046    5498.6642    6177.4376   -277.92638     267.8177    223.67164   -4108.0769 
12632000    126.58831   -4991.8998   -4747.7636   -4991.8998            0    6603.8114    19.907152    19.853018    20.529392     8113.566    6426.2448    6949.8184    6435.3708    131.17014    726.42695    209.95639   -3966.3475 
12633000    124.94542   -4995.5911   -4754.6234   -4995.5911            0     3343.613    20.005718    19.976878    20.493729    8190.3556    4603.5693    1816.2113    3611.0583   -248.87604    541.67553    161.51284   -4355.2357 
12634000    115.34506   -4996.2312   -4773.7786   -4996.2312            0    4916.1277    19.802839    19.934501    20.533762    8105.9017    6930.1712    3850.5445    3967.6672    361.02278    732.66485    9.8763889   -4192.6123 
12635000     121.1724   -5004.3747   -4770.6835   -5004.3747            0    5105.2218    19.885849    19.837862      20.5299    8098.8961    4663.8296    5962.7802    4689.0556    403.07108      1374.66   -731.30836   -4167.6849 
12636000     123.4111   -4996.2947   -4758.2861   -4996.2947            0    4377.4125    19.946644    19.872564    20.391118    8082.8548    4622.0538    4419.0392    4091.1445   -570.27379    206.30161   -500.31271    -4242.276 
12637000    113.83994   -4990.2506   -4770.7007   -4990.2506            0    6212.2221    19.840733       19.896    20.514228    8098.0162    6293.6603    7072.3277    5270.6784     363.5324    574.63943   -975.67524   -4037.0294 
12638000    116.93333   -5000.2314   -4774.7157   -5000.2314            0    4513.2148    19.807907    20.007084    20.624004    8173.2609    5759.0689    3350.9522    4429.6234   -570.59868    478.55448    422.59627   -4236.7467 
12639000    114.85141   -5010.0367   -4788.5361   -5010.0367            0    5120.0009    19.859255    19.848736    20.545568    8098.6747    5785.1494    4830.3736    4744.4798    560.50537   -1333.2929   -606.12388   -4183.8083 
12640000     124.4508   -4998.3805   -4758.3667   -4998.3805            0     4445.557    19.785436    20.027132    20.525464    8133.1238    4243.2553    4708.1069    4385.3089    144.63617   -1024.9257   -1288.7823   -4231.0646 
12641000    125.21825   -5007.3695   -4765.8756   -5007.3695            0    5102.9002    19.810846    19.932454     20.49891    8094.5845    5907.0238    4008.9902    5392.6866   -122.26093    88.232383   -688.74104    -4163.472 
12642000    121.85973   -5005.1226   -4770.1059   -5005.1226            0     4063.068    19.912138    19.933097    20.514728    8142.5124    4722.1746    3623.0995      3843.93   -144.80997    410.18615    740.20335   -4287.6158 
12643000    120.25006   -5009.6296   -4777.7173   -5009.6296            0    5106.3403    20.050637    19.895614    20.443794    8155.4327    3358.5202    5844.9805    6115.5201   -525.84341    1055.4253    407.91384   -4170.3762 
12644000    125.47343   -5009.6716   -4767.6856   -5009.6716            0     3707.772    19.915389    19.808167    20.644322    8143.9237    3369.0611    4442.0523    3312.2026    20.206947   -231.00761    20.695284   -4327.3106 
12645000    118.86182   -4998.4513   -4769.2163   -4998.4513            0    4830.2564     19.81644    19.910009    20.607812    8130.7194    4085.0496    5836.0261    4569.6934    314.05114    1.0469669    249.30176   -4196.4532 
12646000    118.46683   -5002.9614   -4774.4881   -5002.9614            0    4695.7407    19.776458    19.943778    20.622881    8134.0206    5996.2925    2840.1768    5250.7529   -176.96072    170.63381    849.45047   -4217.4496 
12647000    121.65763   -5012.5889   -4777.9619   -5012.5889            0     5371.042     19.82189    19.827789    20.577617    8087.5027    5429.3682    5863.5022    4820.2555    -1158.717   -707.30022    508.77709   -4144.4586 
12648000    120.94251   -5010.1965   -4776.9487   -5010.1965            0    5225.4716    19.809528    19.914041    20.587808     8121.638    5018.1536    5812.3898    4845.8713    226.59602   -369.05565    503.89275   -4158.0137 
12649000    126.24194   -4996.5954   -4753.1272   -4996.5954            0    5734.3081    19.908274    19.705611    20.540543     8058.152    3656.0887    7142.5851    6404.2506   -438.42781    534.13933   -707.42363    -4079.232 
12650000    121.02207   -5000.0016   -4766.6004   -5000.0016            0    5846.6365    19.864424    19.821208    20.526631    8082.0913    6858.5467    5469.1435    5212.2194     189.1783   -626.38676   -665.03617   -4077.4631 
12651000    132.62039   -5004.3236    -4748.554   -5004.3236            0    4666.5827    19.886939    19.744316    20.682528    8121.0772    4922.3844    5122.3347    3955.0289   -174.15195    1049.0313    1199.8031   -4195.8553 
12652000    126.73621   -5002.6326   -4758.2111   -5002.6326            0    5021.3609    19.838186    19.864619    20.611154    8122.4029    5699.7743    4719.7409    4644.5674   -88.194772   -519.43434   -1475.1041   -4163.3962 
12653000    122.96316   -5004.9635   -4767.8187   -5004.9635            0    5009.2717    19.760546    19.984674    20.515743    8101.8326      4468.14    5605.5972    4954.0779   -165.79151   -199.50644    144.97153   -4175.9386 
12654000    130.69615   -5014.7377   -4762.6792   -5014.7377            0    5823.6733    19.896122    19.792758     20.54785    8091.7254    6066.7555    5153.4193     6250.845    139.41109   -342.24463   -322.29481   -4075.4303 
12655000    121.30666   -5001.9475   -4767.9974   -5001.9475            0    5591.8245    19.916749    19.808071    20.474036    8077.2606    5712.1672    5342.4001     5720.906   -209.62126   -1453.8013    781.22846   -4109.2885 
12656000    115.35991   -4993.7076   -4771.2264   -4993.7076            0    5614.1433     19.78131    19.710401    20.681544    8063.6834     6683.381    5710.4551    4448.5936    177.59695    608.71651   -890.09649        -4111 
12657000    126.32226   -5005.8468   -4762.2237   -5005.8468            0    4613.2255    19.959182    19.833737    20.558577    8138.4247     4635.122    4869.9824    4334.5721   -222.63512    995.58661   -577.65588   -4214.6773 
12658000    117.24005   -5007.9879   -4781.8806   -5007.9879            0    5108.1844    19.749004    19.912427    20.636023    8115.1287    6086.9732    3546.0491    5691.5311   -431.30119   -850.91535   -516.78892   -4177.3228 
12659000    118.82172   -5005.4106   -4776.2529   -5005.4106            0    5268.3768     19.73592    20.023083    20.574849    8130.6443    5178.6683    5514.3863    5112.0757    27.597163   -559.92518    771.18799    -4151.544 
12660000     124.0099   -4998.9047   -4759.7412   -4998.9047            0    5881.7525    19.803523    19.905485    20.511054    8085.4314    5936.4927    6240.6993    5468.0655   -481.90378   -393.98767   -199.57182   -4066.1783 
12661000    117.60034   -5004.5433   -4777.7411   -5004.5433            0    5380.9403     19.87254    19.918498    20.565236    8140.3614    7223.8992    3244.7588    5674.1627    583.24046    263.08353   -494.22273   -4138.9222 
12662000    124.66431   -5004.1353   -4763.7097   -5004.1353            0    4595.9059    20.011915    19.780691    20.587969    8149.7375    4133.6952    4842.5717    4811.4509    9.1255528    881.91436   -100.02434   -4217.4607 
12663000    127.56927   -5006.2646   -4760.2366   -5006.2646            0    5693.2732     19.78518    19.944607    20.528574     8100.732    5724.8502    5805.9672     5549.002   -239.29395    321.37103    299.99129   -4087.6283 
12664000    121.73006   -5008.0968   -4773.3301   -5008.0968            0    5928.2966    19.691163    19.940781    20.559923    8073.0014    6463.9781    5675.4181    5645.4937   -413.47558    823.24714    72.533404   -4075.3536 
12665000    122.26056   -5005.1036   -4769.3139   -5005.1036            0    4680.4292    19.782353    19.974377    20.589042     8135.558    5358.3073    4279.5951    4403.3851   -234.35995    992.48714   -13.478323   -4213.9867 
12666000    125.21825   -4998.2871   -4756.7932   -4998.2871            0    5632.9132    19.938076    19.884463    20.417037    8094.4962    5381.5458    6384.3677    5132.8262   -331.01305   -160.97835   -415.37457   -4091.8282 
12667000    124.51193   -5007.0644   -4766.9327   -5007.0644            0     3926.222    19.922545    20.053168    20.377933    8141.1908    5261.9356     2547.149    3969.5813    100.71253    757.15989    768.34918   -4300.7688 
12668000    121.41551   -4980.0616   -4745.9016   -4980.0616            0    6176.6034     19.84594    19.899782    20.449142    8075.9772    5001.0794    6644.2588    6884.4718   -511.35317    799.45529   -874.78673   -4018.4222 
12669000    127.29804   -4991.0866   -4745.5816   -4991.0866            0    6069.9644    19.913929    19.838902    20.463691    8084.6005    6518.5443    4498.5765    7192.7723    42.354652   -2022.1601   -423.59409   -4029.8987 
12670000     119.9792   -4995.5622   -4764.1722   -4995.5622            0    4335.1731    19.793195    19.943926    20.600544     8132.147    3289.4981    5113.5933     4602.428   -4.6885396    808.28398    926.96597   -4250.0249 
12671000     126.2732   -5000.0431   -4756.5146   -5000.0431            0    5038.5539     19.86656    19.772977    20.647121    8110.6234     4985.632    6056.9736     4073.056   -424.15217    1308.8121     58.39373   -4160.5286 
12672000    123.49816   -5010.3834   -4772.2068   -5010.3834            0    5019.9753    19.928996    19.901313    20.460761    8115.0077    4100.5539    4998.4746    5960.8975   -342.74359   -546.95858   -21.233839   -4178.0974 
12673000    115.24186   -4993.2762   -4771.0226   -4993.2762            0    6450.5528    19.835956    19.802858    20.453332    8034.2452    7634.8923    5233.9123    6482.8537   -283.08222   -570.83735    -1050.592   -4015.2034 
12674000    123.56444   -5004.0211   -4765.7167   -5004.0211            0    4304.3869    19.943005    19.815155    20.596737    8139.2898    4446.9196    4251.3568    4214.8843   -492.20487   -86.680149   -53.331351   -4254.7722 
12675000    123.36925   -5004.5193   -4766.5913   -5004.5193            0    5801.7314    19.745742    19.886619    20.667311    8115.5582    5620.6295    5483.0583    6301.5063    394.04326   -274.46518    250.16171   -4079.9152 
12676000    120.80891   -5015.0762   -4782.0861   -5015.0762            0    3381.8123    20.056725    19.758103    20.477701    8114.9615    2361.6439    4543.2803    3240.5126    254.86952   -647.71052    560.90301    -4381.854 
12677000    120.73224    -4996.076   -4763.2337    -4996.076            0    5129.4551    19.989764    19.957665    20.368774    8126.1024    4537.5006    3954.3198    6896.5451    73.786846    18.144129   -179.27818   -4155.3375 
12678000    123.46452   -4998.7668   -4760.6551   -4998.7668            0    7044.2307    19.870707    19.730617    20.513428    8042.5216    6970.9297    7156.2533     7005.509    123.56294    200.24975   -481.85548   -3934.4237 
12679000    125.61998   -4993.7408   -4751.4721   -4993.7408            0    4647.8587    19.850894    19.790172    20.650132     8112.458    4014.8622    4360.2308    5568.4832    369.07299   -32.194244    656.43648   -4201.5752 
12680000    124.77354    -4996.949   -4756.3127    -4996.949            0    5379.2755    19.851664    19.783339    20.585689    8084.6633    5697.6492    5064.6999    5375.4774   -154.00811   -143.74611    196.16317   -4122.0611 
12681000    127.45133   -5014.5048   -4768.7041   -5014.5048            0    5278.9022    20.028631    19.805943    20.447107    8111.0796    4922.0875    5755.4637    5159.1556   -478.95333    505.52597    684.83594   -4144.2534 
12682000    118.60554   -4987.2408   -4758.5001   -4987.2408            0    5333.5966    19.928691    19.839066      20.3278    8036.9333     4812.636    4987.0347     6201.119    52.668241   -463.43764   -111.76706   -4133.3469 
12683000    121.85326   -5018.8397   -4783.8354   -5018.8397            0    5020.1348    19.862365    19.934414    20.523541    8126.1859    5850.0102    4392.8083    4817.5859   -381.69242   -395.55703   -700.95091   -4188.8888 
12684000    119.89438   -5010.0094   -4778.7831   -5010.0094            0    4517.8721    19.811033    19.851737     20.67248    8130.1438    4925.6256    4770.3809    3857.6098    184.93754    106.83684    -18.27321   -4243.0998 
12685000    124.98492   -4996.1726   -4755.1287   -4996.1726            0    4951.1061    19.914089     19.88943    20.514309     8125.305    4611.9677    5413.6256    4827.7251    669.89644    1265.1217   -940.58915   -4168.4264 
12686000    125.30316   -4994.1249   -4752.4672   -4994.1249            0    5885.1537    19.981843    19.708845    20.536295    8087.5842    5933.4117    5158.4058    6563.6436   -773.84421    351.74225   -875.65673   -4058.3185 
12687000    120.87419   -5011.7123   -4778.5962   -5011.7123            0    3822.0011    19.881533    19.930645    20.565836     8149.249     2470.642    4957.6569    4037.7044   -345.22721    770.22243    -199.7833   -4324.3574 
12688000    123.31685   -4993.7171   -4755.8902   -4993.7171            0    7575.7306    19.741675    19.743641    20.623191    8038.3539     9306.583    6397.4317    7023.1771   -361.52587    275.73162    405.03892   -3867.7786 
12689000    121.30601   -5017.3841   -4783.4352   -5017.3841            0    4707.7212    19.871183    19.821642     20.62429    8123.4847     4909.002    4995.7809    4218.3807   -158.58442    -309.0066    31.117078   -4225.6988 
12690000    127.21698   -4987.3904   -4742.0418   -4987.3904            0     7145.388     19.73195    19.854728    20.550069     8050.952    7460.9709    7190.4024    6784.7907   -79.523597    14.567347   -1186.9493   -3903.0669 
12691000    118.49274   -4987.9673   -4759.4441   -4987.9673            0    5352.9876    19.826985    19.748835    20.683344     8098.767    5990.6291     4755.957    5312.3767    168.73062    475.41653    105.97085   -4127.1909 
12692000    122.50632    -4995.995   -4759.7313    -4995.995            0    5551.3917    19.895095    19.911705    20.525155    8130.9429    6487.4665    4322.6498    5844.0589    -2.142836    487.22183    -855.6637   -4101.4391 
12693000    122.51766    -5000.425   -4764.1394    -5000.425            0    4416.2127    20.021354    19.738516    20.526491    8111.9013    4997.3663    4671.2701    3580.0016    781.23858    13.270202    267.00803   -4241.6848 
12694000    128.15156   -5003.4743   -4756.3232   -5003.4743            0    3881.6204    19.979174    19.943188    20.492962    8165.3887    2493.1261    4606.4732    4545.2619    -511.9765    381.02684   -908.62131    -4294.085 
12695000    123.63623   -4998.9223   -4760.4794   -4998.9223            0    5121.9725    19.847439    19.872405    20.489805     8081.514    5606.5826    4068.0991    5691.2357    65.277338    285.96518    438.69968   -4156.8007 
12696000    124.25121   -5004.8994   -4765.2705   -5004.8994            0    5389.7556    19.827422    19.768349    20.601705    8074.9494    4316.4441     6493.582    5359.2407    30.502344   -191.85244    356.08992   -4130.5467 
12697000    121.37574   -4997.3061   -4763.2228   -4997.3061            0    5211.8923    19.938325    19.976234    20.306373    8087.8787    4007.0654    5381.3079    6247.3037   -77.978716     389.2484    1657.0137   -4148.4623 
12698000     116.4924   -4984.6523    -4759.987   -4984.6523            0    5360.2736    19.881145    19.867067    20.448945    8076.9251    4593.5981    6201.6187     5285.604    283.81497    380.42175   -476.95585   -4128.5807 
12699000    127.85193   -4998.7142    -4752.141   -4998.7142            0    5600.7718    19.817636    19.913786    20.485842    8084.6178    5034.5254    5889.6585    5878.1313   -415.16585   -320.84374    367.83245   -4091.7772 
12700000     126.0306   -5011.4488   -4768.3882   -5011.4488            0    5678.1678    19.916242    19.699603    20.668323    8109.0525    6065.9258    5700.4642    5268.1133    115.19395   -403.70439   -582.49081   -4096.8755 
12701000     119.0142   -4998.6384   -4769.1095   -4998.6384            0    4916.2256    19.727396    19.957288    20.621477    8118.7853    4436.7821    5933.6059     4378.289    27.800853   -648.77881    630.67508    -4187.008 
12702000    124.33255   -5003.6309   -4763.8451   -5003.6309            0     4857.307    19.864624     19.74407    20.646603    8097.7737    4678.4345    5316.5484     4576.938    261.09655   -779.71975   -314.69648   -4190.2082 
12703000    119.77474   -5008.1828   -4777.1872   -5008.1828            0    4417.1891     19.84506    19.870515    20.603828    8124.7394    5736.0855    3625.3734    3890.1084    -386.6733   -79.143814    378.74951     -4253.79 
12704000    121.16077   -5008.5451   -4774.8764   -5008.5451            0    5021.6754    19.784998    19.674581    20.791102    8093.1765    4372.3061    5594.9037    5097.8164   -290.04722    409.22309    558.23844   -4182.1646 
12705000    119.22022   -5010.4406   -4780.5144   -5010.4406            0    5225.3567    19.792125    19.953119    20.533898    8109.1367    6007.6907    4270.2131    5398.1662    91.873728    482.18352     642.0113   -4162.5457 
12706000    112.88521   -4995.8823   -4778.1737   -4995.8823            0     6123.932    19.887169    19.845112    20.568308    8117.5519    7121.9024    5788.6384     5461.255   -447.45273   -105.65554   -230.37089   -4053.1848 
12707000    123.31868   -5003.9521   -4766.1216   -5003.9521            0    6394.4985    19.931353    19.805304    20.474437    8082.2123    5451.7249    6946.2458    6785.5248   -592.44625   -18.285068   -227.81118   -4012.3971 
12708000    126.07049   -5002.7018   -4759.5643   -5002.7018            0    5926.8081    19.817805    19.820006    20.605487    8093.6089    7427.0789    4566.6759    5786.6695    127.65038    372.36818   -646.68344   -4059.9817 
12709000    124.24741   -5008.3725   -4768.7509   -5008.3725            0     4506.571    19.897177    19.855919    20.570073    8126.7573    5012.9897    4374.7383    4131.9849   -91.008984    257.26924    739.79861   -4234.6302 
12710000    125.96915   -4990.0577   -4747.1156   -4990.0577            0    5615.6491     19.78152    19.750007    20.695196    8085.3062    5591.5492    6280.8732     4974.525   -216.91997    100.03401   -890.65374   -4084.9413 
12711000    124.00818    -4998.477   -4759.3168    -4998.477            0    5733.0993    19.798544    19.671715    20.772887    8090.4437     4757.688    7239.4104    5202.1995    422.58317   -447.67357   -436.52898   -4082.8637 
12712000    122.07326   -4999.8174   -4764.3889   -4999.8174            0    5660.5783    19.885853    19.686698    20.685152    8097.9634    6772.6751    5539.9053    4669.1544    83.249248    373.78538    392.58602   -4095.8718 
12713000    124.43747    -4996.481   -4756.4928    -4996.481            0    4795.1636     19.96957    19.832652    20.596725    8157.3233    4432.4206    5235.5518    4717.5184   -215.64326    705.31314    932.44914   -4186.0305 
12714000    125.76107   -5005.6743   -4763.1335   -5005.6743            0    4584.8928    19.824056     20.00257     20.52766    8139.8757    6299.2905    2377.6575    5077.7305   -398.08165   -166.81427    13.235233   -4218.8529 
12715000      120.553    -5021.825   -4789.3284    -5021.825            0    4556.9723      19.8755    19.886311    20.501711    8103.3089    4556.2947    4311.3915    4803.2307    424.33279     339.1986   -255.95868   -4250.7925 
12716000    121.69706   -5006.8256   -4772.1226   -5006.8256            0    4703.0202    20.020573    19.882367    20.368174    8107.6817    3201.0519    5652.5285    5255.4801   -40.310916    781.99609    233.84508    -4216.027 
12717000     112.6608   -4997.0983   -4779.8225   -4997.0983            0    5705.4334    20.002649    19.787832    20.438203    8089.6259     5161.814    5636.2091     6318.277    149.47003    337.91425    -891.8344   -4106.7017 
12718000    125.32001     -4997.78   -4756.0899     -4997.78            0    4849.0622     19.93928    19.845001    20.615265    8157.3576     4581.592    5863.6263    4101.9682   -358.58574    447.64996    96.460352    -4179.213 
12719000    125.89422   -4994.7012   -4751.9036   -4994.7012            0    6257.9004    19.794058    19.673513    20.634039    8035.2796    5128.9638    7455.7743     6188.963    249.07155    887.67897    -611.8683   -4018.5633 
12720000    118.71073   -5009.1872   -4780.2436   -5009.1872            0     4985.119    19.919224    19.851619    20.567089    8132.8199    3891.4085    5893.2259    5170.7227   -432.54269    486.61526   -299.91542   -4188.9644 
12721000    120.01812   -5002.3173   -4770.8522   -5002.3173            0    5197.6654    19.937089    19.737774    20.614185    8111.9653    4810.1274    5892.6241    4890.2447   -179.30752    837.40358    517.27666    -4155.944 
12722000    120.70828   -5009.0123   -4776.2162   -5009.0123            0    4827.1883    19.926092    19.801547    20.586629    8122.8135    5008.8153    4465.4386     5007.311   -120.64767    369.69758   -79.411027   -4204.3735 
12723000    116.37254   -4995.8466   -4771.4124   -4995.8466            0    4451.2828    19.892628     19.90974     20.50237    8120.1083    4093.9502    4446.2776    4813.6206    192.91009   -635.69642   -537.47669   -4244.2761 
12724000    121.81356   -4996.3914   -4761.4637   -4996.3914            0    5060.1391    19.804871    19.888046    20.494019    8072.1878    4744.0718     5178.347    5257.9985    4.4785334    269.79177   -326.83236   -4165.7609 
12725000    121.86223   -5017.2438   -4782.2222   -5017.2438            0    4302.9138     19.92746    19.852038    20.610682    8153.5999    4827.3172    4914.3657    3167.0587    4.9028531    304.19091   -430.48197   -4270.5546 
12726000    122.15908    -5007.134   -4771.5399    -5007.134            0    4370.8306     19.82697    19.936457    20.685754    8176.6551    4536.6181    4506.5855    4069.2882   -81.349098    251.96985   -162.55365   -4250.3266 
12727000    125.52218   -4981.9468   -4739.8668   -4981.9468            0    3857.1216    19.776657    19.972996    20.642691    8153.8442    2428.6745    5390.3467    3752.3437     246.4181   -90.707828    867.67904   -4281.1954 
12728000    130.70343   -5003.3815    -4751.309   -5003.3815            0    5954.5111    19.726027    19.897541    20.575305    8075.7951    7273.0315    5374.2916    5216.2101   -37.851042   -416.58091   -765.44097   -4050.0034 
12729000    127.45173    -5005.131   -4759.3297    -5005.131            0    5886.5551    20.022939    19.769384    20.550377    8134.6852    4709.5658    7176.4682    5773.6312     499.4468    608.61331   -1000.4946   -4060.9721 
12730000    120.57283   -4984.6866   -4752.1518   -4984.6866            0    3577.6003    19.999723    19.922466    20.492113     8164.955    2237.4036    4018.6814    4476.7157    207.46084   -159.17158    252.16012   -4326.1401 
12731000     129.2999    -5006.947   -4757.5813    -5006.947            0    5682.5822    19.876358    19.802827    20.623578    8117.6067    4458.3351     8402.911    4186.5006    227.23628    449.08737   -760.71063   -4084.8376 
12732000    126.17051   -5006.7721   -4763.4417   -5006.7721            0    4961.9784     19.81388     19.84943    20.615953    8108.1353    5158.8739    4973.7057    4753.3554     -216.625    301.23047   -1267.9324   -4176.6935 
12733000    128.96579   -5019.3806   -4770.6592   -5019.3806            0    5796.8444    19.919114    19.768094    20.494309    8069.8989    4888.6178    7051.3278    5450.5874   -271.20711     717.4911    258.37074   -4088.4217 
12734000    126.09742   -4993.4803   -4750.2908   -4993.4803            0    5623.9918     19.80869    19.824303    20.511563    8054.7569    4731.2985    6029.3618    6111.3152   -438.40522    101.84807   -840.48462   -4089.6384 
12735000    112.70894   -4995.2939   -4777.9253   -4995.2939            0    4664.3113    19.852955    19.762374    20.691922    8118.3002    4922.5673      4719.03    4351.3366    325.06151    177.83306   -707.67619   -4225.6844 
12736000    119.88308   -5007.0095   -4775.8049   -5007.0095            0    4969.7912    19.894668    19.803981    20.567621    8103.5116    4656.0201    5045.4971    5207.8564   -439.34466    240.66281   -761.89172    -4188.468 
12737000    122.76229   -5003.3904    -4766.633   -5003.3904            0    5022.1129     19.85186    19.774506    20.648295      8105.71    5827.6514    4328.9492    4909.7381   -570.05401    913.33696   -135.71447   -4172.9517 
12738000     120.1486   -4990.6728   -4758.9561   -4990.6728            0    6147.2517    19.838186    19.747231    20.722702    8118.1023    5991.3225    7234.4119    5216.0207   -299.25399    262.83088    310.57337   -4031.1572 
12739000    117.22854   -4995.8897   -4769.8046   -4995.8897            0    4879.6548    19.831536    19.854641    20.602913    8112.3563    5520.5342    4404.1312    4714.2989    725.18145    266.39431    158.33522   -4192.4907 
12740000    126.79241   -5003.5254   -4758.9956   -5003.5254            0    5358.3941    19.829663    19.763586    20.641015    8089.3225    5734.1194    5821.5801    4519.4827     120.9615   -553.13887    547.66333   -4126.8419 
12741000    122.17957   -5007.4662   -4771.8326   -5007.4662            0    4935.7354    19.793772     19.77084    20.705854    8103.0183    5455.3549    5325.8266    4026.0248   -224.49972   -743.27054    394.13383    -4188.556 
12742000    121.95042   -4999.2555   -4764.0638   -4999.2555            0    5573.8182    19.935542    19.884293    20.395905    8085.0217     5528.646     4942.096    6250.7127   -583.71818     647.0369   -742.69388   -4106.8452 
12743000    128.91747   -5002.2512    -4753.623   -5002.2512            0    5934.8919    19.737632    19.983644    20.468285    8073.3016      6391.19     5098.681    6314.8046    76.456181   -629.50471    752.64977    -4054.844 
12744000     125.3829   -4997.0582   -4755.2467   -4997.0582            0    4723.6623    19.975896    19.759831    20.480889    8084.2235    3685.1123    5456.2792    5029.5955   -183.61788    14.089646    544.55864   -4198.3264 
12745000    126.45206     -4990.32   -4746.4466     -4990.32            0    5474.6905    20.073505    19.793821    20.507539    8148.2882     4402.077    5760.1493    6261.8451    166.36791     478.6028   -557.50623   -4095.8649 
12746000    128.93821   -5006.1015   -4757.4333   -5006.1015            0    5166.0141    19.831935      19.8228    20.641093     8114.519    5403.3523    4663.0754    5431.6145   -266.84016    846.15358     360.2556   -4146.0772 
12747000    119.01522   -4992.2077   -4762.6769   -4992.2077            0    5647.5904    19.687287     19.85129    20.600777    8051.1554    4969.8951    5784.4933    6188.3828    48.913374   -738.31177   -84.974782    -4099.549 
12748000    124.71264   -4998.2396   -4757.7207   -4998.2396            0    4240.3484    19.907438    19.826189    20.673626     8159.645    4991.1992    3650.7297    4079.1162    220.67018    163.64858   -141.17731   -4253.1191 
12749000    120.95816   -5008.6814   -4775.4034   -5008.6814            0    5506.3841    19.846319    19.889042    20.518623    8099.1984     6099.749    4681.2603    5738.1431   -392.08775    993.84926    1039.4729   -4124.9976 
12750000    136.21931   -5008.0355   -4745.3251   -5008.0355            0    4670.1971    19.974544    19.883243    20.473479    8131.2206    5340.8792    4150.5827    4519.1295   -108.87982    35.709187    601.28547   -4191.5074 
Loop time of 355.238 on 64 procs for 250000 steps with 972 atoms

Performance: 121.608 ns/day, 0.197 hours/ns, 703.753 timesteps/s
99.1% CPU use with 64 MPI tasks x 1 OpenMP threads

MPI task timing breakdown:
Section |  min time  |  avg time  |  max time  |%varavg| %total
---------------------------------------------------------------
Pair    | 19.186     | 28.169     | 38.539     |  86.9 |  7.93
Bond    | 0.2615     | 0.27645    | 0.29011    |   1.2 |  0.08
Kspace  | 139.02     | 149.32     | 158.47     |  37.9 | 42.03
Neigh   | 0.93578    | 0.94684    | 0.95638    |   0.6 |  0.27
Comm    | 83.774     | 84.66      | 85.987     |   6.0 | 23.83
Output  | 0.59597    | 0.59621    | 0.59764    |   0.0 |  0.17
Modify  | 84.876     | 85.92      | 86.487     |   4.9 | 24.19
Other   |            | 5.352      |            |       |  1.51

Nlocal:        15.1875 ave          19 max          11 min
Histogram: 1 4 8 8 0 13 16 8 4 2
Nghost:        2270.53 ave        2296 max        2249 min
Histogram: 3 6 9 10 7 11 5 9 2 2
Neighs:        4837.19 ave        6900 max        3594 min
Histogram: 7 10 8 9 13 6 6 3 0 2

Total # of neighbors = 309580
Ave neighs/atom = 318.49794
Ave special neighs/atom = 2.0000000
Neighbor list builds = 2591
Dangerous builds = 0

unfix		3
unfix		2
unfix		1

write_data	data.final.${pid}
write_data	data.final.1
System init for write_data ...
PPPM initialization ...
  extracting TIP4P info from pair style
  using 12-bit tables for long-range coulomb (../kspace.cpp:340)
  G vector (1/distance) = 0.37186807
  grid = 24 24 24
  stencil order = 5
  estimated absolute RMS force accuracy = 0.0035479642
  estimated relative force accuracy = 1.0684589e-05
  using double precision FFTW3
  3d grid and FFT values/proc = 2197 216
Last active /omp style is kspace_style pppm/tip4p/omp
WARNING: Not all mixed pair coeffs generated from mixing. Use write_data with 'pair ij' option to store all pair coeffs. (../write_data.cpp:312)

write_restart   restart.lmp.${pid}
write_restart   restart.lmp.1
System init for write_restart ...
PPPM initialization ...
  extracting TIP4P info from pair style
  using 12-bit tables for long-range coulomb (../kspace.cpp:340)
  G vector (1/distance) = 0.37186807
  grid = 24 24 24
  stencil order = 5
  estimated absolute RMS force accuracy = 0.0035479642
  estimated relative force accuracy = 1.0684589e-05
  using double precision FFTW3
  3d grid and FFT values/proc = 2197 216
Last active /omp style is kspace_style pppm/tip4p/omp
Total wall time: 0:05:55
