LAMMPS (30 Jul 2021)
Processor partition = 0
  using 2 OpenMP thread(s) per MPI task
using multi-threaded neighbor list subroutines
variable        pid world 0 1
variable        phase world IceIh Liquid

shell cd ${phase}
shell cd IceIh
include Restart.lmp
echo both
log log.lammps
#include		in.partitions
include		in.temp
variable        temperature equal 229.50
variable	tempDamp equal 100.0
include		in.pressure
variable        pressure equal 2645.4
variable        pressureDamp equal 1000.0 # This is 1 ps
include		in.seed
variable        seed equal 745823

units		real
atom_style	full
#include		in.box
read_restart	restart.lmp.${pid}
read_restart	restart.lmp.0
Reading restart file ...
  restart file = 30 Jul 2021, LAMMPS = 30 Jul 2021
  restoring atom style full from restart
  orthogonal box = (0.11141821 0.10695371 0.090538139) to (18.096154 23.522224 22.122658)
  2 by 4 by 4 MPI processor grid
  restoring pair style lj/cut/tip4p/long/omp from restart
  restoring bond style harmonic/omp from restart
  restoring angle style harmonic/omp from restart
  864 atoms
  576 bonds
  288 angles
Finding 1-2 1-3 1-4 neighbors ...
  special bond factors lj:    0        0        0       
  special bond factors coul:  0        0        0       
     2 = max # of 1-2 neighbors
     1 = max # of 1-3 neighbors
     1 = max # of 1-4 neighbors
     2 = max # of special neighbors
  special bonds CPU = 0.002 seconds
  read_restart CPU = 0.011 seconds
include 	in.setup
variable	out_freq equal 1000
variable	out_freq2 equal 10000
variable	out_freq3 equal 1000

timestep	2.0

neigh_modify    delay 7 every 1

include		in.tip4p
# This is TIP4P/Ice

# create groups ###
group ox type 2
288 atoms in group ox
group hy type 1
576 atoms in group hy

# set charges - beside manually ###
set group ox charge -1.1794
Setting atom values ...
  288 settings made for charge
set group hy charge 0.5897
Setting atom values ...
  576 settings made for charge

# ### TIP3P Potential Parameters ###
pair_style lj/cut/tip4p/long/omp 2 1 1 1 0.1577 8.5
pair_coeff 1 1*2 0.000 0.000
pair_coeff 2 2 0.21084 3.1668
bond_style  harmonic
bond_coeff  1 450 0.9572
angle_style harmonic
angle_coeff 1 55 104.52
kspace_style pppm/tip4p/omp 1.0e-5
pair_modify tail yes

thermo          ${out_freq}
thermo          1000
thermo_style    custom step temp pe etotal epair emol press lx ly lz vol pxx pyy pzz pxy pxz pyz enthalpy

restart 	${out_freq3} restart.lmp.${pid} restart2.lmp.${pid}
restart 	1000 restart.lmp.${pid} restart2.lmp.${pid}
restart 	1000 restart.lmp.0 restart2.lmp.${pid}
restart 	1000 restart.lmp.0 restart2.lmp.0


include         in.dump
dump            myDump all atom ${out_freq2} dump.water.${pid}
dump            myDump all atom 10000 dump.water.${pid}
dump            myDump all atom 10000 dump.water.0
dump            myDump2 all dcd ${out_freq2} dump.dcd
dump            myDump2 all dcd 10000 dump.dcd
dump_modify     myDump append yes
dump_modify     myDump2 append yes


variable natoms 	equal  "count(all)"                        # NUMBER ATOMS
variable H      	equal  "enthalpy/v_natoms"                 # ENTHALPY-per-atom
variable Vol      	equal  "vol/v_natoms"                 # volume-per-atom
fix AVG all 		ave/time ${out_freq} 1 ${out_freq} v_Vol v_H file vol_enthalpy.dat
fix AVG all 		ave/time 1000 1 ${out_freq} v_Vol v_H file vol_enthalpy.dat
fix AVG all 		ave/time 1000 1 1000 v_Vol v_H file vol_enthalpy.dat


timer           timeout 23:50:00 every 1000
New timer settings: style=normal  mode=nosync  timeout=23:50:00

fix 		1 all shake 1e-6 200 0 b 1 a 1
Finding SHAKE clusters ...
       0 = # of size 2 clusters
       0 = # of size 3 clusters
       0 = # of size 4 clusters
     288 = # of frozen angles
  find clusters CPU = 0.001 seconds
fix             2 all nph aniso ${pressure} ${pressure} ${pressureDamp}
fix             2 all nph aniso 2645.4 ${pressure} ${pressureDamp}
fix             2 all nph aniso 2645.4 2645.4 ${pressureDamp}
fix             2 all nph aniso 2645.4 2645.4 1000
fix             3 all temp/csvr ${temperature} ${temperature} ${tempDamp} ${seed}
fix             3 all temp/csvr 229.5 ${temperature} ${tempDamp} ${seed}
fix             3 all temp/csvr 229.5 229.5 ${tempDamp} ${seed}
fix             3 all temp/csvr 229.5 229.5 100 ${seed}
fix             3 all temp/csvr 229.5 229.5 100 745823


run             250000
PPPM initialization ...
  extracting TIP4P info from pair style
  using 12-bit tables for long-range coulomb (../kspace.cpp:340)
  G vector (1/distance) = 0.37166855
  grid = 24 27 25
  stencil order = 5
  estimated absolute RMS force accuracy = 0.0031638994
  estimated relative force accuracy = 9.527989e-06
  using double precision FFTW3
  3d grid and FFT values/proc = 4410 672
Last active /omp style is kspace_style pppm/tip4p/omp
Neighbor list info ...
  update every 1 steps, delay 7 steps, check yes
  max neighbors/atom: 2000, page size: 100000
  master list distance cutoff = 10.8154
  ghost atom cutoff = 10.8154
  binsize = 5.4077, bins = 4 5 5
  1 neighbor lists, perpetual/occasional/extra = 1 0 0
  (1) pair lj/cut/tip4p/long/omp, perpetual
      attributes: half, newton on, omp
      pair build: half/bin/newton/omp
      stencil: half/bin/3d
      bin: standard
Setting up Verlet run ...
  Unit style    : real
  Current step  : 8000000
  Time step     : 2
  Walltime left : 23:49:59.94
Per MPI rank memory allocation (min/avg/max) = 10.19 | 10.21 | 10.23 Mbytes
Step Temp PotEng TotEng E_pair E_mol Press Lx Ly Lz Volume Pxx Pyy Pzz Pxy Pxz Pyz Enthalpy 
 8000000    239.68752   -4275.8347   -3865.0185   -4275.8347            0    2304.5861    17.984736     23.41527     22.03212    9278.1101    2919.3184    3757.1598    237.28024    1187.6198   -241.65115   -631.14382    -3553.181 
 8001000    236.53757   -4312.0245   -3906.6072   -4312.0245            0    2121.2315    18.132449    23.355338    21.885968    9268.4773    2858.3725    1925.1306    1580.1913   -1373.6121   -294.24448   -578.30405   -3619.8777 
 8002000    239.87605   -4325.7004   -3914.5611   -4325.7004            0    2281.4686    18.009893     23.45748    21.955419    9275.4333    1887.6832    3717.4364    1239.2861   -917.56716   -67.518078    120.56031   -3605.9407 
 8003000     228.4143   -4302.4047   -3910.9104   -4302.4047            0    2709.0716    17.749863    23.509197    22.176008    9253.7162    3504.9467    2064.1299    2558.1381    367.21724   -403.78377   -848.59789    -3545.305 
 8004000    218.40547   -4317.9181   -3943.5786   -4317.9181            0    1784.5752    18.216629     23.34685    21.830266    9284.4317     1115.926    3233.7795      1004.02    17.705235    604.93808    492.43611   -3701.9401 
 8005000    231.91618   -4302.5796   -3905.0832   -4302.5796            0    1689.3521    18.065413    23.330409     22.06658    9300.4782    1982.3319    671.43956     2414.285    84.719168   -143.59026    364.47351    -3675.943 
 8006000    243.18077   -4302.7605    -3885.957   -4302.7605            0    3938.2851    17.838727    23.268811    21.979362    9123.3248    3563.7743    4982.7997    3268.2814   -1433.0532    -524.9616    739.03071   -3361.9511 
 8007000    238.87461   -4311.4003   -3901.9774   -4311.4003            0    1501.8493    18.020343    23.665709     21.76624    9282.5217     854.1966    1485.5224    2165.8289    821.87831   -205.37009    265.44217    -3698.663 
 8008000    227.29679   -4274.0839    -3884.505   -4274.0839            0    3320.7416    17.802532    23.318959    22.148117    9194.4919    4163.2064    3221.4782    2577.5402   -810.99695    69.812534    186.85315   -3439.2193 
 8009000    243.35487   -4300.2197   -3883.1177   -4300.2197            0    2401.0493     18.17726    23.404665    21.773532    9263.1722    1612.0707    2326.8217    3264.2553   -1355.0335    146.80961   -988.38892   -3558.7507 
 8010000    226.22911   -4290.4812   -3902.7322   -4290.4812            0    2853.1318    18.088753    23.302198    21.901144    9231.5008    2060.7861    3634.8641    2863.7451    580.08912   -145.45801    514.70897   -3518.6095 
 8011000    233.65749   -4315.6677   -3915.1867   -4315.6677            0    1069.9287    17.982576    23.380891      22.1543    9314.7456    1078.8128      1780.09    350.88317   -66.141836   -207.15651    49.109049   -3769.8412 
 8012000    241.81947    -4281.632   -3867.1617    -4281.632            0    930.38698    17.937238    23.577827    22.090347    9342.4738    2138.1934    370.43063    282.53687   -580.79889    109.88412   -510.73798   -3740.3961 
 8013000     231.3326   -4275.3086   -3878.8125   -4275.3086            0    1853.7957    17.862358    23.496866    22.131728    9288.8949    2311.3923    2582.6026    667.39221    275.87078   -682.95069   -3.8882605   -3627.6806 
 8014000    218.40488   -4307.3893   -3933.0509   -4307.3893            0    2207.6826    18.111502    23.216473    22.084963    9286.4003    1914.8556    2820.4257    1887.7665    161.11932    517.02872    758.00093   -3634.0586 
 8015000    222.31256   -4288.9491    -3907.913   -4288.9491            0    2888.5897    18.186143    23.209661    21.973628    9274.9412    1526.1818    3023.4446    4116.1427   -117.97018    349.62123    704.14151   -3517.1864 
 8016000    231.11772    -4298.654   -3902.5262    -4298.654            0    3189.6896    17.912218    23.523445    21.938481    9243.9339     3146.161    3504.4972    2918.4106   -562.81186    -356.8411    526.02168   -3472.5136 
 8017000    235.02137   -4304.3827   -3901.5641   -4304.3827            0     2836.372    17.733547    23.590204    22.097415    9244.1885    4493.5929    1662.0116    2353.5115   -444.30248    39.648148     421.8497   -3519.1729 
 8018000     222.3638   -4317.4443   -3936.3204   -4317.4443            0    2563.7025    18.098961    23.364089    21.858668    9243.2818    2516.9433    1878.8245    3295.3398   -956.38842   -397.90502   -543.99045   -3590.7235 
 8019000    229.95314   -4302.7986   -3908.6668   -4302.7986            0    1537.3558    18.088735    23.201903    22.192833    9314.1786     2349.796    3676.7575   -1414.4861    254.11494    491.10904   -108.90917   -3699.8359 
 8020000    232.91463   -4322.6093   -3923.4016   -4322.6093            0     2666.618    18.049858    23.294753    21.986886    9244.7599    3069.0416    2015.6856    2915.1267   -126.39235   -64.617727   -38.308971    -3563.874 
 8021000    230.17575   -4323.2806   -3928.7673   -4323.2806            0    2337.4442    18.001737    23.629404    21.861936    9299.4187    1686.4139     2246.606    3079.3127   -105.18058   -11.710437    371.63516   -3611.7573 
 8022000    228.95925   -4281.1785   -3888.7502   -4281.1785            0    1751.4651    17.829542    23.388024    22.308016    9302.3927    2056.6569    1634.9307    1562.8075    358.67436   -556.13062   -124.89581   -3651.1362 
 8023000    227.16656   -4318.9847    -3929.629   -4318.9847            0    2985.4671    18.111078    23.429372    21.755298    9231.4516     2549.072    3023.3977    3383.9314    987.84152    127.28454    213.28324   -3527.6919 
 8024000    233.80975   -4261.1801   -3860.4382   -4261.1801            0    2073.5278    18.144889    23.155429    22.010824    9247.9072    334.65549    2646.0016    3239.9264    -28.45318   -138.86897    200.33663   -3580.7789 
 8025000    230.45063   -4292.8678   -3897.8833   -4292.8678            0    2341.6893    18.063849    23.356191    21.917312    9246.9732    4252.5428    709.15432    2063.3708    -92.01566   -76.571202   -568.59328   -3582.0886 
 8026000    245.23745    -4295.221   -3874.8924    -4295.221            0    2231.1895     17.92038    23.334369    22.063133    9225.9363    2655.4777    1976.1753    2061.9153    581.15553    356.49347     321.6287    -3574.684 
 8027000     229.8757    -4276.459     -3882.46    -4276.459            0    2760.0666      17.8234    23.621205    21.968041    9248.7692    3783.1387    2496.0243    2001.0367   -131.17325    272.05941   -420.28743   -3510.1717 
 8028000    238.11233   -4329.2226   -3921.1063   -4329.2226            0    2794.4676    17.888819    23.515942    21.940454    9229.7443    3750.7424    2736.7737    1895.8867   -296.15336   -27.967892    25.303607   -3544.9532 
 8029000    222.06733    -4324.141   -3943.5252    -4324.141            0    2012.7653    17.992581    23.292885    22.111258    9266.8089    708.13302    1634.5616    3695.6011    525.92144   -9.9279628   -437.37471   -3671.5062 
 8030000    237.89344    -4296.265   -3888.5238    -4296.265            0    3939.9045    18.168114    23.196625    21.880917    9221.4702    2476.4403    4944.5471    4398.7262    395.86409    168.53851   -81.646729    -3358.663 
 8031000    239.63998   -4287.3476   -3876.6129   -4287.3476            0    2155.6837    18.015579    23.487089    22.029987     9321.626    2833.5515    1448.9768    2184.5229    -662.8709     378.7784   -425.98021   -3583.5555 
 8032000    231.33094   -4287.7585   -3891.2652   -4287.7585            0    2622.0609    17.920215    23.458654    22.027752    9260.1173    3287.2674    1691.6781    2887.2372   -10.643253    771.67146   -512.61586   -3537.1577 
 8033000    229.37983   -4296.4413   -3903.2921   -4296.4413            0     3576.934    17.955653     23.43441     21.92082    9223.8456     3427.528    2650.9739    4652.3002   -429.73985     -77.0172    617.12811   -3422.1218 
 8034000    226.99172   -4322.9705   -3933.9144   -4322.9705            0    1755.4546    17.915745    23.353725     22.16655    9274.4711    1006.9867    1698.6727    2560.7044    -43.35995   -647.15931    126.01561    -3696.474 
 8035000    213.59826   -4309.3679   -3943.2678   -4309.3679            0    2322.3761    18.070833    23.497235    21.831509    9269.9775    2759.0662    1703.1216    2504.9405    -63.68823   -631.84743    98.669485   -3629.2985 
 8036000    240.70627   -4342.8707   -3930.3084   -4342.8707            0     2116.981    17.955669    23.250767    22.272551    9298.4129    1982.7777    2698.3042    1669.8611    619.50863   -434.00736   -176.14551   -3643.2292 
 8037000    229.64268   -4295.1983   -3901.5987   -4295.1983            0    1862.9453    17.983758    23.425256    22.133343    9324.2048    1979.3925    2200.7639    1408.6795   -1306.5031   -463.29943   -116.84201    -3648.268 
 8038000    236.69874    -4309.424   -3903.7305    -4309.424            0    3732.6577    18.016418    23.429109    21.780727    9193.8326    2987.9966      3579.56    4630.4164    -983.1804   -192.35462    550.40262   -3403.2459 
 8039000    249.41149   -4332.3862   -3904.9034   -4332.3862            0    3171.7338    17.950362    23.315823    22.119763    9257.7284    1325.4643    3574.9244    4614.8128   -1148.1994    211.64134   -539.49514   -3476.6735 
 8040000     231.5376   -4320.3133   -3923.4657   -4320.3133            0     1646.036    18.216588    23.377698     21.92106    9335.3444     1662.041    2063.9348    1212.1323   -97.406163   -765.39746    277.02466   -3699.3638 
 8041000    220.53543    -4291.035   -3913.0448    -4291.035            0    4923.6888    18.009575    23.224385    22.011168    9206.4195    3407.6538    5637.8404    5725.5721   -163.48159    564.26828    432.62532   -3251.9599 
 8042000    225.38196   -4304.0166   -3917.7196   -4304.0166            0    2200.9335    18.010822    23.547815    21.956487    9312.0866    2447.3651    456.43529    3699.0001    233.57218   -578.95363    323.10101    -3618.817 
 8043000    216.32015   -4267.2363    -3896.471   -4267.2363            0    1828.3417    18.072812     23.46616    21.864319    9272.6469    1804.1485    1528.6542    2152.2224    1438.2104     629.9696   -391.75875   -3649.2206 
 8044000    234.76981   -4301.2005   -3898.8131   -4301.2005            0    2026.0727    17.814378    23.198079     22.45415    9279.3872    4253.9297     787.1926    1037.0958    759.53333   -131.12497    105.23593   -3624.6239 
 8045000    216.55556   -4319.8213   -3948.6525   -4319.8213            0    3050.9097     18.08255     23.41089    21.774092    9217.5957    2482.9748    2885.9218    3783.8323    826.90962   -937.83691    403.74231   -3538.5212 
 8046000     241.5506   -4311.6334    -3897.624   -4311.6334            0     3532.754    17.959783    23.232841    22.174696    9252.5419    3849.4065    4402.9415    2345.9139   -507.59969    653.79431   -290.15359   -3420.9183 
 8047000    224.58046   -4308.8291   -3923.9059   -4308.8291            0    1935.5759    18.228518    23.344845    21.915682    9326.0414    1374.6657    1907.1387    2524.9234    264.26865    350.28781    260.25456   -3660.6468 
 8048000    224.86243   -4285.8878   -3900.4813   -4285.8878            0    2415.0276     18.04253     23.62063     21.85932    9315.9161    1502.7875    2871.5583    2870.7371    -1398.156   -233.56913   -465.71027   -3572.3682 
 8049000    229.63776   -4290.8283    -3897.237   -4290.8283            0    2493.2386    17.739124    23.459869    22.302158    9281.2111    3189.1724    2942.2561    1348.2872   -472.75701    498.15957    810.98994   -3559.7599 
 8050000    233.04794    -4317.489   -3918.0528    -4317.489            0    2567.6254    18.084363    23.549149    21.774686    9273.2148    1077.6044    1578.7994    5046.4723    510.13872   -173.76927    496.77826   -3570.8063 
 8051000    226.99994   -4275.7551    -3886.685   -4275.7551            0    2630.5751    18.075211    23.220817    22.015612    9240.4182    186.28959    4285.8168    3419.6188    345.74012    739.12767   -318.50016   -3532.1834 
 8052000    221.69781   -4290.3425     -3910.36   -4290.3425            0    4145.6573     17.90555    23.188169    22.087383    9170.6137    4152.3328    4677.5049    3607.1342    263.91681    107.41655    334.35399   -3355.9033 
 8053000    233.21849   -4322.4819   -3922.7533   -4322.4819            0    3283.6429    18.023292    23.510111    21.777591    9227.8099     2636.717    2362.8253    4851.3864    590.81595   -45.878911   -824.47459   -3480.8468 
 8054000    237.78878   -4297.1004   -3889.5386   -4297.1004            0    2466.7424    17.853896     23.24225    22.335145    9268.2971     2344.616    2291.5796    2764.0316   -292.44186    619.72154    976.85771   -3556.1124 
 8055000     232.3845   -4310.6019   -3912.3029   -4310.6019            0    2986.4432      18.0364    23.323704    21.951369    9234.4062    1955.3836    4213.4644    2790.4814   -870.01347   -93.376788   -512.79482   -3510.1056 
 8056000     235.1119   -4281.8861   -3878.9123   -4281.8861            0    3336.8223    18.121021    23.425461    21.758142    9236.1848    1837.0059    2966.6249    5206.8361    -204.5198    233.33636   -145.09647   -3429.4414 
 8057000    231.96626   -4303.3154   -3905.7332   -4303.3154            0    3099.5839    17.913251    23.277635    22.212887    9262.2881    4639.1313    2644.2545    2015.3659   -597.21134   -67.572297    726.06473   -3487.0384 
 8058000    224.52544   -4290.0948   -3905.2659   -4290.0948            0    3532.2595     18.05121    23.503876    21.616842     9171.451    4036.4512    2978.2948    3582.0325    965.41766    110.07242   -535.95533   -3432.8042 
 8059000    232.78356   -4304.1666   -3905.1836   -4304.1666            0    1766.1757    17.879877    23.435736    22.120924    9269.2881    2520.6666    1347.8306    1430.0298   -238.03726    -202.7752    285.38699   -3666.4266 
 8060000    220.63083   -4324.5817    -3946.428   -4324.5817            0    1303.3445    18.070568    23.536873    21.952817    9337.0749    2045.7326    195.32231    1668.9787   -38.157878    287.17987   -450.56829   -3768.9494 
 8061000    222.75292   -4292.9111   -3911.1202   -4292.9111            0    1263.9042    18.098843     23.22592    22.187705    9326.8744    2471.5458    1950.5758   -630.40893    722.73213    362.80745   -83.820169   -3739.2003 
 8062000    230.78348   -4287.2378   -3891.6828   -4287.2378            0    1477.1926    18.107473    23.327394    22.144102    9353.6719    1444.2276    3155.4606   -168.11035    956.14664    168.16322   -604.86293   -3690.1734 
 8063000    235.40245   -4276.0316   -3872.5599   -4276.0316            0    2704.3601    18.007114    23.470075    21.957398    9279.8182    3650.9162    1773.8569    2688.3073    883.60785   -121.16988   -627.82207   -3506.5609 
 8064000    222.50133   -4295.5465   -3914.1868   -4295.5465            0    1507.7013    17.842684    23.382401    22.384395    9338.8767    2320.6477    784.43435    1418.0218   -287.56032    115.83658    358.65903    -3708.841 
 8065000    220.17265   -4315.8712   -3938.5028   -4315.8712            0    3263.4125     18.05938     23.41811    21.872643    9250.3026    3636.6091    1917.7716    4235.8567    552.62919   -260.48083   -248.27057   -3498.2483 
 8066000    247.21968   -4303.6435   -3879.9174   -4303.6435            0    3207.5898    18.033481     23.31902    22.054848    9274.5734    3984.8738    2853.6557    2784.2398   -685.56957    114.15711     401.0709   -3446.0584 
 8067000    216.41591   -4308.5729   -3937.6434   -4308.5729            0    3087.1399    17.874428    23.423986    22.065093    9238.4415    3854.0726    2732.5887    2674.7585    186.96063   -822.73199   -209.22386   -3521.7032 
 8068000    234.41056   -4321.7984   -3920.0267   -4321.7984            0    3626.6094    17.990005    23.563075    21.819892    9249.4486     3337.636    4002.8981    3539.2942    677.89955   -129.18263    183.48984   -3430.8199 
 8069000    219.85403   -4323.3302   -3946.5079   -4323.3302            0    3640.2587    17.800117    23.283956    22.183342    9194.0444    3215.1111     4395.726    3309.9389     1190.108   -99.969841   -323.56295   -3458.4012 
 8070000    227.68847   -4302.1206   -3911.8703   -4302.1206            0     2541.579    18.000642    23.416755    22.034135    9287.7541    2131.9864    1850.5755     3642.175   -314.54261    770.56586    75.672484   -3567.6074 
 8071000    219.05046    -4287.929    -3912.484    -4287.929            0    2273.0442    18.090254    23.581556    21.708737    9260.8675    549.33978    2349.5959    3920.1969    614.58472    257.71112    139.04866   -3605.4861 
 8072000    237.40185   -4260.6081   -3853.7094   -4260.6081            0    3160.9245    17.870138     23.33451    22.115475     9221.952    3503.7751    3021.1667    2957.8318   -1006.5374   -304.94076    324.25548   -3428.5881 
 8073000    215.80916   -4308.3645    -3938.475   -4308.3645            0    2552.5612    18.177995     23.55446     21.61373    9254.4122    2022.6599    2885.9919    2749.0316   -105.91609    40.773768    -738.5804   -3593.9658 
 8074000    236.51263   -4315.7858   -3910.4112   -4315.7858            0    3974.0881    17.947047    23.171359    22.016178    9155.5921    4046.6866    5089.2673    2786.3104   -1551.8921    724.66229   -999.74566   -3379.7714 
 8075000    234.24737   -4318.6865   -3917.1945   -4318.6865            0    2432.1105    18.043812    23.353472    21.938735    9244.6685    3169.2206    3109.5777    1017.5333   -725.13473     117.3125    107.88362   -3589.2876 
 8076000    223.54836   -4299.7209   -3916.5666   -4299.7209            0    2207.5584    18.189787    23.394896    21.807067    9279.9579    1233.2784    2302.0581    3087.3386   -1809.6437   -178.41366    285.15198   -3617.7986 
 8077000    222.64541   -4310.1311   -3928.5245   -4310.1311            0    3714.9502    17.893164    23.103057    22.301888    9219.3058    2452.6674    5065.7282    3626.4549   -409.50623    1163.6022    266.02133   -3429.0342 
 8078000     245.8186   -4293.8417    -3872.517   -4293.8417            0    3681.1394    18.060721    23.359042    21.857703    9221.3529    3242.4851    4729.6351    3071.2981   -1481.6035   -224.13579    84.683329   -3377.4628 
 8079000    226.45774   -4302.2374   -3914.0966   -4302.2374            0    2676.3158    17.900782    23.694724    21.867774    9275.3057    2548.4652    2417.1974    3063.2849    254.25485    833.36521    216.19062   -3552.0691 
 8080000    242.60862   -4296.2962   -3880.4733   -4296.2962            0    2648.2656    17.921347    23.305068    22.162192    9256.2216    2014.9072    4103.5574    1826.3324   -363.47754    515.02744   -456.04841   -3522.9773 
 8081000     223.8117   -4285.9208   -3902.3152   -4285.9208            0    3914.2974    18.150203    23.187681    21.780389    9166.5188    2763.0003    3872.4181    5107.4739    331.43508    516.89128    398.90225   -3379.0352 
 8082000     216.6704   -4300.5145   -3929.1489   -4300.5145            0    2555.3325     17.97785    23.385185    22.041452    9266.5647    1738.3292    1944.6475    3983.0209    387.22123   -617.37049   -247.40816   -3583.8127 
 8083000    220.27687   -4299.0167   -3921.4697   -4299.0167            0    3776.1455    17.762091    23.615904    21.822653    9153.9011     4210.712    2289.6722    4828.0522   -9.0284879   -317.32774    575.45293   -3417.3533 
 8084000    228.14239    -4263.699   -3872.6707    -4263.699            0    2625.6795    17.969788    23.446673    22.049788    9290.2754     1005.852    3750.6364    3120.5502   -62.077859    -648.1201   -490.43249   -3516.9197 
 8085000    231.32081   -4305.8565   -3909.3806   -4305.8565            0    2752.8898    18.251393    23.102775     21.92794    9246.0871    1270.4748    4083.1291    2905.0655   -509.54822    222.98465    410.27446    -3538.168 
 8086000    228.93154   -4296.7681   -3904.3873   -4296.7681            0    3157.1718    17.934645    23.268087    22.107774    9225.6822    4002.6655     1418.308     4050.542   -402.45598    131.93715     270.2918   -3479.5989 
 8087000    237.39334   -4332.2922   -3925.4081   -4332.2922            0    3748.6492     17.85593    23.495367    21.919387    9195.8765    3549.1432    3467.1589    4229.6454   -1948.8975    87.745236   -353.60012   -3422.6677 
 8088000    236.27094   -4286.4334   -3881.4731   -4286.4334            0     3410.732     17.95027    23.434541    21.961019    9238.0417    3620.4634    3347.3849    3264.3476    267.87011    476.11557    722.19874   -3421.9542 
 8089000    219.81226   -4317.0069   -3940.2562   -4317.0069            0    2965.3389    17.865928    23.238276    22.200758    9217.1636    2908.1049    2890.1067     3097.805    1063.7442    531.12005   -710.90986   -3541.6468 
 8090000    227.11147   -4291.9945   -3902.7332   -4291.9945            0    2391.9352    18.118931    23.492325    21.765379    9264.5603    2811.5576    1355.7956    3008.4523   -258.35907    373.18922    573.06078    -3579.549 
 8091000    227.17702   -4322.3362   -3932.9626   -4322.3362            0    2428.2324    18.093715    23.171833     21.99391    9221.2665    2119.3373    1215.8516    3949.5082   -577.65946    594.29771   -278.70019   -3606.4073 
 8092000      242.007   -4314.3411   -3899.5494   -4314.3411            0    3257.4452    17.890906    23.359736    22.144552    9254.8027    3629.4944    3738.4808    2404.3604   -460.55992    67.087821   -49.519847   -3459.8861 
 8093000    229.13968   -4323.4518   -3930.7142   -4323.4518            0    2600.6532    17.918302    23.637089    21.779826    9224.5514    2844.5508    2516.3938    2441.0149    927.83112   -52.082316    221.17953   -3580.8467 
 8094000    224.25033   -4292.7282   -3908.3708   -4292.7282            0    3140.0931    18.002088    23.343913    21.945505    9222.3612    1298.1679    4543.5986    3578.5127    1441.0526   -416.18918   -191.61944   -3486.0324 
 8095000    229.68709   -4316.1466   -3922.4708   -4316.1466            0    4643.4389    17.992029    23.052323    21.983762    9117.9427    3978.4603    5638.4101    4313.4463    -645.9198    675.89209    499.19021   -3305.0056 
 8096000    239.47894   -4310.4742   -3900.0155   -4310.4742            0    2417.7403    18.147767    23.460694    21.794861     9279.363     2029.148    1385.7646    3838.3081    -121.0239    447.57079    321.76669   -3572.8227 
 8097000    229.88181   -4295.3172   -3901.3077   -4295.3172            0    3078.6312    17.967627     23.47151    21.944102    9254.4275     3636.591    3950.3314    1648.9713   -457.36785    417.12315    548.63171   -3485.7961 
 8098000    219.36514   -4316.5938   -3940.6094   -4316.5938            0    2100.0413    17.799275    23.741249    22.012041    9301.7826    4077.4511    2071.5955    151.07742    211.74689   -328.00796    425.18333   -3655.7242 
 8099000    229.44605   -4302.2886   -3909.0259   -4302.2886            0    2019.3026    18.048707     23.47823     22.00551    9324.8722    1401.9964    977.15644    3678.7551    848.22636   -5.7543855    845.65313   -3634.4135 
 8100000    228.43437   -4316.2636   -3924.7349   -4316.2636            0     3803.953    18.206451    23.065887    21.913418    9202.4946    3720.9479    3292.4884    4398.4228    -27.36611   -515.08282    544.44104   -3414.2104 
 8101000    222.96342   -4322.1431   -3939.9914   -4322.1431            0    2070.1945    18.146212    23.222204    21.948875    9249.1469    3010.9122    2203.2156     996.4558    237.11405    65.219483    493.08285   -3660.7443 
 8102000    236.51056   -4308.9034   -3903.5324   -4308.9034            0    3312.3176    17.830532     23.54282    21.915943    9199.8966    2596.7226    3224.9853    4115.2449    614.17308   -147.03163   -797.84766   -3459.1153 
 8103000    227.17952   -4287.4576   -3898.0797   -4287.4576            0     2966.237    17.846651    23.443791    22.015672     9211.207    2730.5792    3303.2481    2864.8835   -2134.5856    49.697766   -648.65259   -3499.6072 
 8104000    226.12323    -4286.108   -3898.5406    -4286.108            0    2988.4911    18.024472     23.25752    21.832037    9152.0887    1309.3975    3511.9045    4144.1713    496.04468    446.00611   -512.05924   -3499.6552 
 8105000    224.97473   -4270.5273   -3884.9283   -4270.5273            0    1344.0451    18.166413    23.371241    22.002569    9341.6668    489.13514    1364.0952    2178.9049    -78.22788   -313.69033   -399.52713   -3701.8175 
 8106000    221.84467   -4312.8873   -3932.6532   -4312.8873            0    3463.5442    17.796521    23.320168    21.970705     9118.235    3634.7036     2651.311    4104.6182   -731.28369    789.24034   -497.34971   -3472.0707 
 8107000    222.38226    -4312.881   -3931.7254    -4312.881            0    1328.2492    17.743985    23.756867    22.123836    9326.1151    2734.8048   -365.54427    1615.4871    231.09078    712.15749   -162.54893   -3751.0678 
 8108000    228.42179   -4289.4551    -3897.948   -4289.4551            0    2602.4568    18.028193    23.202151    21.999671    9202.3052    2620.1111    2642.7148    2544.5443   -580.03127   -1148.9808     -489.978   -3548.6822 
 8109000     224.2208   -4304.4439   -3920.1371   -4304.4439            0     2770.501    18.102556    23.142029    22.029273     9228.721    3505.2654    2956.5671    1849.6706   -290.13387    141.47181   -61.699524   -3547.2514 
 8110000    230.12616    -4307.266   -3912.8376    -4307.266            0    3028.6836    18.091234    23.254443    21.869665    9200.6024    3094.2291    2849.8664    3141.9551    -941.4941    541.15991    591.35147   -3506.4448 
 8111000    240.12964   -4316.8973   -3905.3233   -4316.8973            0    1612.0825     17.97573    23.518356    22.011343    9305.5073    1660.7813    2235.8068    939.65947    984.97861    142.04479   -661.07515   -3686.5456 
 8112000    233.30356   -4306.2311   -3906.3568   -4306.2311            0    2682.3003    17.915048     23.44687     21.91463    9205.2795    3128.4047    2592.5872    2325.9091   -126.64806     100.8628   -702.16548   -3546.2591 
 8113000    232.83662   -4312.7266   -3913.6526   -4312.7266            0    2681.4205    17.833012    23.619403    21.878897     9215.503    4233.3219    1912.2824    1898.6573  0.075252431   -733.89268    763.65251   -3553.2733 
 8114000    241.13434   -4283.6777   -3870.3817   -4283.6777            0    4550.2027    17.840499    23.343335    22.056055    9185.3929    6522.4799    5505.3678    1622.7602   -1437.8556   -416.52342    715.97991   -3260.8387 
 8115000    243.59174   -4303.5994   -3886.0915   -4303.5994            0    2585.7736    18.145032    23.095183     22.04936    9240.0676    1564.7649    3902.8698     2289.686    659.45324   -327.32344   -175.61618   -3537.6406 
 8116000    227.21923   -4313.2196   -3923.7736   -4313.2196            0    2823.0664    18.098651    23.148401    22.042829    9234.9495    3194.2279     3789.662    1485.3094   -394.71714   -594.88885   -461.84554   -3543.5566 
 8117000    222.09118   -4323.8038   -3943.1472   -4323.8038            0    2677.3206    17.938148    23.467616    21.948312    9239.4839    2265.3259    3330.5141    2436.1217   -518.28469    216.38532    159.09369   -3582.3825 
 8118000    224.95495    -4311.804   -3926.2389    -4311.804            0     2901.017    17.951688    23.476178    21.875758    9219.2544    2662.2921    2264.3308    3776.4279    971.33513    1035.0383   -223.05952   -3536.1874 
 8119000    235.49779   -4305.5318   -3901.8967   -4305.5318            0    3258.4313    18.103127    23.115792    22.055607    9229.5685    2792.9071    3536.0778    3446.3091    693.26147   -98.420294   -125.74269   -3463.2994 
 8120000    226.22749   -4313.0947   -3925.3485   -4313.0947            0    3001.8196    18.011764    23.214669    22.025408    9209.6409     2966.707    2575.0255    3463.7263    424.94014    68.660871   -451.97138   -3522.1646 
 8121000    239.19764   -4330.8721   -3920.8955   -4330.8721            0    2842.5497    17.832963    23.686828    21.871358    9238.6001    4013.7241    1089.6552    3424.2699   -751.14053    149.27607   -533.33706   -3537.9031 
 8122000    235.86553   -4293.8298   -3889.5643   -4293.8298            0    1180.6748    17.968216    23.499857    22.126448    9342.9035    1141.3555    2193.5013    207.16749   -371.35209   -1035.1368   -239.03917   -3728.6895 
 8123000    208.01291   -4298.8271   -3942.3001   -4298.8271            0     2513.479    18.184055    23.195512    21.979701    9270.7848    763.75027    3252.1787     3524.508   -7.5060784    807.69895     156.9022   -3602.4654 
 8124000    237.28822   -4299.4966   -3892.7927   -4299.4966            0    3125.0123      18.0595    23.096289    22.158985    9242.6774    3176.2449    3003.2428    3195.5493   -661.96023     680.5385   -1028.7296   -3471.5567 
 8125000    228.74805   -4270.1527   -3878.0863   -4270.1527            0    2136.5952    18.077837    23.604333    21.860147    9328.0588    1582.9272    1054.2162    3772.6422   -438.60019   -274.77176    251.43463   -3587.4235 
 8126000    233.37279   -4314.9525   -3914.9595   -4314.9525            0    2431.8182    17.863543    23.571898    22.079538    9297.1991    2805.6944    1452.0267    3037.7333    263.73273   -231.08128    87.099639    -3585.229 
 8127000    216.28909    -4268.226   -3897.5139    -4268.226            0    3941.4791    17.872957    23.546236    21.854122    9197.1078    3927.4636    2606.6624    5290.3113     136.8699   -503.27145   -424.70583   -3368.8418 
 8128000    227.33356   -4298.7382   -3909.0963   -4298.7382            0    1912.4721    18.131865    23.353619    21.970308    9303.2099    939.69242    2888.0555    1909.6685    905.59435    330.99452    867.93027   -3649.6163 
 8129000    239.26472   -4296.6549   -3886.5634   -4296.6549            0    1654.5761    18.192117    22.987798    22.180138    9275.6609    532.08346    3505.1611    926.48363    300.31533    183.69445    45.051143    -3662.739 
 8130000     225.5983    -4323.648   -3936.9803    -4323.648            0    3036.3833    17.983416    23.400298    21.958165    9240.3751    2367.5918    2666.6386    4074.9196   -238.65197    671.01344   -259.16689    -3527.793 
 8131000    214.92428   -4307.2595   -3938.8866   -4307.2595            0    3046.0338     17.85181    23.403567    21.964193    9176.5528    3291.0559    2643.1506    3203.8948    678.08406   -995.28989   -87.595828    -3531.234 
 8132000    239.86157   -4291.9415    -3880.827   -4291.9415            0    3403.7315     17.91582    23.459299    21.927445    9215.9422    3935.9726    3231.0367    3044.1852    378.74041   -164.71387    794.56858   -3423.3482 
 8133000    225.56309   -4308.3182   -3921.7108   -4308.3182            0    1292.9271    18.039197    23.476207    21.942778    9292.5895    690.16833    1604.1683    1584.4448    456.92613   -450.71691    550.96254   -3746.4896 
 8134000     221.6481    -4316.859   -3936.9617    -4316.859            0    3921.4831    17.936846    23.258812    22.009734    9182.2351    2824.6835    4827.9605    4111.8052   -232.94965   -53.920234   -920.74436   -3411.8223 
 8135000    228.78451   -4335.3156   -3943.1868   -4335.3156            0    1615.5104    18.208294      23.6011    21.511119    9244.0974   -174.78217    392.67172    4628.6417   -301.73682    268.08022   -671.64104   -3725.3906 
 8136000    223.96951   -4292.9989   -3909.1228   -4292.9989            0    2178.0366     17.97339    23.335897     22.09758    9268.2812    2058.4659    3001.8511    1473.7928   -320.32835   -199.64153   -319.11024   -3614.7212 
 8137000    226.01881   -4317.5644   -3930.1759   -4317.5644            0    2632.5783    17.994356    23.439981    21.899752     9237.039    3266.6205    1813.4628    2817.6516    194.64364   -195.66276   -256.60975   -3575.5341 
 8138000    228.46328   -4299.8329   -3908.2547   -4299.8329            0    2297.4824    18.113864    23.332854    21.945588    9275.2621    2724.1189    2239.2667    1929.0617   -546.30707   -292.27601   -326.05185   -3597.4738 
 8139000    214.57105   -4323.5313   -3955.7638   -4323.5313            0    1758.7949    18.047726    23.082775     22.12482    9217.0141    750.68706    2848.5873    1677.1104    -493.4308    278.40158    158.15591   -3719.3454 
 8140000    230.04855   -4307.8788   -3913.5834   -4307.8788            0    3233.0296    18.031969    23.284519    22.006293    9239.6885    1598.8366    4166.8994    3933.3529    652.67187   -184.07632     275.1491   -3477.9282 
 8141000      222.589   -4317.0874   -3935.5774   -4317.0874            0    3119.5714    17.769962    23.531284    22.037734    9215.0789    4389.9857    2310.9281    2657.8002    192.28219    219.03068    198.65569   -3516.3305 
 8142000    223.14232   -4310.3588   -3927.9005   -4310.3588            0    2328.4121    17.810371    23.639379    21.902457    9221.5062    3602.1878    1627.9844    1755.0641   -303.41412    375.80959    92.363818   -3614.7612 
 8143000    228.12859    -4320.955   -3929.9504    -4320.955            0    3075.7919    17.969892    23.377758    21.986514    9236.4419    3444.5965    2936.3272    2846.4522    386.82581    785.48195    257.03784   -3515.6288 
 8144000    235.55045   -4327.8123   -3924.0869   -4327.8123            0    2100.7021    18.221054    23.114503    22.077246    9298.2868    3615.5515     2229.924    456.63087    54.940826   -247.46897   -1238.6646   -3639.2191 
 8145000    239.00295    -4296.189   -3886.5461    -4296.189            0    3562.7536    18.138067    23.143415    21.984197    9228.4561    3133.4332    4180.9576    3373.8701    415.99655   -228.37195      828.707   -3407.0438 
 8146000    222.48593   -4302.0619   -3920.7286   -4302.0619            0    3142.7335    17.982542    23.353753    22.093656     9278.448    4754.0889    3533.4171    1140.6945   -1023.6095    24.606806   -418.38013   -3495.4645 
 8147000    226.24632   -4327.6588   -3939.8803   -4327.6588            0    3650.7017     17.81184    23.527427    21.988184    9214.5169    4846.5916    3755.5943     2349.919    221.77197   -1008.8103   -611.15386   -3449.2834 
 8148000    220.72818   -4327.6945    -3949.374   -4327.6945            0    3352.9505    17.907137    23.543597    21.948432    9253.4243    3497.8332    3421.7232     3139.295    483.85493   -487.63448   -518.61289   -3496.8876 
 8149000     233.6225   -4273.2671   -3872.8461   -4273.2671            0    2972.1627    17.967526    23.187406    22.140621    9224.2327    2326.2719     4078.805    2511.4111   -66.940472   -153.32184    11.920165    -3473.013 
 8150000     214.3885   -4285.4821   -3918.0275   -4285.4821            0    2374.5431    18.157173    23.314571     21.93753    9286.7422      1560.35    1475.8071     4087.472   -824.37294    244.89203    168.31673   -3596.4251 
 8151000    233.98233   -4293.1526   -3892.1149   -4293.1526            0    1848.2841    18.011126    23.558724    21.876624    9282.6704    1704.6866    589.20505    3250.9606   -657.50847   -336.81717    123.64452   -3641.8975 
 8152000    216.41081   -4310.1494   -3939.2287   -4310.1494            0    3492.0261    17.814609    23.417481    22.093169    9216.6795    3435.6072    3697.2082    3343.2628    -51.74407   -233.29601    839.03484   -3469.8452 
 8153000    236.88148   -4310.4416   -3904.4348   -4310.4416            0    2959.5688    18.104889    23.512744    21.710838    9242.2089    575.01512    2784.7008    5518.9904   -108.59455   -1003.8525   -664.89652   -3505.5201 
 8154000    223.96989   -4319.4259   -3935.5491   -4319.4259            0    2109.7339    17.976942    23.354624    22.162733    9304.9065    2922.8685    3381.9043     24.42887    711.18575     260.6759    457.36229   -3649.2529 
 8155000    231.48098   -4318.4061   -3921.6556   -4318.4061            0    3198.6673    17.957308    23.435264    21.961638    9242.2094    4894.3426    1921.9238    2779.7353    1217.9721    52.153712   -190.81461   -3490.5132 
 8156000    214.39062   -4321.7036   -3954.2454   -4321.7036            0    3967.8798    18.040856    23.355829    21.779893    9177.1574    3296.7422     4718.729    3888.1681    84.588639   -739.31022   -736.50444   -3423.1867 
 8157000    220.66014   -4306.6634   -3928.4594   -4306.6634            0    2067.5934    17.804942    23.277833    22.379371    9275.3645    5317.8955    1639.9776   -755.09279   -198.06571    -404.7435   -270.28232   -3648.7726 
 8158000     234.4834    -4326.402   -3924.5055    -4326.402            0    2566.0988    17.997198     23.46924    21.917636    9257.5833    1140.2664    1640.1117    4917.9184    85.624814    958.99824    371.02142   -3578.0505 
 8159000    226.49606   -4308.3311   -3920.1246   -4308.3311            0    3527.7066    18.071176    23.436071    21.843967    9251.2997    3025.3394     3721.104    3836.6763    277.71174    385.24273   -427.15466   -3444.1639 
 8160000    222.99299   -4267.3025   -3885.1002   -4267.3025            0    3440.0107    17.846405    23.290103    22.295623    9267.0553    5596.3624    4229.4092    494.26041   -300.38056    236.64278   -489.03993    -3420.181 
 8161000    219.97551   -4323.9664    -3946.936   -4323.9664            0    3121.4744    18.040645    23.617422     21.72133    9254.8837    3104.0893      1103.79    5156.5438   -927.57222   -537.89437    623.82878   -3525.6212 
 8162000    233.64502   -4327.0235    -3926.564   -4327.0235            0    2050.5035     17.91424    23.323849    22.119607    9242.2137    1367.2555    3259.1711    1525.0838   -302.40212   -137.59409    851.31982   -3650.1803 
 8163000    238.90421   -4319.5712   -3910.0976   -4319.5712            0    3509.6924    18.001766    23.413182    21.896081    9228.7299    2678.2972    4713.1108    3137.6692   -447.76789    36.031486     114.1269   -3437.7226 
 8164000    224.25661   -4308.6808   -3924.3127   -4308.6808            0    2486.2126    18.017501    23.490151    21.858481    9251.2484    3671.9253    2193.1292    1593.5833   -1204.2421   -287.52058    53.912137   -3588.8729 
 8165000    217.95426   -4290.2622   -3916.6961   -4290.2622            0    2994.2117    17.977367    23.260417    22.141417    9258.6782    415.93546    2952.4614    5614.2381    104.35629    995.19018     152.2274   -3512.3927 
 8166000    224.54185    -4280.913    -3896.056    -4280.913            0    2840.7021    18.189377    23.478559    21.641638    9242.2856    2013.8844    3030.6116    3477.6104    210.53882    1268.6854   -97.909921   -3513.1599 
 8167000    213.21445   -4303.6989   -3938.2566   -4303.6989            0    1833.7163    17.914647    23.329802    22.167407    9264.7607    3303.4982    1039.1253    1158.5256   -424.78889    350.31132   -153.57024   -3690.4903 
 8168000    246.32073   -4298.0669   -3875.8816   -4298.0669            0    2177.9358    18.010143     23.47334    22.005954    9303.1978    2670.1434    1399.9471    2463.7169   -491.03529   -121.09747   -166.04271   -3580.3845 
 8169000    237.32444   -4287.4205   -3880.6546   -4287.4205            0    3368.9291    18.058941    23.336844     21.92621    9240.5532    2092.0311    2586.3416    5428.4145   -20.435847   -294.72054   -685.60284   -3426.6442 
 8170000    223.38248   -4293.5028   -3910.6329   -4293.5028            0    3262.3281    17.926302    23.276597    22.139814    9238.1325    2197.3709    2828.3926    4761.2207   -711.65215   -401.66388    384.75483   -3471.1037 
 8171000    236.92355   -4316.5758   -3910.4969   -4316.5758            0    3693.7787     18.09868    23.282591    21.636256    9117.1757    2477.2035    3066.4875    5537.6452    1208.5547    -82.17321    135.29718   -3419.3549 
 8172000    232.54356     -4316.66   -3918.0883     -4316.66            0    3572.1667     17.83762    23.317447    22.063958    9177.0122     4772.176    4901.2744    1043.0496    598.67222    758.35926    8.6321398   -3439.9991 
 8173000    226.39934   -4318.6199   -3930.5792   -4318.6199            0    1052.6276     18.02485    23.594328    21.891047     9309.917    510.73604    347.36354    2299.7833   -19.612713    24.981401    521.10817   -3787.6581 
 8174000     224.6031   -4312.8405   -3927.8785   -4312.8405            0    2939.2781    18.010335    23.190999    22.015887    9195.5439    2563.8441    3268.6785    2985.3119    173.59797    28.236899   -84.919137    -3533.699 
 8175000    233.84232   -4305.5148   -3904.7171   -4305.5148            0    1327.0152    18.168025    23.264912     22.06828    9327.7656    762.10623    2501.2566    717.68285    44.179091   -29.277921   -94.075061   -3724.1954 
 8176000    233.37145   -4327.3691   -3927.3784   -4327.3691            0    2989.5426    18.006879    23.242612    22.045166     9226.495    3541.0551    2434.2363    2993.3365   -176.45671   -360.71455    829.33773   -3525.1086 
 8177000    236.72998   -4292.1653   -3886.4182   -4292.1653            0    3871.8355    17.807817    23.596761    21.890384    9198.4884    4178.1244    3105.5237    4331.8585   -398.77031   -95.046389   -80.836735   -3367.0095 
 8178000    236.63237   -4302.0233   -3896.4435   -4302.0233            0    1144.1015    17.855134    23.602259    22.099718    9313.2965    1280.3459    1257.7632    894.19555    856.33998   -623.68248   -575.08768   -3741.0461 
 8179000    233.20129   -4312.7274   -3913.0283   -4312.7274            0    1809.6859    18.144923    23.252028    21.983983    9275.1802    580.38143    3316.2852    1532.3912   -676.16061    408.83364    160.89723    -3668.234 
 8180000    229.91394   -4312.7291   -3918.6644   -4312.7291            0    2730.2554    18.203387    23.184049    21.958238    9266.9962     2801.221    3157.8488    2231.6964    310.68518   -122.08704   -735.91472   -3549.6714 
 8181000    234.82033   -4307.3005   -3904.8265   -4307.3005            0    3236.8013     17.95108    23.286823    21.990505    9192.5508    5551.3257    2935.0833    1223.9951    1366.2814    120.05863   -125.24584   -3470.8882 
 8182000    238.94831   -4287.4754   -3877.9262   -4287.4754            0    3352.6996    17.828733    23.583452    21.895838    9206.3909    4912.9696    3014.5043    2130.6247   -124.44452   -946.70496     535.8839   -3427.7734 
 8183000    223.51829   -4311.2188   -3928.1161   -4311.2188            0    2658.5341    17.822266    23.643901    21.983178    9263.4449    2902.9893    1840.7938    3231.8193     63.72802    -964.0972   -574.41169   -3568.9539 
 8184000    218.50534   -4304.0716    -3929.561   -4304.0716            0     2863.449    17.986241    23.287191    22.048714    9235.0824    1825.5099    3493.9788    3270.8581    559.79701    -326.8398   -145.57944   -3543.8996 
 8185000    235.15368   -4297.6086   -3894.5633   -4297.6086            0    2748.6849    18.155288    23.160077    22.002239    9251.4545    2832.9457    1725.4133    3687.6957   -532.15293   -570.92998    344.03139   -3523.7025 
 8186000    231.38935   -4294.4989   -3897.9055   -4294.4989            0    1890.3006    18.164818    23.350635    22.002581    9332.6154    2261.9149    2341.2739    1067.7131    202.84605    -603.5979    189.79683   -3640.6231 
 8187000    221.92854   -4303.8049    -3923.427   -4303.8049            0    2690.1343    17.949617    23.372213    22.004642    9231.4375    3493.7542    2150.1552    2426.4934    1315.9256    313.87958   -17.829413   -3561.2514 
 8188000    242.82692   -4299.3528   -3883.1558   -4299.3528            0    3718.0043    17.720664    23.471102    22.044393    9168.7814    4495.0894    2513.0971    4145.8263   -237.13422    66.688597    596.92401   -3385.9944 
 8189000    212.63604   -4294.5051   -3930.0542   -4294.5051            0    2602.8952    17.993407    23.457291     21.79601    9199.5857    3079.5766     2048.581     2680.528   -97.237225   -563.81221   -1091.0292   -3580.8328 
 8190000    248.46407   -4302.2843   -3876.4254   -4302.2843            0    2525.2103    17.951172    23.280249    22.151004    9257.0761    3722.4071    1922.4541    1930.7696     156.7431    290.94252    127.04328   -3535.5095 
 8191000      231.051   -4300.3408   -3904.3273   -4300.3408            0    2544.5732    18.141644    23.219148    21.917661    9232.4538     1435.029    3327.1617     2871.529    278.46249   -971.23192    -93.07767    -3561.711 
 8192000    228.02738   -4290.7944   -3899.9632   -4290.7944            0    3142.8635    17.964799    23.334442    22.108066    9267.6689    5377.7966    3315.4654    735.32833    305.81039   -380.34015   -205.98641   -3475.1756 
 8193000    229.10953   -4297.2574   -3904.5715   -4297.2574            0    2792.8281    17.879628    23.435023    21.942757    9194.2234    3019.5117    2230.2003    3128.7723   -666.75027    196.04026   -741.83542   -3530.0859 
 8194000    234.06859   -4291.2715    -3890.086   -4291.2715            0    1362.6793    18.012459    23.473639    22.001231    9302.5157    1041.9682     1327.402    1718.6675     786.9964    104.68894    -318.5101   -3705.2145 
 8195000     222.5431   -4291.2476   -3909.8163   -4291.2476            0    4101.1595     17.96306    23.068665    22.050169    9137.2332    3797.9231    4690.7927    3814.7627    179.37952   -588.75699   -276.66782   -3363.3074 
 8196000    227.94274   -4304.3031   -3913.6171   -4304.3031            0    1728.6625    18.190657      23.3155    21.861332    9271.9216    1132.3266    1414.4157    2639.2452   -549.41873   -247.99727     528.5543   -3679.8648 
 8197000     232.8655   -4303.3538   -3904.2303   -4303.3538            0    1019.5158     17.93863    23.437138    22.123429    9301.3565    423.96614    1058.3119    1576.2693    1240.2067    793.62164    24.816777   -3765.9322 
 8198000     245.2003   -4322.3878   -3902.1229   -4322.3878            0    3612.0571    17.793949    23.528728    21.924118    9178.9478    3786.6442    3616.3247    3433.2023    193.15469     703.1928   -308.33634    -3418.593 
 8199000    232.48713    -4286.607    -3888.132    -4286.607            0    2349.3654    18.106158    23.324441    21.883697    9241.8359    1121.3601    2675.4435    3251.2924     439.1913   -808.30432    1253.4351   -3571.4782 
 8200000    231.49308   -4312.4646   -3915.6934   -4312.4646            0    2926.6694    18.123055    23.159334    22.070088    9263.2109    2013.9851    4760.9162    2005.1068   -77.558373   -154.87314    949.71956   -3520.3167 
 8201000    226.46177   -4296.2477      -3908.1   -4296.2477            0    2695.3683    18.028509    23.539215    21.833594    9265.6741    2794.7744    2020.5021    3270.8283   -1155.3655    120.83258   -18.196596   -3543.8739 
 8202000     226.2253   -4288.0149   -3900.2725   -4288.0149            0    2016.1229    17.746355    23.705241    22.010447    9259.3906    2034.2561    2146.4568    1867.6559   -150.38486   -650.06344    5.6701366   -3628.0178 
 8203000    220.06193   -4312.0676    -3934.889   -4312.0676            0    2407.5912    17.915371    23.464395    22.037888    9264.1404    2787.7334    2203.2363    2231.8039   -243.53462   -915.57828    316.02274   -3609.6042 
 8204000    223.59164    -4314.485   -3931.2566    -4314.485            0    4334.5423    18.074278    23.164186    21.915454     9175.473    5432.3124    3970.1852    3601.1292   -608.68389   -670.52708    204.11982   -3351.2304 
 8205000     218.8618   -4313.1049   -3937.9832   -4313.1049            0    3147.4523    18.215322    23.124164    21.943088    9242.7378      2257.84    2884.6623    4299.8547    320.80028   -1171.5622   -565.71155   -3513.7197 
 8206000    227.48502   -4324.2672   -3934.3657   -4324.2672            0    2764.4948    18.036507    23.368216    21.964417    9257.5843    3544.4692     2818.832    1930.1832   -56.019482    201.65921     777.9614   -3561.1247 
 8207000    225.16397   -4305.2767   -3919.3533   -4305.2767            0     1124.711    18.029011    23.690951    21.831104    9324.5976    1414.0145    283.72114    1676.3974    89.654944    160.88285   -226.03078   -3766.4042 
 8208000    241.56749   -4313.4903   -3899.4519   -4313.4903            0    2449.2061     17.88009    23.443427    22.062014    9247.7476    3355.1687    1262.3147    2730.1349   -195.52693    72.632431    118.67573   -3569.1301 
 8209000     228.0065   -4304.7631   -3913.9678   -4304.7631            0    2579.3632    17.928216    23.281665    22.166224    9252.1535    3252.3276    1973.6091    2512.1528   -1480.3734   -95.282792   -278.31898   -3565.9262 
 8210000    234.77197    -4286.567   -3884.1759    -4286.567            0    2606.4405    18.086482    23.444901     21.69435    9199.1805    1168.7288    3599.4346    3051.1582    753.95382    416.77437    562.10276   -3534.4942 
 8211000    217.04394   -4295.9753   -3923.9694   -4295.9753            0    1947.9483    17.896753    23.313142    22.234511    9276.8946    3054.5344     1928.534    860.77636    1336.6581    84.080076   -24.448671   -3660.4237 
 8212000    244.13005   -4326.1273   -3907.6967   -4326.1273            0    2502.6378    18.124998    23.474822    21.764064    9260.1976    2216.2884    1744.1393    3547.4858   -147.86413    166.33458     -805.394   -3569.7143 
 8213000    229.03208   -4289.5777   -3897.0246   -4289.5777            0    2832.1476    18.024931    23.349834    22.045818    9278.6248    3552.6934    2625.8879    2317.8614   -308.43277    538.61352   -462.74665   -3513.7806 
 8214000    231.77243   -4310.3613   -3913.1113   -4310.3613            0    2921.8523    18.064355    23.115665    22.002725    9187.6687    2819.1726    4017.2584    1929.1258    817.95623    24.598416   -255.22571   -3521.6043 
 8215000    214.77753   -4328.7128   -3960.5914   -4328.7128            0    2177.1696    18.080847     23.43949    21.875966    9271.1619    700.29941    3326.4659    2504.7434    1264.1001    -211.8813    -62.85197   -3666.2155 
 8216000     221.3776   -4304.8158   -3925.3822   -4304.8158            0    2000.9636    17.879047    23.485093    22.188839    9316.8955    1414.0759    3291.7886    1297.0264   -271.51958   -318.84958    336.79717   -3653.4965 
 8217000    216.98891   -4301.0769   -3929.1653   -4301.0769            0     3589.492    17.781977    23.254305    22.212974    9185.2318    4926.8794    3040.2359    2801.3609   -204.98646   -597.09864   -244.42516    -3448.327 
 8218000    232.79839    -4306.981   -3907.9725    -4306.981            0    2738.2194    18.250452    23.217532    21.865965    9265.2747    241.25606     3658.118     4315.284    330.18358   -236.78298    82.017301    -3537.972 
 8219000    232.59178   -4295.2523    -3896.598   -4295.2523            0    3309.9123    18.023678    23.306363    21.989701    9237.1339      2575.33    3733.2368      3621.17    228.43775    230.74222   -222.96864   -3450.7061 
 8220000    223.06377   -4316.7793   -3934.4556   -4316.7793            0    2745.8887    17.723692    23.633746    22.074769    9246.6181    4001.3419    3514.8815    721.44279   -594.71449   -325.06269    484.10985   -3564.1658 
 8221000    219.34494   -4291.8404   -3915.8907   -4291.8404            0    2191.5207    18.021154    23.328765    21.940453    9224.0133    2652.5976    1918.4996    2003.4647    993.71743 -0.085802911     760.2348   -3621.0812 
 8222000    226.43802    -4319.258    -3931.151    -4319.258            0    3736.7313    18.029732    23.280817    21.894204    9190.0238    2369.8063    5121.0651    3719.3226   -373.28513   -258.94261    695.73262   -3430.3278 
 8223000    222.96856     -4304.59   -3922.4295     -4304.59            0    2452.3327    17.972039    23.261436    22.192345    9277.6301    3728.3237    1919.0992    1709.5753   -736.87966   -32.033002    988.14715   -3590.6173 
 8224000      224.339   -4300.8673   -3916.3579   -4300.8673            0    3302.0984     17.97531    23.591759    21.782468    9237.2732    3854.7487    3454.4564    2597.0902    1243.7145    -57.88705    633.40946   -3471.5119 
 8225000    226.43017   -4324.8122   -3936.7186   -4324.8122            0    2706.8724    17.879508    23.511007    22.063346    9274.6637     1369.246       2901.9    3849.4713    218.52726    80.757325   -281.26805   -3570.5831 
 8226000    233.02896   -4307.0306   -3907.6269   -4307.0306            0    3123.4582    17.928199    23.421224    21.999571    9237.6277    3794.5505    2970.6857    2605.1382   -566.61243    167.09432    620.90066   -3486.8305 
 8227000    233.82179   -4259.5194   -3858.7569   -4259.5194            0    1806.7297    18.263321    23.404136    21.802409    9319.1617    894.97233    2928.0704    1597.1465    528.47831    6.0462361    807.48314   -3613.2035 
 8228000    236.68566   -4286.0084   -3880.3373   -4286.0084            0    3013.6762    18.022908    23.177563    22.145561    9250.8007    1762.2204     4050.953    3227.8551   -267.39921    293.25966    242.67927   -3473.7519 
 8229000    237.57744   -4312.6443   -3905.4447   -4312.6443            0    2278.6226    18.044944    23.432639    21.966164    9288.1874    2259.7454    2679.9802    1896.1421    219.19333    -113.6791    149.76509   -3596.7855 
 8230000     238.1525   -4286.4942    -3878.309   -4286.4942            0    1993.2459    17.920534    23.410494    22.158937    9296.3066    1216.4146    3812.9907    950.33247   -473.56619    593.80992   -127.74946   -3608.0705 
 8231000    227.52171   -4289.3896   -3899.4252   -4289.3896            0    3019.4931    17.870045    23.356629    22.109105    9227.9871    2993.6705    2939.4077    3125.4012   -722.81504   -153.27273    703.76376   -3493.0596 
 8232000    223.61525   -4286.9745   -3903.7057   -4286.9745            0    2504.9976    18.104935    23.456722    21.670286    9202.9897    1966.5825    2225.5249    3322.8855     742.4326   -259.02144   -473.98559   -3567.4945 
 8233000    221.70689   -4308.6836   -3928.6855   -4308.6836            0    1967.1066    18.082871     23.20573    22.109265     9277.627    1954.3018    2499.5666    1447.4513    69.142295     -484.894    193.30558   -3662.5268 
 8234000    230.01574   -4286.6607   -3892.4216   -4286.6607            0    2080.5906     18.12186     23.19339      22.0318    9260.1279    1173.2285    2171.3564     2897.187    227.39225    -23.48664   -155.99059   -3611.4389 
 8235000     219.4857   -4311.4086   -3935.2176   -4311.4086            0    2347.7646    17.967613    23.614753    21.883424    9285.1529    3022.4557    2517.0827    1503.7554     45.24486    534.21285    1132.6611   -3617.2964 
 8236000     231.2998   -4313.6054   -3917.1655   -4313.6054            0    3418.0891    17.646951    23.564347    22.119647    9198.2092    5021.9636    2797.0154    2435.2884    261.63604    375.95542    1504.4119    -3458.641 
 8237000     224.8896   -4306.8046   -3921.3515   -4306.8046            0    2504.9965    18.109331    23.295802    21.975723    9270.9291    2555.9999    1586.6159    3372.3736   -146.66888    127.25552    906.36445   -3582.6584 
 8238000    233.74853    -4296.138    -3895.501    -4296.138            0    3168.3384    18.248642    23.011553    21.992762    9235.4116    3305.7009     3249.284    2950.0303     408.4769    328.49241    513.34754   -3468.7607 
 8239000    228.39833   -4298.4029    -3906.936   -4298.4029            0     2304.023    18.004991    23.320186    22.087436    9274.0672    1884.1921    3229.0487    1798.8281   -355.44148    248.69973   -439.89827   -3595.3106 
 8240000    218.60945   -4280.0442   -3905.3551   -4280.0442            0    3219.7455    17.955827    23.450965    21.913982    9227.5717    3703.1001    1580.4689    4375.6675   -23.852897   -32.297856   -331.60041   -3472.0589 
 8241000    219.99474   -4309.0018   -3931.9384   -4309.0018            0    2181.0781    18.116517    23.272392      21.9898    9271.2224    787.20096    2151.2081    3604.8251   -423.76311   -864.66178    -80.62392    -3637.032 
 8242000     226.1035   -4298.5225   -3910.9889   -4298.5225            0    1875.4477    18.142054    23.027584    22.262488    9300.5476    2650.3181    2883.0148    93.010271   -842.69724    255.06469    181.11083   -3656.6051 
 8243000    243.37059   -4301.6571   -3884.5283   -4301.6571            0    3628.5361    18.019159    23.392148    21.815824    9195.5189    3879.8812    2410.7044    4595.0227    301.85706    114.99375    -306.2421   -3397.9154 
 8244000     233.5594   -4299.2263   -3898.9135   -4299.2263            0    3340.4317    17.688119    23.527226    22.132136     9210.341    5337.6494    1526.6789    3156.9667    387.26856    6.1076212    493.82601   -3450.2154 
 8245000    239.61043   -4296.4675   -3885.7834   -4296.4675            0    1816.4962    17.936148    23.382852    22.064621    9253.8648    2486.2627    1289.5728    1673.6533    247.16078    52.748993    112.22715   -3640.6325 
 8246000    228.94398   -4306.8516   -3914.4495   -4306.8516            0    2908.2875    18.047471    23.428087     21.81867    9225.3203     2739.373    2365.4976     3619.992    294.50321    283.98746   -159.62958   -3523.1631 
 8247000     227.7764   -4306.3476   -3915.9466   -4306.3476            0    1628.3917    18.033079    22.967362    22.397059    9276.2403    2660.1628    1645.0134    579.99879    366.39566   -271.52479     426.5612   -3695.6505 
 8248000    240.46968   -4294.0937   -3881.9369   -4294.0937            0    3394.6533    18.122209    23.273951    21.828549     9206.745    2315.4669    4061.4697    3807.0234     323.8631     94.18845    147.51172   -3426.1337 
 8249000    225.07136   -4320.2468   -3934.4822   -4320.2468            0    2986.2326    17.846571    23.441335    22.075434    9235.2012    2134.2544    3490.9423    3333.5011    410.11852   -93.022294   -244.94609   -3532.2787 
 8250000    240.69119   -4286.9667   -3874.4303   -4286.9667            0    1538.2219    18.069321    23.484121    22.046928    9355.4398   -327.64707    1695.9936    3246.3191   -552.54008    449.18068   -788.22548    -3664.556 
Loop time of 440.243 on 64 procs for 250000 steps with 864 atoms

Performance: 98.128 ns/day, 0.245 hours/ns, 567.869 timesteps/s
190.2% CPU use with 32 MPI tasks x 2 OpenMP threads

MPI task timing breakdown:
Section |  min time  |  avg time  |  max time  |%varavg| %total
---------------------------------------------------------------
Pair    | 17.51      | 25.501     | 34.334     | 101.4 |  5.79
Bond    | 0.91727    | 1.1045     | 1.6376     |  15.5 |  0.25
Kspace  | 216.75     | 228.8      | 242.14     |  43.8 | 51.97
Neigh   | 1.5407     | 1.6909     | 1.8968     |   8.1 |  0.38
Comm    | 67.724     | 73.346     | 77.044     |  28.0 | 16.66
Output  | 0.5686     | 0.56904    | 0.57183    |   0.1 |  0.13
Modify  | 75.81      | 80.272     | 86.115     |  27.5 | 18.23
Other   |            | 28.96      |            |       |  6.58

Nlocal:        27.0000 ave          37 max          18 min
Histogram: 1 6 7 2 0 5 3 1 2 5
Nghost:        2107.50 ave        2212 max        2010 min
Histogram: 9 7 0 0 0 0 0 2 6 8
Neighs:        6500.03 ave        8951 max        4488 min
Histogram: 3 7 4 2 1 4 3 1 3 4

Total # of neighbors = 208001
Ave neighs/atom = 240.74190
Ave special neighs/atom = 2.0000000
Neighbor list builds = 5049
Dangerous builds = 0

unfix		3
unfix		2
unfix		1

write_data	data.final.${pid} nocoeff
write_data	data.final.0 nocoeff
System init for write_data ...
PPPM initialization ...
  extracting TIP4P info from pair style
  using 12-bit tables for long-range coulomb (../kspace.cpp:340)
  G vector (1/distance) = 0.37148501
  grid = 24 27 25
  stencil order = 5
  estimated absolute RMS force accuracy = 0.003182099
  estimated relative force accuracy = 9.5827965e-06
  using double precision FFTW3
  3d grid and FFT values/proc = 4410 672
Last active /omp style is kspace_style pppm/tip4p/omp

write_restart   restart.lmp.${pid}
write_restart   restart.lmp.0
System init for write_restart ...
PPPM initialization ...
  extracting TIP4P info from pair style
  using 12-bit tables for long-range coulomb (../kspace.cpp:340)
  G vector (1/distance) = 0.37148501
  grid = 24 27 25
  stencil order = 5
  estimated absolute RMS force accuracy = 0.003182099
  estimated relative force accuracy = 9.5827965e-06
  using double precision FFTW3
  3d grid and FFT values/proc = 4410 672
Last active /omp style is kspace_style pppm/tip4p/omp
Total wall time: 0:07:20
