LAMMPS (30 Jul 2021)
  using 1 OpenMP thread(s) per MPI task
package omp 0
using multi-threaded neighbor list subroutines
echo both

include		in.partitions
variable        pid world 0
include		in.temp
variable        temperature equal 266.16
variable	tempDamp equal 100.0
include		in.pressure
variable        pressure equal 9500.0
variable        pressureDamp equal 1000.0 # This is 1 ps
include		in.seed
variable        seed world 745823

units		real
atom_style	full
read_restart    restart.lmp.${pid}
read_restart    restart.lmp.0
Reading restart file ...
  restart file = 30 Jul 2021, LAMMPS = 30 Jul 2021
  restoring atom style full from restart
  triclinic box = (-3.2131692 -0.16339139 0.0025888619) to (14.823168 22.743390 19.227409) with tilt (0.16128692 -6.7323057 0.022697177)
  4 by 4 by 4 MPI processor grid
  restoring pair style lj/cut/tip4p/long/omp from restart
  restoring bond style harmonic/omp from restart
  restoring angle style harmonic/omp from restart
  1008 atoms
  672 bonds
  336 angles
Finding 1-2 1-3 1-4 neighbors ...
  special bond factors lj:    0        0        0       
  special bond factors coul:  0        0        0       
     2 = max # of 1-2 neighbors
     1 = max # of 1-3 neighbors
     1 = max # of 1-4 neighbors
     2 = max # of special neighbors
  special bonds CPU = 2.368 seconds
  read_restart CPU = 2.864 seconds

include 	in.setup
variable	out_freq equal 1000
variable	out_freq2 equal 10000
variable	out_freq3 equal 1000

timestep	2.0

neigh_modify    delay 7 every 1

include		in.tip4p
# This is TIP4P/Ice

# create groups ###
group ox type 2
336 atoms in group ox
group hy type 1
672 atoms in group hy

# set charges - beside manually ###
set group ox charge -1.1794
Setting atom values ...
  336 settings made for charge
set group hy charge 0.5897
Setting atom values ...
  672 settings made for charge

# ### TIP3P Potential Parameters ###
pair_style lj/cut/tip4p/long/omp 2 1 1 1 0.1577 8.5
pair_coeff 1 1*2 0.000 0.000
pair_coeff 2 2 0.21084 3.1668
bond_style  harmonic
bond_coeff  1 450 0.9572
angle_style harmonic
angle_coeff 1 55 104.52
kspace_style pppm/tip4p/omp 1.0e-5
pair_modify tail yes

thermo          ${out_freq}
thermo          1000
thermo_style    custom step temp pe etotal epair emol press lx ly lz vol pxx pyy pzz pxy pxz pyz enthalpy

restart 	${out_freq3} restart.lmp.${pid} restart2.lmp.${pid}
restart 	1000 restart.lmp.${pid} restart2.lmp.${pid}
restart 	1000 restart.lmp.0 restart2.lmp.${pid}
restart 	1000 restart.lmp.0 restart2.lmp.0


include         in.dump
dump            myDump all atom ${out_freq2} dump.water.${pid}
dump            myDump all atom 10000 dump.water.${pid}
dump            myDump all atom 10000 dump.water.0
dump            myDump2 all dcd ${out_freq2} dump.dcd
dump            myDump2 all dcd 10000 dump.dcd
dump_modify     myDump append yes
dump_modify     myDump2 append yes


variable natoms 	equal  "count(all)"                        # NUMBER ATOMS
variable H      	equal  "enthalpy/v_natoms"                 # ENTHALPY-per-atom
variable Vol      	equal  "vol/v_natoms"                 # volume-per-atom
fix AVG all 		ave/time ${out_freq} 1 ${out_freq} v_Vol v_H file vol_enthalpy.dat
fix AVG all 		ave/time 1000 1 ${out_freq} v_Vol v_H file vol_enthalpy.dat
fix AVG all 		ave/time 1000 1 1000 v_Vol v_H file vol_enthalpy.dat



fix 		1 all shake 1e-6 200 0 b 1 a 1
       0 = # of size 2 clusters
       0 = # of size 3 clusters
       0 = # of size 4 clusters
     336 = # of frozen angles
  find clusters CPU = 1.873 seconds
fix             2 all nph tri ${pressure} ${pressure} ${pressureDamp}
fix             2 all nph tri 9500 ${pressure} ${pressureDamp}
fix             2 all nph tri 9500 9500 ${pressureDamp}
fix             2 all nph tri 9500 9500 1000
fix             3 all temp/csvr ${temperature} ${temperature} ${tempDamp} ${seed}
fix             3 all temp/csvr 266.16 ${temperature} ${tempDamp} ${seed}
fix             3 all temp/csvr 266.16 266.16 ${tempDamp} ${seed}
fix             3 all temp/csvr 266.16 266.16 100 ${seed}
fix             3 all temp/csvr 266.16 266.16 100 745823


run             250000
PPPM initialization ...
  extracting TIP4P info from pair style
  using 12-bit tables for long-range coulomb (../kspace.cpp:340)
  G vector (1/distance) = 0.37820864
  grid = 24 27 32
  stencil order = 5
  estimated absolute RMS force accuracy = 0.0025932059
  estimated relative force accuracy = 7.8093625e-06
  using double precision FFTW3
  3d grid and FFT values/proc = 3825 384
Last active /omp style is kspace_style pppm/tip4p/omp
Neighbor list info ...
  update every 1 steps, delay 7 steps, check yes
  max neighbors/atom: 2000, page size: 100000
  master list distance cutoff = 10.8154
  ghost atom cutoff = 10.8154
  binsize = 5.4077, bins = 5 5 4
  1 neighbor lists, perpetual/occasional/extra = 1 0 0
  (1) pair lj/cut/tip4p/long/omp, perpetual
      attributes: half, newton on, omp
      pair build: half/bin/newton/tri/omp
      stencil: half/bin/3d/tri
      bin: standard
Per MPI rank memory allocation (min/avg/max) = 9.313 | 9.327 | 9.337 Mbytes
Step Temp PotEng TotEng E_pair E_mol Press Lx Ly Lz Volume Pxx Pyy Pzz Pxy Pxz Pyz Enthalpy 
10250000    276.05523   -4786.6387   -4234.4942   -4786.6387            0    9027.2716    18.036337    22.906782     19.22482    7942.8199    9187.4759    8895.9409     8998.398   -1569.3515    835.15601    2367.2856   -3188.7942 
10251000    265.85205   -4807.7173   -4275.9803   -4807.7173            0    8828.6926    17.963929    22.841868    19.320524    7927.7848    8738.9212    9144.4758     8602.681   -1342.8107   -1147.2693    697.02575   -3255.2192 
10252000    265.00599   -4794.0669   -4264.0222   -4794.0669            0    10230.357    17.889445    23.014269     19.18279    7897.7946    11805.962    9629.2271    9255.8826   -1133.5579   -850.16516    257.10433    -3085.677 
10253000    256.93642   -4799.2958   -4285.3913   -4799.2958            0    7861.3209    17.918549    22.853339    19.393573    7941.6422    7799.5496    8191.6723    7592.7407   -802.48919    938.06861   -1694.3072   -3374.8875 
10254000    257.66051   -4827.8323   -4312.4795   -4827.8323            0    8420.4737    18.102871     22.76443    19.202229    7913.2681      6576.32    8867.8859    9817.2152    1503.5329     691.0905   -459.16705   -3340.6987 
10255000     272.2538   -4813.6185   -4269.0773   -4813.6185            0    10072.367    17.958502    22.738465    19.309588    7885.0463    9866.7935    9904.5201    10445.788   -865.40535    234.94553   -680.30295   -3110.8023 
10256000    268.77456   -4792.9777   -4255.3954   -4792.9777            0    11301.252    18.013281    22.781726    19.275876    7910.3112    10656.322    11819.698    11427.734     1134.792    381.48222    150.44087   -2951.6404 
10257000    267.69007   -4804.6506   -4269.2374   -4804.6506            0    10003.333    17.790024    22.750684    19.441884    7868.8151    12143.816    9404.7689    8461.4151    1780.1397   -486.02467    1082.6923   -3121.2688 
10258000    276.47527   -4824.3142   -4271.3295   -4824.3142            0    9817.5583    17.942673    23.008471    19.205618    7928.7219    9550.3482    10404.143    9498.1832    509.63727   -603.11669    1470.8333   -3136.1029 
10259000    277.77644   -4781.7481   -4226.1609   -4781.7481            0    11448.966    17.819983    22.856339    19.256839    7843.3025    11710.687    10820.968    11815.242   -133.63228   -411.18505   -930.99104   -2916.5535 
10260000    269.58825   -4786.1796   -4246.9698   -4786.1796            0    9050.7913    18.019647    22.971159     19.19733    7946.3924    8372.7534    9443.3288    9336.2918    193.49567   -1438.5219    317.28738   -3198.0737 
10261000    269.86853   -4802.9404     -4263.17   -4802.9404            0    10985.479    17.849548    22.838497    19.309142    7871.5039    10689.222    10765.115    11502.101    427.54124   -1576.6323    1561.3311   -3002.0611 
10262000    282.66908   -4797.0403   -4231.6672   -4797.0403            0    8561.3276    18.001497     22.89762    19.273101    7944.2071    7889.0171    7974.7848    9820.1808    461.22043    199.05178    1251.4751    -3239.768 
10263000    283.52393   -4784.8182   -4217.7353   -4784.8182            0    11098.198    17.846493    23.126622    19.102031    7883.9639    9388.4364    11628.998    12277.159    23.500155    944.68708   -514.92186   -2941.6698 
10264000    270.93204   -4814.5324   -4272.6348   -4814.5324            0    8874.0915    17.822689    23.143475    19.253644    7941.7226    6732.3547    9749.7834    10140.136    546.22443   -550.27357    2688.2869   -3244.8209 
10265000    273.99549   -4811.8868    -4263.862   -4811.8868            0    9073.1563    17.892563    22.830698    19.368661    7912.0923    5534.6869    10285.298    11399.484    1515.0369    278.44687   -1030.6195   -3216.9128 
10266000    262.56163   -4790.5688    -4265.413   -4790.5688            0    9503.6108    18.074251    22.783068    19.268205    7934.3941    10284.076    9760.2342     8466.522   -1220.6511   -76.359828   -1169.2433   -3165.7027 
10267000    257.70599   -4783.9425   -4268.4987   -4783.9425            0    9993.9648    17.808527    23.145951         19.2    7914.1494    9654.3232    9005.1526    11322.419   -932.04001   -101.68352   -1741.4756   -3114.9978 
10268000    261.97297   -4814.9955   -4291.0172   -4814.9955            0    8476.8938    17.912142    23.259649    19.071332    7945.6915    7472.9926    7954.0994    10003.589   -902.70461    174.01535   -575.08046   -3308.7168 
10269000    260.33026   -4779.4087    -4258.716   -4779.4087            0    9344.8823    17.826839    23.016667    19.207379    7881.0646    10878.187    7991.2431    9165.2165    1114.8136   -1320.4511   -83.056561    -3184.641 
10270000    275.70164   -4828.0907   -4276.6533   -4828.0907            0    10514.759    17.712549    23.186612    19.134172    7858.2901    11860.795    10314.267    9369.2138   -717.89778   -691.84933    128.98736   -3071.6083 
10271000    265.76197   -4832.5095   -4300.9527   -4832.5095            0    9129.5552    17.904692     23.00963    19.245235    7928.6586    8656.2606    9850.8233    8881.5817   -472.96066    565.88653   -468.50734   -3245.2899 
10272000    267.21689   -4801.0812   -4266.6144   -4801.0812            0    9613.6357    17.867837    22.935757    19.336079    7924.1643    11619.046     8918.909    8302.9522   -1962.8048    -142.1765    19.784816   -3155.6068 
10273000    266.62435   -4832.1425   -4298.8609   -4832.1425            0    9152.8725    17.876204    22.737612    19.489355    7921.6857     9793.578    9604.4594    8060.5801    504.38741    -451.5396    969.99061   -3241.4326 
10274000      269.974   -4771.7096   -4231.7283   -4771.7096            0    9090.0393    18.097006    22.748451    19.347515    7964.9625    6737.0347    10085.779    10447.304   -1092.4592   -108.49063   -1688.5869    -3175.822 
10275000    278.33028   -4802.6593   -4245.9644   -4802.6593            0    8890.3919    17.913167    22.733641    19.487052    7935.7414    10120.455     8858.907    7691.8133   -470.37688    428.06997    495.17897    -3217.038 
10276000    274.53145   -4796.1411   -4247.0443   -4796.1411            0    8683.8996     17.94152    22.985165    19.236676    7932.9897    8318.1807    9427.7413    8305.7768    625.33039   -238.16092    770.59739   -3242.3647 
10277000    268.47279   -4770.0517   -4233.0729   -4770.0517            0    6656.6325    17.876577    23.060444    19.411456    8002.2136    7015.4593    6168.5802     6785.858   -1799.3436    91.195107   -111.58826   -3456.2168 
10278000    259.45856     -4808.84   -4289.8909     -4808.84            0    8088.2277     18.01519    22.913654    19.359894    7991.6446    8593.2718    7388.1831    8283.2282    1494.5417    465.44166    1555.0855   -3347.2084 
10279000    279.78599   -4817.1223   -4257.5158   -4817.1223            0    9823.8908    17.966362     22.90725    19.141323    7877.8015    9674.0696    9531.8536    10265.749   -86.804013     543.8792   -1684.1661   -3128.8523 
10280000    284.23812   -4802.9712   -4234.4599   -4802.9712            0    9628.7429    17.707223    23.122321    19.309791    7906.0479    11640.859    8458.9872     8786.383    1181.9855   -931.16372    844.28528   -3124.2504 
10281000    263.24533   -4763.4253   -4236.9022   -4763.4253            0     8643.419    17.944741    23.025852    19.247409    7952.8939     9481.434    7942.7116    8506.1114   -272.81611   -667.61803   -2309.8094   -3234.3969 
10282000    278.26931   -4812.4803   -4255.9073   -4812.4803            0    7533.9761    17.800551    22.995751    19.421848    7950.0816    7369.7735    8629.9529    6602.2019    2046.7311    11.438611    668.69443   -3382.3896 
10283000    263.52652   -4795.6309   -4268.5453   -4795.6309            0    9578.6411    17.943743    22.934534    19.242293    7918.8074    9304.1821    8881.6789    10550.062     1042.505     483.6564    -129.8605   -3162.3302 
10284000    259.54746   -4818.3272   -4299.2002   -4818.3272            0    9106.1436    17.912182    22.900491     19.25017    7896.3766    8466.2198    9829.5612    9022.6496   -106.04088   -18.937337   -1566.6443   -3250.5317 
10285000    255.35304   -4806.0794   -4295.3418   -4806.0794            0    9606.6223    17.911935    22.732116    19.401979    7900.0236    10787.104    9078.2157    8954.5475    775.77179   -1355.8041   -358.86896   -3188.5269 
10286000    256.79913   -4814.8852   -4301.2553   -4814.8852            0    9539.5085    18.053018    22.783854     19.24188    7914.5186    9277.3655    10259.427    9081.7332   -210.43985   -354.00355    747.58091   -3200.1562 
10287000    268.18506   -4801.3251   -4264.9218   -4801.3251            0    10839.287    17.971396    22.597495    19.416804    7885.3298    12361.484    10831.198    9325.1793   -694.61604   -36.941685   -1019.9186   -3018.4098 
10288000    260.44117   -4796.9851   -4276.0706   -4796.9851            0     9175.209     18.19686    22.454897    19.466986    7954.3783    7710.9766    10134.239    9680.4118    357.98319   -993.99906     328.1321   -3211.6872 
10289000    266.24422   -4809.9012   -4277.3799   -4809.9012            0    9355.9262    17.962069    22.592022    19.487761     7908.123    9355.0113    9681.5413     9031.226   -2045.3419   -826.88234   -389.78198   -3198.3435 
10290000    268.09361   -4795.0919   -4258.8715   -4795.0919            0    9429.3414    18.113852    22.659015    19.328071     7933.053     10275.37    9676.8364    8335.8178   -782.83024    -1254.436    561.05955   -3167.9397 
10291000    263.25138   -4791.4854   -4264.9501   -4791.4854            0    8391.8859    17.919874    22.781297    19.507893    7963.8625    10241.278    8143.1938    6791.1858    932.21169   -490.96006   -1740.8464   -3290.2765 
10292000     270.8163   -4809.0927   -4267.4266   -4809.0927            0    10253.744    18.109855    22.719745     19.19264    7896.8365    8691.9668    10512.313    11556.952    277.20905   -1983.8727    1778.3368    -3086.531 
10293000    266.01844   -4779.9318   -4247.8621   -4779.9318            0    9139.8131    17.862375    22.759104    19.519439    7935.2696    9372.7008    9446.3973     8600.341     31.92558   -7.9975376   -915.95497   -3190.1319 
10294000    268.04094    -4835.019    -4298.904    -4835.019            0    9727.6074    17.934624    22.880969    19.205514    7881.2052    10776.791    9260.1141    9145.9172    341.31678    145.58672    171.70179   -3180.8196 
10295000    255.75549   -4810.7531   -4299.2106   -4810.7531            0    11410.854    17.772925    22.741634    19.430986    7853.7197    12225.982    11493.438    10513.142   -329.61919     1636.717    2637.9531   -2992.2291 
10296000    262.69899   -4808.1245   -4282.6941   -4808.1245            0    7578.0115    18.012907     23.34646    18.960837     7973.745    6063.8323    6438.3354    10231.867   -508.49407   -517.98434    3276.4413   -3401.4555 
10297000    263.05729   -4795.5206   -4269.3736   -4795.5206            0    8495.2925    17.717249    23.185591    19.349086    7948.3118    6801.4533    9765.9512     8918.473    349.30469   -627.20298     2543.507   -3284.6164 
10298000    269.16813   -4837.5201   -4299.1505   -4837.5201            0    9819.6573    17.904776    22.983917    19.218508    7908.8369    9695.7248    9288.1957    10475.051    -258.2276    357.77187   -375.31937    -3166.529 
10299000    267.96391   -4788.7441   -4252.7831   -4788.7441            0    9748.5583    17.800234    23.155162     19.16215    7898.0116    10789.506    8832.3499    9623.8192    196.90564   -580.56553   -544.74174   -3129.9013 
10300000    265.03582   -4832.8507   -4302.7463   -4832.8507            0    7920.9262     17.87076    23.067744    19.292815    7953.2339      9472.64    7483.8012    6806.3375   -619.37254    1258.7233   -1656.0667        -3384 
10301000    272.88459   -4752.7814   -4206.9785   -4752.7814            0    8829.1139    17.927126    23.084266    19.270683    7974.8744    7991.6473    8952.5574    9543.1371   -735.14598    136.59315   -2221.1403   -3180.1052 
10302000    261.69704   -4814.6253   -4291.1989   -4814.6253            0    8637.8264    17.636886    23.223998    19.286662    7899.7977    10381.532    7389.7037    8142.2434    859.57921   -1952.5327   -963.73512   -3296.0311 
10303000    246.85247   -4795.4144    -4301.679   -4795.4144            0    11397.852    17.695307    23.098001    19.239441    7863.6642    13096.514    10172.858    10924.184   -11.049719   -720.75423   -3248.8052   -2994.5337 
10304000    277.82869   -4798.9046   -4243.2129   -4798.9046            0    9176.3704    17.990648    23.014499    19.209635     7953.668     11418.63    7699.6641    8410.8175   -280.13463   -706.84257   -735.68299   -3178.7898 
10305000    277.50758   -4797.9841   -4242.9347   -4797.9841            0    11414.128     17.64978     22.93159     19.38032    7843.9426    12067.483    10644.682    11530.219   -1187.0934     413.3746   -773.48608   -2937.2058 
10306000    280.99108    -4793.536   -4231.5191    -4793.536            0    9428.8017    17.929551    23.156152     19.21095    7975.9912    9526.1395    9172.8661    9587.3994   -201.93223   -249.08251    1867.6775   -3134.7454 
10307000    256.83207    -4817.378   -4303.6821    -4817.378            0    9937.7512     17.74074    22.993084     19.26337    7857.8046    10531.812    9062.3119     10219.13    320.70827   -72.067733    421.37207   -3164.8355 
10308000    274.01035   -4816.9599   -4268.9054   -4816.9599            0    11058.027    17.707773    23.149302    19.192998    7867.6432    11758.726    9569.2216    11846.132    -821.1469   -128.14377    -965.4819   -3000.0907 
10309000    260.58632   -4800.7777   -4279.5728   -4800.7777            0    9126.7581    17.762794    23.211408    19.283129    7950.4233    10021.247    9223.7007    8135.3262   -296.29335    199.28927    1585.1031   -3221.3365 
10310000    261.83345   -4792.0213    -4268.322   -4792.0213            0    9202.1324    17.965043    23.107711     19.15872    7953.3791    8768.2792    8718.7908    10119.327    684.57811   -225.55677    1384.9052   -3200.9494 
10311000    287.58209   -4813.3734   -4238.1737   -4813.3734            0    10428.326      17.7334    23.062212    19.280263    7885.0769     11634.22    10674.592    8976.1657    -89.69571     677.9921   -385.36318   -3038.9605 
10312000    282.76057   -4784.1212   -4218.5651   -4784.1212            0    10108.131    18.028759    22.837382    19.286755     7940.929    8949.8742     10358.88     11015.64   -540.72568    701.44618    -945.8742   -3047.9394 
10313000    273.79207    -4786.671   -4239.0531    -4786.671            0    8624.4719    17.919687    22.836469    19.338117    7913.5901    7239.0338    9069.1175    9565.2645    436.13887    293.84175   -330.54753    -3243.689 
10314000     268.3633   -4815.8616   -4279.1018   -4815.8616            0    8532.6555     17.98881    23.023335    19.164289    7937.1275    9314.6042    8285.1237    7998.2387    507.22808    -169.2646   -2480.6675   -3291.4055 
10315000    263.60126   -4816.8463   -4289.6112   -4816.8463            0    10810.162     17.76298    23.106316    19.129756    7851.5604    8703.0021    11552.106    12175.377    995.70417   -808.65504     7.157591   -3051.7725 
10316000    280.61703   -4794.1166   -4232.8479   -4794.1166            0    9545.9045    17.804934    22.988788    19.351389    7920.7914    11152.661    9075.6398    8409.4131    578.14502    407.20122   -83.295219   -3130.1373 
10317000    268.45505   -4824.1738   -4287.2306   -4824.1738            0    8141.4487    18.005731    22.913301    19.301267     7963.138     7317.813    8907.9199    8198.6134    470.05488    630.71714    139.03204   -3341.7299 
10318000    259.30578   -4782.6802   -4264.0366   -4782.6802            0     9714.917    18.012204    22.750207    19.247552    7887.2883    8531.2539    10448.936    10164.561    550.79947    288.47098   -1443.1793    -3146.549 
10319000    270.91877    -4838.439    -4296.568    -4838.439            0    10416.601    17.912021     22.76509    19.283345    7863.1458    10485.817    9766.6818    10997.303   -801.49394   -121.13213    170.36544   -3102.0348 
10320000    262.48424   -4785.3749    -4260.374   -4785.3749            0    9474.8384    17.933503    22.725057    19.448166     7925.903    10846.216    8595.7621     8982.537   -1752.4567   -158.82244    669.95896   -3165.1664 
10321000    267.59918   -4795.2039   -4259.9724   -4795.2039            0    11068.505    18.027815    22.824929    19.157408    7882.9594        12538    11098.223    9569.2933   -2016.9808   -236.39146    708.89797   -2987.4831 
10322000    277.06104   -4770.8048   -4216.6485   -4770.8048            0    8895.5973    17.903029    23.052177    19.346928    7984.5509    8757.4119    8383.0456    9546.3344   -218.65048   -576.68762    161.36683   -3180.7874 
10323000    261.26984   -4827.2128   -4304.6409   -4827.2128            0    10898.113    17.868386    22.949541    19.174279    7862.8206    9921.2047    11994.218    10778.916   -1337.1996    614.09517    223.05153   -3054.9415 
10324000    253.94561   -4823.2975   -4315.3749   -4823.2975            0    6875.5988    17.769815     23.07182    19.492547    7991.5928     7746.057    6155.2569    6725.4824    15.267757    105.75943   -525.01356   -3514.0295 
10325000    260.72933   -4803.3552   -4281.8644   -4803.3552            0     7372.756    18.024045    22.850691    19.280101    7940.7388    5525.3653    7827.1642    8765.7386    990.06794    239.74802    1085.4649   -3428.0437 
10326000    264.50015   -4790.6572   -4261.6242   -4790.6572            0    9045.5969     17.85763     22.72024    19.585901    7946.5803    11143.672    8956.0498     7037.069   -162.24256   -588.61776   -883.01008   -3213.3054 
10327000    254.66932   -4824.5194   -4315.1493   -4824.5194            0    8820.8805    18.169208    22.631967    19.248271    7914.9839    7272.5436    9746.9621    9443.1359    2165.1775    649.49858    1111.3465   -3296.9382 
10328000    288.40981   -4798.4422    -4221.587   -4798.4422            0    10524.711    17.961722    22.657262    19.501852    7936.5408    9802.1779    10184.215    11587.739    577.86427   -415.57733   -618.99872   -3003.3906 
10329000    263.58167   -4812.2835   -4285.0876   -4812.2835            0     10497.83    18.072928    22.591721    19.296777     7878.846    12130.989    10819.226    8543.2737    659.43397   -1881.5564   -566.34774   -3078.8356 
10330000    271.94849   -4776.6613   -4232.7307   -4776.6613            0    10349.593    17.979552    22.498203    19.536081    7902.4932    9562.9055    11380.507    10105.367   -414.24555    460.49777   -1368.1088   -3039.9426 
10331000    271.07513    -4798.716   -4256.5323    -4798.716            0    8446.5679    18.005901    22.564751    19.476388    7913.2302    8192.5881    8828.3999    8318.7157    717.99919   -346.02324    1843.3202   -3281.7447 
10332000    254.43626   -4808.4678   -4299.5638   -4808.4678            0    8653.7104    18.264288    22.486174    19.306607    7929.1067    7926.5636    9319.9829    8714.5846    767.71848    186.45532   -167.98183    -3298.867 
10333000    280.91153   -4804.4682   -4242.6105   -4804.4682            0     11333.67    18.065492    22.486992    19.348223    7859.9944     11966.73    10712.451    11321.828    21.349557   -153.01849   -2021.6876   -2943.4324 
10334000    274.00911   -4780.7564   -4232.7043   -4780.7564            0    8902.3886    18.027251    22.763469     19.35134    7941.0696    6577.7468    11417.124    8712.2945    94.087393    680.79624   -136.59453   -3201.6978 
10335000    250.08965   -4785.4178   -4285.2076   -4785.4178            0    10356.515    17.853383    22.740501     19.49878    7916.4047     7711.617    11207.356    12150.573   -454.64395    1194.4555      -1459.3   -3089.5205 
10336000    263.72557   -4809.0909   -4281.6072   -4809.0909            0    10082.793    18.030364    22.627072    19.326888    7884.8743    8991.9661    10150.634     11105.78       895.49   -1430.4167    481.97735   -3122.1585 
10337000    263.69761   -4801.4562   -4274.0284   -4801.4562            0    10674.813    18.069491    22.616471    19.272506    7876.0588    8836.9685    12140.352    11047.117   -210.09431   -99.409361   -1083.8951   -3047.8742 
10338000    263.33375   -4810.1035   -4283.4035   -4810.1035            0    8084.2606    17.967263    22.608959    19.623672    7971.5496    9614.9437    9035.4065    5602.4315    1514.6226    500.12044    340.23264   -3343.5526 
10339000    260.13316   -4834.9227   -4314.6243   -4834.9227            0    10864.645     17.91486    22.715546    19.279085    7845.5432    11336.986    9921.6354    11335.315   -462.90869   -128.07095     750.5085   -3071.5002 
10340000    254.16935   -4792.7482   -4284.3781   -4792.7482            0    9402.1741    17.980587    22.817246    19.269619    7905.6979    6452.4737    9729.2204    12024.828    573.37778    18.940035    2259.5742   -3200.3404 
10341000    256.53686   -4809.9449   -4296.8395   -4809.9449            0    8089.0091    17.949285    22.904387    19.331058    7947.3335    6975.9718    8363.0261    8928.0293    246.04608    162.65962   -158.13015   -3359.2933 
10342000    271.13361   -4819.3205   -4277.0198   -4819.3205            0    10014.367    18.007655    22.514599    19.429868    7877.5512    11621.399    10779.885    7641.8158    571.26959    554.99704    399.19119   -3126.5092 
10343000    276.65514   -4801.0213   -4247.6768   -4801.0213            0     9505.591    17.908016    22.927634    19.322525    7933.6053    10068.237    9338.9856    9109.5503   -29.091825    597.84977   -923.31732   -3147.8467 
10344000    261.36639   -4797.0116   -4274.2465   -4797.0116            0    9124.0689    17.843487    23.228134    19.108503    7919.9186    7512.1463    8838.2486    11021.812    -308.8113    114.80709   -521.64514   -3220.3811 
10345000     255.8254   -4812.7141   -4301.0317   -4812.7141            0    11757.605    17.657111    22.913274    19.350618    7828.9164     12692.09    12142.697    10438.027   -1934.9955    589.18666    1668.3619    -2958.587 
10346000    265.11797   -4782.2839   -4252.0152   -4782.2839            0    9376.3089    18.168582    22.762469    19.233604    7954.2834    7799.3644    10799.861    9529.7013   -1674.7331    464.75136    -334.5507   -3164.3159 
10347000    258.84576   -4793.7586   -4276.0351   -4793.7586            0    10385.759    17.793458     22.81165    19.441548    7891.2878    10870.444    10455.871    9830.9624   -1173.3437   -235.13938   -1189.0886   -3080.7761 
10348000    269.57989   -4814.2234   -4275.0303   -4814.2234            0    8844.0744    17.905225    22.953261    19.259422    7915.3008    8576.5793    8230.1456    9725.4984    1108.9726   -656.79513   -733.72252   -3254.1009 
10349000    259.25802   -4800.4603   -4281.9123   -4800.4603            0    9529.1184    17.815733    22.936423    19.385649    7921.5419    10860.021    8706.4104     9020.924   -843.19794   -147.66825    1155.8452   -3181.0364 
10350000    262.64738   -4793.4133   -4268.0861   -4793.4133            0    10206.587    17.900297    22.877838    19.207912    7866.0259    9442.4751    10162.199    11015.089     488.3143    839.11092   -1287.8306   -3097.2076 
10351000    260.86821    -4841.515   -4319.7464    -4841.515            0    8966.3482    17.870032    23.024463    19.253499    7921.8115    10602.729    7666.4732    8629.8421    788.41582    473.96502   -1230.3323   -3283.8508 
10352000    259.61855    -4795.662   -4276.3928    -4795.662            0    8545.7029    17.938317    22.991654    19.270042    7947.5733    8368.9859    8654.7923    8613.3307   -158.54698   -444.84276    543.52737   -3285.8842 
10353000    263.69561    -4768.106   -4240.6822    -4768.106            0    11509.274     17.73798    23.140127    19.183931    7874.2191    13292.238    12104.574     9131.009     104.9542    1144.8366    939.71297   -2918.9871 
10354000    270.74764   -4790.4473   -4248.9186   -4790.4473            0    8770.7292    17.870566    23.028361    19.196965    7900.1237    8262.2086    8094.4766    9955.5024    139.34821     -194.506    165.62697   -3238.3972 
10355000    278.74413    -4782.578   -4225.0553    -4782.578            0     7706.794    17.723015    23.197885    19.371662    7964.3963    10139.511    6457.7914    6523.0796   -375.56316   -1332.9587   -1505.9898   -3329.8915 
10356000    253.54078   -4808.7656   -4301.6528   -4808.7656            0    8969.1132    17.939148    23.030318    19.171583      7920.63    8919.1954    7930.4586    10057.686   -802.48757   -127.94741    473.45564   -3265.5922 
10357000     269.0627   -4795.8961   -4257.7375   -4795.8961            0    8950.7911    17.637028    23.057023    19.453132    7910.7593    11284.853     7650.181    7917.3396    1496.5296    703.24236   -1036.3062   -3225.0819 
10358000    262.43525   -4788.2042   -4263.3013   -4788.2042            0    8027.7374    18.160128    22.929529    19.157304    7977.1624    7246.1392    8221.0576    8616.0154   -938.65122   -426.57996   -3639.6643   -3329.3645 
10359000    255.69336   -4795.1807   -4283.7624   -4795.1807            0    10721.622    17.885706    22.820895    19.343576    7895.4248    9403.9044    11854.377    10906.585    2128.4301    2002.4012    1301.6162   -3049.2033 
10360000    276.67485   -4804.2179    -4250.834   -4804.2179            0     7816.595    18.099263    22.799839    19.341132    7981.3169     7950.301    7280.1507    8219.3332    1149.6029   -300.98848      252.008   -3340.9876 
10361000    274.65521   -4778.9081   -4229.5638   -4778.9081            0    10818.994    17.849727    22.728252    19.430101    7882.6577    11574.264    10237.808    10644.909   -59.774926   -1916.7344    537.19051   -2985.8071 
10362000    257.22322   -4777.2163   -4262.7381   -4777.2163            0     10057.43    18.292509    22.377533     19.38785    7936.2466    8053.6608    11872.865    10245.764   -677.86487   -199.13241    2831.2034   -3098.6709 
10363000    273.40587    -4836.992   -4290.1464    -4836.992            0     9586.183    17.952243    22.673778    19.404203    7898.3873    10358.254    9720.3327    8679.9628   -1020.5324   -259.25555   -206.21446   -3185.9152 
10364000    272.96009   -4802.7674   -4256.8135   -4802.7674            0    8522.7132    17.823813    22.941551     19.43143    7945.6263    8448.3828    8696.8115    8422.9452   -1042.8277   -541.98962   -1759.5198   -3269.2116 
10365000    266.70838   -4811.8657    -4278.416   -4811.8657            0    8988.9111    18.032181    22.812269    19.251591    7919.2374    7420.4697    10042.817    9503.4468   -1413.6911    1486.5712   -990.67578   -3240.2511 
10366000    251.00811   -4809.9209   -4307.8737   -4809.9209            0    8650.8041    18.016512    22.812263     19.31172     7937.067    7998.8244    9130.9139     8822.674    -1098.108   -304.96888    413.35463   -3306.5086 
10367000    250.20283    -4797.755   -4297.3185    -4797.755            0    9128.5013    17.875613    22.753256    19.403916    7892.1237    9083.1002    10427.262    7875.1418    1019.6092   -324.15517    1183.8196   -3246.6414 
10368000    253.69551   -4807.6393    -4300.217   -4807.6393            0     8037.154    18.144803    22.689281    19.361992    7971.1875    6840.8434    9259.8094    8010.8092    1519.2356     124.7539    1657.7524    -3365.885 
10369000     263.8344    -4829.424   -4301.7226    -4829.424            0    8723.5111    17.960895    22.859657    19.323208    7933.7209    8502.4024    8511.5943    9156.5365   -579.66621    691.21532     -1287.87   -3292.3672 
10370000    265.57877   -4814.6542   -4283.4638   -4814.6542            0    8465.3121    18.117358    22.746053    19.270377    7941.2913    8899.5197    7576.9079    8919.5087   -1487.9935    436.53315    1532.7058   -3303.0487 
10371000    250.42984   -4786.5049   -4285.6143   -4786.5049            0    9841.7569    17.987226    22.657837    19.373769     7895.811    7830.7446    9491.9395    12202.587   -868.24959   -898.61147     3809.963   -3152.3133 
10372000    275.81252   -4793.1252    -4241.466   -4793.1252            0    8197.9726    17.949595    22.995615    19.270547     7954.149    7683.4776     7430.226    9480.2141    -817.3223   -1345.6041    932.87669   -3290.4758 
10373000    253.16491   -4782.8942   -4276.5331   -4782.8942            0    11107.036    17.840175    22.905071    19.256015    7868.5943    10064.609    10926.757    12329.742   -616.79313    1206.3442   -1196.2361    -3001.941 
10374000    267.31452   -4790.3003   -4255.6382   -4790.3003            0    9285.8003    17.760134    23.171498    19.228173    7912.9488    10190.016    9156.0229    8511.3621    337.72258   -538.22404    1413.4269   -3184.0361 
10375000    273.66873   -4786.7199   -4239.3487   -4786.7199            0    10723.811    17.874895    22.978842     19.16179    7870.5978    11217.342    10998.411    9955.6786    1826.3014    589.74787     3120.934   -3008.4204 
10376000     273.8188   -4830.8888   -4283.2174   -4830.8888            0    8501.0969    17.737292    23.443547    19.088551    7937.4975    7410.2256    9324.1251    8768.9399   -442.85253   -576.85312   -285.86493   -3299.1282 
10377000    269.08682   -4824.0305   -4285.8237   -4824.0305            0     9414.426      17.6925    23.430531    19.039948     7892.909    10857.479    7691.8945    9693.9047    1381.0594   -71.317285    2471.0197   -3202.1293 
10378000    258.64504   -4805.9063   -4288.5843   -4805.9063            0    10822.676    17.693543    23.350592    19.117149    7898.3397    10053.001     9649.183    12765.843   -326.42119    562.04616    936.56998   -3041.9291 
10379000    265.41767   -4753.9076   -4223.0395   -4753.9076            0    6578.3406    17.921318    23.236686    19.184061    7988.8573    3879.5331    7577.4911    8277.9976   -866.23453    830.15699    1728.9523   -3456.6017 
10380000    249.00032    -4801.165   -4303.1336    -4801.165            0      9273.34    17.730723    23.200106    19.152056    7878.2875    9526.5801    8812.3655    9481.0746   -217.36832    713.14455   -1983.9602    -3237.657 
10381000    256.50821   -4822.5068   -4309.4587   -4822.5068            0    10330.843    17.797286    23.157385    19.103058    7873.1079     11442.53    8547.6496    11002.348    16.637204   -363.87374    276.12794   -3123.2589 
10382000    274.95455    -4793.446   -4243.5029    -4793.446            0    7692.1158    17.748341    23.380805    19.205403    7969.6758      8247.39    6678.1096    8150.8479   -210.54595   -414.36903   -1231.1436   -3349.4518 
10383000    274.09771   -4807.3014   -4259.0721   -4807.3014            0    8455.4101    17.903414    23.077084    19.306652     7976.709    8963.8432    8154.2378    8248.1492   -1137.7334   -1096.0368   -1071.4136   -3275.4363 
10384000     260.2182   -4811.3376    -4290.869   -4811.3376            0    11199.063    17.712459     23.20758    19.056504    7833.4298    9782.5105    11028.583    12786.094   -523.58831    220.17648   -458.45329   -3011.4597 
10385000    247.37317   -4775.5878   -4280.8109   -4775.5878            0    11714.439    17.893665    22.965874    19.151638    7870.2441    8399.9036    13423.596    13319.816   -67.168565    147.30622    1581.7131   -2936.2342 
10386000    286.46386   -4814.3528   -4241.3897   -4814.3528            0    11059.419    17.712578    23.018178    19.286135    7863.1745    10347.493    11131.612    11699.153    116.07373    40.782307   -1585.7059    -2973.136 
10387000    254.50124   -4805.4099    -4296.376   -4805.4099            0    8807.7559    17.821542    23.212857    19.239753    7959.2723    7896.0701    8938.5204    9588.6772    383.56521     1942.258   -80.164201   -3273.9909 
10388000    268.15805   -4807.3375   -4270.9883   -4807.3375            0    9707.5562    17.758736    23.228387     19.10607    7881.3836    10363.974    8441.2816    10317.414    486.29804   -661.31887    1814.6793   -3155.1834 
10389000    255.62047   -4803.6209   -4292.3484   -4803.6209            0    11018.841    17.537044    23.303486    19.161528    7830.8234    10423.785    10974.603    11658.133    689.19081    454.03948    1858.0439   -3033.9469 
10390000    276.91085   -4813.8247   -4259.9688   -4813.8247            0    8339.3759    17.949854    23.166616    19.118044    7949.9974    8853.6236    7829.4489    8335.0551    1233.4128    -929.2288     122.5831   -3293.0802 
10391000    277.81243   -4839.5034   -4283.8442   -4839.5034            0    8733.8614    17.552164    23.239747    19.385637    7907.5535    10662.994    8624.8665    6913.7234      537.749    1552.2853    1246.9776   -3276.6242 
10392000    265.41154   -4803.5941   -4272.7382   -4803.5941            0    8642.5356    17.904548    23.156778    19.109242    7922.9139    10008.202    7710.2748    8209.1294    931.44985    463.88727     553.3043   -3274.1142 
10393000    268.73326   -4818.0916   -4280.5919   -4818.0916            0    9409.3838    17.687324    23.189124    19.231259    7887.7693    9109.8315    8843.7097     10274.61   -11.371084    545.55163    116.46635   -3198.1832 
10394000    258.63047   -4795.0863   -4277.7934   -4795.0863            0     7872.432     17.93232    23.340893    18.994834    7950.4089    7278.6372    7451.2973    8887.3616   -303.14343    796.82489    126.94182   -3364.9962 
10395000    274.66993   -4827.2721   -4277.8983   -4827.2721            0     8426.538    17.712647    23.314583    19.203187    7930.2053    8910.4131    8076.0835    8293.1173    1004.4708    203.66845    1684.3307   -3303.3362 
10396000    265.09026   -4819.9737   -4289.7605   -4819.9737            0     9241.495    17.698149    23.324183    19.134047    7898.4362    10473.601    8716.9807    8533.9032    2.6920653    374.14571   -539.71294   -3225.2272 
10397000    251.67869   -4808.3023   -4304.9138   -4808.3023            0    7983.5545    17.652735    23.458682    19.083245    7902.5605    8434.7951    7603.3152    7912.5533   -789.17272   -890.93318    253.12797   -3384.8033 
10398000    251.36404   -4792.7341   -4289.9749   -4792.7341            0    8694.5391    17.800649    23.285151    19.123746    7926.6163    10260.955    7314.1776    8508.4849   -30.634386   -1455.2051   -448.10047   -3284.8726 
10399000    282.38422   -4807.4429   -4242.6396   -4807.4429            0     9181.413    17.762204    23.140126    19.280232    7924.5541    11094.307    9195.6702    7254.2623   -151.45256    421.14765   -118.80607     -3181.53 
10400000    263.08221   -4816.4725   -4290.2756   -4816.4725            0     10106.48    17.926283    23.152353    18.989304    7881.2375    9206.2019    9668.3688     11444.87    622.35575    -692.9687    491.80355   -3128.6391 
10401000    271.74601   -4763.3265   -4219.8009   -4763.3265            0    8619.1614    17.620938    23.207929    19.428137    7945.0491    10687.642    7680.7672    7489.0754    1051.6586    478.40828   -202.16515   -3221.0953 
10402000    265.13188   -4796.4806   -4266.1841   -4796.4806            0    10383.884     17.81526    23.047944    19.260454     7908.441    10142.281    10545.802    10463.568    265.38127    1058.8447    1534.5692   -3068.5433 
10403000    276.98116   -4812.1819   -4258.1853   -4812.1819            0    9355.6893    17.823693    23.182072    19.128489    7903.7028    9764.2962     9097.887    9204.8846   -197.50647    308.66057    52.649766   -3179.7794 
10404000    264.45545   -4812.2871   -4283.3435   -4812.2871            0    10176.103    17.658988    23.259101    19.165054    7871.7044    8716.0962    11363.111    10449.101    43.108061    1316.7294   -690.67912   -3115.1194 
10405000    250.67284   -4791.8669   -4290.4903   -4791.8669            0    10196.892    17.837963    23.047281    19.230861    7906.1252    11683.629    9286.3133     9620.734    1583.2116    -776.1205    345.49044   -3114.7608 
10406000    268.86788   -4842.0095   -4304.2405   -4842.0095            0    9125.5541     17.78474    23.404775    19.026177     7919.605    11460.423    6599.2671    9316.9721    763.05078   -293.00048    2127.4669   -3250.2452 
10407000    257.14489   -4802.7278   -4288.4062   -4802.7278            0    9215.8922    17.765877    23.210237    19.277372    7949.0284    10036.552    9278.6646    8332.4604    55.854534   -604.37711    1563.5641   -3220.0224 
10408000    261.18064   -4826.9717   -4304.5782   -4826.9717            0    9703.1413     17.88837    22.797578    19.326162    7881.4311    7823.8363    10333.164    10952.424   -239.44581    886.16861    1180.8343    -3189.274 
10409000    256.81524   -4816.8573   -4303.1951   -4816.8573            0    9191.5024    18.003454    22.770913    19.319852    7920.2716    6833.2053    10960.708    9780.5938   -1239.6299    625.73996   -604.79809   -3241.4935 
10410000    267.95449   -4797.4349   -4261.4929   -4797.4349            0    9998.4376    17.870448    23.013418    19.228441    7907.8902     8164.241    10909.759    10921.313    820.74697   -569.00816    1377.6812   -3108.3884 
10411000    261.40204    -4824.282   -4301.4456    -4824.282            0    8748.6649    17.847007    22.878709    19.434845    7935.5674    9697.4094    8736.6432    7811.9421   -1272.0545   -1324.0139    -602.6716   -3288.9442 
10412000    264.16208   -4806.3287   -4277.9719   -4806.3287            0     8507.172    18.064699    22.800845    19.311946     7954.405    8603.2471    8619.0164    8299.2524   -1532.7499   -452.83873   -357.60757   -3291.0818 
10413000    266.40472   -4804.1478   -4271.3055   -4804.1478            0    11334.202    17.898798    22.710905    19.307928    7848.6322    10012.391    12566.619    11423.596    -841.7752    315.44666   -481.10148   -2973.9446 
10414000    273.03532   -4838.7596   -4292.6552   -4838.7596            0    7885.8528    17.937307    22.699643    19.510342    7944.0348    11143.709    6866.6652    5647.1843   -491.76148    -1663.984    634.94269    -3379.035 
10415000    261.21486   -4810.2524   -4287.7904   -4810.2524            0    8831.0785     18.05863    22.714959     19.31465    7922.8893    9738.3847    8712.3332    8042.5176   -227.60753    259.52113    1024.0979   -3267.3839 
10416000    280.85011   -4794.1447   -4232.4098   -4794.1447            0    10550.252    17.913678    22.801922    19.372917    7913.1833    10351.516    11873.509    9425.7298   -1263.7318    355.92521    352.47136    -3014.851 
10417000    253.88796   -4785.8622   -4278.0549   -4785.8622            0    10080.152    17.824786    23.001555    19.205005    7874.0097    10899.252    9056.6361    10284.568   -1173.0338   -1287.8083     708.6956   -3120.5071 
10418000    272.67463   -4804.9396   -4259.5567   -4804.9396            0    9216.3512    17.906754    23.065426    19.192895    7927.1824    10288.579    7971.0265    9389.4482   -622.36104    64.901855   -249.78771   -3194.0559 
10419000    280.02615   -4795.1369     -4235.05   -4795.1369            0    9623.3679     17.83237    23.092115    19.243231    7924.1148    8714.0433    9043.4751    11112.585    671.83251    1119.1512   -154.24031   -3122.9247 
10420000    263.91792   -4788.0229   -4260.1545   -4788.0229            0    9470.9815    17.796446    23.175312    19.202442    7919.8206    10597.438    9670.7208    8144.7861     2.521802    736.67943    410.09201   -3166.2328 
10421000    279.20668   -4812.0471   -4253.5992   -4812.0471            0    9510.8256    17.758805    23.304364    19.012748    7868.5714    9590.1913    7835.1536    11107.132   -878.76624   -1334.1885   -105.17085    -3162.184 
10422000    260.05559   -4810.9625   -4290.8192   -4810.9625            0    9801.7285    17.762641    23.087448    19.231844     7886.865     12127.98    8251.7959    9025.4099   -1377.7258    137.51823   -275.71596   -3163.4064 
10423000    262.90415   -4822.4516   -4296.6109   -4822.4516            0    9307.7276      17.9001    23.110703    19.094639    7899.1449    9342.6348    9151.0233    9429.5249   -109.21709   -155.90117    1632.3347    -3224.352 
10424000    262.70948   -4811.1705   -4285.7191   -4811.1705            0    8507.0538    17.885714    23.041237    19.219402     7920.488    8441.2746    8203.6972    8876.1896   -304.70879    553.07299   -469.09632   -3303.0507 
10425000    255.84731   -4791.1496   -4279.4234   -4791.1496            0    9593.5815    17.778594    23.085182     19.19096    7876.3932    9674.9677    8908.5094    10197.268    443.38049     -1361.19   -1427.9447   -3177.4172 
10426000     267.6276   -4817.6771   -4282.3888   -4817.6771            0     10703.24    17.943135    22.825749    19.226705    7874.5946    14256.143    9309.4503    8544.1258     614.3822   -169.68709    -1874.078   -3053.1979 
10427000    280.18339    -4807.509   -4247.1076    -4807.509            0    11551.314    17.806232     22.84233    19.354439    7872.1439    12479.417      11204.9    10969.626    813.90216    7.1885826   -753.04668   -2920.9341 
10428000    264.32405   -4787.2134   -4258.5327   -4787.2134            0     9559.566    18.052004    22.822654       19.209     7914.005    10031.811    9650.1915    8996.6952    356.21052   -702.18114   -779.87929   -3155.1901 
10429000    262.42589   -4773.1834   -4248.2992   -4773.1834            0    9540.8475    17.673458     23.08116    19.428934    7925.5269     11063.28    8766.0255    8793.2374    1035.4877    484.59926    1290.2061   -3145.5139 
10430000    258.64112   -4785.0234   -4267.7092   -4785.0234            0    9301.6469    17.958512    23.054369    19.211012    7953.7847     7924.902    8455.1356    11524.903   -223.35222   -138.15252   -613.52656   -3188.7387 
10431000     268.7844   -4829.0291   -4291.4271   -4829.0291            0    10287.434    17.868829    22.888462    19.311635    7898.2658    10490.639    10052.278    10319.385   -716.11704   -420.91743   -475.67727   -3106.4371 
10432000    258.40482   -4784.2568   -4267.4153   -4784.2568            0    8953.9363    17.912713    22.967207    19.254549    7921.4177    7917.6307    8574.7215    10369.457   -737.16193   -245.33189   -801.48852   -3233.0051 
10433000    256.94497   -4812.3894   -4298.4677   -4812.3894            0    8620.0679    17.740276    23.114199    19.211857    7877.8658     7880.519    10104.836    7874.8483   -105.22935    135.35234    250.22823    -3308.103 
10434000    257.70909   -4819.1044   -4303.6544   -4819.1044            0    8051.7189    17.865667    23.343555    19.060333    7949.0771    9295.2603    6569.7999    8290.0966    403.46809    691.47529   -1327.4205   -3370.2255 
10435000    274.27716   -4786.7627   -4238.1745   -4786.7627            0       8318.5    17.614647    23.153349    19.543816    7970.7121    11246.823    7078.9475    6629.7297   -1689.2885   -297.88177   -1155.8399   -3271.1932 
10436000    278.51795   -4807.6176   -4250.5473   -4807.6176            0    8545.0122    17.894711    23.133997    19.099147    7906.5926     9827.429    6894.5102    8913.0973    1362.0406    446.93618   -205.81324   -3265.2259 
10437000    262.22999    -4816.079   -4291.5867    -4816.079            0    9046.8898    17.840438    23.063471    19.316218    7947.8977    11648.868    7575.1369    7916.6648   -350.95645    732.49957   -844.46722   -3242.9442 
10438000    274.95938   -4804.7176   -4254.7649   -4804.7176            0    7949.1906    17.830625    23.256707    19.181852    7954.3619    6559.2153    8865.5278    8422.8287    184.69154    1684.3224    -1.497683   -3332.6095 
10439000    255.55631   -4822.7135   -4311.5693   -4822.7135            0    9817.8112    17.704046    23.116874     19.24084     7874.549    11723.487    8469.2895    9260.6576    814.02216   -1256.0622    2.7311531     -3184.07 
10440000    258.90774   -4743.2359   -4225.3884   -4743.2359            0    9884.6293     18.01052    22.956959    19.139174    7913.4124    8498.7883    9702.4106    11452.689   -416.87697    731.73965   -1355.6616   -3084.6132 
10441000     268.2794   -4800.3995   -4263.8076   -4800.3995            0    9657.8737    17.791882    23.034167    19.347231    7928.9053    12629.973    8213.8208    8129.8278    -787.5469    618.69529    378.83321   -3147.0198 
10442000    261.19889   -4781.1862   -4258.7561   -4781.1862            0    8500.3275    17.998979    23.134222    19.060539    7936.6633     6532.329    8193.5455    10775.108    59.885901   -104.79425    455.01998   -3274.8595 
10443000    268.37008   -4811.1275   -4274.3541   -4811.1275            0    9716.5685    17.679522     22.93338    19.395495     7863.927    10524.926    10618.035    8006.7445    301.53108   -403.87236   -1008.7673    -3159.987 
10444000    265.57505    -4786.278   -4255.0951    -4786.278            0    11670.257    18.032159    22.900352    19.014848    7852.0441    9798.1982    11225.178    13987.395    796.56742    979.91125     110.6828   -2918.6872 
10445000    270.72277    -4812.809     -4271.33    -4812.809            0    7690.6721    17.766897    22.957226    19.463273    7938.6536     10169.58    7637.2305     5265.206   -744.83252    526.22177   -882.19199   -3380.9261 
10446000    259.87801   -4802.6584   -4282.8703   -4802.6584            0     8577.508    17.879259    22.941893    19.404066    7959.2386    9861.9145    7794.7751    8075.8344   -367.73936     117.5999   -916.78826   -3287.2161 
10447000    260.44557   -4793.9816   -4273.0583   -4793.9816            0    10212.925    17.890202    22.856824    19.348542    7911.8741    9575.7369    10503.576    10559.464   -3.0125757   -19.902172   -1945.4836   -3094.6239 
10448000    265.50554   -4795.0409   -4263.9971   -4795.0409            0     9822.085    17.839793    23.025975    19.230882    7899.6354    9875.6334    11089.948    8500.6738    362.60883    1673.0537    1412.3804   -3132.4135 
10449000    269.08955   -4793.7893   -4255.5769   -4793.7893            0    7558.5188    17.901918    23.104011    19.344832    8001.1404    7414.4167     7222.309    8038.8308   -977.92495    -3.788658   -1126.0283   -3373.5853 
10450000    273.78498   -4818.9707   -4271.3669   -4818.9707            0    9345.7588    17.769414    22.935193    19.369845    7894.0825    10926.101      9095.55    8015.6257    652.16968   -1654.5692    1580.1974   -3195.4169 
10451000    266.93458   -4803.8931    -4269.991   -4803.8931            0     11553.54    18.040856    22.582262    19.322432    7872.0232    11343.674    11621.424    11695.522   -808.10511    864.25588   -1784.7967   -2943.5824 
10452000    273.45622   -4813.0023   -4266.0561   -4813.0023            0    11037.329    18.008232    22.482622    19.442606    7871.7722    8926.8307    12253.205    11931.952    277.72408    733.70614    695.78748   -2998.9517 
10453000    250.52549    -4809.115    -4308.033    -4809.115            0    8210.3178    18.155575    22.786456    19.268537    7971.4174    7138.5698    8228.4942    9263.8894   -1126.5026    600.41159    941.94195    -3353.543 
10454000    251.78685   -4817.5846   -4313.9797   -4817.5846            0    8185.2358    17.896537    22.950958     19.29558    7925.5181    8071.0552    7557.5698    8927.0825   -605.69378   -815.94821   -1360.4705   -3367.8847 
10455000    255.86332   -4812.9701   -4301.2118   -4812.9701            0    9573.9299    18.022171    22.965949    19.119754    7913.5948    8973.4945    9060.2011    10688.094   -302.62914   -79.847968    280.85931   -3196.2687 
10456000    251.30708   -4790.9559   -4288.3107   -4790.9559            0    8735.4106    17.901919    23.150753    19.074949    7905.4772    8034.7654    9546.8385    8624.6279   -583.12615    1460.8914   -1021.2713   -3281.1766 
10457000     269.6988   -4805.3967   -4265.9658   -4805.3967            0    9628.8012    17.840687    22.922232    19.373232    7922.6519    11839.433    8897.3002    8149.6706    954.65431   -418.20862   -428.39665    -3153.418 
10458000    272.15033   -4808.6931   -4264.3588   -4808.6931            0    9392.5655    17.902825    23.054352    19.245342    7943.2844    8684.4464    9991.5173    9501.7329   -1316.9318    1800.7291    702.45223   -3176.2803 
10459000    279.99222   -4832.1738   -4272.1547   -4832.1738            0    10540.165    17.826353    23.155405    19.066017    7870.0021    9648.4922    10521.849    11450.155    84.761253    664.17261   -920.17259   -3062.3977 
10460000     268.1284   -4787.8662   -4251.5763   -4787.8662            0    9857.4683    17.755832    23.144657    19.231978    7903.4319    9819.4802    9340.6471    10412.278    1327.5322    996.08597    1935.3015   -3115.3705 
10461000     262.3333   -4794.3509   -4269.6519   -4794.3509            0    9081.5307    17.840704    23.111498    19.208583    7920.1863    10660.707    6842.4351    9741.4501   -1237.4167   -846.31276   -982.38809   -3220.6643 
10462000    258.40229   -4777.7032   -4260.8667   -4777.7032            0    10238.589    17.678782    23.183056    19.217355     7876.198    10289.642     9971.297    10454.828    1572.5989   -71.654567    445.96379   -3084.7981 
10463000    256.65966   -4789.1693   -4275.8183   -4789.1693            0    8596.7029    17.805852     23.23175    19.177965    7933.1781    7875.8055    8498.8318    9415.4713    780.81325    921.79414    -635.8622   -3281.2033 
10464000    264.75212   -4803.2672   -4273.7303   -4803.2672            0    9870.6114    17.745264    23.300607    19.102985    7898.6151    11655.775    8549.6762    9406.3825   -653.09342   -30.871771    1135.0365    -3136.703 
10465000     250.2362    -4833.318   -4332.8147    -4833.318            0    7719.0145    17.851427    23.132264     19.29423    7967.4352    6985.4101    7895.6796    8275.9539    336.56573    285.14547    1095.4479   -3435.8894 
10466000    263.73394   -4818.3522   -4290.8517   -4818.3522            0    8184.7364    17.806597     23.20288    19.201097    7933.2083    10929.264     6535.865    7089.0806    322.90427   -267.77593   -651.90466   -3343.8965 
10467000    252.67553   -4815.8628   -4310.4805   -4815.8628            0    8958.4656    17.865433    22.825632    19.366929    7897.6363    9818.9518    8854.6579     8201.787   -1035.4753   -159.96213   -997.62318   -3278.6541 
10468000    271.68826   -4786.9665   -4243.5565   -4786.9665            0     9188.646    17.966063    22.889675    19.204321     7897.534    8830.5532    9780.7145    8954.6703   -1350.5976    329.48014   -954.67328   -3185.2318 
10469000    263.25306   -4805.9068   -4279.3682   -4805.9068            0    9808.9593     18.10911    22.933415    19.067281    7918.7128    9108.9242     9371.943    10946.011    627.01092     5.360181    1234.1322   -3146.5677 
10470000    256.40734   -4818.2186   -4305.3723   -4818.2186            0    9863.0717    17.809725    22.798221    19.419804    7885.0238    11781.895     8284.053     9523.267    396.46699   -1030.1307   -381.14364   -3171.1685 
10471000    269.60515   -4821.9086    -4282.665   -4821.9086            0    8503.4116    18.143954    22.627777     19.29596    7922.0979    9198.7062    8172.9305    8138.5982    1491.3881    -1057.343    465.38259   -3300.2177 
10472000    269.51054   -4859.7773    -4320.723   -4859.7773            0    8853.4406    18.015079    22.561914    19.497797    7924.9703    8360.6073    9883.0926     8316.622    1248.1791    478.22117    2306.3437   -3297.4639 
10473000    260.82934   -4832.6053   -4310.9144   -4832.6053            0    8713.9861    18.051798    22.538574    19.425065    7903.3166    9589.1914    8452.7759     8099.991    230.27431   -853.03673     1010.461    -3306.525 
10474000    262.98743   -4795.5542   -4269.5469   -4795.5542            0    10313.694    18.075144    22.651934    19.331196    7914.9062    10130.331    10791.536    10019.214    852.60841    599.10921   -1785.4861   -3079.0291 
10475000    253.56664   -4791.5272   -4284.3626   -4791.5272            0    9123.8299    17.873645     22.74919    19.475657    7919.0157    8167.8773    9603.0089    9600.6035    723.60787   -1142.9746    242.07123   -3230.6449 
10476000    261.32447   -4806.5452    -4283.864   -4806.5452            0    9190.8408    18.146256    22.757107    19.244092    7946.9693    6113.7068     10810.94    10647.876     201.7199    448.96027   -386.43694   -3218.6603 
10477000     281.2638    -4770.267   -4207.7047    -4770.267            0    9279.8795     17.82991    22.869829    19.403939    7912.2859    10050.456    10283.894    7505.2885    39.640592     862.7031   -649.92254   -3136.8755 
10478000    272.94197   -4794.1803   -4248.2626   -4794.1803            0    10691.165    17.806577    23.145095    19.154001    7894.0327    11091.133    10761.297    10221.066   -14.268801   -978.71068   -1096.4473   -3017.4276 
10479000    269.55536   -4797.3773   -4258.2333   -4797.3773            0    7810.3714    17.810628     22.98219    19.441626    7957.9874    9850.7709    7589.1183     5991.225   -109.91918   -1546.2528    475.20243   -3351.7687 
10480000    273.27746   -4774.9749   -4228.3862   -4774.9749            0    9755.1783    17.986877    22.878435    19.200372     7901.176    9350.0473    8473.8522    11441.635    469.45221   -912.20892     70.11474   -3104.2916 
10481000    276.30786   -4796.6449   -4243.9951   -4796.6449            0    10977.592    17.957942     22.69798    19.356246    7889.7803    11811.734    9932.8031    11188.239   -1543.5036    -172.0487   -1923.2937   -2980.8656 
10482000    262.31395   -4792.6206   -4267.9603   -4792.6206            0    9488.2137    17.847342    23.046578    19.293955    7935.9922    11611.852    7774.7166    9078.0721   -1130.2247    -1513.525    569.05681   -3169.8106 
10483000    254.67241   -4791.5521   -4282.1759   -4791.5521            0    10342.423    17.792381    23.239009    19.092858    7894.4636    9024.3571    9625.0602    12377.851   -168.94245    655.60785    -375.9479   -3091.4253 
10484000    263.55519   -4777.6473   -4250.5043   -4777.6473            0    11357.538    17.719738    23.258476     19.10319    7873.0761    11589.743    11035.831    11447.038    221.79886    160.20163    1384.6002   -2946.4235 
10485000    258.36092   -4817.6216   -4300.8679   -4817.6216            0    11280.769    17.846297    23.037041     19.15722    7876.0286    12920.152     10719.23    10202.924   -653.56367   -628.75806    713.96533   -3005.1159 
10486000    260.26579   -4805.3707   -4284.8069   -4805.3707            0    9336.3612    17.942662    23.025576    19.168587    7919.3121    8102.8725    9722.2623    10183.949    803.22204   -138.31136   -738.05647   -3206.5035 
10487000    259.09461   -4793.1351   -4274.9139   -4793.1351            0    9658.3949     17.73812    22.997358    19.384961    7907.7049    11030.069    9728.4767    8216.6387    1107.0179   -383.43645    822.16087   -3161.0521 
10488000    270.24433   -4787.7095   -4247.1874   -4787.7095            0    9480.1039    18.035938    22.742418    19.232096    7888.6378     8002.687    10724.547    9713.0777    1175.0922    -68.40872   -1603.8533   -3156.5234 
10489000    262.87428   -4811.8717   -4286.0907   -4811.8717            0    7213.7545    18.034788    22.792446    19.452216    7995.9683    7209.2456    7624.2864    6807.7316    770.55171    423.98688   -545.09274   -3444.8732 
10490000    267.11229   -4794.0036    -4259.746   -4794.0036            0    9007.4127    17.991115    22.816329    19.282384    7915.2488    9750.5772    9126.9242    8144.7367     1219.515     703.7411   -501.95846   -3219.9682 
10491000    257.65201   -4815.6825   -4300.3466   -4815.6825            0    8872.7072    18.035797    22.737145    19.338687    7930.4578    10609.188    8376.7835    7632.1504    1284.7424    185.49968    1101.9413   -3274.1506 
10492000    264.55504   -4812.2238    -4283.081   -4812.2238            0    9162.5212    17.997519    22.674506    19.410254    7921.0308    9294.9991    9180.7828    9011.7816    698.57043   -1331.9627    308.75001   -3224.6256 
10493000     276.1252   -4792.2036   -4239.9191   -4792.2036            0    9775.1238     18.04135    22.563209    19.453667    7919.0191    7317.1921    10437.648    11570.532   -370.97216    1065.3324    -641.9984   -3110.9825 
10494000    260.36447    -4764.818   -4244.0568    -4764.818            0    10346.869    18.053054    22.692132    19.274724    7896.1272     10150.04    11867.701    9022.8659    934.19341    607.69443    887.13295   -3052.5433 
10495000    265.79802   -4765.8059    -4234.177   -4765.8059            0    10356.061    17.985038    22.718346    19.389044    7922.1757    10092.101    11398.203    9577.8787   -1506.7466   -194.46272   -2950.2633   -3037.6708 
10496000    263.88128   -4798.7477   -4270.9525   -4798.7477            0    8346.5126     17.91234    22.857922    19.322656    7911.4466    9152.6612    8589.9377    7296.9389   -74.287368   -741.81698   -1431.7171   -3307.9291 
10497000    260.57439   -4797.2175   -4276.0365   -4797.2175            0     9834.342    17.924585    22.792063    19.435728    7940.2388    9542.9487    9225.3925    10734.685   -179.15652   -953.74778    339.99785   -3137.2174 
10498000    274.41624   -4802.2707   -4253.4043   -4802.2707            0    8389.9513    18.081339    22.701147    19.361291    7947.1738    9009.0015    7544.3846    8616.4677    821.20393      -861.28   -313.94955   -3280.9974 
10499000    261.35883   -4816.6297   -4293.8797   -4816.6297            0    8268.5263    17.856326    22.997492    19.369601    7954.1406    6156.2534    9809.8784    8839.4471    -314.2934   -24.922072   -1573.0654    -3334.706 
10500000    279.49964   -4792.5922   -4233.5584   -4792.5922            0    10630.791    17.946459     22.89073    19.235486    7902.0828    9517.0041    10664.296    11711.073    998.03457   -688.05603   -934.18484    -3008.426 
Loop time of 630.864 on 64 procs for 250000 steps with 1008 atoms

Performance: 68.478 ns/day, 0.350 hours/ns, 396.282 timesteps/s
99.0% CPU use with 64 MPI tasks x 1 OpenMP threads

MPI task timing breakdown:
Section |  min time  |  avg time  |  max time  |%varavg| %total
---------------------------------------------------------------
Pair    | 29.238     | 32.872     | 37.05      |  34.6 |  5.21
Bond    | 0.2871     | 0.30088    | 0.31581    |   1.2 |  0.05
Kspace  | 296.27     | 307.42     | 320.89     |  30.6 | 48.73
Neigh   | 5.4798     | 6.3516     | 7.4944     |  21.7 |  1.01
Comm    | 119.06     | 131.57     | 142.69     |  52.5 | 20.86
Output  | 1.1121     | 1.1128     | 1.1142     |   0.0 |  0.18
Modify  | 138.55     | 142.05     | 145.26     |  14.0 | 22.52
Other   |            | 9.185      |            |       |  1.46

Nlocal:        15.7500 ave          20 max          12 min
Histogram: 3 5 7 15 0 14 7 7 5 1
Nghost:        2515.91 ave        2555 max        2476 min
Histogram: 1 4 4 9 16 9 9 7 3 2
Neighs:        5285.91 ave        6799 max        4017 min
Histogram: 3 5 7 15 11 5 6 6 5 1

Total # of neighbors = 338298
Ave neighs/atom = 335.61310
Ave special neighs/atom = 2.0000000
Neighbor list builds = 10160
Dangerous builds = 1

unfix		3
unfix		2
unfix		1

write_data	data.final.${pid}
write_data	data.final.0
System init for write_data ...
PPPM initialization ...
  extracting TIP4P info from pair style
  using 12-bit tables for long-range coulomb (../kspace.cpp:340)
  G vector (1/distance) = 0.37906564
  grid = 24 27 32
  stencil order = 5
  estimated absolute RMS force accuracy = 0.0024808257
  estimated relative force accuracy = 7.4709329e-06
  using double precision FFTW3
  3d grid and FFT values/proc = 3825 384
Last active /omp style is kspace_style pppm/tip4p/omp
WARNING: Not all mixed pair coeffs generated from mixing. Use write_data with 'pair ij' option to store all pair coeffs. (../write_data.cpp:312)

write_restart   restart.lmp.${pid}
write_restart   restart.lmp.0
System init for write_restart ...
PPPM initialization ...
  extracting TIP4P info from pair style
  using 12-bit tables for long-range coulomb (../kspace.cpp:340)
  G vector (1/distance) = 0.37906564
  grid = 24 27 32
  stencil order = 5
  estimated absolute RMS force accuracy = 0.0024808257
  estimated relative force accuracy = 7.4709329e-06
  using double precision FFTW3
  3d grid and FFT values/proc = 3825 384
Last active /omp style is kspace_style pppm/tip4p/omp
Total wall time: 0:10:37
