Start Prologue v2.5.3 Mon Jan 17 16:14:13 EST 2022 
r3i2n31: MemFree:        186214420 kB
End Prologue v2.5.3 Mon Jan 17 16:14:19 EST 2022 
JOBID  QSTAT_OUT 1967904
EUID 0
WORKSPACE /p/work1
PBS_HOME /var/spool/pbs
JOB_ID 1967904.pbsserver
whoami root
LOG /p/work1/PBS/prologue/1967904.pbsserver
whoami root
file workspace /p/work1: directory
file /p /p: directory
PBS_REQUESTED_CPH = 5760
PBS_REQUESTED_CPS = 20736000
jobStarter
Information: Please note that compiler is Intel but /p/app/gnu/8.2.0/bin is now also in PATH
/p/work1/ckegan/BOX/IceII_1000atm_245K
r3i2n31
Mon Jan 17 16:14:20 EST 2022
LAMMPS (7 Jan 2022)
  using 1 OpenMP thread(s) per MPI task
using multi-threaded neighbor list subroutines

include		in.partitions
variable        pid world 0
include		in.temp
variable        temperature equal 245
variable	tempDamp equal 100.0
include		in.pressure
variable        pressure equal 1000
variable        pressureDamp equal 1000.0 # This is 1 ps
include		in.seed
variable        seed world 745823

units		real
atom_style	full
include		in.box
box tilt large
read_data       iceII.data
Reading data file ...
  triclinic box = (-10.680001 -9.239317 0.00055) to (35.999999 12.229315 21.859449) with tilt (-9.157151 -12.209534 -18.481617)
WARNING: Triclinic box skew is large (../domain.cpp:219)
  6 by 2 by 4 MPI processor grid
  reading atoms ...
  2592 atoms
  scanning bonds ...
  2 = max bonds/atom
  scanning angles ...
  1 = max angles/atom
  reading bonds ...
  1728 bonds
  reading angles ...
  864 angles
Finding 1-2 1-3 1-4 neighbors ...
  special bond factors lj:    0        0        0       
  special bond factors coul:  0        0        0       
     2 = max # of 1-2 neighbors
     1 = max # of 1-3 neighbors
     1 = max # of 1-4 neighbors
     2 = max # of special neighbors
  special bonds CPU = 0.008 seconds
  read_data CPU = 0.038 seconds
include 	in.setup
variable	out_freq equal 500
variable	out_freq2 equal 500

timestep	2.0

neigh_modify    delay 7 every 1

include		in.tip4p
# This is TIP4P/Ice

# create groups ###
group ox type 2
864 atoms in group ox
group hy type 1
1728 atoms in group hy

# set charges - beside manually ###
set group ox charge -1.1794
Setting atom values ...
  864 settings made for charge
set group hy charge 0.5897
Setting atom values ...
  1728 settings made for charge

# ### TIP3P Potential Parameters ###
pair_style lj/cut/tip4p/long 2 1 1 1 0.1577 8.5
pair_coeff 1 1*2 0.000 0.000
pair_coeff 2 2 0.21084 3.1668
bond_style  harmonic
bond_coeff  1 450 0.9572
angle_style harmonic
angle_coeff 1 55 104.52
kspace_style pppm/tip4p 1.0e-5
pair_modify tail yes

thermo          ${out_freq}
thermo          500
thermo_style 	custom step temp pe etotal epair emol press lx ly lz xy xz yz vol pxx pyy pzz pxy pxz pyz cella cellb cellc cellalpha cellbeta cellgamma

restart 	${out_freq} restart.lmp.${pid} restart2.lmp.${pid}
restart 	500 restart.lmp.${pid} restart2.lmp.${pid}
restart 	500 restart.lmp.0 restart2.lmp.${pid}
restart 	500 restart.lmp.0 restart2.lmp.0


include         in.dump
dump            myDump all atom ${out_freq2} dump.water.${pid}
dump            myDump all atom 500 dump.water.${pid}
dump            myDump all atom 500 dump.water.0
dump            myDump2 all dcd ${out_freq2} dump.dcd
dump            myDump2 all dcd 500 dump.dcd
dump_modify     myDump append yes
dump_modify     myDump2 append yes


timer           timeout 05:00:00 every 1000
New timer settings: style=normal  mode=nosync  timeout=05:00:00

fix 		1 all shake 1e-6 200 0 b 1 a 1
Finding SHAKE clusters ...
       0 = # of size 2 clusters
       0 = # of size 3 clusters
       0 = # of size 4 clusters
     864 = # of frozen angles
  find clusters CPU = 0.001 seconds
fix             2 all nph tri ${pressure} ${pressure} ${pressureDamp}
fix             2 all nph tri 1000 ${pressure} ${pressureDamp}
fix             2 all nph tri 1000 1000 ${pressureDamp}
fix             2 all nph tri 1000 1000 1000
fix             3 all temp/csvr ${temperature} ${temperature} ${tempDamp} ${seed}
fix             3 all temp/csvr 245 ${temperature} ${tempDamp} ${seed}
fix             3 all temp/csvr 245 245 ${tempDamp} ${seed}
fix             3 all temp/csvr 245 245 100 ${seed}
fix             3 all temp/csvr 245 245 100 745823
velocity 	all create ${temperature} ${seed} dist gaussian
velocity 	all create 245 ${seed} dist gaussian
velocity 	all create 245 745823 dist gaussian

run             500000
PPPM initialization ...
  extracting TIP4P info from pair style
  using 12-bit tables for long-range coulomb (../kspace.cpp:340)
  G vector (1/distance) = 0.38122501
  grid = 50 40 64
  stencil order = 5
  estimated absolute RMS force accuracy = 0.0021221078
  estimated relative force accuracy = 6.3906647e-06
  using single precision MKL FFT
  3d grid and FFT values/proc = 14229 4000
  generated 0 of 1 mixed pair_coeff terms from geometric mixing rule
Last active /omp style is kspace_style pppm/tip4p/omp
Neighbor list info ...
  update every 1 steps, delay 7 steps, check yes
  max neighbors/atom: 2000, page size: 100000
  master list distance cutoff = 10.8154
  ghost atom cutoff = 10.8154
  binsize = 5.4077, bins = 13 8 5
  1 neighbor lists, perpetual/occasional/extra = 1 0 0
  (1) pair lj/cut/tip4p/long/omp, perpetual
      attributes: half, newton on, omp
      pair build: half/bin/newton/tri/omp
      stencil: half/bin/3d/tri
      bin: standard
Setting up Verlet run ...
  Unit style    : real
  Current step  : 0
  Time step     : 2
  Walltime left : 4:59:59.90
Per MPI rank memory allocation (min/avg/max) = 9.904 | 9.969 | 10.06 Mbytes
Step Temp PotEng TotEng E_pair E_mol Press Lx Ly Lz Xy Xz Yz Volume Pxx Pyy Pzz Pxy Pxz Pyz Cella Cellb Cellc CellAlpha CellBeta CellGamma 
       0          245   -13868.516   -12607.291   -13868.516            0   -914.81842        46.68    21.468632    21.858899    -9.157151   -12.209534   -18.481617    21906.021   -4848.9223   -3236.5376    5341.0046    2016.3993    3861.3159     1634.666        46.68    23.339999    31.119999        113.1    113.10001    113.10001 
     500    248.76062   -12647.658   -11367.074   -12647.658            0    1006.6298    47.056937    21.629731    22.027536   -9.2185352    -21.56941    2.9585421    22420.263    403.81367    1459.3543    1156.7214   -118.49013    971.03572     186.0683    47.056937    23.512266    30.971031    68.842516    134.14194    113.08358 
    1000    240.20631    -12617.75   -11381.202    -12617.75            0    624.13624    47.096782    21.594885    21.986155   -9.3230053   -21.689323    2.9829558     22361.01    568.05847    195.24069    1109.1096    176.48809    241.87047   -199.53674    47.096782    23.521426    31.027661    68.571854    134.34938    113.35096 
    1500    256.15431   -12670.444   -11351.797   -12670.444            0    1352.7917    47.124587    21.746093    21.717688   -9.1613204   -21.436956    2.9506275    22255.758    1131.3159    909.00644    2018.0526   -545.33344   -916.06203   -256.07399    47.124587    23.597084    30.657907    68.889782    134.36533      112.845 
    2000    241.53863   -12600.141   -11356.734   -12600.141            0     1741.804    47.000419    21.671916    21.908483    -9.301291   -21.757639    2.8881084    22315.743    1577.0133    1193.2088    2455.1898     33.40972    973.46696    116.70622    47.000419    23.583595    31.011573    68.759187     134.5553    113.22835 
    2500    251.54873   -12624.871   -11329.933   -12624.871            0    2059.5204    47.011679    21.616448    21.903457   -9.2304209    -21.40725    3.0661595    22258.852     2566.285    1671.2518    1941.0245    38.781706    105.07052   -875.00549    47.011679    23.504712    30.780402    68.608955    134.06573    113.12292 
    3000    248.13251   -12645.202   -11367.851   -12645.202            0    694.35961    46.994655    21.548517    22.055977   -9.2103727   -21.638283     2.857551    22335.319    1373.8496    1392.4021   -683.17291   -580.99821    173.91371   -535.96786    46.994655    23.434367    31.029776     68.97631    134.21393    113.14307 
    3500    242.72754   -12657.434   -11407.907   -12657.434            0    937.46032    47.015293    21.606702     22.01491   -9.2962122   -21.459613    3.0364689    22363.746    537.59749    1573.1713    701.61216   -474.97149    47.884548   -186.65315    47.015293    23.521674    30.893226    68.603413    133.99839    113.27963 
    4000    238.39988   -12640.923   -11413.674   -12640.923            0    127.45683    46.882042    21.662061    22.111038   -9.0057176   -21.513807    2.9682932    22455.123    777.25617    503.15135   -898.03703   -430.38318   -25.244839   -198.65822    46.882042    23.459494    30.992784    69.212036    133.95995    112.57446 
    4500    245.55089   -12646.515   -11382.453   -12646.515            0    549.99671    47.038886    21.650115    21.990558   -9.5223182   -21.547439    2.8545803    22395.124    968.50708   -9.9349353    691.41799    716.64561   -531.43039    1134.0366    47.038886    23.651681     30.91966    68.587506     134.1776    113.74122 
    5000    244.95183    -12624.34   -11363.362    -12624.34            0    1964.4883     47.10558    21.595368    21.904395   -9.0789221   -21.617555    3.0528779    22282.516    1673.4708    1604.3064    2615.6878   -781.40676    515.79415   -394.03597     47.10558    23.426198    30.926385    68.783068    134.34686     112.8024 
    5500    244.62291   -12667.796   -11408.512   -12667.796            0    2170.9749    47.090203     21.58012     21.82316   -9.4321537   -21.596729    2.7950341    22176.962    2259.2352    2533.6157    1720.0737    161.66701   -379.38352    386.43638    47.090203    23.551372    30.829875    68.677193    134.46818    113.60899 
    6000    251.90243   -12610.867   -11314.109   -12610.867            0    2103.4419    46.959597    21.632867    21.919341   -9.2113717   -21.614208    2.9711809    22267.217    2113.6371    1840.1072    2356.5814    194.11752    57.255505    27.894561    46.959597    23.512344    30.926678    68.765073    134.33766    113.06452 
    6500    243.15855   -12647.658   -11395.912   -12647.658            0    743.24203    46.951388    21.600386    22.052662   -9.1645525   -21.458312    2.9970864    22365.106    979.30655     1221.367    29.052543   -366.65041    45.348755   -227.08779    46.951388    23.464136    30.915393    68.878725    133.95538    112.99041 
    7000    242.93754   -12636.187   -11385.579   -12636.187            0    968.33404    46.784581    21.508717    22.224747    -9.330826   -21.488275    2.9603555    22364.237    1507.8158    2173.9098   -776.72349    285.81865    102.42993   -508.71821    46.784581    23.445452     31.05558     68.72625    133.78305    113.45197 
    7500    248.99183   -12635.229   -11353.454   -12635.229            0    756.82984    46.868898    21.617608    22.095602   -9.1236884   -21.442025     2.949509     22387.12    1339.4475    174.15288    756.88918   -961.23874   -358.26783   -288.43974    46.868898    23.464072    30.930173    69.058598    133.88711    112.88212 
    8000    240.96131   -12631.214   -11390.779   -12631.214            0    796.49742    47.129942    21.626311    21.956081   -9.3511152   -21.653789    2.9160304    22378.665    504.76843    857.08444    1027.6394    302.88611   -175.96801   -348.47711    47.129942    23.561423     30.97514    68.662698    134.35243    113.38343 
    8500    240.92519   -12635.235   -11394.986   -12635.235            0    245.42037    47.457393    21.703299    21.771321   -9.1418967   -21.776201    3.0067689    22424.068   -511.13309   -297.20981     1544.604   -952.55236    518.33094    477.15008    47.457393    23.550105    30.939199    68.728696    134.73579    112.84187 
    9000    245.42268    -12572.34   -11308.939    -12572.34            0    1379.1198    47.246404     21.61461    21.867651   -9.3466817   -21.684557    2.8398004     22331.52    891.45261    1724.6653    1521.2415    162.70706   -629.42057    -84.05132    47.246404    23.548924    30.926989    68.741796     134.5196    113.38483 
    9500    239.00655   -12580.983   -11350.611   -12580.983            0    2188.6838    47.019852     21.62359    21.903472    -9.256186   -21.634663    3.0523151    22270.092    2399.3883    1992.3026    2174.3606    622.78735   -210.75482    71.887702    47.019852    23.521407    30.937636    68.537676     134.3708    113.17381 
   10000    247.16377   -12624.008   -11351.643   -12624.008            0    1318.6845    46.842355    21.636637    22.045901   -9.0542144   -21.336289    2.8799899    22343.764    1683.1157    1297.8576    975.08034   -123.13675   -989.59723     491.6953    46.842355    23.454698    30.814823    69.298148    133.82066    112.70769 
   10500    246.39182   -12566.999   -11298.609   -12566.999            0     1007.881    47.002953    21.614076    22.077266   -9.3048537   -21.629299    2.9124205    22428.856    1192.9286    1012.3146    818.39966    270.98396    114.31547    354.58195    47.002953    23.531863    31.043751    68.797161    134.16572    113.29186 
   11000    241.74344   -12617.916   -11373.455   -12617.916            0    798.22824    47.186732    21.640273    21.938469   -9.1569034   -21.521586    3.1032828    22402.112    442.43648    503.10713    1449.1411   -455.24412   -408.54942    9.2210144    47.186732    23.497879    30.888598    68.651424    134.16672    112.93525 
   11500    252.42447   -12676.835    -11377.39   -12676.835            0    552.67074    46.906591    21.708662    21.877234   -9.3131749   -21.622561    2.7883988    22277.135    1118.5897   -1057.1747    1596.5972   -63.723503   -147.57891    699.13361    46.906591     23.62205    30.885655    68.962299    134.43376    113.21969 
   12000    252.91645    -12619.68   -11317.702    -12619.68            0    308.81446     47.11523    21.675589    21.930988   -9.3354876   -21.712843    2.9697845    22397.029     365.0117      720.378   -158.94632    149.25479    166.57619   -351.96556     47.11523    23.600476    31.003797    68.592441    134.45337    113.30112 
   12500    246.38669   -12616.214    -11347.85   -12616.214            0    793.39265    47.370745    21.567993    21.896162   -9.0714976   -21.509381    2.9785024    22371.132    945.89568     755.6993    678.58296    -1143.205   -1016.0081   -808.54678    47.370745    23.398085    30.837751    68.933279     134.2269    112.81162 
   13000    249.17593   -12629.457   -11346.735   -12629.457            0    756.70921    47.102819    21.606118    21.964092   -9.4454157   -21.775749    2.9232764    22353.056    231.01778    610.41285     1428.697    570.45667    448.60613    183.43547    47.102819    23.580505    31.066865    68.470325     134.5018    113.61321 
   13500    243.18196   -12676.794   -11424.928   -12676.794            0    1686.4599    46.785421     21.65455     21.98237   -9.1566246   -21.363218    2.9381992    22270.718    2341.4074    1420.6644    1297.3079    200.77205   -799.50599    262.70188    46.785421    23.510919    30.793582    69.018039    133.92813    112.92107 
   14000    240.86955    -12663.63   -11423.668    -12663.63            0     2223.203     46.69013    21.621709    22.002404   -9.1197182   -21.351479    3.0186776    22211.876    3237.6099    2261.8348    1170.1642   -54.414455   -8.2597724   -266.25356     46.69013    23.466307     30.80753    68.922703    133.87286     112.8693 
   14500    245.90614   -12679.632   -11413.741   -12679.632            0    1210.4266    47.041182    21.494862    22.068608   -9.3800579   -21.620444    2.9247915    22314.535    1179.2584    1875.9179    576.10343    836.46321   -212.49662    167.30611    47.041182     23.45239    31.032587    68.590196    134.16294    113.57578 
   15000    249.05043   -12634.055   -11351.979   -12634.055            0    1169.7336    47.067741    21.680729    21.881933   -9.1256021   -21.451038     2.898619    22329.702    1101.6264    1022.1699    1385.4046   -282.02804   -183.42881    108.34616    47.067741    23.522981    30.779344    69.073596    134.18119    112.82664 
   15500    245.23691   -12619.762   -11357.317   -12619.762            0    173.71989    47.201034    21.735247    21.869346   -9.4357996   -21.841998    3.0686473    22436.333    69.392169   -555.90215    1007.6696    128.55638    657.84353    1.6118564    47.201034    23.695048     31.06055    68.244031    134.68488    113.46684 
   16000    247.95336   -12625.681   -11349.252   -12625.681            0    1270.0317    47.198409    21.627637    21.862816   -9.2213443   -21.502542    2.8742699    22317.345    482.80368    819.76759    2507.5239    20.625512   -279.81993    267.28285    47.198409    23.511441    30.799407    68.920481     134.2786    113.09188 
   16500    247.71051   -12601.663   -11326.484   -12601.663            0    1533.9168    46.939636    21.609166    21.998241   -9.1597846   -21.504884    3.0229428    22313.396    2234.5526    1412.0745    955.12323   -182.72047   -858.58252   -408.61336    46.939636    23.470358      30.9115    68.804801    134.08239    112.97132 
   17000    245.84045   -12623.096   -11357.544   -12623.096            0    1469.5536      46.8578     21.62567    22.043605    -9.329365   -21.563082    2.9129143    22337.476    1766.0872    359.16114    2283.4126    415.40229    410.29065    1309.0904      46.8578    23.552212    30.973733    68.769796    134.12078    113.33548 
   17500    243.93074   -12636.705   -11380.984   -12636.705            0    424.48657    47.021338    21.717622    21.984981   -9.0361405   -21.373895    2.9927706    22450.879    445.48835    428.74324    399.22813   -346.86026   -553.23793    368.88357    47.021338    23.522477    30.808107    69.132883    133.92968    112.59093 
   18000    238.83325   -12645.173   -11415.693   -12645.173            0    731.81622     47.16979    21.641299     21.92018   -9.5121228   -21.914142    2.9707491    22376.461   -62.194902    1360.4798    897.16379    680.07193    1192.6901   -42.502625     47.16979    23.639508    31.137586    68.251509    134.73141     113.7272 
   18500    238.52087   -12625.209   -11397.337   -12625.209            0    1359.1495    47.222176    21.597247    21.935923   -9.1863705   -21.565401    2.8883763    22371.769    915.46342    2348.5856    813.39944    1320.8925   -726.79827   -450.84785    47.222176    23.469778    30.896504    68.947185    134.26583    113.04243 
   19000    245.23108   -12643.405    -11380.99   -12643.405            0    1813.6256    46.966782    21.638801    21.898264   -9.2875881   -21.583573    3.1940142    22255.312    1117.2573    2781.5173    1542.1022     600.3112   -39.340352   -807.58659    46.966782     23.54776    30.912559    68.263793    134.28387    113.22949 
   19500    241.88541   -12625.784   -11380.592   -12625.784            0    1788.2423    46.741687    21.647862    21.992093    -9.209408   -21.443113    2.7792668    22252.867     2458.255    1642.2786    1264.1934   -517.92421   -361.50981    530.19017    46.741687    23.525372    30.841264     69.20043    134.04901    113.04581 
   20000    241.01122   -12638.004   -11397.312   -12638.004            0    1517.4917    47.031629    21.563736    21.971013   -9.1711587   -21.417414    2.9680986     22282.51    2025.0688    1936.5567    590.84969   -750.86741   -227.80799   -65.815214    47.031629    23.432986    30.825974    68.867345    134.01006    113.04028 
   20500    242.96768    -12616.07   -11365.306    -12616.07            0    990.17275      47.1727    21.557527    21.998336   -9.4403677   -21.893747    3.0108889    22370.697    584.14281    1110.4622    1275.9132    299.90327    670.94927   -628.61223      47.1727    23.533966     31.18218    68.278381    134.59764    113.64934 
   21000    249.60669    -12666.62    -11381.68    -12666.62            0     894.3171    47.082878    21.719827    21.843667   -9.1742156   -21.413251    2.8327616    22338.032    1289.7878    294.46596    1098.6976   -240.38703   -731.04554    317.63111    47.082878    23.577895    30.719662    69.134732    134.19109    112.89866 
   21500    241.33111   -12671.304   -11428.966   -12671.304            0     696.2027    47.140818    21.682406    21.873185   -9.3046175   -21.770798    3.1270661    22357.159     364.6914    443.06459    1280.8521   -10.055267    570.94533   -22.603895    47.140818    23.594547    31.019065     68.32016    134.57579    113.22573 
   22000    251.13915   -12608.335   -11315.506   -12608.335            0     482.5472    47.334999    21.613328    21.928241    -9.312257   -21.509226    2.5926988    22434.056    306.09995    960.42228    181.11938   -71.644526   -862.29306    297.12601    47.334999    23.534104    30.825584    69.307845    134.24851    113.30914 
   22500    254.68927   -12671.455    -11360.35   -12671.455            0    382.99368    47.105249    21.639287    21.999276   -9.2525133   -21.640525     3.065947     22424.39    -197.3989    378.37125    968.00867    553.97527    175.80175   -17.552755    47.105249    23.534395    31.010974    68.576546    134.25352    113.15055 
   23000    241.82497   -12669.579   -11424.698   -12669.579            0    335.62578    47.120051    21.626058    22.000023   -9.3771789   -21.592789    2.8971836    22418.485    539.08423    270.64319    197.14993     67.65672    121.20889    631.82253    47.120051    23.571548    30.961964    68.697845    134.21856    113.44182 
   23500    247.13069   -12650.116   -11377.922   -12650.116            0     453.3502    46.980664    21.610695    22.044677   -8.9585538    -21.54867    2.8702044    22381.626    483.08837    568.03224    308.92997   -142.73992    643.07981     242.5804    46.980664     23.39397    30.960475    69.379953    134.10742    112.51609 
   24000    246.83648   -12570.285   -11299.606   -12570.285            0    1083.1179    47.107796    21.605101     22.01495   -9.4542867   -21.582897    3.1484235    22406.126    464.80264    1699.6434    1084.9077    657.00005    485.64669     -603.232    47.107796    23.583128    30.990192    68.144234     134.1423    113.63395 
   24500    234.55278   -12617.083   -11409.639   -12617.083            0    1315.2163    46.977493    21.573361    22.065062   -9.1692145   -21.601275     2.753866    22362.111    2047.4695    1615.7312    282.44826    703.14911   -489.60201    331.18211    46.977493    23.441084    31.001062     69.24881    134.17015     113.0267 
   25000    241.17678   -12603.626   -11362.082   -12603.626            0    655.85126    47.248493    21.680847    21.875463    -9.382962   -21.501167    3.2626578    22408.947    595.69147    581.25334    790.60898    592.13561   -791.42427   -745.37029    47.248493    23.624121    30.846085    68.042257    134.19055    113.40183 
   25500    247.68709    -12668.49   -11393.431    -12668.49            0    682.36954    47.047371    21.645253    21.933567   -9.2223366   -21.708868    2.7880844    22336.097    11.449453    1142.6768    892.98234    265.68516    209.91125     640.9057    47.047371    23.528036     30.98596    69.059661    134.47543    113.07727 
   26000    241.89489   -12575.033   -11329.792   -12575.033            0    590.59809    47.131306      21.6844    21.913828   -9.2538997   -21.541152    2.9372921    22396.241    1194.0072    523.66653    54.120546   -416.04596   -332.04997   -62.064789    47.131306    23.576426    30.868508    68.812337    134.25363    113.11055 
   26500    243.18505   -12692.772    -11440.89   -12692.772            0    590.38668    47.195154    21.570301    21.963787   -9.2507503   -21.742935    3.1251466    22359.436     926.8177    322.79869    521.54364    -538.7112    300.16251   -98.057116    47.195154    23.470285    31.063318    68.386296    134.42342    113.21281 
   27000    245.62073   -12624.625   -11360.204   -12624.625            0     653.4121    47.017596    21.582707    22.096739   -9.2704287   -21.504745    2.7111073    22423.042    1280.8594    304.70135    374.67552    -354.7161    141.00288    397.28748    47.017596    23.489447    30.952707    69.226427    134.00821    113.24499 
   27500    248.02624   -12643.008   -11366.204   -12643.008            0    467.46834    46.928992    21.687942    22.058064   -9.2128404   -21.521424    3.1859178    22450.548    1220.9115   -150.34365    331.83713   -456.86004   -16.710892   -662.64712    46.928992      23.5636     30.98193    68.516299    133.99889    113.01534 
   28000    243.80309   -12663.591   -11408.527   -12663.591            0    742.57661    46.846643    21.704177    22.004066   -9.1766786   -21.520457    2.8158155    22373.026    1735.8539    795.46094   -303.58502     -751.364   -204.53625    90.690568    46.846643    23.564438    30.906921    69.202072    134.13082    112.91898 
   28500    243.53699   -12601.313   -11347.619   -12601.313            0    682.32394    47.202436    21.601457    21.958968    -9.362114   -21.621871    2.9170397    22390.273   -115.64016     890.4607    1272.1513    1017.9125   -5.6603482    677.23102    47.202436    23.542984    30.954979    68.639975    134.30631      113.432 
   29000    239.31748   -12655.672   -11423.699   -12655.672            0    472.20631    47.213323     21.58405    21.921541   -9.1489423   -21.816941     3.030816     22339.25    357.71543    184.63599    874.26749   -300.87853   -55.552191   -189.42086    47.213323    23.443002    31.076015    68.667479    134.59177    112.97088 
   29500    252.92719   -12658.403    -11356.37   -12658.403            0    971.28103    46.870571    21.731901    21.873389   -9.3516967   -21.343959    2.7270953    22279.942    643.02855    632.32284    1638.4917    502.40078    264.85603    385.76312    46.870571    23.658609    30.683005    69.108031    134.07729    113.28323 
   30000    242.51443   -12581.278   -11332.848   -12581.278            0    1663.4317     46.91335    21.682978    21.964827   -9.1425933     -21.6438    3.0841635    22343.086    1669.7826      1399.25    1921.2624    23.696166    243.17057   -325.39878     46.91335     23.53165     30.99064      68.7127    134.29861    112.86264 
   30500    239.95944   -12633.405   -11398.128   -12633.405            0     773.1674    47.275781    21.511036    22.050001   -9.4650811   -21.499657    2.9224908    22423.771    1158.8622    730.94973     429.6903    794.38025     -524.677    863.96159    47.275781    23.501329    30.935073     68.50764    134.02665       113.75 
   31000    247.59698   -12579.431   -11304.837   -12579.431            0    405.66778    46.955307    21.646679    22.107019   -9.0567341   -21.646148    2.9979607    22470.159    978.01065    482.59132   -243.59864     388.5303   -262.08532   -158.72418    46.955307    23.464935    31.084784    69.038291    134.13556     112.7039 
   31500    245.54983   -12646.277   -11382.221   -12646.277            0    959.18368    46.829718    21.737188    21.943624   -9.3075968   -21.421941    2.9617571    22337.433    866.41686    1278.7792    732.35501    388.21783   -492.85818   -89.086885    46.829718    23.646071    30.808996     68.77306    134.05228    113.18001 
   32000    250.62304   -12619.873   -11329.701   -12619.873            0    845.05664    47.171743    21.577093    21.916262   -9.1256524   -21.648927    2.8274753    22307.009    291.37983    1375.1656    868.62452   -413.86641    272.37752    499.06795    47.171743    23.427515    30.935307    69.097637      134.412    112.92508 
   32500    250.96946   -12630.991   -11339.035   -12630.991            0    752.09699    47.327322     21.61667    21.847331    -9.339238   -21.696507    3.1902435    22351.111   -283.61997    717.11317    1822.7978    85.139951   -91.417389   -169.94813    47.327322    23.547862     30.95516    68.124557    134.49935    113.36621 
   33000    255.17715   -12648.379   -11334.763   -12648.379            0    545.10825    46.981077    21.653674    21.994275   -9.2763945   -21.603129    2.6954176     22375.06    153.76184    989.41652    492.14641    617.53341     711.5118    310.39234    46.981077    23.557018    30.946867    69.209566    134.27249     113.1902 
   33500    239.42574   -12634.079    -11401.55   -12634.079            0    389.17235    46.911341    21.700145    22.017197   -9.1760238   -21.544122    3.0678461     22413.13    412.06001    416.25686    339.20019    416.26804   -174.55919   -183.16374    46.911341     23.56047    30.956709     68.75706    134.10245    112.92133 
   34000    240.74569   -12648.963   -11409.638   -12648.963            0    889.08623    47.318576    21.477397    21.977286   -9.3169416   -21.544246    2.9496611    22335.073    855.74576    1329.1847    482.32825    406.90149   -655.10465   -194.86342    47.318576    23.411194    30.916923     68.60179    134.17427     113.4513 
   34500    238.36713   -12649.299   -11422.218   -12649.299            0    1382.1161    46.886885    21.534024    22.043297   -9.2142732   -21.624438    2.8788055    22256.308    1337.0575    2525.8563    283.43439    568.87464    171.59083    230.28499    46.886885    23.422575    31.013074     68.92182    134.20826    113.16578 
   35000    243.22197   -12685.972   -11433.899   -12685.972            0     1268.663    46.776309    21.747634    21.897477   -9.2491565   -21.274004    3.1576999    22275.736    1986.5444    70.854952    1748.5897    170.66264   -446.52969     -137.106    46.776309    23.632742    30.692895    68.534399    133.87797     113.0398 
   35500     250.6511   -12635.141   -11344.825   -12635.141            0    1338.3959    46.958284    21.609914    21.960589    -9.094971   -21.601667    2.7136242    22284.826    561.84544     1474.497    1978.8452   -350.96127    589.46832    440.08921    46.958284    23.445829    30.923507    69.398907    134.31092    112.82478 
   36000    241.53445   -12628.298   -11384.913   -12628.298            0    1169.2889    47.251163    21.535851    21.928716   -9.3776746   -21.701174    3.0361398    22314.531    675.98884    1785.7498    1046.1281    279.44944    148.50197   -855.10658    47.251163    23.489012    31.000447    68.329302    134.42923    113.53047 
   36500     242.4379   -12606.653   -11358.617   -12606.653            0     1436.758    46.983904    21.674057    21.882736   -9.0788982   -21.459344    2.8493755    22283.886    1083.5433    1846.8536    1379.8772   -750.82802    196.79798    -61.99472    46.983904    23.498748    30.781107    69.222906    134.19956    112.72799 
   37000    246.21126   -12632.647   -11365.186   -12632.647            0    1573.6933    46.655267    21.717918    22.002117   -9.3632827   -21.498733    3.0364118    22293.761    2059.4809    1152.4723    1509.1266    931.72291    581.12435    547.73045    46.655267    23.650349      30.9113    68.558299    134.06688    113.32241 
   37500    246.97702   -12634.723    -11363.32   -12634.723            0    1570.9961    47.072074    21.552385    21.976016   -9.1267276   -21.515593    2.9706748    22295.008    1191.4306    1991.5964    1529.9613   -88.161852   -478.27857   -341.80216    47.072074     23.40518    30.898073    68.895635    134.13417    112.95106 
   38000    246.18284   -12593.354   -11326.039   -12593.354            0     1532.046    47.303325    21.472299    21.971912   -9.3205309   -21.658297    2.8637034    22317.116    1370.8258    1979.0137    1246.2983    -290.7068    307.21792    288.76951    47.303325    23.407946    30.984634     68.70883    134.34693    113.46433 
   38500    250.98006   -12647.265   -11355.255   -12647.265            0    602.05137    46.956407     21.76258    21.917383   -9.2313508   -21.684745    3.0077935    22397.211    376.94689    317.34319     1111.864    24.794338    744.24427    50.936366    46.956407    23.639537    30.978164    68.731528    134.42708    112.98591 
   39000    239.40966   -12633.524   -11401.076   -12633.524            0    693.19586    47.003397    21.787152    21.895814   -9.1179077   -21.358839    2.9115366     22422.85    1268.5251   -189.54123    1000.6037   -384.27117   -398.21205    425.31646    47.003397    23.618134     30.72627    69.159295     134.0378    112.70928 
   39500    249.14394   -12620.003   -11337.445   -12620.003            0    1274.3458    47.176018    21.540074     21.97176   -9.3646882    -21.88963     3.012423    22327.152    501.56816    1276.5108    2044.9585    -24.05652     885.1864    245.53614    47.176018    23.487702    31.160694    68.362144    134.62597    113.49731 
   40000    249.13595   -12670.447   -11387.931   -12670.447            0    1633.5244    47.154439    21.530547    21.957719   -9.1500074   -21.300948    2.9290806    22292.813    809.19873    2136.0462    1955.3283   -126.22806   -621.36194    599.93705    47.154439    23.394168    30.731927    68.972624    133.87769    113.02442 
   40500    249.40441   -12700.452   -11416.554   -12700.452            0    1366.5612    46.721297    21.683412    21.983418   -9.2519494    -21.58006    2.9941508    22270.898    2315.0407    698.72219    1085.9207    242.25559    100.29871    441.35647    46.721297    23.574752    30.950519     68.73923     134.2063    113.10713 
   41000    237.57407   -12657.002   -11434.004   -12657.002            0    720.69099    46.893515    21.696146    21.969599   -9.2777535   -21.470286    2.9447203    22352.058     1718.724   -411.69082    855.03974    404.41735   -66.506726   -300.77275    46.893515    23.596598    30.859486    68.820445    134.08649    113.15263 
   41500    248.30567   -12592.349   -11314.106   -12592.349            0    596.12025    47.608721    21.432956    22.003615   -9.2272915   -21.820331    2.9517987    22452.392    -645.0921    1716.5943    716.85855    584.55256    398.45513     84.96957    47.608721    23.334834    31.128749    68.636629    134.50491    113.29279 
   42000    239.02153   -12625.815   -11395.366   -12625.815            0    825.24285    47.045688    21.623764    21.952997   -9.3056477   -21.601624    2.9512672    22332.891    882.54207    499.38146     1093.805    762.77784    245.31735     232.2479    47.045688    23.541076    30.939848    68.678222    134.28127    113.28432 
   42500    246.33143   -12653.068   -11384.988   -12653.068            0    1221.5602    46.738357    21.714705    21.931468   -9.1144774   -21.297778    2.8496842    22258.458    1227.5803    880.92089    1556.1794    475.70984   -192.93361    1234.4063    46.738357    23.549991    30.703507    69.265091    133.92049    112.76962 
   43000    241.92389   -12588.466   -11343.076   -12588.466            0    1928.1828    46.965664    21.540922    21.992464   -9.3221716   -21.750033     3.080169    22249.417     2185.104    1947.9727    1651.4719    982.53595   -414.17531    -486.6286    46.965664    23.471561    31.084077    68.355519    134.40424     113.4013 
   43500    251.30634    -12620.76    -11327.07    -12620.76            0    1184.1812     47.22053    21.525666    21.962417   -9.1686115   -21.414642    2.8461818    22323.772    226.87889    1736.8051    1588.8597   -447.95957   -6.2692373   -69.763962     47.22053    23.396959    30.806419    69.059141    134.03803    113.07103 
   44000    244.03965   -12639.426   -11383.144   -12639.426            0     559.7984    47.092828    21.667263    21.924276   -9.2846092   -21.707284    2.9979423    22370.933    528.53057    380.09834    770.76629   -211.83089    275.43889    -216.6356    47.092828    23.572744    30.997866    68.609799    134.44973    113.19555 
   44500    250.67248   -12664.161   -11373.734   -12664.161            0    138.93227    47.039093    21.771773    21.889207   -9.4042545   -21.501496    2.8319127    22417.272    109.43592   -182.68162    490.04251    347.25026    577.37955    540.11611    47.039093    23.716031    30.813494    68.834009    134.25035    113.36179 
   45000    238.28323   -12646.792   -11420.143   -12646.792            0    1324.9897    47.146701    21.588213     21.91609   -9.0735751   -21.599757    2.9829094    22306.482     771.4639    1553.4628    1650.0424   -1221.9352    459.95235    61.290549    47.146701     23.41753    30.915405    68.920481    134.32063    112.79713 
   45500    242.39631   -12630.202    -11382.38   -12630.202            0    1423.5717    47.151946    21.543341    21.947081   -9.5058015   -21.680166    2.9702642    22294.074    1301.5164    1265.0148     1704.184    608.76627    19.174304   -88.294576    47.151946     23.54731    30.992361    68.279677    134.38951    113.80903 
   46000    247.19328   -12630.259   -11357.743   -12630.259            0     791.2407    46.817343    21.728587    21.980142   -8.8787089   -21.446239    2.8592691    22359.842    693.19353    1120.0564    560.47218   -847.51502   -184.67751   -250.14133    46.817343      23.4726    30.842231    69.583536    134.05536    112.22585 
   46500    248.25393   -12635.611   -11357.635   -12635.611            0    780.55406    46.920928    21.739832    21.947941   -9.3918789   -21.473862    3.0429384    22388.065    696.93649     605.1806    1039.5451    103.63969   -46.558935   -494.38086    46.920928    23.681801    30.856091    68.498293    134.10185    113.36495 
   47000    247.16466   -12664.622   -11392.253   -12664.622            0    1250.8804    47.136551    21.489517    22.009532   -9.1814457    -21.67795    2.9255441    22294.373     897.2141    2309.2856    546.14162    282.27048   -441.53704    -353.1315    47.136551    23.368746     31.03082    68.827888    134.31432    113.13471 
   47500    244.32381    -12600.41   -11342.665    -12600.41            0    997.33574    47.340258    21.487773    22.011239   -9.3284748   -21.623997     2.916021    22390.641    751.60452    1631.4435    608.95921    226.20476    -1013.248   -207.48731    47.340258    23.425304    30.993469     68.64528    134.24239    113.46708 
   48000    240.67377   -12645.061   -11406.106   -12645.061            0    797.60585    46.864042    21.743221    21.940394   -9.1994705   -21.564167    3.0152741    22356.718    1007.0045    79.409392    1306.4036    274.88639    156.02345   -188.88686    46.864042    23.609276    30.910938    68.797259    134.23657    112.93303 
   48500    245.47033   -12648.865   -11385.218   -12648.865            0    563.09222    46.937054    21.740241    21.922525   -9.2014123   -21.536597    2.8432943    22370.245    1057.1847   -163.41232    795.50428   -367.66142    74.092526    15.672006    46.937054    23.607288    30.862703    69.094347    134.25233    112.94019 
   49000    246.06315   -12616.491   -11349.793   -12616.491            0    1093.3408    47.344703    21.524518    21.890819   -9.3862693   -21.761885    3.1761543    22308.318    827.53076    1661.7605    790.73124   -426.28159   -165.75391   -1126.5014    47.344703    23.482055    31.030236    68.028016    134.53238    113.56073 
   49500    248.49833   -12607.081   -11327.847   -12607.081            0     1506.956    47.158188     21.52943    21.977682   -9.2009417   -21.563221    2.8228381    22313.698    918.51049    2206.3519    1396.0055    300.90419   -472.14959   -423.15214    47.158188     23.41311    30.918594    69.020912    134.22031    113.14021 
   50000    242.38135   -12597.614   -11349.869   -12597.614            0    1407.0579    46.880793    21.735787    21.890326   -9.3250592   -21.611856    3.0218804    22306.044    1981.9818    505.63392    1733.5579     533.9927    462.31452   -196.88962    46.880793    23.651663    30.909392    68.560557    134.36288    113.22024 
   50500    244.14349   -12651.439   -11394.622   -12651.439            0    746.68118      46.8303    21.745217    21.958226   -9.1453684    -21.46826    2.9587103     22360.83    601.39063    249.76088     1388.892    22.163822    667.43987    150.93041      46.8303    23.590087    30.851318    69.011972    134.09595    112.81012 
   51000    246.57178   -12639.173   -11369.856   -12639.173            0    602.44197    47.187198    21.514499    22.006618   -9.2750307   -21.630003    2.8981486    22341.315    215.26872    1275.7909     316.2663    169.49653    513.79857    822.08796    47.187198    23.428612    30.992702    68.767007    134.25927    113.32117 
   51500    248.75533   -12633.591   -11353.034   -12633.591            0   -56.059869    47.252735    21.532281     22.06004   -9.3487172   -21.810005    3.0808074     22445.19   -236.38296   -30.884517     99.08787    217.96661    990.84247   -160.64184    47.252735    23.474191    31.173916    68.328802    134.39681    113.46914 
   52000    240.33144    -12635.92   -11398.728    -12635.92            0    299.45737    46.820828    21.791033    22.022524   -9.1100795   -21.316065    2.8774035    22469.014    1060.1073    -726.4513    564.71613   -372.94823    309.63994    950.72063    46.820828    23.618693    30.783854    69.309255    133.82381    112.68812 
   52500    244.71169    -12591.71   -11331.969    -12591.71            0    499.56628    46.900688    21.748796    21.925052   -9.2688402   -21.594774    2.9598363    22364.288    700.43389    161.42695      636.838    309.63643    229.15309    296.69967    46.900688    23.641521    30.916061    68.781585    134.30654     113.0826 
   53000    233.99803   -12615.701   -11411.112   -12615.701            0    1485.5338    47.389372    21.475768    21.877049   -9.2557626    -21.60981    2.9291272    22264.779    1189.1508    1172.7442    2094.7064    274.48254   -889.03166    197.30919    47.389372    23.385417    30.889625    68.655733    134.39344    113.31538 
   53500    242.29502    -12616.98   -11369.679    -12616.98            0     1504.169    47.119062    21.590173     21.88971   -9.2216679    -21.65803    2.9408154    22268.593    1389.9462    1543.4587    1579.1021     814.5469    158.39928    482.02582    47.119062    23.477111    30.933446    68.749726    134.43898    113.12846 
   54000    247.29865   -12605.613   -11332.554   -12605.613            0    1021.2991    46.894778    21.767021    21.930246   -9.2721469   -21.410108    3.0304565     22385.51    993.35297    539.85343     1530.691   -340.19415   -165.70366    503.96577    46.894778    23.659584    30.797923    68.717483    134.04158    113.07266 
   54500    238.99592   -12640.468   -11410.151   -12640.468            0    18.347476     46.89705     21.70137    22.039903   -9.1515371   -21.638418    2.8734761    22430.675    48.099552    -162.2514    169.19428    345.94329    235.13536    794.07339     46.89705    23.552072    31.019918    69.120456    134.23199    112.86531 
   55000    249.66075   -12633.728   -11348.509   -12633.728            0    210.15265    47.304076    21.538247    22.017907   -9.3297145   -21.565782    2.9273329    22432.875   -655.03298    1733.1201   -447.62912    427.69164   -447.44848   -93.082103    47.304076    23.472103    30.958689    68.675452    134.15475     113.4208 
   55500    243.53137    -12672.89   -11419.225    -12672.89            0    1634.3384     47.05077    21.495175    22.002753   -9.2009637   -21.601711    3.0096774    22252.804     519.1873    3062.7486    1321.0793   -667.26221    236.75416   -172.60473     47.05077    23.381623    30.980853    68.673067    134.20759    113.17324 
   56000    243.64741   -12588.902   -11334.639   -12588.902            0    1697.4584    46.717807    21.724016    21.964405   -9.2052279    -21.42219    2.8761834    22291.639     1711.101    1624.5283    1756.7459    236.78708    652.45793   -204.77817    46.717807    23.593836    30.815868    69.074114    134.04056    112.96408 
   56500     240.8311   -12641.703   -11401.938   -12641.703            0    421.24288    47.002347    21.701176    21.952618   -9.2990145   -21.507479    3.1073512    22391.807     354.1228   -409.91243    1319.5183    914.13548    -1007.154   -703.49575    47.002347     23.60959    30.889233    68.487439    134.12911    113.19527 
   57000     241.0401   -12633.002   -11392.162   -12633.002            0    798.70745    47.248811    21.491751    22.009416   -9.1266558   -21.695294    2.7492921    22349.674    508.34118    1076.1387    811.64249   -464.14976   -612.84414    525.64656    47.248811     23.34933    31.026743    69.214039    134.36646    113.00892 
   57500    247.61111   -12652.509   -11377.842   -12652.509            0    647.44036    47.117864    21.631991    21.946213   -9.3930843   -21.578213    3.0133536    22368.748   -80.098165    1400.2509     622.1683     485.7251   -124.60589   -213.68049    47.117864    23.583321     30.92468    68.451101     134.2481    113.47154 
   58000     239.9941   -12621.683   -11386.227   -12621.683            0    1856.8584    46.948671    21.640452    21.916729   -9.0819125   -21.611988    2.9529125    22267.187    1384.6602     1035.498    3150.4172   -53.318355    91.597154    647.87369    46.948671    23.468922    30.921525    68.990294    134.34124    112.76648 
   58500    251.01627   -12581.729   -11289.533   -12581.729            0    3168.3772    47.095732    21.518215    21.872081   -9.4828576   -21.450934    2.9093516    22165.519    3833.9035    2767.2976    2903.9305    193.49012   -643.32565    -454.2772    47.095732    23.515063     30.77328    68.431321    134.19189     113.7826 
   59000    248.45268   -12672.821   -11393.822   -12672.821            0    1459.6223    47.013399    21.588911    21.959621   -9.1390596   -21.683135    3.0307092    22288.315    1779.2864    1311.7473    1287.8332   -127.78405   -115.68512   -536.77854    47.013399    23.443624    31.009168    68.740479     134.3668    112.94401 
   59500    243.33478   -12593.446   -11340.792   -12593.446            0     1375.635    46.957313    21.617005    22.018167   -9.2906415   -21.204645    2.8400581    22350.123      998.821    2164.8593    963.22466   -63.846723   -1080.7004    358.91257    46.957313    23.528938    30.700205    69.039617    133.68558    113.25726 
   60000    244.62984   -12673.168   -11413.849   -12673.168            0    369.03443    46.767135    21.698092    22.059152   -9.1484025   -21.722895    3.0628452    22384.693      1404.14   -192.82962   -104.20705   -451.88644    331.61299   -144.13417    46.767135    23.547834    31.110632    68.777695     134.2865    112.86138 
   60500    241.84845   -12655.924   -11410.922   -12655.924            0    230.61715    47.130757     21.62181    22.024103   -9.2679914   -21.391616    2.9501652    22443.712    214.53192    948.26396   -470.94443    214.33612   -566.94989   -648.26915    47.130757     23.52442    30.844219     68.82937    133.91077    113.20195 
   61000    241.13392   -12635.562   -11394.239   -12635.562            0    200.88835    47.332464    21.595289    21.970508   -9.2456836   -21.912586    2.8828509    22457.335    -1028.183    1059.7348    571.11332   -791.22571    658.80482    481.56515    47.332464    23.491257    31.163688    68.790194    134.67986    113.17743 
   61500    254.57471   -12612.651   -11302.137   -12612.651            0   -95.289331     47.19258    21.754198     21.88473    -9.364867   -21.665454    3.0401706    22467.668    308.86059   -822.44409     227.7155   -123.82516    310.57013   -9.9411848     47.19258    23.684296    30.944724    68.464677    134.43776    113.29118 
   62000    240.84897   -12606.133   -11366.276   -12606.133            0    1390.6156    46.899942    21.707602    21.970138   -9.1513252   -21.496797    2.7936199    22367.474    1650.5659    454.81592     2066.465   -933.28597    518.14546     268.5998    46.899942    23.557732    30.864276    69.269829    134.14643    112.85894 
   62500    241.26724    -12639.72   -11397.711    -12639.72            0    1660.1064    47.111663     21.55469    21.951923   -9.3199294   -21.612398    3.1334998    22291.679    912.83405    2437.3271    1630.1579   -37.580555   -314.57371   -599.18611    47.111663    23.483307     30.96452    68.290966     134.2646    113.38294 
   63000    249.37473   -12578.764   -11295.018   -12578.764            0    2065.7037    47.103472    21.485695    22.074135   -9.1024534    -21.45386     2.830138    22340.147    1807.0189    2908.2716    1481.8206    413.14449   -514.88158   -203.78651    47.103472    23.334304    30.911894    69.204341    133.95017    112.96003 
   63500    242.37211   -12667.142   -11419.445   -12667.142            0    1645.5817    46.909871    21.625448    21.985805   -9.2855628   -21.617305    2.9478309    22303.433     1308.217    1749.6477    1878.8804    1009.2768     101.5379    228.17059    46.909871    23.534691     30.97375    68.726804    134.26063    113.23778 
   64000    251.74319   -12624.984   -11329.045   -12624.984            0    1018.6765     46.96138    21.703622    21.924459   -9.2068526   -21.432931    3.0357077     22346.11    1037.9766    1064.8913    953.16144   -519.85792   -30.339995   -320.90154     46.96138    23.575694    30.810192    68.754149    134.07857    112.98705 
   64500    238.59891   -12645.312   -11417.038   -12645.312            0   -156.37993    47.389215    21.507149    22.002456   -9.3345934   -21.879683    2.7532617    22425.055    -407.0412     699.8356   -761.93419     168.4834    305.07905    335.41696    47.389215    23.445513     31.15139    68.855817    134.61716    113.46194 
   65000    237.05368   -12652.885   -11432.566   -12652.885            0    170.08737    47.185345    21.652357     21.97932   -9.3473285   -21.623471    3.0619902    22455.699    132.78049   -37.433377      414.915   -325.18664   -233.12333    465.41918    47.185345    23.583832    30.984525     68.44891    134.25714    113.34987 
   65500    244.43847   -12662.662   -11404.327   -12662.662            0    51.887244    46.722983    21.787207    22.047694   -9.0557867   -21.438811     2.880141    22443.743    767.79448   -601.53985   -10.592893   -654.04167   -203.22392    44.469734    46.722983    23.594272    30.887193     69.35908    133.95557    112.57007 
   66000    246.98866   -12599.001   -11327.539   -12599.001            0    1441.0021    47.000511    21.601718    22.009963    -9.360568   -21.511406    2.9186248    22346.534    1511.0893    801.80179    2010.1151    1089.4892    -369.5198    618.75237    47.000511    23.542609    30.914357    68.697434    134.09409     113.4283 
   66500    250.97533   -12608.949   -11316.963   -12608.949            0    1844.8023    47.158365    21.537299    21.978357   -9.0502498   -21.649905    3.0564168    22322.621    1021.5025    1879.5146    2633.3898   -127.57864     86.74144   -17.108692    47.158365    23.361555    31.001746    68.812067    134.29435    112.79277 
   67000    247.61118   -12687.209   -11412.541   -12687.209            0    1477.7432     46.95084    21.596273    21.914725   -9.4012876   -21.474373    2.7970279    22220.724    1622.5102    851.88689    1958.8326     439.2758   -389.48351    574.04707     46.95084    23.553836    30.809532    68.811225    134.18714    113.52445 
   67500    243.68248   -12644.269   -11389.826   -12644.269            0    751.57581    46.933207    21.693084    21.949975   -9.1162625   -21.533321    3.0505943     22347.84    973.72059    1537.9184   -256.91156   -389.99529   -194.15356   -574.39004    46.933207    23.530749    30.899699    68.838411    134.17706    112.79401 
   68000    245.23471   -12666.529   -11404.096   -12666.529            0    142.41217     47.11994    21.597548    22.046933   -9.3659798   -21.520427    2.8039057    22436.617    10.063998    841.81693   -424.64442    362.75021    -598.5353    -267.3206     47.11994    23.540936    30.936353     68.90487    134.07788    113.44442 
   68500    246.30065    -12614.49   -11346.569    -12614.49            0    451.71156     47.08793    21.570398    22.083263   -9.2236144     -21.6409    2.9856577     22430.09   -204.48752    976.20502    583.41717    26.377601    173.36655    467.98577     47.08793    23.459692    31.063052    68.759296    134.16097     113.1518 
   69000    244.20354   -12671.661   -11414.536   -12671.661            0    296.79698    46.919181    21.651408    22.033378   -9.2140509   -21.362575    3.0332669    22382.967    846.06065    469.94692   -425.61663    461.30295   -585.95667   -267.18992    46.919181    23.530453    30.838775    68.791755    133.84565    113.05284 
   69500    241.66061   -12643.351   -11399.316   -12643.351            0    1042.0213    46.854606     21.57558    22.086395   -9.2170551   -21.719313    2.9056811    22327.475    1615.2592    632.57548    878.22915    8.0144785    527.36909    8.9429165    46.854606    23.461879    31.112383    68.891721    134.27414     113.1321 
   70000    246.58467   -12664.925   -11395.542   -12664.925            0    1833.4781    47.105121    21.600387     21.86743   -9.2607136   -21.433653    3.0087631    22249.866    2389.1992    1540.1099    1571.1251   -447.59784    375.65247   -223.44739    47.105121    23.501863    30.767493    68.630517    134.15749    113.20622 
   70500    241.49324   -12646.263    -11403.09   -12646.263            0    1662.1366    47.007349    21.638505    21.864081   -9.2186205   -21.701579     2.918216     22239.46    1799.5404    824.00742     2362.862   -6.6947915    751.36236    264.82786    47.007349    23.520372      30.9437    68.799033    134.53338    113.07539 
   71000    244.11406    -12653.43   -11396.766    -12653.43            0    969.45391    47.160597    21.674927     21.80721   -9.4096483   -21.632629    2.8085354    22291.384    268.51279    402.36368    2237.4852    611.10677    140.78187    890.79983    47.160597    23.629302    30.844982    68.727315    134.53411    113.46692 
   71500    244.30845   -12629.884   -11372.218   -12629.884            0    563.54887    47.177028    21.651353    21.922332   -9.1794708   -21.688262    3.0225268    22392.488    -330.3052    1249.5425    771.40928    -682.1873    667.33826     135.2127    47.177028    23.516882    30.985562     68.71407    134.42278    112.97537 
   72000    249.08247   -12586.414   -11304.172   -12586.414            0    1206.6921     47.12758    21.678851    21.957366   -9.3711849   -21.634481    2.9157507    22433.221    463.97478    1070.2816      2085.82    316.01169    535.74289    592.43087     47.12758    23.617614    30.962531    68.673141    134.32528    113.37753 
   72500    235.01502    -12649.75   -11439.926    -12649.75            0    434.07147    46.857905    21.696238    22.060967   -9.0541003   -21.580543    2.9822634    22428.067    1006.4594   -294.83852    590.59356   -2.5551946    479.78045     335.2835    46.857905    23.509646    31.004838    69.094496    134.10998    112.65136 
   73000    242.81009       -12672   -11422.048       -12672            0    560.16533     47.00352    21.601601     22.03207   -9.2837292   -21.514157    3.0384403     22370.29    1128.8236    393.97889    157.69351    405.99003    102.99633    -142.4994     47.00352    23.512056    30.943548    68.608291    134.04883     113.2566 
   73500    248.39916   -12602.371   -11323.647   -12602.371            0    1144.8228    46.953333    21.544777    22.116003   -9.2722234   -21.475899    2.8297995    22372.529    2648.0997    831.24528   -44.876541    86.647449   -453.38944   -198.87873    46.953333     23.45531    30.957061     69.00988    133.92625    113.28559 
   74000    250.23682   -12626.384     -11338.2   -12626.384            0    1834.2188    46.982929    21.599961    21.950178   -9.1648702   -21.558561    3.0816421    22275.686    2069.7288    1846.6665    1586.2611   -101.86697    46.648377   -602.84318    46.982929    23.463869    30.920517    68.649086     134.2048    112.99153 
   74500    249.89102   -12631.891   -11345.487   -12631.891            0    1287.0798    47.044144    21.649125    21.912981   -9.3036294   -21.548177    2.8358106    22317.594    1005.0461    1883.3631     972.8303   -524.11392    67.034832     182.5404    47.044144    23.563577    30.863319    68.894821    134.28123    113.25543 
   75000    254.43154   -12642.204   -11332.426   -12642.204            0    1771.5446    47.165551    21.610018    21.858347   -9.1589309   -21.697789    2.8982993    22279.085    2212.0897    1003.5965    2098.9477   -1150.3885    821.87037   -291.89416    47.165551     23.47081    30.935118    68.901932    134.53917    112.96859 
   75500      250.866   -12647.376   -11355.953   -12647.376            0    711.75796    47.152342    21.703486    21.814063    -9.454953   -21.445058    3.0895013    22323.862   -89.656615    529.65679    1695.2737    449.52764   -262.62455   -777.03679    47.152342    23.673559    30.745551    68.241332    134.22687    113.53997 
   76000    244.77538   -12635.704   -11375.635   -12635.704            0    1396.7556    46.885554    21.613008    22.000197   -9.0785208   -21.635967    2.8055156    22293.632    1850.7773    1301.2908    1038.1986   -293.23366    502.70558     310.8305    46.885554    23.442305     30.98378    69.273148    134.29075    112.78479 
   76500     232.5836   -12657.841   -11460.534   -12657.841            0    1683.5551    46.944116     21.57087    21.976339   -9.4167126   -21.453149      3.13045    22253.799      2155.96    1877.4188    1017.2863    420.53351   -336.29373    -568.9512    46.944116    23.536714    30.870645    68.224527    134.02218    113.58356 
   77000     237.6109   -12672.749   -11449.562   -12672.749            0    1411.8245    46.979191    21.504107    22.044885   -8.9323098   -21.528221    2.8221649    22270.747    1459.5404     1545.376    1230.5571   -1012.5431    381.45914    296.95757    46.979191    23.285463    30.941976    69.443865    134.08789    112.55687 
   77500    245.09586   -12626.725   -11365.006   -12626.725            0    1088.9267    46.899639    21.656867    21.983682   -9.4003266   -21.527416    2.9956578     22328.81     1195.945    1335.3655    735.46969    737.87779    652.52559   -298.54603    46.899639    23.609025     30.91417    68.521165    134.13575    113.46362 
   78000    256.44023   -12638.209   -11318.091   -12638.209            0    117.06692    47.102696     21.66925    22.009275   -9.1766874   -21.628313    2.9989359    22464.429    255.05043   -390.11374    486.26405    -641.4483    430.31216     45.64399    47.102696    23.532275    31.002996    68.831151    134.23638    112.95212 
   78500    243.55646   -12657.319   -11403.524   -12657.319            0    386.65613    47.238436    21.575765    21.948568   -9.2797524   -21.507119    2.6989736    22370.099    68.104284    146.61681     945.2473   -698.78074    69.332484     91.32897    47.238436     23.48675    30.847694    69.154831    134.20306    113.27258 
   79000    239.83295   -12666.838   -11432.212   -12666.838            0    1212.3409      47.0886     21.63559    21.895827   -9.3048939   -21.693117    3.0938319    22307.242    751.90347    1678.1511    1206.9681    703.59262   -219.14101   -977.62879      47.0886    23.551641    30.977255    68.381571    134.45042    113.27126 
   79500    245.46642   -12631.681   -11368.054   -12631.681            0    1981.7485    46.935683    21.608701    21.972319    -9.121758   -21.335026    2.7486269    22284.746    1777.5134    1934.8784    2232.8537    505.63035   -615.24814    1320.2097    46.935683    23.455115    30.749327    69.378883    133.93463    112.88624 
   80000      247.132   -12671.808   -11399.607   -12671.808            0    747.89582    47.055096    21.565169     22.00888   -9.3909221   -21.808105    3.1134662    22333.535    1195.5757    631.88935    416.22241    209.55319    230.45182   -429.06571    47.055096    23.521181    31.139652    68.205437    134.45367    113.53154 
   80500    246.46116   -12653.149   -11384.402   -12653.149            0    887.41421    46.941216    21.653059    21.977121   -9.0949326   -21.375475     2.994424    22338.005     334.8406    575.30029    1752.1017   -558.12024   -308.74537    157.13031    46.941216    23.485587    30.803755    69.001043    133.94156    112.78386 
   81000    245.34729   -12639.106   -11376.093   -12639.106            0     736.5272    46.828469    21.676013    22.069535   -9.3403157   -21.527874    2.7722788     22401.78    1126.1537    91.577754    991.85013    111.07814   -164.64856    839.12507    46.828469    23.602776    30.954794    69.055544    134.06402    113.31148 
   81500    247.21565   -12685.561    -11412.93   -12685.561            0    589.21641    47.213967    21.563608    21.993342   -9.1853334   -21.648673    3.1369238    22391.499    383.88156    937.90701    445.86067   -31.292709    590.09873   -667.49009    47.213967    23.438421    31.019549    68.497524     134.2591    113.07229 
   82000    246.41593   -12626.432   -11357.917   -12626.432            0     1122.265    47.081175    21.660804    21.895446   -9.2641893   -21.494375    2.9263873    22329.329    531.46615    1359.1578     1476.171    484.64455   -945.27005   -251.89738    47.081175     23.55877    30.821785     68.80577    134.21686    113.15609 
   82500    253.56326   -12600.641   -11295.333   -12600.641            0    855.40412    46.955218    21.813081    21.843293   -9.2771934   -21.960366    2.9922986     22372.73    259.22124    298.40889    2008.5822    974.31423    742.36713    251.67917    46.955218    23.703941    31.118177    68.611667    134.88682    113.04025 
   83000    246.14597   -12687.573   -11420.449   -12687.573            0    1502.6044    47.128854    21.562777    21.883548   -9.2300775   -21.484621    2.9723729    22238.695    1154.0498    1581.6692    1772.0941   -174.37537   -120.51739   -565.80315    47.128854    23.455227    30.810933    68.709883    134.21119    113.17364 
   83500    253.17107   -12669.289       -11366   -12669.289            0    1669.9276    47.064423    21.502421    22.025051   -9.2301102   -21.662438    2.8898809     22289.33    880.61404    2980.9256    1148.2432    268.85826   -111.35358    531.07176    47.064423    23.399766    31.027657    68.839586       134.28    113.23187 
   84000    253.83654   -12588.037   -11281.322   -12588.037            0    1366.4668    46.800807    21.725541    22.056508   -9.2916314   -21.439679    2.9980811    22426.459    1882.9572     1250.086    966.35721    -298.5018    19.426269    308.58346    46.800807    23.629083    30.905305    68.777856    133.92544    113.15554 
   84500    236.61319   -12621.256   -11403.204   -12621.256            0    618.46549    46.717926    21.728826    22.045913   -9.0919108   -21.407097    2.9696756    22379.372    1255.4292   -52.479822    652.44704    294.15583    268.16541   -229.50728    46.717926    23.554293    30.872399    69.121327    133.90031    112.70571 
   85000    246.07135   -12664.471   -11397.731   -12664.471            0    68.135338    47.114997    21.594354    22.101457   -9.3424717   -21.590426    3.1036353    22486.419    234.65871     342.7198    -372.9725    298.47727   -870.06719   -729.96335    47.114997    23.528662    31.052431    68.419482    134.05028    113.39499 
   85500    245.51733   -12594.474   -11330.585   -12594.474            0    723.80939    47.129118    21.548048    22.032966   -9.2214403   -21.610554    2.8044154    22375.369    1287.5392    715.61293      168.276   -354.84584   -47.219277    363.05964    47.129118    23.438288    30.989229    69.049413    134.21533     113.1684 
   86000    250.59139   -12623.851   -11333.841   -12623.851            0    1395.8418    46.909783    21.743752    21.918866    -9.245394   -21.481719    3.1690148    22357.127    2292.6945    13.183302    1881.6475    675.78563    134.39291    833.57495    46.909783    23.627697    30.853583     68.47177    134.12668    113.03509 
   86500    245.01408   -12643.412   -11382.115   -12643.412            0    1326.3465    46.781605    21.670101      21.9881   -9.1725747   -21.447121    2.8199962    22290.703    1701.4075    792.92075    1484.7113     129.3978   -458.41248    151.32979    46.781605    23.531456    30.844901    69.192463    134.05284    112.94209 
   87000    237.51049   -12612.675   -11390.004   -12612.675            0    1792.5282    46.980688    21.534676    22.032988   -9.2246846   -21.516251    2.9636395    22291.081    1679.0475    2233.1268    1465.4101    305.98434   -793.46491   -97.841454    46.980688    23.427272    30.938403     68.78344    134.06345    113.18856 
   87500    237.71333   -12621.126   -11397.411   -12621.126            0    1852.8598    47.149762    21.492423    21.951683   -9.3217414   -21.620004    3.0129133    22245.016    2174.8991    1371.1436    2012.5367   -742.08525   -221.66439    13.456959    47.149762    23.426889     30.95769    68.458501    134.29658    113.44745 
   88000    248.31918     -12601.9   -11323.588     -12601.9            0    1427.9049    46.959547     21.65274    21.946544   -9.2367809   -21.587039    2.8928003    22315.308    1352.2976    1223.5051    1707.9121    138.65614    -39.79931    490.76519    46.959547    23.540587    30.919562     68.89976    134.28018    113.10247 
   88500    243.30134   -12610.635   -11358.154   -12610.635            0     606.6817    46.912524    21.867566     21.88911   -9.2666434   -21.366533    3.0454799    22455.222    1481.3266   -560.74617    899.46465    294.45709   -643.60019   -256.58483    46.912524    23.749971    30.739825    68.750997    134.03332    112.96538 
   89000    237.25585   -12648.272   -11426.912   -12648.272            0    859.31859    47.344387    21.491631    22.028926   -9.2244097   -21.840611    2.9080204    22414.611   -396.01769    2203.8944    770.07905   -690.51196    1097.0995    226.11863    47.344387    23.387603     31.15674     68.76156    134.50661    113.22946 
   89500     240.0185   -12643.728   -11408.147   -12643.728            0    983.27336    47.296255    21.539151    21.948696   -9.4445785    -21.63156    2.9010203    22359.602    583.96825    1582.9985    782.85337    366.04378   -554.47669    518.03622    47.296255    23.518824    30.952957    68.501526    134.33503    113.67669 
   90000    246.68363   -12676.094   -11406.201   -12676.094            0    368.54431    46.835157    21.728511    21.963564   -8.9912622   -21.540709     2.941518    22351.402    860.05375   -420.97535    666.55453   -472.09171   -377.54048    185.49273    46.835157    23.515335    30.903929    69.239552    134.18854    112.47978 
   90500    236.61577   -12574.975   -11356.911   -12574.975            0    1150.0937    46.880679    21.736899    21.912618   -9.4486253   -21.513588    2.8995678    22329.846    2136.1528    794.85391    519.27431    315.40347   -96.735067     202.1087    46.880679    23.701672     30.84485    68.637931    134.22497    113.49369 
   91000    245.47705    -12669.96   -11406.279    -12669.96            0    1199.7057    47.126741    21.581838    21.920374   -9.1774862    -21.68356     2.967798    22294.812    691.80102     1419.325    1487.9912    54.081048    306.89489    319.10502    47.126741    23.452122    30.975594    68.770276    134.42867    113.03719 
   91500    247.02758    -12652.89   -11381.227    -12652.89            0    745.27269    47.275896    21.442721    22.063138    -9.344474   -21.573011    2.8387529     22365.93   -101.43142    1269.4236    1067.8258    1008.9952    -141.5778    892.08123    47.275896    23.390372    30.987665     68.77042    134.12137    113.54698 
   92000    248.71212   -12668.516   -11388.181   -12668.516            0    961.04659    46.845221    21.668544    22.023855   -9.2635987   -21.530978    3.0338483    22355.705    1702.8536    192.92956    987.35663   -193.70057     143.6766   -37.318625    46.845221    23.565654    30.948949    68.677858    134.08249    113.14737 
   92500    245.85697   -12653.016   -11387.379   -12653.016            0    2188.3965    46.719282    21.608521    22.025226   -9.0852515   -21.346045    2.9071111    22235.228    3316.7061     1888.466    1360.0174    192.82689   -80.487796   -473.07085    46.719282    23.440776    30.809341    69.174866     133.8556     112.8042 
   93000    245.28001   -12626.389   -11363.722   -12626.389            0    1539.4179     47.07064    21.517838    22.010499   -9.3963275   -21.614718    3.0977771    22293.519     1643.294    1837.5288    1137.4308    -237.1935    134.25677   -524.78591     47.07064    23.479956    31.004102    68.250008    134.19933    113.58975 
   93500    242.08771   -12642.946   -11396.712   -12642.946            0    468.11329    47.155322    21.645037    21.939532   -9.1686056   -21.654847    2.9033068    22393.213    975.80557    369.37702    59.157281   -921.73194    471.70255    241.48488    47.155322    23.506828    30.962956     68.95344    134.37722    112.95699 
   94000    243.54692   -12638.692   -11384.947   -12638.692            0    252.30647    47.106269    21.828353       21.844   -9.4247677   -21.499856    2.9537277    22461.142    -560.1265   -45.321965    1362.3679    166.01511    89.231983    135.57055    47.106269    23.776106    30.791697    68.601897    134.28561    113.35311 
   94500    237.13968   -12601.149   -11380.387   -12601.149            0     948.9393     47.10793    21.656386    21.875185   -9.1637772   -21.735789    2.9849735    22316.791   -68.492882    907.21793    2008.0929    479.16604    558.82321    613.66481     47.10793    23.515397    30.981903    68.769339    134.55262    112.93538 
   95000    244.96137   -12626.796    -11365.77   -12626.796            0    1889.9182    47.159996    21.485622    21.951983    -9.360781   -21.628445    2.8216138    22243.106    1816.5156    2222.0927    1631.1464    34.728547   -407.45919    244.42018    47.159996    23.436215     30.94577    68.730973    134.33997    113.54163 
   95500    244.22436    -12629.22   -11371.987    -12629.22            0    1220.7177    46.769135    21.627823      22.0766    -9.129803    -21.44398    3.0707304    22330.803    1912.5243    1487.6526    261.97625   -451.78991     58.26469   -592.30213    46.769135     23.47586    30.929758    68.832501    133.89288    112.88618 
   96000     248.8135   -12656.624   -11375.767   -12656.624            0    506.14704    46.763537     21.70969    22.080667   -9.1477936   -21.344769    3.0188545    22416.777    1237.1339    349.91894   -68.611688   -150.86582    298.62373   -30.647032    46.763537    23.558284    30.858848    68.977284    133.76407    112.84906 
   96500    238.93734   -12621.043   -11391.027   -12621.043            0    406.00438    47.135976    21.581281    22.012886   -9.3779411   -21.762514    2.7709726    22392.713    1126.0745   -882.39819    974.33684     328.1198   -435.72496    1192.1683    47.135976    23.530777    31.078167    68.847469    134.44714     113.4869 
   97000    243.20869   -12626.751   -11374.747   -12626.751            0    594.75125    47.302481    21.656589    21.861491   -9.2293463   -21.601583    3.0174634    22395.138    516.40519    315.29404    952.55451    351.75733   -686.94196    46.338033    47.302481    23.541213    30.881357    68.645987    134.38709    113.08215 
   97500    247.36643   -12651.765   -11378.357   -12651.765            0    946.04045    47.099451    21.658508    21.862516   -9.2141186   -21.673292    2.8569825    22302.036    1285.0441    783.93722    769.14003   -179.15232    -59.86895   -168.80617    47.099451    23.537012    30.917043    68.932872    134.50845    113.04622 
   98000    242.84139   -12652.009   -11401.896   -12652.009            0    1774.4266    46.841455    21.703721    21.889891   -9.2735448   -21.468367    3.0543882    22254.004    2545.9307    1260.4101    1516.9391     440.5664     92.57869   -995.51373    46.841455    23.601909    30.812131    68.597301    134.16687      113.136 
   98500    244.02217   -12674.668   -11418.476   -12674.668            0    1009.7486      47.0056    21.560331    22.030544   -9.0886424   -21.477278    2.8820797    22326.994    1081.4254    710.46744    1237.3528   -970.42582   -14.036342   -123.90168      47.0056    23.397677    30.901856     69.15046    134.02848     112.8576 
   99000    243.48607   -12588.452   -11335.021   -12588.452            0    377.72517    47.196125    21.571886    22.121146   -9.4504596   -21.723129    3.0267004    22521.747    176.04879    1409.8576   -452.73086    364.31908    126.25971   -91.853199    47.196125    23.551167     31.15125    68.357051    134.21428    113.65782 
   99500    249.06814   -12601.891   -11319.724   -12601.891            0    7.2015808    47.021901    21.689813    22.076325   -9.0804586   -21.442666     2.897481    22515.561    158.94579    175.88772   -313.22877   -344.06107    3.3171737   -24.598878    47.021901    23.513884     30.91193    69.247029    133.92129    112.71666 
  100000    239.94606   -12658.962   -11423.753   -12658.962            0    1215.0058    46.900288    21.666488    21.955631   -9.2317836   -21.555802    2.9865709    22310.533      1556.94    317.43281    1770.6447   -177.79226   -452.91366    378.88748    46.900288    23.551275    30.913135    68.763826    134.21097    113.07817 
  100500    236.29897   -12627.473   -11411.039   -12627.473            0     1979.431    47.385923     21.43254    21.857047   -9.2144252   -21.604258    2.9398139    22198.032    1348.1529    2836.6576    1753.4825   -511.63834   -801.85127   -1246.2034    47.385923    23.329368    30.872593    68.661476    134.40997    113.26417 
  101000    247.21282   -12670.835   -11398.218   -12670.835            0    1892.8833    47.018217    21.563952    21.933327   -9.1376641   -21.532648    2.9251535    22238.169    1762.2148     2018.108     1898.327   -128.29551    724.59216   -49.982341    47.018217    23.420097     30.87527    68.940622    134.21938    112.96467 
  101500    241.14467   -12647.961   -11406.583   -12647.961            0    275.20998    46.932535    21.719635    21.999721   -9.4490605   -21.595833    3.0064066    22425.582     1218.091     395.6205   -788.08155    710.24449   -88.449112   -816.80686    46.932535    23.686015    30.974283     68.46037    134.20424     113.5113 
  102000    243.65442    -12562.18   -11307.881    -12562.18            0    788.87131     46.92679    21.659906    22.069395   -8.9097231   -21.434906    2.9807715    22431.992    1115.0398    329.31765    922.25648   -347.60408   -355.61908   -256.48749     46.92679    23.420818    30.909519     69.32939    133.90563    112.35964 
  102500    240.21473   -12655.653   -11419.062   -12655.653            0    555.95943    47.179065    21.559724    22.012094   -9.4099755   -21.647558    2.9772406     22389.99     557.2296    675.57233    435.07635    90.827959    208.11764    372.29003    47.179065    23.523804    31.016335     68.45914    134.26201    113.57939 
  103000    237.92801   -12635.758   -11410.939   -12635.758            0    331.61574    47.165212    21.566633    22.036104   -9.0893402   -21.724952    2.8077413    22415.011    283.04436    195.29579    516.50706   -686.13899    984.43514    158.75807    47.165212    23.403755     31.07164    69.217894    134.36198    112.85318 
  103500    245.58688   -12637.261   -11373.015   -12637.261            0    287.32706    46.926521    21.782687    21.899234    -9.300327   -21.454211    3.0913144    22385.084   -388.30673   -426.22374    1676.5117    985.26356    599.33112    213.35279    46.926521    23.685049    30.812592    68.550911    134.12935    113.12052 
  104000    248.13819    -12654.84   -11377.459    -12654.84            0    223.04057    46.971512    21.653733    22.038428   -9.2604709     -21.6754    2.8980825    22415.474   -298.05529     58.27979     908.8972    508.63494    478.72164   -245.85399    46.971512    23.550806    31.046967    68.878509    134.27866    113.15454 
  104500    241.54277   -12675.551   -11432.122   -12675.551            0    428.83861    47.343375    21.517965    21.998302   -9.1954485    -21.43004    2.9817007    22410.398    257.90189    797.70049    230.91344   -660.51759    90.441392    -440.5658    47.343375    23.400408    30.855509    68.790243    133.98968    113.13887 
  105000    246.52297   -12623.315    -11354.25   -12623.315            0    504.66026     47.00635    21.614926    22.037672   -9.3281327    -21.71379     3.025497     22391.13    573.89665    182.80244    757.28167    308.52759    662.70135    42.449378     47.00635    23.541859    31.085387    68.522167    134.30845    113.34308 
  105500     248.0281   -12574.856   -11298.042   -12574.856            0    1434.3035    46.813333    21.691676    21.954552    -9.168937   -21.330072    2.8409648    22293.962    2224.4521    881.65715    1196.8012   -397.20386     441.3616    5.4509592    46.813333    23.549909     30.74159    69.190218     133.9357    112.91348 
  106000    241.03594   -12626.983   -11386.164   -12626.983            0    2219.4826      46.9798    21.625984    21.880699   -9.2363484   -21.582377    3.0554505     22230.45     1662.001     2229.622    2766.8246    367.34271    191.45403    88.763491      46.9798     23.51581    30.885268    68.565057    134.33016    113.12708 
  106500    249.31089   -12648.621   -11365.204   -12648.621            0     1128.619    47.280198    21.515164    21.942418   -9.3831915   -21.673643    2.7638785    22320.732    831.05253     1611.067    943.73735    681.09688   -96.587329    537.33547    47.280198    23.472251    30.965392    68.800459    134.42148    113.56297 
  107000     251.3162   -12664.292   -11370.551   -12664.292            0    627.82263     47.18338    21.623843      21.9407   -9.1216732   -21.597746    3.1497635    22385.788    343.97496    496.85511    1042.6378   -314.30555   -668.23873   -592.46407     47.18338    23.469033    30.947988    68.591484    134.25655    112.87167 
  107500    249.01212   -12614.371   -11332.491   -12614.371            0     1255.333    46.771629    21.714779    21.970352   -9.2535226   -21.438508    2.9328281    22313.872    2358.4511     894.9492    512.59859    -565.2737    24.496302   -378.51741    46.771629    23.604222    30.836788    68.897171    134.04516    113.08076 
  108000    249.38146     -12647.7   -11363.919     -12647.7            0    1748.7637    46.820125    21.553351    22.032918   -9.1553006   -21.526225    2.7535948    22234.091    1646.7975    1361.2019    2238.2917   -538.92971    43.725081    905.71837    46.820125    23.417226    30.925881    69.262582    134.11163    113.01452 
  108500    246.04244   -12623.817   -11357.225   -12623.817            0    891.16903    47.304904     21.56702    21.929832   -9.2620901    -21.66244    3.1092157    22373.381    1030.7269    1167.5691    475.21105     179.0448   -721.27304   -331.08517    47.304904    23.471742    30.981383     68.39995    134.36352     113.2414 
  109000    240.83548   -12667.847    -11428.06   -12667.847            0    871.74884    47.142086    21.624312    21.913045   -9.3001472   -21.701423    2.7887098    22338.491    515.63482    981.41149    1118.2002    130.62939     520.0292    469.12592    47.142086    23.539406    30.966275    68.923697    134.49189    113.27149 
  109500    244.12799    -12683.19   -11426.454    -12683.19            0    619.95321     46.84512    21.860158      21.8444   -9.1451335   -21.374981    3.0855047    22369.577    1128.9356   -556.88798     1287.812   -799.82992    210.69012   -162.70025     46.84512    23.695991    30.717877    68.825025    134.09485    112.70185 
  110000    247.35342   -12640.111   -11366.771   -12640.111            0    968.10165    47.087125    21.613476    21.959464   -9.2201518   -21.628702     3.055135    22348.509    1458.3321    1176.0438    269.92911   -680.30532    -479.0373   -407.65334    47.087125    23.497948    30.973419    68.609268    134.29068    113.10274 
  110500    242.86519   -12654.946    -11404.71   -12654.946            0    1605.9971    46.986453    21.499897    22.044346   -9.3644809   -21.543517    2.7271888    22269.284     1524.298    2052.1255    1241.5676     606.3072    40.001657    988.08342    46.986453     23.45078    30.943721    68.972353    134.12421    113.53598 
  111000    248.04494   -12669.706   -11392.806   -12669.706            0    67.315908    47.065252    21.641758    22.040165   -9.1304813     -21.4696    3.1906381    22449.557    820.02243   -930.83551    312.76081   -454.93064   -493.22032   -374.03244    47.065252    23.488963    30.933684    68.603449    133.95176    112.87449 
  111500    240.66926   -12598.286   -11359.355   -12598.286            0    147.64987    46.934468    21.715715    22.078274   -9.2617617   -21.573236    2.9129488    22502.519    102.05784    214.88031    126.01147     9.297928    1075.3013    480.79837    46.934468    23.608314    31.005482    68.937759    134.09003    113.09827 
  112000      238.947   -12635.898   -11405.832   -12635.898            0    329.21274    46.980673    21.675574    22.042912   -9.3271141   -21.541369    2.9190773    22447.026    177.56654    1190.1916   -380.11993    623.47163    380.08107   -368.68054    46.980673    23.597152    30.958707    68.799055    134.09178    113.28246 
  112500      243.177   -12643.106   -11391.265   -12643.106            0    443.59556    47.172513    21.561993    22.061275   -9.0415098   -21.610013    3.1496573     22439.26    90.549423    1308.4696   -68.232393   -46.530787    94.508981   -390.41277    47.172513    23.380942    31.042114     68.72927    134.11904    112.74958 
  113000    246.28952   -12624.946   -11357.082   -12624.946            0    1050.4791    47.141631    21.578689    22.004068   -9.3979528   -21.601474    2.8849748    22383.739    274.13071    1323.7766      1553.53    1374.5858   -58.577798    347.66793    47.141631    23.536383    30.969756    68.659164    134.22695    113.53409 
  113500    251.99541   -12686.273   -11389.036   -12686.273            0    950.96539    46.741033    21.767739    21.925847   -9.0824964   -21.479296    2.9287432    22308.379     1302.612   -74.981693    1625.2659    131.85875    292.40799    66.194108    46.741033    23.586568    30.833107    69.150503    134.15732    112.64813 
  114000     245.8571   -12601.971   -11336.333   -12601.971            0    1568.0227     47.13134    21.599339    21.855835   -9.3679141   -21.619579    2.9668674    22249.367    1587.4701     1358.133    1758.4648    5.3559276    503.19104   -168.33262     47.13134    23.543349    30.885045    68.490177    134.42713      113.447 
  114500    251.31815   -12652.558   -11358.808   -12652.558            0     1809.396    47.234564    21.499657    21.867386   -9.2648422   -21.753277    2.8432796     22206.92    433.80005    2629.6131    2364.7749   -140.86879    1186.0078    566.34299    47.234564     23.41095    30.975343    68.763237    134.60999    113.31265 
  115000    250.05204   -12600.704   -11313.471   -12600.704            0    1190.7722    47.048914    21.669675    21.924432     -9.22411   -21.534361    3.0168614    22352.719    960.76418    1797.0852    814.46711   -600.12835   -274.99913    107.52859    47.048914      23.5512    30.878971    68.713525    134.21714    113.05795 
  115500    245.37332   -12635.909   -11372.762   -12635.909            0    1340.4259    46.766967    21.764782    21.880463   -9.2749039   -21.537748    2.9005462    22271.529    1559.7843    1094.0779    1367.4154    465.57352    473.27642     76.87488    46.766967    23.658605    30.838975    68.880297    134.29828    113.08093 
  116000    239.28617   -12656.291   -11424.479   -12656.291            0    565.64054    47.002301    21.594187    22.051172   -9.1705833   -21.471047    3.0321489     22381.42    985.45089    944.18743   -232.71671    402.66285   -344.46819   -52.122541    47.002301    23.460786     30.92659    68.800193    133.96816    113.00988 
  116500    236.69701   -12572.118   -11353.636   -12572.118            0    235.36923     47.26315    21.561386    22.074585   -9.3570724   -21.718028    2.9396719    22495.305   -196.95158     742.5312    160.52809   -237.68006    253.17863   -355.26169     47.26315    23.504216    31.106297    68.614433    134.28177    113.45957 
  117000    247.31994   -12647.101   -11373.932   -12647.101            0     483.7733    47.016141    21.627087    22.054873   -9.1291643   -21.575481    2.8842863    22425.884    1536.9512   -193.54746    107.91611   -1222.5564    192.40248    618.25741    47.016141    23.474934    30.987706    69.113376    134.12766    112.88544 
  117500    237.01833   -12639.539   -11419.402   -12639.539            0    1518.2317    46.684414    21.766717    21.928798    -9.304611    -21.38614    3.1763646    22283.308    2304.4576    435.31605    1814.9215    977.07919   -122.13946   -95.809609    46.684414    23.672046    30.794942     68.41914    133.98494    113.14524 
  118000    240.97221   -12657.096   -11416.605   -12657.096            0    1163.4573    46.985778    21.572447    22.005099   -9.1197616   -21.545516     2.859959    22304.328    1196.2981    1004.0338    1290.0402   -173.95665   0.65076447    131.21105    46.985778    23.420942    30.929161    69.119572    134.15553    112.91623 
  118500    243.42929    -12647.39    -11394.25    -12647.39            0    1904.6714    47.345693    21.373614    21.975585    -9.619706   -21.723876     2.992807    22238.162    1802.9153      2080.69    1830.4088    306.03898    260.42419    148.49495    47.345693    23.438646     31.04529    67.969566    134.40678    114.23127 
  119000    244.57728    -12610.47   -11351.421    -12610.47            0    1604.4156    46.973203    21.659408    21.934744    -9.088331   -21.498059    2.9198018    22316.666    1405.7777    1936.2318    1471.2375    92.669236   -267.94428    239.05528    46.973203    23.488885    30.851658    69.091117    134.17244    112.76302 
  119500    247.04794   -12633.325   -11361.557   -12633.325            0    2380.8907     46.78918    21.710565    21.877087   -9.3175969   -21.410626    2.9355661    22223.172    2510.4538    1846.1535    2786.0649    890.47195   -337.05341    335.30205     46.78918    23.625542     30.75125    68.757469    134.12709    113.22772 
  120000    252.87453   -12663.837   -11362.075   -12663.837            0    414.66214    47.160628    21.622736    21.976889   -9.2545592   -21.670994    2.8704919    22410.752    452.17354    11.947673    779.86521   -717.85143   -32.016501    242.87794    47.160628    23.519982    30.997667    68.886314     134.3562    113.17099 
  120500    245.88361    -12590.04   -11324.266    -12590.04            0    738.36166    47.460336    21.566941    21.964976   -9.2514391   -21.607555    2.9850366    22482.784    192.85731    573.79586    1448.4318   -62.293427   -462.85931    423.74461    47.460336    23.467468    30.955727    68.666617    134.26794    113.21759 
  121000    243.96947   -12619.139   -11363.218   -12619.139            0    855.81405    46.995957    21.648529    21.991281   -9.3802757   -21.749459    2.8219639    22373.783     495.7694    1430.0669     641.6059    63.244639     571.6666    -67.56349    46.995957    23.593397    31.058314    68.789999    134.44932    113.42701 
  121500    239.93731   -12649.022   -11413.858   -12649.022            0    905.06955    46.898156    21.653329    22.023375   -9.0889317   -21.396504    3.0005837    22364.764    1436.4135     6.236918    1272.5583   -950.25804   -203.50798    128.94414    46.898156    23.483512    30.851951    69.016768    133.90955    112.77011 
  122000    249.27578   -12628.839   -11345.603   -12628.839            0    1479.7695    47.061052    21.467181    22.090784   -9.4975182   -21.710781    2.8950074    22317.615    1427.3054    1982.3166    1029.6866    1084.7741    38.320787   -255.93002    47.061052    23.474299    31.108549     68.44027    134.25908    113.86557 
  122500    252.69003   -12641.632   -11340.819   -12641.632            0    884.17718     47.18777     21.57554    21.970295   -9.1297387   -21.561683    2.9464827    22367.993    1050.7423    669.78239    932.00689   -588.06872    596.91179    617.91019     47.18777    23.427677    30.923806    68.932502    134.20694    112.93576 
  123000    241.10995   -12691.738   -11450.538   -12691.738            0    693.73423     46.98365     21.73516    21.886261   -9.2988549   -21.578886    3.0438383    22350.187    990.53878    184.85933    905.80458   -68.572724    198.96864    -243.0501     46.98365    23.640767    30.885623    68.566378    134.32047    113.16247 
  123500    242.58334   -12651.763   -11402.978   -12651.763            0   -319.07696    47.209796    21.650994    21.953977   -9.2636241   -21.703431    2.7346074    22440.016   -868.18997    109.51018    -198.5511    20.969947    505.28946     583.4144    47.209796    23.549528    30.991839    69.108689    134.45068    113.16421 
  124000    246.51533   -12632.936   -11363.909   -12632.936            0    299.41129    47.336951    21.593738    21.937554   -9.2322753   -21.587859    3.1626016    22424.166    -199.4984      384.994    712.73828    174.04558   -249.31128    -384.8478    47.336951    23.484557    30.940167    68.390484     134.2451    113.14884 
  124500    253.36552   -12664.637   -11360.347   -12664.637            0    718.57112    46.950636    21.582054    22.049483    -9.276343   -21.593454    2.8291175    22342.547    978.52487    403.17373    774.01475   -501.87438    103.54809    956.71129    46.950636    23.491181    30.991303    68.960662    134.16751    113.25888 
  125000    248.61974   -12571.685   -11291.825   -12571.685            0    1802.8849    46.890378    21.659077    21.935969   -9.2068647   -21.421289    2.9278532     22278.22    2529.6767    1368.5084    1510.4694   -26.637084   -386.64067   -231.96508    46.890378    23.534697    30.799849    68.926399    134.06706    113.02943 
  125500    240.40111   -12632.722   -11395.171   -12632.722            0    2349.4632    46.989425    21.524871    21.997979   -9.2350444   -21.686623    3.0813693    22249.666    2032.4075    2505.9753    2510.0067    300.92988    819.09311    35.672575    46.989425    23.422343    31.043768    68.490392    134.31336     113.2213 
  126000    248.74533   -12648.223   -11367.717   -12648.223            0    1321.8738    47.242266    21.452973    22.048564   -9.3262097   -21.464283    2.7716504    22345.934    54.412456    3047.7059    863.50318    788.49193   -72.739465   -41.320909    47.242266    23.392483    30.895576    68.945699    134.00622    113.49594 
  126500    246.30409   -12656.934   -11388.996   -12656.934            0    1072.4675    46.840096    21.729842    21.940844   -9.1792465   -21.573359    3.0294348    22332.002    1672.5621    467.37012    1077.4703    1053.3704    288.31456   -205.46873    46.840096    23.589078    30.919054    68.791176     134.2457    112.90045 
  127000    246.85344   -12638.541   -11367.775   -12638.541            0     967.6965    46.880181    21.763661    21.890464   -9.3118211   -21.490414    2.9268344    22334.498    680.45782     1439.629     783.0027    595.19426    858.62457   -259.34913    46.880181    23.672071    30.815526    68.798297    134.21791    113.16419 
  127500     246.0493   -12626.417    -11359.79   -12626.417            0     985.4493    47.302822    21.528241    21.946913   -9.1806019   -21.668678    2.9571009    22349.564    847.87224    692.53295    1415.9427   -312.50864     533.5557    244.17255    47.302822     23.40403    30.982948    68.768693    134.37683    113.09556 
  128000    242.19531   -12653.522   -11406.734   -12653.522            0     1894.266    47.115059     21.49317    21.982194   -9.3085266   -21.671969    3.0801441    22260.312    1848.0498    2105.5307    1729.2175   -219.15454    313.76887    145.39442    47.115059    23.422319    31.022224    68.361637    134.31439    113.41707 
  128500    244.24362   -12647.273   -11389.941   -12647.273            0    1333.2981    46.720945    21.698023     21.97562   -9.1051874   -21.357954    2.7920533    22277.831    2088.5664    1426.5598    484.76807   -993.97924    317.27633    218.10656    46.720945    23.531014    30.771507    69.375734    133.95412    112.76449 
  129000    239.71979   -12580.346   -11346.302   -12580.346            0    1433.5632    46.899066    21.681911    21.978047   -9.2528272   -21.578898    3.0991997    22348.628    1787.6366    990.60088    1522.4522    352.25187     630.1526   -670.08285    46.899066    23.573716    30.956234    68.550045    134.19301    113.11053 
  129500    243.07177   -12610.199     -11358.9   -12610.199            0    611.76036    47.308155    21.522955    22.017379   -9.2254626   -21.471695    2.8275261    22418.344    224.80816    1180.1209    430.35198    61.172273   -36.815243    507.42496    47.308155    23.416805    30.883548    69.019222     134.0469     113.2016 
  130000    242.21701   -12616.874   -11369.975   -12616.874            0    1236.3596    47.200667    21.557314    21.960832   -9.3501918   -21.772049    2.9953267    22345.577    953.42853    1384.5715    1371.0788    707.80782    109.05932   -199.79232    47.200667    23.497742     31.06883    68.451002    134.48867    113.44813 
  130500    251.44919   -12638.919   -11344.494   -12638.919            0    337.74884    47.000359    21.760594    21.905525   -9.2108232   -21.417461    3.0183593        22404    782.88347   -120.00838    350.37145   -466.72656   -313.59796   -35.162881    47.000359    23.629699    30.784252    68.808461    134.08525    112.94197 
  131000    239.41677   -12659.623   -11427.139   -12659.623            0    1759.5865    46.698406    21.646669    22.002176   -9.2183625   -21.587699    2.8518605    22241.228      2265.32    1873.5408    1139.8987   -398.27463    220.28379    244.53197    46.698406    23.527782    30.955736    69.022746    134.21663    113.06702 
  131500    239.91906   -12654.923   -11419.853   -12654.923            0    834.58931    47.192944     21.52046    22.002863    -9.291841   -21.548187    3.0089661    22346.413    777.27463    1478.0799    248.41337    36.372892   -489.01709   -721.04185    47.192944    23.440744    30.943565    68.573115    134.13653    113.35313 
  132000    235.90767     -12632.8   -11418.381     -12632.8            0    1084.9541    47.071324    21.591523     22.03703   -9.1559157   -21.608985    2.9737297     22397.15    1285.7279    726.06996    1243.0644   -204.70084   -696.52382   -42.824479    47.071324    23.452605    31.006805    68.877095     134.1797    112.97944 
  132500    253.71918   -12625.365   -11319.255   -12625.365            0    415.93217     46.92966    21.764236    21.975594   -9.4500325   -21.509874     2.922061    22445.613    680.13986   -31.551112    599.20776    1107.2287   -338.69933   -10.597258     46.92966    23.727307    30.889154    68.646908    134.13544    113.47049 
  133000    242.84115   -12654.603   -11404.491   -12654.603            0   -209.54085    47.120488     21.73863    21.912663   -9.0281947   -21.583302    3.0178843    22445.905    57.112658   -449.38707   -236.34812   -239.89809    141.51859    -325.1525    47.120488    23.538826    30.904876    69.019996    134.29706    112.55343 
  133500    240.30825    -12671.06   -11433.987    -12671.06            0    441.54568    47.255104    21.552184    21.985624    -9.435988   -21.678525    2.8915044    22391.274   -57.546322    575.67221    806.51115    250.36342   -299.55633    480.07108    47.255104    23.527314    31.011077    68.544343    134.35143    113.64479 
  134000    243.69076   -12661.266   -11406.781   -12661.266            0    712.60104    47.078831    21.538463    22.004727   -9.0783566   -21.578077    2.9696292    22312.918    659.19621    1650.3489   -171.74198   -8.8211838    -376.3507   -925.80714    47.078831    23.373531    30.961914    68.956939    134.18067    112.85518 
  134500    252.09366   -12614.937   -11317.194   -12614.937            0     1331.253     46.69266    21.797374    21.936087   -9.2917769   -21.435312    3.0303406    22326.053    1839.5221     1015.191    1139.0459    187.16251   -7.8898521   -521.54989     46.69266    23.695202    30.819596    68.704064    134.06781    113.08757 
  135000    245.03836   -12679.835   -11418.412   -12679.835            0    1013.7669    46.947115    21.619999    21.998157    -9.250762   -21.559286    2.8853032    22328.054    641.00235    295.72829    2104.5699   -13.022504    890.81256    898.89286    46.947115    23.515972    30.936172    68.906373    134.17848    113.16511 
  135500    239.21888   -12650.477   -11419.011   -12650.477            0    1288.8903    47.331098    21.476517     21.94906   -9.1843037   -21.646419    3.0671585    22311.377    818.26748    1432.3137    1616.0896    -229.2906   -8.5599086   -33.754937    47.331098    23.357916    30.979609    68.544936     134.3253    113.15368 
  136000    241.14504   -12608.918   -11367.537   -12608.918            0    477.05503    47.109261    21.599432    22.029696   -9.3599853   -21.587115    2.8548655    22415.949    227.78425    775.69973    427.68112    75.685326    291.22241    516.14132    47.109261     23.54028    30.975172    68.797063    134.18015    113.42921 
  136500    238.85115   -12586.603   -11357.031   -12586.603            0    949.43142     46.88113    21.745174    21.994029   -9.1700036   -21.596525    2.9588115    22421.556    1262.2725     415.0515    1170.9703   -320.50503    456.62892   -177.63409     46.88113    23.599609    30.966139    68.958944    134.22069     112.8653 
  137000    244.07987   -12618.806   -11362.318   -12618.806            0    1683.1598     46.99267    21.617049    22.026541   -9.3034655   -21.275284    3.0794076    22375.505     2250.335    1154.1144    1645.0299    216.62165   -1095.2799   -703.23118     46.99267    23.534045     30.77806    68.582196    133.72901     113.2859 
  137500    248.64594   -12611.308   -11331.314   -12611.308            0    875.77567    47.229615    21.514504     22.02861   -9.2549816   -21.774357    2.8512929     22383.75    874.68552    916.57631    836.06518   -222.38694    47.156118    39.225985    47.229615    23.420687    31.104857     68.84867    134.42947    113.27612 
  138000    250.15483   -12662.476   -11374.714   -12662.476            0    417.26975    47.142907    21.709392    21.842139    -9.319598   -21.568789    3.0250924    22354.203   -164.36475    -388.7161    1804.8901    296.98002    571.92056    230.74727    47.142907    23.625253    30.845468    68.533444    134.36711     113.2333 
  138500    246.08746   -12651.082   -11384.259   -12651.082            0    1108.1656    46.845481    21.791617    21.853638   -9.1854247   -21.638598    2.9280508    22309.041    1025.3698    95.403942     2203.723   -469.23775    765.91441   -319.50431    46.845481    23.648395    30.893104    68.936734    134.46188      112.856 
  139000    235.69135   -12688.057   -11474.751   -12688.057            0    1394.7403    47.185583    21.588439     21.86309   -9.2880898   -21.441643    2.8813977    22271.122    1415.6733    1176.6778    1591.8697    41.424034    426.32076    589.91107    47.185583    23.501687    30.757783    68.804002    134.19582    113.27904 
  139500    242.98709   -12614.371   -11363.507   -12614.371            0    1095.5996    47.269476    21.506084    22.002623   -9.2340432    -21.79769    3.0719411    22367.457    1103.0183    1099.1027    1084.6779    405.10131   -6.6383926   -210.10372    47.269476    23.404684     31.12381    68.468632    134.45543    113.23718 
  140000    239.30473   -12617.261   -11385.354   -12617.261            0    1010.1056    47.120435    21.556331    22.032331   -9.2900538   -21.446772    2.8709399    22379.202    1850.7538    1028.8333    150.72987    118.78753   -1058.6389   -309.81086    47.120435    23.472974    30.880899    68.884838    133.98735    113.31442 
  140500     247.0211   -12584.153   -11312.523   -12584.153            0    1654.9125    46.502687     21.79627    22.042408   -9.0245937   -21.477583    3.0140903    22341.857    2653.5592    413.75398    1897.4242    50.368748    136.09753    296.14233    46.502687     23.59069    30.923115    69.160281     133.9912    112.49166 
  141000    241.84599   -12636.809    -11391.82   -12636.809            0    1666.5137    46.992783    21.633074    21.948304   -9.2614373   -21.475361    2.9763069    22312.609    1553.9435    2233.1856     1212.412   -832.26587    718.34717   -554.63247    46.992783    23.532193    30.850892    68.737019    134.11508    113.17648 
  141500     239.1954   -12609.926   -11378.582   -12609.926            0    1174.5142     47.45443    21.385476    22.014743   -9.2182795   -21.925692    2.9158337    22341.344    1108.1571    1412.5868    1002.7986   -718.23172    88.253987   -98.199649     47.45443    23.287663    31.207162    68.659058    134.63479    113.31862 
  142000    251.37901   -12680.852   -11386.789   -12680.852            0    834.25109    47.044607    21.626645    21.970498   -9.3108093   -21.466316    2.9433112    22353.159    1135.8972    904.20411    462.65193    642.15176   -799.61781   -917.96657    47.044607    23.545763    30.857229    68.733853    134.08029    113.29308 
  142500    250.15572   -12640.035   -11352.268   -12640.035            0    741.40749    46.822187    21.788942     21.91188   -9.2163406   -21.607877    2.9630957    22354.629    899.67321    72.388102    1252.1612    580.68105    837.55592     -354.023    46.822187    23.657957     30.91619    68.866274    134.34025    112.92751 
  143000    246.24319   -12683.176   -11415.551   -12683.176            0    174.28337    47.120748    21.576978    21.994216   -9.2217172   -21.530179    2.8777023    22362.033   -481.13839    1166.5626   -162.57412   -830.71426    759.85827   -180.07555    47.120748    23.464996    30.912381    68.941443    134.14611    113.14123 
  143500    252.34502   -12663.281   -11364.244   -12663.281            0    1053.4493    47.270959    21.493204    21.991869   -9.2911795   -21.734789    3.0494218    22343.834    696.72398    1557.0228    906.60108   -381.62615    754.01479   -129.84249    47.270959    23.415461    31.069958    68.428233    134.39039    113.37808 
  144000    244.42607   -12647.272   -11389.001   -12647.272            0    1414.9399    46.990321    21.628384    21.941309       -9.241   -21.533721    2.9009973    22299.494    783.58107     1766.129    1695.1097    552.98651    552.59646    689.95776    46.990321    23.519844     30.87941    68.876414    134.21469    113.13521 
  144500    250.30818   -12649.997   -11361.446   -12649.997            0    1918.0827    46.657855    21.892117    21.812941   -9.1011258    -21.42401    3.1115734    22280.593    2476.8381    831.66355    2445.7466    636.19885   -120.30873   -475.71882    46.657855    23.708548    30.732304    68.832447    134.19615    112.57393 
  145000    242.17825   -12613.227   -11366.528   -12613.227            0    1229.9455    47.190551    21.549178    21.971937   -9.3346401   -21.648049    2.9020807    22343.649    798.56493    1527.1429    1364.1287   -351.74811    786.70698    527.94474    47.190551    23.484092     30.98106    68.672411    134.32689    113.42122 
  145500     241.2893   -12646.419   -11404.296   -12646.419            0    285.30427    47.326927    21.505089    22.077109   -9.1976149   -21.655625    2.9213061    22469.414   -12.968881     653.5372     215.3445   -569.37803     178.8957    409.94917    47.326927     23.38942    31.062822    68.861918    134.19925    113.15614 
  146000    242.41042   -12646.684    -11398.79   -12646.684            0    438.53588    46.872351    21.684556    22.023918   -9.3552004   -21.532209    3.0008359    22385.246    398.45273    120.77696    796.37796    98.820426   -195.33205    579.71576    46.872351    23.616514    30.946632    68.613543    134.08982    113.33644 
  146500    247.50053   -12630.743   -11356.645   -12630.743            0    1066.9261     46.63437    21.770425    21.959295   -9.0295399   -21.297356    2.9159705    22294.176    1811.0704   -104.71451    1494.4224   -621.60145    72.084129    375.30852     46.63437    23.568708    30.729317    69.318352    133.87307     112.5268 
  147000    246.99298   -12657.122   -11385.637   -12657.122            0    732.68652    47.226153    21.533252    21.953313   -9.3864531   -21.714398    3.0268619    22325.041   -146.34538    1357.7148    986.69018   -43.602117    661.95216   -93.783916    47.226153    23.490135    31.026197    68.340237    134.41682    113.55263 
  147500    249.28568   -12654.069   -11370.781   -12654.069            0    812.72214    47.241471    21.511085    22.010409   -9.2606943   -21.682577    2.8547829    22367.315   -588.34274     1644.222    1382.2872    261.48808   -673.28377   -61.473361    47.241471    23.419805    31.028084    68.848801     134.3312    113.29226 
  148000    247.98431   -12656.591   -11380.003   -12656.591            0    804.77921    46.895826     21.81755    21.847315   -9.2061958   -21.550084    3.0081403    22353.125    1296.7286    -117.2474    1234.8565    736.40582    286.81594    30.337747    46.895826    23.680362      30.8344    68.801917    134.33861    112.87794 
  148500    247.67573   -12640.544   -11365.544   -12640.544            0    1440.5619    46.897148    21.692501    21.897126   -9.2575087   -21.520924    2.9743164    22276.306    2243.2136    936.34071    1142.1313   -344.78859    46.740427   -361.16928    46.897148    23.585294    30.846083    68.743934    134.24176    113.11089 
  149000    247.60515   -12591.679   -11317.043   -12591.679            0    1360.3834    47.096368    21.552898    22.024721   -9.1472458   -21.629004    2.9310903    22356.483    1567.1231    1702.3407    811.68657    118.07298    170.14715   -450.67634    47.096368    23.413661    31.007957    68.928919    134.22923    112.99681 
  149500    245.27631   -12639.191   -11376.543   -12639.191            0    1026.0384    47.054943    21.594334     22.01843   -9.5181472   -21.629241     3.137244     22373.37    642.36615    1378.8555    1056.8936    284.16713    226.28814   -79.607372    47.054943    23.598949    31.023824    68.054312    134.20132    113.78647 
  150000    242.69826   -12654.575   -11405.199   -12654.575            0    902.48852    46.778944    21.742565    21.929602   -8.9580344   -21.418519    2.8456745    22304.472    1218.1661    375.87166    1113.4278   -398.91872   -275.10016    77.933911    46.778944    23.515644    30.785683    69.482327    134.08541    112.39188 
  150500    247.57839    -12617.49   -11342.992    -12617.49            0    704.72722     47.20548    21.656093    21.883934    -9.493381   -21.675444    3.0021597    22371.645     953.7166    1299.3144    -138.8493    757.71787     100.9416   -788.34979     47.20548    23.645521    30.947445     68.28152    134.45872     113.6712 
  151000     242.7193   -12655.034    -11405.55   -12655.034            0    827.76155    47.233504    21.505611    21.964019   -9.0928475   -21.661078    2.9478484     22310.73    789.54572    1410.0714    283.66753     -64.9029    511.28803   -638.50916    47.233504    23.348901    30.988873    68.910333    134.34646    112.91926 
  151500    246.16622   -12644.472   -11377.243   -12644.472            0    741.91691    46.918214    21.674252    22.017963   -9.2686326   -21.452336    2.9697358    22390.445    1576.2978    336.14758    313.30533     327.6676   -613.79975    39.781145    46.918214    23.572881    30.883859    68.805897     133.9964    113.15317 
  152000    242.14454   -12664.779   -11418.253   -12664.779            0    1260.6395    46.769667    21.660033    22.017917   -9.3161767   -21.616427    3.0468646    22304.867    1996.4433    743.71805    1041.7572   -127.94981      1009.06   -355.19578    46.769667    23.578554    31.005516     68.54705     134.2012    113.27298 
  152500    246.51876   -12675.145   -11406.101   -12675.145            0     879.2986    47.286674    21.539973    21.915904   -9.1388865   -21.438453    2.8285088    22322.525    23.688213     1127.483    1486.7246   -95.862283   -539.50373     464.8519    47.286674    23.398497    30.788222    69.112241    134.13249    112.99033 
  153000    244.96307   -12663.075   -11402.039   -12663.075            0    324.80605    47.241487    21.615966     21.93906   -9.4211731   -21.824904     2.980047    22403.519    255.78684    242.21082    476.42048    548.67778    103.43809   -14.783569    47.241487    23.579832    31.089057    68.385711    134.58868    113.54966 
  153500    237.37902   -12620.984   -11398.991   -12620.984            0   -43.102623    46.982365    21.768283    21.941261   -9.1192129   -21.399665     2.882476    22439.885    176.43338   -569.40881    263.66756    93.389794   -162.94121    732.46219    46.982365    23.601233    30.784302    69.209061    134.03906    112.72988 
  154000    249.45604   -12651.919   -11367.754   -12651.919            0    165.33214    46.874034    21.734703    22.059262   -9.2870657   -21.564165    3.0531628    22473.826    1111.2728   -420.61059   -194.66583    287.81242    -292.2809   -202.88392    46.874034    23.635712    30.999129    68.659864    134.07806    113.13663 
  154500    238.47722   -12684.252   -11456.605   -12684.252            0    1038.8524    47.026426    21.496893    22.088668   -9.2663575   -21.541147    2.8913036    22329.922    1653.6564    1118.9838    343.91701   -614.22074    194.23642    68.224919    47.026426    23.409011    30.988545    68.847814    134.03778    113.31873 
  155000    250.86094   -12650.485   -11359.088   -12650.485            0    2107.3067    46.759554    21.547872    22.075145   -9.1114702   -21.380752    3.0048833    22242.229    2372.6347    2691.5731    1257.7124    305.05146   -409.87543   -166.67163    46.759554    23.395078    30.878437    68.942841    133.82173    112.92096 
  155500    246.77802   -12634.586   -11364.208   -12634.586            0    1189.9907    46.978216    21.656077    21.928358   -9.2521942    -21.53871    2.9462018     22309.12    1658.2617    612.07342     1299.637   -265.36472    146.08919   -188.06465    46.978216    23.549708     30.87797    68.789691     134.2302    113.13378 
  156000    244.34819   -12714.987   -11457.117   -12714.987            0    928.69663    47.052648    21.652483    21.844958   -9.2255225   -21.611562    2.9414683    22255.789    1582.7792    59.732109    1143.5785   -34.434993   -567.80634    92.903968    47.052648    23.535936    30.869306    68.771742    134.43493    113.07751 
  156500    237.75732   -12617.309   -11393.368   -12617.309            0    88.507071    47.429973    21.604886    21.867803   -9.3290301   -21.721218    2.9498296    22408.357   -498.75549   -132.20151    896.47821    676.16818   -188.56368    291.39557    47.429973    23.532996    30.963101    68.557808    134.54904    113.35478 
  157000      241.292   -12651.027    -11408.89   -12651.027            0    393.95454    47.208831    21.618244     21.90718   -9.3816102    -21.75137    2.9767048    22357.855    -182.5879    411.21511    953.23642    1225.7089    299.02132    96.370694    47.208831    23.566142    31.014632    68.454496    134.53349    113.45927 
  157500    241.22379   -12656.894   -11415.108   -12656.894            0   -139.93635     46.77745    21.753018    22.059248   -9.1182949   -21.235876    2.9062279    22446.404    404.84654   -649.17506   -175.48053    475.40655   -132.83673     721.2382     46.77745      23.5868    30.757422    69.264611    133.66423    112.74215 
  158000    240.51006   -12652.929   -11414.817   -12652.929            0    341.98442    46.854133    21.632188    22.084087   -9.2799907   -21.562737    3.0018879     22383.49    1251.2019    149.10566   -374.35434    269.49371   -544.06584   -529.54036    46.854133    23.538687    31.010802    68.709867    134.05351    113.21885 
  158500    242.46065   -12634.835   -11386.682   -12634.835            0    345.93128    47.127548    21.528393    22.128912   -9.2074707   -21.531922    2.9132141     22451.56    536.35321    625.14015   -123.69953   -483.59566    -418.5245    69.859674    47.127548    23.414722    31.012888    68.937483    133.97062    113.15589 
  159000    252.65081   -12643.418   -11342.807   -12643.418            0    1392.0415    47.154818    21.581408    21.935941   -9.2955516   -21.650388    2.9001445    22323.491     1447.386    1091.5007     1637.238    126.64906   -512.59685    684.60858    47.154818    23.498179    30.956996    68.733766    134.37646    113.30253 
  159500    248.37873   -12651.813   -11373.194   -12651.813            0    1593.4976    46.969799    21.781891    21.768529   -9.2144172   -21.549448    3.0417105    22271.188      1210.45      1048.88    2521.1628   -401.51992    545.80233   -418.04321    46.969799    23.650714    30.781481    68.668619    134.43329    112.92987 
  160000     236.3119   -12591.904   -11375.404   -12591.904            0    1864.1888    47.098665    21.624025     21.85355   -9.2763392   -21.628259    2.8869514    22257.026    1120.5484     2492.415    1979.6031   -8.4237946   -81.803673     86.10403    47.098665    23.529746    30.881932    68.775789    134.45535    113.21851 
  160500    256.09816   -12590.208   -11271.851   -12590.208            0    2487.5224    47.075982     21.52053    21.911066   -9.3041308   -21.551237    2.9471718    22198.103    1508.6612    3470.7719     2483.134    1160.9099   -625.84495    5.3074269    47.075982    23.445684    30.874528    68.615704    134.26888    113.38064 
  161000    234.60734   -12636.732   -11429.007   -12636.732            0    2428.8904    46.827973    21.560358    21.983133   -9.1196356   -21.459066    2.9168452    22194.784    2737.0442     2568.412     1981.215   -765.34063   -82.376818    198.91724    46.827973    23.409758    30.858672    69.025127    134.05896    112.92747 
  161500    249.39877   -12592.441   -11308.572   -12592.441            0    1903.5532    46.850803    21.641229    22.034046   -9.2968522   -21.515947    2.9994625    22340.517    2518.0855    1483.1178    1709.4563    445.20005    112.93735    101.58258    46.850803    23.553647    30.942397    68.682882     134.0555    113.24787 
  162000    242.98923   -12665.878   -11415.004   -12665.878            0   -525.88609    47.158168    21.622488    22.116305   -9.2407249   -21.670494    2.8555941    22551.486    309.72442    -1202.197   -685.18566   -360.04965   -429.85173     573.2259    47.158168    23.514315    31.094946    69.002858    134.17991    113.14024 
  162500    237.94469   -12630.182   -11405.276   -12630.182            0   -163.81822    47.316827    21.634778    21.947052   -9.3134329   -21.703063    3.0148239    22466.957   -1588.6545    24.163964    1073.0359    702.00172    508.65825    333.23453    47.316827    23.554271    31.012662    68.530934      134.412    113.29112 
  163000    235.49154   -12635.879   -11423.601   -12635.879            0    118.07272    46.966196    21.702399    22.012942   -9.2090899   -21.587915    2.9111372    22437.333    400.07153   -628.54436    582.69099   -337.46363   -412.98151    625.66738    46.966196    23.575442    30.969056    68.971755    134.19321    112.99322 
  163500    236.94358   -12635.183   -11415.431   -12635.183            0     971.3614    47.109655    21.621635    21.970091   -9.1941961   -21.368248    2.8571471    22378.467    413.21548    1632.6522    868.21653   -59.960756   -291.15732    176.35862    47.109655    23.495284     30.78068    69.079064    133.96428    113.03672 
  164000    245.64931   -12665.356   -11400.788   -12665.356            0    1358.1911     47.08492    21.523959    21.966117     -9.28078   -21.755683    3.0487548    22261.647    893.41119     1969.113     1212.049    1120.8631   -303.68288   -188.02289     47.08492    23.439575    31.066299    68.444868    134.45096    113.32492 
  164500    249.82438   -12603.451    -11317.39   -12603.451            0     1524.464    46.938172    21.649204    21.946924   -9.2606142   -21.363218     2.824762    22301.895    1210.9173    1978.4404    1384.0344   -84.983368    631.22693    495.68484    46.938172    23.546698    30.757663    69.046985    133.99262    113.15919 
  165000    249.02139   -12611.389   -11329.462   -12611.389            0    2097.8052    46.903781    21.718819    21.830439   -9.1803043   -21.739196    3.0750671    22238.554     2268.846    1292.8027     2731.767   -247.25971   -135.66427    34.559195    46.903781    23.579336    30.961537    68.601681    134.59859    112.91324 
  165500    245.30099   -12672.985    -11410.21   -12672.985            0    738.91929    47.281879    21.588052     21.85705   -9.3912892   -21.605574    2.8987657    22310.008    407.46205    165.20156    1644.0943    503.45991   -501.54341    699.86529    47.281879    23.542309    30.869634    68.573625    134.41877    113.51013 
  166000    245.53988   -12644.699   -11380.694   -12644.699            0    959.56506    47.114411    21.602211    21.942737   -9.0969508   -21.627875    2.8433813    22332.778    487.89512    1549.0618     841.7382    68.706182    164.71417    69.498183    47.114411    23.439497    30.940806    69.146381    134.34748    112.83654 
  166500    239.43396   -12679.224   -11446.652   -12679.224            0    460.98053    46.885485     21.66944    21.984651    -9.503692   -21.604082     3.240532    22336.014    610.93823    596.48309    175.52028    419.60164   -4.2799564    -369.9669    46.885485    23.661885    30.992939    67.930819    134.19197    113.68109 
  167000    244.48004   -12683.338   -11424.789   -12683.338            0     924.1795    46.947088    21.587796    22.031896    -9.095316   -21.466276    2.7925572    22328.978    647.45629    2044.0484    81.033769   -1132.4094    612.06575    106.44092    46.947088    23.425578    30.886953    69.319226    134.02682    112.84654 
  167500    244.00221   -12677.637   -11421.548   -12677.637            0    702.23723    47.058856    21.508496    22.070133   -9.3202051   -21.588093    3.1438026     22338.62    951.45433    802.90723    352.35015   -242.29013    244.24024   -398.04057    47.058856    23.441024    31.032564    68.312108    134.07978    113.42837 
  168000    245.53171   -12589.032    -11325.07   -12589.032            0    1159.0665    46.989164    21.686147      21.9638    -9.133733   -21.555279    2.7805808    22381.418    551.50613    2008.8899    916.80339   -316.40748     278.6667    1023.2095    46.989164     23.53113    30.899356    69.285693    134.23448    112.83977 
  168500     242.4285   -12615.913   -11367.926   -12615.913            0    1379.7683    47.046773    21.698971    21.871248   -9.1528319   -21.522303    2.9949741    22327.626    1667.6185    659.05474    1812.6316   -719.87893    660.80842    295.00426    47.046773    23.550364    30.830681     68.84978    134.27322    112.87048 
  169000    244.31744   -12625.313   -11367.601   -12625.313            0    1800.3807    47.044479    21.605497     21.89386   -9.4848579   -21.731535    2.8842433    22253.343    1885.6621    1759.8973    1755.5828    438.69974     457.3803    281.97007    47.044479    23.595763    30.982569    68.457656    134.54037    113.70157 
  169500     253.9335   -12640.397   -11333.183   -12640.397            0    2169.9609    47.112572     21.56504      21.9166    -9.034806   -21.485687    2.8686009    22266.926    1905.9557     2498.226    2105.7011   -19.807668   -687.37019   -228.92506    47.112572     23.38116     30.82533    69.196296    134.18793    112.73155 
  170000     242.9842   -12644.541   -11393.693   -12644.541            0    1160.0544    46.994919    21.623106    21.950334    -9.373294   -21.588906    3.0950258    22305.405    1707.0739    1234.3669    538.72224    520.13594   -146.22497   -715.72209    46.994919    23.567294    30.943129     68.32985    134.24247    113.43601 
  170500    237.08172   -12663.927   -11443.464   -12663.927            0    267.90542    46.775733    21.642141    22.105269   -9.1101808   -21.512034    2.7021056    22377.761    1118.5479    362.85526    -677.6869   -148.49101    40.021001    64.507615    46.775733    23.481432    30.963074     69.51371    134.00843    112.82848 
  171000    248.59742   -12660.112   -11380.367   -12660.112            0    401.01485    47.016175    21.685253    22.016829   -9.2782017   -21.428508    3.1319524    22447.427    872.78154    113.82414    216.43887    -176.1711   -105.35515    -53.82344    47.016175     23.58676    30.882533    68.519546    133.93735    113.16403 
  171500    245.50198   -12636.498   -11372.689   -12636.498            0    932.69377    47.090719    21.531549    22.070457    -9.283785   -21.718309    2.8163843    22378.034    496.68467    1550.2921    751.10452    690.24419    655.56567    292.77427    47.090719    23.447735    31.092154     68.91542    134.30791    113.32432 
  172000    242.83751   -12631.345   -11381.251   -12631.345            0    1489.7398    47.159097    21.647807    21.785688   -9.2924082    -21.57946    3.0370273    22240.814    556.47264     1856.702    2056.0448    648.63387   -99.825293   -177.52269    47.159097    23.557937    30.814166    68.481317    134.45186    113.23162 
  172500    249.72066    -12630.78   -11345.253    -12630.78            0    1139.8855    47.066226    21.635366    21.895222   -9.2547242   -21.630774    2.9888894    22295.795    788.18496    1113.0026    1518.4689    159.80641   -105.65561   -329.67507    47.066226    23.531659    30.922881    68.655477    134.38747    113.15926 
  173000    242.75651   -12656.372   -11406.695   -12656.372            0     1736.476     46.99841     21.48647    21.987833   -9.2299845   -21.523148    2.6892622    22203.972    1547.1267    2143.7956    1518.5056   -588.41548   -383.06515    549.01651     46.99841     23.38506    30.885965    69.203571     134.1755      113.247 
  173500    255.25933   -12655.715   -11341.676   -12655.715            0     1358.183    46.856669    21.650505    21.979011   -9.2348054   -21.510632    3.2044158     22297.06    1922.2945    757.97338    1394.2812   -282.81212    18.998444   -166.07468    46.856669    23.537757    30.920099    68.390987    134.08179    113.10018 
  174000    242.87198   -12649.079   -11398.808   -12649.079            0    1447.8084    46.818542    21.597458    22.011302   -9.1389766   -21.477571    2.7295411    22256.982    1840.8103    1432.2301    1070.3846   -196.77084    478.27885     599.6392    46.818542    23.451463    30.874485    69.359199    134.07835    112.93568 
  174500    243.76884   -12607.347    -11352.46   -12607.347            0    56.690382    47.261085    21.597605    22.007712   -9.4400575   -21.696711    3.0791512    22463.849    65.851346     790.1924    -685.9726   -288.27394    201.40616   -470.02373    47.261085    23.570558    31.057493     68.24522    134.31465    113.60957 
  175000    245.00883   -12664.429   -11403.158   -12664.429            0   -278.86367    47.090422    21.713945    21.968586   -9.0441686   -21.474722    3.0149955    22463.292    -633.4473   -217.26068    14.116955   -36.556404   -216.05636   -305.36475    47.090422    23.522168    30.868635    69.044074    134.08151    112.61243 
  175500    244.54883   -12673.783    -11414.88   -12673.783            0    685.51999    46.977563    21.594094    22.032577   -9.3465496   -21.584164    2.8740787    22350.681    1318.3217    761.10858   -22.870313    672.98441   -50.538267   -96.665442    46.977563    23.530042    30.976942    68.781744    134.16936    113.40436 
  176000    240.30878   -12664.685   -11427.609   -12664.685            0    485.19535    47.081552      21.6596    21.934803   -9.1996154   -21.579653    3.1114243    22368.401   -600.95364    662.23293    1394.3068    377.87887     259.2663   -99.629115    47.081552    23.532343    30.927302    68.569358     134.2471    113.01269 
  176500    245.05764   -12612.428   -11350.906   -12612.428            0    1375.0358    47.196672    21.595942    21.879973   -9.2584175   -21.528889     2.658924    22301.307    743.29067    2307.9728    1073.8438   -83.381066   -99.897616   -63.525799    47.196672    23.496872    30.810651    69.228415    134.32666    113.20535 
  177000    239.79458   -12648.974   -11414.546   -12648.974            0    819.03538    47.109579    21.642132    21.944016   -9.3719086   -21.747684    3.0890222    22373.059    337.17931    446.79618    1673.1307    723.14506   -216.35959   -673.35079    47.109579    23.584201    31.049052    68.306994     134.4615    113.41454 
  177500    241.81678   -12631.305   -11386.467   -12631.305            0    546.25524    47.017688    21.660018    21.984002   -9.0918651   -21.392031    2.9177225    22388.595    1035.7556    277.40858    325.60154   -951.95726    -740.1805    202.76881    47.017688    23.490815    30.812796    69.144215    133.96812    112.77039 
  178000     253.3817   -12639.475   -11335.101   -12639.475            0      288.479    46.911012    21.569941     22.17237   -9.5168209   -21.728573    3.0236075    22435.506    993.56766   -361.61312    233.48245    381.66259    847.77348   -274.38318    46.911012    23.576094    31.191138    68.291021    134.15697    113.80743 
  178500    235.91847   -12675.546    -11461.07   -12675.546            0    1234.0085    46.927834    21.583976    22.011923   -9.1174463   -21.387786    3.0075067    22295.641    1276.0471    1183.3716    1242.6067    -457.7565   -80.874284    424.40728    46.927834    23.430661    30.838406    68.917411    133.91129    112.90004 
  179000    246.29413   -12647.852   -11379.965   -12647.852            0    779.90955    46.996446    21.625105    21.999712   -9.1142232   -21.526448    2.8097537    22358.375    549.77758    886.94967    903.00139   -472.24656    307.41308   -53.124252    46.996446    23.467301    30.907443    69.251206    134.14536    112.85372 
  179500    244.94712   -12617.527   -11356.574   -12617.527            0    1179.0988    47.114004    21.728634    21.847601   -9.4414643   -21.641904    3.2040123    22365.891    1132.2182    994.69371    1410.3845    261.53532   -117.17621   -175.85783    47.114004    23.691239    30.918528    68.037839    134.42424    113.48577 
  180000    240.62756   -12628.217   -11389.501   -12628.217            0    1301.9658    47.097925    21.661453    21.875111   -9.1020145   -21.549971    2.8107865    22317.196     1445.513    1026.4537    1433.9308   -505.31585    19.368546    58.694873    47.097925    23.496068    30.835406    69.220721    134.33649    112.79186 
  180500    244.28367   -12599.725   -11342.187   -12599.725            0    763.19996    47.098537    21.625527    22.016457   -9.3646024   -21.646455    3.0998279    22424.438    1018.0197    933.14242    338.43773    825.40286    -640.0657   -559.79583    47.098537     23.56606    31.030668    68.353881    134.23338    113.41428 
  181000    245.44422   -12667.874   -11404.361   -12667.874            0    773.73589    46.836824    21.530965    22.151361   -9.1587157   -21.439367    2.9342007    22338.364    1761.8143     440.9788    118.41462    293.33896    -281.7066    43.523013    46.836824     23.39796    30.966737    69.010612    133.81526    113.04365 
  181500    246.64702   -12660.524    -11390.82   -12660.524            0     860.5531    46.894982    21.625373    22.039781   -9.2185633   -21.504849    2.8688736    22351.016    1501.3863    799.31778    280.95526    426.80953   -1029.7821    992.02709    46.894982    23.508268    30.926379    69.021812    134.05561     113.0878 
  182000    252.91919   -12657.762   -11355.769   -12657.762            0    931.92913     47.13715    21.668904    21.879625   -9.3744597   -21.631588    3.2793637    22348.076   -119.98009    1086.6535    1829.1139    256.95544    22.223871   -256.12391     47.13715    23.609784    30.941846    67.984502    134.35521     113.3944 
  182500    240.65592   -12601.089   -11362.227   -12601.089            0    723.83674    47.166018    21.599561    21.962521    -9.169285    -21.64573     2.674416    22374.653    48.040928    1387.7454    735.72386   -252.48938     361.1847     572.0806    47.166018    23.465226    30.952261    69.341092    134.37298    113.00183 
  183000    246.14584   -12642.733   -11375.609   -12642.733            0    367.96537    47.103064    21.682658    21.941266   -9.3341305   -21.634434    3.0220737    22409.046    197.00001   -105.01263    1011.9087   -172.59827    54.372229     99.11958    47.103064    23.606432     30.96128    68.534132    134.32742    113.29131 
  183500    251.80193   -12656.459   -11360.219   -12656.459            0    1257.4103    46.968247    21.623776    21.976081   -9.0852747   -21.445666    3.0809713    22319.586    1250.5851    1092.9783    1428.6675    -1093.153   -253.33415   -242.71051    46.968247    23.454848    30.860284    68.824643    134.02146    112.78981 
  184000    247.08613   -12638.951   -11366.987   -12638.951            0    1387.9385    46.908239    21.560133    22.024512   -9.3593183   -21.590462    2.8100863    22274.444    2064.3872    1365.8397    733.58848    -113.4396   -444.24559    746.77433    46.908239    23.503961    30.969724    68.848345    134.19858    113.46581 
  184500     246.8105   -12615.006   -11344.461   -12615.006            0    1563.7975    46.997073    21.588524    22.015903   -9.1509997   -21.402836    3.0656378    22337.279    831.87884    2439.1012    1420.4124    -1062.912    128.22191   -682.99616    46.997073    23.447924    30.857407    68.766928    133.91612    112.97124 
  185000    246.97054   -12664.374   -11393.004   -12664.374            0    877.64683    46.701851    21.652945    22.095227   -9.1794974   -21.523922    2.8415665    22343.414    1553.0606    804.52378    275.35616   -277.11663    566.75761    306.70358    46.701851    23.518359    30.976649     69.16596    134.01474    112.97391 
  185500    247.37384   -12636.523   -11363.077   -12636.523            0    686.28976    47.137023    21.643344    21.955517   -9.3330545   -21.533669    2.9983988     22399.08    1205.4735    184.55121    668.84459    563.13438   -200.72685   -324.54822    47.137023    23.569902     30.89877    68.588384    134.17963     113.3267 
  186000    248.43907   -12630.871   -11351.942   -12630.871            0    310.06694    47.245703    21.630806    21.904013   -9.1069187   -21.748453    2.9193558    22385.083    -10.80585    55.996546    885.01013    331.31616    127.90394   -91.280357    47.245703     23.46972    31.004897    68.963428    134.54363    112.83188 
  186500    241.33859   -12637.291   -11394.914   -12637.291            0    693.57979    47.138994    21.700126      21.8621   -9.5917567   -21.565225    2.9467444    22363.225    1208.1007    -201.6985    1074.3372    619.12159    51.085608     195.6492    47.138994    23.725456    30.849532    68.285815    134.35047    113.84609 
  187000    254.48284    -12704.07   -11394.028    -12704.07            0    1377.1247    47.040187    21.632417    21.918712   -9.0519433    -21.63543    2.9752114    22304.327    885.45352    1492.2393    1753.6813   -1143.2239    1051.8764    133.80995    47.040187    23.449929    30.941455    68.984698    134.36587    112.70655 
  187500    255.08029   -12658.362   -11345.244   -12658.362            0    1354.3332    47.064267    21.606016    21.939594   -9.3125866     -21.4525    2.9422765    22309.743    1976.3457    988.02442    1098.6294   -367.56895   -413.21903   -588.72279    47.064267     23.52752    30.825517    68.708317    134.10162    113.31692 
  188000    250.79463   -12650.649   -11359.594   -12650.649            0    1267.2026    46.847125    21.509645    22.142196   -9.0790168   -21.862936    3.0410053    22311.916    1586.9154    1579.7086    634.98372    48.600641    683.75373   -304.70697    46.847125    23.347234    31.265197    68.805478    134.36878    112.88415 
  188500    249.66243   -12637.401   -11352.174   -12637.401            0    1011.8531    46.856874    21.676599    21.999558   -9.2682657   -21.276227    2.9070331      22344.9    1571.7318    748.52735    715.30019    152.36708   -172.64355    194.30079    46.856874    23.574896    30.742629    68.959381    133.79465     113.1501 
  189000    239.44174   -12674.698   -11442.086   -12674.698            0    489.21016    47.025615    21.594066     21.97656   -9.2367571   -21.790582     3.070781    22316.631    1190.6396    338.73702   -61.746139   -270.04149    906.28593   -693.89103    47.025615    23.486621    31.100295    68.510328    134.47959    113.15858 
  189500    239.59251   -12617.666   -11384.278   -12617.666            0    724.80078    47.403017    21.562036    21.908982   -9.3130878   -21.598814    2.8042308    22393.293    508.01424    55.947668    1610.4404    443.80637    -1451.938    421.75906    47.403017    23.487337    30.892976    68.865706    134.35882    113.36051 
  190000     250.2078   -12609.585   -11321.551   -12609.585            0    359.76253    47.113337    21.694106    21.939996   -9.2465807   -21.717573       3.0251     22424.47   -450.03779    741.59429     787.7311    163.47835    1209.5779   -391.42909    47.113337    23.582483    31.018827    68.639331    134.43837    113.08494 
  190500    253.09991   -12615.485   -11312.562   -12615.485            0    1041.5177    46.906679    21.703833    21.973902   -9.2881543   -21.486227    2.8981655    22370.635     1171.209    201.86401    1751.4799    -4.893575    -225.7941    285.34158    46.906679    23.607757    30.869236    68.889904    134.11016     113.1685 
  191000    245.22399   -12636.857   -11374.479   -12636.857            0    944.46648     46.98387    21.570154    22.083334   -9.1654545   -21.483344    3.0547876     22380.34    763.15706      2147.77   -77.527637    463.00917    170.52721   -447.00326     46.98387    23.436662    30.960287    68.766121    133.93963     113.0213 
  191500     239.9535   -12624.643   -11389.396   -12624.643            0     1487.462    46.994869     21.49989    22.056608   -9.2090075   -21.620093    2.9931698    22285.655    1952.6303    2109.6613    400.09438   -787.23609    -137.6526   -678.75639    46.994869    23.389123    31.030331    68.715695    134.16609    113.18681 
  192000    245.68722   -12612.117   -11347.354   -12612.117            0    1004.2091    46.934415    21.654001    21.988364    -9.292803   -21.352623    2.8330193    22347.167    877.91229    1032.3206    1102.3943   -623.26597   -596.45823   -229.47131    46.934415    23.563785    30.780654    69.013155    133.92393    113.22656 
  192500    246.18536   -12619.071   -11351.744   -12619.071            0    588.32597    47.012637     21.70942    21.945159   -9.1874962   -21.813374    3.1058298    22397.604    386.28281     768.8106    609.88451   -141.80179      1022.53   -576.06758    47.012637    23.573481    31.097579    68.570378    134.54339    112.93824 
  193000    245.04332   -12646.514   -11385.066   -12646.514            0    1043.5486    47.127985    21.676213    21.883269   -9.2984143   -21.400979    2.8617874    22354.989    833.87795    587.98155    1708.7864   -373.88899   -152.69711    434.85497    47.127985    23.586409    30.741977    68.900274     134.1188    113.21781 
  193500    246.54824   -12610.239   -11341.044   -12610.239            0    1548.4712    47.073066    21.619979    21.930476   -9.1506637   -21.829456    2.9069922    22319.055    1759.1578    1179.1808     1707.075    -349.7776     948.4322   -56.191559    47.073066    23.476758    31.079278    68.905487    134.61825    112.94053 
  194000    244.36855   -12610.884    -11352.91   -12610.884            0    1044.3137    47.248035    21.563589    21.956214   -9.4170934   -21.468594    3.0424907    22369.808    1295.7515    1023.4721    813.71758    93.085571   -745.60415   -633.37771    47.248035    23.530194    30.858267    68.358988    134.08431    113.59151 
  194500    244.32568   -12631.729   -11373.975   -12631.729            0    1061.7278    46.993344    21.643375    21.994458   -9.1247774   -21.566181    2.8687606    22370.443    592.41012    1570.6784     1022.095   -388.78541    126.22294    60.457016    46.993344    23.488236    30.936808    69.129351    134.19514    112.86013 
  195000    251.47444   -12623.292   -11328.737   -12623.292            0    1515.8117     47.04487     21.60661    21.934845    -9.467369   -21.582782    3.2436024    22296.335    686.42425    2293.5029    1567.5081    467.60336    229.81314   -875.95367     47.04487    23.589758     30.94309    67.917428    134.22671    113.66159 
  195500    245.33843   -12583.776   -11320.809   -12583.776            0    1404.4698    47.026454    21.575686    21.995819   -9.1023723    -21.56595    2.7725101    22317.574    580.93277    1704.2786    1928.1981   -603.77596    452.63582   -1.7685747    47.026454     23.41716    30.928839    69.290659     134.2089    112.87396 
  196000    250.15794   -12640.747   -11352.969   -12640.747            0    1829.9308    46.881308    21.670736    21.946571   -9.2987341   -21.522503    3.1599942    22296.673    1961.5937    1529.0649    1999.1339    57.461334    160.71632   -693.03402    46.881308    23.581502     30.90074    68.369191    134.14723    113.22377 
  196500    248.86262   -12597.832   -11316.723   -12597.832            0    1501.5895     46.99301    21.639427    21.932979   -9.2088815    -21.47898     2.859468    22303.686    1349.0118    1401.0605    1754.6963     -414.218     669.4023    -168.3007     46.99301    23.517404    30.831456    69.014329    134.15948    113.05268 
  197000    237.22055   -12593.711   -11372.533   -12593.711            0    152.55388    47.229418    21.576663    22.012635   -9.2550546   -21.822775      2.93392    22432.046    66.707871    395.45512   -4.5013384   -634.89324     880.9804   -308.53019    47.229418    23.477828    31.135148    68.721558    134.49964    113.21634 
  197500    230.02203       -12612   -11427.879       -12612            0   -119.29499    47.288101    21.666654    21.968571   -9.4323098   -21.445768    3.0917466    22508.447   -403.06005   -28.729718    73.904802    244.35083   -817.61906   -403.86561    47.288101     23.63075    30.856085    68.327975    134.02925    113.52531 
  198000    240.43595   -12604.844   -11367.114   -12604.844            0    1081.3275    46.853328    21.651669    22.061931   -9.1083248   -21.587492    2.8245168    22380.787    1873.1142    115.89836    1254.9698   -392.23111   -622.42735    46.780411    46.853328    23.489495    30.995589    69.264099    134.14446    112.81529 
  198500    246.36561   -12615.126    -11346.87   -12615.126            0    1388.5037    47.013222    21.703319    21.902771   -9.3796709   -21.434078     3.035789    22348.338    1520.3908    1021.4918    1623.6285   -109.39642    -1026.656    180.97788    47.013222     23.64344    30.795569    68.493495    134.10789    113.37288 
  199000     257.6417   -12653.788   -11327.485   -12653.788            0    1082.8775     47.31569    21.507146    21.935919   -9.0592392   -21.839169    2.9113135    22322.549    663.83964    1854.3216    730.47137   -493.74329    83.525886   -636.86892     47.31569    23.337248    31.090346     68.96263    134.62327     112.8418 
  199500    248.04976   -12597.611   -11320.685   -12597.611            0    1382.3598    47.004644    21.600589    21.993223   -9.4310642    -21.56228    2.8864957    22330.335    1461.1651    849.25248    1836.6618   -52.721342     32.44776   -73.323648    47.004644    23.569693    30.934861    68.628322    134.18857    113.58663 
  200000    237.00266   -12624.023   -11403.967   -12624.023            0    1246.8366    46.792813    21.699818    22.015389   -9.0609302   -21.462063    3.1399282    22354.328    2251.2296     200.0189    1289.2614   -377.91169   -272.58819    -133.7619    46.792813    23.515582    30.905609    68.818041    133.98254    112.66336 
  200500    238.14067   -12663.532   -11437.617   -12663.532            0    1549.0365    46.912059     21.56104    22.026864   -9.2166766   -21.410312    2.8457741    22279.573    1848.8565    2386.5851    411.66802     265.1285   -341.77203    49.225442    46.912059    23.448359    30.849354    69.045951     133.9498    113.14521 
  201000     255.3742   -12609.886   -11295.256   -12609.886            0    1273.5172    47.141646    21.537017    21.987748   -9.3818864    -21.81389    3.0518661    22323.951   -304.36979    2179.4033    1945.5182    572.13703    1060.6247    25.365347    47.141646    23.491762    31.122673    68.295622    134.49928    113.53875 
  201500    244.31392   -12608.728   -11351.034   -12608.728            0    665.43917    47.028241    21.671496    21.942156   -9.1215143    -21.50024    2.8959046    22362.839    1156.3667     6.657474    833.29336   -124.18861    268.31077    338.09171    47.028241    23.512885    30.856196    69.095483     134.1699    112.82618 
  202000    247.48232   -12659.379   -11385.375   -12659.379            0    339.43673    47.095458    21.684979    21.923481   -9.4374195   -21.772743     2.962846    22389.663   -137.98198   -391.62622    1547.9184    323.42331    637.15241     774.4032    47.095458    23.649592     31.03981     68.44236    134.54311    113.51893 
  202500    248.48169   -12697.037   -11417.888   -12697.037            0    48.051182    47.354658    21.547028    21.958685   -9.0677893   -21.631215    2.9434074    22405.591   -556.03139    806.06787   -105.88293   -492.56609   -217.10994   -55.859874    47.354658    23.377323    30.963801    68.986088    134.31454    112.82317 
  203000    241.15885   -12730.411   -11488.959   -12730.411            0    168.34898    47.035328    21.566503    22.026519   -9.3310068   -21.518612    2.8681937    22343.426    172.09548    980.28398   -647.33252   -99.008506   -341.31009   -254.04937    47.035328    23.498548     30.92644    68.813099    134.09099     113.3963 
  203500    246.52585   -12609.932   -11340.852   -12609.932            0    1186.1903    46.602179    21.812376    21.989901   -9.1406199   -21.565628    3.0271765    22352.828    1747.5573    572.13537    1238.8782    41.460377     592.7378   -123.34543    46.602179    23.650173    30.948277    68.928534    134.17307    112.73644 
  204000    239.68273   -12606.634   -11372.782   -12606.634            0    1174.6475    47.010722     21.61464    21.937999   -9.2408133   -21.427992    2.8833262    22291.635    1183.7323    939.86664    1400.3436    155.45483    323.07221   -137.37168    47.010722    23.507132    30.801756    68.927606    134.08098    113.14795 
  204500    237.29659   -12631.169     -11409.6   -12631.169            0    936.69804    47.291744    21.493985    21.988283   -9.3235751   -21.847534    2.9409228    22350.826    445.82084    911.83596    1452.4373    161.03499      100.226   -226.09301    47.291744    23.429051    31.135966    68.537838    134.56208    113.45004 
  205000     237.5801   -12643.661   -11420.632   -12643.661            0    1464.2874    47.046466    21.713566    21.834362   -9.1386916   -21.322145    2.9618649    22304.818     752.7883    1093.5856    2546.4883   -952.59272    95.403331     137.7143    47.046466    23.558324    30.661799    68.974047    134.05892      112.825 
  205500    246.24594   -12611.092   -11343.453   -12611.092            0    1431.7786    46.880252    21.728529    21.891664   -9.2628786   -21.744515    2.9353138    22299.701    1521.3568    1091.5506    1682.4284    312.12419    1009.0119    269.35069    46.880252     23.62054    30.994918    68.762602    134.55157    113.08857 
  206000    235.08762   -12674.696   -11464.498   -12674.696            0     646.5759    47.163087    21.602962    21.925008    -9.334152   -21.486878    2.9770661    22338.566    356.57961    1118.2917     464.8564    823.84906   -580.46807   -263.58379    47.163087    23.533261    30.842419    68.596661    134.16016    113.36808 
  206500    247.59354   -12613.427    -11338.85   -12613.427            0    785.48411    47.226913    21.460524    22.125897   -9.0830149     -21.8141      2.84797    22424.912    -317.6359    1302.3036    1371.7846    506.16511   -6.0430762   -433.38594    47.226913    23.303546    31.201302     69.11078     134.3581    112.94017 
  207000    240.35797   -12617.306   -11379.977   -12617.306            0    1122.3497    46.807623    21.681983    22.018485   -9.3367483   -21.378686    2.9970373    22346.166    1622.1669    1494.2943    250.58798    794.21017    -219.7294    176.61578    46.807623    23.606848     30.83576    68.685993    133.89256     113.2978 
  207500    243.60566   -12651.144   -11397.097   -12651.144            0    971.24201     46.83874    21.680798    21.962457    -8.961735   -21.490698    2.9858392    22302.902    1504.7903    571.54584    837.38988   -791.05331   -98.787858    353.84366     46.83874    23.459959    30.872558    69.188459    134.11574     112.4577 
  208000     237.1727   -12610.012    -11389.08   -12610.012            0    649.83225    47.349226     21.54127    21.973536   -9.4881882   -21.750227    2.9463044    22412.181    413.43155    947.53776    588.52744    508.56111    406.49127   -257.43724    47.349226    23.538309    31.057839    68.339271    134.45217    113.77184 
  208500    244.74354    -12643.16   -11383.254    -12643.16            0    582.76696    47.107407    21.629251    21.984555   -9.2106671   -21.600178    2.8519172    22400.017    854.19574    886.80855    7.2965968   -431.06408    137.32438    390.29142    47.107407     23.50874    30.951926    69.010649    134.25573     113.0664 
  209000    243.18709   -12615.171   -11363.278   -12615.171            0     230.3557    46.980751    21.730819    21.994278   -9.1485225   -21.511482    3.1061133    22454.622    1509.3612      -267.58   -550.71408   -503.32484    -590.0985    -304.6683    46.980751     23.57804    30.921515     68.74541    134.08144    112.83075 
  209500    243.70736    -12605.58   -11351.008    -12605.58            0    1641.7202    46.788881    21.531262    22.134653   -9.4033037   -21.583548    2.7404028    22298.973    3069.6035    2009.4396   -153.88245    401.65483    119.65439    269.75074    46.788881     23.49505     31.03711    68.946761    134.05998    113.59224 
  210000     246.6054   -12639.268   -11369.778   -12639.268            0    1113.7414      47.0055     21.58685    22.025538   -9.1807992   -21.470635    2.9869554    22349.329    891.52496    1717.3077    732.39161   -418.31487   -196.07526    200.70903      47.0055     23.45803    30.903631    68.847377    134.00817    113.03985 
  210500    244.56423   -12611.392    -11352.41   -12611.392            0    815.44079      47.0569     21.62712    21.972228   -9.3300367   -21.578534    3.0624206    22361.251    657.21662    1477.5937    311.51208       205.57    95.309189   -769.05706      47.0569    23.553809    30.948188    68.466236    134.20655    113.33558 
  211000    248.43401   -12619.232   -11340.329   -12619.232            0    951.45077    47.141944    21.653056    21.854451   -9.2113005   -21.657806    2.6983689    22308.305    7.9514956    1093.4878     1752.913    625.03472    308.31517    678.86786    47.141944    23.530892    30.886223    69.213516    134.52436     113.0451 
  211500    241.15458    -12650.13   -11408.701    -12650.13            0    639.62423    47.141557     21.72613    21.836412   -9.2931851   -21.569606    3.1794701    22364.931    888.22146   -458.10324    1488.7545     56.02937   -290.89925   -463.26351    47.141557    23.630235    30.857508    68.306798    134.34737    113.15845 
  212000    248.96224   -12675.819   -11394.196   -12675.819            0    733.25023    46.966447    21.589774    22.014257   -9.1575336   -21.663519    2.7478911    22322.347     460.6598    906.56608    832.52482   -527.11811      575.495    1287.3787    46.966447    23.451626    31.007845     69.24361     134.3185    112.98475 
  212500    246.89332   -12613.124   -11342.152   -12613.124            0    915.17092     47.03073     21.61655    22.031467   -9.2455878   -21.419552    3.0331182    22398.118    1144.3197    1059.6329    541.56012   -443.60985   -45.312991     24.17445     47.03073    23.510767    30.876894    68.708174    133.92436    113.15682 
  213000    237.72573   -12635.341   -11411.563   -12635.341            0    1228.6638     46.71786     21.68642    22.011997   -9.0907084   -21.617466    3.1290098    22301.304    1858.9261    1328.1022    498.96294   -762.05103    546.73462    -1197.084     46.71786    23.514714    31.010217      68.7427    134.19543    112.74289 
  213500    245.17296   -12607.518   -11345.402   -12607.518            0    1056.3948    47.046243    21.625025    21.984102   -9.3905313   -21.315811    2.7883995    22366.102    717.97371    1620.7723    830.43852    725.55795   -199.76336    424.53959    47.046243    23.575916    30.748003    68.942364     133.8873    113.47259 
  214000    240.88521   -12615.498   -11375.455   -12615.498            0    341.76602    47.268752    21.598631    21.960018    -9.142599   -21.848554    3.0240554    22419.868    152.61376    520.16597    352.51833   -701.07798    709.17882   -219.66982    47.268752    23.453954    31.124695     68.70879    134.58515    112.94271 
  214500    239.99479   -12624.273   -11388.814   -12624.273            0     665.3456    47.143012    21.637659    21.875507   -9.5111491   -21.473708    2.8783918    22314.426    933.03118     360.7658    702.23983    385.26453   -524.99315   -220.48834    47.143012    23.635783    30.788684    68.515825    134.22314    113.72859 
  215000    242.38697   -12680.279   -11432.505   -12680.279            0      1158.77    46.873803    21.627341     21.97676   -9.0007895   -21.594312    2.9078088    22279.066    1074.3299    1411.9396    990.04056   -956.40804    438.37312    385.08403    46.873803    23.425543    30.947498    69.215641    134.24856    112.59593 
  215500    241.86516   -12572.254   -11327.167   -12572.254            0    946.25477    47.165569    21.556062    22.048533   -9.4288768   -21.562316    3.0405455     22416.83    515.73618    1793.3634    529.66471   -312.12205    110.80271   -900.61093    47.165569    23.528016    30.988968    68.362156    134.09149    113.62514 
  216000    245.85666   -12665.175    -11399.54   -12665.175            0    708.35994     46.80279    21.601756    22.072678   -9.0428848   -21.515715    2.8006031    22315.974    651.71671    1846.3977   -373.03461    30.393591    842.56386   -377.52999     46.80279    23.418148    30.951131    69.396549    134.03926    112.71506 
  216500    244.10322   -12652.865   -11396.256   -12652.865            0    1151.6864     46.93658    21.642055    21.957762   -9.2328083   -21.509664     2.956067    22304.783    1737.6229    1303.2392    414.19713    613.65868   -251.47281   -146.19587     46.93658    23.529201    30.879561    68.814894    134.15217    113.10378 
  217000    245.99284   -12594.069   -11327.732   -12594.069            0    1422.1035    47.120656    21.598733     21.89011   -9.3820582   -21.641271    2.9325062    22278.582    1324.5098    1719.4813    1222.3196    488.46863    215.55732   -336.48676    47.120656    23.548424    30.921209    68.541284    134.41773    113.47916 
  217500    252.06343   -12646.889   -11349.302   -12646.889            0      1087.77    47.287577    21.574297    21.843827   -9.0601407   -21.632628    2.9172521    22284.989    787.30218     709.4346    1766.5732   -406.30365   -318.46008    2.8925875    47.287577    23.399496     30.88096    69.002037    134.46847       112.78 
  218000    248.87956   -12627.672   -11346.476   -12627.672            0    374.63401    47.036689    21.635705    21.974093   -9.3982943   -21.619614    2.9274294    22362.418    608.54359    111.40829    403.95014   -40.320761    182.30807   -20.804667    47.036689    23.588804    30.965115    68.599365    134.28217    113.47956 
  218500    242.26054   -12634.951   -11387.828   -12634.951            0    165.83299    47.022004    21.661277    22.030618    -9.126852   -21.529154    2.9482745    22439.433   -463.08023   -1.9211717    962.50036   -641.97883    324.05067    754.45963    47.022004    23.505538    30.944223    69.025812    134.08627    112.84784 
  219000     244.5048   -12681.019   -11422.343   -12681.019            0    538.39329    47.020206    21.579092    22.056013   -9.5315235   -21.524553    3.0009914    22379.208    362.47382    1264.4194   -11.713316   -23.537389    170.76205   -286.09636    47.020206    23.590404    30.964174    68.313826    134.03868    113.83113 
  219500    242.10672   -12690.126   -11443.795   -12690.126            0    1423.2349    46.989661    21.535867    22.000931    -9.154756   -21.610252    2.8499612     22264.13    1600.9246    1633.3137    1035.4664    11.613059    193.58973   -65.071135    46.989661    23.400921    30.970409    69.043116    134.24844    113.03003 
  220000    241.15795   -12617.416   -11375.969   -12617.416            0    839.82593    47.130915     21.69912    21.870472   -9.2564104   -21.371071    3.1068784    22366.918    328.34711    499.46594    1691.6647     394.2036   -897.97355   -195.75177    47.130915    23.590951    30.735857    68.543285    134.05224    113.10213 
  220500     242.9911   -12623.449   -11372.565   -12623.449            0    1042.9969    47.043141    21.626185    21.932669    -9.238004   -21.878436    2.8384595    22313.501    716.45689    626.52424    1786.0097    664.29038    728.22166    70.275534    47.043141    23.516645    31.108918    68.888868    134.69116     113.1306 
  221000    241.89021   -12612.843   -11367.627   -12612.843            0    1205.2219    47.193477    21.625968    21.877776   -9.3832118   -21.455207    2.9162503    22328.559    1160.2715    1034.2135    1421.1807   -638.20589   -52.271195    246.58021    47.193477    23.573866     30.78096    68.632111    134.18909    113.45536 
  221500    254.12464   -12681.211   -11373.013   -12681.211            0    1400.2353    46.944774    21.612908     21.94223   -9.1429605   -21.598395    2.9892432    22262.874     1227.419    1692.0988     1281.188   -132.32719   -192.57105    -305.6161    46.944774    23.467244    30.933601    68.836677     134.2842    112.92994 
  222000    244.86739   -12682.948   -11422.405   -12682.948            0    1715.6804     46.79817    21.569618    22.023121   -9.2912422   -21.361881    2.8611302     22230.55    2462.8254    1141.8857      1542.33    489.02777   -690.45972    605.83444     46.79817    23.485647    30.814508    68.928621    133.88721    113.30425 
  222500    244.50854    -12592.49   -11333.794    -12592.49            0    2385.3516    46.688402    21.578784     22.06537   -9.0500957   -21.513847    3.1417864    22230.395    2852.7134    2322.1981    1981.1434   -18.527039    280.96706   -291.74079    46.688402    23.399747    30.977362    68.768607    133.98756    112.75307 
  223000    245.68025   -12601.074   -11336.347   -12601.074            0    2003.9747    46.941044    21.564659    22.015133   -9.2594546   -21.447971    2.9250298    22285.206    2521.2345    1886.5795      1604.11    607.83575    325.63993    65.733753    46.941044    23.468532    30.874542     68.82987    134.00184    113.23777 
  223500    244.78422   -12591.528   -11331.414   -12591.528            0    1282.6703     47.04983    21.561966    22.010055   -9.3239063   -21.792459    2.8112044    22328.911    1367.5723    727.30961    1753.1289    390.98906    271.99465    811.47777     47.04983    23.491565     31.10075    68.833548    134.48361     113.3848 
  224000    241.91758   -12603.744   -11358.386   -12603.744            0    555.81189    47.280006    21.703981    21.840893   -9.2340824   -21.460307    3.0496821    22412.345   -52.263323    352.65302     1367.046    308.85929   -522.99548    -122.3324    47.280006    23.586671    30.771252    68.639671    134.21991     113.0476 
  224500    250.40006   -12675.557   -11386.533   -12675.557            0    1194.4633    46.962563    21.666405    21.943047   -9.2809184   -21.705171    2.8559953    22327.267    1500.0563    763.45232    1319.8813    525.78864     588.2715    354.10697    46.962563    23.570501    30.996265    68.873915    134.44716    113.18813 
  225000    255.39368   -12633.703   -11318.972   -12633.703            0    1086.2409    47.206469    21.599785    21.903393   -9.2410911   -21.624523    2.8805924    22333.786    155.84959    1346.2493    1756.6239   -152.20344   -25.143148   -148.08945    47.206469    23.493584    30.914017    68.849636    134.38734    113.16282 
  225500    252.41618   -12666.109   -11366.706   -12666.109            0    1442.7297    47.003625    21.612107    21.952683   -9.2055144   -21.564971    3.0792179    22300.575    1882.5067    943.24455    1502.4378   -737.41062    300.85231   -24.825547    47.003625    23.490949    30.926523    68.601315    134.21054    113.07121 
  226000    236.16386   -12647.167   -11431.429   -12647.167            0    1629.0568    46.767333    21.516052    22.076759    -9.375038   -21.530213     2.692729    22214.703    1829.9873    1711.0236    1346.1596    717.07993    192.43408    934.40028    46.767333    23.469807     30.95455    69.048135    134.07048    113.54386 
  226500     246.7261   -12659.663   -11389.552   -12659.663            0    594.26112    46.959905     21.68494    21.956152   -9.1051571   -21.423931    3.0645039    22358.447    479.52756    565.70853    737.54726   -199.48329   -346.32882    204.81186    46.959905    23.518939    30.829346     68.85784    134.02085    112.77675 
  227000    252.62317   -12649.282   -11348.813   -12649.282            0     684.0637    47.082309    21.534083    22.057315   -9.2711363   -21.682665    2.8796253    22363.345    601.30812    851.27858    599.60439   -524.76188    423.99529    311.68062    47.082309    23.445057    31.063731    68.828253    134.26723    113.29348 
  227500    243.09625   -12606.939   -11355.514   -12606.939            0    655.52601    47.144291    21.645252    22.007586   -9.3831275   -21.618097    2.9261086    22457.642   -249.85958    1434.4635    781.97416   -152.19489    684.51196   -448.30388    47.144291    23.591524    30.987708    68.647171    134.23753    113.43653 
  228000     244.9984   -12599.301   -11338.084   -12599.301            0    315.06598    47.047828    21.737127    21.957209   -9.1051163   -21.563216    3.1041024    22455.299    446.02812   -20.027121    519.19695    286.89458    176.67629   -941.71001    47.047828    23.567049       30.931    68.782905    134.19794    112.72754 
  228500    252.07838   -12620.752   -11323.088   -12620.752            0    366.12331     47.12244    21.643457    21.994512   -9.5765778   -21.566743    2.6935771    22432.038    105.97899    193.50912    798.88181    711.26598    583.23306    821.78089     47.12244     23.66749    30.921486    68.784483     134.2242    113.86795 
  229000    243.16637   -12615.989   -11364.203   -12615.989            0    1665.6833    47.093999    21.594692    21.966093   -9.0550124   -21.593773    3.1306776    22339.085    1756.7973    1668.6208    1571.6316    -156.0572    -145.1719   -143.52356    47.093999    23.416318    30.961289    68.718577    134.22231    112.74911 
  229500    234.07174   -12571.182   -11366.214   -12571.182            0    999.10279    46.941838    21.598529    22.083765   -9.3353594   -21.463123    2.9307385     22390.17    1448.9741     948.9309     599.4034    719.82984   -403.68769   -176.82469    46.941838    23.529671    30.934569    68.762319    133.93352    113.37506 
  230000    242.42651    -12648.95   -11400.973    -12648.95            0    1314.2793    46.768828    21.603045    22.056958   -9.1822098   -21.517943    2.8460374    22285.228    2421.9521    703.86233    817.02348    15.921339     196.6091    156.02206    46.768828    23.473486    30.945617    69.105882    134.05488    113.02755 
  230500    250.25719   -12668.679    -11380.39   -12668.679            0    984.30314    47.027776    21.679346    21.916642   -9.1859112   -21.515961    3.2054779    22344.706    690.13922    1311.9802    950.79001    180.32529    594.23007   -641.60876    47.027776     23.54517    30.879619    68.443594    134.16835    112.96321 
  231000    249.76597   -12604.203   -11318.443   -12604.203            0    793.16719    47.296127     21.59608    21.943952   -9.3644976   -21.783471    2.6729669    22413.792   -91.273972    1292.7939    1177.9817    491.76681    95.665054    934.11671    47.296127    23.538999    31.035486     69.00729    134.57877    113.44253 
  231500    244.98861   -12674.056    -11412.89   -12674.056            0    554.49511    47.072831    21.703373    21.930417   -9.2298018   -21.598969    3.0455056    22404.973   -253.88921     840.9806     1076.394   -357.19136    1284.4513     6.338849    47.072831    23.584436    30.931113    68.660983    134.29018    113.03861 
  232000     239.0159     -12605.3    -11374.88     -12605.3            0    373.93352     46.99302    21.638432    22.082763   -9.1793863   -21.571226    3.0771241    22454.974    943.77796    623.66024   -445.63764    284.31439   -122.81607   -1248.2514     46.99302    23.504954    31.023135    68.724209    134.05329    112.98747 
  232500     242.2348   -12628.554   -11381.563   -12628.554            0    837.45518    46.990871    21.612288    22.029842    -9.255536   -21.556963    2.8281318    22373.072    1072.6797    734.03604    705.64987   -28.517628   -217.73878   -370.53825    46.990871    23.510762    30.951816    69.011891    134.14435    113.18319 
  233000    240.18759   -12602.904   -11366.452   -12602.904            0    267.22502    47.012846    21.712181    22.019685   -9.2110347   -21.459958    3.1882543    22476.625    246.76766    277.79993    277.10747    265.93828   -165.48481   -258.45649    47.012846    23.585206    30.912155    68.526394    133.96541    112.98828 
  233500    248.35404   -12621.264   -11342.773   -12621.264            0    1147.4741    46.922858    21.548283    22.041622   -9.1819605   -21.544477    2.7340489     22286.44    1850.8654    1102.2973    489.25973   -49.163078    179.17811    487.27094    46.922858       23.423    30.943055    69.254071    134.12788    113.07939 
  234000    244.26877   -12643.762   -11386.301   -12643.762            0    1209.9266    47.109618     21.63385    21.904011   -9.3886092   -21.688761    3.0987553    22323.745    1349.8331    1238.1006    1041.8462    551.49923    224.83868   -87.657279    47.109618    23.583245    30.980483    68.256036    134.43328    113.45977 
  234500    241.29311   -12707.434   -11465.291   -12707.434            0    1183.0329    47.048877    21.640795    21.830734   -9.0871445   -21.481872    2.9005004     22227.51     1349.615    345.37513    1854.1085   -1114.1671   -66.580367    512.42243    47.048877    23.471264    30.764666    69.067497    134.28792    112.77793 
  235000    238.74035   -12642.276   -11413.274   -12642.276            0    704.09651    47.237579    21.578288    21.924248   -9.3845977   -21.715421     2.897483    22347.519    319.19603    812.77503    980.31847    -168.4087   -221.39959    91.195251    47.237579    23.530686    30.993992    68.582705    134.47783    113.50467 
  235500    254.25239   -12569.159   -11260.304   -12569.159            0    437.37957    47.267201    21.706304    21.955457   -9.1565495   -21.675153    3.1058661    22526.216    761.94136   -530.71536    1080.9127   -454.78147    308.48286    200.00043    47.267201    23.558566    31.008076     68.65543    134.34814    112.87188 
  236000    238.67501   -12647.109   -11418.444   -12647.109            0    744.86529    46.798449     21.65157    22.039366   -9.2499465   -21.407298    2.8708765    22331.605    1956.3527    55.188003    223.05521   -35.006962    29.099677    81.205827    46.798449    23.544681    30.858516    69.016748    133.92564    113.13306 
  236500    248.25838   -12650.221   -11372.222   -12650.221            0    814.18125    46.855879    21.658889    22.068059   -9.2891651   -21.484944    3.0419867    22395.689    1472.4849    282.62782      687.431    395.06303    -169.0029    61.611984    46.855879    23.566843    30.949245    68.656444    133.96345    113.21375 
  237000    237.54738   -12647.087   -11424.226   -12647.087            0    648.61359    47.043193    21.474437    22.118727   -9.0377667   -21.544041    2.8201736    22344.915    849.30307    866.30869    230.22901   -136.25643    246.49218    476.46144    47.043193    23.298769    31.005438    69.306319    134.01504    112.82436 
  237500    240.84035   -12686.299   -11446.487   -12686.299            0    1211.6878    47.013846    21.563426    21.947272   -9.3890201    -21.60827    3.0372314    22249.696    1967.9073    580.27095    1086.8851   -324.27632   -286.91478    96.999451    47.013846    23.518823    30.948746    68.364115     134.2824    113.52899 
  238000    239.97499   -12575.716   -11340.358   -12575.716            0    678.29628    46.898408    21.815357    21.893127   -9.0572534   -21.425388    2.8705548    22398.979    1300.4063    345.80017    388.68232   -982.53186   -5.3239411   -90.719912    46.898408     23.62083    30.766806    69.317367    134.13729    112.54714 
  238500    240.40176   -12633.104    -11395.55   -12633.104            0    403.76258    47.137396    21.664305    21.880224   -9.4525854   -21.739196    2.9665826    22344.061   -256.76584    63.992391    1404.0612    641.89545    1079.6639   -93.043323    47.137396    23.636697    30.986085    68.387974    134.55385    113.57264 
  239000    243.15832   -12641.729   -11389.984   -12641.729            0    1305.3769    47.160082    21.552982    21.925455   -9.1952596   -21.628231    2.9330304    22285.919    1692.2756    1596.3267    627.52851    96.954337    802.52259   -237.06422    47.160082    23.432538    30.937172    68.805263    134.35498     113.1048 
  239500    247.50741   -12584.781   -11310.647   -12584.781            0    1554.0588    46.946268    21.583395    22.061676   -9.2718919   -21.450684    3.0409991    22354.211    1482.2212    2383.4683    796.48678    149.31895    -492.7342   -760.75739    46.946268    23.490656    30.920819    68.642767    133.92606    113.24761 
  240000    246.93391   -12665.751    -11394.57   -12665.751            0    557.90898    46.802396    21.623386    22.110043     -9.32357   -21.546594    2.8651643    22375.945    903.27819    481.30554    289.14321   -475.98732   -401.85801    817.07457    46.802396    23.547819    31.005143    68.899091    134.02213    113.32474 
  240500    243.88234   -12654.953   -11399.482   -12654.953            0    1043.7649    47.015316    21.583016    22.064514   -8.9926403   -21.391131    3.1335008    22389.575    1205.2966    1290.1605    635.83757   -411.32309   -605.62404   -232.10202    47.015316    23.381492    30.890809    68.901947    133.82639    112.61922 
  241000    240.48358   -12626.898   -11388.922   -12626.898            0    703.98074    47.031333    21.576357    22.035749     -9.40802   -21.653603    2.8844535    22361.102    1094.3472    1100.2357   -82.640642    575.89649    251.68595   -77.597468    47.031333    23.538267     31.02858    68.645283    134.25556    113.55883 
  241500     253.4824   -12622.562    -11317.67   -12622.562            0      1486.99    47.111979    21.607088    21.940006   -9.1326363   -21.579692     2.897197    22333.888    780.91445    1810.9981    1869.0576   -317.11286    638.51103    431.12826    47.111979    23.457862    30.910204    69.014268    134.27808    112.91225 
  242000    243.58558   -12621.352   -11367.407   -12621.352            0    1281.4218    47.075489    21.752137    21.795572   -9.4267236    -21.58727    3.1143514    22318.502    852.94123    1272.0979    1719.2262   -62.294712   -95.894867   -751.66197    47.075489    23.706931    30.834338    68.218927    134.43542    113.43046 
  242500    249.45228   -12628.195    -11344.05   -12628.195            0    1296.1842    47.093113    21.539125    21.984955   -9.2690612   -21.698511    2.7054725    22300.317    892.48254    1828.4876    1167.5826   -161.26981    625.81674    684.49324    47.093113    23.448868    31.007793    69.098737    134.40904    113.28395 
  243000    247.19958    -12619.72   -11347.171    -12619.72            0    781.25985    47.208925    21.609795    21.924051   -9.2362312   -21.556381    3.1673362    22366.372    421.15512     1654.635    267.98943   -540.83503   -496.88071   -1069.9437    47.208925    23.500876    30.909119    68.387893    134.21971    113.14232 
  243500    238.55967   -12635.456   -11407.385   -12635.456            0    926.51878    46.875916    21.603101    22.058251   -9.2933002   -21.688871    2.8960895    22337.621    935.22642    1536.0628    308.26715   -448.43807    342.87193   -396.03198    46.875916    23.517215    31.070257    68.809106    134.27148    113.27658 
  244000    243.57548   -12614.979   -11361.087   -12614.979            0    1396.9377    46.841951    21.663194    21.999932   -9.1539525   -21.273033    2.8929173     22324.35    1684.4433    1432.7533    1073.6164    -691.7968   -18.629641    290.22929    46.841951    23.517841    30.739355    69.141737    133.79225    112.90687 
  244500     253.4347   -12654.627   -11349.981   -12654.627            0    1188.6699    46.979644    21.551616    22.039118    -9.275407   -21.671501    3.1373987    22314.325    1055.8604    1434.8527    1075.2966   -249.87188    713.58737   -696.63102    46.979644     23.46285    31.067989    68.375822    134.23083    113.28613 
  245000    243.56199   -12608.115   -11354.292   -12608.115            0     1242.607     47.07117    21.571582    22.026769   -9.2143635   -21.414684    2.6834916    22365.972    1085.7385     1615.303    1026.7795   -68.730484    354.42696     543.8923     47.07117    23.457144    30.837775    69.340798    133.98183    113.12989 
  245500    248.49511   -12567.471   -11288.254   -12567.471            0    1228.0711    47.027774     21.70044    21.907695   -9.2845266   -21.739386    3.0974714    22357.315    1003.8904    583.21713    2097.1058    718.02478    408.33319    -357.5298    47.027774     23.60321    31.018419     68.43873    134.49557    113.16365 
  246000    244.72815   -12640.811   -11380.985   -12640.811            0    1319.9602    47.011582    21.694318    21.852143   -9.1499837   -21.507228    2.9310939    22286.656    1047.0464    520.32383    2392.5103   -532.05126    447.57082    262.53319    47.011582     23.54497     30.80046    68.958366    134.28887    112.86849 
  246500    249.27862   -12680.182    -11396.93   -12680.182            0    571.26831     47.18756    21.548989    21.990777     -9.37488   -21.642061    2.7985502    22361.194    68.185058    713.78992    931.82995    950.29407   -127.17226    1003.6093     47.18756    23.499943    30.980719    68.806867    134.31203    113.51143 
  247000    249.14474   -12632.446   -11349.884   -12632.446            0    128.55597    47.160368    21.642806    21.997389   -9.2535663   -21.705804     3.151188    22452.355   -391.33485    -66.35137    843.35413   -17.174015    282.65599   -846.33811    47.160368    23.538044    31.063758    68.409161    134.32681    113.14954 
  247500    235.93038   -12642.148   -11427.612   -12642.148            0    839.20251    46.882354       21.709    21.937091    -9.229256   -21.240328    2.7185918    22326.892    1807.0701    65.183623    645.35379    405.17215   -1338.3737    349.75015    46.882354    23.589401    30.655803    69.347908    133.85732    113.03204 
  248000     244.9421    -12692.52   -11431.592    -12692.52            0    880.56301    46.971315    21.609342    21.988239   -9.2594814    -21.79692    3.1377243    22318.485    1196.2199    939.85695    505.61217   -144.35452    475.07252   -667.45765    46.971315    23.509608    31.119667     68.37403    134.46092    113.19486 
  248500    248.88028   -12628.584   -11347.383   -12628.584            0    1276.7138    47.150489    21.614561    21.931963   -9.2294362   -21.443672    2.9820812    22351.678    1418.2255    1367.2918     1044.624    223.44435   -150.24213    -486.3773    47.150489     23.50259    30.817769    68.762183    134.09273    113.12252 
  249000    240.38964    -12635.22   -11397.728    -12635.22            0    1572.3983    47.000081    21.505475    22.037878   -9.2405659   -21.738897    2.7507208    22274.986    1715.0546    1484.9968    1517.1435   -155.57391    659.65866    1155.1295    47.000081    23.406698    31.077551    69.054811    134.38729    113.25244 
  249500    243.74602   -12673.376   -11418.605   -12673.376            0     1283.564    46.991037    21.628795    21.924376   -9.2450085   -21.401594    3.1212322    22283.049    1079.6201    1496.2167    1274.8552   -320.91652    157.19371   -314.20164    46.991037    23.521798    30.796892    68.510749     134.0214    113.14379 
  250000    246.07164   -12605.347   -11338.605   -12605.347            0    1036.1291    46.948914    21.600463    22.056829   -9.0611729   -21.569669    2.8802528    22368.233    1478.9072    1416.4786    213.00156   -352.37254   -589.95145   -383.52137    46.948914    23.424023    30.984677    69.205935    134.11812    112.75755 
  250500    239.35531   -12589.756   -11357.589   -12589.756            0    1483.7835    46.964601    21.567892    22.042897   -9.5462943   -21.495681    3.1758243    22327.856    1979.0734    760.04841    1712.2287    916.04011   -486.31402   -477.22118    46.964601    23.586134    30.952213    67.981292    133.98576    113.87495 
  251000    250.26814   -12636.974   -11348.629   -12636.974            0    761.30993    47.001891    21.615858    21.994302   -9.0297315   -21.568287    2.8520556    22345.907    1718.3038   -151.56632    717.19235   -490.13844   -732.76292    -17.49829    47.001891    23.426083    30.936622    69.280238    134.20092    112.67207 
  251500    247.14653   -12627.741   -11355.466   -12627.741            0    1551.9621    47.014198    21.718295    21.851183   -9.3315443   -21.489419    2.9790619    22311.549    1050.4545    1627.2878    1978.1441    847.42767    -599.4257    787.28926    47.014198    23.638148    30.791949    68.629699    134.25803     113.2514 
  252000    236.96686    -12677.68   -11457.808    -12677.68            0    1443.2073    47.253899    21.555877     21.88465   -9.2640279    -21.74412    3.0061675    22291.687    1223.5949     2067.826    1038.2011   -1017.8085    86.442349   -438.52723    47.253899    23.462268    30.996479    68.525271    134.54771    113.25649 
  252500    249.29275   -12652.883   -11369.559   -12652.883            0    893.52522    47.029445    21.601594    21.968505   -9.1703867   -21.466948      2.76491    22318.046     640.3368    1309.3346    730.90429   -100.29298    22.352154     518.1683    47.029445    23.467528    30.839744    69.235208    134.11339    113.00237 
  253000    239.13254   -12622.323   -11391.302   -12622.323            0    1009.9972    46.962656    21.706055    21.927678   -9.3856197   -21.593598    3.2837583    22352.505    1840.6198    1005.6746    183.69715    682.06521   -78.206343   -1322.2085    46.962656    23.648312    30.949792    68.019561    134.24258    113.38348 
  253500    247.33319   -12626.694   -11353.457   -12626.694            0    669.71169    47.058341    21.589249    22.033038   -9.1194113   -21.481673    2.6739705    22384.559    563.17398    1002.9864    442.97473   -230.79018   -172.31581    68.314429    47.058341    23.436283    30.887978    69.490339    134.06471    112.89945 
  254000    245.81558   -12655.836   -11390.412   -12655.836            0    1331.9472    47.004573    21.620058     21.93518   -9.3193742   -21.539617    3.0549921    22291.442    574.54147    1497.5123    1923.7878    266.82921   -145.29583    263.29378    47.004573    23.543102    30.894016    68.481923    134.20359    113.31857 
  254500     255.0745   -12665.475   -11352.387   -12665.475            0    1697.0097    46.885807    21.536893    22.008141   -9.0940979    -21.61342    2.8895667    22223.262    1335.3312    2931.5425    824.15555   -406.37017    190.45014   -65.019206    46.885807    23.378203     30.98141    69.065686     134.2368    112.89223 
  255000     243.2294   -12622.935   -11370.824   -12622.935            0    766.09756    47.119783    21.685678     21.88057   -9.2887159   -21.383862    2.9526277    22358.101     1168.499    428.49821    701.29544    92.007561   -1301.6165   -103.32777    47.119783    23.591288    30.736736    68.762922    134.08384     113.1871 
  255500    247.32606   -12646.967   -11373.767   -12646.967            0    514.28026    47.023767    21.686282    21.943752   -9.2212681   -21.787364    3.0278477    22377.595    713.64715    -549.8297    1379.0233   -492.10696    421.57916     195.3956    47.023767    23.565369    31.070651    68.649558    134.52497    113.03578 
  256000    248.46201   -12583.569   -11304.522   -12583.569            0    105.99675    47.192059    21.644198    22.028776   -9.2145726    -21.42652    2.8701413    22500.947    3.9656657    80.758405    233.26619    484.31597   -848.66427    150.66265    47.192059    23.524023    30.864226    69.053682    133.96498    113.06088 
  256500    246.79686   -12642.031   -11371.556   -12642.031            0   -97.255434    47.106522    21.555611    22.102905   -9.2891043     -21.8167    3.0335778    22443.508   -1019.3694    896.03051   -168.42738   -165.74192    822.71593     94.64056    47.106522    23.471937    31.204317    68.532511    134.35937    113.31298 
  257000    243.95186   -12625.235   -11369.405   -12625.235            0    804.48816    46.969342    21.676064    21.980017   -9.2290429   -21.447878    2.9461023    22378.085    1605.0742    191.08305    617.30729   -501.29643   -383.11939   -681.14127    46.969342    23.559011    30.851453    68.887586    134.04302    113.06291 
  257500    242.37893    -12691.63   -11443.897    -12691.63            0    1953.4381    46.861193    21.617148    21.909046    -9.222769   -21.527833    2.9611355    22193.981    2395.0247    1760.7352    1704.5545   -511.55747   -75.838269   -366.62969    46.861193    23.502352    30.858098    68.775111    134.23794     113.1051 
  258000    246.67971   -12646.786   -11376.914   -12646.786            0    1655.7767     47.23857    21.595415    21.829887   -9.3222416   -21.688271    2.9234624    22269.464    1642.1036    1136.2361    2188.9904   -28.888173   -127.13402    371.68013     47.23857     23.52161    30.910705    68.597809    134.55895    113.34874 
  258500    243.60141   -12636.834   -11382.808   -12636.834            0     670.5743    47.321613    21.577145    21.912134   -9.1782817   -21.514403    2.9201218    22373.719   -222.57123    958.13658    1276.1575   -649.91788    442.10237    88.748419    47.321613    23.448113    30.847014    68.892706    134.22317    113.04347 
  259000    247.28029   -12642.278   -11369.313   -12642.278            0    329.09172    46.936132    21.707706    21.983247   -9.3135586   -21.698776    2.9083494    22398.198   -757.56959    1074.4617    670.38309    735.33771    531.08679    511.27371    46.936132    23.621323    31.025128    68.782539    134.37837    113.22146 
  259500    244.68802   -12671.985   -11412.366   -12671.985            0    286.09859    46.941938    21.657583    22.039693   -9.1208981   -21.145405    2.9749939     22406.63    953.19622    730.09733   -824.99777   -135.40918   -605.68954    113.55337    46.941938    23.499823    30.687567    69.097126    133.55531    112.83796 
  260000    238.06714   -12666.895   -11441.359   -12666.895            0    889.55625    47.000638    21.511102      22.0736   -9.2838092   -21.714084    2.9905498    22317.193    2476.3513    165.87728    26.440164   -107.25694   -69.896868   -343.13678    47.000638    23.428969    31.107694    68.600888    134.26911    113.34417 
  260500     239.2346   -12646.493   -11414.947   -12646.493            0    2185.8042    46.869436     21.57713    21.958601   -9.2086613   -21.388543     2.888079    22206.908    3105.0561    2046.6295    1405.7268    682.46878   -1380.9749   -196.45297    46.869436    23.460008    30.789462    68.964344      134.001    113.11176 
  261000    246.32584   -12628.337   -11360.287   -12628.337            0    1829.4409    46.697034    21.803251    21.903468   -9.1215692   -21.485555    3.0851259    22300.954    2179.9811    427.36657     2880.975    16.306486   -27.359309   -397.46847    46.697034    23.634398    30.836812    68.825941    134.16685     112.7024 
  261500    242.15177   -12579.336   -11332.773   -12579.336            0     687.0365    47.240368    21.575052    21.997163   -9.3829201   -21.692099    2.8209345    22419.804    1179.9552    247.62718    633.52712   -394.39229   -282.24772    4.1558896    47.240368     23.52705     31.02225    68.761179    134.36632    113.50407 
  262000    245.83101   -12613.363    -11347.86   -12613.363            0    301.98199    47.326212    21.632821    21.927266   -9.0943512   -21.617028    3.0133183    22449.123   -609.42244    1003.5561    511.81232   -363.39371   -587.25645   -285.53057    47.326212    23.466703    30.938341    68.864957    134.32386    112.80169 
  262500    246.73553    -12683.93    -11413.77    -12683.93            0    865.83573      47.0653    21.636462    21.846676   -9.5779605   -21.717189    2.6813501    22247.051     493.6719    285.60556    1818.2297    1096.3119    554.42546    458.02542      47.0653    23.661652    30.920919    68.678803    134.61554    113.87786 
  263000    250.47654   -12621.186   -11331.768   -12621.186            0    1209.9686    46.863281    21.684901    21.982475   -9.1532444   -21.430629    2.9605636    22339.154    1217.9681    733.79852    1678.1391    19.263221    252.53772   -274.00246    46.863281    23.537562      30.8426    68.983205    134.01436    112.88471 
  263500    242.47453   -12596.332   -11348.108   -12596.332            0    1136.1014    46.994615    21.592608    22.046041   -9.1635075    -21.49446    3.1174575    22370.919    1330.9273    1850.1009    227.27593   -579.10519    363.53028   -1225.4431    46.994615    23.456569     30.94767    68.650424    133.99074    112.99548 
  264000    246.95859   -12636.594   -11365.286   -12636.594            0    892.95936    47.140219    21.471058     22.08217   -9.3403698   -21.751575    2.7192187    22350.477    768.60241    1176.3144    733.96133    645.10331    488.45522    995.45023    47.140219    23.414714    31.115067     68.96098    134.35235    113.51007 
  264500    233.38637   -12592.233   -11390.793   -12592.233            0    1909.0466    46.992416    21.717984    21.924137   -9.1561038    -21.42766    3.1140707    22375.348    2222.8296     1713.744    1790.5663     102.2075   -498.95666   -392.06745    46.992416    23.569155    30.814118    68.699205    134.05787    112.85984 
  265000    237.24232   -12644.772   -11423.482   -12644.772            0    1167.7038    46.909596    21.684662    21.921894   -9.2926315    -21.64845    2.8765325    22299.361    1496.7111    634.95452    1371.4457    661.02042   -43.416037   -333.98478    46.909596    23.591896    30.943485    68.837358    134.39593    113.19682 
  265500    246.26729   -12632.772   -11365.023   -12632.772            0    1916.6906    47.065004    21.548143    21.887498   -9.2940937   -21.535602    2.9157136    22197.501    1727.1712    1994.0565    2028.8441    526.27718   -292.01987    73.793238    47.065004    23.467054    30.843899    68.695305    134.28378    113.33139 
  266000    248.36844   -12675.419   -11396.853   -12675.419            0    1429.3675    47.108471    21.503797    21.931538   -9.1391636   -21.591951    3.0648244    22216.889    1642.2167    1269.6321    1376.2538   -460.90369    65.351877   -520.78511    47.108471    23.365308    30.928916    68.637928    134.27599     113.0256 
  266500    242.37112   -12602.253    -11354.56   -12602.253            0    729.48992    46.922526    21.659397    22.038521   -9.3465572    -21.54611    2.7984462    22398.048    2259.6163   -130.76333    59.616785    120.09324   -42.543831    869.67534    46.922526    23.589989    30.947739     68.96926    134.12368    113.34137 
  267000    242.92592   -12583.969    -11333.42   -12583.969            0    230.96468    47.092584    21.708189    22.014586   -9.1845718   -21.482317    2.9734041    22505.395    102.83451    143.46664    446.59289    754.25951   -544.03876    44.356625    47.092584    23.571207    30.902639    68.931451    134.04007    112.93286 
  267500    238.48071   -12597.637   -11369.972   -12597.637            0    651.76494    47.023522    21.683654    21.975788   -9.2230983   -21.786952    2.9970708    22407.433    1634.4772   -536.37062    857.18823    223.10359    396.69484    377.82178    47.023522    23.563667    31.090014    68.715554    134.48882    113.04238 
  268000    238.44077   -12632.417   -11404.958   -12632.417            0    1438.0658    47.124289    21.609317      21.8969   -9.3635128   -21.436721    2.8033546    22298.132    1447.2585     1674.309      1192.63    172.00011   -1135.1942      1.99445    47.124289    23.550752    30.771188    68.864621    134.15878    113.42752 
  268500    246.20213   -12659.584    -11392.17   -12659.584            0    1883.4624    46.973253     21.64143    21.892274   -9.0473515   -21.603473    3.0760616    22254.993    2528.9118    1439.7217    1681.7537    -327.9779   -117.37453   -233.94247    46.973253    23.456472    30.910255    68.814382    134.33958    112.68771 
  269000    240.03739   -12679.563   -11443.885   -12679.563            0    1855.9489    46.980276    21.567958    21.942804   -9.4730482   -21.499137    2.8151858    22233.955     1963.101    1055.6494    2549.0962    668.42837   -157.18015    770.66512    46.980276    23.556643    30.848417    68.665223    134.18108    113.71197 
  269500    260.49259   -12619.817   -11278.837   -12619.817            0    1534.1701    46.966966    21.575305    22.030338   -8.9736568   -21.654764    2.9676216    22323.928    2201.5734    2001.2054    399.73129   -1072.3402    225.12216    45.830174    46.966966    23.367078    31.033391    69.128943     134.2499    112.58353 
  270000    241.87501   -12620.134   -11374.995   -12620.134            0     1574.652    47.060695    21.654248    21.923697   -9.3983849   -21.443945    3.0219807    22341.649    25.517234    3002.4071    1696.0315   -240.63811    544.66573   -979.32861    47.060695    23.605849    30.815964    68.468622    134.09669    113.46183 
  270500    241.87209   -12650.529   -11405.405   -12650.529            0    361.04159    46.988237    21.656656    21.988614   -9.0295061   -21.729797    2.7357827    22375.791    948.56039   -601.25533    735.81971   -532.07757     363.4487    446.17942    46.988237    23.463647    31.034944    69.463145     134.4408    112.63316 
  271000    240.20821   -12649.958     -11413.4   -12649.958            0    1113.0091    47.266243    21.615709    21.884173   -9.5266422    -21.45459     3.084048    22358.914    1042.8656    767.57082     1528.591    1049.6257   -717.93944   -483.12173    47.266243    23.621934    30.801426     68.12782    134.15049    113.78442 
  271500    241.39639   -12592.127   -11349.453   -12592.127            0    752.89762    47.078432    21.651218    22.010454   -9.1561013   -21.710529    2.8655796    22435.375    231.66039    895.11076    1131.9217   -355.51532    499.78312    100.14472    47.078432    23.507646     31.04865    69.062106    134.36624    112.92306 
  272000    252.37008   -12623.067   -11323.901   -12623.067            0    271.23863    47.165774    21.719341    21.894201   -9.3660527   -21.578497    2.9734861    22428.629   -66.650322    42.445251    837.92096    338.20966    323.89274   -517.73262    47.165774    23.652753    30.884125    68.587617    134.32217     113.3272 
  272500    244.33893   -12630.594   -11372.772   -12630.594            0    899.61155    47.303567    21.554793    21.897941   -9.3642383   -21.691697    2.9988334    22327.548   -6.6499836    1311.3178    1394.1668   -687.41408    -115.6442   -204.87353    47.303567    23.501022    30.968412    68.412842    134.46279      113.482 
  273000     243.2766   -12608.481   -11356.127   -12608.481            0    1032.8786    47.148033    21.574756    21.990238   -9.1537671   -21.671218     2.844426    22368.631    797.17266    1146.2186    1155.2444    -294.8952   -160.64043    311.03585    47.148033     23.43633    31.004887    69.056044    134.34373    112.99061 
  273500    243.52306   -12638.711   -11385.089   -12638.711            0    1594.2743    46.912537    21.662287    21.977238   -9.3940973   -21.406237    3.1526076    22333.991    2018.9042     1492.603    1271.3157    544.13933   -35.083207    186.72235    46.912537    23.611517    30.840962    68.288595    133.95432    113.44452 
  274000    246.09962   -12624.306   -11357.419   -12624.306            0    557.38211    46.775095    21.701318    22.116998   -9.0415787   -21.542769    2.8601632    22450.549    513.52714    718.09017    440.52903   -286.06843    641.67901   -288.86366    46.775095    23.509516    31.006984    69.368781    134.00901    112.61843 
  274500    248.80197   -12676.365   -11395.568   -12676.365            0    876.91368    47.120243    21.562049    22.020336    -9.379188   -21.496277    2.9847324    22372.859    456.02458    1129.7168    1044.9997      141.485    146.82251    20.941495    47.120243    23.513637    30.917531    68.539452    134.04937    113.50836 
  275000    237.39024   -12590.522    -11368.47   -12590.522            0     1153.322    47.051342    21.570574     22.01488   -8.9944975   -21.730695    2.9603222     22343.44    1240.0846    1533.3426    686.53871   -630.98991     257.4374   -485.39521    47.051342    23.370722    31.074774    69.080139    134.37114    112.63516 
  275500    233.73326   -12647.003   -11443.777   -12647.003            0    2131.1168     46.84409    21.710677    21.838707   -9.4163298   -21.397102     2.942068    22210.335    2418.7912    1817.1953     2157.364    511.63834   -290.15538     22.37042     46.84409    23.664758    30.715157    68.588176    134.15726    113.44729 
  276000    243.33765   -12607.251   -11354.583   -12607.251            0    1767.6829    47.104356      21.6669    21.855779    -9.115801   -21.695123    3.0239905    22306.125    1027.0761    1870.7856    2405.1871    272.64846    218.58592     494.9282    47.104356    23.506433    30.943463    68.778547    134.51704     112.8177 
  276500     242.6196   -12676.503   -11427.532   -12676.503            0    702.25301    47.188163    21.583882    21.960419   -9.4165649   -21.613887    2.7736782    22366.769    440.11073    134.31173    1532.3366    586.70873   -207.36924    363.63369    47.188163    23.548581    30.937249    68.804929     134.3177    113.57057 
  277000    248.25624   -12617.958    -11339.97   -12617.958            0    423.49052    47.118351    21.654262    22.026292   -9.1439733   -21.694712    3.1079037    22473.715    724.61563    -430.8509    976.70682   -464.97395    827.64081   -567.05156    47.118351    23.505729    31.072128    68.669153    134.28316    112.89294 
  277500    246.28852   -12696.991   -11429.132   -12696.991            0    479.89279     46.97796    21.686258     21.96348   -9.2307075   -21.467537    2.9313895    22375.871    293.31604    400.70458    745.65776    344.15598    258.00195    465.66775     46.97796    23.569043    30.851948    68.903426    134.09295    113.05692 
  278000    241.17757   -12635.869   -11394.321   -12635.869            0    957.04273    46.907855    21.661431    22.000184   -9.3411226   -21.620165    3.0660262    22354.195    274.60688    1572.5657    1023.9556    750.81884    305.32486   -61.259746    46.907855    23.589705    30.997422    68.468155    134.22539     113.3273 
  278500    250.80538   -12623.683   -11332.573   -12623.683            0    1270.9047    47.076901    21.475214    22.099553   -9.1145542    -21.46399    2.9662184     22342.35    880.78308     2450.143    481.78805   -148.88371   -508.07672   -734.93654    47.076901    23.329379    30.949823    68.950793    133.90855    112.99744 
  279000    242.50759   -12599.641   -11351.246   -12599.641            0    1627.4511    46.953311    21.512161    22.097211   -9.3180044   -21.578938     2.969703    22319.668    2158.9441     2347.541    375.86822    26.914554   -610.29086   -635.34685    46.953311    23.443513    31.028317    68.638796    134.06385    113.41988 
  279500     243.1716   -12649.277   -11397.464   -12649.277            0    765.14696    46.860568    21.706889    21.932806    -9.136133   -21.484873    2.9545856    22309.987    597.95105    773.97484    923.51498   -447.09695    298.14963    -165.7632    46.860568    23.551177    30.844405    68.991793    134.15139    112.82556 
  280000    257.50095    -12609.48   -11283.901    -12609.48            0    2306.0942    47.144325    21.628393    21.746789   -9.3833921    -21.61085    2.8580544    22174.243    1424.7625    1910.8945    3582.6258   -128.90973    203.08618    859.55457    47.144325    23.576162     30.79156    68.623982    134.57508    113.45342 
  280500    248.80805   -12591.733   -11310.904   -12591.733            0    1943.4304     47.25779    21.547009    21.863898   -9.2680635   -21.793384    2.9886353     22263.22    831.10535    2408.9459    2590.2398    23.143521    546.78689   -397.66169     47.25779    23.455715    31.014731    68.520401     134.6423     113.2741 
  281000     243.9143   -12644.281   -11388.645   -12644.281            0    918.89419    47.076024    21.647023    21.932858   -9.2591161   -21.484223    2.8808172    22350.806    1016.6008    926.13995    813.94183   -95.646116    477.57954    824.97199    47.076024    23.544104     30.83701    68.906968    134.16304    113.15793 
  281500    241.68917   -12639.158   -11394.976   -12639.158            0    72.182299    46.675042    21.717958    22.138572   -9.2741034    -21.56817    2.9433877    22441.574    1319.9313   -411.34361   -692.04081    513.11967    567.51259    7.1455667    46.675042    23.615222      31.0478    68.900008    134.00143    113.12368 
  282000    245.01635    -12639.87   -11378.561    -12639.87            0    330.85507    47.047322    21.569988    22.101206   -9.2220058   -21.467466    2.9601417    22428.529     41.91974    500.20971    450.43576    -418.6267    16.839637      214.421    47.047322    23.458682    30.952833    68.864043    133.91212    113.14858 
  282500    245.28866   -12635.173   -11372.462   -12635.173            0    762.44683    47.140935    21.528372    22.072247   -9.2428053   -21.759031    2.9882857    22400.407    1607.5461     228.6099    451.18447   -947.63775    649.43736   -37.897881    47.140935     23.42862    31.137909    68.662144    134.33045    113.23537 
  283000    239.24639   -12612.178   -11380.571   -12612.178            0    753.74721    47.152649    21.691736    21.926901   -9.2895552   -21.342913    2.8265395    22427.335    1393.5801    520.41248    347.24906   -333.09639    -541.2848     183.2153    47.152649    23.597187    30.729436    69.024036    133.99081    113.18318 
  283500    244.96704   -12666.827   -11405.771   -12666.827            0    1044.5623     46.92653    21.724657    21.889471   -9.1899102   -21.659218    3.0180499      22315.5    1846.7911    506.18041    780.71531   -389.70516    386.08961   -2.2980141     46.92653    23.588454    30.941546    68.743079    134.42736    112.92921 
  284000    245.92954   -12609.698   -11343.688   -12609.698            0    1907.5256    47.075024    21.601946     21.89369   -9.4318267   -21.535871     2.930328    22263.958    755.09363    2094.2179    2873.2654    920.52747    24.471216    211.88327    47.075024    23.571241    30.849865    68.507213    134.27367    113.58701 
  284500    249.29087    -12626.89   -11343.576    -12626.89            0    975.11644    47.351643    21.482702    21.957979   -9.0653063   -21.741335    2.8957025    22336.562    134.77112    1726.7389    1063.8393    -459.8317   -361.37735   -369.01115    47.351643    23.317081    31.035844    69.003313    134.46901    112.87885 
  285000    237.85177   -12629.091   -11404.664   -12629.091            0    639.66882    46.964902    21.686669    21.941075   -9.3089826   -21.497496    3.0009505    22347.255    1317.0469    65.305529    536.65407   -287.57013    345.19427     350.5959    46.964902    23.600186    30.863551    68.648195    134.14954    113.23138 
  285500    238.73932   -12631.569   -11402.572   -12631.569            0    1159.7037    46.614662    21.785604    21.989594   -9.1802027   -21.468219    2.8423542    22331.061    2140.5843    100.36868     1238.158   -29.485863    257.63599    609.11133    46.614662    23.640827     30.86269    69.207388    134.07539       112.85 
  286000    245.19811   -12662.124   -11399.879   -12662.124            0    1994.4589    47.037557     21.50709    21.960246   -9.1997964   -21.418993    3.0353507    22215.885    976.63809    2389.7548    2616.9839    420.26614   -461.73734    119.79097    47.037557    23.392117    30.825948     68.66612    134.01419    113.15913 
  286500    245.14168   -12594.838   -11332.883   -12594.838            0    1638.0154    47.159449     21.46104    21.991259   -9.3674308   -21.660822    2.8567726    22257.152    1189.4544    2779.5784    945.01342    310.25784    52.363786    181.36137    47.159449    23.416341    30.999481    68.654794    134.32663    113.58057 
  287000    251.80933   -12668.945   -11372.666   -12668.945            0     882.1996      46.9184     21.76112    21.868545    -9.063812   -21.462185    2.9929879    22327.717    1176.5593    457.54591    1012.4936    73.455116   -470.52621   -4.7365348      46.9184     23.57327    30.786631    69.035727    134.19694    112.61241 
  287500    245.40841   -12540.144   -11276.816   -12540.144            0    421.81563    47.188939    21.752466    21.908893   -9.3712569    -21.60868    2.9552225    22488.948    885.23142   -511.22955    891.44503    862.40085    36.218633   -68.806839    47.188939    23.685232     30.91388    68.631917    134.34651    113.30703 
  288000    238.77231   -12673.441   -11444.275   -12673.441            0    842.43562    47.220552    21.521977    21.929405   -9.1899377   -21.749975    2.8500165    22286.407     1013.919    823.88107    689.50681    22.964795   -747.52714    481.38417    47.220552    23.401932     31.01746    68.907736    134.52474     113.1226 
  288500     249.4331    -12613.43   -11329.384    -12613.43            0    1764.3341    47.040894    21.577267    21.987712   -9.3208562   -21.417676     3.115506    22317.835    1517.8044    2677.7131    1097.4847   -101.38359   -623.72413   -727.01141    47.040894      23.5044    30.852596    68.408358    133.96299    113.36317 
  289000    249.14238   -12587.241   -11304.691   -12587.241            0    1472.7631    46.779797    21.649555    22.049907    -9.126048   -21.536735    2.8977966    22331.304    1999.3453    1641.2846    777.65957    223.78264    38.141536   -45.499388    46.779797    23.494425    30.958466    69.116237    134.08027    112.85713 
  289500    242.37501   -12627.373   -11379.661   -12627.373            0    938.84113    46.915262    21.604052    22.106221   -9.3565449   -21.273421    3.0385854    22405.976    1745.1884    740.38613    330.94883    462.98833   -826.30679   -125.66318    46.915262    23.543152    30.829798    68.612485    133.63232    113.41706 
  290000    250.99358   -12630.127   -11338.048   -12630.127            0    935.91533    47.212033     21.51432    22.023779   -9.1870295   -21.795779    2.9390201    22370.319    1104.4062    1117.1344    586.20538   -1017.6686    321.41048     -597.489    47.212033    23.393749    31.124599     68.78624    134.44907    113.12342 
  290500    249.64993   -12671.871   -11386.709   -12671.871            0    1449.9431    47.087424    21.647416    21.846022   -9.3359463   -21.540378    2.9190928     22268.11    1701.0521    621.35026    2027.4271   -24.483335    331.28929    67.692677    47.087424    23.574785    30.818138    68.668056    134.34293    113.32923 
  291000    249.50976   -12624.913   -11340.472   -12624.913            0    1556.8901    46.834101    21.796721    21.812608   -9.0531913   -21.609849    3.0738685    22266.961    2189.4615    59.324738    2421.8841   -1106.6581    618.14743   -334.77139    46.834101    23.602062    30.858128    68.862294    134.45082    112.55538 
  291500    247.68953   -12600.458   -11325.387   -12600.458            0    863.92723    47.172209    21.640904    21.919918   -9.3640716   -21.534934    2.8332713    22376.931    388.60749    821.89421      1381.28   -481.19094    296.43833    10.523872    47.172209    23.579961    30.858769    68.814051    134.25513    113.39825 
  292000    236.92269   -12622.508   -11402.864   -12622.508            0    1032.4053    47.259482     21.49854    22.048016   -9.2043063   -21.780233    3.0151659    22401.002    317.90301    2013.1548    766.15798   -1028.0014    383.26498   -354.39047    47.259482    23.386031    31.138156    68.634552    134.38457    113.17753 
  292500    247.84355   -12647.457   -11371.593   -12647.457            0    501.06445    46.947578    21.648726    22.014888   -9.2290945   -21.366902    2.8814894    22374.947    832.14088    202.00519    469.04728    600.99672   -143.23686    456.05892    46.947578     23.53388    30.814003    69.025476    133.90107    113.08909 
  293000    239.97741   -12656.017   -11420.647   -12656.017            0    905.19584    46.688685     21.74269    21.983225   -9.3524204   -21.551818    2.9338839    22315.998    835.62284    850.98495    1028.9797    442.74667    429.59176   -272.04834    46.688685    23.668805    30.924921    68.744665    134.17944    113.27452 
  293500    243.25108   -12629.949   -11377.727   -12629.949            0    149.66694    47.203428    21.606991    22.001699   -9.1649992   -21.562878    2.9674536    22440.062   -581.17018     824.7331    205.43789   -154.17535   -103.39385    216.41823    47.203428    23.470391    30.948962    68.879243    134.16474    112.98511 
  294000    255.55303   -12664.606   -11349.055   -12664.606            0    620.25481    47.222934    21.545495    21.949898   -9.3717074   -21.702682     2.938577    22332.736   -75.219402    1276.2034    659.78041    599.75485    121.23894    86.945184    47.222934    23.495473    31.007091    68.525481     134.4211    113.50774 
  294500     246.2349   -12591.533    -11323.95   -12591.533            0    658.36852    47.040516    21.703509    21.938978   -9.1671814   -21.664524    2.8433803    22398.473    493.39765    447.31627    1034.3916   -137.18784     1030.523    553.87108    47.040516    23.560125    30.963772    69.094124     134.4008    112.89834 
  295000    250.95028   -12612.163   -11320.306   -12612.163            0    508.36971    46.979735    21.777692    21.935914   -9.3538895   -21.429677    3.1029491    22442.857     905.3877    152.50648    467.21496    728.45116   -317.73692   -893.52114    46.979735    23.701542    30.822778    68.476447    134.04751    113.24435 
  295500    244.43949   -12632.853   -11374.513   -12632.853            0    1049.6485    47.101219    21.558864    22.017557   -9.1383858   -21.770788    2.9095789    22357.701    1597.9918    471.54087     1079.413   -47.133859   -36.286139    310.05911    47.101219    23.415694     31.09993    68.940653    134.42916    112.97115 
  296000    250.44679   -12626.898   -11337.633   -12626.898            0    1881.5852    47.179912    21.546117    21.909705   -9.4270589   -21.272379    2.9609143    22272.177    2763.6974    1586.2919    1294.7662    318.50016   -1646.1136   -214.61595    47.179912    23.518176    30.680878    68.510226    133.89534    113.63079 
  296500    248.10914   -12686.257   -11409.026   -12686.257            0    1219.1342    46.869356    21.657022    21.926175   -9.1030906   -21.715964    2.9090928    22256.179    484.27167    1390.7918     1782.339    201.46939    364.73954    413.96422    46.869356      23.4924    30.996824    69.023192     134.4741    112.79846 
  297000    236.54937   -12599.483    -11381.76   -12599.483            0    1354.0676    46.893424    21.625693    22.012682   -9.3392936   -21.375469    2.9550317    22323.122    1830.5149    620.72088     1610.967   -9.6547576   -948.27009    613.58762    46.893424    23.556167    30.825331    68.719478    133.90291    113.35763 
  297500    251.08438   -12634.422   -11341.875   -12634.422            0    522.55673    47.204656    21.540372    22.071435   -9.1183305   -21.733235    2.9311477    22442.364    15.474333    1302.6209    249.57495   -75.580566    156.25913   -338.20919    47.204656    23.390844    31.113877     68.95818    134.30727     112.9436 
  298000    233.35221   -12642.086   -11440.822   -12642.086            0   -17.511764    47.083441    21.694855    21.966222   -9.3263069   -21.570455    3.0407737    22437.802   -553.14523    274.25212    226.35782    232.58213   -387.36425    104.97606    47.083441    23.614545    30.936156    68.550835    134.20735    113.26218 
  298500    247.26924   -12630.077    -11357.17   -12630.077            0    553.52663     47.08846    21.705391    21.944041   -9.2304794   -21.590728    2.8093073     22428.42   -414.68015    1285.6263    789.63377    585.33648   -174.77637   -325.86047     47.08846    23.586558    30.912662    69.086213    134.30221    113.03821 
  299000    240.58117   -12623.453   -11384.975   -12623.453            0    425.68515    47.245297      21.6135    21.934493   -9.1922008   -21.743329    3.0193362    22398.105    8.1840107    563.12727    705.74418   -642.18421    440.31428    135.23357    47.245297    23.487016    31.032414    68.668896    134.48039       113.04 
  299500    238.56255   -12654.621   -11426.535   -12654.621            0    1413.7107    47.114488    21.633476    21.895411   -9.4869629   -21.471204    2.9293105    22316.901    694.35656    1992.6125     1554.163    795.16545    304.47866    159.27064    47.114488     23.62223    30.805884    68.469245    134.18552    113.67897 
  300000    250.59631    -12581.82   -11291.785    -12581.82            0    1519.8235    46.921527    21.640912    22.021907   -9.0745644   -21.559787     2.991943    22361.586    1581.0482    1409.3765    1569.0457   -511.24714    34.965594   -533.32384    46.921527    23.466504    30.963535     68.99985    134.13059     112.7495 
  300500    250.52717   -12662.578   -11372.899   -12662.578            0     1065.878    46.981122    21.551891     22.03116   -9.3368063   -21.416799    3.0319053    22307.255    1322.9639    1106.0108    768.65917    47.911095    361.17098   -75.405712    46.981122    23.487442    30.874646    68.539618    133.92129    113.42344 
  301000    250.55346   -12642.465   -11352.651   -12642.465            0    1164.9664    46.866322    21.546569    22.095488   -8.9981539   -21.597683    2.8881791     22312.21    1840.2357    1277.7124     376.9512   -561.51308   -388.30597   -409.77185    46.866322    23.349976    31.032436    69.262854    134.10466    112.66611 
  301500    246.31259   -12668.513    -11400.53   -12668.513            0    608.33603    46.845382    21.721354    21.935937   -9.3863222   -21.437599     2.974112    22320.806    1324.4523    845.66283   -345.10707    572.12795   -470.79457    -548.4931    46.845382    23.662635    30.815602    68.620109    134.08091    113.37034 
  302000    244.48534   -12649.747   -11391.171   -12649.747            0    171.10723    47.052128    21.649559    22.017394   -9.1120321   -21.587194    2.9806407     22428.19    -195.8765    79.309221    629.88896   -248.44072    556.52769    -267.9875    47.052128    23.488987    30.978328     68.96065    134.17468    112.82562 
  302500    238.91625   -12661.536   -11431.629   -12661.536            0    211.47891    47.166041    21.581457    22.046238   -9.3228818   -21.633761    2.9473258    22441.127    965.56888   -282.53053   -48.601613    751.33051    50.206302    242.28541    47.166041    23.509049    31.028099    68.672497    134.20529    113.36366 
  303000    246.23524   -12651.464   -11383.879   -12651.464            0   -82.044526    47.227708    21.621304    22.000564   -9.2821282   -21.557396    2.9164839    22465.318   -524.81227    208.82483    69.853864     486.2592   -345.83843    199.92946    47.227708    23.529528    30.939489     68.80869    134.16763    113.23408 
  303500    245.24389   -12589.284   -11326.803   -12589.284            0    504.04511    46.885581     21.72476    22.022579    -9.210081   -21.602053    3.0608625    22431.714    348.03301    916.99209    247.11023    987.08353    556.53872    -440.7693    46.885581    23.596415    31.000186    68.722081    134.17372    112.97422 
  304000    243.50418   -12635.449   -11381.924   -12635.449            0    1442.1985    46.970533    21.593265    21.965614   -9.2593806   -21.367348    2.9101419    22278.561    839.83087    902.10219    2584.6624     177.7291   -228.51039  -0.42581969    46.970533    23.494791    30.781824    68.871663     133.9599    113.21008 
  304500     242.7256   -12645.713   -11396.196   -12645.713            0    1328.8442     47.04023    21.430651    22.129698   -9.1443939   -21.878889    2.9736813     22309.01    499.01456    2785.9974    701.52055    263.11276    200.38669   -414.08434     47.04023    23.300059    31.261032    68.766619    134.41717     113.1078 
  305000    252.16706   -12612.494   -11314.373   -12612.494            0    668.63843    47.070098    21.644209    21.983913   -9.3022199   -21.374214     2.964535      22397.1    735.40373    1107.9917    162.51989    735.80957   -503.98631    548.29586    47.070098    23.558503    30.804836    68.752911    133.93637      113.257 
  305500    247.77511     -12609.8   -11334.288     -12609.8            0   -73.336954    46.894412    21.752381    22.041354   -9.0998513   -21.678165    2.8900625    22483.616    624.84948   -1090.2886    245.42824    12.872052   -92.071453     304.3026    46.894412    23.579087    31.050227    69.187675    134.27992    112.70142 
  306000    253.37846   -12687.263   -11382.906   -12687.263            0    168.24944    47.085128    21.717565    21.898238   -9.4796437   -21.538232    3.0522437    22392.576   -824.76196   -113.38794    1442.8982    1484.0692   -214.32984    176.03449    47.085128    23.696335    30.866559    68.298289    134.24959    113.58111 
  306500    242.70178   -12660.102   -11410.708   -12660.102            0    341.50286    47.284527    21.562528    21.968964   -9.0949881   -21.687956    2.9260768    22398.983   -488.57404    985.12733     527.9553   -502.88026   -47.690408   -877.14824    47.284527    23.402167    31.009107    68.975916    134.37937    112.86982 
  307000    242.23829    -12616.99   -11369.982    -12616.99            0    737.63734    47.051808    21.641122    21.957295    -9.396964   -21.651303    2.9577417    22358.102   -158.15432    980.30001    1390.7663     844.5529    896.93955    314.52861    47.051808    23.593242    30.978218     68.53385    134.34044    113.47135 
  307500    242.17785   -12640.594   -11393.897   -12640.594            0    1327.9794    46.812919    21.628863    21.976084   -8.9646206    -21.27523    2.8328581     22251.01    1583.0766    1489.0008    911.86083   -485.41221   -562.25628    133.39522    46.812919    23.413076    30.718215    69.489458    133.83574    112.51278 
  308000    237.57066   -12611.003   -11388.022   -12611.003            0    1197.4753    46.890261    21.577179    22.088934   -9.2954012   -21.604819    3.0893327    22348.691    2628.1917      1155.87   -191.63565    190.00268   -623.27458   -580.41549    46.890261    23.494237    31.052105    68.491117    134.08783    113.30627 
  308500     250.3608   -12623.256   -11334.434   -12623.256            0    911.97449    47.014432    21.535495     22.10767   -9.2575583    -21.42871    2.8812684    22383.553    1544.5327    824.19849    367.19231    163.23315   -605.15885   -345.14135    47.014432    23.440988    30.923137    68.944339    133.86543    113.26163 
  309000    248.35746   -12653.647   -11375.138   -12653.647            0     1394.841    46.891555    21.653911    21.969423   -9.1867808   -21.588571    2.8925835    22307.435    1404.5419    1048.5586    1731.4226    188.65284   -142.55552   -759.48249    46.891555    23.522091    30.936855    68.984732    134.25292    112.98933 
  309500    247.85267     -12643.9   -11367.989     -12643.9            0    714.30082     47.05769    21.699482    21.902141   -9.3873239   -21.568824    2.9704936    22364.878    724.78816    196.06097    1222.0533    340.39033    380.80161   -19.102074     47.05769    23.642956     30.88271     68.55669    134.29966    113.39359 
  310000    246.60788   -12608.797   -11339.295   -12608.797            0    1590.8463    47.191354    21.590413    21.874692   -8.9377861   -21.643374    2.9152817    22287.704    733.69204    2534.9704    1503.8764   -990.65328    514.80547   -427.62547    47.191354    23.367284    30.910139    69.208723     134.4433    112.48809 
  310500     256.7095   -12598.694    -11277.19   -12598.694            0    1843.9978    47.143642    21.542154    21.956337   -9.4836202   -21.652355    2.9815757     22298.32    1201.4725    1828.0056    2502.5153    405.77146    920.67845    343.09686    47.143642    23.537278    30.980558    68.303918    134.33893     113.7608 
  311000    245.87203   -12642.003   -11376.289   -12642.003            0     1512.102    46.986154    21.618524    21.932416    -9.044972   -21.545827    2.8780725    22278.318    572.37304    1826.2024    2137.7307   -189.97228    479.62518    112.71005    46.986154    23.434421    30.879391    69.188884    134.24607    112.70394 
  311500    239.97715   -12602.719    -11367.35   -12602.719            0    1731.0084    46.993472    21.657276    21.935543   -9.4394234   -21.521252    3.0786246    22324.912    2328.7173    823.65688    2040.6511    452.17941   -183.97143   -449.57036    46.993472    23.624994    30.883819    68.296239    134.17447     113.5502 
  312000    246.50994   -12645.455   -11376.457   -12645.455            0    224.36896    46.999829    21.579966    22.101118   -9.1511428   -21.632323    2.9367073    22416.163   -725.70903    1536.2225   -137.40664   -423.18095    576.93263    413.78789    46.999829    23.440101     31.06511    68.967803    134.13524    112.97973 
  312500    246.94253   -12605.277   -11334.052   -12605.277            0    574.53602    46.973064    21.646849    22.039377   -9.2173793   -21.293163    2.9175721    22410.053    715.48549    428.97205    579.15053   -532.86235    94.574357    459.28367    46.973064    23.527561    30.783846    69.011128    133.76477    113.06464 
  313000    242.09504   -12622.412   -11376.141   -12622.412            0    304.95412    47.121482    21.636987    21.967153   -9.3417969   -21.847805    3.0232721    22396.982    569.42976     242.8946    102.53802     125.0467    334.47676    542.40176    47.121482    23.567528    31.129127    68.446811    134.57517    113.35233 
  313500      242.856   -12631.308    -11381.12   -12631.308            0    1200.3359    47.139013    21.634172    21.890395   -9.2021669   -21.455256    2.8905638    22324.121    638.49943    1631.3452    1331.1631    423.78505    495.18782    252.07718    47.139013     23.50994    30.787543    68.950956    134.17731    113.04264 
  314000    245.07955   -12617.743   -11356.108   -12617.743            0    636.33752    47.132513    21.662806     21.89661    -9.345822   -21.914053    3.0491347    22356.931     816.0234    327.93094    765.05824   -60.193989    1275.9397    4.5771239    47.132513    23.592828    31.128515    68.357754    134.74772    113.33645 
  314500     254.2396   -12636.646   -11327.856   -12636.646            0    2148.3301    46.988845    21.629494    21.879567   -9.2393451   -21.386617    2.8392591    22237.187    1331.9133    2534.7209     2578.356    495.35973     421.2631    183.95679    46.988845    23.520215    30.727255    68.998864    134.10812    113.13044 
  315000    244.68807   -12629.076   -11369.456   -12629.076            0    1386.4901    47.060484    21.577968    21.962722   -9.1896124    -21.71086    2.9967414    22302.478    869.12713    1896.9566    1393.3867    170.13968    1031.7995   -439.75092    47.060484    23.453309    31.027457    68.713409    134.40539    113.06816 
  315500    245.67767   -12643.397   -11378.683   -12643.397            0    919.35681    47.053092    21.610132    21.981403   -9.4206463   -21.401776     2.974047    22351.207      1018.49    957.58844    781.99196    114.57236   -492.78373   -235.11426    47.053092    23.574273    30.823093    68.535879    133.97483    113.55415 
  316000    251.13669   -12624.208   -11331.391   -12624.208            0    639.67456    46.976459    21.668506    22.036804   -9.0809105     -21.6085    2.9291717    22431.476    1251.7022    366.88668    300.43476   -765.58376   -197.79154   -441.70292    46.976459    23.494406    31.002065    69.112078    134.18696    112.73775 
  316500    246.06054    -12609.21   -11342.525    -12609.21            0    1357.8739    47.142671     21.57208    21.943017   -9.5634823   -21.608044     3.033735     22315.29    703.84986    1220.8817    2148.8902    1869.2115   -91.100971    -81.56173    47.142671    23.596924    30.945227    68.122671    134.28816      113.909 
  317000    238.48273    -12636.74   -11409.065    -12636.74            0    1295.1881    47.265315    21.577322    21.880819   -8.9999828   -21.759743    2.9463131    22315.349    529.26624    1336.1997    2020.0984   -1100.6364    435.80288   -586.73485    47.265315    23.379062    30.998991    69.026096    134.58367     112.6412 
  317500      239.517   -12676.336   -11443.336   -12676.336            0     1468.585    46.950471    21.650229    21.894447    -9.392034   -21.562895    2.9654852    22255.453    472.24146    1562.9883    2370.5252    1057.3108    341.71931    100.98195    46.950471    23.599634    30.872631    68.525659    134.30253    113.45157 
  318000    245.94293   -12619.971   -11353.891   -12619.971            0    1542.1784    46.844327    21.579879    22.035437   -9.1304607   -21.387551    2.8965676     22275.51    1805.5001    1495.3748    1325.6603    11.834437   -1092.4121    458.99778    46.844327    23.431954    30.844415    69.103802    133.89994    112.93325 
  318500    252.64682   -12646.022   -11345.432   -12646.022            0    638.61066    47.011433    21.549491    22.092898   -9.2820039   -21.623127    3.1565496    22381.707    548.17065    1169.9984    197.66292    531.40874    37.382937    -1.890291    47.011433    23.463507     31.07442    68.372707    134.09497    113.30298 
  319000     243.6684   -12624.696   -11370.325   -12624.696            0    679.94934    47.033984    21.594585    21.995288   -9.3095595   -21.480019    2.8107433     22340.16    706.54708    935.48059    397.82035    192.90363   -850.26607    294.23678    47.033984    23.515824    30.872062    68.957922    134.08903    113.32117 
  319500    246.98514   -12628.888   -11357.444   -12628.888            0      1196.76    47.058552    21.678341    21.858276   -9.1536075   -21.757845    3.1537043    22298.749    1303.1891    708.37166    1578.7192    130.53068    368.66285   -928.69214    47.058552     23.53166    31.002159    68.486883    134.57297    112.89174 
  320000    248.56966   -12620.288   -11340.687   -12620.288            0    1224.8134    47.103771    21.670537     21.88155   -9.3835236    -21.48945    2.7835383    22335.899    1263.3547     6.230766    2404.8547     523.1326   -572.86381    507.36634    47.103771    23.614883     30.79524     68.88577    134.25214    113.41301 
  320500    244.92089   -12659.347   -11398.529   -12659.347            0    1664.8955    47.040951    21.594224    21.919731   -9.1339551   -21.724537    2.9347568    22266.344     1531.591    1553.9131    1909.1825   -356.81885    469.79988    606.56175    47.040951    23.446527    31.000692    68.888342    134.48929    112.92746 
  321000    244.61481   -12653.213   -11393.971   -12653.213            0    1400.6884     46.98389    21.624897    21.949485   -9.4704576   -21.254784    3.1860172    22301.155    1828.2041    1082.0111    1291.8499    710.70535   -1159.6009   -92.601662     46.98389    23.607747    30.719642    68.126305    133.78035    113.65065 
  321500     239.7616   -12637.437   -11403.179   -12637.437            0    1278.6057    46.892322    21.577748     22.04238   -9.0952958   -21.663838    2.7606307    22303.157    1541.7211     1368.532    925.56397   -453.21037    469.35541   -148.95556    46.892322     23.41631    31.029172     69.31885    134.28089    112.85604 
  322000    244.43544   -12644.913   -11386.594   -12644.913            0    1227.6828    46.994086    21.622567    21.981533   -9.3846486   -21.391327    3.1758519    22336.157    944.23059    1618.4431    1120.3747   -21.379555    309.70864   -836.86981    46.994086    23.571318    30.836062    68.243063    133.92462    113.46186 
  322500    243.99924   -12621.258   -11365.184   -12621.258            0     700.6071    47.056014    21.606396    22.008253   -9.1534864   -21.626381    2.9302435    22376.031    459.78863    1198.5893    443.44336    302.73445   -73.362366   -529.67395    47.056014    23.465351    30.994353    68.946815    134.24695     112.9598 
  323000    248.41083   -12636.679   -11357.895   -12636.679            0    685.73267    47.047588    21.640961    21.979571   -9.3787391   -21.573789    2.7233021     22378.61    556.69093     886.1717    614.33538    666.49415   -207.47507    228.92383    47.047588    23.585842    30.918381    69.005472    134.24803     113.4309 
  323500    245.28929   -12618.062   -11355.348   -12618.062            0    1184.5907    47.026727    21.678759    21.930291   -9.1552074    -21.61756    3.2283992    22357.517    1066.6267    1487.6194    999.52594    168.55745    176.56542   -287.35938    47.026727    23.532667    30.962544    68.427578    134.28151    112.89493 
  324000    242.77957   -12651.508   -11401.713   -12651.508            0     1430.468    46.922111    21.578561    21.981115   -9.2163356    -21.48648    2.7591131    22256.134    1167.6031    1814.0645    1309.7363   -199.17103   -251.72192    488.16001    46.922111    23.464337    30.861804    69.165044    134.12419    113.12763 
  324500    244.57158   -12664.335   -11405.315   -12664.335            0    1532.8425    46.934047     21.62604    21.954327   -9.3256953   -21.490994    3.1466708    22283.589    938.37293    1649.3946      2010.76    6.4114883    717.93261   -521.43062    46.934047    23.551098    30.882954    68.338866    134.09781    113.32693 
  325000     246.6561   -12629.009   -11359.258   -12629.009            0     1870.227    46.937632     21.60656    21.955602   -9.0476281    -21.58046    2.9004685     22266.51    2059.7102    1813.9993    1736.9715   -493.83443    1055.8496    105.09103    46.937632    23.424411    30.922119    69.140279    134.25854    112.72123 
  325500    240.01492   -12647.133    -11411.57   -12647.133            0    1005.7524    47.139343    21.601695    21.925766   -9.4709389   -21.552431    2.8682017    22326.782    451.18653    1560.5656     1005.505    450.40145    -48.43254    226.72505    47.139343    23.586689     30.87836    68.571831    134.26504    113.67433 
  326000    245.96208   -12656.694   -11390.515   -12656.694            0    2369.6474    47.115615    21.548849    21.867362   -8.8939387   -21.700646    3.0058272    22201.654    1888.0219    2462.0376    2758.8827    -987.8686    575.34028   -480.50904    47.115615    23.312122    30.953748    69.069819    134.51266     112.4276 
  326500    248.20184   -12631.911   -11354.203   -12631.911            0    785.56647     46.94941    21.641639    21.982022   -9.4232998   -21.441718     2.897321    22335.101    1029.3818    901.74089    425.57673   -35.516901    213.29158   -271.12793     46.94941    23.604218    30.843979    68.675487    134.04053    113.52949 
  327000    249.36282   -12602.367   -11318.683   -12602.367            0    458.06752    46.986558    21.691032    21.998424   -9.1259976   -21.663475    2.9303632    22420.507    725.14323   -80.571815    729.63115   -350.00545    393.75353   -90.832823    46.986558    23.532631    31.013285    69.023726    134.30858    112.81779 
  327500    241.43458   -12667.986   -11425.115   -12667.986            0   -79.755283    47.257533    21.650432    21.943913   -9.2976007   -21.441619    3.0449608    22451.827    454.04227   -898.98331    205.67519    0.9567506   -1473.5123   -70.945721    47.257533    23.562398    30.830993    68.581802    134.06362    113.24071 
  328000    249.28483   -12633.151   -11349.868   -12633.151            0    1625.1826    46.950193    21.563355    22.035535   -9.2633198   -21.745355    2.8260386    22308.856    1789.7914    1525.4879    1560.2684   -145.48026    257.67028    476.68259    46.950193    23.468859    31.087164    68.923022     134.3866    113.24769 
  328500    245.70272   -12688.746   -11423.903   -12688.746            0    1410.8283    46.904132     21.64832    21.948922   -9.2012386    -21.29324    3.0582563     22286.84     1921.168      1356.11    955.20695    123.53368   -565.04059   -737.11607    46.904132    23.522597    30.732884        68.74    133.85604    113.02707 
  329000    245.98008   -12633.757   -11367.486   -12633.757            0    757.64442    47.054032    21.605151    22.005278   -9.2093516   -21.616469    3.0036637    22370.774    960.67165    1659.3374   -347.07584    86.095554    341.04545   -526.04733    47.054032    23.486054    30.992354    68.736998    134.22497    113.08648 
  329500     243.1767   -12679.059    -11427.22   -12679.059            0    470.97102    46.924727    21.596825    22.073982   -9.2827488   -21.657081    2.7753718    22370.328    606.50183    533.70165    272.70957    264.90487    33.288178    674.90107    46.924727    23.507281    31.048229    69.048912    134.22919      113.259 
  330000    261.14496   -12638.213   -11293.875   -12638.213            0    428.85531    47.121702    21.721603    21.888372   -9.1696308   -21.448908    3.1619836    22404.038    704.95977   -358.22451    939.83066    259.93257   -1196.3857   -3.3216901    47.121702    23.577747    30.808353    68.573015    134.12326    112.88672 
  330500     241.2671   -12633.889    -11391.88   -12633.889            0    1418.1529    47.043852    21.579447    21.912421   -9.2803602   -21.722605    2.8422862    22245.058    853.29509    1670.2471    1730.9165    322.23794    260.04102    321.99558    47.043852    23.490373    30.985551    68.823999    134.51179    113.27039 
  331000    235.95132   -12651.426   -11436.782   -12651.426            0    1028.0011    47.091345    21.615231    21.892494   -9.2894623   -21.363104    2.9925519    22284.158    506.58174    958.37132    1619.0503    539.61247   -732.61804    332.42541    47.091345    23.526843    30.734653    68.659737    134.03375    113.25632 
  331500     243.9427   -12605.909   -11350.127   -12605.909            0    537.18932    47.027203    21.622587    22.053729   -9.1554299   -21.717636    3.0630771     22425.33    295.63066    480.34573    835.59157   -176.38102   -81.354705   -303.96468    47.027203    23.481017    31.103137    68.719241    134.28644    112.94876 
  332000    247.62805   -12652.566   -11377.812   -12652.566            0    356.47139    47.115717    21.624901    21.990166   -9.3317025   -21.514697    2.8212369     22405.18   -406.24316    1012.5964    463.06093     659.4629   -190.02663    41.666963    47.115717    23.552431     30.89351    68.913687    134.14007    113.34144 
  332500    248.66277   -12644.727   -11364.647   -12644.727            0     494.1307    46.951491    21.631523    22.076266   -9.0909636    -21.59141    3.1629807    22421.368    345.77036    297.59121    839.03054   -108.57262   -49.460155   -376.55237    46.951491    23.464194    31.041182    68.688982     134.0729    112.79529 
  333000    255.59393   -12645.382   -11329.621   -12645.382            0    567.09593    46.742667    21.689071    22.068663   -9.2907045    -21.45691    2.8967862    22373.321    982.24859    354.46899    364.57021    126.07048   -292.95774   -521.04176    46.742667     23.59519    30.916278    68.936232    133.95019     113.1883 
  333500    249.78677   -12618.534   -11332.667   -12618.534            0    1922.6246    46.976294    21.591445    21.932637   -9.1977399   -21.485113    3.0306366    22245.967    1838.0782    1342.2523    2587.5433   -450.88782   -188.44549   -497.80687    46.976294    23.468892     30.85183    68.697006    134.13862    113.07352 
  334000     249.6259   -12617.275   -11332.236   -12617.275            0    1468.0518    47.235326    21.547652    21.861713   -9.2197027   -21.715237    2.8811208    22251.078    150.21307    2302.1304    1951.8119   -221.10777    485.68033   -266.99004    47.235326     23.43724    30.948131    68.800925    134.56078    113.16487 
  334500    246.02737   -12644.284    -11377.77   -12644.284            0    1047.6117    47.214205    21.715998    21.701176   -9.4045031   -21.531812    2.9525791    22250.293    960.87324    308.55781    1873.4041   -4.7698231   -71.848869    220.45958    47.214205    23.664937    30.712826    68.480102    134.51284    113.41589 
  335000    235.63382   -12655.155   -11442.146   -12655.155            0    757.62684    47.024688    21.653336    21.943171   -9.1232307   -21.646341    3.0131425    22343.444    833.69326    736.82086    702.36641   -100.14605    137.45013   -364.23143    47.024688    23.496814     30.97008    68.835838    134.34231    112.84722 
  335500    251.66194   -12575.925   -11280.405   -12575.925            0    361.33953    47.146437     21.59419    22.038267   -9.4340756   -21.487309    2.8440811     22436.92    212.39512     631.3456    240.27787     585.0621   -437.65627    546.39291    47.146437    23.565034    30.910814    68.739582    134.03828    113.59957 
  336000    249.38887   -12651.641   -11367.822   -12651.641            0    1136.6469    46.755017    21.623578    22.128149   -8.9602245   -21.572223    3.1254002    22371.796    2021.9746     1072.373    315.59309   -336.28071   -458.32202   -113.89782    46.755017     23.40651     31.06097    68.972105    133.98836    112.50779 
  336500    249.88894   -12633.686   -11347.293   -12633.686            0    1459.9468    46.824754     21.65178    22.001897   -9.2663651   -21.340264    2.9117919    22306.387    2247.8214    1341.6925    790.32648   -172.71601   -231.88011   -228.42094    46.824754    23.551329    30.789103    68.921195    133.87687    113.16959 
  337000    252.12211   -12630.285   -11332.396   -12630.285            0    761.83329    47.016088    21.590466    22.073403   -9.2402265   -21.830292     2.868585    22406.695    802.72425     1048.628    434.14767    -175.1865    1080.3799    254.62567    47.016088    23.484676    31.177324     68.89454    134.44287    113.16982 
  337500    245.89223    -12606.34   -11340.522    -12606.34            0    907.47961    47.222065    21.569311    21.967858   -9.2719028   -21.358197    3.0495004    22375.305   -194.04987    1387.0878    1529.4009    273.69469    -159.9287    218.08123    47.222065     23.47772    30.790563    68.596582    133.92057     113.2612 
  338000    233.70601   -12673.144   -11470.059   -12673.144            0     874.6527     46.94738    21.601324     21.96701   -9.2378229   -21.755588    2.8537024    22277.307     543.5597    1516.7017    563.69668    556.51846    258.27164     16.04327     46.94738    23.493713    31.048329    68.898169    134.48325    113.15401 
  338500    251.52621   -12673.705   -11378.884   -12673.705            0    1937.3062    46.914543    21.688434    21.858702   -9.2241411   -21.325715    3.0536966    22241.295    1698.3704    1587.5056    2526.0427     258.3001   -1186.2188   -354.77781    46.914543    23.568474    30.690619     68.68381    134.01615    113.04016 
  339000     252.3664   -12613.642   -11314.495   -12613.642            0    1477.9557    47.002481     21.60553     21.96778   -9.0904747   -21.511332    2.9818384    22308.578    1423.2107    1937.4413    1073.2151   -556.80411   -149.23309   -41.840833    47.002481    23.440044    30.890324    68.958569     134.1371    112.81881 
  339500    247.02101   -12658.415   -11386.786   -12658.415            0    1516.9697    47.195336    21.494671    21.954969   -9.4270626    -21.76606    2.9101517    22272.179    1112.0876    2205.7326     1233.089   -131.60771    447.07318    421.89206    47.195336    23.471054    31.052391    68.447199    134.50298    113.68114 
  340000      244.927   -12608.162   -11347.313   -12608.162            0    1542.3826    47.047372    21.617721    21.952429   -9.1216771   -21.366773    2.9483526    22326.871    1720.3687    880.06056    2026.7185   -20.411822   -974.29789    198.37436    47.047372    23.463394    30.775655     69.01194    133.96949    112.87749 
  340500    241.72869   -12601.896   -11357.511   -12601.896            0    705.76333    46.761333    21.740789    22.031758   -9.3309667   -21.761494    2.9833493    22398.108    1493.7679    280.45309    343.06902    590.80988    433.25885    194.96946    46.761333    23.658589     31.11047    68.653839    134.38618    113.22861 
  341000    242.21837   -12634.846    -11387.94   -12634.846            0    186.56122    47.029335    21.657982    21.970771   -9.2501475   -21.441114    3.0439453     22378.56   -651.92853    1340.4744   -128.86221    874.35099   -768.96116   -400.27023    47.029335    23.550656    30.849664    68.670683    134.02876    113.12738 
  341500    239.07155   -12623.558   -11392.852   -12623.558            0    606.28639    47.237404    21.516274     21.97761   -9.1236316   -21.727721    2.7783983    22337.448   -149.28189    1148.8669    819.27415   -10.285215    164.91659    201.46193    47.237404    23.370723    31.029481    69.157775    134.44532     112.9786 
  342000      239.898   -12598.404   -11363.443   -12598.404            0    1408.6328    47.112644    21.645574    21.861815   -9.4823043   -21.562104    3.1157673    22294.247    321.15319    1526.9014    2377.8437    509.64682    305.84775   -204.32191    47.112644     23.63144    30.863754    68.111809    134.31657    113.65685 
  342500    244.95346   -12641.155   -11380.169   -12641.155            0    501.14932      46.9737    21.713095    21.955979   -9.1088098   -21.570907    2.9252748    22393.878     541.7333    65.273149    896.44151   -698.83678   -393.31065    266.01436      46.9737    23.546314    30.918057    69.075184    134.24116    112.75842 
  343000    237.33925   -12627.536   -11405.747   -12627.536            0   -79.283727    47.161084     21.59317    22.099945   -9.4565255   -21.558072    2.9440591    22505.641   -19.600153    623.05073   -841.30176    275.97117    16.577139   -69.211267    47.161084    23.573096    31.013312    68.542583    134.03703    113.65056 
  343500    238.89827   -12603.574    -11373.76   -12603.574            0    183.04193    47.289611    21.568021    22.027261   -9.1713721   -21.738289    2.9868829    22466.557    10.718499    57.335345    481.07194     20.38642   -201.22609   -154.99562    47.289611    23.437013    31.091396    68.776462    134.36075    113.03666 
  344000    239.58104   -12669.785   -11436.455   -12669.785            0    1094.2565    46.816869    21.645072    22.024135    -9.189904    -21.40868    2.9217827    22318.256    2137.3256    100.80434    1044.6395   -240.06918   -478.05844    773.05894    46.816869    23.515176    30.853378    69.001534    133.93839    113.00475 
  344500    244.50543   -12645.641   -11386.961   -12645.641            0    1789.0008    46.719408    21.671759    21.973847   -9.2725599   -21.491085     3.077653    22248.338    1712.1514     1660.112     1994.739    68.759534   -681.51248    29.945499    46.719408    23.572134    30.889944    68.575197    134.08548    113.16433 
  345000    247.49417   -12634.713   -11360.648   -12634.713            0     2189.628    47.089637    21.494648    21.936675    -9.145473   -21.479747    2.9216662    22203.758    2450.9469    2512.2182     1605.719   -424.72031   -580.41741   -202.58605    47.089637    23.359357     30.84045    68.908847    134.14525    113.04862 
  345500    241.77276   -12634.622    -11390.01   -12634.622            0    1545.1802    47.110157     21.60832    21.880424   -9.3414908   -21.643511    3.0016954    22273.645    1739.6419    1252.5847     1643.314     262.0766    395.53642    25.693087    47.110157    23.541091     30.92256      68.4789    134.42109    113.37931 
  346000    242.36714   -12655.341   -11407.669   -12655.341            0     107.5473    46.896767    21.764807    21.940519   -9.0737291   -21.538896     2.905734    22394.668    298.38466   -612.07233    636.32956   -3.6925742    23.723838    117.65874    46.896767    23.580487    30.882903    69.193274    134.22178    112.63121 
  346500    246.90999   -12629.515   -11358.457   -12629.515            0    276.34004    47.012872    21.638765    22.042523   -9.3083641   -21.564325    2.9693481    22423.869    408.00513    16.396205    404.61878    835.52156   -264.25982    -97.05249    47.012872    23.555929    30.979186     68.70831     134.1142    113.27596 
  347000    245.31516   -12620.945   -11358.098   -12620.945            0    827.23718    47.087719    21.600786    21.993595   -9.1962301   -21.623601    2.9769138    22370.384    946.24861    1120.0582    415.40468    44.387215   -10.811877   -23.122325    47.087719    23.476896    30.986455    68.792414      134.254     113.0612 
  347500    254.46969   -12676.289   -11366.315   -12676.289            0    1284.0522    47.033388    21.558486    21.948982   -9.3160404   -21.536328    2.8935437    22255.579    959.96737    1246.2225    1645.9667     657.8178    49.574826   -40.237614    47.033388    23.485249    30.885981    68.740349    134.20957    113.37056 
  348000    241.81424   -12693.763   -11448.937   -12693.763            0    2070.2016    46.777469    21.634159    21.914299    -9.195922   -21.617101    3.0045074    22177.078    2233.0385    2268.2881    1709.2783   -44.961444    806.46594   -212.82848    46.777469    23.507484    30.928347    68.726369    134.34213    113.02864 
  348500    235.95515   -12621.608   -11406.944   -12621.608            0         1048    47.001937    21.618004    22.009607   -9.1843764   -21.267025     2.919682    22363.699    948.48531    1638.3656    557.14907   -550.37831   -124.53629   -22.847013    47.001937    23.488101    30.744653    69.029525    133.76728    113.01814 
  349000     241.0706   -12656.352   -11415.354   -12656.352            0    381.38927    47.070855    21.548771    22.099085   -9.2726387   -21.712435    2.9601274    22415.523    60.593514     1188.143   -104.56874    112.33635    486.97347   -63.970261    47.070855    23.459142    31.121724    68.707332     134.2397    113.28266 
  349500    247.90055   -12624.539   -11348.382   -12624.539            0   -774.09112    47.076827    21.717056      22.0746   -9.2461285   -21.451317    2.9681857    22568.411    465.87479   -1504.5157   -1283.6325    57.487024   -844.18242   -59.835289    47.076827    23.603419    30.923407     68.89656    133.92307    113.06209 
  350000    239.72994   -12636.217   -11402.121   -12636.217            0    61.137559    47.060382    21.672211    21.999561   -9.2928282   -21.772881    2.8723604    22437.408    329.29431     -442.282    296.40036    86.335245    1137.8733    711.27043    47.060382     23.58053    31.085198    68.841137    134.46119    113.20917 
  350500     253.2674    -12612.07   -11308.285    -12612.07            0    1671.3043    47.123094    21.599076    21.901082   -9.2427033   -21.645033     2.987583    22291.257     551.4139    2433.2888    2029.2103    -114.2173    693.29112   -825.72455    47.123094    23.493567    30.936879    68.651743    134.39905    113.16711 
  351000    250.92401   -12685.074   -11393.353   -12685.074            0    1428.3497    47.175258    21.544969    21.867517   -9.2569823   -21.561971    2.9463172    22225.915    745.55148     2235.755    1303.7426    -192.7595   -295.42848   -463.82059    47.175258    23.449465    30.851056    68.675657    134.33925     113.2512 
  351500     250.6766   -12584.649   -11294.201   -12584.649            0    1311.6946    47.015715     21.70464    21.863623   -9.2346293   -21.731841    2.9422734    22310.935    1283.2223    1090.3856    1561.4759     340.9332   -46.074374     -414.536    47.015715    23.587492    30.966884    68.765952    134.56973     113.0482 
  352000    239.03651   -12611.626   -11381.099   -12611.626            0    1193.9653    46.918359    21.659725    22.005242    -9.316557   -21.427257    2.8768605     22362.58    1858.4118    484.66907    1238.8151   -489.74188   -883.02428    48.089424    46.918359    23.578421    30.848571    68.892167    133.99494    113.27412 
  352500    244.65891    -12671.25   -11411.781    -12671.25            0    44.182948    47.135916    21.579499    22.058569   -9.1289171   -21.667704    3.0786391    22437.302    52.179009    847.96205   -767.59221    101.04155   -9.2700942   -298.14229    47.135916    23.431003    31.073266    68.720016    134.21159    112.93014 
  353000    237.32419   -12648.125   -11426.413   -12648.125            0    223.31019    47.026685    21.558099    22.126977   -9.4346119   -21.449949    2.7684342    22432.462    541.02899    389.70098    -260.7994    224.30999   -209.02169    715.04624    47.026685    23.532181    30.941359    68.905559    133.88755    113.63594 
  353500    237.38165   -12654.125   -11432.118   -12654.125            0     878.8624    46.885071     21.65063    21.983347   -9.1881875   -21.602775    2.9779144    22315.104    812.12465    1162.0051    662.45749   -331.18249    946.57154   -394.72494    46.885071    23.519621    30.964744    68.833709    134.23934    112.99561 
  354000    250.59816   -12641.363   -11351.319   -12641.363            0    1197.1422    46.892847    21.681967    21.895892   -9.2516641   -21.479956    3.0576571    22262.192    1698.1104    495.47347    1397.8426    598.84363   -202.91088   -178.54567    46.892847    23.573311    30.824793     68.60962    134.17404    113.10787 
  354500    253.06337   -12626.144   -11323.409   -12626.144            0    2239.4334    47.032057    21.444712    22.021347   -9.1775757    -21.63337    2.8183099    22210.486     2230.421    2582.8992    1904.9799    676.98372    370.35854    119.62802    47.032057    23.326027     30.99815    69.012147    134.25815    113.16921 
  355000    247.07198   -12626.277   -11354.385   -12626.277            0    1875.0707     46.97648    21.584489    21.944106   -9.2679013   -21.529685    3.0858104    22250.518    1190.9808    2779.8939    1654.3372   -323.05706     706.7775   -1009.8634     46.97648    23.490087    30.896494    68.487423    134.17343    113.23761 
  355500    238.29099   -12653.121   -11426.433   -12653.121            0    678.25531     46.82321    21.677546    21.996476   -9.2093179   -21.446024    2.8802737    22326.694    1339.8865    533.33171    161.54775    189.93609     233.8372    197.56852     46.82321    23.552655    30.855679    69.041995    134.03065    113.01734 
  356000    245.42996   -12622.016   -11358.578   -12622.016            0    495.13343    47.082667    21.640988    22.033823   -9.2296304   -21.547434    2.9535414    22450.602    244.97439    209.33728    1031.0886   -188.04582    326.46234    196.34967    47.082667    23.526972    30.959726    68.851526    134.10558    113.09769 
  356500    253.18692   -12614.746   -11311.376   -12614.746            0    530.09972    47.230596      21.7055    21.919007   -9.2965188   -21.695717    3.1172988    22470.571    413.08472   -329.46659     1506.681    143.83564   -269.03507    19.895213    47.230596    23.612581    30.997816    68.407353    134.41988    113.18557 
  357000    246.54267   -12657.761   -11388.594   -12657.761            0    2338.3131    46.994707    21.585071    21.898347   -9.2248665   -21.494621    2.5928356    22213.334    2531.8669    2406.2766    2076.7959    402.63098   -828.88247    494.01071    46.994707    23.473675    30.794141    69.406586    134.26757    113.14053 
  357500    249.68491   -12614.895   -11329.552   -12614.895            0    1046.7777    46.990201    21.692665    21.916656   -9.2702012   -21.657467    3.1483288    22340.583    1379.6087    1087.7597    672.96481     35.36038   -529.96811   -812.00491    46.990201    23.590429    30.972531    68.392193    134.36667    113.13909 
  358000    245.90561   -12661.895   -11396.007   -12661.895            0    173.28074    47.094704    21.597911    22.031835   -9.1505174   -21.527289    2.9224531     22409.62   -451.97284    782.69273    189.12233   -74.372564     3.135085    155.29356    47.094704    23.456379    30.941342    68.999041    134.08663    112.96121 
  358500    241.49007   -12619.957   -11376.801   -12619.957            0      457.059    47.112319    21.528727    22.118255   -9.3247629   -21.545459    2.7747157    22433.844    212.14404    470.93384    688.09912    865.78454   -34.449961    1500.8897    47.112319      23.4614    31.001985    69.001394    134.02485    113.41894 
  359000    244.29995    -12620.14   -11362.518    -12620.14            0    1276.4868    47.033522    21.665651    21.943126    -9.239571   -21.633103      3.11315    22360.306    1141.3702    1089.0008    1599.0893   -195.14798    508.87487   -482.06022    47.033522    23.553559    30.970689     68.50191    134.30698    113.09639 
  359500    251.79665   -12596.139   -11299.925   -12596.139            0    1812.1754    46.950005    21.682236    21.872672   -9.1293682   -21.370897    2.7622549    22265.967    1031.8346    1386.3669    3018.3247    601.13085    125.66625    911.24129    46.950005    23.525831    30.704382    69.328532    134.10864    112.83367 
  360000    248.11659   -12660.409    -11383.14   -12660.409            0     1139.649    47.122206    21.592393    21.964619    -9.353072   -21.871308    3.1516827    22348.587   -133.54499    1591.7526    1960.7395    467.57031     940.4537    232.65366    47.122206    23.531073    31.156567     68.17063    134.58613    113.42058 
  360500    233.15982   -12599.423    -11399.15   -12599.423            0    1060.0096    47.068368    21.615101    21.992643   -9.2368568   -21.499554    2.8784485    22375.041    1131.0517     1296.569    752.40804    -7.800834   -509.49658   -183.30245    47.068368    23.506002    30.890009    68.949694    134.10724    113.13864 
  361000    247.48267   -12620.342   -11346.336   -12620.342            0    563.76157    46.816061    21.676692    22.104148   -9.2716343   -21.534591    2.8548683    22431.672    1119.7381    344.26579    227.28083    245.99795   -279.09423    196.45479    46.816061    23.576306    30.991648    69.025468    134.01538    113.15754 
  361500    247.15446   -12630.695   -11358.379   -12630.695            0    285.39849    47.244694    21.631586    21.968695   -9.1983978   -21.556565    3.1418438    22451.515    384.37341    -815.5298    1287.3518    80.390652   -331.69821    16.645926    47.244694    23.506085    30.938329    68.524136    134.16757    113.03665 
  362000    243.23497   -12650.529    -11398.39   -12650.529            0    732.97045     47.10176    21.619685    21.959375   -9.3023102   -21.684608    2.8284238    22361.786    1077.4017    226.01861    895.49109   -110.14526    -514.5681    408.43951     47.10176     23.53601    30.990908     68.87608    134.40364    113.28078 
  362500    256.59342   -12644.204   -11323.297   -12644.204            0    1254.1897    47.287031    21.691494    21.733814   -9.2822447   -21.710743    3.0592191    22292.946    545.75537    647.58892    2569.2248   -182.55857    107.84148   -431.87748    47.287031    23.594088    30.871895    68.421683    134.68855     113.1671 
  363000    248.46653   -12600.827   -11321.757   -12600.827            0    1372.8121    47.100797    21.650334    21.816952   -9.2469337   -21.578349    2.8221309    22247.793    680.24163    2110.1636    1328.0311    539.30519    157.98533   -44.610798    47.100797     23.54236    30.815077    68.944819     134.4473     113.1275 
  363500    255.56843   -12651.269   -11335.639   -12651.269            0   -13.850648    47.143368    21.645977    21.959421    -9.304535   -21.713547     2.925059    22408.804   -665.60332   -24.131431    648.18281   -11.046205    765.94136    57.580981    47.143368    23.561042    31.020159    68.711629    134.42554    113.26048 
  364000    243.43051   -12583.684   -11330.538   -12583.684            0    166.27944    46.953974    21.719986    22.043192    -9.067345   -21.378413    3.1015595    22480.521    543.07993    441.33934   -485.58094   -313.64626   -661.28095   -713.57366    46.953974    23.536663    30.863547    68.925308    133.84225    112.65885 
  364500    244.92348   -12677.855   -11417.023   -12677.855            0    257.02152    46.812388    21.607248    22.139885   -9.3155432   -21.604127    2.8205487    22394.203    392.12177    1028.3847   -649.44193    300.89778    12.406994    775.88427    46.812388    23.529821    31.062329    68.977282    134.06778    113.32235 
  365000    252.86074   -12641.008   -11339.316   -12641.008            0    1107.7343     47.02055    21.588261    22.020093   -9.1790591   -21.382795     3.067818    22352.418    632.39877    2251.7345     439.0695    517.90121   -574.46324   -1019.9984     47.02055    23.458647    30.846716    68.730071    133.88357    113.03459 
  365500    248.92488   -12665.849   -11384.419   -12665.849            0    1607.9642     46.92412    21.561829    21.976078   -9.1479087   -21.608291    2.9315472    22234.732    1171.7517    1648.1928    2003.9481   -533.86251    326.49694     370.0036     46.92412    23.422141    30.959008      68.9138    134.26393    112.98977 
  366000    254.09433   -12630.083   -11322.041   -12630.083            0     380.2476    47.099496    21.665463    21.946906   -9.4212159    -21.57025    2.8217239    22395.334     751.3298   -81.065759    470.47875    567.56267   -498.21315    658.66207    47.099496    23.625232    30.901529    68.770886    134.26931    113.50179 
  366500    239.48236    -12617.02   -11384.199    -12617.02            0    905.47702    47.069618    21.726685    21.868492   -9.0144051   -21.659507    3.1640523     22364.18    638.17817    975.48523    1102.7677   -653.69969    213.31815   -1280.9694    47.069618    23.522507      30.9415    68.732963    134.42819    112.53357 
  367000    244.35953   -12666.847   -11408.919   -12666.847            0    616.53873    47.154064    21.546427    21.996163   -9.4594328   -21.557443     2.808641    22348.136   -681.05608    1491.1482    1039.5241    436.31407   -715.71894    238.08674    47.154064    23.531455    30.926413    68.692931    134.19129     113.7027 
  367500    241.44874   -12604.683   -11361.739   -12604.683            0    921.10143    46.947306    21.579323    22.082829   -9.1087496   -21.551366    2.9599912    22371.916    757.38924    1115.8185    890.09657   -408.96384    461.04654   -560.88648    46.947306    23.422991    30.997972    69.001513    134.04721    112.88487 
  368000    247.33197   -12618.685   -11345.455   -12618.685            0    835.66595    46.810197    21.665095    22.079081    -9.265011   -21.414507     3.106957    22391.442    1388.1962     741.5912    377.21046    682.68764   -200.39042     191.4365    46.810197    23.563039    30.914723    68.606289    133.84391    113.15382 
  368500    241.01143   -12641.556   -11400.863   -12641.556            0    1223.4006    46.956785    21.562782     22.03148   -9.2023819   -21.564871    2.7064749    22307.291    1266.2983    1776.5837    627.31974    494.86645   -363.79967    417.55817    46.956785    23.444347    30.947614    69.270886    134.17231    113.11141 
  369000    251.07568   -12648.949   -11356.447   -12648.949            0    1305.6432    47.207053    21.615627     21.86242   -9.3284563   -21.679387    3.0935643    22308.633    726.63214    1190.7842    1999.5131    232.02018     761.1044   -310.08269    47.207053     23.54263    30.944004    68.321767    134.47521    113.34313 
  369500    248.78137   -12629.912    -11349.22   -12629.912            0    1420.9788    47.301466    21.626536    21.757615   -9.2613141   -21.662589     2.770745    22257.319    650.78524    709.21953    2902.9316   -1133.8674    253.04462    643.16016    47.301466    23.526134    30.827562    68.945994    134.64419    113.18247 
  370000    244.50934   -12611.974   -11353.274   -12611.974            0    1802.0234    46.996585    21.668868    21.877976   -9.2117636   -21.599499    2.9579789    22279.717    1651.7553    1905.9194    1848.3956   -4.8427238   -122.03695   -179.97828    46.996585    23.545625    30.885819    68.793005    134.37358    113.03108 
  370500     240.4164   -12629.402   -11391.772   -12629.402            0    2292.4834    46.915754    21.585536    21.960473   -9.3530982   -21.605322    3.0443288    22239.408    2286.4387    1921.9057    2669.1057    590.25025   -283.44531    87.006252    46.915754    23.524792    30.956748    68.425123    134.26033    113.42728 
  371000    240.55131   -12662.467   -11424.142   -12662.467            0    1687.2846    46.901449    21.489558    22.117488    -8.951701   -21.352162     2.786387    22292.026    2109.5268    2376.1023    576.22471    127.49074   -1151.8103    291.89438    46.901449    23.279477    30.868464    69.554743    133.76598    112.61468 
  371500    239.94635   -12642.118   -11406.908   -12642.118            0    888.43054    46.955562    21.565885    22.093484   -9.3763097   -21.609478    3.0643473    22372.707    1033.6952    1410.2904    221.30601    673.94987    167.69122   -129.62076    46.955562    23.516007    31.056107      68.4122    134.09264     113.4982 
  372000    243.03557   -12638.364   -11387.251   -12638.364            0    790.91287    46.838129    21.719178    22.041938    -9.047111   -21.293103    2.9155913    22422.947    860.20217    800.36032    712.17611    -135.0946   -823.96182   -255.08586    46.838129     23.52813     30.78545    69.305498    133.76176    112.61414 
  372500    238.60564    -12627.94   -11399.632    -12627.94            0      81.9343    47.126928    21.659207    21.938664   -9.3952035   -21.786285    2.9502368    22393.494    156.15322   -372.57594    462.22563    408.83067    1043.6128     265.3846    47.126928    23.609131    31.058833    68.513331    134.54363    113.44995 
  373000    243.48249   -12696.312   -11442.899   -12696.312            0    681.76675    47.271286     21.58295    21.872472   -9.2472772   -21.630441    3.0553955    22315.473   -42.666645    742.25531    1345.7116    615.23576    -546.5863   -54.360998    47.271286    23.480543    30.913047    68.505061    134.40445    113.19285 
  373500    245.17147   -12602.971   -11340.863   -12602.971            0     889.9589    47.071552    21.678181    21.923705   -9.1027492   -21.625192     2.806414    22371.511    188.04447    904.09544    1577.7368    446.57806    10.796948    473.48133    47.071552    23.511776    30.922059    69.241105    134.37449    112.77772 
  374000    250.41739   -12620.428   -11331.315   -12620.428            0    796.87151    46.918164    21.690554    21.995521    -9.374997   -21.599201    2.9774909    22384.424    509.33029    302.55499    1578.7293    418.90138    603.57045    345.47135    46.918164    23.629869    30.970856    68.596179     134.2191    113.37476 
  374500    258.19348   -12671.889   -11342.745   -12671.889            0    14.021075    47.103064    21.645278    22.025148   -9.0707983   -21.435845    2.9749125    22455.936   -452.04873    713.13512   -219.02317   -121.65964   -242.09993    151.53763    47.103064    23.469074    30.878029    69.073543    133.96432     112.7369 
  375000    240.07504   -12656.697   -11420.825   -12656.697            0   -220.36266    47.392337    21.507758     22.02156   -9.4854551   -21.839413    2.9655269     22446.64   -506.69306    97.647258   -252.04217   -60.440919    442.65851     140.5671    47.392337    23.506542    31.156114    68.287685    134.50465    113.79867 
  375500    240.72545   -12634.011   -11394.791   -12634.011            0    742.05205    46.891458    21.697751    22.028519   -9.2068971   -21.517386    2.9476569    22412.678     1292.119    426.47004    507.56706   -87.130284   -333.18253    40.762496    46.891458    23.570306    30.934482    68.935411     134.0734    112.99272 
  376000    248.66808   -12630.481   -11350.373   -12630.481            0    1269.8942     46.63576     21.67337    22.080957   -9.1376492   -21.235441     2.953949    22318.417    2060.4553      512.784    1236.4432   -520.79508   -35.168929   -17.272369     46.63576    23.520875    30.777239     69.11536    133.62791    112.86064 
  376500    247.46859   -12609.486   -11335.552   -12609.486            0    920.64276    47.209706    21.440504    22.115135   -9.2694748   -21.743783     2.981029    22384.937    1068.7271    902.75141     790.4498    9.8449586    192.91413    -32.26658    47.209706    23.358475    31.156987    68.606909    134.25702    113.38051 
  377000    233.52898   -12650.762   -11448.588   -12650.762            0    927.03391    47.118732    21.606441    21.941332   -9.2492721   -21.531531    2.9059138    22337.771    781.81356    895.30597    1103.9822    -414.8209   -480.89928    152.93524    47.118732    23.502922    30.878362    68.842755    134.21091    113.17477 
  377500    244.96033   -12638.263   -11377.241   -12638.263            0    494.94079    47.026306    21.758056    21.857129   -9.2865449    -21.72746    2.9723076    22364.236    98.136468   -533.00432    1919.6902    1002.4057   -179.46647     490.4583    47.026306    23.656984    30.962093    68.668585    134.56709    113.11325 
  378000     247.2646   -12652.653   -11379.769   -12652.653            0    26.025632    47.244569    21.771847    21.867686    -9.351102   -21.521615    2.8188452    22493.136    470.84139   -648.13109    255.36659    484.97723   -237.82909    1050.0505    47.244569    23.695072    30.811061    68.916882    134.30701    113.24373 
  378500    248.68806   -12659.241    -11379.03   -12659.241            0    622.66162    47.198225    21.583818    21.979108   -9.2194829   -21.710468    2.9909151    22390.511   -202.18011    1231.3566    838.80835    444.09547   -199.42912    846.80704    47.198225    23.470409    31.038221    68.692107    134.38492    113.12965 
  379000    243.97165   -12666.004   -11410.073   -12666.004            0    1691.9175    46.983056     21.52614    22.020909   -9.3305138   -21.493006    2.8948924    22271.151    2059.9832    2309.6181    706.15127    385.82976   -49.411021    426.93428    46.983056    23.461313    30.907121    68.746186     134.0596    113.43434 
  379500    243.74436   -12682.899   -11428.137   -12682.899            0    1898.7283    46.549011    21.727988    21.973616    -9.004465   -21.344457    3.0493687    22224.475     2633.842    2177.8183    884.52447    316.78502   -860.64841    -1027.498    46.549011    23.519904    30.785131    69.087195    133.89481    112.50999 
  380000    230.37796   -12692.601   -11506.648   -12692.601            0    1192.8675     46.93444    21.563912    22.006979   -9.2963358   -21.496508    2.9863764    22273.046    1079.3025    1333.3535    1165.9467   -913.73389   -297.22149   -437.07523     46.93444    23.482422    30.908339    68.650171    134.06645    113.32117 
  380500    254.61546    -12619.49   -11308.766    -12619.49            0    1181.1437    47.058096    21.514325    22.075197   -9.2476256   -21.715793    2.9064963    22349.441    1051.8496    1749.2558    742.32563   -273.94661    443.10722   -28.567789    47.058096    23.417616    31.102053    68.802813    134.28364    113.25976 
  381000    238.72734   -12568.014    -11339.08   -12568.014            0    1258.7322    46.886444     21.64603    22.012572   -9.2043358   -21.269443    3.0501478    22340.678    1013.7358    2252.7448    509.71601   -413.05882   -173.78984   -888.83348    46.886444    23.521701    30.761111    68.788117    133.74415    113.03619 
  381500    251.98764   -12609.964   -11312.767   -12609.964            0    1027.4504    46.791361    21.741077    21.955802   -9.2025885   -21.730882    2.8890344    22335.518    1076.9882    1265.7843    739.57877   -29.519774    884.79606   -768.81515    46.791361    23.608517     31.02636    68.975578    134.45916    112.94203 
  382000    251.97634   -12677.851   -11380.712   -12677.851            0    734.27394    47.226282    21.611027    21.879742   -9.3233436   -21.554146    2.9769093     22330.65   -37.962091    585.30973    1655.4742    284.47831    143.82598    186.14522    47.226282    23.536381    30.857193    68.575176    134.30781    113.33614 
  382500    248.67157   -12634.375   -11354.249   -12634.375            0    1797.8435    47.319211    21.466258    21.918681   -9.2170903   -21.847145     2.794045     22264.26    890.48008    1590.7401    2912.3104    487.13115    33.570261    836.82366    47.319211      23.3614    31.073027    68.898331    134.67547    113.23751 
  383000    250.43544   -12635.799   -11346.593   -12635.799            0    394.53731    47.137075    21.643878    21.993095   -9.3833429   -21.524588    3.0043608    22437.995    545.14134    407.25677    231.21381    633.54497    148.90806   -264.90405    47.137075    23.590349     30.91974    68.527868    134.11844    113.43834 
  383500    254.00755   -12647.994   -11340.399   -12647.994            0   -360.65641    46.865808    21.777453    22.061078   -9.0648821   -21.567006    3.0137397    22515.932    -153.8845   -101.60284   -826.48189   -326.76732     118.4661   -321.03661    46.865808    23.588759    30.998541    69.076428    134.08642    112.59956 
  384000    240.79621   -12672.764   -11433.179   -12672.764            0   -45.537688    47.115369     21.55728    22.109772   -9.3430445    -21.46476     2.856981    22456.436    92.399366    344.50815   -573.52058    433.59966   -356.43762   -122.55312    47.115369    23.494867    30.947379    68.867933    133.91488    113.43218 
  384500    242.25549   -12657.194   -11410.097   -12657.194            0    927.39898    47.131958    21.614577    21.950466    -9.290818   -21.700323    3.0094867    22361.759    701.24457    658.60047    1422.3519    169.20907     377.7498    155.73122    47.131958    23.526777    31.012643    68.563021    134.40495    113.25999 
  385000    241.35109   -12636.139   -11393.697   -12636.139            0    1022.8607     46.93524    21.762262     21.87718   -9.0588688   -21.334736    2.8370492    22345.723      1301.21    98.496997    1668.8752   -821.81726   -431.57029    400.96409     46.93524    23.572423    30.689262    69.359398    134.04202    112.60025 
  385500    247.78859   -12648.204   -11372.623   -12648.204            0    1039.5288    46.955231    21.652441    21.915505   -9.4541357   -21.742884    3.0120673    22281.393    1508.3858    1262.4291    347.77135    171.53123    304.62453   -48.343198    46.955231    23.626445    31.017977    68.315827    134.50543    113.58759 
  386000    248.44892   -12642.482   -11363.502   -12642.482            0    1016.6869    47.123622    21.571616    21.996629    -9.169443   -21.529426    3.0049301    22360.292    711.35073    1222.1532    1116.5567    -224.8141    -450.3926   -1.1696527    47.123622    23.439567    30.925677    68.791691    134.12026    113.02888 
  386500     244.4784   -12624.599   -11366.059   -12624.599            0    2111.5552    46.917632    21.510131    21.984645   -9.2428214   -21.547047    2.8295547    22187.001     2477.439    2247.2206    1610.0061    162.92691   -174.27265    389.23779    46.917632    23.411867    30.912881    68.944141    134.18879    113.25301 
  387000    242.20356   -12650.319    -11403.49   -12650.319            0    1454.8463    46.755869    21.734867    21.908193   -9.2886804   -21.517591    3.0241956     22263.82    1554.1719    1211.5219    1598.8451    205.32215    7.4588349   -282.44625    46.755869    23.636498    30.856465    68.643723    134.21435    113.14008 
  387500    241.44958   -12659.377   -11416.428   -12659.377            0    1548.2639    46.951456    21.624363     21.94755   -9.1077468   -21.397274    2.9655388    22283.245    1975.5988    293.69821    2375.4948    412.05898   -301.06093    541.12937    46.951456    23.464103    30.795011    68.994879    134.01361    112.83985 
  388000    244.51757   -12638.157   -11379.415   -12638.157            0    1418.8965    47.342049    21.361337    22.073748   -9.6126285   -22.056571     2.968158    22322.949      239.928    2558.3537    1458.4078    1127.3085    501.10817    472.36267    47.342049    23.424546    31.345695    67.969085    134.72103     114.2278 
  388500    244.98661   -12681.019   -11419.862   -12681.019            0    1158.9388     46.99162    21.607201    21.955282   -9.1350811   -21.425917    2.9351033    22292.458     1441.433    1589.5883    445.79524    107.98905   -368.61287    512.06994     46.99162    23.458918    30.817514    68.994368    134.04725    112.91764 
  389000     247.5422   -12629.995   -11355.683   -12629.995            0    1060.7478    46.744048    21.717563    22.029735   -9.2375681   -21.486481    3.0743927    22363.856    1424.7135     888.6826    868.84741    393.48896    784.91225    366.08716    46.744048    23.600534    30.926202    68.689619    134.00859    113.04248 
  389500    240.76661    -12636.98   -11397.548    -12636.98            0    222.42377    46.895542    21.625508    22.105905   -9.2466444   -21.498521    2.8290355    22418.481    1136.0161    80.496803   -549.24158    208.38302    211.20996    735.09411    46.895542    23.519419    30.965479    69.086544    133.96938     113.1506 
  390000     234.9626   -12640.014    -11430.46   -12640.014            0    891.65108    47.288043    21.507873    21.974519    -9.217517   -21.592086    2.9468495    22349.519    463.13665    1567.2182    644.59842    194.14391     685.8011    78.334133    47.288043    23.399813    30.948046    68.755428    134.24182    113.19827 
  390500    243.99327   -12604.074   -11348.031   -12604.074            0    740.94386    47.215424    21.716041    21.905395   -9.4521312   -21.746887    3.0083801    22460.304    836.69517    561.11444    825.02196    1019.1554    316.79183   -488.96211    47.215424    23.683944    31.013284    68.358815    134.52433    113.52158 
  391000    243.45413   -12663.854   -11410.587   -12663.854            0   -42.960186     47.01377    21.750941    21.929647   -9.0238329   -21.396466    2.8711817    22425.121   -831.91077    -110.7907    813.82092   -966.17429    420.41443    571.33054     47.01377    23.548525    30.772746    69.352182    134.05158    112.53214 
  391500    250.82233   -12605.464   -11314.266   -12605.464            0    1053.4389    47.133856    21.574933    21.968178   -9.4625623   -21.797254    3.0027777    22339.655    965.51719    1103.7343    1091.0653     -155.235    471.22338   -681.16384    47.133856    23.558816    31.092408     68.28291     134.5111     113.6818 
  392000    238.23808   -12645.515   -11419.099   -12645.515            0    1313.7643    47.192242    21.498595    22.004811   -9.1609348   -21.546693      2.97157    22325.352    1682.1958    1738.9138     520.1834   -487.26836    109.69372   -111.21874    47.192242    23.369046    30.940296    68.816869    134.13855    113.07972 
  392500    247.02825   -12638.953   -11367.287   -12638.953            0    786.27485    46.796529    21.717495    22.002153   -9.1858793   -21.462675    2.9773407    22360.863    1157.8258     612.3911    588.60762   -66.309109    374.22668   -565.68869    46.796529    23.580288    30.880507    68.927442    134.02908    112.92697 
  393000    253.72848   -12612.587   -11306.429   -12612.587            0    2150.7992    46.733023    21.698874    21.949742   -9.2068099   -21.530581    3.0168073    22258.223    3334.3253    1258.3301    1859.7421    114.24754   -509.01199    -484.5269    46.733023    23.571306    30.894307    68.770685    134.17969    112.99146 
  393500    244.85992   -12655.974    -11395.47   -12655.974            0    1168.3729    47.384187    21.489038    21.935188   -9.2620715   -21.633496    2.8344599    22335.298    561.94683    1467.7969    1475.3749   -468.38186   -216.56154     850.9366    47.384187    23.400101    30.938564    68.844382     134.3661    113.31671 
  394000    243.67546    -12679.28   -11424.873    -12679.28            0    1410.3951    47.162897    21.598788    21.868602   -9.3617836   -21.707447    2.9964094    22276.701    713.53988    1663.9744     1853.671    568.33297    149.79484   -113.41783    47.162897    23.540405     30.95848    68.428813     134.5217    113.43385 
  394500    238.22234   -12619.541   -11393.206   -12619.541            0     1459.378    46.711017    21.849323    21.825578   -9.1250596   -21.358096    2.7806581    22275.274     1372.671    622.50735    2382.9556   -77.209888   -294.84709    356.74817    46.711017    23.678252    30.663597    69.383887    134.14921    112.66716 
  395000     238.7366   -12617.711   -11388.729   -12617.711            0     1210.566    47.071375    21.567445    22.004381   -9.3178916   -21.683269    2.9564926    22339.052    1147.1098    1607.7118    876.87638   -189.00308    198.24641   -400.02495    47.071375    23.494208    31.033817    68.619476    134.32265    113.36604 
  395500     240.7471   -12694.109   -11454.776   -12694.109            0    1046.7769    47.312385    21.454565    21.951704   -9.2820512   -21.602233    2.9668976    22282.443    944.70456    1499.4869    696.13916   -496.23454   -280.97629    -291.3322    47.312385    23.376374    30.940851    68.578161    134.28104    113.39512 
  396000    243.27184   -12654.513   -11402.183   -12654.513            0    789.10506    46.798081    21.670723    22.004417   -9.2015939   -21.562983    2.9481286    22315.741    1771.9947    958.23527   -362.91478   -425.32058    480.49592    384.67932    46.798081    23.543355    30.949121    68.900707    134.16473    113.00654 
  396500    253.00947   -12599.638   -11297.181   -12599.638            0    1221.7405    46.803616    21.787923    21.936855   -9.2614624   -21.492662     2.984024    22370.186    2122.2633    161.24608    1381.7121     126.3164    213.28754    1223.0831    46.803616    23.674634    30.855542    68.808017    134.15147    113.02904 
  397000    242.46507   -12658.028   -11409.852   -12658.028            0    1301.6827    47.220516    21.591347     21.90605   -9.1625189   -21.567988    2.8908439    22334.413     976.3557    923.74688    2004.9455   -598.80694    17.906785    152.06467    47.220516    23.455022     30.87734    68.958135    134.30721    112.99446 
  397500    243.63553       -12605   -11350.798       -12605            0    785.77478    47.308242    21.524429    22.045812   -9.4186155   -21.766258    3.0823179    22448.873    1044.3898    167.00119    1145.9333    212.16655   -535.34712   -44.201732    47.308242    23.494922    31.133399    68.224783    134.35716    113.63313 
  398000    244.16968   -12631.512   -11374.561   -12631.512            0     1017.572    46.701144    21.699335    22.094384   -9.1096402   -21.385187    2.8973789     22390.09    2098.5232    1151.3688     -197.176    33.650373   -604.42176    102.63293    46.701144    23.533948    30.884994    69.235872    133.82147    112.77325 
  398500    253.35381   -12629.578   -11325.348   -12629.578            0    1362.7353    46.652865    21.758642    21.990416   -9.2161533    -21.41299    2.9861313    22322.538    2412.0035    574.38986    1101.8124   -181.93296   -16.364212    227.14929    46.652865    23.629981    30.838475    68.901234    133.97621    112.95571 
  399000    239.53881   -12647.258   -11414.146   -12647.258            0    1421.3526    47.162048    21.533243    21.968857   -9.2335591   -21.620602    2.9518755    22310.513    592.38321    1451.9176    2219.7569   -72.314594    788.68802    192.43697    47.162048    23.429451     30.96441    68.728193      134.286    113.20989 
  399500    240.73316   -12666.594   -11427.333   -12666.594            0    1031.8462    47.436841    21.414925    21.974969    -9.349692   -21.685391     2.909435    22323.412    619.67483    1219.5762    1256.2874    692.12204   -835.72975     -283.934    47.436841     23.36698    31.010002    68.543627    134.37112    113.58594 
  400000    241.40839   -12649.702   -11406.965   -12649.702            0    1054.4237     46.82924    21.777429    21.930417     -9.18755   -21.508633    3.0086407    22365.088    1164.7987    724.35398    1274.1184   -27.134164   -138.06873    153.21682     46.82924    23.636148    30.864485    68.857218    134.17668    112.87411 
  400500    247.16012   -12624.181   -11351.836   -12624.181            0     297.4291    46.889238    21.777697    21.972757   -9.1862857   -21.525464    2.8987174    22437.253    675.18472   -63.908624    281.01121    2.5545199    211.33928   -333.06282    46.889238    23.635904    30.895796    69.069887    134.16378    112.87103 
  401000    251.40145   -12619.498   -11325.319   -12619.498            0    1289.6737    47.318453    21.480855    21.987881    -9.334059   -21.734739    3.1029061     22349.38    1445.5455    1498.2938    925.18171   -155.00632   -77.140536   -518.85641    47.318453    23.421182    31.072396    68.262511    134.38587    113.48635 
  401500    248.95025   -12612.383   -11330.823   -12612.383            0     1223.545     47.11289    21.523113    21.987775   -9.2090532   -21.568523    2.9324974    22295.957    1047.6688    1022.9939    1599.9723    176.77994   -85.102363    342.30407     47.11289     23.41049    30.939667    68.815877    134.19604    113.16454 
  402000    247.57354   -12631.097   -11356.624   -12631.097            0    1493.8079    46.885282     21.65218    21.956077   -9.2973398   -21.539357    2.9066844    22289.119     1540.744    464.16346    2476.5162   -298.97904    106.83006    472.41819    46.885282    23.563901    30.894369    68.805484    134.20228    113.23845 
  402500    250.02002   -12622.808    -11335.74   -12622.808            0     1738.555    46.605641    21.680748    22.020609   -8.9468919   -21.175251    3.0633082    22250.617    2121.0339    1577.7058    1516.9253   -982.26931    99.152187   -306.64566    46.605641    23.454247    30.703132    69.187379    133.60456    112.42424 
  403000    243.91147   -12619.279   -11363.657   -12619.279            0    1222.6797    47.098888    21.507207    22.037691   -9.3194605   -21.655738    2.9945944    22323.421    886.85678    1413.7122      1367.47    514.23118    323.49808   -895.60842    47.098888    23.439545    31.041881    68.537566    134.23714    113.42795 
  403500    249.25747   -12649.238   -11366.096   -12649.238            0    901.46621    47.152468     21.56426    22.003734   -9.2794097   -21.650105    2.7464759    22373.575    141.65883    1040.4275    1522.3123    821.96572   -137.99475    1344.6754    47.152468    23.476046    30.990878    69.050797    134.31447     113.2829 
  404000    238.51103   -12649.722   -11421.901   -12649.722            0    1464.3522    46.953377    21.760263    21.810875   -9.2455743    -21.54723    3.1438878     22284.56    1159.0959    1021.6581    2212.3026    387.81393    71.538736   -962.10052    46.953377    23.642963    30.820146    68.452127    134.35709    113.01983 
  404500    243.90896   -12646.661   -11391.052   -12646.661            0    1018.2857    47.090206    21.700114    21.854184   -9.3208162   -21.595965    2.7542159    22331.979    1108.1185    801.78945    1144.9493    23.761233   -527.20949     514.0472    47.090206    23.617209    30.847638    69.002091    134.43381     113.2449 
  405000    243.20112   -12661.764   -11409.799   -12661.764            0    969.33809    47.348443     21.54238    21.862214   -9.2529357   -21.753334    3.0479282    22299.418   -481.53944    1591.0836    1798.4701    560.29173   -94.244921    206.97084    47.348443    23.445489    30.991189    68.445688    134.58125    113.24461 
  405500    248.82761   -12611.255   -11330.326   -12611.255            0    527.13941    46.992026    21.631411    22.024787   -9.2964694   -21.489635    2.9078725     22388.28    664.27368    1165.4642   -248.31965     307.7819   -486.50565   -363.27053    46.992026    23.544474    30.908759    68.841044    134.04797    113.25644 
  406000    245.24109   -12626.291   -11363.824   -12626.291            0    1441.5216    46.737249    21.746972      21.9341   -9.0379944   -21.382672    2.8989705     22293.68    2069.4624    1074.3895    1180.7128   -734.05124   -265.01731     158.8044    46.737249    23.550289    30.768937    69.285943    134.02271    112.56766 
  406500    247.82815   -12689.472   -11413.688   -12689.472            0    1849.9036    46.977659    21.599205    21.905785   -9.4260908   -21.620134    3.0714313    22227.364    1246.9562    1943.9886    2358.7659    516.42908    490.30961   -220.12696    46.977659    23.566434    30.931009    68.248133    134.34517     113.5769 
  407000    243.13562   -12635.042   -11383.414   -12635.042            0    1297.4576    47.195207    21.506983    22.002881   -9.2096044   -21.598749    2.7893794    22333.507    1650.4705    2218.8825    23.019883   -708.40256     78.12861    175.74665    47.195207    23.395878    30.958252    69.055679    134.24064    113.18132 
  407500    244.89253   -12656.987   -11396.315   -12656.987            0    809.74841     47.04091    21.642964    21.908984   -9.2062099   -21.570296    3.1906267     22305.64    1713.7601    293.91769    421.56746    201.09535    469.79738   -828.25701     47.04091    23.519613    30.910538     68.39938    134.25315    113.04332 
  408000    251.26423   -12663.705   -11370.233   -12663.705            0    595.13898    46.772407    21.721378    21.978517   -9.2181937   -21.455092    2.8196749    22329.319    620.60363    81.738083    1083.0752     285.4799    554.06088    801.67592    46.772407    23.596469    30.843585    69.151344    134.07581    112.99557 
  408500    242.69927   -12617.331   -11367.949   -12617.331            0    1271.5041    47.029745    21.563098    22.004439   -9.1777504   -21.498178    2.9571152    22314.856    678.93518    1816.6434    1318.9337     -15.4571    291.40618   -45.300665    47.029745     23.43498    30.904879    68.871174    134.07697    113.05572 
  409000    252.65492   -12643.432   -11342.801   -12643.432            0    1817.4308    47.080382    21.454743    22.036236   -9.4072079   -21.686603    3.0977904    22258.747    1225.5812    2723.2752    1503.4359    882.79378     967.4752   -403.64089    47.080382    23.426514    31.072508    68.187588    134.26159    113.67589 
  409500    243.73536   -12664.858   -11410.143   -12664.858            0    1305.0517    46.907081    21.634269    21.943672   -9.0969422   -21.429027    2.7486441    22268.447    1785.3374    1518.3808    611.43688   -459.84142   -17.260907    87.760608    46.907081    23.469042    30.794203    69.389507    134.09727    112.80615 
  410000    240.12168   -12642.232   -11406.119   -12642.232            0    1257.3504    47.071075    21.668485    21.900843   -9.3540156   -21.614429    3.1587926    22337.959    1083.9481    871.31785    1816.7851     546.9282    470.48967    285.06175    47.071075     23.60129     30.93232    68.241108    134.32802    113.34926 
  410500    247.78487   -12606.159   -11330.598   -12606.159            0    350.64115     47.18773    21.583213    22.066401   -9.1730798   -21.720404    2.6969222     22473.81    111.22857    90.326658    850.36822   -437.52651    287.75603    413.48008     47.18773    23.451663    31.080145    69.315955    134.33493    113.02597 
  411000     247.7215   -12564.615    -11289.38   -12564.615            0    261.43459    47.111947    21.670955    22.018829   -9.3085952   -21.509637    3.0335198    22480.363    686.53726   -353.13543    450.90193   -966.24753    10.301407   -604.96412    47.111947    23.585594    30.930496    68.618471    134.06057    113.24558 
  411500    233.87893   -12652.742   -11448.767   -12652.742            0    133.67098    46.935789    21.674552    22.004285   -9.1982706   -21.613258    3.0706618    22385.228   -227.55166    372.25744    256.30715   -547.09306     573.4336   -481.97394    46.935789    23.545581    30.995975    68.678727    134.21018    112.99545 
  412000    245.28641   -12641.052   -11378.352   -12641.052            0    899.30849    47.083733    21.571318    22.023249   -9.3456557   -21.359655    2.6466456    22368.093    640.04366    1369.7961    688.08568    626.03499    -952.6497    1432.1117    47.083733    23.508786    30.793881     69.23046    133.91839    113.42441 
  412500    246.26646   -12619.453   -11351.708   -12619.453            0    1054.0684    47.154758    21.620829    21.949297   -9.1771169   -21.783036    3.1958379    22377.856    94.346095    2155.1811    912.67796   -152.27218   -1.7449691   -453.99163    47.154758    23.487863    31.088352    68.383293    134.48171    112.99915 
  413000    243.71847   -12659.029   -11404.401   -12659.029            0    350.61604    47.021527     21.66119    21.967814   -9.3258844   -21.438926    2.7617268    22375.146    557.25149   -392.30643    886.90304    236.89907   -299.81237    53.485857    47.021527    23.583453    30.819467    69.060205    134.07739    113.29353 
  413500    240.97501   -12601.516   -11361.011   -12601.516            0    640.45136    46.990854    21.732138    21.942607    -9.206026   -21.571799    2.9550823    22408.048     339.0746    253.27658    1329.0029    290.10053    1282.8601    844.81196    46.990854    23.601626    30.912021    68.885983    134.25436    112.95817 
  414000    245.52292   -12659.927    -11396.01   -12659.927            0    1075.9725    47.141136    21.554255    21.987471   -9.2639978   -21.677744    3.0777942    22341.295    1100.5562     1371.462    755.89921   -169.62192   -121.09181   -642.00252    47.141136    23.460767    31.029765    68.469898    134.31569    113.25799 
  414500    239.87879   -12666.696   -11431.834   -12666.696            0    692.36056    47.101085    21.593945    21.960844   -9.2605242   -21.442426    2.7559475    22336.335    750.46488      677.591    649.02582   -569.47509   -149.86948    360.00323    47.101085    23.495867    30.816416    69.118572    134.09194    113.21199 
  415000    246.36438   -12660.913   -11392.664   -12660.913            0     500.1569    47.036084    21.684684    21.907983   -9.3172475   -21.911335    3.2677671    22345.324    1070.9934    -464.5002    893.97753   -327.38687    1198.3459    -462.1402    47.036084    23.601623    31.156775    68.038089     134.6892    113.25172 
  415500    232.16508   -12590.143    -11394.99   -12590.143            0    598.02615    46.962592    21.669488    21.979295   -9.1941602   -21.355638    2.8448391    22367.346    784.70335    420.18713    589.18796   -360.77902   -172.15607    629.77282    46.962592    23.539314    30.777358    69.138549    133.93763    112.99106 
  416000    233.28529   -12609.452   -11408.532   -12609.452            0    1014.9164    46.950365    21.614216    22.023374   -9.2275445   -21.686561    2.8828845    22349.217    858.36338    974.53724    1211.8485   -80.189122    601.70575   -326.04728    46.950365     23.50153    31.042663    68.917736    134.31519    113.11861 
  416500    242.34155   -12642.066   -11394.525   -12642.066            0    1191.9349    47.134044    21.667156    21.887025   -9.2987089   -21.214099    3.2095912    22352.358    394.56429    1211.6424    1969.5981   -361.74206   -210.38345   -189.10982    47.134044    23.578202    30.649329    68.333557    133.80097    113.22715 
  417000    240.77234   -12637.446   -11397.984   -12637.446            0    619.95663    47.014918     21.63842    22.030799   -9.1966976   -21.701698    2.8213833    22412.561    526.44986      298.097     1035.323   -69.562001    126.99732    161.02542    47.014918    23.511709    31.052859    69.085067    134.33586    113.02632 
  417500    247.73908   -12662.478   -11387.152   -12662.478            0    404.72167    47.055598    21.612476    22.045017   -9.3048261   -21.502333    3.1959703    22419.517     849.8505   -327.70118     692.0157   -318.51258    -356.8928   -674.54588    47.055598    23.530383    30.960416    68.318288    133.98822    113.29334 
  418000    248.88705   -12692.486    -11411.25   -12692.486            0    802.71761    46.880993    21.584616    22.046714   -9.1132231   -21.531979    2.6812544    22309.252    1690.0611   -74.958565    793.05025    -366.1821    729.93632    493.58616    46.880993    23.429607    30.933361    69.475987    134.11304    112.88992 
  418500    242.64316    -12618.42   -11369.327    -12618.42            0    1213.5679    47.073764    21.676371    21.889338   -9.3860347   -21.636602    3.0692596    22335.626    629.09689    1601.7813    1409.8255    76.404724     1018.603    140.77783    47.073764    23.621234    30.930665    68.344916    134.38846    113.41298 
  419000    243.86861   -12618.927   -11363.526   -12618.927            0    2036.7093    47.125206    21.626505    21.834498   -9.1549672   -21.682614    2.9064012    22252.705    1617.8853    2479.4159    2012.8266     451.1385     95.31023   -371.47083    47.125206    23.484445    30.908384    68.895821    134.54847    112.94399 
  419500    240.58245   -12598.635    -11360.15   -12598.635            0    1717.8821    47.180174    21.540274    21.944194   -9.3908741   -21.624392    2.8652132    22301.311    809.56032    2647.6085    1696.4775    994.22014    169.74302    313.39103    47.180174    23.498338    30.941419    68.642504    134.33735    113.55567 
  420000    246.78866   -12676.648   -11406.214   -12676.648            0    1184.4463    46.959122    21.617641    21.957424   -9.2047788   -21.589119    3.0637211    22289.979    1292.0187    975.20298    1286.1173    47.622455    106.94789   -494.60986    46.959122    23.495752    30.945192    68.628886     134.2393    113.06428 
  420500     256.9307   -12599.674   -11277.031   -12599.674            0    243.34081    46.822702    21.621048    22.140441   -9.1900018   -21.309422    2.6812415    22414.006    503.09765    948.78961   -721.86482   -114.50673   -373.60556    377.52645    46.822702    23.493102    30.846064    69.498296    133.69594    113.02786 
  421000    240.05172   -12605.638   -11369.886   -12605.638            0    1472.5907    46.962045    21.583566    22.071943   -9.2651775   -21.655092    3.1391742    22372.307     1084.843    2375.6163    957.31283    468.79279    543.87574    -724.1513    46.962045    23.488164    31.080027    68.428933    134.16705     113.2324 
  421500    255.64249    -12638.83   -11322.818    -12638.83            0    1395.4608     47.06136    21.599775    21.994201   -9.1378139    -21.48147    2.9245086     22357.43    1463.8011    1161.7259    1560.8555   -479.68298    232.22739     121.3481     47.06136    23.453143    30.882863    69.008775    134.07337    112.93086 
  422000    247.14638   -12616.202   -11343.927   -12616.202            0    1373.6105    47.012068    21.667968    21.894732    -9.422806   -21.695712    2.9005574      22303.2    1197.1976    1071.7684    1851.8656    842.49912    1017.6587   -122.95139    47.012068    23.628164    30.959593    68.568904    134.48922     113.5029 
  422500    249.18575    -12632.65   -11349.877    -12632.65            0    1385.7396    47.048986    21.751136    21.791522   -9.0439736   -21.509132    3.0795945    22300.766    1268.9983    772.45417    2115.7664   -637.83066   -739.60611    72.716747    47.048986     23.55643    30.773317    68.853601    134.34314    112.57721 
  423000      242.715   -12616.288   -11366.825   -12616.288            0    1076.9754     47.09708    21.592854    21.950482   -9.3626079   -21.668618    2.8689618     22322.77    1323.5343     618.4044    1288.9874   -163.71469    -360.3691   -263.00968     47.09708    23.535288    30.977146    68.700562    134.38717    113.44144 
  423500    247.19308    -12666.49   -11393.975    -12666.49            0    1298.4596    47.081569    21.598731    21.964861   -9.1896461   -21.595424    2.9371634    22336.115    1810.8641    922.91677    1161.5979     66.51667   -203.09414    181.74731    47.081569    23.472426    30.942599    68.863772    134.26027    113.04837 
  424000    242.52438   -12676.726   -11428.245   -12676.726            0   -7.3640696    46.957551    21.685287    22.035373   -9.2438488   -21.400634    3.0210046    22438.355   -718.94089   -47.454499    744.30318   -321.17878    228.62206    35.632713    46.957551    23.573299    30.865373    68.781584    133.89621    113.08723 
  424500    248.86032   -12613.665   -11332.568   -12613.665            0    344.84005     46.90216    21.655238    22.105868   -9.3613391   -21.685048    2.8822743    22452.432    22.684777    682.32793    329.50744    573.46327     301.1989   -5.9158254     46.90216    23.592033    31.100133    68.792635    134.20802    113.37834 
  425000    253.43112   -12643.474   -11338.846   -12643.474            0    1116.2951    47.062261    21.603231    21.968015   -9.1403691   -21.337694    3.0098335    22334.812    1352.3048    1425.3371    571.24335   -386.65882   -529.37895    29.566696    47.062261    23.457322    30.772551    68.883337    133.89987    112.93332 
  425500    251.04545   -12623.159   -11330.813   -12623.159            0    1588.8371    47.115551    21.482193     22.03367    -9.357374   -21.884146    2.9559814    22301.277    1463.9952    2029.3434    1273.1727    182.93355    309.04614    89.266782    47.115551     23.43171    31.195133    68.467723    134.54943    113.53734 
  426000    242.30602   -12585.434   -11338.077   -12585.434            0    1690.2688      46.8678     21.69171    21.883704   -9.2184559   -21.279082    2.8943727    22247.908    2300.9505    977.62472    1792.2312    330.31236   -776.56216    404.54755      46.8678    23.569264    30.660614    69.002526    133.94918    113.02433 
  426500    238.37539   -12597.978   -11370.855   -12597.978            0    1701.1922    46.955209    21.656595    21.928146   -9.2195292   -21.620644    3.0240402    22298.511    1985.8008    928.95349    2188.8222    15.452453    11.360204    462.57228    46.955209    23.537371    30.942538    68.677662    134.32563    113.06016 
  427000    245.35498   -12642.158   -11379.105   -12642.158            0    1350.3881     47.06196    21.572991    21.982172   -9.3628171   -21.566907    2.7354623    22317.779     666.2328    830.05616    2554.8752    1392.5748    579.36624    619.65354     47.06196    23.517149    30.916502    68.967815    134.23362    113.46115 
  427500    241.64911   -12579.644   -11335.668   -12579.644            0    1109.5553    47.034509    21.621377    21.983248   -9.0298683   -21.506988    3.1867324    22355.883    436.86177    1385.2694    1506.5348   -677.86098    198.95311   -566.40971    47.034509    23.431228    30.918749    68.704729    134.07481    112.66718 
  428000    238.97146   -12603.781    -11373.59   -12603.781            0    1130.7247    46.943346    21.580584    22.047779    -9.372182   -21.580611    2.8342417    22335.829    1582.6975    688.52959    1120.9471     245.8696    539.83794   -198.61908    46.943346    23.527843    30.981611    68.814936    134.15181    113.47471 
  428500     244.6551   -12634.294   -11374.844   -12634.294            0    1060.5085    46.923553    21.635965    22.006921   -9.1925414   -21.408273    2.9173305    22342.226    1016.4753     889.8161    1275.2343   -217.07811   -22.563708    140.40188    46.923553    23.507824    30.840388    68.991334     133.9606    113.01934 
  429000     247.5132   -12612.549   -11338.386   -12612.549            0    495.48989     47.15675    21.668894    21.905114   -9.2811957   -21.807847    3.1362984    22383.403   -354.39109    221.34739    1619.5134    599.19073    866.59056     97.95264     47.15675    23.572899    31.068514    68.336222    134.58186    113.18636 
  429500    249.79107   -12612.401   -11326.512   -12612.401            0    805.49627    47.081221    21.660715    21.927428   -9.2717783   -21.513628    2.8275773    22361.874    743.27015    825.15279    848.06587   -529.50034    212.99172    384.66081    47.081221    23.561673    30.848719    68.979893    134.21808    113.17314 
  430000    244.64139   -12692.721   -11433.341   -12692.721            0    574.71858    47.142526    21.599424     21.91457   -9.2081622   -21.880355    3.2069837    22314.542     -66.9788    82.641618    1708.4929    445.50025     588.2579   -144.68013    47.142526    23.480318    31.133311     68.26165    134.65173    113.08929 
  430500    246.66436   -12620.265   -11350.471   -12620.265            0    1757.1098    46.958263    21.644966     21.92861   -9.2735418   -21.360321    2.8051649    22288.458    2206.1492    1140.5549    1924.6255    238.00448   -692.21814    839.49128    46.958263     23.54789     30.74079    69.051889    134.01548    113.19217 
  431000    244.93643   -12698.386   -11437.487   -12698.386            0    1454.5024    46.905578    21.594242    21.969376   -9.2275557   -21.626961    2.8855101    22252.569    1514.5289    1415.0135    1433.9649    799.28258    -501.0517    454.21482    46.905578    23.483165    30.962963    68.890059    134.30505    113.13777 
  431500    247.85889   -12653.062   -11377.119   -12653.062            0    1200.1571    47.093846    21.613651    21.976804   -9.2655581   -21.446606    3.2020224    22369.529    1049.8905    1636.8166    913.76415    398.30426   -738.64288   -697.27904    47.093846    23.515962    30.873772    68.344479     133.9997    113.20433 
  432000    240.35001    -12571.97   -11334.683    -12571.97            0    1228.0907     46.94983    21.532806     22.13863   -9.1650592   -21.708172    2.6295187    22381.304    1851.6499     1608.369    224.25315    522.66692    170.62598    1079.3294     46.94983    23.402138    31.117166    69.453481    134.23692    113.05617 
  432500    245.25081   -12642.352   -11379.836   -12642.352            0    312.47272    47.112268    21.658721    21.975916   -9.3543501   -21.559372    3.0407697    22424.037      471.066   -425.90401    892.25617    157.41985   -299.24652   -52.852591    47.112268    23.592458    30.935314    68.496135    134.18024     113.3594 
  433000    248.23193   -12666.442   -11388.579   -12666.442            0    142.20818    47.088334    21.720653      21.9044   -9.1249664   -21.657389    3.0192697    22403.586    248.22422   -204.93472    383.33503    14.244076   -273.33891   -182.45264    47.088334    23.559537    30.950949    68.841254    134.40556    112.78755 
  433500    236.23215   -12597.627   -11381.537   -12597.627            0    477.43369    47.178552    21.651868    21.903499   -9.4307053   -21.636001     2.753226    22374.507   -569.76979    680.06985     1322.001   -438.75353    816.11929      944.376    47.178552    23.616553    30.910517    68.827834    134.42347    113.53605 
  434000    246.46669   -12635.327   -11366.551   -12635.327            0    1300.6192    47.091609    21.619416    21.924921   -9.0938507   -21.587118    3.0564204     22321.61    1420.8629    783.16381    1697.8309    111.90668   -405.33264   -218.34007    47.091609    23.454152    30.920018    68.788399    134.27956    112.81325 
  434500    251.30504   -12624.722   -11331.039   -12624.722            0    707.71924    46.995018    21.628931    22.040009   -9.3003618   -21.623985    2.8837598    22402.611    1559.5853    764.90636   -201.33399    307.20372   -1067.2131   -289.39808    46.995018    23.543733    31.010882    68.845689    134.21103    113.26753 
  435000    239.11855   -12681.762   -11450.814   -12681.762            0    723.37361    47.030696    21.581749    22.054387   -9.2545472   -21.450037    2.8899032    22385.306    848.41553    679.17016    642.53514    119.24482   -520.62717    376.25523    47.030696    23.482303    30.900674    68.928855    133.96038    113.21031 
  435500    247.50975   -12695.926   -11421.781   -12695.926            0    1134.2732    46.946728    21.590392    21.978112   -9.1336668   -21.697876    3.0643906    22276.976    1293.9764    460.97572    1647.8675   -308.76535   -16.918092   -242.44642    46.946728    23.442886    31.035878    68.695633    134.35663    112.93046 
  436000    248.20951   -12602.545   -11324.798   -12602.545            0    1736.4997    47.031377    21.603137    21.972171   -9.3706566     -21.3006    2.7970329    22324.281    1951.1123    2218.9275    1039.4592   -516.71236     190.4645    33.147341    47.031377    23.547924    30.729712    68.940388    133.88075    113.44945 
  436500    238.06374   -12649.564   -11424.045   -12649.564            0    1059.9179    47.037237    21.583364    21.968872   -9.1258169   -21.837786    3.0587652    22303.277    1372.5318    621.34833    1185.8736   -260.91153     141.7926   -184.87077    47.037237    23.433355    31.126777    68.670583    134.55355    112.91948 
  437000    244.41674   -12650.974   -11392.751   -12650.974            0     260.7408    47.072528     21.69035    21.917436   -9.3746097   -21.433717    2.9963862    22378.132    1072.7163   -422.37235    131.87848     345.9155   -1064.9783   -675.06439    47.072528    23.629528    30.801892     68.56993    134.09556    113.37409 
  437500     246.2917   -12596.823   -11328.949   -12596.823            0    1081.4745    47.056946    21.589184    22.008702   -9.1108941   -21.726333    2.6290717    22359.103    598.87346    1217.4065    1428.1435   -303.69768    399.29058    921.74069    47.056946     23.43291    31.037534    69.499992    134.42716    112.88033 
  438000    246.38056   -12649.035   -11380.703   -12649.035            0    1158.1355     47.10668    21.607444    21.917794   -9.3789104   -21.485279    3.1369329    22309.135    999.52125    1519.0777    955.80742    155.68984   -88.623549   -575.98851     47.10668    23.555161    30.852021    68.250297    134.13871     113.4637 
  438500    244.43034   -12626.443    -11368.15   -12626.443            0    1010.8397    46.978058    21.614453    21.974449   -9.0812734    -21.65124    2.8344456    22312.966    1258.5174    941.08209    832.91948   -614.59384    248.99014    387.57542    46.978058    23.444703     30.97881    69.202065     134.3392    112.78962 
  439000    245.93904   -12614.245   -11348.186   -12614.245            0    989.92738    47.076126    21.613896    21.966527   -9.3845482    -21.44002    2.8871395    22350.908    572.57219    1721.3817    675.82826    301.19975   -40.628623    366.94885    47.076126    23.563324    30.830802    68.724219    134.05983    113.47003 
  439500     253.9615   -12634.131   -11326.773   -12634.131            0     879.9523    46.951853    21.674232    21.976776   -9.1447072   -21.649963    3.1912553    22364.564    1037.5501    265.29003    1337.0167    170.25483    630.37304   -337.62161    46.951853    23.524413     31.01425    68.520744    134.27197    112.87566 
  440000    243.18943    -12687.67   -11435.765    -12687.67            0    1236.4929    46.944269     21.55711    22.017031   -9.2354066   -21.318477    2.7517687    22280.855    1734.2854    933.97844    1041.2148    446.65488   -846.08232    145.44736    46.944269    23.452115    30.770104    69.204139    133.85461    113.19106 
  440500    245.23057   -12649.633   -11387.221   -12649.633            0    1660.3648    46.927478    21.657293    21.900541   -9.2042162   -21.623527    3.2148821    22258.005    1918.0807    1320.9787    1742.0351   -543.75671    143.07692   -1032.7113    46.927478     23.53202    30.944241    68.349881    134.33001    113.02519 
  441000    233.44232   -12674.172   -11472.444   -12674.172            0    1471.0183    46.961428    21.649051     21.90848   -9.1940711    -21.50178    2.8628944    22273.702    1797.7737     1069.643    1545.6383    37.488562   -192.74502    195.24646    46.961428    23.520466    30.830248    69.016904    134.22076     113.0103 
  441500    242.83762   -12597.379   -11347.285   -12597.379            0    691.61728    47.297417    21.572825    21.896857   -9.3805144   -21.653453    2.8716936    22342.215     273.6851    313.54227    1487.6245   -566.86247    20.621015    435.82624    47.297417    23.524048    30.928806    68.634047    134.43554    113.50086 
  442000     241.0742   -12620.649   -11379.634   -12620.649            0    1047.3526    47.284661     21.64273    21.808438   -9.1519649   -21.751173    3.0243114    22318.083    -147.4752    1560.3365    1729.1966    99.398546    631.36392   -219.81292    47.284661    23.498217    30.949442    68.670957    134.65183    112.92183 
  442500    253.23628   -12647.225     -11343.6   -12647.225            0    824.50843    47.072094    21.653366    21.923688   -9.3613474   -21.527981    2.8076583    22346.142    535.35101    271.09251    1667.0818    820.21445   -62.302628     277.5468    47.072094    23.590317    30.854254     68.87483    134.24527    113.38016 
  443000    245.87576   -12645.148   -11379.414   -12645.148            0    1530.4746    46.910473    21.673449    21.961602    -9.073196   -21.661886    3.0923009    22328.619    2372.0527    1203.4287    1015.9426   -173.94213    179.61847   -26.751623    46.910473    23.495984      31.0018    68.787379     134.3252    112.71574 
  443500     244.3249   -12622.691   -11364.941   -12622.691            0    917.48573     47.01379    21.588741    22.086687   -9.3274726   -21.356015     2.907156    22417.293    1591.0944    969.50528    191.85749    410.43991   -665.09265     156.2575     47.01379    23.517557    30.860212    68.841656    133.79056    113.36689 
  444000    239.20044   -12613.941   -11382.571   -12613.941            0      1103.98    46.937265    21.529741    22.158613   -9.1764669   -21.599772    2.9303953    22392.323    1486.4889    1390.0345    435.41668   -554.67748   -330.59312    -158.3202    46.937265    23.403788    31.082817    68.949081    134.02008    113.08481 
  444500    245.88574   -12689.626   -11423.841   -12689.626            0    1640.8412    46.854135    21.640671    21.983989   -9.2336704   -21.318652    3.0870606    22290.774    1574.8563    1041.9625     2305.705    507.88026   -972.50914   -495.31359    46.854135    23.528266    30.778412    68.648827    133.84021    113.10704 
  445000    249.73269   -12635.247   -11349.658   -12635.247            0    848.88448    47.074482    21.671463    21.905747   -9.2451504   -21.661822    2.8196434    22347.649   -6.6082902    723.06241    1830.1993    460.40037    720.54411    591.09758    47.074482    23.561093    30.936171    68.986377    134.44387    113.10333 
  445500     246.8803   -12610.059   -11339.154   -12610.059            0    -11.09705    47.333548     21.68107     21.82223   -9.3284137   -21.764268    3.0695621    22394.888    6.2989218   -83.091066    43.500994   -74.554152   -71.951273   -728.82018    47.333548    23.602714    30.972815    68.360984    134.64317    113.28009 
  446000    247.64208   -12619.104   -11344.278   -12619.104            0    516.77726    47.406082    21.627369    21.801282   -9.1901814   -21.671226    2.8557082    22352.175   -899.48674    614.21864    1835.5999   -284.47421    882.37051     462.4259    47.406082     23.49899    30.872204     68.92043    134.58492    113.02224 
  446500     237.5602   -12604.034   -11381.108   -12604.034            0    644.72981     47.00341    21.664866    21.962564   -9.2874473   -21.613718    2.9621768    22364.975    742.85069     100.5217     1090.817   -581.93473    917.93806   -459.64595     47.00341    23.571658    30.956123      68.7125    134.28316    113.20419 
  447000    244.19163   -12584.198   -11327.134   -12584.198            0    1413.6847     46.92925    21.669949    21.975616   -9.1444791   -21.350345    2.9521013      22348.2    1174.1388    1950.2933    1116.6222   -593.96518   -117.24751   -465.79086     46.92925    23.520378     30.78116    69.020613    133.91714    112.87921 
  447500    246.57786   -12660.511   -11391.163   -12660.511            0   -49.984092    47.061271    21.507245    22.179863   -9.3521601   -21.804646    2.9334699    22449.532   -669.27115    1158.8564   -639.53756    688.77011    275.69263    159.43072    47.061271      23.4526    31.240906    68.627437    134.26291    113.50122 
  448000    249.83401    -12659.01     -11372.9    -12659.01            0    623.99372     47.08524    21.584314    21.998287   -9.2574186   -21.539166    2.9382211    22356.916   -433.04419    1421.5883    883.43701   -153.11634    467.65906    19.530173     47.08524    23.485791    30.927228    68.787274    134.14261    113.21428 
  448500    243.94949   -12676.791   -11420.973   -12676.791            0     1079.943    46.809609    21.724785    21.934717   -9.0923625   -21.526677    2.9457333    22306.044    1449.2243    721.36468    1069.2399   -682.54608     377.8605   -218.78798    46.809609     23.55074    30.874051    69.071557    134.20613    112.71052 
  449000    249.20324   -12690.461   -11407.598   -12690.461            0     384.1568    47.047149    21.690256    21.900034   -9.4173593   -21.623122    2.9519468    22348.212    1123.5708   -312.51031    341.40988    188.02672   -465.70243   -306.82037    47.047149    23.646434    30.917388    68.523812    134.37759    113.46926 
  449500    240.74018   -12632.109   -11392.812   -12632.109            0     1210.497    47.231133    21.523681    21.972947     -9.14693   -21.649225    2.9324843    22337.431    1696.6826     1287.907    646.90136   -414.36421    -753.0735    357.81995    47.231133    23.386645    30.985461    68.876983    134.32198    113.02406 
  450000    246.71414    -12630.69    -11360.64    -12630.69            0    1373.1862    46.902139    21.553648    22.074198   -9.4868164   -21.596569    3.0972853    22315.076    1765.7229    1702.3655    651.47009    1207.0488   -321.15493   -347.83804    46.902139    23.549085    31.036674    68.181999    134.09422    113.75665 
  450500      248.908   -12643.227   -11361.884   -12643.227            0    1159.4474    46.665999    21.728086     22.02226    -9.044869   -21.342812     2.932563    22329.753    1556.1096    1232.3498     689.8829    694.82804    217.37881   -307.45027    46.665999    23.535492    30.807393    69.260383    133.85074    112.60076 
  451000     236.9858   -12682.541   -11462.572   -12682.541            0    1064.1614    46.973512    21.578744     22.01062   -9.3040085   -21.541295    3.0770723    22310.612    1084.4738    1147.7878    960.22264    1244.3053   -225.49412    16.776899    46.973512     23.49908     30.95098    68.478303    134.10544    113.32404 
  451500    244.46432   -12656.598    -11398.13   -12656.598            0    107.76284    47.358062    21.514021    22.001719    -9.211763   -21.720052    2.8316074    22416.723   -883.04583    653.47673    552.85762    481.98071    128.64576   -25.177737    47.358062    23.403198    31.046003    68.947809    134.39561    113.17939 
  452000    248.73444    -12633.77    -11353.32    -12633.77            0    896.86083    47.057311     21.69075    21.949971   -9.3314779   -21.545553    3.0054473    22404.519    870.28933    345.76086    1474.5323    714.16158    10.676771    245.38469    47.057311    23.612817    30.903799    68.601495     134.2013    113.27764 
  452500    240.92917   -12637.058   -11396.788   -12637.058            0   -23.085013     46.73624      21.8381    21.987862    -9.070185   -21.580612     2.823637    22441.486    453.64767   -660.74022    137.83752    718.22582    352.15862     1155.489     46.73624    23.646794    30.938032    69.399929    134.23022    112.55495 
  453000     242.8363   -12693.815   -11443.728   -12693.815            0    758.88686    47.159233    21.573479    21.930632   -9.3820503   -21.542522    3.0061621    22311.978    979.90368    719.93752    576.81937    861.58684   -68.633839     474.5162    47.159233     23.52526    30.888022    68.445011    134.22192    113.50365 
  453500    247.95863   -12579.805   -11303.349   -12579.805            0    1360.3101    47.192034     21.49829    22.025054   -9.1779825   -21.657741    3.0575839    22345.475    1649.0148    2060.5666    371.34886   -1049.8063   -232.28801   -779.10366    47.192034    23.375454     31.04045    68.620505    134.24487    113.11845 
  454000     249.9608   -12635.791   -11349.028   -12635.791            0    1136.6871    46.906274    21.662419    21.972888   -9.2710565   -21.485897    2.7861371    22326.725    1366.9028    1217.1591    825.99945    327.17619     581.5762    551.20695    46.906274    23.562956    30.857967    69.086041    134.12959     113.1699 
  454500    247.72598   -12621.397   -11346.138   -12621.397            0    1328.7564    46.669061    21.791702    21.935285   -9.2539541   -21.494962    3.1134114    22308.147    2263.9581     701.5588    1020.7523    690.51994   -145.65166   -404.02648    46.669061    23.675176     30.86881    68.591661    134.13351    113.00874 
  455000    245.66898    -12619.03   -11354.361    -12619.03            0    944.29493    47.325754    21.494305    21.960636    -9.217988   -21.602762    2.8275185     22339.11    794.65745    1132.1226    906.10476    426.95055   -242.12183    583.02403    47.325754    23.387528    30.934507    68.945962    134.29387    113.21242 
  455500    234.42253   -12612.696   -11405.922   -12612.696            0    1447.8349    47.171485    21.562401    21.935652   -9.3658914   -21.685411    2.9808691    22311.421    867.40104    1960.1584    1515.9452    323.55342    209.35594   -219.21981    47.171485    23.508659    30.988957       68.468    134.40925     113.4783 
  456000    245.10843   -12568.357   -11306.573   -12568.357            0    1590.5529     46.97303    21.743623     21.85073   -9.0125862   -21.395998    2.9605384    22317.545    1165.0167    1280.6507    2325.9912    -722.4225   -15.686552    220.82321     46.97303    23.537456    30.724712    69.166155    134.13709    112.51368 
  456500    240.52514    -12643.69   -11405.501    -12643.69            0    1318.4859    46.902509    21.673498    21.916126    -9.417957   -21.662083    2.9213902     22278.65    1855.9198    977.70089     1121.837    176.19078    248.99984    -522.9274    46.902509    23.631302    30.953141    68.563362    134.41375    113.48677 
  457000    241.50643   -12652.704   -11409.463   -12652.704            0    535.56014    47.295587    21.548219     21.95818   -9.1138744   -21.577103    3.0041905    22378.365    11.180962    1503.5164    91.983071   -437.47829   -235.09146   -681.76098    47.295587    23.396334    30.931508    68.826825    134.23291    112.92606 
  457500    251.08884    -12633.15   -11340.581    -12633.15            0    473.53664    47.245897    21.572832    21.986169    -9.360836    -21.66564    2.8642402    22408.914    8.9804948    711.82585    699.80358   -477.40137    18.844073    26.621505    47.245897    23.516214    30.999926      68.7179    134.33828    113.45688 
  458000    240.46634   -12636.563   -11398.676   -12636.563            0    511.02847    46.955335    21.689319     21.96888   -9.1963699   -21.608595    3.0618574     22373.75    733.83819    599.73714     199.5101    373.04984    236.72791    -1008.026    46.955335    23.558433    30.966725     68.68917     134.2508    112.97717 
  458500    244.43705   -12639.757    -11381.43   -12639.757            0    18.733922    47.139751    21.599847     22.09017   -9.2761307   -21.316135    2.7973644    22492.464    372.80269    278.38528   -594.98621   -446.06505   -293.46231   -341.01752    47.139751    23.507446    30.824965    69.129133    133.75069    113.24128 
  459000    241.45564   -12626.334   -11383.354   -12626.334            0    830.87615     47.13631    21.535402    22.026068   -9.2863503   -21.827296    3.0617303    22358.648    1063.4428    716.14712    713.03852   -23.807243    340.97014    200.63757     47.13631    23.452289    31.160114    68.432468     134.4662    113.32634 
  459500    244.83941   -12661.847   -11401.448   -12661.847            0    1218.4843     47.05771    21.639118    21.918897   -9.3099765   -21.415059     2.917012    22319.735    1226.8998    1048.3746    1380.1785    403.63022   -79.768543     165.6343     47.05771    23.556891    30.782328    68.777261    134.08249    113.27922 
  460000    246.93766   -12606.259   -11335.059   -12606.259            0    1934.3998    46.882155    21.740764     21.83301   -9.1247942     -21.7899    2.9998977    22253.379    2283.4161    1008.3005    2511.4828   -283.06108    136.97539    139.39952    46.882155    23.578012    30.991603    68.816654    134.67548    112.76823 
  460500    243.94104   -12635.307   -11379.533   -12635.307            0    1388.9752    47.209736     21.54511    21.902415   -9.3969873   -21.506738    2.9171276      22277.8    929.66177    906.68365    2330.5801   -301.90456    462.92386    331.56846    47.209736    23.505215     30.83448    68.557861    134.22596    113.56462 
  461000    254.14824   -12619.134   -11310.814   -12619.134            0    706.36491    47.216498    21.543842    22.020717   -9.0616099   -21.788053    3.0082361    22400.019   -89.229542    1500.2294     708.0949   -912.19732    1035.5023   -357.02607    47.216498    23.371989    31.123636    68.868383    134.43089    112.81223 
  461500    241.65252   -12677.845   -11433.852   -12677.845            0    835.78586    46.918207    21.670589     21.97559   -9.4018049   -21.415301    2.9167739    22343.575    1683.2429    730.42891    93.685776   -443.63011    23.196898    81.613731    46.918207    23.622201    30.822868    68.694424    134.01017    113.45366 
  462000    244.57811   -12638.666   -11379.613   -12638.666            0    724.61388    46.812629    21.663406    22.084315   -8.9907268   -21.485189    2.9783403    22396.168    1339.1971    903.05626   -68.411728   -329.88106    -176.2896   -754.74501    46.812629    23.454985    30.954819    69.211406    133.95413    112.53938 
  462500    255.02851   -12607.473   -11294.622   -12607.473            0    863.03476    47.056962    21.558184    22.084099    -9.512986   -21.591019    3.1635743    22403.494    906.51531    1341.7764    340.81261    64.995466    125.81059   -942.70712    47.056962     23.56379    31.046542    68.038558    134.06232    113.81044 
  463000    251.71911   -12619.263   -11323.449   -12619.263            0    1202.4487    47.085042    21.565008    21.957138   -9.0369685   -21.545296    2.8236777    22295.043    417.62688    2604.4872    585.23198    -335.0957   -465.57093   -455.11308    47.085042    23.381967    30.891566    69.276259     134.2227    112.73646 
  463500    243.10409   -12642.303   -11390.837   -12642.303            0    1157.4735    46.949471    21.646784    21.958484   -9.2401394    -21.57408     3.009852    22316.519    1637.7692    732.84226     1101.809   -689.18425   -326.57874   -129.07562    46.949471    23.536428    30.930166    68.694978    134.22752    113.11568 
  464000      250.418   -12665.462   -11376.345   -12665.462            0    331.61395    47.051927    21.637499    21.970827   -9.3078695   -21.411642    2.8044389    22368.192    380.59718    71.870869    542.37379    581.54636   -844.70143   -172.85755    47.051927    23.554571    30.806502    69.005593    134.03012    113.27607 
  464500    248.21908   -12646.757    -11368.96   -12646.757            0    826.72125    47.096009    21.582539    21.986849   -9.1136107   -21.750481    3.0422908    22348.565    936.73059    611.57548    931.85767    197.73816    -413.5764    463.02718    47.096009    23.427845    31.076687    68.749222    134.41874    112.89277 
  465000    241.87449   -12629.342   -11384.207   -12629.342            0    1393.4223    46.999458    21.636845    21.948451   -9.4754961   -21.429684    2.8833892    22319.818    1819.2321    199.60306    2161.4316    245.60933    139.80154    747.08612    46.999458    23.620713    30.810384     68.60842    134.06982    113.65021 
  465500    242.54393   -12645.902    -11397.32   -12645.902            0     1112.773     46.90605    21.652468    21.922775   -8.8657629   -21.646947    3.0235676    22265.467   -2.8506011     1538.217    1802.9526   -747.41127     493.5503   -1.2738646     46.90605    23.397246    30.957072     69.18504    134.36742    112.26701 
  466000    252.44125   -12644.197   -11344.665   -12644.197            0    45.090604    47.242653    21.593503    21.982268    -9.494892   -21.551884    2.9028304    22424.867    499.70663    122.05497   -486.48979   -332.05778    35.571218   -30.630844    47.242653    23.588818    30.921356    68.500866    134.18603     113.7356 
  466500    244.83746   -12645.145   -11384.756   -12645.145            0   -247.22005    47.086317    21.642073    22.043578    -9.152849   -21.684183    2.9264097    22463.409    133.40111   -503.16218   -371.89909    155.65365    652.02418   -146.01559    47.086317    23.497957     31.05941    68.978389    134.27891    112.92444 
  467000    248.41402   -12618.886   -11340.086   -12618.886            0    443.25549    46.923784    21.733443    21.991182   -9.3392388   -21.277399      2.95268    22426.945    601.59645   -679.56303    1407.7331    300.96445   -639.48572    838.75638    46.923784    23.655103    30.741797    68.807345    133.79916    113.25404 
  467500    238.34055   -12669.508   -11442.564   -12669.508            0    1434.8005    46.971408    21.565432    21.944142   -9.1388004   -21.735607     2.929927     22228.51    1380.4928    1176.9614    1746.9471   -195.94584    451.49764   -283.13457    46.971408    23.421903    31.025255    68.881114    134.47338    112.96581 
  468000    239.72389   -12614.336   -11380.272   -12614.336            0    1753.1475     47.14716    21.584511    21.872243   -9.3072478   -21.437615    3.0385372    22258.253    720.98746    1968.6955    2569.7595    564.92042   -303.25169    241.84231     47.14716    23.505659    30.776599    68.502157    134.15131    113.32572 
  468500    240.69998   -12620.488   -11381.398   -12620.488            0    626.01697    46.989089    21.630892    22.005712   -9.1914424   -21.745898    2.9008334    22366.956    21.919072    721.91326    1134.2186   -181.60467    330.96472     312.6143    46.989089    23.502725    31.073305    68.923925    134.41302    113.02171 
  469000    244.83707   -12613.524   -11353.138   -12613.524            0   -254.76883    46.941276    21.764447    22.003245   -9.2225244   -21.424438    2.9441564    22479.636    414.63549   -521.17642   -657.76555    136.92619   -16.618097       51.371    46.941276    23.637811    30.851538    68.972991    133.98234    112.96444 
  469500    243.68387    -12655.68    -11401.23    -12655.68            0    9.3014255    47.157761    21.615063    21.979959    -9.350786   -21.667216     2.945897    22404.568   -528.92259    783.53521   -226.70834    63.808433   -28.739592   -237.59343    47.157761    23.550969    31.004277    68.612199    134.33449    113.39355 
  470000    243.28396   -12610.777   -11358.385   -12610.777            0    855.61284    47.192196    21.454348    22.061084   -9.1163126   -21.586613    2.8617806    22336.358    935.38455    1503.6733    127.78062   -711.61754   -312.80022    318.58386    47.192196     23.31086    30.997791    69.064827    134.13824    113.02145 
  470500    248.37608   -12652.977   -11374.372   -12652.977            0    848.22214    46.921348    21.657555    21.974443   -9.3596201   -21.517027    3.0412592    22330.466    803.00801    486.01575    1255.6427    341.61176    446.05187   -221.76368    46.921348    23.593477    30.904819    68.498119    134.12574    113.37227 
  471000    246.14623   -12644.026     -11376.9   -12644.026            0    1724.9966    46.808641    21.685577    21.946427   -9.0627629   -21.482679    2.8006723    22277.213    1688.7892    2093.1265    1393.0741   -218.13182    232.94223   -119.45272    46.808641    23.503147    30.838206    69.365068    134.15689    112.68086 
  471500    249.06754   -12632.512   -11350.347   -12632.512            0    1463.6584     47.27933    21.504319    21.963345   -9.5397929   -21.644466    3.1817692    22330.348    1264.1344    1809.3632    1317.4776    689.62463   -258.49428    74.744746     47.27933    23.525377    30.999921    67.854979     134.2836    113.92314 
  472000    247.93296   -12631.039   -11354.715   -12631.039            0    770.23727    47.220686    21.563289    21.998708   -9.2202165   -21.690669    2.8564055    22399.817    364.23781    575.89762    1370.5764    443.00524    196.21866     371.6675    47.220686    23.451819    31.025591    68.929528    134.35659      113.151 
  472500    248.92926   -12648.368   -11366.915   -12648.368            0    148.28951    47.004347     21.73935    21.968976   -9.3369048   -21.533968    2.9219794    22448.865     128.9553   -371.47551    687.38875   -80.696582    135.11971    231.77255    47.004347     23.65961    30.901224    68.783618    134.17599     113.2432 
  473000    252.40111   -12633.774   -11334.448   -12633.774            0    949.38136     47.01197    21.753216    21.850202   -9.1161773   -21.693229    3.1479239    22345.361     1641.807   -528.95686    1735.2939   -729.44322    123.05343   -315.34423     47.01197    23.586163    30.950556     68.61054    134.49921    112.73722 
  473500     245.9943   -12593.224    -11326.88   -12593.224            0    1236.2794    47.181124    21.531804    21.988983   -9.4093628   -21.531415    2.6750697    22338.492    1336.9922    985.33039    1386.5156    247.79947   -480.92459    384.80834    47.181124    23.497972    30.891313    68.994699    134.18725    113.60525 
  474000    247.85935    -12663.08   -11387.135    -12663.08            0    864.14839    47.001048    21.571359     22.01645   -9.2165414   -21.719551    3.0840024     22321.96    1425.7855    874.51684    292.14288    88.275488    302.46637   -1226.3422    47.001048    23.457795    31.080123    68.542244    134.33277      113.135 
  474500    246.39793   -12606.311   -11337.889   -12606.311            0    1259.1821    46.827149    21.646275    22.017733   -9.1760559   -21.314451    2.9921895    22317.909     1545.263     2356.901   -124.61771     706.3952   -829.76599   -219.79197    46.827149    23.510875    30.790252    68.921327    133.80822    112.97254 
  475000    243.25874   -12643.221   -11390.959   -12643.221            0    1966.2774    46.745427    21.534948    22.074878   -9.2925389   -21.707224    2.8066838    22221.904    2358.1656    2173.1094    1367.5572    73.628235   -513.78021   -38.961829    46.745427    23.454323    31.086674    68.927181    134.28923    113.34067 
  475500    246.84431   -12670.556   -11399.836   -12670.556            0    974.86911    47.126141    21.580748    22.005055   -9.2092527   -21.432893    3.0471268    22379.523    1511.0556    939.98599    473.56575    139.10534   -117.52343    -231.5704    47.126141    23.463568    30.868695    68.696513    133.97342    113.10962 
  476000    245.37099   -12570.001   -11306.866   -12570.001            0    557.72869    47.045421     21.63215    22.004835   -9.2979599   -21.690898    2.8953734    22394.179    479.39837      493.317    700.47069    80.366466     59.36035    468.29764    47.045421    23.545742    31.033707    68.794032    134.34253    113.25907 
  476500     239.4836   -12581.417    -11348.59   -12581.417            0    330.33054    47.167535    21.717911    21.885988   -9.3608736   -21.676732    2.9609476    22419.576   -293.99245    302.78456    982.19952   -134.22749    381.37265    419.34496    47.167535    23.649389     30.94583    68.584554      134.465    113.31705 
  477000    249.43643   -12616.324    -11332.26   -12616.324            0    1472.3787    47.129925    21.669897    21.845111   -9.1828253   -21.555723    2.9832387    22310.425    801.97765     1865.222    1749.9365    529.54346    329.32403   -107.33371    47.129925    23.535266     30.83436    68.786465    134.35334    112.96526 
  477500    253.40415   -12589.006   -11284.517   -12589.006            0    1830.5468     47.06672    21.565918    21.938991   -9.3625475   -21.689376    2.8764675    22268.888    2090.9993    1244.0598    2156.5812   -358.67175    231.72722    177.02483     47.06672    23.510553    30.984228    68.658729    134.42808    113.46741 
  478000    249.94243   -12636.459   -11349.791   -12636.459            0    1317.7111    46.892517    21.582309    22.053985   -9.1592818   -21.406354    3.0595876    22319.709    2161.5365    709.21962    1082.3773   -569.05671   -601.81728   -480.36364    46.892517    23.445437    30.886426    68.780404    133.87336     112.9958 
  478500    240.69078   -12648.043   -11409.001   -12648.043            0    388.58563     46.85186    21.704245    22.056042   -9.1744753   -21.498054    2.9304775    22428.441    403.60937   -563.66155    1325.8091     208.4666    27.222833    754.28381     46.85186    23.563643    30.939021    69.035856    134.01546    112.91398 
  479000    239.75428   -12628.704   -11394.483   -12628.704            0   -269.58846    47.003975     21.75989     21.98766   -9.3117645   -21.524437    2.8860154    22489.008    1094.3965    -1232.837   -670.32496   -323.23268   -385.59157    267.87941    47.003975    23.668582    30.904493    68.908008    134.14547    113.16766 
  479500    237.28384   -12628.967   -11407.463   -12628.967            0    224.40318     47.28641    21.625745    21.888389   -9.0983952   -21.698509    3.0150386    22383.151   -230.59759   -407.70868    1311.5158    -1078.677    350.68024   -414.89736     47.28641    23.461749    30.968005    68.810079    134.48119    112.81749 
  480000    244.79391   -12626.771   -11366.607   -12626.771            0    1181.5908    47.169945    21.599397    21.915773   -9.4260111   -21.671927    2.8652856    22328.718     382.2606    1374.7425    1787.7694    66.384186    242.63282    748.95863    47.169945    23.566579    30.954537    68.600559    134.43673    113.57653 
  480500    250.24876    -12621.61   -11333.364    -12621.61            0    1806.7951    46.862146    21.713722    21.901781   -9.0617753   -21.579228    2.9371446    22286.192    2384.1145    1472.1833    1564.0875   -1477.4561    115.04104      92.6857    46.862146    23.528738    30.886533    69.093804    134.31971    112.65221 
  481000    236.16669   -12692.193   -11476.441   -12692.193            0    1533.0709    46.987261    21.547766    21.980461   -9.2609247   -21.401454     2.978128    22254.568    2290.3897    978.52115    1330.3019   -46.232321   -797.39434    255.49717    46.987261    23.453591    30.822592    68.719158    133.97489    113.25735 
  481500    245.10168   -12602.917   -11341.168   -12602.917            0    807.05012    47.051417    21.562559    22.074917   -9.3397348   -21.744436    2.8696561    22396.083    1230.0269    1105.1348    85.988605    510.67312    169.98557    371.81331    47.051417    23.498395    31.118441    68.755247     134.3279    113.41965 
  482000    234.61225   -12664.896   -11457.145   -12664.896            0    869.92749    46.857547    21.694032    21.974682   -9.0013082   -21.149769    3.0799007    22337.904    1022.5318    1072.9367    514.31395   -172.01916   -878.78759   -390.70221    46.857547    23.487328    30.654284    69.070673    133.62575    112.53459 
  482500    249.99193   -12626.619   -11339.696   -12626.619            0    577.50125    47.103631    21.647122    21.975095   -9.3183885   -21.747132    2.9242529    22407.082   -554.93632    1222.1835    1065.2566    256.13995    575.74993    427.51542    47.103631    23.567567    31.054691    68.692245    134.44987    113.29032 
  483000    242.66001   -12667.245   -11418.065   -12667.245            0    903.43427    47.226623    21.571185    21.933901   -9.3319619   -21.759385     2.869842    22344.815    525.77041    1206.7725    977.75989    636.80285    40.570034    217.61431    47.226623    23.503224    31.029065    68.695726    134.52804    113.39391 
  483500    248.78783   -12632.933   -11352.208   -12632.933            0    1122.8079    47.016926    21.737409    21.895009   -9.1327118   -21.345858    3.0600924    22377.271    911.56013    788.07261     1668.791   -344.87827   -883.84357   -185.42221    47.016926    23.577985    30.731111    68.847577    133.99542    112.78913 
  484000    239.00799   -12586.524   -11356.144   -12586.524            0    828.12564    46.854935    21.691904    22.031262    -9.303795   -21.713881    2.8767379    22391.975     1552.019   -218.62629    1150.9842    889.98426    498.31505    578.13171    46.854935    23.602951    31.066779    68.862357    134.34219     113.2148 
  484500    247.77497   -12656.412   -11380.901   -12656.412            0    395.12928    47.271043    21.587394    21.971549   -9.3154895   -21.423423    2.9213662    22421.057    838.57994   -307.75424    654.56215    683.64226   -1374.0746   -303.04234    47.271043     23.51157    30.826067    68.754206    134.02542    113.34138 
  485000    250.25992   -12640.644   -11352.342   -12640.644            0    179.67466    47.148443    21.616669    22.001259   -9.1210147   -21.739197    3.0287578    22423.514    100.97934    165.27689    272.76773    169.03371    391.32183   -154.66157    47.148443    23.462167    31.077668    68.793524    134.38785      112.877 
  485500    237.75692   -12599.018   -11375.079   -12599.018            0    1359.7764    46.927141    21.674309    21.962912   -9.4433546   -21.413426    2.7852184    22338.771    924.79303    1887.0551     1267.481    856.61971   -486.54975     483.5224    46.927141    23.642179    30.800353    68.863132     134.0458    113.54244 
  486000    236.01347   -12699.569   -11484.605   -12699.569            0    1007.8429     47.02944    21.620287    21.912576   -9.0051092   -21.622887    3.1224401    22280.488    707.66538    1041.8396    1274.0237   -996.80354    766.29865    212.61115     47.02944    23.420692    30.942849    68.786929    134.33087    112.61231 
  486500    254.11934   -12674.242   -11366.072   -12674.242            0    1870.7951    47.046235    21.533497    21.940373   -9.4274862   -21.528059    2.9472744    22227.133    1465.0339    2151.0107    1996.3405    255.80438    523.18712   -50.546586    47.046235    23.506786    30.879179    68.467057    134.20045    113.64407 
  487000    234.24144   -12648.471   -11442.629   -12648.471            0    950.54888    47.029122    21.660545    21.965758   -9.0967848     -21.6423    2.7569894        22376    1205.5856    750.83556    895.22551   -899.42678    627.44055    436.38701    47.029122    23.493206    30.959403    69.342235    134.35117    112.78096 
  487500    240.77354   -12620.723   -11381.255   -12620.723            0    1580.4507    46.988863    21.679011     21.93001   -9.4084201   -21.465966    3.1881722    22339.489    1819.3445    2141.5773    780.43044    541.77338   -178.04974   -888.67103    46.988863     23.63256    30.852512     68.17426    134.08787    113.46024 
  488000    249.54649    -12647.19    -11362.56    -12647.19            0    1505.7867    46.998937    21.582198    22.010799   -9.2108625   -21.553505    2.8699799    22326.442    898.44137    1686.8414    1932.0773    313.62926    389.21044    960.39049    46.998937    23.465533     30.93971    68.975847    134.15719    113.11185 
  488500    243.08408   -12591.345   -11339.983   -12591.345            0    886.40533    47.151954    21.588651    22.034729   -9.2372634   -21.533717    3.1196268    22430.188    879.23717    1301.9082    478.07058    67.087179   -345.27254   -468.04558    47.151954    23.481842    30.967117    68.520805      134.057    113.16491 
  489000    241.47988   -12640.282   -11397.177   -12640.282            0    836.31198    46.972711    21.685501    21.960097    -9.344025   -21.666314     2.795166    22369.142    1159.1881    606.75167    742.99612    220.62692    422.15792    195.26882    46.972711    23.612957    30.975603     68.92063      134.384    113.31064 
  489500    243.45758   -12645.187   -11391.902   -12645.187            0    1357.9667    46.991437    21.621471    21.904463   -9.1876449   -21.502256    2.8902371     22255.46    1501.9499    1536.2746    1035.6757   -291.43986    400.05898   -62.638096    46.991437     23.49257    30.830277    68.958757    134.22194    113.02217 
  490000    246.25174   -12624.238   -11356.569   -12624.238            0   -41.170651     47.29618    21.546248    21.991302   -9.4395696   -21.781475    3.2431904    22410.351   -975.45274    460.19919    391.74159    679.15829    186.34555   -792.55869     47.29618    23.523314    31.121829    67.895197    134.41719    113.65858 
  490500    244.04376   -12584.191   -11327.889   -12584.191            0    950.82039    47.023187    21.578311    22.076304   -9.1094066    -21.41157    2.7276842    22400.405    1188.6415    1115.1298    548.68989    47.718715   -723.46894    529.10717    47.023187    23.422314    30.874889    69.445088    133.90738    112.88732 
  491000    243.32798   -12601.725   -11349.107   -12601.725            0    837.00465    46.871554    21.723674     22.01565   -9.3159671   -21.523426    3.0923984    22416.826    1634.6418    548.21255    328.15958    37.173924    482.15942   -379.06892    46.871554    23.636946    30.943652    68.531497    134.07253    113.21156 
  491500    242.07618   -12641.761   -11395.587   -12641.761            0    778.79616    46.941351     21.65399    22.015315   -9.1885274   -21.586244    2.9731813    22377.852    700.92119    738.04149    897.42578   -254.71467   -91.412634   -304.01872    46.941351    23.522846    30.975472    68.864418    134.17737    112.99317 
  492000    238.22143   -12606.059   -11379.728   -12606.059            0    706.53583    47.315596    21.537667    21.995492   -9.2776845   -21.558056    2.8127918    22414.892    535.16244    1356.3792    228.06587   -514.51453   -459.29544   -22.748124    47.315596    23.450939     30.92674     68.94249    134.19228    113.30471 
  492500    236.06015   -12671.362   -11456.158   -12671.362            0    453.36714    47.053828    21.636871    21.964446   -9.3523842   -21.721862    3.1205866     22361.95    1149.0844    173.13247    37.884585    -320.9943    279.81641   -545.81107    47.053828     23.57162    31.048579     68.29443    134.39563    113.37607 
  493000     240.5209   -12674.075   -11435.907   -12674.075            0    965.56677    46.922089     21.78464    21.829487   -9.0901643   -21.380993    2.7689366    22313.683    665.74241     546.7223    1684.2356    90.005577    112.08179    904.75206    46.922089    23.605119    30.681271    69.411749    134.17677    112.64951 
  493500    250.19444   -12590.198   -11302.232   -12590.198            0    910.51782    47.114444    21.628872    21.947668   -9.2627619    -21.70157    3.0100742    22365.382    1190.6523    112.18378    1428.7174   -17.434267     633.7934    314.44422    47.114444    23.528852    31.011591    68.609919    134.41008    113.18347 
  494000    256.87088   -12642.441   -11320.106   -12642.441            0    1098.8413    47.150488    21.505439    22.014909   -9.2989637   -21.521505    2.9965971     22322.94    955.63442    720.82863    1620.0609    345.83671   -568.73468    -312.5303    47.150488    23.429781    30.932361    68.588911    134.08782    113.38368 
  494500    244.49105   -12626.274   -11367.668   -12626.274            0    72.661218    46.862366    21.621606    22.141149   -9.0422711   -21.588372     2.789574    22434.289    386.39567    715.09483   -883.50685   -664.88366    232.47042   -344.65315    46.862366    23.436222    31.049477    69.442557    134.05028    112.69494 
  495000    249.04781   -12624.524   -11342.461   -12624.524            0    641.91586    46.997976    21.684954    21.970723   -9.3726858   -21.500706    3.0433393    22391.439    1310.5339    65.735945    549.47773    896.55701   -626.75607   -300.98259    46.997976    23.623811    30.891017    68.495376     134.1084      113.375 
  495500    240.62414   -12615.595   -11376.895   -12615.595            0      798.566     47.08364    21.581999    22.026368   -9.0729444   -21.710762    2.9037543    22382.293     205.6652    1524.7149     665.3179   -200.84793   -56.430232    452.19601     47.08364    23.411557    31.063642    69.082097     134.3398     112.8016 
  496000    247.88542   -12663.288   -11387.209   -12663.288            0    1629.5712    47.197302    21.553143    21.884058   -9.5658331   -21.421514    2.9861297    22261.562    2096.2387    1054.1408    1738.3342    218.16083   -678.47293   -49.825246    47.197302    23.580567    30.768657    68.214287    134.12389    113.93287 
  496500    238.66063    -12636.38   -11407.789    -12636.38            0    1438.1205    46.893519    21.670826    21.932187    -9.078551   -21.716055    2.9474602    22287.955    1247.6037    522.05258    2544.7051   -77.818175    732.10269    660.40277    46.893519    23.495633    31.004764    69.003239    134.45993    112.73025 
  497000    241.67961    -12648.52   -11404.388    -12648.52            0       1828.4    47.020265    21.651857    21.869134   -9.3924742   -21.313277    2.9061275    22264.442    1115.6139    1460.5942    2908.9918   -75.454678   -594.26479    397.60975    47.020265    23.601302    30.675078    68.689482    134.01189    113.45097 
  497500    242.04984   -12686.692   -11440.653   -12686.692            0    1191.9414    47.108166    21.552893    21.969121   -9.0995464   -21.918278    2.9901528    22305.628    168.04521    1715.9639    1691.8152   -365.97001    661.71498    206.55184    47.108166    23.395062    31.176821    68.789066     134.6707    112.88928 
  498000    246.01132     -12656.8   -11390.368     -12656.8            0    294.42655    47.168838    21.635386    21.946575   -9.3535944   -21.413559    2.8380553    22396.832   -334.02556    99.163876    1118.1413    216.58229    -604.6768    747.66909    47.168838    23.570738    30.793623     68.86613    134.05826     113.3802 
  498500    238.62933   -12641.411   -11412.981   -12641.411            0    1137.9127    46.904756    21.683123      21.9076   -9.1878439   -21.663941     3.083307     22280.94      1074.91    1119.9008    1218.9274   -87.834235    789.72921   -112.73755    46.904756    23.549401    30.964109    68.613713    134.39868    112.96395 
  499000    247.19836   -12583.089   -11310.547   -12583.089            0    1360.5609    46.906708    21.663262     22.00659   -9.1722005   -21.432781    2.8490142    22362.047     1928.473    994.14172     1159.068   -797.68074   -105.99747    149.65537    46.906708    23.525012    30.850786    69.150972    134.00523    112.94774 
  499500    248.26547   -12669.984   -11391.948   -12669.984            0    1949.1952     47.14586    21.513898    21.927357   -9.3808529   -21.581317    2.9585714    22240.725    1321.4948    3288.4155    1237.6754    894.20842   -459.15661   -185.91821     47.14586    23.470155    30.908176    68.480105    134.28595    113.55898 
  500000    252.33334   -12627.992   -11329.015   -12627.992            0    626.58141    47.040968    21.621221    22.025653   -9.0739567   -21.642884    3.0141073    22401.921    1307.2642    278.24071    294.23937   -625.25887    457.25198    47.611525    47.040968    23.448111    31.026258    68.929118     134.2321    112.76673 
Loop time of 1025.28 on 48 procs for 500000 steps with 2592 atoms

Performance: 84.270 ns/day, 0.285 hours/ns, 487.671 timesteps/s
100.0% CPU use with 48 MPI tasks x 1 OpenMP threads

MPI task timing breakdown:
Section |  min time  |  avg time  |  max time  |%varavg| %total
---------------------------------------------------------------
Pair    | 222.26     | 229.95     | 238.02     |  40.3 | 22.43
Bond    | 0.7031     | 0.76724    | 0.96643    |   4.5 |  0.07
Kspace  | 369.02     | 376.89     | 384.52     |  31.5 | 36.76
Neigh   | 15.93      | 16.007     | 16.085     |   1.1 |  1.56
Comm    | 46.353     | 75.902     | 95.084     | 234.0 |  7.40
Output  | 3.5575     | 3.5585     | 3.5734     |   0.1 |  0.35
Modify  | 182.12     | 247.03     | 348.77     | 453.5 | 24.09
Other   |            | 75.18      |            |       |  7.33

Nlocal:             54 ave          61 max          46 min
Histogram: 2 0 3 4 8 10 13 3 3 2
Nghost:        3916.52 ave        3966 max        3881 min
Histogram: 3 2 7 9 13 7 5 1 0 1
Neighs:        16607.9 ave       18803 max       14110 min
Histogram: 2 1 2 7 5 14 8 5 2 2

Total # of neighbors = 797180
Ave neighs/atom = 307.55401
Ave special neighs/atom = 2
Neighbor list builds = 23843
Dangerous builds = 0

unfix		3
unfix		2
unfix		1

write_data	data.final.${pid}
write_data	data.final.0
System init for write_data ...
PPPM initialization ...
  extracting TIP4P info from pair style
  using 12-bit tables for long-range coulomb (../kspace.cpp:340)
  G vector (1/distance) = 0.38057939
  grid = 50 40 54
  stencil order = 5
  estimated absolute RMS force accuracy = 0.00217438
  estimated relative force accuracy = 6.5480809e-06
  using single precision MKL FFT
  3d grid and FFT values/proc = 11832 4000
  generated 0 of 1 mixed pair_coeff terms from geometric mixing rule
Last active /omp style is kspace_style pppm/tip4p/omp
WARNING: Not all mixed pair coeffs generated from mixing. Use write_data with 'pair ij' option to store all pair coeffs. (../write_data.cpp:309)

write_restart   restart.lmp.${pid}
write_restart   restart.lmp.0
System init for write_restart ...
PPPM initialization ...
  extracting TIP4P info from pair style
  using 12-bit tables for long-range coulomb (../kspace.cpp:340)
  G vector (1/distance) = 0.38057939
  grid = 50 40 54
  stencil order = 5
  estimated absolute RMS force accuracy = 0.00217438
  estimated relative force accuracy = 6.5480809e-06
  using single precision MKL FFT
  3d grid and FFT values/proc = 11832 4000
  generated 0 of 1 mixed pair_coeff terms from geometric mixing rule
Last active /omp style is kspace_style pppm/tip4p/omp
Total wall time: 0:17:05
cp: cannot stat ‘restart2.lmp’: No such file or directory
cp: cannot stat ‘restart.lmp’: No such file or directory
cp: cannot stat ‘data.final’: No such file or directory
Mon Jan 17 16:31:37 EST 2022
Start Epilogue v2.5.3 Mon Jan 17 16:31:37 EST 2022 
Memory usage reported in GB
                    % of     user     user     user    total    total
Node               limit      max    limit  current  current     phys
r3i2n31             1.75     3.06   175.00     0.17     5.28   187.31
Memory summary:
		min    3.06 GB
		max    3.06 GB
		ave    3.06 GB
End Epilogue v2.5.3 Mon Jan 17 16:31:41 EST 2022 
