LAMMPS (30 Jul 2021)
  using 1 OpenMP thread(s) per MPI task
package omp 0
using multi-threaded neighbor list subroutines
echo both

include		in.partitions
variable        pid world 0
include		in.temp
variable	temperature equal 300
variable	melttemp equal 450.0
variable	tempDamp equal 100.0
include		in.pressure
variable        pressure equal 10000
variable        pressureDamp equal 1000.0 # This is 1 ps
include		in.seed
variable        seed world 745823

units		real
atom_style	full



include 	in.box

read_data       ice.data
Reading data file ...
  orthogonal box = (0.0055940000 0.0000000 0.0000000) to (49.454405 24.971228 23.019015)
  7 by 3 by 2 MPI processor grid
  reading atoms ...
  3840 atoms
  scanning bonds ...
  2 = max bonds/atom
  scanning angles ...
  1 = max angles/atom
  reading bonds ...
  2560 bonds
  reading angles ...
  1280 angles
Finding 1-2 1-3 1-4 neighbors ...
  special bond factors lj:    0        0        0       
  special bond factors coul:  0        0        0       
     2 = max # of 1-2 neighbors
     1 = max # of 1-3 neighbors
     1 = max # of 1-4 neighbors
     2 = max # of special neighbors
  special bonds CPU = 0.025 seconds
  read_data CPU = 0.181 seconds
include 	in.setup
variable	out_freq equal 500
variable	out_freq2 equal 500

timestep	1.0

neigh_modify    delay 5 every 1

include		in.tip4p
# This is TIP4P/Ice

# create groups ###
group ox type 2
1280 atoms in group ox
group hy type 1
2560 atoms in group hy

# set charges - beside manually ###
set group ox charge -1.1794
Setting atom values ...
  1280 settings made for charge
set group hy charge 0.5897
Setting atom values ...
  2560 settings made for charge

# ### TIP3P Potential Parameters ###
pair_style lj/cut/tip4p/long 2 1 1 1 0.1577 8.5
pair_coeff 1 1*2 0.000 0.000
pair_coeff 2 2 0.21084 3.1668
bond_style  harmonic
bond_coeff  1 450 0.9572
angle_style harmonic
angle_coeff 1 55 104.52
kspace_style pppm/tip4p 1.0e-5
pair_modify tail yes

thermo          ${out_freq}
thermo          500
thermo_style 	custom step temp pe etotal epair emol press lx ly lz xy xz yz vol pxx pyy pzz pxy pxz pyz cella cellb cellc cellalpha cellbeta cellgamma

restart 	${out_freq} restart.lmp.${pid} restart2.lmp.${pid}
restart 	500 restart.lmp.${pid} restart2.lmp.${pid}
restart 	500 restart.lmp.0 restart2.lmp.${pid}
restart 	500 restart.lmp.0 restart2.lmp.0

include         in.dump
dump            myDump all atom ${out_freq2} dump.water.${pid}
dump            myDump all atom 500 dump.water.${pid}
dump            myDump all atom 500 dump.water.0
dump_modify     myDump append yes


timer           timeout 23:50:00 every 1000
New timer settings: style=normal  mode=nosync  timeout=23:50:00


fix 		0 all shake 1e-6 200 0 b 1 a 1
       0 = # of size 2 clusters
       0 = # of size 3 clusters
       0 = # of size 4 clusters
    1280 = # of frozen angles
  find clusters CPU = 0.045 seconds
fix             1 all nph aniso ${pressure} ${pressure} ${pressureDamp}
fix             1 all nph aniso 10000 ${pressure} ${pressureDamp}
fix             1 all nph aniso 10000 10000 ${pressureDamp}
fix             1 all nph aniso 10000 10000 1000
fix             2 all temp/csvr ${temperature} ${temperature} ${tempDamp} ${seed}
fix             2 all temp/csvr 300 ${temperature} ${tempDamp} ${seed}
fix             2 all temp/csvr 300 300 ${tempDamp} ${seed}
fix             2 all temp/csvr 300 300 100 ${seed}
fix             2 all temp/csvr 300 300 100 745823
velocity        all create ${temperature} ${seed}
velocity        all create 300 ${seed}
velocity        all create 300 745823

run             500000
PPPM initialization ...
  extracting TIP4P info from pair style
  using 12-bit tables for long-range coulomb (../kspace.cpp:340)
  G vector (1/distance) = 0.37376444
  grid = 54 32 30
  stencil order = 5
  estimated absolute RMS force accuracy = 0.0034051979
  estimated relative force accuracy = 1.0254652e-05
  using double precision FFTW3
  3d grid and FFT values/proc = 7296 1350
Last active /omp style is kspace_style pppm/tip4p/omp
Neighbor list info ...
  update every 1 steps, delay 5 steps, check yes
  max neighbors/atom: 2000, page size: 100000
  master list distance cutoff = 10.8154
  ghost atom cutoff = 10.8154
  binsize = 5.4077, bins = 10 5 5
  1 neighbor lists, perpetual/occasional/extra = 1 0 0
  (1) pair lj/cut/tip4p/long/omp, perpetual
      attributes: half, newton on, omp
      pair build: half/bin/newton/omp
      stencil: half/bin/3d
      bin: standard
Per MPI rank memory allocation (min/avg/max) = 9.730 | 9.757 | 9.785 Mbytes
Step Temp PotEng TotEng E_pair E_mol Press Lx Ly Lz Xy Xz Yz Volume Pxx Pyy Pzz Pxy Pxz Pyz Cella Cellb Cellc CellAlpha CellBeta CellGamma 
       0          300   -18883.321   -16594.953   -18883.321            0    2357.7356    49.448811    24.971228    23.019015            0            0            0    28423.823     9252.263    5277.1215   -7456.1777   -3710.9344   -477.65533    4452.8881    49.448811    24.971228    23.019015           90           90           90 
     500    296.27686   -18056.956   -15796.988   -18056.956            0    8086.9451    50.193718    24.972216    22.990527            0            0            0    28817.439    7832.6831    8951.5282    7476.6239   -289.65503    308.92387    44.424973    50.193718    24.972216    22.990527           90           90           90 
    1000    299.81251   -17900.352   -15613.415   -17900.352            0    9163.4282    49.948986    25.022151    23.065156            0            0            0    28827.549    10060.998    8556.9589     8872.328    185.85802    398.45848   -195.49676    49.948986    25.022151    23.065156           90           90           90 
    1500    296.10141   -17834.781   -15576.151   -17834.781            0    10030.728    49.983219    24.979923    23.048399            0            0            0      28777.7      10239.6    10309.341    9543.2418    20.945033   -396.26117    657.36367    49.983219    24.979923    23.048399           90           90           90 
    2000    300.38802   -17843.379   -15552.051   -17843.379            0    9847.3043    50.078753    25.074921     22.92484            0            0            0    28787.197    9298.6025    9132.3119    11110.998    125.30224    83.213442    238.65341    50.078753    25.074921     22.92484           90           90           90 
    2500    306.56057   -17865.216   -15526.804   -17865.216            0    8936.7325    49.955234    24.944288    23.170432            0            0            0    28872.624    8783.0421    9875.8065     8151.349   -468.76744   -115.05156    -608.0201    49.955234    24.944288    23.170432           90           90           90 
    3000    300.07548   -17874.671   -15585.727   -17874.671            0    8881.0379    50.147842    25.018451    22.993813            0            0            0    28848.528    8257.1915    8736.6482    9649.2741   -360.73644    108.72089     82.67595    50.147842    25.018451    22.993813           90           90           90 
    3500    294.77098   -17894.854   -15646.372   -17894.854            0     10039.84     50.02185    25.022687    22.954298            0            0            0    28731.462      9284.59    10110.079    10724.851   -463.55011   -1080.4959   -144.93897     50.02185    25.022687    22.954298           90           90           90 
    4000    299.84936   -17920.039   -15632.821   -17920.039            0    10307.852    49.887335    24.885872    23.117746            0            0            0    28700.447    10563.475    10483.985    9876.0962    636.53828    1157.7498   -918.26992    49.887335    24.885872    23.117746           90           90           90 
    4500    296.82062    -17861.91   -15597.794    -17861.91            0    10091.894    50.128061    25.054737    22.886315            0            0            0    28743.962    10295.596     9605.439    10374.647   -124.68014    203.38006    148.76495    50.128061    25.054737    22.886315           90           90           90 
    5000    293.09636   -17800.919   -15565.211   -17800.919            0    9951.4191    50.037569    24.936594    23.090538            0            0            0    28811.601     9752.417    11179.851    8921.9894   -629.77326   -269.40155    632.66298    50.037569    24.936594    23.090538           90           90           90 
    5500    292.68584   -17858.324   -15625.748   -17858.324            0    9852.7366    49.931982    25.010648    23.031678            0            0            0    28762.679    9566.6083    10577.345    9414.2562   -467.60658    435.13513   -376.46886    49.931982    25.010648    23.031678           90           90           90 
    6000    308.19101   -17928.397   -15577.549   -17928.397            0    9605.0586    50.084031    25.069487    22.929403            0            0            0    28789.722    9881.3008     8790.948    10142.927    192.81716    -345.4958    374.77081    50.084031    25.069487    22.929403           90           90           90 
    6500    299.58613   -17930.681    -15645.47   -17930.681            0    10289.969    49.927449    24.904573    23.104241            0            0            0    28728.317    9810.1594    11127.949    9931.7991   -175.91498   -28.787235    42.724246    49.927449    24.904573    23.104241           90           90           90 
    7000    302.78586   -17881.769   -15572.151   -17881.769            0    9573.2561     49.97923    25.069656    22.954612            0            0            0    28761.258    10616.123    8611.3783    9492.2665   -322.91735    562.06772   -373.44857     49.97923    25.069656    22.954612           90           90           90 
    7500    300.41673    -17854.74   -15563.193    -17854.74            0     10435.99    50.089406    24.902535    23.052441            0            0            0    28754.536     9962.749    10900.897    10444.325   -145.03137    280.68393   -306.78914    50.089406    24.902535    23.052441           90           90           90 
    8000    299.49068   -17893.373    -15608.89   -17893.373            0    10186.348     49.77122    25.013668    23.062687            0            0            0     28712.14     11346.93    9805.4133    9406.7012    167.30431    313.28185   -1050.4327     49.77122    25.013668    23.062687           90           90           90 
    8500    299.74802   -17877.162   -15590.716   -17877.162            0    10692.672    50.300797    24.973764    22.853715            0            0            0    28708.843    9902.0597    10900.082    11275.875    10.350643   -211.84516    1024.4679    50.300797    24.973764    22.853715           90           90           90 
    9000    299.83568   -17788.828   -15501.713   -17788.828            0    10987.608    49.758165    24.956178    23.171544            0            0            0    28773.813     11765.74    11331.942    9865.1426    173.45235   -71.224731   -63.430039    49.758165    24.956178    23.171544           90           90           90 
    9500    305.70604   -17872.023    -15540.13   -17872.023            0     10439.53    50.055849    24.996785    22.965153            0            0            0     28734.81    10380.508     10511.07    10427.012   -262.74264    -136.8331   -2.8319353    50.055849    24.996785    22.965153           90           90           90 
   10000    302.39505    -17856.98   -15550.343    -17856.98            0    9775.1168    50.051196    25.032606    22.989386            0            0            0    28803.675    10285.666    8838.2363    10201.448    -403.5628    266.61648    364.69236    50.051196    25.032606    22.989386           90           90           90 
   10500    307.08373   -17793.362   -15450.961   -17793.362            0    9629.8635    49.989254     24.95093    23.128713            0            0            0    28847.944    9292.2989    10698.944    8898.3478    903.68441   -130.12313    188.52559    49.989254     24.95093    23.128713           90           90           90 
   11000    295.19793   -17829.335   -15577.597   -17829.335            0    9466.0721    50.095427    25.069026    22.934233            0            0            0     28801.81    9774.5825    8144.5919    10479.042     -134.418   -59.736005   -682.84885    50.095427    25.069026    22.934233           90           90           90 
   11500    298.45675   -17921.454   -15644.858   -17921.454            0    9235.5572     49.95834    24.967674    23.092718            0            0            0    28804.553    9227.2317    9631.3901    8848.0497    589.30133    157.42717   -669.42721     49.95834    24.967674    23.092718           90           90           90 
   12000    303.37152   -17854.692   -15540.606   -17854.692            0    9076.3616    50.066327    25.069795    23.029534            0            0            0    28905.578    8743.4807    8772.0389    9713.5654   -204.89153   -626.82188    352.84881    50.066327    25.069795    23.029534           90           90           90 
   12500    301.43396   -17849.258   -15549.953   -17849.258            0    9133.1445    50.198671    25.048776    22.954232            0            0            0    28863.002    8456.0869     9231.134    9712.2127   -250.89932   -111.32102   -170.26633    50.198671    25.048776    22.954232           90           90           90 
   13000    302.20023   -17816.603   -15511.452   -17816.603            0    9023.7289    49.817229    24.983293    23.210035            0            0            0    28887.173      9560.68    9021.4053    8489.1013     240.1502    13.744118   -581.98314    49.817229    24.983293    23.210035           90           90           90 
   13500    297.87082   -17894.437   -15622.311   -17894.437            0    9246.1277    50.221745    25.058261    22.925712            0            0            0    28851.311     9124.833    8142.9051    10470.645    109.40285   -1080.9699    536.84391    50.221745    25.058261    22.925712           90           90           90 
   14000    293.21294   -17911.313   -15674.716   -17911.313            0    9603.6325    49.984222    25.014304    23.028801            0            0            0    28793.383    10404.444    9232.8436    9173.6103    585.64796   -75.737552     47.36743    49.984222    25.014304    23.028801           90           90           90 
   14500    302.21501   -17992.139   -15686.875   -17992.139            0    9152.8817    50.056828    24.972936    23.021292            0            0            0    28778.133    8752.3113    8535.6984    10170.635   -42.042882   -849.68097    196.15939    50.056828    24.972936    23.021292           90           90           90 
   15000    304.20721   -17850.361   -15529.901   -17850.361            0    9941.7063    49.973259    25.005516    23.024919            0            0            0    28772.104    9596.5871    10298.746    9929.7858    10.016048    277.81263    15.253275    49.973259    25.005516    23.024919           90           90           90 
   15500    294.84444   -17847.775   -15598.733   -17847.775            0    10074.275    50.069148     24.95723    23.027472            0            0            0    28774.835    10133.012    10338.731    9751.0803    140.02833    181.14548   -18.877062    50.069148     24.95723    23.027472           90           90           90 
   16000    298.44721   -17863.163    -15586.64   -17863.163            0     9813.907    49.948207      25.0194    23.023921            0            0            0    28772.399    9641.9596       9970.8    9828.9614    771.40889    481.30189    523.07971    49.948207      25.0194    23.023921           90           90           90 
   16500      305.526    -17871.79   -15541.271    -17871.79            0    10541.112    49.981457    24.924619    23.048673            0            0            0    28713.316    11391.833    10455.971     9775.534   -675.21364   -374.03145    4.2174253    49.981457    24.924619    23.048673           90           90           90 
   17000     301.2275   -17870.163   -15572.432   -17870.163            0    10958.271    50.094821    24.973539    22.905661            0            0            0    28656.012    10631.279     10666.66    11576.874   -12.038751    866.15715    623.97219    50.094821    24.973539    22.905661           90           90           90 
   17500    299.55378   -17866.185    -15581.22   -17866.185            0    10530.939    49.827705    24.999634    23.046332            0            0            0    28708.226    11102.359    9930.0809    10560.378    213.58613   -633.63742   -503.36277    49.827705    24.999634    23.046332           90           90           90 
   18000    294.04143   -17882.552   -15639.635   -17882.552            0    11052.205    50.088659    24.863599    22.983605            0            0            0    28623.422     10288.96    12341.497    10526.157   -80.205149   -387.77305    -25.20647    50.088659    24.863599    22.983605           90           90           90 
   18500    299.05524   -17865.896   -15584.735   -17865.896            0    10478.761    49.910255    25.077912    22.916331            0            0            0    28683.111    10326.094     10138.48    10971.707    199.74514    940.81659    7.8338037    49.910255    25.077912    22.916331           90           90           90 
   19000    302.89979   -17904.181   -15593.693   -17904.181            0    10234.721    50.104227    24.868306    23.075783            0            0            0    28752.592    10017.752    10902.965    9783.4444   -220.84548   -722.70786   -337.60222    50.104227    24.868306    23.075783           90           90           90 
   19500    301.43517   -17895.377   -15596.062   -17895.377            0    10225.207     49.87179    25.094068    22.954019            0            0            0    28726.636    10636.642    8924.5845    11114.394    516.18865   -477.56655    86.681544     49.87179    25.094068    22.954019           90           90           90 
   20000    295.35199   -17898.633    -15645.72   -17898.633            0    10058.678    50.146518     24.86973    23.042719            0            0            0    28737.274    9003.5288    11194.667    9977.8386    578.65494    32.030776   -258.16863    50.146518     24.86973    23.042719           90           90           90 
   20500    314.41129   -17966.142   -15567.847   -17966.142            0    9948.6853    49.815048    25.024688    23.033385            0            0            0    28713.556    10594.822    9738.5189    9512.7147   -554.30097   -7.1786151    164.83355    49.815048    25.024688    23.033385           90           90           90 
   21000    301.88493   -17952.795   -15650.049   -17952.795            0     10141.92    50.035888    24.983422    22.955495            0            0            0    28695.923    9657.8385    10229.608    10538.312    136.36971    158.10324   -224.58171    50.035888    24.983422    22.955495           90           90           90 
   21500    299.02793   -17950.216   -15669.263   -17950.216            0     10599.98    49.914042    24.964021    23.031216            0            0            0    28698.167    9814.6012    11382.907    10602.432    475.37739   -88.665681   -452.60817    49.914042    24.964021    23.031216           90           90           90 
   22000    304.06274     -17903.1   -15583.742     -17903.1            0    10744.053    50.019681    24.963028    22.944716            0            0            0    28649.752    10964.959     10765.38     10501.82   -111.09389   -806.50542   -542.30096    50.019681    24.963028    22.944716           90           90           90 
   22500    295.60318   -17827.949    -15573.12   -17827.949            0    10955.871    49.870674    24.979365    22.980042            0            0            0    28627.107    11471.772     10380.77    11015.069    276.07157    6.6233746   -683.23478    49.870674    24.979365    22.980042           90           90           90 
   23000    301.00205   -17932.976   -15636.965   -17932.976            0    11232.974    49.930003    24.851788    23.047349            0            0            0    28598.299    11063.039    11422.872    11213.009   -386.59905   -233.07867   -413.24138    49.930003    24.851788    23.047349           90           90           90 
   23500     299.9552   -17851.686    -15563.66   -17851.686            0    11311.102    49.955621    25.036279    22.926604            0            0            0     28674.37    10748.241    10969.042    12216.021     187.2775    732.29639   -35.021437    49.955621    25.036279    22.926604           90           90           90 
   24000    306.58744   -17847.723   -15509.107   -17847.723            0    9989.3573    49.923305    24.999814    23.030874            0            0            0     28744.22    10534.797    9289.0291    10144.246   -0.8002892    210.36925   -159.26234    49.923305    24.999814    23.030874           90           90           90 
   24500    299.36195   -17886.976   -15603.475   -17886.976            0    10260.598    50.046275    24.977364    23.003179            0            0            0    28754.527     10054.62    10181.545    10545.628    8.5385745    281.93872    579.83671    50.046275    24.977364    23.003179           90           90           90 
   25000    313.70581   -17850.106   -15457.192   -17850.106            0    9396.5828    50.015368    25.060525    23.018532            0            0            0    28851.691     9439.914    8493.4297    10256.405   -232.67078    88.399135   -675.79228    50.015368    25.060525    23.018532           90           90           90 
   25500    300.28168   -17893.112   -15602.596   -17893.112            0    10163.838    49.926706    24.970429    23.062434            0            0            0    28751.735    10252.036    9954.2811    10285.195   -628.32718    1180.7267     912.7883    49.926706    24.970429    23.062434           90           90           90 
   26000    303.40674   -17797.318   -15482.964   -17797.318            0    9886.3917    50.145089    25.048032    22.947639            0            0            0    28823.056    9939.9968    9847.8625    9871.3159   -78.763325    20.815683    317.74599    50.145089    25.048032    22.947639           90           90           90 
   26500    292.47916   -17878.534   -15647.534   -17878.534            0    9091.1659    49.938119    25.019647    23.098152            0            0            0    28859.618    10315.716    8359.9441    8597.8378   -21.068077   -272.71156   -324.57898    49.938119    25.019647    23.098152           90           90           90 
   27000    305.65953   -17893.188    -15561.65   -17893.188            0    8438.2708    50.173716    25.032508    23.032826            0            0            0    28928.629    7841.1343    8642.5615    8831.1165   -395.82561    534.96846    410.86088    50.173716    25.032508    23.032826           90           90           90 
   27500    300.91433   -17880.912   -15585.569   -17880.912            0    8457.8825    50.069903    25.083191    22.990707            0            0            0    28874.326    8598.1081    8466.1596    8309.3799   -620.36172    55.380365   -528.48461    50.069903    25.083191    22.990707           90           90           90 
   28000    297.30192   -17889.683   -15621.895   -17889.683            0    9173.8416    50.030115    24.966549    23.094937            0            0            0    28847.408    9232.7803    8786.4526    9502.2918   -85.142755   -299.52171    359.78841    50.030115    24.966549    23.094937           90           90           90 
   28500    303.38692   -17876.694   -15562.491   -17876.694            0    9168.6628    50.168525    25.031125    23.009065            0            0            0      28894.2    8821.5299    9239.6857    9444.7727    1145.5848   -317.74034    528.69229    50.168525    25.031125    23.009065           90           90           90 
   29000    296.52836   -17942.084   -15680.198   -17942.084            0    8533.8281    50.059707      25.0078    23.064831            0            0            0    28874.473    9233.0651    7856.2669    8512.1524    64.169437    -63.98413    -334.9811    50.059707      25.0078    23.064831           90           90           90 
   29500    301.99872   -17899.547   -15595.933   -17899.547            0    8449.6182    49.993398    25.092822    23.072051            0            0            0    28943.321    8184.2043    8113.4817    9051.1686   -226.89645     200.5612    -13.91391    49.993398    25.092822    23.072051           90           90           90 
   30000    315.62248   -17871.374   -15463.839   -17871.374            0    8847.5988    50.217007      25.0001    23.038087            0            0            0     28922.71    8541.3455    9575.8968    8425.5542    -1097.853    628.08893   -402.32904    50.217007      25.0001    23.038087           90           90           90 
   30500    299.41923   -17896.159   -15612.221   -17896.159            0    8743.0679    49.922852    25.068069    23.071422            0            0            0    28873.181     8974.282    8882.8698    8372.0518   -197.19581    -293.6364   -300.19511    49.922852    25.068069    23.071422           90           90           90 
   31000    301.13397   -17806.667   -15509.649   -17806.667            0    10225.087    50.236726     24.99113     22.96326            0            0            0    28829.742    10041.682    10074.917    10558.662   -15.086442    361.08867    617.54961    50.236726     24.99113     22.96326           90           90           90 
   31500     301.8064   -17892.263   -15590.117   -17892.263            0    9895.3155    49.871496    25.044004     23.04677            0            0            0        28785    9536.0051     10068.31    10081.631    235.05031    126.99513   -93.764892    49.871496    25.044004     23.04677           90           90           90 
   32000    303.63766   -17894.108   -15577.992   -17894.108            0    10275.444    50.000868    24.929543      23.0461            0            0            0    28726.936    10014.209    10445.069    10367.055    694.03288    185.65394    480.06164    50.000868    24.929543      23.0461           90           90           90 
   32500    304.15937   -17852.748   -15532.653   -17852.748            0    10879.009    49.995742    25.008702    22.922658            0            0            0    28660.856    10898.457    10629.633    11108.936   -66.629594   -432.43819   -43.782054    49.995742    25.008702    22.922658           90           90           90 
   33000    299.71793   -17777.107   -15490.891   -17777.107            0    11283.689    49.891524    24.903658    23.051426            0            0            0     28640.97    11368.572    11530.744    10951.752    -270.6359   -321.31942   -215.90182    49.891524    24.903658    23.051426           90           90           90 
   33500    296.91223    -17912.42   -15647.605    -17912.42            0    10578.168    50.057785    24.965186    22.920412            0            0            0    28643.682    10252.593    10896.963     10584.95   -321.80081   -1442.4937    186.59301    50.057785    24.965186    22.920412           90           90           90 
   34000    299.43657    -17927.26    -15643.19    -17927.26            0     10155.34    49.937445    24.937137    23.053007            0            0            0    28707.838    10253.312    10438.229    9774.4784    510.76899   -746.57546    710.11773    49.937445    24.937137    23.053007           90           90           90 
   34500    290.11755   -17879.054   -15666.068   -17879.054            0    9993.2409    49.959747    24.998564    23.035409            0            0            0    28769.428    9789.9998    10487.152    9702.5707   -203.10119    230.53158    190.84948    49.959747    24.998564    23.035409           90           90           90 
   35000    298.55909    -17899.51   -15622.133    -17899.51            0    9700.5443    50.121935    25.030438     22.95084            0            0            0    28793.528    9371.5578     10149.24    9580.8348   -490.76686    999.72211    328.28874    50.121935    25.030438     22.95084           90           90           90 
   35500    301.68632   -17867.967   -15566.736   -17867.967            0    9317.8775    49.984165    24.906578    23.188839            0            0            0    28868.586    9825.9345    9677.6153    8450.0828    484.47355    339.15278     587.9407    49.984165    24.906578    23.188839           90           90           90 
   36000    292.49414   -17872.506   -15641.392   -17872.506            0    9380.5461    50.030875    25.101088    22.911345            0            0            0     28772.74     9092.985     8947.031    10101.622    2.6577552   -123.71931   -208.20814    50.030875    25.101088    22.911345           90           90           90 
   36500    300.24147   -17895.895   -15605.685   -17895.895            0    9379.4588     50.14025    24.969562    23.002286            0            0            0    28798.403    9276.2425    9286.2577    9575.8762    15.494669    1048.9068   -683.93378     50.14025    24.969562    23.002286           90           90           90 
   37000    302.28188   -17908.597   -15602.824   -17908.597            0    9719.9182      49.8448    25.025605    23.110957            0            0            0    28828.523    9227.4804    10461.309    9470.9654    151.56547   -586.33366   -81.380485      49.8448    25.025605    23.110957           90           90           90 
   37500      300.237   -17881.177   -15591.001   -17881.177            0      9912.55    50.189356    25.013714    22.915643            0            0            0    28768.807    9530.4731    9018.5536    11188.623   -40.423514   -370.47925    -64.93209    50.189356    25.013714    22.915643           90           90           90 
   38000    307.96938    -17875.72   -15526.562    -17875.72            0    10051.039    49.914356    24.970263    23.101623            0            0            0    28793.277    10847.155    9721.0093    9584.9527   -519.98941     -29.6824   -98.451775    49.914356    24.970263    23.101623           90           90           90 
   38500    303.12861   -17888.775   -15576.542   -17888.775            0    9808.5619    50.015571    24.986334    23.014839            0            0            0    28761.778    9218.6149    9649.8065    10557.264    701.76628    599.03834    632.40139    50.015571    24.986334    23.014839           90           90           90 
   39000    296.99646   -17862.942   -15597.485   -17862.942            0    10544.522    50.089506    24.975814    22.907522            0            0            0    28657.909    10602.124    10355.952     10675.49   -403.32566    627.18565   -1021.3202    50.089506    24.975814    22.907522           90           90           90 
   39500    305.71178   -17810.138   -15478.202   -17810.138            0    11025.654    49.752037     24.96428    23.117988            0            0            0    28713.091    11980.095    10999.795    10097.073   -515.54934    313.73158   -217.22447    49.752037     24.96428    23.117988           90           90           90 
   40000    292.14933   -17832.597   -15604.113   -17832.597            0    11170.945    50.214229     24.90954    22.918668            0            0            0    28666.975    9577.2261    12271.807    11663.803    537.01714   -87.659359    516.46717    50.214229     24.90954    22.918668           90           90           90 
   40500    300.06427   -17887.206   -15598.348   -17887.206            0    10736.642    49.785776    25.027596     22.98475            0            0            0    28639.418    12138.252    9568.3456    10503.329    -95.61486    803.36554   -454.84705    49.785776    25.027596     22.98475           90           90           90 
   41000    292.76908   -17899.945   -15666.734   -17899.945            0    10351.677    50.128737    24.880423    23.008808            0            0            0    28697.142    9838.3745    11176.823    10039.835    196.65062    361.03617   -648.01237    50.128737    24.880423    23.008808           90           90           90 
   41500    297.13961   -17846.436   -15579.887   -17846.436            0    10463.199     49.91103    25.067696    22.993193            0            0            0    28768.037    10489.907    10427.927    10471.762   -846.79051    49.756944    209.44147     49.91103    25.067696    22.993193           90           90           90 
   42000    301.90211   -17872.246   -15569.369   -17872.246            0    9648.4452    50.112507    24.926234    23.057019            0            0            0    28800.893    10004.566    9520.2018    9420.5682   -900.14437    -762.4166    81.668575    50.112507    24.926234    23.057019           90           90           90 
   42500    302.65936   -17914.128   -15605.475   -17914.128            0    9762.2638    49.948104    25.134845    22.935966            0            0            0    28794.679    9597.2399    8816.0451    10873.506    6.4775024   -76.679402    -699.3898    49.948104    25.134845    22.935966           90           90           90 
   43000    291.78216   -17818.859   -15593.176   -17818.859            0    9154.3379    50.231786    24.907537    23.066736            0            0            0    28859.948    8420.2152    10638.517    8404.2811   -237.57662    561.69599    1050.5909    50.231786    24.907537    23.066736           90           90           90 
   43500    300.26007   -17842.066   -15551.714   -17842.066            0    9454.1828    49.927874    25.040137    23.101367            0            0            0    28881.347    10665.302    9259.7199     8437.526    -67.42638    250.05532    279.86978    49.927874    25.040137    23.101367           90           90           90 
   44000    298.10895   -17931.036   -15657.093   -17931.036            0    9862.1913    49.996413    24.996298    22.986494            0            0            0    28726.801    8814.2312    10592.681    10179.661   -188.75798     547.5464   -191.75977    49.996413    24.996298    22.986494           90           90           90 
   44500    298.54321   -17827.673   -15550.417   -17827.673            0     10487.31    49.925473    24.975192    23.030854            0            0            0    28717.132    11018.856    10860.543    9582.5313    758.45179    434.50215    269.68252    49.925473    24.975192    23.030854           90           90           90 
   45000    300.20426   -17923.114   -15633.188   -17923.114            0     9956.592    49.922509    24.983833    22.980311            0            0            0    28662.323    9611.6746     10076.31    10181.791   -37.008672   -83.338695   -591.55528    49.922509    24.983833    22.980311           90           90           90 
   45500     303.1321   -17942.564   -15630.304   -17942.564            0    10649.111    49.942305    24.965141    22.981331            0            0            0    28653.507    10019.507    10667.862    11259.965    57.890259   -297.40363   -158.10246    49.942305    24.965141    22.981331           90           90           90 
   46000    303.43174   -17830.885   -15516.341   -17830.885            0    11395.742     49.86483    24.949945    23.012696            0            0            0    28630.665    11252.632    11612.948    11321.645   -472.16053     308.1515   -110.21029     49.86483    24.949945    23.012696           90           90           90 
   46500    300.02396   -17784.875   -15496.325   -17784.875            0    11443.062    50.140575    24.986414    22.848808            0            0            0    28625.745    12203.691    10582.378    11543.117    85.271441   -456.28834    102.54905    50.140575    24.986414    22.848808           90           90           90 
   47000    306.60557   -17885.079   -15546.324   -17885.079            0    10457.586    49.902581    24.935262    23.087499            0            0            0    28728.559    11554.591     9998.809    9819.3585    545.67818    91.392787     207.8378    49.902581    24.935262    23.087499           90           90           90 
   47500    305.30309   -17856.577   -15527.757   -17856.577            0    9971.2767    50.035537    25.019134    23.001761            0            0            0    28794.657    10023.666    9890.5917     9999.572     62.01077   -93.222498   -551.55257    50.035537    25.019134    23.001761           90           90           90 
   48000    294.72632   -17878.918   -15630.777   -17878.918            0    9627.3109    50.004048    25.023087    22.997337            0            0            0    28775.548    9209.6407    9936.8582    9735.4339    298.96827    62.784262    178.17389    50.004048    25.023087    22.997337           90           90           90 
   48500     308.5292   -17911.399   -15557.971   -17911.399            0    9600.0117    50.004065    24.933238    23.077286            0            0            0    28771.912    9680.9066    9617.7837    9501.3447   -286.05947   -471.04704   -253.20416    50.004065    24.933238    23.077286           90           90           90 
   49000    307.48326   -17858.488   -15513.039   -17858.488            0    9213.6552    50.058442    25.070639    22.999161            0            0            0    28863.881    9804.0067    8333.4357    9503.5231   -413.57497   -559.23403    661.97735    50.058442    25.070639    22.999161           90           90           90 
   49500     301.9327   -17786.075   -15482.965   -17786.075            0    8481.7457    50.126816    25.013772    23.147676            0            0            0    29023.961    7991.0994    9228.2793    8225.8585     -203.495    462.85455    -154.3965    50.126816    25.013772    23.147676           90           90           90 
   50000    302.02909   -17873.103   -15569.258   -17873.103            0    9120.6286    50.033231    25.068862    23.038672            0            0            0    28896.857    9220.0207    8274.8442    9867.0209    280.47732   -929.74381   -91.647067    50.033231    25.068862    23.038672           90           90           90 
   50500    292.98869   -17839.803   -15604.916   -17839.803            0    9106.2938    50.105612    25.008788    23.042073            0            0            0    28873.576    10019.534    8203.8108    9095.5364    69.724889   -432.50706    201.32814    50.105612    25.008788    23.042073           90           90           90 
   51000    300.30077   -17829.858   -15539.196   -17829.858            0    8438.6603    49.985237    25.046057    23.117121            0            0            0    28941.089      8753.78    8695.1312    7867.0698    590.03882    167.42831   -714.52127    49.985237    25.046057    23.117121           90           90           90 
   51500    297.36096   -17840.301   -15572.064   -17840.301            0    9970.5934    50.073624    25.013237    22.986655            0            0            0    28790.865    10460.751     9286.489    10164.541   -85.018688    206.63484    62.843052    50.073624    25.013237    22.986655           90           90           90 
   52000    299.24911   -17886.593   -15603.953   -17886.593            0    9887.8778    49.980282    24.984803     23.00761            0            0            0    28730.696    9949.2161    9660.0837    10054.334    156.62368   -670.39414   -9.1191042    49.980282    24.984803     23.00761           90           90           90 
   52500    300.76118   -17824.921   -15530.747   -17824.921            0    10969.589    50.076108    24.908355    23.006644            0            0            0    28696.497    10892.793     10959.79    11056.184   -428.97144   -609.13205    14.652231    50.076108    24.908355    23.006644           90           90           90 
   53000    297.57226   -17852.471   -15582.622   -17852.471            0    11091.927    49.843958    25.045724    22.934682            0            0            0    28631.153     12192.86    10590.243    10492.677    77.098391   -294.22102    836.68546    49.843958    25.045724    22.934682           90           90           90 
   53500    302.04254   -17878.454   -15574.506   -17878.454            0    11230.324    50.055546    24.870555    22.979712            0            0            0    28607.655    9676.0672    12588.242    11426.662    363.24146    413.16393   -1068.5835    50.055546    24.870555    22.979712           90           90           90 
   54000    306.45957   -17844.523   -15506.882   -17844.523            0    10456.049    49.838734    25.014189    23.009231            0            0            0    28685.044    10854.491    10677.664    9835.9914   -130.93788   -382.50924    273.40622    49.838734    25.014189    23.009231           90           90           90 
   54500    297.97471   -17939.639    -15666.72   -17939.639            0    10359.719    49.979792    24.930935    22.983876            0            0            0    28638.896     10633.73    9996.7844    10448.642    274.66845   -250.27283   -984.13974    49.979792    24.930935    22.983876           90           90           90 
   55000    312.34259   -17886.102   -15503.586   -17886.102            0    9653.9052     50.05465    24.979079    23.002521            0            0            0     28760.49    10537.865    9147.1546    9276.6954    303.67159    665.59679    22.275565     50.05465    24.979079    23.002521           90           90           90 
   55500    299.20984   -17892.678   -15610.338   -17892.678            0    10439.405    49.950876    24.984065    23.009206            0            0            0    28714.935    10451.017    9922.7119    10944.485   -280.68843   -80.243244    94.495369    49.950876    24.984065    23.009206           90           90           90 
   56000    305.55892   -17832.851    -15502.08   -17832.851            0    10146.588    49.975837    24.991177    23.024585            0            0            0     28756.67     9782.476    10110.197    10547.091   -21.369912   -94.646453    214.58858    49.975837    24.991177    23.024585           90           90           90 
   56500    305.16082   -17905.748   -15578.014   -17905.748            0    9425.5726     50.02547    24.951801    23.066975            0            0            0    28792.787    8798.2889    9764.5771    9713.8517    92.128172    236.50678   -502.17033     50.02547    24.951801    23.066975           90           90           90 
   57000    294.17693   -17898.173   -15654.223   -17898.173            0    9398.7724     49.90088     25.08985     22.99384            0            0            0    28788.416    9759.9078      9012.38    9424.0293   -283.95618   -178.99124    92.256595     49.90088     25.08985     22.99384           90           90           90 
   57500    301.65709   -17883.371   -15582.363   -17883.371            0    8849.1368    50.182315    25.013597    23.024574            0            0            0     28901.37    9015.4145    8774.5928    8757.4031   -325.24455    598.53634   -166.81085    50.182315    25.013597    23.024574           90           90           90 
   58000     304.9121     -17949.9   -15624.063     -17949.9            0    8636.6334     50.06455    25.006961    23.053878            0            0            0    28862.585    8379.1532    9084.9842     8445.763    146.23889   -267.26863   -471.81106     50.06455    25.006961    23.053878           90           90           90 
   58500    315.59835   -17928.254   -15520.903   -17928.254            0    8773.7941    50.083343    25.024064    23.026812            0            0            0    28859.245    8622.6254    8628.8886    9069.8684   -608.77535    -489.6341    59.084906    50.083343    25.024064    23.026812           90           90           90 
   59000    302.42782   -17902.514   -15595.627   -17902.514            0    9515.0604    50.006149    24.964637    23.033995            0            0            0    28755.302     8721.466    10192.503    9631.2124   -375.85738    500.93564    315.15579    50.006149    24.964637    23.033995           90           90           90 
   59500    305.07096    -17876.42   -15549.372    -17876.42            0    9642.3007    50.077491    24.993121     22.98602            0            0            0    28769.137    9373.6636     9796.602    9756.6366    225.53436   -75.900789    -478.3792    50.077491    24.993121     22.98602           90           90           90 
   60000    303.34768   -17909.946   -15596.042   -17909.946            0    10046.458    50.011357    24.907747    23.051416            0            0            0    28714.464    9982.0979     10597.63    9559.6469   -775.88338   -806.39255    282.98834    50.011357    24.907747    23.051416           90           90           90 
   60500    311.84632   -17977.073   -15598.343   -17977.073            0     10429.14    49.850183    25.114693    22.882311            0            0            0    28648.014    10516.964    9215.2014    11555.254    14.509036   -164.70085   -102.88325    49.850183    25.114693    22.882311           90           90           90 
   61000    295.65711   -17853.685   -15598.444   -17853.685            0    10688.613    50.155441    24.842774    22.997243            0            0            0    28654.571    10015.665    11235.543    10814.631   -134.64635    31.530836   -545.46729    50.155441    24.842774    22.997243           90           90           90 
   61500    305.25724   -17836.026   -15507.556   -17836.026            0    10540.192     49.76523    25.031213     23.06922            0            0            0     28736.96     10697.97    10058.982    10863.624   -576.32555   -174.88678   -1023.2826     49.76523    25.031213     23.06922           90           90           90 
   62000    305.70391   -17876.371   -15544.494   -17876.371            0    9863.0287    50.210731    24.993542    22.933047            0            0            0     28779.69    9298.0224    9538.6989    10752.365    95.878315    434.84068    -172.5721    50.210731    24.993542    22.933047           90           90           90 
   62500    297.58302   -17900.677   -15630.746   -17900.677            0    9727.8362    49.886033    24.973887    23.120103            0            0            0    28804.138    10026.982    9761.6091    9394.9172     862.5287   -153.50097   -188.05852    49.886033    24.973887    23.120103           90           90           90 
   63000    306.99381   -17804.317   -15462.601   -17804.317            0    9660.2947    50.154645    25.018833    23.010669            0            0            0    28874.033    9158.2123    9402.6495    10420.022   -225.33102    544.49526   -685.73461    50.154645    25.018833    23.010669           90           90           90 
   63500    303.20529   -17912.524   -15599.706   -17912.524            0    9322.0813    50.143251    24.992168    23.001209            0            0            0    28824.852    8983.0347    9134.8912     9848.318   -359.34863   -1050.5911   -109.76364    50.143251    24.992168    23.001209           90           90           90 
   64000    308.11233   -17855.626   -15505.378   -17855.626            0    10100.099    49.868204     24.97233    23.139309            0            0            0    28815.966    10431.888    10062.382    9806.0263    -1001.669   -20.933251    61.673572    49.868204     24.97233    23.139309           90           90           90 
   64500    292.11775   -17883.353    -15655.11   -17883.353            0     9890.064    50.300236    24.997789    22.834414            0            0            0     28711.87    9300.0678    9123.7342     11246.39   -88.695293    132.63928    184.69815    50.300236    24.997789    22.834414           90           90           90 
   65000    293.93147   -17917.761   -15675.683   -17917.761            0      10388.2    49.724241    25.133512    22.959834            0            0            0    28693.934    11887.428    8641.8348    10635.339   -241.00729    183.67167    699.80653    49.724241    25.133512    22.959834           90           90           90 
   65500    295.37174   -17898.532   -15645.468   -17898.532            0    10159.621    50.029416    24.847318    23.107929            0            0            0    28725.392    9454.7959    11055.678    9968.3903    647.78203   -160.21513   -429.14715    50.029416    24.847318    23.107929           90           90           90 
   66000     301.7185   -17810.847   -15509.371   -17810.847            0    10018.229     50.01144    25.134039    22.945637            0            0            0    28842.424     9397.945    9065.4057    11591.336   -149.27617    523.63945    -1133.314     50.01144    25.134039    22.945637           90           90           90 
   66500    298.60441   -17768.748   -15491.025   -17768.748            0    10183.901    50.046176    24.901996    23.107968            0            0            0    28798.298    10420.541    10536.104    9595.0579   -418.74141    440.08637    126.09223    50.046176    24.901996    23.107968           90           90           90 
   67000    300.08481   -17915.483   -15626.468   -17915.483            0    9380.9956    50.016008    25.066054    22.941911            0            0            0    28762.364    8923.8215    8931.0755     10288.09    470.24547    25.018966   -656.42834    50.016008    25.066054    22.941911           90           90           90 
   67500    299.95631   -17917.515   -15629.481   -17917.515            0      10237.2    50.020699    24.940103    23.048842            0            0            0    28753.924    9809.7993    10726.444    10175.358    60.981812    402.63938    439.93725    50.020699    24.940103    23.048842           90           90           90 
   68000    294.16665   -17908.459   -15664.588   -17908.459            0    9655.3188    50.001789    24.978968    23.053511            0            0            0    28793.675    10209.839    9291.8485     9464.269   -73.764071    -221.3762   -63.486949    50.001789    24.978968    23.053511           90           90           90 
   68500    303.65828   -17836.405   -15520.132   -17836.405            0    10152.402    50.126339    25.058503    22.888872            0            0            0    28750.506     10283.25    9626.6828    10547.274    425.10735    1679.7159   -797.19445    50.126339    25.058503    22.888872           90           90           90 
   69000    295.56236   -17932.102   -15677.584   -17932.102            0    10396.484    49.910153    24.859429    23.126994            0            0            0    28694.538    9639.6628    11573.238    9976.5516   -1002.2823    65.911916   -938.19447    49.910153    24.859429    23.126994           90           90           90 
   69500    298.93922   -17885.853   -15605.576   -17885.853            0    10945.558    49.894327    25.023489    22.926451            0            0            0    28624.364    10533.423    10135.023    12168.227    961.86514    178.78567   -685.76546    49.894327    25.023489    22.926451           90           90           90 
   70000    300.18823   -17873.628   -15583.825   -17873.628            0    9541.3001    50.163695     24.93495     23.00197            0            0            0    28771.537    8822.2115    10563.228    9238.4607    490.65655    541.20659    289.73312    50.163695     24.93495     23.00197           90           90           90 
   70500    296.75443   -17909.032   -15645.421   -17909.032            0    9288.2184    49.874931     25.06791    23.051538            0            0            0    28820.422    10439.481    8828.8051    8596.3695    91.540793    233.81248    409.94408    49.874931     25.06791    23.051538           90           90           90 
   71000     294.3253   -17925.478   -15680.396   -17925.478            0    9393.4385    50.169199    24.969271    23.001458            0            0            0    28813.658    8654.1068    9812.4106    9713.7981     235.4362   -377.11374    138.79635    50.169199    24.969271    23.001458           90           90           90 
   71500    297.08228   -17840.197   -15574.085   -17840.197            0    9389.6534    49.790057    25.067571    23.119976            0            0            0    28856.407    10498.665    8598.6485    9071.6469   -549.53802    393.76353   -231.16557    49.790057    25.067571    23.119976           90           90           90 
   72000    300.48517   -17758.045   -15465.976   -17758.045            0    7850.7094    50.414823    24.938505    23.087396            0            0            0    29027.098     6307.889    8836.8321    8407.4071    300.86944   -642.88935   -10.641654    50.414823    24.938505    23.087396           90           90           90 
   72500    297.78283   -17908.597   -15637.141   -17908.597            0    9046.0138    50.002321    25.131223    22.950094            0            0            0    28839.536    9593.8126    7961.8219    9582.4069   -806.36912   -454.59934    -184.6395    50.002321    25.131223    22.950094           90           90           90 
   73000    298.01856   -17906.529   -15633.275   -17906.529            0    9589.6355    49.997215    24.914936    23.108582            0            0            0    28785.839    9757.3338    10009.899    9001.6741     -125.197    -415.8819   -132.62891    49.997215    24.914936    23.108582           90           90           90 
   73500    304.95293   -17837.053   -15510.905   -17837.053            0    9470.4532    50.136845    25.090264    22.937903            0            0            0     28854.66    9076.2208    8610.7898    10724.349    -1.814229    922.94514   -131.34829    50.136845    25.090264    22.937903           90           90           90 
   74000    298.05843   -17846.573   -15573.015   -17846.573            0    10027.751     49.94633    24.955256    23.121486            0            0            0    28819.163     10708.05    10126.998    9248.2064    784.13679     1514.983   -678.61684     49.94633    24.955256    23.121486           90           90           90 
   74500    302.59993   -17873.522   -15565.322   -17873.522            0    9913.8719    50.025112    25.001252    23.012801            0            0            0     28781.89    8864.7738    10618.085    10258.757     297.3052   -266.56959    228.63438    50.025112    25.001252    23.012801           90           90           90 
   75000    301.12605    -17868.06   -15571.103    -17868.06            0    10680.051    49.944335    24.960734    23.017664            0            0            0    28694.908    10594.274    10873.603    10572.277     468.5558   -15.971907   -223.87984    49.944335    24.960734    23.017664           90           90           90 
   75500    301.16066   -17873.331    -15576.11   -17873.331            0     10830.04    49.946868    24.925251    23.003349            0            0            0    28637.748    11610.576     10662.74    10216.803   -125.46424   -185.59389   -530.28453    49.946868    24.925251    23.003349           90           90           90 
   76000    299.45627    -17890.23   -15606.009    -17890.23            0    11246.432    49.910248    24.988279    22.925565            0            0            0    28592.104    11065.906    10482.673    12190.717   -46.830901   -1308.6573   -1274.6357    49.910248    24.988279    22.925565           90           90           90 
   76500    291.30588   -17942.166   -15720.116   -17942.166            0    11694.837    49.813458    24.825231     23.04708            0            0            0    28500.724    11394.988    12224.828    11464.694   -504.92334    1077.5665   -103.24243    49.813458    24.825231     23.04708           90           90           90 
   77000     299.9983   -17942.134   -15653.779   -17942.134            0    11261.771    49.856405    24.960559    22.969538            0            0            0    28584.298    11099.903    11342.384    11343.024   -453.32653    515.21738    218.82527    49.856405    24.960559    22.969538           90           90           90 
   77500    300.48003   -17865.565   -15573.536   -17865.565            0    10767.067    49.962637    24.964709    23.000204            0            0            0    28688.216    10778.627    11043.004     10479.57   -371.27883   -33.040751    318.59054    49.962637    24.964709    23.000204           90           90           90 
   78000    308.67476   -17828.204   -15473.666   -17828.204            0    10034.531    49.921873     24.98125    23.053517            0            0            0    28750.291    10227.468    10048.513    9827.6105   -139.10536   -491.83932    349.52665    49.921873     24.98125    23.053517           90           90           90 
   78500    292.12169   -17877.708   -15649.435   -17877.708            0    11308.373    50.085472    24.976296     22.88839            0            0            0    28632.223        10369    11236.769    12319.349    515.37088   -308.80865   -880.06594    50.085472    24.976296     22.88839           90           90           90 
   79000       298.19   -17926.175   -15651.614   -17926.175            0    11124.936    49.817255    24.911936    23.086665            0            0            0    28651.573    10878.647    11297.766    11198.395   -128.50645   -545.04052   -903.96119    49.817255    24.911936    23.086665           90           90           90 
   79500    296.38778   -17830.084    -15569.27   -17830.084            0      10757.4       50.036    25.046351    22.930927            0            0            0    28737.479    11002.251    9382.6951    11887.253    -505.8303    797.46948   -10.202509       50.036    25.046351    22.930927           90           90           90 
   80000    298.04458   -17864.518   -15591.066   -17864.518            0    9584.1862    50.141669    24.974559     23.03388            0            0            0    28844.546    8746.7587      10133.4    9872.3998    145.31522   -711.13731    988.55506    50.141669    24.974559     23.03388           90           90           90 
   80500    289.72283   -17842.895    -15632.92   -17842.895            0    9003.8881    49.949093     25.02942    23.091858            0            0            0    28869.366    8781.3251    8749.5224    9480.8168   -87.232368   -470.36494   -1300.8945    49.949093     25.02942    23.091858           90           90           90 
   81000    293.04019   -17896.276   -15660.997   -17896.276            0    9235.7717    50.150563    24.997559    23.001148            0            0            0    28835.198    8834.2205    10052.391    8820.7034    115.89484    198.33954    41.215893    50.150563    24.997559    23.001148           90           90           90 
   81500     296.2813   -17901.558   -15641.556   -17901.558            0    9567.4579    49.891888    25.037572    23.052871            0            0            0    28796.995    10331.356    9139.6871    9231.3303   -337.08291   -144.05566    812.47682    49.891888    25.037572    23.052871           90           90           90 
   82000    303.82895   -17930.407   -15612.832   -17930.407            0     9668.859    50.118552     24.95132    23.003028            0            0            0    28765.838    9196.6296    10210.705    9599.2421    -101.2663   -737.95273   -1182.3628    50.118552     24.95132    23.003028           90           90           90 
   82500    304.24909   -17815.419   -15494.639   -17815.419            0    9755.6733    49.904524    25.072005    23.027244            0            0            0    28811.837    10655.538    8992.6519    9618.8298   -160.78871    981.64349   -891.94626    49.904524    25.072005    23.027244           90           90           90 
   83000    296.34384   -17850.742   -15590.263   -17850.742            0    9785.3572    50.144155    24.876635    23.086899            0            0            0    28799.009    9165.4291    10507.503    9683.1394    891.13564   -1177.7568    429.51479    50.144155    24.876635    23.086899           90           90           90 
   83500    295.32892   -17864.685   -15611.947   -17864.685            0    9788.7059    49.952608     25.07947    22.965121            0            0            0    28770.358    10021.136    8673.3495    10671.632   -31.930677   -583.89586    121.76985    49.952608     25.07947    22.965121           90           90           90 
   84000    299.57285   -17817.059    -15531.95   -17817.059            0    9383.6306    50.102728    24.969841    23.031582            0            0            0    28813.826    9578.4857    9610.7145    8961.6915     159.2292    -35.00492    315.09909    50.102728    24.969841    23.031582           90           90           90 
   84500    294.04196   -17877.616   -15634.696   -17877.616            0    9719.3743    49.972329    24.969624    23.028839            0            0            0    28735.161    9965.6667    9663.4609    9528.9952    445.73348   -84.509204    414.59079    49.972329    24.969624    23.028839           90           90           90 
   85000    298.10394    -17871.02   -15597.115    -17871.02            0    10540.044    49.989386    25.038051    22.964297            0            0            0    28742.958    10075.315    10001.673    11543.144    848.44431    440.12794    113.40671    49.989386    25.038051    22.964297           90           90           90 
   85500    306.79355   -17873.075   -15532.886   -17873.075            0    9879.8965    50.036999    24.943047    23.046089            0            0            0    28763.252    9415.4468    10701.116    9523.1272    430.43369   -899.76625   -263.05882    50.036999    24.943047    23.046089           90           90           90 
   86000    304.19597   -17893.006   -15572.632   -17893.006            0    10861.008    49.822715    25.038429    22.988459            0            0            0      28677.7    11947.541    9941.6182    10693.864    423.45003   -431.83989    1039.0559    49.822715    25.038429    22.988459           90           90           90 
   86500      301.036   -17951.549   -15655.278   -17951.549            0    10030.735    50.089737    24.959376    22.936139            0            0            0    28674.958    8950.1298    10701.048    10441.027    155.89064   -369.75949   -423.10506    50.089737    24.959376    22.936139           90           90           90 
   87000    298.13236   -17852.752    -15578.63   -17852.752            0    10429.328    49.752339     25.00562    23.079903            0            0            0    28713.432    10880.298    10391.525     10016.16   -271.29221   -73.836111    480.29243    49.752339     25.00562    23.079903           90           90           90 
   87500     299.8001   -17887.009   -15600.166   -17887.009            0     9884.244    50.116172    24.946939    23.000509            0            0            0    28756.274    8239.5328    11594.919    9818.2799     524.4069   -516.31206    148.71749    50.116172    24.946939    23.000509           90           90           90 
   88000    296.33925   -17804.242   -15543.798   -17804.242            0    9730.7514    49.987675    25.060534    22.989013            0            0            0    28798.746    9594.5142    9377.7731    10219.967   -238.74648   -362.27617    -558.8522    49.987675    25.060534    22.989013           90           90           90 
   88500    301.06518   -17889.102   -15592.609   -17889.102            0    10271.085    50.040362    24.961081    23.028318            0            0            0    28763.786    10416.298    10312.671    10084.286    585.73801    222.48146   -376.59109    50.040362    24.961081    23.028318           90           90           90 
   89000    291.62899   -17935.661   -15711.147   -17935.661            0    10401.119    49.976931     24.96441    22.985905            0            0            0     28678.24    10310.864     9902.296    10990.196   -126.74129    649.50555    172.33168    49.976931     24.96441    22.985905           90           90           90 
   89500    291.77315   -17929.602   -15703.988   -17929.602            0    10749.904    49.852212    24.968802    23.027545            0            0            0    28663.536    10179.849    11314.299    10755.563    108.55156   -581.62064   -568.82151    49.852212    24.968802    23.027545           90           90           90 
   90000    299.75722    -17932.13   -15645.614    -17932.13            0    10830.575    50.076968    24.948251    22.918702            0            0            0    28633.085    9775.4609    10480.199    12236.066    451.46818    38.467758    487.19975    50.076968    24.948251    22.918702           90           90           90 
   90500    294.47889   -17792.602   -15546.349   -17792.602            0    10866.157    49.818411    24.964911    23.076484            0            0            0    28700.503    11498.774    10648.333    10451.366    653.56849    -108.4011   -310.87138    49.818411    24.964911    23.076484           90           90           90 
   91000    300.25001   -17892.048   -15601.774   -17892.048            0    11387.496     50.05163    24.927424     22.92614            0            0            0    28603.986    11397.911    10806.499    11958.078    347.44685   -273.42343    193.50076     50.05163    24.927424     22.92614           90           90           90 
   91500    302.21687   -17915.856   -15610.578   -17915.856            0    11462.406    49.790844    24.989408    22.959921            0            0            0    28567.736    11677.138     11364.52     11345.56    8.4587031    362.99213   -543.73843    49.790844    24.989408    22.959921           90           90           90 
   92000    308.68583   -17875.584   -15520.962   -17875.584            0    10564.752    49.891438    24.892075    23.078241            0            0            0    28660.901    11458.218    10588.351    9647.6876   -617.09179   -501.02727      665.485    49.891438    24.892075    23.078241           90           90           90 
   92500    303.12748   -17913.173   -15600.949   -17913.173            0    10794.762    50.060548    25.006454    22.904092            0            0            0    28672.185    10120.558     10473.44    11790.289    211.62134   -178.39087   -12.589146    50.060548    25.006454    22.904092           90           90           90 
   93000    307.58069   -17912.485   -15566.292   -17912.485            0    9678.2884    49.987141    24.985769    23.040968            0            0            0    28777.413    9971.0357    9743.0596    9320.7699   -382.11254   -53.804023   -626.28018    49.987141    24.985769    23.040968           90           90           90 
   93500    296.88761   -17919.934   -15655.308   -17919.934            0    9463.0516    49.817572    25.025144    23.080269            0            0            0    28773.985    10824.872    8456.6302    9107.6523     -146.273    765.48322   -516.01366    49.817572    25.025144    23.080269           90           90           90 
   94000    302.96551    -17894.73   -15583.741    -17894.73            0    9551.9143    50.214698    24.980724    22.956521            0            0            0    28796.649    8683.9185    8770.6782    11201.146   -396.77782   -241.03538   -1167.0979    50.214698    24.980724    22.956521           90           90           90 
   94500    295.73252   -17839.926   -15584.109   -17839.926            0    10256.861    49.823736    24.985546     23.11496            0            0            0    28775.196    10663.562    10045.795    10061.226    -590.1525    -193.0355    807.54123    49.823736    24.985546     23.11496           90           90           90 
   95000    300.81845   -17867.502   -15572.891   -17867.502            0    10036.097    50.220661     24.97662    22.929053            0            0            0    28760.883    8621.8374     10125.99    11360.465   -742.14649   -53.825808    114.70711    50.220661     24.97662    22.929053           90           90           90 
   95500    302.10851    -17884.61   -15580.159    -17884.61            0    10488.376    49.964806    25.021476    22.959155            0            0            0    28703.379    10452.244    10382.988    10629.897    998.21148   -1307.2152   -539.40128    49.964806    25.021476    22.959155           90           90           90 
   96000    296.73706   -17903.056   -15639.578   -17903.056            0    10153.849    49.971855    24.925216    23.086518            0            0            0    28755.626    10864.667    9761.5966    9835.2823    461.65273    19.076486    593.55393    49.971855    24.925216    23.086518           90           90           90 
   96500    300.19799    -17922.53   -15632.652    -17922.53            0    9935.6363    49.998197    25.044972      22.9445            0            0            0    28731.181    9093.4896    10824.645     9888.774    310.69077    313.03006    76.015789    49.998197    25.044972      22.9445           90           90           90 
   97000    295.86498    -17873.79   -15616.964    -17873.79            0    9928.8718    50.068614     24.90735    23.071918            0            0            0    28772.446    8879.4891    11025.428    9881.6986   -350.13317    -127.4277    20.174262    50.068614     24.90735    23.071918           90           90           90 
   97500    299.95145   -17908.382   -15620.384   -17908.382            0    9456.8102    50.029939    25.024945    23.002002            0            0            0    28798.426    9137.2809    9008.6224    10224.527     174.8602   -302.24358    57.731093    50.029939    25.024945    23.002002           90           90           90 
   98000    305.20119   -17920.505   -15592.463   -17920.505            0     9298.546    50.022745      24.9826    23.043361            0            0            0    28797.247     9277.459    9098.9307    9519.2485   -83.158877    1113.9685   -44.001419    50.022745      24.9826    23.043361           90           90           90 
   98500    297.55019   -17911.239   -15641.558   -17911.239            0    9565.9518     50.03677    24.982431    23.051043            0            0            0     28814.73    10270.509    8705.5923    9721.7547   -257.48194    334.99607    388.24726     50.03677    24.982431    23.051043           90           90           90 
   99000    308.62764    -17890.46   -15536.282    -17890.46            0    9345.1133    49.917896     25.08465    22.980723            0            0            0     28775.84    8674.0553    9453.5283    9907.7563    96.466745   -413.95841    -177.0789    49.917896     25.08465    22.980723           90           90           90 
   99500    298.47897   -17817.603   -15540.837   -17817.603            0     9934.488    50.058766    24.926326    23.070853            0            0            0    28787.375     9827.603    10494.617    9481.2441   -31.071969   -452.21925     461.8362    50.058766    24.926326    23.070853           90           90           90 
  100000     298.8385   -17848.925   -15569.417   -17848.925            0    9751.3864    49.918822    25.053519    23.036453            0            0            0    28810.359    9567.5315    9701.6272    9985.0006    320.80172   -1068.7949    423.30524    49.918822    25.053519    23.036453           90           90           90 
  100500    293.81722   -17849.572   -15608.366   -17849.572            0    9706.3454    50.187922    24.976921    22.975564            0            0            0    28800.783    7643.5482    11800.327    9675.1613   -349.91216   -263.59212    45.233071    50.187922    24.976921    22.975564           90           90           90 
  101000    299.87763   -17905.947   -15618.512   -17905.947            0     9282.335    49.733502    25.048239    23.164728            0            0            0     28857.15    10426.181    8961.2878    8459.5364    402.85135    658.51874   -474.63225    49.733502    25.048239    23.164728           90           90           90 
  101500    303.99352   -17882.575   -15563.745   -17882.575            0    8827.1514    50.451163    24.923957    22.963345            0            0            0    28875.089    7456.3522    9776.2424    9248.8596    749.21205   -804.91943    230.53148    50.451163    24.923957    22.963345           90           90           90 
  102000    294.61237   -17815.825   -15568.554   -17815.825            0    9083.0082    49.880313    25.115033    23.048287            0            0            0    28873.643    9465.1674    8555.4612    9228.3961   -415.34044    242.84514   -610.18925    49.880313    25.115033    23.048287           90           90           90 
  102500    296.71396   -17892.683   -15629.381   -17892.683            0    9206.5188    50.034003     24.95634    23.059934            0            0            0    28794.145    9048.4562    9354.0437    9217.0565    257.49766   -670.15823   -356.78969    50.034003     24.95634    23.059934           90           90           90 
  103000    294.78553   -17876.946   -15628.353   -17876.946            0    9483.9675    50.029802     25.05481    22.999885            0            0            0    28830.061    9102.1584     9362.711    9987.0332    93.311475    420.38298    219.97982    50.029802     25.05481    22.999885           90           90           90 
  103500    297.33197    -17866.04   -15598.023    -17866.04            0     9731.254     49.96218    25.000798    23.078114            0            0            0    28826.742    10079.088    10116.403    8998.2713    143.60233    83.201973    342.08866     49.96218    25.000798    23.078114           90           90           90 
  104000    297.37122   -17858.339   -15590.023   -17858.339            0    9967.2469    50.102458    24.966348    23.007041            0            0            0    28778.941    10023.004    9800.0359    10078.701    368.52972    411.07428    127.29679    50.102458    24.966348    23.007041           90           90           90 
  104500     297.0205    -17921.47   -15655.829    -17921.47            0    10147.125    49.852424    24.993573    23.041127            0            0            0    28709.018    10740.852    10012.625    9687.8984    -269.7206    43.910546    139.78473    49.852424    24.993573    23.041127           90           90           90 
  105000    299.04682   -17862.444   -15581.346   -17862.444            0    10367.176    50.186725     24.90323    22.982069            0            0            0    28723.255    9698.6784    11600.935    9801.9136    587.27324    854.27157    215.79716    50.186725     24.90323    22.982069           90           90           90 
  105500    308.24948   -17807.156   -15455.862   -17807.156            0     10030.78     49.79034    25.133972    23.020757            0            0            0    28808.844      11370.8     9136.949     9584.592     247.9739   -382.40528    203.42121     49.79034    25.133972    23.020757           90           90           90 
  106000    300.26948   -17903.162   -15612.738   -17903.162            0    9480.2282    50.192383    24.886662    23.042378            0            0            0    28782.716    8978.6355    10267.767    9194.2819   -363.00668     604.6578    406.23486    50.192383    24.886662    23.042378           90           90           90 
  106500    311.01048   -17897.894   -15525.539   -17897.894            0    9298.8422    49.900959    25.102058    23.013557            0            0            0    28827.167    9742.5476    9114.3915    9039.5874   -478.69119   -73.657683    388.20027    49.900959    25.102058    23.013557           90           90           90 
  107000    295.75422   -17828.643   -15572.661   -17828.643            0    9951.7133    50.287807    24.886508    23.013848            0            0            0    28801.552    9155.5725     10212.78    10486.787   -372.72797     403.4962   -78.132319    50.287807    24.886508    23.013848           90           90           90 
  107500     300.9392   -17800.807   -15505.275   -17800.807            0    9272.3156    49.835121    25.088211    23.091499            0            0            0    28870.702    11006.847    7811.8133    8998.2871   -245.63552   -352.12079   -50.003317    49.835121    25.088211    23.091499           90           90           90 
  108000    301.38221   -17870.967   -15572.055   -17870.967            0    8670.1783    50.228183    24.964694    23.039418            0            0            0    28889.846    7600.3908    9213.1637    9196.9804    -278.0956   -240.03451    470.57538    50.228183    24.964694    23.039418           90           90           90 
  108500    298.56132   -17835.678   -15558.284   -17835.678            0    9816.3064    49.953392    25.105303    22.958931            0            0            0    28792.682    9786.4036    9305.7234    10356.792     963.2578   -140.49957   -674.39394    49.953392    25.105303    22.958931           90           90           90 
  109000    299.69219   -17866.719   -15580.699   -17866.719            0    9951.9123    49.988344    24.937653    23.059354            0            0            0    28745.605    9531.7243    10281.379    10042.634    39.315656   -438.80344   -49.448641    49.988344    24.937653    23.059354           90           90           90 
  109500    304.42448   -17897.097    -15574.98   -17897.097            0     9681.818    50.009706    25.008845    23.001515            0            0            0     28767.65    9272.0324    9401.0658    10372.356    190.73524    162.90122   -1087.9873    50.009706    25.008845    23.001515           90           90           90 
  110000    303.33122   -17926.461   -15612.683   -17926.461            0    9324.8434    50.116712    24.991207    23.016651            0            0            0    28827.828    9415.5218    8853.7473    9705.2611    265.12671    721.88127    93.530637    50.116712    24.991207    23.016651           90           90           90 
  110500    296.38148   -17903.081   -15642.315   -17903.081            0    8958.0449    49.882894    25.017755    23.107977            0            0            0    28837.785    9398.8507    9098.9585    8376.3255    101.31447   -107.40586    200.91847    49.882894    25.017755    23.107977           90           90           90 
  111000    294.46401    -17861.57    -15615.43    -17861.57            0    8689.2247    50.281385    25.004563    23.007647            0            0            0    28926.687     7320.952    9449.3424    9297.3796   -517.55219    406.91734   -251.07124    50.281385    25.004563    23.007647           90           90           90 
  111500    303.05797   -17905.693   -15593.999   -17905.693            0     8294.423    49.994547    25.105709    23.036265            0            0            0    28913.935    8702.3207    7564.6606    8616.2875    6.9232938   -672.50524    29.011537    49.994547    25.105709    23.036265           90           90           90 
  112000    294.67437   -17906.217   -15658.472   -17906.217            0     8990.123    49.951298    24.999782    23.115958            0            0            0    28866.551    8962.6863    8719.2156    9288.4672   -173.22759   -433.20179   -330.25604    49.951298    24.999782    23.115958           90           90           90 
  112500    295.10232   -17892.426   -15641.417   -17892.426            0    10045.788    50.150244    24.984703    22.974364            0            0            0    28786.625    9535.0711    10339.842    10262.451    57.983996   -466.21841    196.61703    50.150244    24.984703    22.974364           90           90           90 
  113000    300.71531    -17873.57   -15579.746    -17873.57            0    10608.176    49.876308    25.056256    22.979394            0            0            0     28717.66    10407.724    10296.509    11120.295   -234.13322    111.57036   -877.88945    49.876308    25.056256    22.979394           90           90           90 
  113500    297.02991   -17887.476   -15621.763   -17887.476            0    10770.969    50.024638    24.850727     23.07284            0            0            0     28682.97    10647.193    10599.986    11065.727   -54.155042    51.439599    325.09737    50.024638    24.850727     23.07284           90           90           90 
  114000    299.89406   -17812.985   -15525.426   -17812.985            0    10656.386    49.937033     25.05641    22.950795            0            0            0    28717.016    11394.867    10022.319     10551.97   -788.97308    831.48894    1147.8694    49.937033     25.05641    22.950795           90           90           90 
  114500    298.60126   -17823.197   -15545.499   -17823.197            0    10825.912    50.013454    24.893307    23.018318            0            0            0    28657.812    10801.363    10898.741    10777.632    48.227879    104.02591   -224.83879    50.013454    24.893307    23.018318           90           90           90 
  115000    306.44427   -17856.212   -15518.688   -17856.212            0     10764.23    49.907085    24.987383    23.031201            0            0            0        28721    11283.634     10170.15    10838.906    809.35583   -919.57075    268.60872    49.907085    24.987383    23.031201           90           90           90 
  115500    302.68288   -17869.311   -15560.479   -17869.311            0    10390.599    50.080885    24.993803    22.937109            0            0            0    28710.648     10270.16    10019.721    10881.915    228.98437    30.710736    418.97243    50.080885    24.993803    22.937109           90           90           90 
  116000    296.94231   -17910.622   -15645.578   -17910.622            0    10078.014    49.985445    24.920769    23.081603            0            0            0    28752.193    10577.886    10647.203    9008.9533   -179.34218   -152.55554   -5.7256028    49.985445    24.920769    23.081603           90           90           90 
  116500    299.20329   -17834.891   -15552.601   -17834.891            0    9756.9024    50.006352     25.06694    22.973009            0            0            0     28796.81    9522.0167    9616.0066    10132.684   -530.67851   -304.32827   -146.35395    50.006352     25.06694    22.973009           90           90           90 
  117000    290.21486   -17839.711   -15625.983   -17839.711            0    10384.404    50.211995    24.908537     22.98508            0            0            0    28747.608    9328.0873    10902.282    10922.844   -335.03337   -477.94376   -187.96464    50.211995    24.908537     22.98508           90           90           90 
  117500    293.64008   -17920.597   -15680.742   -17920.597            0    9825.3904    49.649249    25.064873    23.115917            0            0            0    28766.653    10557.753    9398.6777    9519.7407   -608.29854    269.66842   -443.38981    49.649249    25.064873    23.115917           90           90           90 
  118000    304.98125   -17886.159   -15559.794   -17886.159            0    10540.497    50.240855    24.884255    22.933177            0            0            0    28671.201    9209.1899     11114.05    11298.252   -381.14132    300.92407   -444.03309    50.240855    24.884255    22.933177           90           90           90 
  118500    299.89149   -17875.766   -15588.226   -17875.766            0    10266.448    49.775906    25.056743    23.042318            0            0            0    28738.887    10949.808    9630.8801    10218.656    -186.7821    146.16225    591.17994    49.775906    25.056743    23.042318           90           90           90 
  119000    302.77045    -17803.79    -15494.29    -17803.79            0    9948.9986    50.149868    24.945824    23.012401            0            0            0    28789.199    10950.233    9627.4007    9269.3625   -658.04853    -1196.717   -101.02306    50.149868    24.945824    23.012401           90           90           90 
  119500    306.23764   -17919.491   -15583.543   -17919.491            0     9433.746    49.955531    25.056718    23.000111            0            0            0    28789.737    8903.8844    9628.3901    9768.9635   -893.91865    -460.3794    269.51002    49.955531    25.056718    23.000111           90           90           90 
  120000    302.83148   -17936.533   -15626.567   -17936.533            0    9508.8842    50.095968    24.908375    23.059977            0            0            0    28774.451    8675.0464    10612.812    9238.7944    379.92994    621.24719   -205.54703    50.095968    24.908375    23.059977           90           90           90 
  120500    299.77728   -17862.573   -15575.904   -17862.573            0    9256.1995    50.025723    25.079053    22.972723            0            0            0    28821.527    9877.9446    8173.1903    9717.4637    190.27471   -132.16205    493.86112    50.025723    25.079053    22.972723           90           90           90 
  121000    294.13818   -17859.556   -15615.901   -17859.556            0    9669.6165    49.983111    24.942528    23.076413            0            0            0    28769.482    9357.1699    9994.5009    9657.1788   -337.69454   -663.84506   -973.06206    49.983111    24.942528    23.076413           90           90           90 
  121500    303.21377   -17869.909   -15557.027   -17869.909            0    9933.1561    50.064936    24.940033     23.04343            0            0            0    28772.513    9535.8457     9845.151    10418.472    495.90647    -635.0394    456.39296    50.064936    24.940033     23.04343           90           90           90 
  122000    300.50971   -17915.931   -15623.675   -17915.931            0    9445.3558    49.956363    25.083783    22.956137            0            0            0    28766.211    9242.2807    8963.4137    10130.373   -295.28914    517.14423    236.49997    49.956363    25.083783    22.956137           90           90           90 
  122500    299.35186   -17847.465   -15564.041   -17847.465            0    9740.0405    50.065883    24.948675    23.080332            0            0            0    28829.122    9295.5636    10367.986    9556.5722    62.244562   -715.17838   -439.88458    50.065883    24.948675    23.080332           90           90           90 
  123000     295.1063   -17927.324   -15676.284   -17927.324            0    9611.4885    49.930376    25.067536     22.97447            0            0            0     28755.57    10052.589    8775.2041    10006.673   -205.76536    562.36135   -381.65412    49.930376    25.067536     22.97447           90           90           90 
  123500     300.8778   -17865.433   -15570.369   -17865.433            0    9874.8951    50.137537    24.922117    23.037901            0            0            0    28786.631    9247.2943    10220.423    10156.968    17.145069   -283.91087   -602.67429    50.137537    24.922117    23.037901           90           90           90 
  124000    302.64178   -17870.676   -15562.157   -17870.676            0    8807.8857    49.872585    25.071564    23.092718            0            0            0    28874.758    9440.4906    8197.5991    8785.5674   -518.81923    13.780711   -20.884324    49.872585    25.071564    23.092718           90           90           90 
  124500    295.97922   -17853.345   -15595.647   -17853.345            0    9621.6229    50.219869    24.966729    22.963604            0            0            0    28792.361    9170.5301     10212.47    9481.8682    467.46256   -203.15045    25.110614    50.219869    24.966729    22.963604           90           90           90 
  125000    305.33271   -17802.885    -15473.84   -17802.885            0    9018.6731    49.791174    25.088157    23.128986            0            0            0    28892.008     9717.111    8374.1682    8964.7401    809.78079   -149.21796   -453.51194    49.791174    25.088157    23.128986           90           90           90 
  125500    294.89741    -17882.43   -15632.984    -17882.43            0    9837.1657      50.1994    24.949727    22.989515            0            0            0    28793.479    8867.4917     10087.39    10556.615    211.10115    225.19468    348.22672      50.1994    24.949727    22.989515           90           90           90 
  126000    307.40731   -17875.569   -15530.699   -17875.569            0    10454.312    49.968399    25.001329    22.994309            0            0            0    28726.247    10819.893    9978.1165    10564.926    201.87068    967.53696    120.66037    49.968399    25.001329    22.994309           90           90           90 
  126500    292.49111   -17851.058   -15619.967   -17851.058            0     10824.82    49.871455    24.934902    23.066137            0            0            0     28683.66    11632.119    10929.065    9913.2781   -205.91053    1066.8899   -38.574854    49.871455    24.934902    23.066137           90           90           90 
  127000    296.31255   -17854.295   -15594.054   -17854.295            0    10565.188    50.026057    24.973117    22.974829            0            0            0    28702.605    10461.841    11208.626    10025.096    84.040853     161.8449    291.28574    50.026057    24.973117    22.974829           90           90           90 
  127500    301.58979   -17910.397   -15609.903   -17910.397            0     10499.27    49.917183    24.947478    23.040428            0            0            0    28692.426    10405.518    10767.488    10324.805   -115.86631   -205.15707   -89.215372    49.917183    24.947478    23.040428           90           90           90 
  128000    303.12793   -17886.937   -15574.709   -17886.937            0    10161.848    50.059967    24.992252    22.975026            0            0            0    28744.315    9908.8037    9507.3806    11069.361    311.50672   -373.76999    548.63284    50.059967    24.992252    22.975026           90           90           90 
  128500    305.98171   -17913.639   -15579.643   -17913.639            0    10013.758    49.989538    24.916063    23.089687            0            0            0    28759.187    9690.0668    10881.779      9469.43    180.53008    1.3644022    303.07952    49.989538    24.916063    23.089687           90           90           90 
  129000    299.97946     -17879.8   -15591.589     -17879.8            0    9290.1857    49.958728    25.039613    23.057475            0            0            0    28843.684    9599.0329    9044.0252     9227.499   -313.37042   -226.29308    469.29537    49.958728    25.039613    23.057475           90           90           90 
  129500    299.73762   -17834.476    -15548.11   -17834.476            0    9304.6871    50.261842    25.059038    22.899526            0            0            0     28842.26    7523.0496    9636.1651    10754.847   -400.91695    141.44902   -77.496606    50.261842    25.059038    22.899526           90           90           90 
  130000    302.56614   -17919.151   -15611.209   -17919.151            0    9640.0333    49.812482    24.892819    23.204436            0            0            0    28772.876    10830.131    10139.732    7950.2369    251.88278   -268.11928   -396.68941    49.812482    24.892819    23.204436           90           90           90 
  130500    305.16058   -17848.693    -15520.96   -17848.693            0    10149.999    50.074504     25.04924    22.924459            0            0            0    28754.797    9854.2874    9711.3027    10884.406    70.282813     328.8028   -109.08214    50.074504     25.04924    22.924459           90           90           90 
  131000    292.04836   -17920.421   -15692.707   -17920.421            0    10137.418    49.937593    24.942826    23.066891            0            0            0    28731.767    10367.238     10316.02    9728.9972   -362.42216    1139.3353   -109.04754    49.937593    24.942826    23.066891           90           90           90 
  131500    296.63351   -17949.892   -15687.203   -17949.892            0    10254.777    49.955767    24.926088    23.033107            0            0            0    28680.869    10405.838    10884.164    9474.3288     260.2399    -1023.102     330.6208    49.955767    24.926088    23.033107           90           90           90 
  132000     304.8587   -17898.665   -15573.236   -17898.665            0    9778.6949    50.104466     25.02907     22.95791            0            0            0    28790.784    10076.322    9237.8692    10021.893    192.91717    674.40791   -71.980104    50.104466     25.02907     22.95791           90           90           90 
  132500    308.87024   -17877.359    -15521.33   -17877.359            0    9171.7919    49.967694    24.980182    23.143008            0            0            0    28887.151    8687.9599    10164.296    8663.1205    124.02764    401.16248     -542.069    49.967694    24.980182    23.143008           90           90           90 
  133000    305.67641   -17901.652   -15569.985   -17901.652            0    8457.0816    50.100359     25.04707    23.006779            0            0            0    28870.453    8236.0763     8552.294    8582.8746    13.328675   -1122.4989    166.94962    50.100359     25.04707    23.006779           90           90           90 
  133500    293.93363   -17880.614    -15638.52   -17880.614            0    8763.8706    50.038181    25.019207    23.072568            0            0            0    28884.909    9211.5116    8838.6018    8241.4983   -58.446331    -543.1705   -479.53555    50.038181    25.019207    23.072568           90           90           90 
  134000    297.57338   -17883.688   -15613.831   -17883.688            0    8954.2492    50.068066    24.965488    23.105593            0            0            0    28881.384    8674.7056    9457.2489    8730.7931    280.96269    362.16524     523.8681    50.068066    24.965488    23.105593           90           90           90 
  134500    297.85906   -17844.677    -15572.64   -17844.677            0    9138.0249    50.076584     25.10081    22.958745            0            0            0    28858.289    9538.8365    8823.8695    9051.3687   -45.836181    536.36836   -62.993536    50.076584     25.10081    22.958745           90           90           90 
  135000    298.91993    -17931.63   -15651.501    -17931.63            0    9436.4832    49.995563    24.904222    23.119486            0            0            0    28786.086    8542.7381    10606.746    9159.9653   -491.48745    335.93015    77.198334    49.995563    24.904222    23.119486           90           90           90 
  135500    296.22098   -17877.737   -15618.195   -17877.737            0    9945.5827    50.054634    25.007662    22.973426            0            0            0    28756.972    9997.9843     10156.08    9682.6841    679.12352    317.70519   -1.2627564    50.054634    25.007662    22.973426           90           90           90 
  136000    297.65831    -17856.09   -15585.584    -17856.09            0    10342.816    50.037812    24.993382    22.957019            0            0            0    28710.373    10294.093    10385.698    10348.658   -33.549115   -285.09679    317.59854    50.037812    24.993382    22.957019           90           90           90 
  136500    303.33673   -17881.674   -15567.854   -17881.674            0    10032.493    49.962838     24.96103    23.056813            0            0            0    28754.702    8880.7366     10294.57    10922.171    48.347611   -398.42325    929.84127    49.962838     24.96103    23.056813           90           90           90 
  137000     299.9221   -17854.693   -15566.919   -17854.693            0    9569.3334    50.166326    25.112754      22.8629            0            0            0    28803.015    9749.5102    8310.1661    10648.324   -339.32382   -1127.3671   -504.03958    50.166326    25.112754      22.8629           90           90           90 
  137500    301.71437   -17850.366   -15548.922   -17850.366            0    9551.7419    50.013683    24.916249    23.134624            0            0            0    28829.291    10289.443    10228.431    8137.3509   -360.45714    428.68201   -46.672605    50.013683    24.916249    23.134624           90           90           90 
  138000    303.27232   -17867.482   -15554.154   -17867.482            0    10518.506    49.895994    24.959799    23.036879            0            0            0    28689.991    11468.696    9656.0731     10430.75    94.850371   -516.60867   -43.211269    49.895994    24.959799    23.036879           90           90           90 
  138500    298.46122   -17883.951   -15607.321   -17883.951            0    10590.437    50.081502    24.987467    22.913233            0            0            0    28673.845    10420.292    10423.425    10927.595     343.3769   -125.28181   -1106.5171    50.081502    24.987467    22.913233           90           90           90 
  139000    290.11589   -17937.395   -15724.422   -17937.395            0    9637.4047    49.843535    24.954257     23.08037            0            0            0    28707.558    9436.2825    10407.676    9068.2553    66.185354    428.18305   -307.91715    49.843535    24.954257     23.08037           90           90           90 
  139500    307.63946   -17864.499   -15517.858   -17864.499            0    10601.461    50.079459    24.995296    22.921562            0            0            0    28692.086     10289.94    10576.108    10938.335    121.51462   -291.41345   -1020.4354    50.079459    24.995296    22.921562           90           90           90 
  140000    302.43905   -17813.548   -15506.576   -17813.548            0    10851.597    49.911227    24.913438    23.087211            0            0            0    28708.029    10922.366    11334.244     10298.18   -44.374181    269.20902   -102.34187    49.911227    24.913438    23.087211           90           90           90 
  140500    308.21804    -17851.55   -15500.496    -17851.55            0    10085.462     49.95908    24.998873    23.034843            0            0            0    28768.691     10668.19    10094.178    9494.0169     -359.366    925.50028    649.65678     49.95908    24.998873    23.034843           90           90           90 
  141000    300.82344   -17897.811   -15603.162   -17897.811            0    11062.837     50.05074    25.012335    22.893018            0            0            0    28659.445    10643.663    10475.417    12069.431    170.73923   -48.895282   -667.74948     50.05074    25.012335    22.893018           90           90           90 
  141500    307.32891   -17904.441   -15560.169   -17904.441            0    10534.223    49.805913    24.886298     23.12059            0            0            0     28657.62    11173.839     10411.33      10017.5    -272.3003   -557.57177    173.78372    49.805913    24.886298     23.12059           90           90           90 
  142000    297.66319   -17798.216   -15527.673   -17798.216            0    10509.189    50.013712    25.090051    22.871236            0            0            0    28699.892    10727.171    9759.7325    11040.664    192.84042   -708.25094    10.892365    50.013712    25.090051    22.871236           90           90           90 
  142500    301.21672   -17781.923   -15484.274   -17781.923            0    11191.332    50.053198    24.890016    23.055579            0            0            0    28723.214    11006.806    11122.007    11445.182   -241.98914    553.54692   -68.189385    50.053198    24.890016    23.055579           90           90           90 
  143000    299.04322   -17877.725   -15596.655   -17877.725            0    10322.881    49.821097    24.985158    23.074146            0            0            0     28722.42    11050.156    9914.4646    10004.023   -380.78995   -420.32119   -378.48842    49.821097    24.985158    23.074146           90           90           90 
  143500    298.22446   -17834.429   -15559.604   -17834.429            0    9707.1404    50.061505    25.022776    22.993603            0            0            0    28803.576    9420.6309    9910.4403    9790.3501    338.95221    926.44335   -201.21426    50.061505    25.022776    22.993603           90           90           90 
  144000    299.31476   -17846.406   -15563.265   -17846.406            0    10130.021    49.969389    24.991948    23.051834            0            0            0    28787.877    10338.183    9672.0227    10379.858   -659.17713   -794.49811    869.91111    49.969389    24.991948    23.051834           90           90           90 
  144500    298.13363   -17826.679   -15552.548   -17826.679            0    10800.875    50.032808    24.927416    23.012827            0            0            0    28701.336    11152.716    10495.971    10753.937   -733.52211    64.234053   -756.63119    50.032808    24.927416    23.012827           90           90           90 
  145000    296.70083   -17863.767   -15600.565   -17863.767            0    10305.607    49.848514    25.040953    23.027731            0            0            0    28744.464    10848.269    9930.3355    10138.217   -415.40189    -108.1556    1350.9863    49.848514    25.040953    23.027731           90           90           90 
  145500    293.50965   -17807.979   -15569.119   -17807.979            0    9986.6392    50.194928     24.89782     23.07265            0            0            0    28834.912    8924.5153    11331.076    9704.3263    217.45699    828.07955   -685.38146    50.194928     24.89782     23.07265           90           90           90 
  146000    298.19361   -17889.811   -15615.222   -17889.811            0    9668.2104    49.912812    25.088301    23.015658            0            0            0    28820.843    10083.175    8779.2075    10142.249   -11.337252    265.92316    113.27001    49.912812    25.088301    23.015658           90           90           90 
  146500    298.27535   -17901.544   -15626.332   -17901.544            0    8695.1782    50.094005    24.962898    23.094567            0            0            0     28879.56    8418.3337    8589.2316    9077.9692   -238.30306    24.536163   -174.40527    50.094005    24.962898    23.094567           90           90           90 
  147000    292.23313    -17878.71   -15649.587    -17878.71            0     8861.169    50.109788     25.00065    23.042773            0            0            0    28867.463    8382.9413    8854.4127    9346.1529   -169.89108     93.06983    88.191832    50.109788     25.00065    23.042773           90           90           90 
  147500    305.31849   -17906.476   -15577.539   -17906.476            0     9665.116    50.023041    24.967342    23.040373            0            0            0    28776.098    10327.379    9131.1777    9536.7917    298.09293   -138.66807   -931.89089    50.023041    24.967342    23.040373           90           90           90 
  148000    296.30822   -17869.357    -15609.15   -17869.357            0    10468.505    49.959206     24.93996    23.035562            0            0            0    28701.863    9912.2667    10834.317     10658.93    216.82925    1186.4939   -138.97642    49.959206     24.93996    23.035562           90           90           90 
  148500    306.37479   -17877.008   -15540.014   -17877.008            0    9765.2099    49.973252    25.050213    22.981835            0            0            0    28769.594    10629.614    8901.1238    9764.8914    922.80968    494.26523    109.02222    49.973252    25.050213    22.981835           90           90           90 
  149000    309.50815   -17829.186   -15468.291   -17829.186            0    9620.0104    50.162908    24.914854    23.066847            0            0            0    28828.981    9046.9137    10236.433    9576.6841   -458.90335    272.41425    559.38054    50.162908    24.914854    23.066847           90           90           90 
  149500    301.94647   -17866.276   -15563.061   -17866.276            0    9521.7912    49.827962    25.123308    23.078523            0            0            0    28890.693    9756.9257    8785.2041    10023.244   -42.972581   -40.370528   -264.28165    49.827962    25.123308    23.078523           90           90           90 
  150000    295.86716   -17911.703    -15654.86   -17911.703            0    9503.1844    50.137689    24.944259     23.02786            0            0            0    28799.736    9002.7767    10259.268    9247.5083    76.039428   -87.639556    150.42379    50.137689    24.944259     23.02786           90           90           90 
  150500    303.36511   -17898.705   -15584.669   -17898.705            0    9069.1144    50.011153    25.060764    23.001345            0            0            0    28827.992    9538.1712    8733.9419    8935.2301    518.80492    188.76104    292.22597    50.011153    25.060764    23.001345           90           90           90 
  151000    304.55853   -17912.513   -15589.373   -17912.513            0    8787.1824    50.081312    24.979946    23.083713            0            0            0    28878.383    8654.2191    9463.2443    8244.0838     541.6666   -139.17396   -943.04586    50.081312    24.979946    23.083713           90           90           90 
  151500    300.31581   -17868.391   -15577.615   -17868.391            0    9076.4292    50.028762     25.03235    23.038343            0            0            0    28851.781    9258.2422    9227.2359    8743.8095   -249.56946    418.92187    749.07433    50.028762     25.03235    23.038343           90           90           90 
  152000    292.19057   -17861.272   -15632.473   -17861.272            0     8968.861    50.184038    25.037934    22.972249            0            0            0    28864.737    7726.6487    9399.3653    9780.5691   -232.19058   -567.14378   -354.17605    50.184038    25.037934    22.972249           90           90           90 
  152500    287.97139   -17869.199   -15672.584   -17869.199            0    8935.0224    49.863534    24.937899    23.171715            0            0            0    28813.837    9397.0899    9482.7599    7925.2175   -518.24512     324.1427   -462.86613    49.863534    24.937899    23.171715           90           90           90 
  153000    299.06929   -17887.356   -15606.088   -17887.356            0    9785.8003    50.097401    25.041847     22.93559            0            0            0    28773.418    9252.3608     10080.65     10024.39   -431.96434   -466.17297    724.37785    50.097401    25.041847     22.93559           90           90           90 
  153500    295.76376   -17881.983   -15625.929   -17881.983            0     9569.381    49.998433     24.98617    23.041788            0            0            0    28785.398    10454.425    9521.4725    8732.2454    413.55976    155.36231    409.47012    49.998433     24.98617    23.041788           90           90           90 
  154000    305.93151   -17876.606   -15542.993   -17876.606            0    9821.2584    49.949029    24.983651    23.031883            0            0            0    28741.696    9529.7482    10391.769    9542.2578   -115.30485    225.53516    107.01475    49.949029    24.983651    23.031883           90           90           90 
  154500    299.57924   -17921.921   -15636.763   -17921.921            0     10967.15    49.885809    24.947149    23.013952            0            0            0    28641.064    10867.429    11546.373    10487.649    587.53018   -699.36171   -681.86674    49.885809    24.947149    23.013952           90           90           90 
  155000    303.07863   -17851.608   -15539.757   -17851.608            0    10518.481    49.981896    24.965754    23.004041            0            0            0    28705.264    10246.277    11004.774    10304.392    386.47866    569.41476   -568.23591    49.981896    24.965754    23.004041           90           90           90 
  155500    294.00826   -17809.153   -15566.489   -17809.153            0    10709.945    49.933603    24.974322    23.038219            0            0            0    28729.993    11061.993    10148.318    10919.524    265.41557   -118.91496   -339.92679    49.933603    24.974322    23.038219           90           90           90 
  156000    296.89573   -17959.587   -15694.898   -17959.587            0    9918.6914    49.893678    24.995022    23.030406            0            0            0    28721.071    9998.9811    10137.715    9619.3785    738.55993   -787.47032    291.88347    49.893678    24.995022    23.030406           90           90           90 
  156500    299.03294   -17931.071    -15650.08   -17931.071            0     10060.55    49.998567    24.985308    22.983309            0            0            0     28711.43    9628.5059    10006.176    10546.968   -631.13893   -207.40187    354.33352    49.998567    24.985308    22.983309           90           90           90 
  157000    302.11476   -17915.532   -15611.033   -17915.532            0    9305.7183    49.984523    24.985368    23.060723            0            0            0    28800.115    10264.988    8317.8012    9334.3654     145.3109   -356.29161    585.56967    49.984523    24.985368    23.060723           90           90           90 
  157500    299.27386   -17926.037   -15643.208   -17926.037            0    9267.3985    50.064673    25.029341    22.997571            0            0            0    28817.929    9186.8123    8912.8964    9702.4868     743.9501    470.88833    110.98954    50.064673    25.029341    22.997571           90           90           90 
  158000    293.08911   -17872.653   -15637.001   -17872.653            0    9462.5888    50.029343    24.970193    23.089206            0            0            0    28844.014    8783.6444    10201.247    9402.8751   -672.65494    891.53857    909.92102    50.029343    24.970193    23.089206           90           90           90 
  158500    305.66427   -17908.117   -15576.543   -17908.117            0    8568.8245    50.032437    24.988738    23.079848            0            0            0    28855.522    8491.9155    8643.4735    8571.0846    242.33371   -5.3277372   -481.85457    50.032437    24.988738    23.079848           90           90           90 
  159000    298.32012   -17827.941   -15552.387   -17827.941            0    9272.9693    50.262903    25.038578    22.947957            0            0            0    28880.271    9029.8348    9223.8371     9565.236   -296.22361   -800.22132     72.88522    50.262903    25.038578    22.947957           90           90           90 
  159500     300.4492   -17854.977   -15563.182   -17854.977            0    9094.5267    49.801541    25.057557    23.131708            0            0            0    28866.172    9868.5298    8506.7419    8908.3086    131.28075    458.23516   -521.18428    49.801541    25.057557    23.131708           90           90           90 
  160000     301.6627   -17881.308   -15580.257   -17881.308            0    9647.5613     50.13293     24.97022    22.994394            0            0            0    28785.078    9155.4577    9495.5396    10291.687   -994.62726    135.01611     571.9023     50.13293     24.97022    22.994394           90           90           90 
  160500    312.20252   -17870.261   -15488.813   -17870.261            0    9618.5625    49.969801    25.037261     22.99821            0            0            0    28773.221    9593.0054    9329.3962    9933.2858    516.71102   -569.59082     47.16756    49.969801    25.037261     22.99821           90           90           90 
  161000    297.74832   -17926.374   -15655.182   -17926.374            0    9764.4768    49.966046    24.915079    23.106385            0            0            0    28765.323    10036.813    10000.367    9256.2508   -319.29564   -1069.7028   -480.52281    49.966046    24.915079    23.106385           90           90           90 
  161500    307.85743   -17897.383   -15549.079   -17897.383            0    9721.6366    50.099431    25.057049    22.908347            0            0            0    28757.854    8522.8349    9773.5181    10868.557   -466.97734    462.23109    538.50053    50.099431    25.057049    22.908347           90           90           90 
  162000    302.57222   -17916.042   -15608.053   -17916.042            0    9548.4174      49.9058    24.942498    23.146884            0            0            0    28812.669    9846.3122    9802.1111     8996.829    302.96718    1627.0567    418.65528      49.9058    24.942498    23.146884           90           90           90 
  162500    293.81558   -17910.444    -15669.25   -17910.444            0    8998.2242    49.973341    25.088768    22.996979            0            0            0    28832.912    9311.0991    8623.2777    9060.2959   -248.97807   -410.46706   -524.56164    49.973341    25.088768    22.996979           90           90           90 
  163000    291.17083   -17875.963   -15654.943   -17875.963            0    9057.3866    50.155308    25.023297    23.009431            0            0            0    28878.012    8430.7843    9635.6794    9105.6959   -334.23439    321.97135    176.47192    50.155308    25.023297    23.009431           90           90           90 
  163500    295.55457   -17914.811   -15660.352   -17914.811            0    8341.1481    49.971046    25.005138    23.138886            0            0            0      28912.8    8461.1429    8806.2922     7756.009    763.13722   -342.67784    213.12733    49.971046    25.005138    23.138886           90           90           90 
  164000     303.1225   -17897.013   -15584.827   -17897.013            0    8800.4734    50.250503    25.052528    22.950858            0            0            0    28892.885    8194.4074    8364.3266    9842.6861    675.74644    -263.3505    158.96774    50.250503    25.052528    22.950858           90           90           90 
  164500    303.15049   -17807.998   -15495.598   -17807.998            0    9908.7495    49.950098    25.016085    23.063711            0            0            0    28819.397    9508.1658    10269.136     9948.947   -133.24647     33.73382    128.52516    49.950098    25.016085    23.063711           90           90           90 
  165000    302.80083   -17837.393   -15527.661   -17837.393            0    10056.789    49.973868    24.952633    23.053732            0            0            0    28747.534     10118.53    10713.497    9338.3392   -46.652219    196.39433     162.3794    49.973868    24.952633    23.053732           90           90           90 
  165500    304.94597   -17905.236   -15579.141   -17905.236            0    10234.389    50.055788    24.993998    22.962854            0            0            0    28728.695    9269.9148    11179.417    10253.835    -282.2905     377.3337   -145.71631    50.055788    24.993998    22.962854           90           90           90 
  166000    302.44988   -17854.639   -15547.583   -17854.639            0    10370.367    49.823334    25.001439    23.090367            0            0            0    28762.631    11670.643    10158.879     9281.578   -52.508333    -70.67932   -538.88983    49.823334    25.001439    23.090367           90           90           90 
  166500    298.67144   -17950.898   -15672.664   -17950.898            0    9795.4767    50.281601    24.986088    22.867427            0            0            0    28729.275    9227.6505    9383.6666    10775.113      280.592   -790.11953    375.88076    50.281601    24.986088    22.867427           90           90           90 
  167000    292.78866   -17923.351    -15689.99   -17923.351            0    9871.1622    49.794655    25.017574    23.099433            0            0            0    28775.921    10474.526    9160.2466    9978.7144    306.74414   -192.99047   -512.10167    49.794655    25.017574    23.099433           90           90           90 
  167500    299.03451   -17905.863   -15624.859   -17905.863            0    9671.7821    50.051335     24.93736      23.0401            0            0            0    28757.458    10251.538    9768.6745    8995.1336    375.13372   -589.22405   -58.298465    50.051335     24.93736      23.0401           90           90           90 
  168000    297.94308   -17826.929   -15554.251   -17826.929            0      10921.7    49.966047    25.004085    22.970802            0            0            0    28698.694     11684.16    10460.403    10620.536    110.96927   -339.20476    373.62451    49.966047    25.004085    22.970802           90           90           90 
  168500    301.85415   -17863.731    -15561.22   -17863.731            0    10873.919    49.914273    24.907974    23.032317            0            0            0    28635.237     10464.34    10921.734    11235.684   -387.68432    673.24646   -483.32435    49.914273    24.907974    23.032317           90           90           90 
  169000     296.7039   -17832.627   -15569.401   -17832.627            0    10883.194    49.935369    24.995583    22.962249            0            0            0    28660.645    10482.008    10766.609    11400.964    215.13158   -97.375858    464.20872    49.935369    24.995583    22.962249           90           90           90 
  169500     304.0984     -17882.3    -15562.67     -17882.3            0    10262.358    50.138113    24.933548    23.014222            0            0            0    28770.564    9334.7419     10426.91    11025.424   -67.473279   -215.47013   -1301.6392    50.138113    24.933548    23.014222           90           90           90 
  170000    295.15429    -17852.31   -15600.904    -17852.31            0    9256.8738    49.914567    25.091882    23.037197            0            0            0    28852.947    9977.1099    8535.8239    9257.6875    721.88927    928.65034    705.46032    49.914567    25.091882    23.037197           90           90           90 
  170500    291.56468   -17982.382   -15758.358   -17982.382            0    9203.2793    50.163725    24.912845     23.02613            0            0            0    28776.241    8630.8396    9991.4039    8987.5945   -654.23548   -215.92589   -772.12207    50.163725    24.912845     23.02613           90           90           90 
  171000    297.42369   -17915.141   -15646.425   -17915.141            0    9151.8499    49.940124    25.052361    23.055489            0            0            0    28845.137    9905.4323    8343.5836    9206.5339   -238.91089   -496.00857     502.7027    49.940124    25.052361    23.055489           90           90           90 
  171500    295.40926   -17843.154   -15589.804   -17843.154            0    10105.576    50.089689    24.969846    23.029449            0            0            0    28803.666    9745.7287    9784.5071    10786.492   -278.74515    -285.8352   -223.35052    50.089689    24.969846    23.029449           90           90           90 
  172000    298.62159   -17868.664   -15590.811   -17868.664            0    10087.913    49.950891    24.997874    23.049025            0            0            0    28780.535     10046.42    10480.028    9737.2908     167.8075   -588.34044   -392.64365    49.950891    24.997874    23.049025           90           90           90 
  172500    299.89394   -17830.112   -15542.553   -17830.112            0    10632.613    50.003081    24.947481    23.022967            0            0            0     28720.02    11144.558     10884.44    9868.8417   -82.871358   -181.12227   -180.94404    50.003081    24.947481    23.022967           90           90           90 
  173000    305.80163   -17883.449   -15550.827   -17883.449            0    11252.717    49.891733    24.970842    22.985071            0            0            0    28635.687    11524.996    10986.755      11246.4   -607.82002    721.84978   -323.28639    49.891733    24.970842    22.985071           90           90           90 
  173500    306.38169   -17886.339   -15549.292   -17886.339            0    10275.112    49.931858    24.982133    23.004339            0            0            0    28695.712    10242.341    10733.966    9849.0282    28.562721   -552.61238   -144.32359    49.931858    24.982133    23.004339           90           90           90 
  174000    293.43013     -17899.6   -15661.346     -17899.6            0    9575.6964    50.087203    24.947008    23.005391            0            0            0    28745.831    9881.9986    9390.1371    9454.9535   -76.081945    351.10531   -987.09103    50.087203    24.947008    23.005391           90           90           90 
  174500    298.59497   -17817.985   -15540.334   -17817.985            0    9735.9003    49.911701    25.070979    23.032852            0            0            0    28821.818    9855.8684    8745.6547    10606.178   -120.89326   -6.6041413    291.90099    49.911701    25.070979    23.032852           90           90           90 
  175000    298.04445   -17889.208   -15615.757   -17889.208            0    9488.2257    50.206575    24.922237    23.024926            0            0            0    28810.173    8323.3842     10312.98    9828.3127   -27.883252    689.06494   -610.48503    50.206575    24.922237    23.024926           90           90           90 
  175500    295.77637   -17906.871    -15650.72   -17906.871            0    10009.685    49.775792    25.063515     23.03215            0            0            0    28733.905     10441.29    9459.3873    10128.377   -442.33088    53.421941    1071.6669    49.775792    25.063515     23.03215           90           90           90 
  176000    292.65751   -17915.546   -15683.186   -17915.546            0    9406.6557    50.242437    24.918282    22.975944            0            0            0    28764.853    8950.6567    9869.3591    9399.9513    642.46575    643.50507   -730.06554    50.242437    24.918282    22.975944           90           90           90 
  176500    295.93526    -17792.11   -15534.747    -17792.11            0    9800.5607    49.876818    25.037538    23.063297            0            0            0    28801.277    9622.6918    10590.361    9188.6296    -606.6839    226.35769   -392.93139    49.876818    25.037538    23.063297           90           90           90 
  177000    301.68738   -17893.514   -15592.276   -17893.514            0     9316.641    50.278144    24.887812     23.02191            0            0            0    28807.615    8694.4707    9927.0307    9328.4216    307.46087     276.8959    186.56436    50.278144    24.887812     23.02191           90           90           90 
  177500    293.45062   -17844.298   -15605.888   -17844.298            0    9615.3576    49.914234    25.111638    23.012843            0            0            0    28844.945    10285.231    8959.4532    9601.3891    444.03506  -0.97505545     505.5315    49.914234    25.111638    23.012843           90           90           90 
  178000    301.05588   -17842.031   -15545.609   -17842.031            0    9682.3046    50.106777     24.97165    23.040927            0            0            0    28829.934    9661.4178    9657.4722    9728.0239    221.29098    1015.9204   -4.5903472    50.106777     24.97165    23.040927           90           90           90 
  178500    292.71754    -17921.72   -15688.902    -17921.72            0    9810.0354     49.95037    25.020968    22.994904            0            0            0    28739.183    9790.5349    9440.8243    10198.747     -117.477    82.436387   -37.834642     49.95037    25.020968    22.994904           90           90           90 
  179000    294.39113   -17857.992   -15612.408   -17857.992            0    10104.312    50.029262    25.004921    22.984151            0            0            0    28752.661    9637.7116    11148.637    9526.5879    229.67089    817.69458   -600.08044    50.029262    25.004921    22.984151           90           90           90 
  179500    298.42792   -17820.359   -15543.982   -17820.359            0    10066.142    50.070173    24.947051    23.057243            0            0            0    28800.875    10699.508    10316.835    9182.0838   -993.90034    164.45719    -289.3138    50.070173    24.947051    23.057243           90           90           90 
  180000    296.87195   -17887.901   -15623.394   -17887.901            0    10522.977     49.81519    25.041088    23.011832            0            0            0     28705.57    9806.1139    10947.225    10815.592   -327.95834    436.99044     243.2522     49.81519    25.041088    23.011832           90           90           90 
  180500    303.77786   -17845.416   -15528.231   -17845.416            0    10674.369    50.227028     24.86758    22.968725            0            0            0    28688.504    9454.5645    11328.823    11239.719    231.90844    -168.4997   -51.001301    50.227028     24.86758    22.968725           90           90           90 
  181000     300.9114   -17919.718   -15624.398   -17919.718            0    10676.384    49.623328     25.09878    23.012048            0            0            0    28661.161    10768.348    10534.634     10726.17   -296.42763    83.069544    212.94974    49.623328     25.09878    23.012048           90           90           90 
  181500    297.65569    -17891.54   -15621.055    -17891.54            0    10536.237    50.189138    24.873161    23.003008            0            0            0    28716.093    9091.9037     11806.19    10710.617   -224.81527    467.57528   -8.4842746    50.189138    24.873161    23.003008           90           90           90 
  182000     300.9176   -17867.777    -15572.41   -17867.777            0    9743.5924    49.854405    25.085085    23.004316            0            0            0    28769.242    10512.025    8726.6435    9992.1091   -172.09691   -376.80264    596.56521    49.854405    25.085085    23.004316           90           90           90 
  182500    293.58938   -17850.437   -15610.969   -17850.437            0    10030.484    50.177632    24.874195     23.04692            0            0            0     28765.51    9096.9745    11611.195    9383.2826   -203.66586   -809.97126   -879.85333    50.177632    24.874195     23.04692           90           90           90 
  183000    299.60636   -17831.955    -15546.59   -17831.955            0    10204.926    49.888189    25.141072    22.934399            0            0            0    28765.299     10502.78    8601.9214    11510.077   -409.53132    317.69325   -392.47779    49.888189    25.141072    22.934399           90           90           90 
  183500    300.06251   -17809.978   -15521.133   -17809.978            0    9971.5148    50.112072    24.868708    23.086082            0            0            0    28770.394    9440.8061    10258.628     10215.11   -44.252484   -134.75913    367.71327    50.112072    24.868708    23.086082           90           90           90 
  184000    306.36632   -17899.118   -15562.189   -17899.118            0     9792.397    49.853947    25.052677    22.989506            0            0            0    28713.315    9820.5057    9670.9516    9885.7336    230.24266   -833.65558   -629.83198    49.853947    25.052677    22.989506           90           90           90 
  184500    296.63182   -17823.659   -15560.983   -17823.659            0    10533.887    50.221841    24.947462     22.92964            0            0            0    28728.717    9632.3711    10765.556    11203.735   -64.667351   -242.94848   -28.277737    50.221841    24.947462     22.92964           90           90           90 
  185000    296.56387    -17890.04   -15627.883    -17890.04            0    10047.599    49.824023    25.023687    23.065477            0            0            0    28757.593    10337.164    9673.9621     10131.67   -125.49955   -474.12459   -316.70086    49.824023    25.023687    23.065477           90           90           90 
  185500    303.73542   -17862.977   -15546.116   -17862.977            0    10604.089    49.998704    24.985874    23.010968            0            0            0    28746.713    11503.479    10724.834    9583.9527    750.76714    287.78829    333.57385    49.998704    24.985874    23.010968           90           90           90 
  186000    306.85101   -17872.531   -15531.904   -17872.531            0     10748.65    49.954445     24.97824    23.014934            0            0            0    28717.439    10831.195    10342.376    11072.379    480.98865    487.23137   -177.40296    49.954445     24.97824    23.014934           90           90           90 
  186500     297.3341   -17910.573   -15642.541   -17910.573            0     10696.81     49.83823    24.986858    23.044728            0            0            0    28697.618    11614.159    10100.098    10376.172    67.834362   -62.617815   -486.08322     49.83823    24.986858    23.044728           90           90           90 
  187000    300.96539   -17905.899   -15610.167   -17905.899            0    10135.969    50.069159    24.960781    22.973624            0            0            0    28711.638    9530.1561    10865.927    10011.824    90.002028    369.04009    147.28547    50.069159    24.960781    22.973624           90           90           90 
  187500    297.78232   -17879.712   -15608.261   -17879.712            0    10145.461     49.92754    25.004392    23.035179            0            0            0    28757.298     10049.44    11025.192     9361.751    515.52537   -776.42317    6.8614187     49.92754    25.004392    23.035179           90           90           90 
  188000    293.27142   -17785.097   -15548.055   -17785.097            0    10360.917    50.053464    24.933938    23.029223            0            0            0     28741.16    9489.4355    10645.738    10947.579   -93.725933    -576.6019   -420.43532    50.053464    24.933938    23.029223           90           90           90 
  188500    306.97477    -17879.47   -15537.899    -17879.47            0     10540.24    49.982437     25.04303    22.906704            0            0            0    28672.588    10834.371    10390.477    10395.873    699.95365   -567.03497    801.17149    49.982437     25.04303    22.906704           90           90           90 
  189000    296.99096   -17921.257   -15655.842   -17921.257            0    10890.786    49.819004    24.795535    23.211243            0            0            0     28672.59    10657.641    13052.837    8961.8807    324.44182    399.34523    117.89529    49.819004    24.795535    23.211243           90           90           90 
  189500     299.2991   -17846.378   -15563.357   -17846.378            0    10667.838    50.011033    25.056252    22.915383            0            0            0    28715.016    11747.846    9698.2135    10557.455   -337.78698    104.59955    736.35766    50.011033    25.056252    22.915383           90           90           90 
  190000    309.66981   -17832.382   -15470.254   -17832.382            0    9850.8256     50.05571    25.006682    23.017613            0            0            0    28811.772    10826.513    8591.9391    10134.025    95.672552   -447.59139   -578.55504     50.05571    25.006682    23.017613           90           90           90 
  190500    309.44577   -17799.863   -15439.444   -17799.863            0    10051.786      50.0505    24.936511     23.08276            0            0            0    28809.243    10143.438    10155.838    9856.0834    4.0918564    41.981454   -238.16584      50.0505    24.936511     23.08276           90           90           90 
  191000     302.5149   -17868.745   -15561.194   -17868.745            0    10220.166    49.970653    25.054588    22.946175            0            0            0    28728.477    10103.615    10152.937    10403.946    21.965307   -1039.9197     475.3805    49.970653    25.054588    22.946175           90           90           90 
  191500    308.57082   -17881.554   -15527.809   -17881.554            0    10562.781    49.933384    24.889882    23.107089            0            0            0    28718.324    10698.411    10917.852    10072.081    91.727202   -53.214139    315.19946    49.933384    24.889882    23.107089           90           90           90 
  192000    301.97999   -17902.469   -15598.998   -17902.469            0    10368.547    49.940857    25.026429    22.945007            0            0            0    28677.617    11211.635    9777.8297    10116.177     405.2977    238.18018    125.51174    49.940857    25.026429    22.945007           90           90           90 
  192500    305.68228   -17841.714   -15510.002   -17841.714            0    10056.398    50.096952    24.950121    23.036858            0            0            0    28794.345    10432.483     10087.49    9649.2201   -184.84655   -163.77369     70.53641    50.096952    24.950121    23.036858           90           90           90 
  193000    296.97127   -17854.177   -15588.912   -17854.177            0    9475.5567    50.065972    24.980629    23.043156            0            0            0    28819.603    8761.1973    11097.121    8568.3515     401.9309    240.48783   -344.15796    50.065972    24.980629    23.043156           90           90           90 
  193500    291.93617   -17840.306   -15613.448   -17840.306            0    9815.5369    50.025466    25.065909    22.978522            0            0            0    28813.545    9105.8815    9180.3225    11160.407    139.89524   -136.96068    287.14728    50.025466    25.065909    22.978522           90           90           90 
  194000    296.77595   -17859.013   -15595.238   -17859.013            0    9914.4014    50.106526    24.972812    23.033806            0            0            0    28822.221    9719.1815    9313.0973    10710.925    29.864835   -361.57745    612.70395    50.106526    24.972812    23.033806           90           90           90 
  194500     304.7306   -17884.021   -15559.568   -17884.021            0    9573.2017    49.940394    25.025127    23.029941            0            0            0    28782.006    10562.849    8374.8226    9781.9339    415.67743    449.47974   -258.26963    49.940394    25.025127    23.029941           90           90           90 
  195000    301.56764   -17874.288   -15573.962   -17874.288            0    9745.2941    50.072966    24.960013     23.04386            0            0            0     28800.72     9387.085    9884.8843    9963.9131   -714.18517      370.006    306.36049    50.072966    24.960013     23.04386           90           90           90 
  195500    305.37763   -17830.438    -15501.05   -17830.438            0    10041.244    49.914354    25.054883    23.009359            0            0            0    28775.466    10977.529    9711.1694    9435.0339   -166.44844   -191.12728   -119.05797    49.914354    25.054883    23.009359           90           90           90 
  196000    301.69844   -17839.729   -15538.406   -17839.729            0     10299.46    50.133823    24.886288    23.040634            0            0            0    28746.527     9234.453    12095.593    9568.3336   -237.08463    7.0526374   -432.58874    50.133823    24.886288    23.040634           90           90           90 
  196500    313.65872   -17884.967   -15492.412   -17884.967            0     9798.282    49.904901    25.089395     22.98171            0            0            0    28775.025     10784.42    8691.7995    9918.6269   -159.56904    567.82754    865.24933    49.904901    25.089395     22.98171           90           90           90 
  197000    302.91982   -17887.406   -15576.766   -17887.406            0    10342.575    50.114365     24.91628    22.989014            0            0            0    28705.544    9989.2067    10813.693    10224.825   -51.620928    95.313316   -160.12265    50.114365     24.91628    22.989014           90           90           90 
  197500    300.54016   -17870.949   -15578.461   -17870.949            0    10974.949    49.828408    24.965597    23.037049            0            0            0    28657.996    10754.538    11318.442    10851.867    135.14536    31.835109   -54.733066    49.828408    24.965597    23.037049           90           90           90 
  198000    301.62733   -17876.274   -15575.493   -17876.274            0    10634.597     49.99125    24.998307    22.966664            0            0            0    28701.362    10656.433    10753.438     10493.92   -291.11691   -83.084348    27.125539     49.99125    24.998307    22.966664           90           90           90 
  198500    302.27351   -17903.099   -15597.389   -17903.099            0    10788.841    50.101015    24.871224    23.026801            0            0            0    28693.088    10692.517    10355.974    11318.033    379.86273    997.24647   -698.39212    50.101015    24.871224    23.026801           90           90           90 
  199000    303.60959   -17842.357   -15526.456   -17842.357            0    9630.5605    49.917974    25.074016    23.010852            0            0            0    28801.397    10769.129    7879.8693    10242.684    918.58106    342.88032   -469.96587    49.917974    25.074016    23.010852           90           90           90 
  199500    307.09422   -17852.725   -15510.243   -17852.725            0    9668.4232    50.244056    24.934634    23.017676            0            0            0    28836.939    8647.1569    10124.008    10234.105     345.5601     581.5191    512.11065    50.244056    24.934634    23.017676           90           90           90 
  200000     301.7492   -17910.587   -15608.876   -17910.587            0    9802.0253    49.803163    25.027085    23.068563            0            0            0    28753.303    9700.3162     10089.65    9616.1097    648.32834   -1155.8418    -239.4865    49.803163    25.027085    23.068563           90           90           90 
  200500    295.43541   -17922.669   -15669.119   -17922.669            0     9316.415    50.264266    24.902001    22.981511            0            0            0    28765.517    8820.2602     9380.789    9748.1959   -833.36239    78.050062    -577.1218    50.264266    24.902001    22.981511           90           90           90 
  201000    292.95797   -17785.209   -15550.557   -17785.209            0    8991.5339      49.9074    25.145613    23.024528            0            0            0    28894.682    9609.5445    8280.4353    9084.6221    590.69283    618.66268    756.62722      49.9074    25.145613    23.024528           90           90           90 
  201500    293.04741   -17847.252   -15611.918   -17847.252            0    9354.6967    50.081504    24.922912    23.115036            0            0            0    28851.654    8093.7644    9717.1326    10253.193    505.36065    264.11204    657.55792    50.081504    24.922912    23.115036           90           90           90 
  202000    299.26569   -17871.893   -15589.126   -17871.893            0    9347.4932    50.021408    25.090454    22.987208            0            0            0    28850.322    8992.7043    9626.7513    9423.0241    551.05844    165.74083    125.77547    50.021408    25.090454    22.987208           90           90           90 
  202500    300.14212   -17920.961   -15631.509   -17920.961            0    8983.2003    50.017863    25.003304    23.045938            0            0            0    28821.523    7679.9569    9545.1319    9724.5122   -2.1863905   -132.39459   -1117.3157    50.017863    25.003304    23.045938           90           90           90 
  203000    284.91903   -17892.716   -15719.384   -17892.716            0    9914.4454     49.95321    24.947141     23.08264            0            0            0     28765.35    9834.7493    10257.546    9651.0415   -300.63085    1.8346715    -230.4342     49.95321    24.947141     23.08264           90           90           90 
  203500    297.29314   -17843.222   -15575.501   -17843.222            0    9716.0634    50.094858     25.04483    22.958983            0            0            0    28804.736    9371.6553    10502.342    9274.1932    271.34985    802.58063    585.21313    50.094858     25.04483    22.958983           90           90           90 
  204000    303.66307   -17892.828   -15576.519   -17892.828            0    9692.1713    50.038527     24.96759    23.033686            0            0            0    28776.938    9199.8388    10469.368    9407.3075   -385.61333    64.038953   -224.43303    50.038527     24.96759    23.033686           90           90           90 
  204500    295.93056   -17886.953   -15629.626   -17886.953            0    10489.686    49.845983    24.990697    23.038437            0            0            0    28698.655    10615.046    10265.778    10588.233    552.04722   -309.81715   -443.81851    49.845983    24.990697    23.038437           90           90           90 
  205000    299.96121   -17962.178   -15674.106   -17962.178            0    10097.794    50.172741    24.987061    22.888341            0            0            0    28694.412    9689.7804    9739.9864    10863.614   -341.90087    708.72629    422.16214    50.172741    24.987061    22.888341           90           90           90 
  205500    312.49871    -17868.47   -15484.763    -17868.47            0    10673.203    49.619983    25.024819    23.104288            0            0            0    28689.313    12892.378    9452.2496    9674.9813   -1035.6779   -813.50122    399.24209    49.619983    25.024819    23.104288           90           90           90 
  206000    293.77932   -17920.037    -15679.12   -17920.037            0    10412.231    50.214432    24.875348    22.961463            0            0            0    28681.196      8721.79    12344.811    10170.091    135.25957   -439.37344    329.93948    50.214432    24.875348    22.961463           90           90           90 
  206500    303.02099   -17855.221    -15543.81   -17855.221            0     9908.469    49.841607    25.053636    23.043761            0            0            0    28775.055    10910.137    8868.0174    9947.2526     389.7858    321.94482    658.85717    49.841607    25.053636    23.043761           90           90           90 
  207000    296.91467   -17861.135   -15596.302   -17861.135            0     9803.938    50.082997    24.921934    23.053296            0            0            0    28774.319    8699.3741    10111.648    10600.792     -76.3834   -103.05939    467.53315    50.082997    24.921934    23.053296           90           90           90 
  207500    300.97223   -17911.823   -15616.039   -17911.823            0    9948.1575    49.991747     25.03884     22.95262            0            0            0    28730.606    9882.2242     10321.04    9641.2084    815.51467    686.51833    648.40338    49.991747     25.03884     22.95262           90           90           90 
  208000    295.22504   -17840.128   -15588.183   -17840.128            0    10962.106     49.96319    24.846976    23.104901            0            0            0    28683.214    11623.293    11155.904    10107.121   -372.60756    120.38361   -512.50992     49.96319    24.846976    23.104901           90           90           90 
  208500    294.31617   -17835.993   -15590.981   -17835.993            0    11081.726    49.850385    25.098744    22.919795            0            0            0    28676.836    12115.622    9381.4608    11748.096    235.15031    257.56183   -937.12564    49.850385    25.098744    22.919795           90           90           90 
  209000    301.65204   -17870.061   -15569.091   -17870.061            0    10602.132    50.074925    24.934613    22.971271            0            0            0    28681.903    11053.561    11111.852     9640.982    329.62413   -320.28479    135.02999    50.074925    24.934613    22.971271           90           90           90 
  209500    303.31231   -17849.941   -15536.307   -17849.941            0    10079.798    49.887482    24.980504    23.064311            0            0            0    28743.077    11240.225    9878.5937    9120.5766   -165.57218   -230.41679   -797.17086    49.887482    24.980504    23.064311           90           90           90 
  210000    301.52213   -17868.694   -15568.715   -17868.694            0    10477.628    50.053598    25.004548    22.936145            0            0            0    28706.135    9230.4527    10549.632    11652.799    144.54448     394.7386    262.30396    50.053598    25.004548    22.936145           90           90           90 
  210500    297.01795   -17835.417   -15569.796   -17835.417            0    9991.9568    49.859128    24.969473    23.120099            0            0            0     28783.51    9881.8136    10968.491    9125.5658    1063.3305   -59.753306   -346.24191    49.859128    24.969473    23.120099           90           90           90 
  211000     298.7453    -17874.47   -15595.672    -17874.47            0    10324.592    50.069817    24.991369    22.943456            0            0            0    28709.452    11005.391    10012.136    9956.2483    621.69726    460.64692   -57.928783    50.069817    24.991369    22.943456           90           90           90 
  211500    298.28146   -17909.647   -15634.388   -17909.647            0    10211.248    49.981681    24.989225    22.968902            0            0            0    28688.239    10863.166    9922.5306    9848.0481    350.08765   -839.96922    364.58892    49.981681    24.989225    22.968902           90           90           90 
  212000    296.42467   -17889.774   -15628.678   -17889.774            0    9625.8055    49.889068    24.960363    23.120333            0            0            0    28790.577    10265.327    9817.2727    8794.8167    135.48699    1219.2469    113.55338    49.889068    24.960363    23.120333           90           90           90 
  212500    298.50191   -17811.632   -15534.691   -17811.632            0    10474.541    50.093074    25.005449    22.968804            0            0            0    28770.719    10404.575     10575.03    10444.018    514.12371   -240.89279    386.16299    50.093074    25.005449    22.968804           90           90           90 
  213000     300.0672   -17885.922   -15597.042   -17885.922            0    10129.265    49.895378    25.026055     23.00095            0            0            0    28720.928    10923.794    10003.501    9460.4999   -629.90971    44.621657   -106.56032    49.895378    25.026055     23.00095           90           90           90 
  213500    301.09832   -17845.873   -15549.127   -17845.873            0    9895.7712    50.107551    24.916981    23.063991            0            0            0     28796.06    9437.1326    10019.898    10230.284    21.637729     2.562679   -4.2912836    50.107551    24.916981    23.063991           90           90           90 
  214000    307.90662   -17888.175   -15539.496   -17888.175            0     9875.531    49.997215    25.084891    22.946596            0            0            0     28779.04    9222.6476    9819.1954     10584.75    106.10379   -798.39423    269.90548    49.997215    25.084891    22.946596           90           90           90 
  214500    298.27897   -17861.209   -15585.969   -17861.209            0    9962.5738    50.113972    24.884005    23.063264            0            0            0    28760.727    9726.8567    11282.986    8877.8789   -442.06525   -1003.1991    46.831375    50.113972    24.884005    23.063264           90           90           90 
  215000     290.7004   -17922.864   -15705.432   -17922.864            0    9163.2768    49.802395    25.086809     23.06077            0            0            0    28811.739    10210.885     8364.559    8914.3866   -99.327771   -132.41051     35.22086    49.802395    25.086809     23.06077           90           90           90 
  215500    294.02137    -17753.68   -15510.917    -17753.68            0    9808.6495    50.352264    24.964192    22.965146            0            0            0     28867.27    9244.2202    10365.304    9816.4238   -462.55561    806.75602   -231.93932    50.352264    24.964192    22.965146           90           90           90 
  216000    292.57705   -17854.395   -15622.648   -17854.395            0    10341.058    49.801538    24.993574    23.095123            0            0            0    28746.926    11220.927    9321.1678    10481.081    455.10489   -542.07376   -144.65006    49.801538    24.993574    23.095123           90           90           90 
  216500    297.87261   -17896.228   -15624.087   -17896.228            0    10482.185    50.102747    24.938192    22.963024            0            0            0    28691.654    9967.8409    10394.988    11083.727   -397.65955     563.5083   -16.178439    50.102747    24.938192    22.963024           90           90           90 
  217000    302.30311   -17817.375    -15511.44   -17817.375            0    11130.559    49.967381      25.0169    22.942316            0            0            0     28678.56     10612.87    11287.083    11491.725    404.16204    172.17649     799.9289    49.967381      25.0169    22.942316           90           90           90 
  217500    306.61271   -17895.705   -15556.896   -17895.705            0    10401.352    49.851674    24.925502    23.112493            0            0            0    28719.076    10546.554    10115.949    10541.554   -336.94483   -721.65977    -488.7421    49.851674    24.925502    23.112493           90           90           90 
  218000    302.72202   -17855.412   -15546.281   -17855.412            0    10317.679    50.157459    25.024874     22.89602            0            0            0    28738.721    9596.1015    10058.847    11298.089   -125.65269   -823.59562    299.08533    50.157459    25.024874     22.89602           90           90           90 
  218500    304.22826   -17867.532   -15546.911   -17867.532            0    9982.1913    49.830066    25.075653    23.006531            0            0            0    28747.153    11153.034    9276.3365    9517.2032   -253.67234    68.432617   -451.13649    49.830066    25.075653    23.006531           90           90           90 
  219000    298.29458   -17871.707   -15596.348   -17871.707            0    10005.966    49.982741    24.854122    23.149972            0            0            0    28758.682    10106.508    11097.276    8814.1125    181.47825    255.59176   -193.13198    49.982741    24.854122    23.149972           90           90           90 
  219500    298.48731   -17908.383   -15631.553   -17908.383            0    9472.0383     50.03025    25.097647    22.942159            0            0            0    28807.128    9318.0231    8923.4704    10174.621    371.92008    627.62377    170.08143     50.03025    25.097647    22.942159           90           90           90 
  220000    293.10179   -17846.301   -15610.552   -17846.301            0    9835.1223    50.013857    24.923844    23.105007            0            0            0    28801.259     9680.365    9833.5828     9991.419   -235.52121   -1530.5934    291.07826    50.013857    24.923844    23.105007           90           90           90 
  220500     297.4643   -17916.205   -15647.179   -17916.205            0     9974.957    49.965277    25.032668    22.992197            0            0            0    28757.817    10105.617    9212.2085    10607.045   -289.70041    290.09218   -222.35421    49.965277    25.032668    22.992197           90           90           90 
  221000    299.82267   -17863.753   -15576.737   -17863.753            0    9801.0298    50.188413    24.940282     22.98561            0            0            0    28771.392     9946.925    9846.6548    9609.5097   -167.16541   -107.39946    448.72336    50.188413    24.940282     22.98561           90           90           90 
  221500    293.83068   -17869.316   -15628.007   -17869.316            0    9683.2898    49.868372    25.035637    23.041929            0            0            0    28767.536    10454.617    8792.0329    9803.2194    326.65654   -437.22676    225.73965    49.868372    25.035637    23.041929           90           90           90 
  222000    296.33973   -17940.836   -15680.389   -17940.836            0    8946.2027    50.224594    24.956557    22.991833            0            0            0    28818.721    8300.7749    8981.2204    9556.6128   -814.60413   -60.939541    27.493295    50.224594    24.956557    22.991833           90           90           90 
  222500    302.02905   -17843.922   -15540.077   -17843.922            0    8755.7595    49.810553    25.054033    23.151849            0            0            0    28892.471    9818.2276    8211.5368     8237.514    94.742497    550.04648   -1004.8749    49.810553    25.054033    23.151849           90           90           90 
  223000    296.27367   -17818.617   -15558.673   -17818.617            0     8954.354    50.245218    25.005349    22.979616            0            0            0    28871.571    8762.6028    8689.1679    9411.2913    467.93428   -312.46649    551.63767    50.245218    25.005349    22.979616           90           90           90 
  223500    300.01823   -17831.732   -15543.225   -17831.732            0    9559.8015     49.99578    25.029404    23.033043            0            0            0    28822.733    10274.525    9320.5309    9084.3487   -151.41061    457.54163   -501.49549     49.99578    25.029404    23.033043           90           90           90 
  224000    297.17993   -17801.776   -15534.919   -17801.776            0    10344.864    49.993639     24.97016    23.022618            0            0            0    28740.266    9643.7943    10823.814    10566.983    14.519709     326.9131    587.96566    49.993639     24.97016    23.022618           90           90           90 
  224500    302.57613   -17921.741   -15613.722   -17921.741            0    10229.326    49.971634     25.00696    22.976038            0            0            0    28711.745    10213.931    9935.9961    10538.053   -266.61947   -1397.0938    781.37369    49.971634     25.00696    22.976038           90           90           90 
  225000    309.48104   -17897.664   -15536.975   -17897.664            0    10887.171    50.011675    24.937845    22.940432            0            0            0    28610.926    10140.831    11138.045    11382.637   -343.77467    362.93519    913.30386    50.011675    24.937845    22.940432           90           90           90 
  225500    302.34149   -17828.493   -15522.265   -17828.493            0    11359.761    49.957186     24.90923     23.03013            0            0            0    28658.579    12254.864    11113.467    10710.951    70.602145   -526.21887   -145.99532    49.957186     24.90923     23.03013           90           90           90 
  226000    294.16274   -17890.337   -15646.495   -17890.337            0    10830.827    49.901721    25.003623    22.989587            0            0            0    28684.655    11169.765    10084.082    11238.634    145.14551   -532.09208    368.99105    49.901721    25.003623    22.989587           90           90           90 
  226500    299.75371   -17884.721   -15598.232   -17884.721            0    10513.825    50.043289    24.909942    23.043206            0            0            0    28725.095    10095.511    10794.234    10651.729    -384.5193    184.80941   -661.45813    50.043289    24.909942    23.043206           90           90           90 
  227000     299.0709   -17844.506   -15563.226   -17844.506            0    10315.203    49.883736    25.086083    22.968628            0            0            0    28742.654     10717.23     9078.668    11149.711   -585.73263   -946.68499    294.99875    49.883736    25.086083    22.968628           90           90           90 
  227500    299.56988   -17869.129   -15584.042   -17869.129            0    9505.8338    50.151663    24.932255    23.013021            0            0            0    28775.345      9209.06    9276.8052    10031.636    83.088446   -448.07952    26.003447    50.151663    24.932255    23.013021           90           90           90 
  228000    308.88936    -17855.09   -15498.915    -17855.09            0    9554.3091    49.764667     25.03142    23.120053            0            0            0    28800.194    10339.394    9487.2477    8836.2859    171.63313    636.72287    350.51645    49.764667     25.03142    23.120053           90           90           90 
  228500    301.91652   -17855.664   -15552.677   -17855.664            0    9917.2898    50.317567    24.963659    22.921681            0            0            0    28792.166    8597.7858    10770.342    10383.742       149.24   -183.26344    -431.3219    50.317567    24.963659    22.921681           90           90           90 
  229000    299.07658   -17834.344    -15553.02   -17834.344            0    9738.1137    49.742466    25.072131    23.105706            0            0            0    28816.272    11140.653    9540.1413    8533.5466    468.07264   -291.10275    908.96127    49.742466    25.072131    23.105706           90           90           90 
  229500     295.5554   -17833.817   -15579.352   -17833.817            0    9906.5543    50.136864    24.904348    23.044317            0            0            0    28773.731    9308.7716    10437.583    9973.3087    156.07585    524.67636    195.92805    50.136864    24.904348    23.044317           90           90           90 
  230000    295.17057   -17881.936   -15630.407   -17881.936            0    9191.1539    49.976969    25.094282    23.010306            0            0            0    28858.056    9482.5178    8718.1325    9372.8114   -46.143745   -336.89749    507.84779    49.976969    25.094282    23.010306           90           90           90 
  230500    300.33437   -17895.128   -15604.209   -17895.128            0    9005.0392    50.072679    24.943114    23.089078            0            0            0    28837.532    8632.3654    9016.3992    9366.3529    50.456301    -954.9373   -46.880339    50.072679    24.943114    23.089078           90           90           90 
  231000    298.23009   -17788.206   -15513.339   -17788.206            0     10162.99    50.011952    25.077319     22.97081            0            0            0      28809.2     9997.202     9532.593    10959.176   -514.65354    477.75828    -312.2574    50.011952    25.077319     22.97081           90           90           90 
  231500    304.00506   -17932.351   -15613.433   -17932.351            0    10323.839    50.125277    24.889709     22.97277            0            0            0    28660.909    9723.3274    10373.042    10875.146    93.081683    8.4836428    110.70718    50.125277    24.889709     22.97277           90           90           90 
  232000    299.38044   -17880.728   -15597.086   -17880.728            0    10482.551    49.598376    24.949437     23.20567            0            0            0    28715.892    12422.356    9747.6209    9277.6753   -283.95793   -294.71713   -1116.4256    49.598376    24.949437     23.20567           90           90           90 
  232500    295.12242   -17874.634   -15623.472   -17874.634            0    10125.628    50.183903    25.031059     22.85158            0            0            0    28705.155    9335.8197     10886.24    10154.825    440.27275    410.84265    190.09238    50.183903    25.031059     22.85158           90           90           90 
  233000    295.91164   -17811.697   -15554.515   -17811.697            0    10680.342    49.920643    24.914692    23.080204            0            0            0    28706.176    10471.798    10942.666    10626.562    162.22075   -309.13714   -783.02534    49.920643    24.914692    23.080204           90           90           90 
  233500    297.29649   -17847.989   -15580.244   -17847.989            0    10155.732    50.047451    24.985232    23.005654            0            0            0    28767.355    9932.3783    9883.2065    10651.611    304.61157    214.63327    15.006731    50.047451    24.985232    23.005654           90           90           90 
  234000     305.4616   -17896.961   -15566.933   -17896.961            0    10286.904    50.068567    25.019197    22.945572            0            0            0    28743.352     9481.621    10875.802    10503.289   -483.95016   -108.54973    201.38335    50.068567    25.019197    22.945572           90           90           90 
  234500    295.08871   -17914.416   -15663.511   -17914.416            0    10284.792    49.872401    24.934034     23.09884            0            0            0    28723.872    10902.541    10266.454    9685.3794   -922.19132    112.11813    -359.9181    49.872401    24.934034     23.09884           90           90           90 
  235000     292.7994   -17895.771   -15662.329   -17895.771            0    10297.081    50.062885    25.007913    22.928932            0            0            0    28706.296    10311.571     10670.16    9909.5126    345.45487    137.25123   -539.14075    50.062885    25.007913    22.928932           90           90           90 
  235500    303.72957   -17832.576    -15515.76   -17832.576            0    10652.566    49.896517    25.029055    23.024168            0            0            0    28754.024    11394.551    9844.3357    10718.812   -178.82544    204.70108   -404.11223    49.896517    25.029055    23.024168           90           90           90 
  236000    300.60965   -17929.685   -15636.667   -17929.685            0    10378.119    50.058105    24.835977    23.046103            0            0            0    28651.882    10224.302    11040.827    9869.2286   -297.15226   -102.85367   -711.30445    50.058105    24.835977    23.046103           90           90           90 
  236500    295.80255   -17822.367   -15566.017   -17822.367            0    10760.182    49.894939    25.096394    22.892774            0            0            0    28665.943    10565.937    10830.911    10883.697   -159.45322    197.53585    461.41662    49.894939    25.096394    22.892774           90           90           90 
  237000     301.6346   -17921.475   -15620.639   -17921.475            0    10842.897    50.114735    24.760361    23.076335            0            0            0    28634.476     9433.127     13215.56    9880.0031    334.63483   -698.04714     128.3709    50.114735    24.760361    23.076335           90           90           90 
  237500    293.82763    -17880.82   -15639.534    -17880.82            0     10928.23    49.878402    25.023401    22.951602            0            0            0     28646.52     10332.81      11129.2     11322.68    84.291396   -288.67297    19.515463    49.878402    25.023401    22.951602           90           90           90 
  238000    301.64374   -17836.561   -15535.655   -17836.561            0    10027.604    50.169772    24.928935    22.997639            0            0            0    28762.663     9934.933    10209.734    9938.1462    329.76644     127.7024    -188.8579    50.169772    24.928935    22.997639           90           90           90 
  238500    301.11659   -17909.552   -15612.667   -17909.552            0    9925.7378    49.869023    25.034887    23.032418            0            0            0    28755.175     11346.75    8850.2019    9580.2617   -599.97024   -142.37539   0.34722132    49.869023    25.034887    23.032418           90           90           90 
  239000    298.18916   -17881.704   -15607.149   -17881.704            0    10194.038    50.122868    24.875778    23.035221            0            0            0    28721.359    9577.0417    11198.695    9806.3779   -156.16174    230.70123    770.30977    50.122868    24.875778    23.035221           90           90           90 
  239500    303.08054   -17853.758   -15541.892   -17853.758            0    10763.558    49.879225    25.040846     22.95308            0            0            0    28668.809    11547.839    10163.599    10579.236    376.62656   -201.03423   -90.862328    49.879225    25.040846     22.95308           90           90           90 
  240000     300.1258   -17860.897   -15571.569   -17860.897            0    10322.536      50.0861    24.891889    23.037468            0            0            0    28721.679    10165.945     11140.24     9661.423   -101.76145   -59.805203    384.33348      50.0861    24.891889    23.037468           90           90           90 
  240500    300.91658   -17869.033   -15573.674   -17869.033            0    9615.4606    49.964911    25.026627    23.049338            0            0            0    28822.118    10291.507    9113.7609    9441.1142   -833.55627   -694.57868   -1108.5372    49.964911    25.026627    23.049338           90           90           90 
  241000     304.4551   -17889.516   -15567.165   -17889.516            0    9424.1121    49.970427    25.064553     23.00581            0            0            0    28814.465    9066.5204    9728.1965    9477.6192    274.49091    506.04265   -471.58233    49.970427    25.064553     23.00581           90           90           90 
  241500    308.94559   -17831.555   -15474.952   -17831.555            0    10008.505    50.135473    24.917009    23.092365            0            0            0    28847.583    9769.3776    10404.091    9852.0453   -745.20407    164.01368     532.6202    50.135473    24.917009    23.092365           90           90           90 
  242000    299.99272   -17842.734   -15554.422   -17842.734            0    10064.312    49.860894    25.090393    23.013844            0            0            0    28790.996    10952.339     8767.578    10473.019    777.65569    429.80108    285.57174    49.860894    25.090393    23.013844           90           90           90 
  242500    303.65528   -17804.261   -15488.011   -17804.261            0     9913.774    50.181425    24.950002    23.025152            0            0            0    28828.104    9384.6857     10062.99    10293.647    11.599782    316.56779   -497.03663    50.181425    24.950002    23.025152           90           90           90 
  243000    305.25362   -17878.284   -15549.842   -17878.284            0    9610.1878    49.733843    25.072941     23.13997            0            0            0    28854.933    10844.281     9412.649    8573.6332   -128.91792   -689.08124    452.03644    49.733843    25.072941     23.13997           90           90           90 
  243500    291.79085   -17871.176   -15645.427   -17871.176            0     10426.69    50.275561    24.907412    22.938819            0            0            0    28724.772    9245.7765    11146.004     10888.29    -63.58466    174.02243     49.71707    50.275561    24.907412    22.938819           90           90           90 
  244000    297.10883   -17856.359   -15590.044   -17856.359            0    10319.973    49.702588    25.083568     23.02866            0            0            0    28710.251    11624.045    9423.1653     9912.709   -101.80892   -855.98306    129.00296    49.702588    25.083568     23.02866           90           90           90 
  244500    306.94523   -17794.902   -15453.556   -17794.902            0    10126.846    50.119824     24.88846    23.057801            0            0            0    28762.422    10308.217    10534.974     9537.347   -783.66132    21.756502   -546.18315    50.119824     24.88846    23.057801           90           90           90 
  245000    309.37268   -17862.867   -15503.006   -17862.867            0    10153.939    49.950441    25.022568    22.997779            0            0            0    28744.654    10498.873    9234.0752    10728.869   -140.79226    131.68633   -148.12981    49.950441    25.022568    22.997779           90           90           90 
  245500    302.83955   -17796.659   -15486.631   -17796.659            0    10507.817    49.988279    24.943272    23.033943            0            0            0    28720.361    10361.561    11142.887    10019.003   -60.849075    547.34233    84.015667    49.988279    24.943272    23.033943           90           90           90 
  246000    303.94233   -17899.718   -15581.278   -17899.718            0    10148.108    50.057234    25.007728    22.965322            0            0            0    28748.397    9557.7803     10313.94    10572.605     77.56851     27.85054    977.86641    50.057234    25.007728    22.965322           90           90           90 
  246500    304.99119   -17938.635   -15612.195   -17938.635            0    9543.0847    49.927409    25.000243     23.08096            0            0            0    28809.593    9466.1234    9926.1304    9237.0001    283.05248    409.11405    2.6871477    49.927409    25.000243     23.08096           90           90           90 
  247000    308.64923   -17889.769   -15535.426   -17889.769            0    9278.6745    50.267374    24.914676     23.02313            0            0            0    28834.061    8282.6798    10363.375     9189.969    856.39008     414.2062    668.50453    50.267374    24.914676     23.02313           90           90           90 
  247500    302.17421   -17908.098   -15603.145   -17908.098            0    10109.293    49.807652    25.168639    22.902177            0            0            0    28709.958    10936.396    8719.6615    10671.822    290.48719   -300.46933    -485.4734    49.807652    25.168639    22.902177           90           90           90 
  248000    296.66974   -17896.969   -15634.004   -17896.969            0    10050.461    50.109544    24.863085    23.054015            0            0            0    28722.487    9353.6835    11052.297     9745.402     52.60017   -992.86008   -130.34713    50.109544    24.863085    23.054015           90           90           90 
  248500    299.33328    -17892.42   -15609.138    -17892.42            0    9743.3766     49.89449    25.060471    22.992269            0            0            0    28749.061    10415.816    9265.2802    9549.0337   -96.693756    714.89458   -734.14408     49.89449    25.060471    22.992269           90           90           90 
  249000    301.27142   -17907.854   -15609.788   -17907.854            0    10244.202    50.102263    24.889815    23.008592            0            0            0    28692.544    10571.598    10477.396    9683.6129    507.78317    73.722424    208.93143    50.102263    24.889815    23.008592           90           90           90 
  249500    307.73872   -17981.939   -15634.541   -17981.939            0    10689.027    49.853299    25.040069    22.960796            0            0            0    28662.651    11899.265    8814.1556     11353.66    93.684827    95.044439    263.15598    49.853299    25.040069    22.960796           90           90           90 
  250000    307.21711   -17801.964   -15458.544   -17801.964            0    10017.316    50.115254    24.901907    23.080427            0            0            0    28803.574    9035.0054    10559.265    10457.677    420.27937    107.94779   -260.42292    50.115254    24.901907    23.080427           90           90           90 
  250500    308.02468   -17879.324   -15529.744   -17879.324            0    10331.323    49.934321    25.065557    22.934828            0            0            0    28705.954    10420.479    9438.2743    11135.214    1006.6677   -42.003724   -367.55582    49.934321    25.065557    22.934828           90           90           90 
  251000    310.52652   -17873.327   -15504.664   -17873.327            0    10315.113    50.053709    24.961256    23.005756            0            0            0    28743.471    10071.178    10459.112    10415.049    -271.0755    173.99022    301.87583    50.053709    24.961256    23.005756           90           90           90 
  251500    301.62995   -17838.643   -15537.842   -17838.643            0    10709.397    49.946308    24.949486    23.020036            0            0            0    28686.066    10679.405    10545.289    10903.497    272.88519   -803.16647   -429.48935    49.946308    24.949486    23.020036           90           90           90 
  252000    298.91054   -17917.255   -15637.197   -17917.255            0    10428.203    49.872833    25.014506    22.959273            0            0            0     28642.71    11221.117    9340.2016     10723.29    385.08424   -211.42169   -756.86987    49.872833    25.014506    22.959273           90           90           90 
  252500    302.30548   -17857.529   -15551.575   -17857.529            0    10253.345    50.101217    24.950566    23.010684            0            0            0    28764.591    9147.3111    10753.905    10858.818   -59.179763   -377.20429   -695.00183    50.101217    24.950566    23.010684           90           90           90 
  253000    296.11773   -17887.069   -15628.314   -17887.069            0    9818.4077    49.942149    25.028678    23.015215            0            0            0    28768.696    10119.014    9054.8314    10281.378    414.97738    13.225988    312.16687    49.942149    25.028678    23.015215           90           90           90 
  253500    306.57115    -17865.48   -15526.988    -17865.48            0    9887.6744    50.056549    24.966804    22.995528            0            0            0    28738.708    10180.754    8974.5715    10507.698     526.6252    273.74499    480.39014    50.056549    24.966804    22.995528           90           90           90 
  254000    297.87377   -17856.473   -15584.323   -17856.473            0    10863.583    49.885548    24.938447    23.045884            0            0            0     28670.65     11290.39    10676.303    10624.057    484.99343     942.4698   -647.60933    49.885548    24.938447    23.045884           90           90           90 
  254500    307.81381   -17834.827   -15486.857   -17834.827            0    10123.875     50.09851    24.986772    22.958068            0            0            0    28738.911    10445.763    9825.3536    10100.508   -141.43774    555.26662    280.39025     50.09851    24.986772    22.958068           90           90           90 
  255000    298.17577   -17838.817   -15564.364   -17838.817            0    9984.2089    49.998869    24.986979    23.038912            0            0            0     28782.99    9604.2463    10513.125    9835.2549    384.06787    642.07017    405.91075    49.998869    24.986979    23.038912           90           90           90 
  255500    296.54918   -17878.886    -15616.84   -17878.886            0     9751.986    50.036005     24.96631    23.035958            0            0            0    28776.851    10088.938    9526.8265    9640.1937    148.54227   -265.64311 -0.048646323    50.036005     24.96631    23.035958           90           90           90 
  256000    302.08769   -17815.194   -15510.902   -17815.194            0    9115.3912    50.109359     25.06863    22.996657            0            0            0    28887.779    9439.2471    9620.1812    8286.7453    415.30623   -191.08942    91.178141    50.109359     25.06863    22.996657           90           90           90 
  256500    295.50531   -17838.632    -15584.55   -17838.632            0    9377.4143    49.959849    25.023754    23.089303            0            0            0    28865.854    8340.1841    10039.799    9752.2597   -149.24013   -310.51909    58.801169    49.959849    25.023754    23.089303           90           90           90 
  257000      299.995   -17895.046   -15606.717   -17895.046            0    8354.3562    50.125056    24.983087    23.070514            0            0            0    28890.712    8369.3345    8209.2433    8484.4907   -129.23436   -579.72699    239.78061    50.125056    24.983087    23.070514           90           90           90 
  257500    289.35638   -17861.697   -15654.517   -17861.697            0    8514.1185    50.091091    25.082549    23.015011            0            0            0    28916.342    8284.1755    7753.3287    9504.8514    269.10298    520.99754   -474.31351    50.091091    25.082549    23.015011           90           90           90 
  258000    294.56487   -17898.995   -15652.086   -17898.995            0    8256.0744    50.057755    24.979694    23.140164            0            0            0    28935.096    8092.1229    9180.0536    7496.0467    -230.2475    334.30658    615.54272    50.057755    24.979694    23.140164           90           90           90 
  258500    302.68778   -17901.667   -15592.797   -17901.667            0    9249.0792    50.074367    25.072352    22.990281            0            0            0    28863.887    8872.0665    9207.7723    9667.3989    304.79519     374.8868    803.86871    50.074367    25.072352    22.990281           90           90           90 
  259000     294.4263    -17881.79   -15635.938    -17881.79            0     9388.462    50.038668    24.996806    23.031682            0            0            0    28808.186    9542.5066    9101.6855    9521.1938   -56.253121     359.1419    192.19134    50.038668    24.996806    23.031682           90           90           90 
  259500    295.45132   -17897.971     -15644.3   -17897.971            0    9769.1354    49.919962    24.929861    23.081077            0            0            0    28724.348      9235.21    10637.863    9434.3332    189.58747   -52.010321   -346.20609    49.919962    24.929861    23.081077           90           90           90 
  260000    299.31953   -17958.303   -15675.126   -17958.303            0    10100.935    49.957157    25.019965    22.946382            0            0            0    28681.287    9561.5637     10249.48    10491.763   -277.64163   -304.84899    346.63278    49.957157    25.019965    22.946382           90           90           90 
  260500    302.21111   -17897.546   -15592.312   -17897.546            0    10525.831    49.960978    24.903279    23.062666            0            0            0    28694.389     10474.11    10106.335    10997.048    455.01103   -509.18541    -73.24413    49.960978    24.903279    23.062666           90           90           90 
  261000    297.38246   -17902.632    -15634.23   -17902.632            0    10570.441    49.893593    25.018641    22.973293            0            0            0     28676.87     11210.71    9466.3051     11034.31   -181.23034    338.46214    369.30611    49.893593    25.018641    22.973293           90           90           90 
  261500    302.22913    -17847.48   -15542.108    -17847.48            0    11137.419    50.037904    24.907731    22.973444            0            0            0    28632.508    10709.773    11162.264     11540.22    288.19833   -418.80187    5.5253245    50.037904    24.907731    22.973444           90           90           90 
  262000     301.6585   -17822.307   -15521.288   -17822.307            0     12110.57    49.772911    24.949183     22.99201            0            0            0    28551.327    12459.183    11194.911    12677.616     108.9353    361.42238    115.75738    49.772911    24.949183     22.99201           90           90           90 
  262500    302.44583   -17914.936   -15607.911   -17914.936            0    11536.054    50.007208     24.93238    22.919493            0            0            0    28575.994    11968.109    11469.648    11170.406    255.59555    1386.3136   -135.43088    50.007208     24.93238    22.919493           90           90           90 
  263000    304.48054   -17779.169   -15456.624   -17779.169            0    11442.972    49.954709    24.968273    23.024234            0            0            0    28717.732    12144.664    10924.986    11259.267    51.522052    -138.8487    168.57885    49.954709    24.968273    23.024234           90           90           90 
  263500    303.78482   -17792.796   -15475.558   -17792.796            0    11122.619     50.03474    24.961099    23.000553            0            0            0    28725.899    11069.377    11354.856    10943.625    -31.52079    102.35546   -258.04532     50.03474    24.961099    23.000553           90           90           90 
  264000    298.91128   -17880.167   -15600.104   -17880.167            0     10397.58    49.963137    24.991856    23.019588            0            0            0    28743.904    10663.741      10067.3      10461.7   -315.48968   -389.56756    115.41593    49.963137    24.991856    23.019588           90           90           90 
  264500    300.68971   -17934.281   -15640.652   -17934.281            0    10356.641    49.983967    24.921665     23.04138            0            0            0    28702.272    10104.256    11014.844    9950.8233   -215.64806    635.64161    143.59518    49.983967    24.921665     23.04138           90           90           90 
  265000    306.31283   -17920.654   -15584.132   -17920.654            0     10045.46    49.995259    25.064671    22.914581            0            0            0    28714.598    10239.974     9272.154    10624.251    17.000067   -379.97616    152.77757    49.995259    25.064671    22.914581           90           90           90 
  265500    298.46397    -17913.42   -15636.769    -17913.42            0    9998.7707    49.963412    24.889854    23.129297            0            0            0    28763.178     9506.592    10585.246    9904.4745   -216.40817   -18.923694    -164.5905    49.963412    24.889854    23.129297           90           90           90 
  266000     291.2379   -17870.239   -15648.707   -17870.239            0    9911.2327    50.131127    25.046809    22.871654            0            0            0    28718.215      9689.06    9950.6346    10094.003   -227.52579   -170.68467    738.61463    50.131127    25.046809    22.871654           90           90           90 
  266500    302.86579   -17825.636   -15515.408   -17825.636            0    10031.749    49.938917    24.988538    23.073615            0            0            0    28793.577    10127.661     10586.73    9380.8554     417.3639   -125.48927   -643.38761    49.938917    24.988538    23.073615           90           90           90 
  267000    302.45312   -17821.158   -15514.078   -17821.158            0    10749.311    49.878267    24.939559    23.092736            0            0            0    28726.025    10551.346    11160.246    10536.342   -218.58898    282.03091     54.49756    49.878267    24.939559    23.092736           90           90           90 
  267500    295.82291   -17853.076   -15596.571   -17853.076            0    10660.745    50.103148    25.040816    22.873816            0            0            0    28698.032    10297.251    10018.522    11666.462    8.0313076   -917.87889    183.67842    50.103148    25.040816    22.873816           90           90           90 
  268000    293.08224   -17862.653   -15627.053   -17862.653            0    10742.539    49.856421    24.886746    23.120067            0            0            0    28686.549    10933.046    10933.353    10361.218    -218.5516    577.10836   -1007.7567    49.856421    24.886746    23.120067           90           90           90 
  268500    307.26928   -17953.439   -15609.622   -17953.439            0    10023.659    50.058107    25.029805    22.917365            0            0            0     28714.19    9182.0929    10222.107    10666.776    18.647249   -246.12119    442.99655    50.058107    25.029805    22.917365           90           90           90 
  269000    301.35105   -17944.786   -15646.112   -17944.786            0    9268.6176    49.989059    24.948319    23.063803            0            0            0    28763.859    9229.9152    9606.9458    8968.9917    239.21067   -772.01264   -115.65997    49.989059    24.948319    23.063803           90           90           90 
  269500    310.26106    -17855.71   -15489.072    -17855.71            0    9555.5638    50.001718    25.033471    23.029984            0            0            0    28827.011    9623.6343    9576.9265    9466.1305   -543.40964    224.35128    6.1518909    50.001718    25.033471    23.029984           90           90           90 
  270000     294.5867    -17840.92   -15593.844    -17840.92            0     10176.67    50.093829    25.044496    22.933135            0            0            0    28771.331    9962.3935    9961.7422    10605.874    194.50908   -172.77621   -594.50201    50.093829    25.044496    22.933135           90           90           90 
  270500    296.21331   -17870.401   -15610.918   -17870.401            0    10086.387    49.903081    24.947193    23.117752            0            0            0    28780.256    10495.889    10288.494     9474.779    377.75543   -399.93357    232.37203    49.903081    24.947193    23.117752           90           90           90 
  271000    293.44925   -17891.372   -15652.972   -17891.372            0    9539.6275    50.130075    25.013347    22.944993            0            0            0    28771.207    9284.4249    9051.5768    10282.881    145.45013   -387.18475   -438.92505    50.130075    25.013347    22.944993           90           90           90 
  271500    306.49736   -17882.054   -15544.125   -17882.054            0     9257.394    50.023722    25.013247    23.052318            0            0            0    28844.344    10133.874    8997.9075    8640.4007   -967.85401    683.88164     928.7781    50.023722    25.013247    23.052318           90           90           90 
  272000    303.29084   -17841.545   -15528.075   -17841.545            0    8803.6117    50.057677    24.975863    23.113752            0            0            0    28897.591    8736.8656    9394.0642    8279.9054   -120.93318   -284.69095   -227.36475    50.057677    24.975863    23.113752           90           90           90 
  272500    300.36803   -17836.793   -15545.618   -17836.793            0    8956.1579    50.188722    25.091678    22.937066            0            0            0    28885.089    9395.7555    8072.8745    9399.8438    -72.93547   -64.655234   -361.49653    50.188722    25.091678    22.937066           90           90           90 
  273000    299.27337   -17861.118   -15578.293   -17861.118            0    9109.8167    49.952613    24.966695    23.171519            0            0            0    28898.398    8816.4199    10401.598    8111.4321    154.59282    485.96517    484.64173    49.952613    24.966695    23.171519           90           90           90 
  273500    298.25843   -17909.416   -15634.333   -17909.416            0    9269.2767    50.085193    25.022843     23.00016            0            0            0    28825.501    8730.9579    9661.9843     9414.888   -206.50226   -285.89623   -579.29021    50.085193    25.022843     23.00016           90           90           90 
  274000    302.65243    -17817.75   -15509.149    -17817.75            0    9850.1429    50.007754    25.033895    23.009567            0            0            0     28805.42    10765.709    9162.3447    9622.3753    244.23154    253.33165    455.72653    50.007754    25.033895    23.009567           90           90           90 
  274500     295.2559   -17857.638   -15605.457   -17857.638            0    9840.3793      49.9533    24.939999    23.090627            0            0            0    28767.117    8971.0367     10514.18    10035.921     160.3242    940.03938    688.07469      49.9533    24.939999    23.090627           90           90           90 
  275000    303.63094   -17876.903   -15560.838   -17876.903            0    9799.2077    50.085413    25.001814    23.004482            0            0            0    28806.815    9637.5299     10003.25    9756.8435    569.88951   -727.17263   -324.00312    50.085413    25.001814    23.004482           90           90           90 
  275500    291.50391   -17895.081    -15671.52   -17895.081            0    9532.7957    50.012072    25.000077    23.022107            0            0            0     28784.67    8405.1468    11234.124    8959.1159    99.926142   -433.19449    149.00298    50.012072    25.000077    23.022107           90           90           90 
  276000    302.31665   -17862.524   -15556.485   -17862.524            0    9133.1358     49.95765    25.021449    23.082728            0            0            0    28853.705    9633.5014    8766.0245    8999.8815    521.50141   -715.11184   -178.59093     49.95765    25.021449    23.082728           90           90           90 
  276500    297.82029   -17904.652   -15632.911   -17904.652            0    8993.9918    50.168257     25.01611    22.967345            0            0            0    28824.354    8336.6073    9580.0754    9065.2926    234.56549   -371.50221   -168.68635    50.168257     25.01611    22.967345           90           90           90 
  277000    302.30276   -17900.218   -15594.285   -17900.218            0    9286.6779    49.918798    24.974668    23.125773            0            0            0    28831.026    9740.6662    9275.5594     8843.808    110.74863   -26.000216    233.50905    49.918798    24.974668    23.125773           90           90           90 
  277500    298.24846   -17928.911   -15653.904   -17928.911            0    10290.952    50.075756    24.979377    22.926599            0            0            0    28677.993    9656.1796    10757.563    10459.112   -172.75872     -122.926   -640.60393    50.075756    24.979377    22.926599           90           90           90 
  278000     300.9441   -17870.144   -15574.575   -17870.144            0    11055.867    49.877403    24.978895    22.989326            0            0            0    28641.998    11198.911    10825.556    11143.133   -245.24216    387.42336    140.49578    49.877403    24.978895    22.989326           90           90           90 
  278500    306.94958   -17822.712   -15481.333   -17822.712            0    11067.874    50.034607    24.901028    23.026678            0            0            0    28689.241     10217.52     11707.83    11278.271   -93.261848    716.60028   -184.89751    50.034607    24.901028    23.026678           90           90           90 
  279000    300.94351   -17798.396   -15502.831   -17798.396            0    11787.778    49.705856    25.069331    22.937556            0            0            0    28582.317     12885.52    11030.463     11447.35    28.161254    671.97963   -111.39023    49.705856    25.069331    22.937556           90           90           90 
  279500    304.13856   -17865.069   -15545.133   -17865.069            0    10916.572    50.142707    24.819762    23.002601            0            0            0    28627.428    10741.792      12499.1    9508.8243   -153.48091   -121.05111    955.88037    50.142707    24.819762    23.002601           90           90           90 
  280000    307.38225   -17796.972   -15452.293   -17796.972            0    10565.859    49.884927    25.028723    22.985671            0            0            0    28698.898    10792.432    9768.3586    11136.786    426.10907   -222.90351   -288.59275    49.884927    25.028723    22.985671           90           90           90 
  280500    307.28701   -17846.312    -15502.36   -17846.312            0    10595.423    49.986298    24.983712    22.975429            0            0            0     28692.71    10737.209     10526.53    10522.531   -419.64439    -347.0826    357.82774    49.986298    24.983712    22.975429           90           90           90 
  281000    300.05474   -17879.214   -15590.428   -17879.214            0    10636.378    49.923858    24.953194    23.021281            0            0            0    28678.985    11197.708    10499.161    10212.264   -489.62245   -404.19534   -356.81133    49.923858    24.953194    23.021281           90           90           90 
  281500    296.12626   -17793.115   -15534.295   -17793.115            0    10946.986    50.027327    25.033991    22.921824            0            0            0    28706.918    10892.539    10499.062    11449.357   -60.554567    -540.0664   -146.54666    50.027327    25.033991    22.921824           90           90           90 
  282000    303.65658   -17870.422   -15554.162   -17870.422            0    9145.6552    49.811696    24.975589    23.138153            0            0            0    28785.631    9427.8516    10120.472    7888.6425   -246.91047    5.2184976   -16.215737    49.811696    24.975589    23.138153           90           90           90 
  282500    296.86158   -17841.518   -15577.089   -17841.518            0    9991.6811    50.178079    24.944339    22.951367            0            0            0    28727.286    9738.3897    10511.744    9724.9101   -533.89067   -917.12511   -16.934046    50.178079    24.944339    22.951367           90           90           90 
  283000    302.53256   -17838.248   -15530.562   -17838.248            0    10184.164    50.021361    25.064929    22.956255            0            0            0    28782.136    9038.2514    10656.449    10857.792    -708.4639    556.26696    1847.7906    50.021361    25.064929    22.956255           90           90           90 
  283500    298.61338   -17918.548   -15640.757   -17918.548            0    9938.1741    49.923662    24.932066    23.092757            0            0            0    28743.555    10220.107    9957.6665    9636.7485   -353.37355   -219.69842    -591.7451    49.923662    24.932066    23.092757           90           90           90 
  284000    307.37955   -17830.406   -15485.748   -17830.406            0    9908.2783    50.176944    25.020305    22.931463            0            0            0    28789.132    10222.978    9353.6219    10148.235   -454.15708   -1101.6359    472.74673    50.176944    25.020305    22.931463           90           90           90 
  284500    306.79175    -17799.69   -15459.516    -17799.69            0    9541.4606    49.917101    25.044873    23.081121            0            0            0    28855.265     9686.862    9972.9692    8964.5507   -326.20853    188.83508   -1105.5139    49.917101    25.044873    23.081121           90           90           90 
  285000    295.72885   -17882.819   -15627.031   -17882.819            0    9319.9187    50.261792    24.902995     23.01917            0            0            0    28812.384    8988.8708    9905.6732    9065.2121   -308.98047    781.32495   -962.71944    50.261792    24.902995     23.01917           90           90           90 
  285500    293.62122   -17860.376   -15620.665   -17860.376            0    9354.0049    49.948288    25.144336    22.951906            0            0            0    28825.678    10121.675    8320.4381    9619.9013    306.42537    459.98003   -739.82446    49.948288    25.144336    22.951906           90           90           90 
  286000    295.66225   -17920.225   -15664.945   -17920.225            0    9800.8574    50.019618    24.925208    23.078815            0            0            0    28773.498    9100.4475    10424.918    9877.2069     376.2773   -1091.5457   -23.043996    50.019618    24.925208    23.078815           90           90           90 
  286500    300.83395   -17844.316   -15549.587   -17844.316            0    9447.7864    50.023304     25.07183    22.976553            0            0            0    28816.635    9456.1833    9293.6758       9593.5    448.55768   -81.505766    619.07469    50.023304     25.07183    22.976553           90           90           90 
  287000    295.98898   -17886.942   -15629.169   -17886.942            0    10155.658    49.942122    24.995387    22.990713            0            0            0    28699.827    10863.802     9878.698     9724.475    340.27905   -593.05888   -413.18459    49.942122    24.995387    22.990713           90           90           90 
  287500    302.36828   -17813.082   -15506.649   -17813.082            0    10590.483    50.044019    24.905488    23.055993            0            0            0    28736.315    10402.758    11418.743    9949.9467   -164.94857    416.94622   -529.04624    50.044019    24.905488    23.055993           90           90           90 
  288000    298.17302   -17948.894   -15674.462   -17948.894            0    11403.808    49.742465    25.043143    22.928213            0            0            0    28561.851    11777.161    10220.134    12214.129   -641.35821   -592.10531   -242.89888    49.742465    25.043143    22.928213           90           90           90 
  288500    298.22234   -17860.065   -15585.257   -17860.065            0    11227.577    50.125992    24.821099    23.000924            0            0            0     28617.34    10607.804    11071.272    12003.654    207.02918   -2.1983177   -535.91599    50.125992    24.821099    23.000924           90           90           90 
  289000    309.60367   -17819.371   -15457.747   -17819.371            0    10774.391    49.754414    25.043071    23.040894            0            0            0     28709.03    11495.646    10356.943    10470.586    373.47617   -829.22999   -68.374023    49.754414    25.043071    23.040894           90           90           90 
  289500    296.04577   -17883.607   -15625.401   -17883.607            0    10557.995    50.083012     24.92556    22.987051            0            0            0    28695.819     10347.83    10815.075    10511.079    9.6275839    710.27708    51.023602    50.083012     24.92556    22.987051           90           90           90 
  290000    303.56487   -17854.872   -15539.312   -17854.872            0    10730.044    49.948387    25.002586    22.993534            0            0            0    28715.218    11672.386    10155.086    10362.659    580.33747   -114.61173   -657.19558    49.948387    25.002586    22.993534           90           90           90 
  290500    299.41506   -17896.279   -15612.373   -17896.279            0    10350.563    49.962119    24.986173    22.986068            0            0            0    28694.936    10294.621    10349.408    10407.659   -462.12899   -701.35372   -90.024745    49.962119    24.986173    22.986068           90           90           90 
  291000    294.98636   -17743.545    -15493.42   -17743.545            0    10955.336    50.023707    24.953415    23.034694            0            0            0    28753.341    11015.277    10726.025    11124.707   -193.06434    467.86456   -137.76815    50.023707    24.953415    23.034694           90           90           90 
  291500    306.43919   -17838.414   -15500.928   -17838.414            0    10672.889    49.944339    24.985223    23.009066            0            0            0    28712.334    10634.508    10819.962    10564.199    188.08835   -1099.3319   -326.96785    49.944339    24.985223    23.009066           90           90           90 
  292000     300.5968   -17865.407   -15572.487   -17865.407            0     11446.19    49.991529    24.907956    22.972706            0            0            0    28605.311    10008.451    13259.085    11071.034     344.4767    398.29138   -357.97088    49.991529    24.907956    22.972706           90           90           90 
  292500    294.79985   -17846.615   -15597.913   -17846.615            0    11219.575    49.777273    25.012058    22.983747            0            0            0    28615.502    12286.413    10676.899    10695.413   -204.57104     455.0069    1054.2624    49.777273    25.012058    22.983747           90           90           90 
  293000    297.10966   -17892.281    -15625.96   -17892.281            0    11602.499    49.976987    24.897261    22.970025            0            0            0    28581.375    11448.484    11573.514      11785.5   -514.18605    570.57514   -310.40744    49.976987    24.897261    22.970025           90           90           90 
  293500    301.30339   -17848.603   -15550.293   -17848.603            0    10292.531    49.962809    24.979822    22.993253            0            0            0    28697.008    10225.961    10194.018    10457.614    0.6906935   -943.55654    351.07966    49.962809    24.979822    22.993253           90           90           90 
  294000    305.30649   -17884.772   -15555.927   -17884.772            0    9770.3547    50.001383    24.958235    23.078828            0            0            0    28801.137    9915.2557    9877.3583    9518.4501    56.359863    270.46682   -295.65446    50.001383    24.958235    23.078828           90           90           90 
  294500     305.8915   -17824.703   -15491.396   -17824.703            0    9461.6444    50.033847    25.022654    23.041649            0            0            0    28847.675    8635.1678      9869.58    9880.1853   -904.92071    -95.73994   -253.39981    50.033847    25.022654    23.041649           90           90           90 
  295000     303.7468   -17804.518    -15487.57   -17804.518            0    10420.182    50.081191    24.938704    23.057996            0            0            0    28798.514     9945.744    10907.296    10407.504    44.157317    139.78543     623.3173    50.081191    24.938704    23.057996           90           90           90 
  295500    298.99609   -17881.495   -15600.785   -17881.495            0    9602.3865    50.046969    25.044608    22.989305            0            0            0    28814.949    9603.3153    9818.7225    9385.1216    108.71403    256.60184    -78.31733    50.046969    25.044608    22.989305           90           90           90 
  296000    297.82919   -17827.531   -15555.722   -17827.531            0    9718.3809     50.16044     24.97824    23.023446            0            0            0    28846.526    8607.9298    10578.987    9968.2257    553.66044   -348.78945    183.34248     50.16044     24.97824    23.023446           90           90           90 
  296500     296.2084   -17917.238   -15657.793   -17917.238            0    9948.8666    49.739348    25.028885    23.092897            0            0            0    28748.819    11511.115    9220.8819    9114.6035   -59.074282     113.0034    172.19433    49.739348    25.028885    23.092897           90           90           90 
  297000    296.29573   -17901.045   -15640.933   -17901.045            0    9855.2777    50.267946    24.930522    22.925071            0            0            0     28729.84    9315.4346    10092.258     10158.14    686.85472    327.22124    68.492978    50.267946    24.930522    22.925071           90           90           90 
  297500    297.49964   -17816.347   -15547.051   -17816.347            0    10049.832    49.911329    25.072742    22.976776            0            0            0    28753.457    10491.021    9834.3425    9824.1329   -548.77501    711.53564   -391.40884    49.911329    25.072742    22.976776           90           90           90 
  298000     290.9366   -17891.427   -15672.194   -17891.427            0    10346.946    50.002765    24.915564    23.038413            0            0            0    28702.339    10742.633     9944.477    10353.727    271.14794    60.534299   -569.34335    50.002765    24.915564    23.038413           90           90           90 
  298500    302.53319   -17901.393   -15593.702   -17901.393            0    9940.3353    50.006424    24.983909     22.97712            0            0            0    28706.601    9322.2136    10240.857    10257.936   -411.91128   -258.80783   -4.6240426    50.006424    24.983909     22.97712           90           90           90 
  299000    296.12938   -17866.527   -15607.683   -17866.527            0    11053.588    49.848672    25.011917     22.98138            0            0            0    28653.434     12625.37    9950.2843     10585.11    453.77645    923.49501    326.70353    49.848672    25.011917     22.98138           90           90           90 
  299500     295.7097   -17893.568   -15637.926   -17893.568            0    10750.955    50.087219    24.870521    23.002872            0            0            0    28654.568    10560.221    11188.088    10504.555     -394.758    193.76623    55.005273    50.087219    24.870521    23.002872           90           90           90 
  300000    303.24743   -17803.416   -15490.277   -17803.416            0    11675.492    49.888463    25.080787    22.914704            0            0            0    28671.839    12535.018    10479.018    12012.441    146.22808   -613.78659    405.07501    49.888463    25.080787    22.914704           90           90           90 
  300500    305.90887   -17899.868   -15566.428   -17899.868            0    11100.036    50.035506    24.821939    23.071881            0            0            0    28654.775    10423.197    12817.762    10059.149   -560.86579    249.00833    105.05563    50.035506    24.821939    23.071881           90           90           90 
  301000    294.37933   -17822.267   -15576.773   -17822.267            0    11236.448    49.823582    25.031774    22.964294            0            0            0     28640.44    11904.956    11070.481    10733.907    321.02002    370.37633    408.04838    49.823582    25.031774    22.964294           90           90           90 
  301500    303.14988   -17908.556   -15596.161   -17908.556            0    11025.776    49.958901    24.945157    22.955581            0            0            0    28607.995    12103.458     10362.54    10611.331      37.5312   -351.11388    64.148919    49.958901    24.945157    22.955581           90           90           90 
  302000    305.43745   -17919.612   -15589.767   -17919.612            0    10214.829     49.94931    24.941289    23.048998            0            0            0    28714.446    10132.299     9892.737    10619.452      409.115   -26.239241    349.67443     49.94931    24.941289    23.048998           90           90           90 
  302500    288.42797   -17905.076   -15704.978   -17905.076            0    9951.5246    50.029584    24.986705    22.981185            0            0            0    28728.192    9991.6576    10271.398    9591.5179    1.3350607   -633.74393    464.93462    50.029584    24.986705    22.981185           90           90           90 
  303000    299.45679   -17885.866   -15601.642   -17885.866            0    9253.1313    50.131236    24.982529     22.98453            0            0            0    28785.941    10026.457    8718.4989    9014.4384   -218.76377   -184.92595    187.11721    50.131236    24.982529     22.98453           90           90           90 
  303500    304.54511   -17859.595   -15536.557   -17859.595            0    9257.1909    49.835155    25.057728    23.096963            0            0            0    28842.466    9757.9781    9139.0017    8874.5931      190.881    682.21291    466.79931    49.835155    25.057728    23.096963           90           90           90 
  304000    299.18508   -17903.808   -15621.657   -17903.808            0    9920.2761    50.215484    24.862333    23.020205            0            0            0     28740.13    8728.2909    11133.353    9899.1842    277.93631   -57.942406    99.620012    50.215484    24.862333    23.020205           90           90           90 
  304500    299.00387   -17873.474   -15592.705   -17873.474            0    10307.379    49.846383    25.105711     22.94058            0            0            0    28708.505    11812.232    9204.8029    9905.1014    584.56869    593.22511   -828.98944    49.846383    25.105711     22.94058           90           90           90 
  305000    301.20208   -17828.093   -15530.556   -17828.093            0    10152.751    50.052356    24.873078    23.081644            0            0            0    28735.635    10535.099     10161.28     9761.874    140.86116    -417.1148   -287.09268    50.052356    24.873078    23.081644           90           90           90 
  305500    305.91478   -17861.562   -15528.077   -17861.562            0     10819.58    49.845014    25.029928    22.957086            0            0            0    28641.654    10965.591    10869.634    10623.514   -74.892422   -710.63305   -213.94761    49.845014    25.029928    22.957086           90           90           90 
  306000    302.48306   -17897.127   -15589.819   -17897.127            0    11063.287    50.006159    24.914537    22.979898            0            0            0    28630.202    10061.994     11414.03    11713.838    124.41807   -181.00592   -596.54706    50.006159    24.914537    22.979898           90           90           90 
  306500    301.47688   -17870.128   -15570.495   -17870.128            0    10788.341    49.940788    24.932838    23.015259            0            0            0    28657.807    10999.851    10905.609    10459.564    26.922596   -221.07972     74.52351    49.940788    24.932838    23.015259           90           90           90 
  307000    306.90565   -17887.959   -15546.915   -17887.959            0    10576.235    49.972081    25.012886    22.998278            0            0            0    28746.605    10142.904    10861.779    10724.021   -297.27849    270.15267   -124.15144    49.972081    25.012886    22.998278           90           90           90 
  307500    296.57575    -17853.71   -15591.462    -17853.71            0     10924.53    49.960533    24.947121    22.984359            0            0            0    28647.049    10156.651    11770.197    10846.743   -581.49588   -174.33803   -230.17835    49.960533    24.947121    22.984359           90           90           90 
  308000    304.59561   -17887.689   -15564.266   -17887.689            0    10961.056    49.766936    24.862216    23.108787            0            0            0    28592.879    11209.987    11248.514    10424.665   -370.55798   -1158.5516   -43.919817    49.766936    24.862216    23.108787           90           90           90 
  308500    307.63955   -17876.035   -15529.393   -17876.035            0    10662.523    50.110235    24.969171    22.913269            0            0            0    28669.335    9968.7799    10386.355    11632.435   -1053.7862   -1004.5167    -422.1006    50.110235    24.969171    22.913269           90           90           90 
  309000    302.17388   -17866.692   -15561.742   -17866.692            0    10064.033    49.945667     25.04404    22.999667            0            0            0    28768.933    10260.249    9430.3992     10501.45    6.2511513    330.66369    100.30384    49.945667     25.04404    22.999667           90           90           90 
  309500    302.87745   -17840.322   -15530.005   -17840.322            0    9462.2885    50.079327     24.88671    23.125586            0            0            0    28821.641    8645.9108    10278.836    9462.1192   -499.75708    214.53999    -772.5784    50.079327     24.88671    23.125586           90           90           90 
  310000    300.55312   -17826.528   -15533.941   -17826.528            0    10009.293    50.021303     25.08936    22.919486            0            0            0    28764.011    10149.244    9889.7748    9988.8603    433.54045   -217.85208    608.53271    50.021303     25.08936    22.919486           90           90           90 
  310500    308.21534   -17780.739   -15429.705   -17780.739            0    10193.635    50.082313    24.932361    23.086634            0            0            0    28827.594     9386.396    10334.266    10860.244   -273.50311    326.78267      914.784    50.082313    24.932361    23.086634           90           90           90 
  311000    301.93197   -17863.172   -15560.067   -17863.172            0    10440.607    49.891133    25.003443    23.031908            0            0            0    28731.156    10092.501    10735.644    10493.674    486.24346   -100.46015   -46.833759    49.891133    25.003443    23.031908           90           90           90 
  311500    297.50295   -17871.485   -15602.165   -17871.485            0    10269.133    50.207863    24.997589    22.884974            0            0            0    28722.371     9420.605    10191.156    11195.639    285.78583   -26.748344   -397.38794    50.207863    24.997589    22.884974           90           90           90 
  312000    303.20113   -17891.337   -15578.551   -17891.337            0    10602.824    49.783551    24.847344    23.190214            0            0            0     28686.04    10887.932    10992.074     9928.467    815.68388     1180.888   -242.28944    49.783551    24.847344    23.190214           90           90           90 
  312500    304.83409   -17902.796   -15577.554   -17902.796            0    10403.023    49.897372    25.038286    22.964918            0            0            0    28691.098     11510.62    9357.7439    10340.704     302.9243    288.57601   -219.71042    49.897372    25.038286    22.964918           90           90           90 
  313000      299.134   -17863.148   -15581.386   -17863.148            0    10524.856    50.082945     24.94593    23.013383            0            0            0     28752.13    10033.758     10884.57    10656.241    170.27579   -1152.4609     520.0218    50.082945     24.94593    23.013383           90           90           90 
  313500    302.42686   -17890.853   -15583.973   -17890.853            0    10103.933    49.885017    25.021294    23.035319            0            0            0    28752.402    10304.581    10126.485    9880.7327    970.55736    45.308936    826.22104    49.885017    25.021294    23.035319           90           90           90 
  314000    306.00946   -17820.402   -15486.194   -17820.402            0    10716.926    50.177442    24.962538    22.930226            0            0            0    28721.399    9647.1811    11069.276    11434.321    110.30314   -83.502452   -262.13998    50.177442    24.962538    22.930226           90           90           90 
  314500    308.08942    -17850.81   -15500.737    -17850.81            0    10713.204    49.731731    25.005654    23.059479            0            0            0    28676.179    11209.528    10995.887    9934.1967     95.25871   -294.29852    41.726844    49.731731    25.005654    23.059479           90           90           90 
  315000    306.49627   -17890.827   -15552.906   -17890.827            0    11624.929    49.963838    24.863201     22.99517            0            0            0    28566.002    11666.307    11973.804    11234.675   -267.84681    130.86664    247.26041    49.963838    24.863201     22.99517           90           90           90 
  315500    308.06372   -17905.045   -15555.168   -17905.045            0    10375.122    50.008342    24.990181    22.947285            0            0            0    28677.623    9220.7978    11133.787     10770.78    635.01966   -1076.9624     92.86581    50.008342    24.990181    22.947285           90           90           90 
  316000    300.13779   -17836.769    -15547.35   -17836.769            0    9896.1933    49.921537    24.977289    23.092194            0            0            0    28793.764    10806.621    9645.3551    9236.6037    175.45058    226.98215    -439.3971    49.921537    24.977289    23.092194           90           90           90 
  316500     306.5397   -17865.368   -15527.115   -17865.368            0    9508.8076    50.176269    25.010579     22.94608            0            0            0    28795.896    8856.9925    10202.579    9466.8516    165.97095   -532.53406     -1113.65    50.176269    25.010579     22.94608           90           90           90 
  317000    293.63298   -17859.368   -15619.567   -17859.368            0     10273.57    49.906604      24.9551    23.091844            0            0            0    28759.143    9791.4911    10649.369     10379.85   -542.57813    793.39862   -41.996854    49.906604      24.9551    23.091844           90           90           90 
  317500    293.46516   -17929.964   -15691.443   -17929.964            0    10175.017    50.114641    24.965573    22.951099            0            0            0    28715.055    10192.756    9734.6331    10597.663     186.4731   -582.93102    247.46392    50.114641    24.965573    22.951099           90           90           90 
  318000    296.84537   -17837.206   -15572.901   -17837.206            0    10244.353    49.923523    25.114069    22.928875            0            0            0    28747.829    11157.783    8777.2889    10797.987        798.4    267.53748    225.71045    49.923523    25.114069    22.928875           90           90           90 
  318500    301.15051   -17847.739   -15550.596   -17847.739            0    9647.9344    49.958086    24.860315    23.196349            0            0            0    28809.257    8894.6867    10582.612    9466.5044    -150.0517    -113.1663    129.37875    49.958086    24.860315    23.196349           90           90           90 
  319000    300.93595   -17832.326   -15536.819   -17832.326            0    10338.595    50.018941    25.076316    22.938058            0            0            0    28770.995    10186.234    9521.9004    11307.651    369.79817   -126.05721   -229.77494    50.018941    25.076316    22.938058           90           90           90 
  319500     299.3422   -17864.889   -15581.539   -17864.889            0    10211.802    49.993905    24.953464    23.039204            0            0            0    28741.893     10261.82    10233.699    10139.887   -789.14822   -38.653247    353.56449    49.993905    24.953464    23.039204           90           90           90 
  320000    297.19476   -17811.348   -15544.378   -17811.348            0    10894.562    49.961274    24.953155    23.023197            0            0            0    28702.822    10936.444    11096.607    10650.634     273.9175   -531.30696    465.98076    49.961274    24.953155    23.023197           90           90           90 
  320500    305.24273   -17887.059     -15558.7   -17887.059            0    11153.558    50.015169    24.994388    22.866996            0            0            0    28585.998    10076.704    11619.546    11764.422     74.49802    106.27799   -292.27639    50.015169    24.994388    22.866996           90           90           90 
  321000    295.68397   -17848.523   -15593.078   -17848.523            0    10827.376    49.866895    24.905546    23.065046            0            0            0    28645.916    10277.863    11948.742    10255.524    -391.6174    875.83988   -530.10684    49.866895    24.905546    23.065046           90           90           90 
  321500     297.5146   -17879.557   -15610.148   -17879.557            0    9912.3046    50.073914    24.995973      22.9785            0            0            0    28760.952    9895.7017    10056.305    9784.9073   -110.28026     814.3641    622.93404    50.073914    24.995973      22.9785           90           90           90 
  322000    299.65617   -17869.088   -15583.343   -17869.088            0    9801.4458    50.066302    25.032054    22.982859            0            0            0    28803.553    9184.3086    9589.2165    10630.812    66.731057    187.16383   -357.67224    50.066302    25.032054    22.982859           90           90           90 
  322500    302.22163   -17873.541   -15568.227   -17873.541            0    9364.3524    49.994799    24.976057    23.107646            0            0            0    28853.893    9915.7119    9511.6167    8665.7286    737.30719     306.3343     47.01632    49.994799    24.976057    23.107646           90           90           90 
  323000    305.64536   -17879.886   -15548.456   -17879.886            0    9102.8511     50.09198    25.058437    22.966409            0            0            0    28828.051    9135.2319    8514.7146    9658.6067   -363.60851    816.09299    84.639636     50.09198    25.058437    22.966409           90           90           90 
  323500    294.72689   -17832.028   -15583.882   -17832.028            0    9097.4002    50.019239    24.967857    23.119826            0            0            0    28873.732    9248.5227    9212.1276    8831.5503      310.561    410.81749   -306.27649    50.019239    24.967857    23.119826           90           90           90 
  324000    298.96317   -17922.663   -15642.204   -17922.663            0    8476.4868    50.215786    25.007078    23.009795            0            0            0    28894.552    7932.6918    8376.7809    9119.9877   -124.91519    440.39515    158.08223    50.215786    25.007078    23.009795           90           90           90 
  324500    292.53664   -17872.939   -15641.501   -17872.939            0    8424.1141    50.150195    25.141283    22.952255            0            0            0    28939.127    8453.3233    8085.3314    8733.6875    -950.8369    172.70466    288.04851    50.150195    25.141283    22.952255           90           90           90 
  325000     300.9223    -17835.56   -15540.157    -17835.56            0    9014.8389    50.055336     24.94335    23.140262            0            0            0    28891.723    8294.8988    10548.199    8201.4185    13.193383   -730.59232    478.77382    50.055336     24.94335    23.140262           90           90           90 
  325500    298.44335   -17912.407   -15635.913   -17912.407            0     9128.879    50.054456    25.059796    23.012808            0            0            0    28866.218    9307.3905    8690.7015    9388.5449   -325.43295     256.8925     16.03548    50.054456    25.059796    23.012808           90           90           90 
  326000     303.9764   -17965.346   -15646.647   -17965.346            0    9106.5818    50.100344    24.995677    23.024167            0            0            0     28832.98    7549.2387    9562.2631    10208.244   -470.27874   -297.15108    19.233246    50.100344    24.995677    23.024167           90           90           90 
  326500    301.41411   -17921.251   -15622.096   -17921.251            0    8796.5159    49.981094    25.046802    23.072713            0            0            0    28883.958    9873.8989    7877.3941    8638.2546    368.06997   -675.24415    383.81113    49.981094    25.046802    23.072713           90           90           90 
  327000    300.24163   -17893.955   -15603.744   -17893.955            0     9235.319    50.090698    25.013265    22.984242            0            0            0     28797.69    8636.7559    9496.6908    9572.5103    432.11628    465.01183    325.78229    50.090698    25.013265    22.984242           90           90           90 
  327500    295.51218   -17934.461   -15680.326   -17934.461            0    9772.7136    49.978428    24.949419     23.08224            0            0            0    28782.001    9447.9414     10540.97    9329.2289   -303.12493   -215.75769   -399.29037    49.978428    24.949419     23.08224           90           90           90 
  328000    295.81501   -17811.019   -15554.573   -17811.019            0    9482.5794    49.974836     25.02577    23.028611            0            0            0    28800.934    9508.6656    8842.2524     10096.82   -344.30652    207.39829    -683.8226    49.974836     25.02577    23.028611           90           90           90 
  328500    302.52694   -17913.821   -15606.178   -17913.821            0    9806.1522    50.138682    24.976189    22.943949            0            0            0    28732.092    8476.4332    9939.7798    11002.244    76.294073    563.62165   -50.917931    50.138682    24.976189    22.943949           90           90           90 
  329000    303.85082   -17902.475   -15584.733   -17902.475            0    9665.1318    49.802202    25.046165    23.094646            0            0            0    28807.203    9717.2948    9424.0559    9854.0448   -12.924966    351.87414   -401.38824    49.802202    25.046165    23.094646           90           90           90 
  329500    302.03651   -17906.489   -15602.587   -17906.489            0    9730.0546    50.247877     24.92991    22.951501            0            0            0    28750.773    8890.2224    10049.219    10250.722    69.181274    150.30941    49.331669    50.247877     24.92991    22.951501           90           90           90 
  330000    303.27774   -17832.638   -15519.268   -17832.638            0    9175.3158    49.875034    25.067136    23.078442            0            0            0    28853.229    9590.8729    9370.7179    8564.3564   -91.358122   -377.95914    268.34987    49.875034    25.067136    23.078442           90           90           90 
  330500    297.60758    -17878.13   -15608.011    -17878.13            0    9806.2667    50.165217    24.905556    23.028661            0            0            0    28771.838    9995.4579    9819.8666    9603.4755   -39.685132    315.36035    485.00243    50.165217    24.905556    23.028661           90           90           90 
  331000    304.11684   -17924.473   -15604.703   -17924.473            0     9990.932    49.882774    25.030815    23.002348            0            0            0    28720.881    9992.6475     9613.405    10366.744    532.56377    -590.1924   -895.11606    49.882774    25.030815    23.002348           90           90           90 
  331500    305.99503   -17870.247    -15536.15   -17870.247            0    9631.5462    50.068246    24.887877      23.0838            0            0            0    28764.546    9351.0432    10086.114    9457.4809   -476.14205   -67.837417    75.205838    50.068246    24.887877      23.0838           90           90           90 
  332000    306.09988   -17858.184   -15523.287   -17858.184            0    9672.6419    50.010908    25.075632     22.97223            0            0            0    28808.443    9300.2723    9518.4345    10199.219    105.16431   -531.50691    244.58877    50.010908    25.075632     22.97223           90           90           90 
  332500    300.53736   -17866.361   -15573.894   -17866.361            0    9301.7613    50.120625    24.945573     23.06662            0            0            0    28839.912    8883.7086    10020.163    9001.4126    332.62565    -689.1274    537.35239    50.120625    24.945573     23.06662           90           90           90 
  333000    305.55088   -17841.242   -15510.532   -17841.242            0    9295.9191    49.907973    25.059544    23.035429            0            0            0    28809.745    10204.349    8476.9169     9206.491   -305.68434    190.53895    225.22676    49.907973    25.059544    23.035429           90           90           90 
  333500    300.71952   -17784.629   -15490.773   -17784.629            0     9844.133    50.168719    25.015855    22.959517            0            0            0    28814.502    8342.5567    10184.133    11005.709   -275.71835   -467.71507    178.82953    50.168719    25.015855    22.959517           90           90           90 
  334000    303.58107   -17862.052   -15546.369   -17862.052            0    10041.669    49.864499    24.999968    23.082672            0            0            0     28775.11    11653.563    8875.9486    9595.4962   -248.42229    102.28859    811.31535    49.864499    24.999968    23.082672           90           90           90 
  334500    300.16478   -17857.016   -15567.391   -17857.016            0    10765.002    50.049081    24.993616    22.983178            0            0            0     28749.83    10234.173    10777.524    11283.309    428.70869   -339.75574    275.04246    50.049081    24.993616    22.983178           90           90           90 
  335000    301.20281   -17970.047   -15672.504   -17970.047            0    10532.887    49.900739    24.919304    23.068611            0            0            0    28685.626    9919.5554    11840.484    9838.6199    1.0687581   -167.01912    -594.8086    49.900739    24.919304    23.068611           90           90           90 
  335500    314.49015   -17851.487    -15452.59   -17851.487            0    9971.8536    49.983612    25.017098    22.997959            0            0            0    28757.681     9684.453    9826.6428    10404.465    23.186396   -210.33796    467.86403    49.983612    25.017098    22.997959           90           90           90 
  336000    306.20826   -17902.577   -15566.854   -17902.577            0    10117.185    50.003321    24.989012    22.996367            0            0            0    28734.733    9315.5376    11049.956    9986.0599    604.30669    438.01837    419.39603    50.003321    24.989012    22.996367           90           90           90 
  336500    302.24879   -17883.349   -15577.828   -17883.349            0    10269.185    49.933997    25.003186    23.021178            0            0            0    28742.148    10501.985    9971.2052    10334.366    653.21139     483.0537    115.17575    49.933997    25.003186    23.021178           90           90           90 
  337000    303.24436    -17879.23   -15566.114    -17879.23            0    10412.886    50.100056    24.915936    23.002235            0            0            0    28713.455    9866.3439    10921.097    10451.217   -95.589187    245.99464    370.47408    50.100056    24.915936    23.002235           90           90           90 
  337500    303.58449   -17828.691   -15512.981   -17828.691            0    10553.567    49.942565    25.034043    22.974516            0            0            0    28724.218    9925.6212    11089.081    10645.997   -649.22158    499.25027   -581.42697    49.942565    25.034043    22.974516           90           90           90 
  338000    292.58611   -17891.038   -15659.223   -17891.038            0    11042.323    49.951326    24.901486    23.020055            0            0            0    28633.777    11061.889    11268.577    10796.503    218.80748   -915.56588   -651.61882    49.951326    24.901486    23.020055           90           90           90 
  338500    294.33502   -17853.388   -15608.232   -17853.388            0    10838.977    49.962172    25.016559    22.930957            0            0            0    28660.982    10606.307    10457.723    11452.901   -359.90698    1103.9982    1454.2781    49.962172    25.016559    22.930957           90           90           90 
  339000    303.76041    -17823.85   -15506.798    -17823.85            0    10629.927    50.062179    24.928813    23.027605            0            0            0    28738.237    9399.1723     11370.78    11119.827    422.28081    110.17288    120.02198    50.062179    24.928813    23.027605           90           90           90 
  339500    304.57267   -17860.495   -15537.247   -17860.495            0    10085.095    49.880432    25.034668    23.049557            0            0            0    28782.906      11243.6    8866.7409    10144.944   -487.34509    412.12451      319.216    49.880432    25.034668    23.049557           90           90           90 
  340000    296.97012   -17789.557   -15524.301   -17789.557            0    10001.657    50.244694    24.938378    22.991627            0            0            0    28808.995    9648.8499    10100.704    10255.418   -93.827798    75.917084    466.42807    50.244694    24.938378    22.991627           90           90           90 
  340500    302.16056   -17826.203   -15521.355   -17826.203            0    9131.5349    49.822991    25.140802    23.051558            0            0            0    28874.151    9830.6658    8394.6988    9169.2402    526.72392   -312.36116   -83.516404    49.822991    25.140802    23.051558           90           90           90 
  341000    306.27966    -17936.44   -15600.171    -17936.44            0     8800.639    50.366002    24.907574    23.016371            0            0            0    28873.921      7792.63    9600.9081    9008.3789    200.32834    89.516503    210.03089    50.366002    24.907574    23.016371           90           90           90 
  341500    297.65136   -17910.006   -15639.553   -17910.006            0    9871.4243    49.815495    25.108923    23.013555            0            0            0    28785.664    10933.734    8163.3998    10517.139    730.25564   -209.56653    71.724741    49.815495    25.108923    23.013555           90           90           90 
  342000    301.65347   -17875.424   -15574.443   -17875.424            0    9499.6958    50.071782    24.962282    23.050742            0            0            0    28811.259    8885.7921    9493.1857     10120.11   -71.750002   -638.68675   -665.05342    50.071782    24.962282    23.050742           90           90           90 
  342500    299.67631   -17878.386   -15592.487   -17878.386            0      9193.45    49.966706    25.051741    23.049295            0            0            0    28852.023     8332.442    9906.7592    9341.1488    192.24093   -122.95978    204.39445    49.966706    25.051741    23.049295           90           90           90 
  343000    297.79493   -17874.552   -15603.004   -17874.552            0    9160.3772    50.117277    24.974305    23.050937            0            0            0     28851.57    8537.1162    9883.7552    9060.2603   -52.357691   -557.61888    326.38503    50.117277    24.974305    23.050937           90           90           90 
  343500    294.62076   -17926.373   -15679.037   -17926.373            0    9247.4514    49.956909     25.06307    22.998056            0            0            0    28795.256    9862.8673    8491.1555    9388.3312   -57.314503   -95.887621   -523.04941    49.956909     25.06307    22.998056           90           90           90 
  344000     296.4458    -17954.55   -15693.293    -17954.55            0    8864.1699    50.082557     24.94891    23.084741            0            0            0    28844.504    8880.1955    9424.2165    8288.0975   -199.04709    106.60969    508.00947    50.082557     24.94891    23.084741           90           90           90 
  344500    294.68544   -17856.802   -15608.973   -17856.802            0    9036.9391    49.998173    25.075224    22.975069            0            0            0    28804.198    9189.4527    8684.8572    9236.5075    595.75114   -472.32446    770.41145    49.998173    25.075224    22.975069           90           90           90 
  345000    297.21026   -17849.845   -15582.757   -17849.845            0    9244.1952        50.04    24.966842    23.073307            0            0            0    28826.423    8932.2464    8729.5441    10070.795    489.28772    234.54684    135.74672        50.04    24.966842    23.073307           90           90           90 
  345500    299.03089   -17877.349   -15596.374   -17877.349            0    8892.8454      50.0652    25.019594    23.025572            0            0            0    28842.085    9526.4814    8499.4076    8652.6472    816.13817   -202.14227   -186.21341      50.0652    25.019594    23.025572           90           90           90 
  346000    297.79387   -17918.453   -15646.913   -17918.453            0    9297.0889    49.964488     25.07888    23.010622            0            0            0    28833.538    9407.9765    9105.5969    9377.6934     730.5189    190.75608    249.57835    49.964488     25.07888    23.010622           90           90           90 
  346500    297.26091   -17857.557   -15590.083   -17857.557            0    10145.584    49.995916     24.92768    23.045761            0            0            0    28721.522     10620.37    9121.6117    10694.769    614.50295     825.0115    139.21665    49.995916     24.92768    23.045761           90           90           90 
  347000    293.51983   -17818.473   -15579.535   -17818.473            0    10408.375     49.95295    25.012811     22.99744            0            0            0    28734.466    10460.753    9894.4756    10869.898    521.13095   -1564.2846    450.37874     49.95295    25.012811     22.99744           90           90           90 
  347500     304.7853   -17861.224   -15536.354   -17861.224            0    10310.114    49.957158    24.936218    23.070673            0            0            0     28740.12    10176.929    10967.196     9786.217    292.03484   -227.40065    613.47166    49.957158    24.936218    23.070673           90           90           90 
  348000    290.52728   -17933.572   -15717.461   -17933.572            0    10631.584     49.97312    24.980828    22.950811            0            0            0    28651.102    10224.876     10504.45    11165.426     699.9227    98.023716   -36.045645     49.97312    24.980828    22.950811           90           90           90 
  348500    303.00378   -17946.014   -15634.734   -17946.014            0    10268.868    49.988364    24.991711     22.95725            0            0            0    28680.372    10465.724    10138.005    10202.876   -672.31405   -548.92772   -741.53947    49.988364    24.991711     22.95725           90           90           90 
  349000     294.6287   -17822.824   -15575.428   -17822.824            0    11080.617    49.790857    24.873858    23.146614            0            0            0    28666.868    10909.994    12830.247    9501.6114     290.9782   -446.29265    127.79506    49.790857    24.873858    23.146614           90           90           90 
  349500    306.76575    -17790.19   -15450.213    -17790.19            0    10878.687    50.112806    25.079486    22.862899            0            0            0     28734.17    10954.719     9406.252    12275.091    964.50097   -591.00954    46.257421    50.112806    25.079486    22.862899           90           90           90 
  350000    302.51653   -17891.562   -15583.998   -17891.562            0    10365.792    49.958347    24.946281    23.043195            0            0            0    28718.157    10556.924    11013.292    9527.1606    223.26615   -1150.4079    -614.4267    49.958347    24.946281    23.043195           90           90           90 
  350500    307.20076    -17873.14   -15529.846    -17873.14            0    9216.9116    49.995397     25.04222    23.027836            0            0            0    28830.752    9417.8975    8981.8717    9250.9657    288.82952   -143.03609   -946.28641    49.995397     25.04222    23.027836           90           90           90 
  351000      295.105   -17822.631   -15571.602   -17822.631            0    9985.5799    50.140013    24.960428    23.023945            0            0            0     28814.84     8877.187    10746.084    10333.468    89.509293    62.438442    1143.9054    50.140013    24.960428    23.023945           90           90           90 
  351500    308.09323   -17872.702     -15522.6   -17872.702            0    9375.3295    49.882104    25.012078    23.108323            0            0            0    28831.216    9399.0366    9620.6284    9106.3235   -294.81261    92.814915    465.39278    49.882104    25.012078    23.108323           90           90           90 
  352000    301.31447   -17871.293   -15572.898   -17871.293            0    9225.4889    50.166596    25.049732    22.982511            0            0            0    28881.198    9187.7569    9248.9819    9239.7279   -606.92664   -49.648647    44.873133    50.166596    25.049732    22.982511           90           90           90 
  352500    293.50143   -17895.636   -15656.839   -17895.636            0    10121.549    49.947242    25.000418    23.044916            0            0            0    28776.231    10619.956    9456.2951    10288.395    382.63439    734.07873    264.14747    49.947242    25.000418    23.044916           90           90           90 
  353000      287.913     -17894.6    -15698.43     -17894.6            0    9397.1473    49.966626    24.923455     23.12454            0            0            0    28797.936    9739.7399    9512.3171    8939.3848    90.810652   -1399.0248    -805.8126    49.966626    24.923455     23.12454           90           90           90 
  353500     292.9144   -17892.111   -15657.791   -17892.111            0    10277.271     50.06599    25.042357    22.864161            0            0            0    28666.409    10454.353    10007.027    10370.433    426.26296   -731.41415    655.53002     50.06599    25.042357    22.864161           90           90           90 
  354000    302.41462   -17841.383   -15534.597   -17841.383            0    10455.931    49.900371    24.902784    23.111747            0            0            0    28720.001    10040.599    12045.786    9281.4088   -460.62936   -138.97026   -257.58758    49.900371    24.902784    23.111747           90           90           90 
  354500    302.84963   -17804.639   -15494.534   -17804.639            0    10513.805    50.014593    25.031742     22.94222            0            0            0    28722.567    11048.237    9362.7814    11130.396    31.108298   -504.37803   -225.66168    50.014593    25.031742     22.94222           90           90           90 
  355000    301.73533   -17863.753   -15562.149   -17863.753            0    10771.811    49.972067    24.941988    22.999587            0            0            0    28666.747    10865.799    11306.415    10143.217   -47.396538    -1122.416    162.65816    49.972067    24.941988    22.999587           90           90           90 
  355500    300.09797   -17937.015   -15647.899   -17937.015            0    10798.845      49.7864    24.912698    23.089876            0            0            0    28638.686    11454.605    11170.225    9771.7049   -367.03188    186.00824    425.97011      49.7864    24.912698    23.089876           90           90           90 
  356000    298.41338   -17812.911   -15536.646   -17812.911            0    10795.435    50.075043    25.057471    22.839476            0            0            0    28657.922    11061.382    10277.954    11046.968   -184.55246   -142.39469   -103.28824    50.075043    25.057471    22.839476           90           90           90 
  356500    306.05681   -17833.531   -15498.963   -17833.531            0     11012.67    49.965102    24.890876    23.093024            0            0            0    28720.221    11208.617    10852.065    10977.327   -85.886635   -1022.9261    364.35468    49.965102    24.890876    23.093024           90           90           90 
  357000    299.94026   -17854.724   -15566.812   -17854.724            0    10241.234    49.920271    25.030481      22.9852            0            0            0     28720.66    10406.198    9969.3541    10348.149   -709.25098   -206.46821   -147.60089    49.920271    25.030481      22.9852           90           90           90 
  357500    306.96675   -17897.921   -15556.411   -17897.921            0    9477.6448    50.103553     24.96323    23.029199            0            0            0     28803.69    9854.7233    9731.2043    8847.0069    93.560295   0.28799498    74.839689    50.103553     24.96323    23.029199           90           90           90 
  358000    300.79406   -17928.906   -15634.481   -17928.906            0    9736.2685    49.930158    24.985806    23.037319            0            0            0    28740.098    9874.8267    9762.8369     9571.142   -407.34136    128.65185   -76.769873    49.930158    24.985806    23.037319           90           90           90 
  358500    297.99723   -17902.782   -15629.692   -17902.782            0    9585.2794     50.17334    24.999454    22.930565            0            0            0    28761.948    9515.9611    9108.0504    10131.827    531.43942    40.195938    505.81632     50.17334    24.999454    22.930565           90           90           90 
  359000    297.31505   -17837.944   -15570.056   -17837.944            0    10076.063    49.854674    24.947804     23.09707            0            0            0     28727.32    10887.148    9637.9943     9703.046    -352.1616    -60.06773   -753.55485    49.854674    24.947804     23.09707           90           90           90 
  359500    301.50151   -17839.856   -15540.034   -17839.856            0    10628.473    50.097553    24.953661    22.958909            0            0            0    28701.329     10225.12    10377.947    11282.352     34.58963    792.16515   -244.32179    50.097553    24.953661    22.958909           90           90           90 
  360000    302.99067   -17917.858   -15606.678   -17917.858            0    10415.281    49.887705    25.019533    22.986591            0            0            0    28691.106    10279.445     10728.02    10238.377   -285.03908    52.072182    722.48115    49.887705    25.019533    22.986591           90           90           90 
  360500    294.86317   -17889.233   -15640.048   -17889.233            0    10479.194     50.05168    24.860769    23.109494            0            0            0     28755.68    10620.329    10606.607    10210.646    300.47519   -319.11726   -481.50305     50.05168    24.860769    23.109494           90           90           90 
  361000    303.86362   -17865.875   -15548.036   -17865.875            0    10902.364    49.964065    25.125586    22.891923            0            0            0    28737.981    11570.114    9506.1051    11630.874    -592.3323   -243.01839   -269.99608    49.964065    25.125586    22.891923           90           90           90 
  361500    303.32921   -17875.046   -15561.283   -17875.046            0    10543.123    49.973338    24.896886    23.089991            0            0            0    28728.115    9536.1327     11682.92    10410.316    -151.7115   -1079.7676   -72.520305    49.973338    24.896886    23.089991           90           90           90 
  362000    302.35268   -17938.759   -15632.445   -17938.759            0    10279.813    49.862521    25.035155    22.991702            0            0            0    28700.908    11128.782    9534.9632    10175.693   -119.51927      690.226    561.16897    49.862521    25.035155    22.991702           90           90           90 
  362500     305.5826   -17837.314   -15506.363   -17837.314            0    10130.415    50.039495    24.962809    23.022717            0            0            0    28758.283    9201.6763    10792.743    10396.825  -0.73975079   -362.91325    393.33153    50.039495    24.962809    23.022717           90           90           90 
  363000    303.07574   -17875.541   -15563.712   -17875.541            0    10464.261    49.870347    24.970236    23.017912            0            0            0    28663.614    10000.687    10695.468    10696.628    126.19568     100.7579     256.3367    49.870347    24.970236    23.017912           90           90           90 
  363500    305.67237   -17830.089   -15498.453   -17830.089            0    11388.936    50.049315    24.954969    22.958863            0            0            0     28675.14    10315.136    12793.468    11058.204    13.339025    137.63425    348.89421    50.049315    24.954969    22.958863           90           90           90 
  364000    297.36927   -17791.738   -15523.437   -17791.738            0    11106.844    49.975124    24.935156     23.01974            0            0            0    28685.761    11495.847    10666.596    11158.088   -409.71738    345.12719    -121.8426    49.975124    24.935156     23.01974           90           90           90 
  364500     299.9698   -17909.203   -15621.066   -17909.203            0    10598.523    49.916126    25.006549      22.9849            0            0            0    28690.443    10394.597    10597.979    10802.994   -1060.7467    -895.2997   -716.28444    49.916126    25.006549      22.9849           90           90           90 
  365000    306.99413   -17824.778   -15483.059   -17824.778            0    10628.606    49.999169    24.958465    23.023995            0            0            0      28731.7    10398.567    10796.978    10690.273   -571.11213    220.02304   -96.729035    49.999169    24.958465    23.023995           90           90           90 
  365500    307.86248    -17920.33   -15571.988    -17920.33            0    10283.797    49.821184    24.934484    23.112988            0            0            0    28712.468    10877.091    10678.942    9295.3574    193.73816   -355.14535      183.472    49.821184    24.934484    23.112988           90           90           90 
  366000    303.73761   -17792.669   -15475.791   -17792.669            0    10786.498    50.151906    25.009334     22.86436            0            0            0    28677.985    10595.074     10678.41    11086.009    457.63435   -122.53202    -95.32246    50.151906    25.009334     22.86436           90           90           90 
  366500    298.97292   -17849.652   -15569.118   -17849.652            0    11403.333    49.808819    24.911964     23.08916            0            0            0    28649.849    11525.852    12140.473    10543.673   -388.55863    533.18741    57.271722    49.808819    24.911964     23.08916           90           90           90 
  367000    299.39932   -17893.995   -15610.209   -17893.995            0    10806.812     49.96313    24.958708      22.9754            0            0            0    28650.673    11009.167    10798.985    10612.285    279.16023    429.90944   -720.57955     49.96313    24.958708      22.9754           90           90           90 
  367500    305.05243   -17889.932   -15563.024   -17889.932            0    10226.654    50.007315    24.974522    22.967126            0            0            0    28683.845     10536.81    10125.658    10017.494   -69.258475    159.43568    575.39423    50.007315    24.974522    22.967126           90           90           90 
  368000    305.64458   -17864.175   -15532.751   -17864.175            0    9677.4342    49.880996    24.992925    23.093517            0            0            0    28790.041    9855.9108    10536.872    8639.5201    388.25921   -478.54328   -914.24972    49.880996    24.992925    23.093517           90           90           90 
  368500    305.06443   -17951.018   -15624.019   -17951.018            0    9385.3286    50.048519      25.0252    22.964306            0            0            0    28762.201    9623.3649    8643.0811    9889.5399   -175.40926   -294.28728   -641.94341    50.048519      25.0252    22.964306           90           90           90 
  369000    301.87496    -17875.39    -15572.72    -17875.39            0    10486.616    49.876275    24.936734    23.072619            0            0            0    28696.603    10920.302    10703.542    9836.0022   -520.39464   -304.34724   -223.06053    49.876275    24.936734    23.072619           90           90           90 
  369500    299.88292   -17828.313   -15540.838   -17828.313            0    11358.852    49.963178    24.919228     22.98814            0            0            0    28621.242    11490.442    11680.757    10905.356    162.04537     856.0286     336.6145    49.963178    24.919228     22.98814           90           90           90 
  370000    299.79974   -17832.901   -15546.061   -17832.901            0    11004.447    50.007028    25.045412    22.927997            0            0            0    28716.093    10790.646    11247.197    10975.499   -5.7545927    299.35973   -275.33374    50.007028    25.045412    22.927997           90           90           90 
  370500    298.83384   -17901.943   -15622.471   -17901.943            0    10179.582    49.914782    24.897865    23.115153            0            0            0    28726.853    11264.007    9387.3016    9887.4369    37.120916   -600.19946    3.7750123    49.914782    24.897865    23.115153           90           90           90 
  371000    294.68236    -17906.96   -15659.155    -17906.96            0    9467.2492    50.064655    25.064128    22.921861            0            0            0    28762.969    9398.1268     9296.651    9706.9699    441.61545    424.49963    684.03144    50.064655    25.064128    22.921861           90           90           90 
  371500    298.14701    -17916.21   -15641.977    -17916.21            0    8708.1302    50.120438     24.96603    23.063777            0            0            0    28859.898    8614.0388    9133.6396    8376.7123    385.90052    489.54597   -599.19487    50.120438     24.96603    23.063777           90           90           90 
  372000      301.732   -17871.168   -15569.589   -17871.168            0    9091.6148    49.894004    25.008489    23.135987            0            0            0    28868.475    10253.085     8808.055    8213.7047   -796.89477    288.78699    674.99169    49.894004    25.008489    23.135987           90           90           90 
  372500    294.69475   -17894.756   -15646.856   -17894.756            0    10325.068    50.120321    25.033249    22.913348            0            0            0    28748.793    9449.5155    10219.117    11306.573   -49.729483   -232.82882    8.6643737    50.120321    25.033249    22.913348           90           90           90 
  373000    294.04251    -17944.09   -15701.165    -17944.09            0    9138.7931    49.896861    24.905553    23.125044            0            0            0    28737.697    8816.4114    9846.9736    8752.9943   -90.561524    520.48035    693.48304    49.896861    24.905553    23.125044           90           90           90 
  373500    300.46148   -17844.685   -15552.797   -17844.685            0    10237.307    50.000288    25.032612    22.980578            0            0            0    28763.361    10961.987    9969.0105    9780.9216   -835.65537    233.90456   -253.26946    50.000288    25.032612    22.980578           90           90           90 
  374000     299.5289   -17822.989   -15538.215   -17822.989            0     10146.87    50.192647       24.954    22.971703            0            0            0    28772.226    9254.3694    9697.3961    11488.844    235.83673    641.23543    536.28828    50.192647       24.954    22.971703           90           90           90 
  374500    304.69373   -17835.833   -15511.662   -17835.833            0    9747.4128    49.784226    25.028955    23.122224            0            0            0    28811.381    10027.866    9024.9123     10189.46   -699.21322     23.11981    -134.3598    49.784226    25.028955    23.122224           90           90           90 
  375000    302.15326    -17912.75   -15607.957    -17912.75            0    10103.094    50.317833    24.962643    22.884512            0            0            0    28744.459    9091.1282    10727.463     10490.69   -189.75164    652.44865    -42.66201    50.317833    24.962643    22.884512           90           90           90 
  375500    303.07902    -17892.46   -15580.606    -17892.46            0    9912.7037    49.721342    25.051722    23.099422            0            0            0    28772.761     9777.368    10289.942    9670.8014     260.3039    -33.35107    924.89271    49.721342    25.051722    23.099422           90           90           90 
  376000    303.56463   -17807.605   -15492.047   -17807.605            0    10259.395    50.131915    24.919352    23.039643            0            0            0    28782.386    9544.5273    10373.511    10860.147   -938.49845    -493.9236   -431.02174    50.131915    24.919352    23.039643           90           90           90 
  376500    298.44049   -17856.289   -15579.817   -17856.289            0     9833.209     49.92756    25.043672    22.995598            0            0            0    28752.992    10296.402    9644.7936    9558.4315   -281.99256   -398.92195     -210.408     49.92756    25.043672    22.995598           90           90           90 
  377000    302.64879   -17945.635   -15637.062   -17945.635            0     9694.143    50.004624    24.941984    23.016802            0            0            0     28706.89    10280.465    9938.7807    8863.1832   -458.43043    23.669468   -479.75569    50.004624    24.941984    23.016802           90           90           90 
  377500    295.57798   -17883.905   -15629.268   -17883.905            0    10763.303    50.011153     24.98047    22.964837            0            0            0    28690.019    10761.773    9952.3463    11575.789    38.001444   -236.06248    1139.3825    50.011153     24.98047    22.964837           90           90           90 
  378000    299.23418   -17837.002   -15554.475   -17837.002            0    11422.505    49.820109    24.912032     23.05229            0            0            0    28610.662    11708.131     11947.02    10612.363   -834.16711   -677.02054   -242.85807    49.820109    24.912032     23.05229           90           90           90 
  378500    299.45873   -17815.483   -15531.244   -17815.483            0    11617.466     50.06444    24.973008    22.870408            0            0            0    28593.949    11139.556    10637.334    13075.508   -939.98276   -166.80845    103.95799     50.06444    24.973008    22.870408           90           90           90 
  379000    301.34235   -17849.321   -15550.714   -17849.321            0    11094.943    49.823112    24.967866     23.03889            0            0            0    28659.845    11127.921    10995.703    11161.206    841.34545   -135.17039   -3.3320872    49.823112    24.967866     23.03889           90           90           90 
  379500    299.00701   -17957.664    -15676.87   -17957.664            0    9676.1672    50.148135    24.961294    22.965255            0            0            0    28747.042      8917.58    10302.424    9808.4979    312.52376   -452.65105   -482.24319    50.148135    24.961294    22.965255           90           90           90 
  380000    288.44799   -17881.012   -15680.761   -17881.012            0    10065.676    49.946298    25.008608    23.009717            0            0            0    28741.147    10667.858    9577.9712    9951.1977    623.53198    1130.9181    542.36622    49.946298    25.008608    23.009717           90           90           90 
  380500    297.43896   -17796.411   -15527.578   -17796.411            0    9265.2563    50.065548    24.990105     23.08264            0            0            0     28879.69    9830.9505    8335.6549    9629.1633   -273.68701    411.50894    75.948941    50.065548    24.990105     23.08264           90           90           90 
  381000    304.82706   -17913.644   -15588.456   -17913.644            0    9658.0348     50.12298    25.045175    22.967115            0            0            0    28831.511    8290.3304    9846.9627    10836.811   -492.51674    24.557535   -391.45432     50.12298    25.045175    22.967115           90           90           90 
  381500    302.82244   -17819.728    -15509.83   -17819.728            0     9676.331    49.900659    24.978461     23.13358            0            0            0    28834.658    9874.9501    9665.3935    9488.6494    847.81327     503.1323    666.01322    49.900659    24.978461     23.13358           90           90           90 
  382000    301.84915   -17881.735   -15579.262   -17881.735            0    9554.3816    50.133525    24.982375    22.971342            0            0            0     28770.56    9725.3262    9277.6695     9660.149   -560.13552    349.72611     331.9188    50.133525    24.982375    22.971342           90           90           90 
  382500    304.92199   -17840.723   -15514.811   -17840.723            0     9742.362    50.024699    25.100738     22.98759            0            0            0    28864.525    10184.489     8556.726    10485.871    221.23133    1239.8781   -14.681376    50.024699    25.100738     22.98759           90           90           90 
  383000    308.94743   -17864.362   -15507.744   -17864.362            0    9018.6224    50.078592    24.900777    23.138608            0            0            0    28853.748    9272.2751    9546.2941    8237.2981   -448.43229   -15.942088   -116.64446    50.078592    24.900777    23.138608           90           90           90 
  383500     300.5466   -17848.456   -15555.918   -17848.456            0     9492.428    50.032954    25.074223    22.981045            0            0            0    28830.581    9549.5842    9370.7813    9556.9183    328.57801     122.7158    511.16235    50.032954    25.074223    22.981045           90           90           90 
  384000    289.51375    -17879.47    -15671.09    -17879.47            0    9876.6082    50.154228    24.917633    23.010252            0            0            0    28756.478    9235.5216    10848.804    9545.4988   -112.90384   -402.28969    421.62065    50.154228    24.917633    23.010252           90           90           90 
  384500    295.31134   -17887.186   -15634.583   -17887.186            0    9492.2194    49.896245     25.02518    23.089808            0            0            0    28831.379    9795.0762    9725.5504    8956.0316    492.95092    772.72945   -477.62313    49.896245     25.02518    23.089808           90           90           90 
  385000      299.077   -17951.895   -15670.568   -17951.895            0    8563.6277    50.227664    25.004565    22.974289            0            0            0     28853.89     7987.586     8462.354    9240.9433   -579.51914   -673.37363   -111.62368    50.227664    25.004565    22.974289           90           90           90 
  385500    293.72617   -17872.583   -15632.071   -17872.583            0    9088.4453     49.93489    25.062553    23.086828            0            0            0    28893.068     9185.262    8888.8538    9191.2202   -568.59913   -909.10885     -201.709     49.93489    25.062553    23.086828           90           90           90 
  386000    305.73412   -17891.987    -15559.88   -17891.987            0    9143.6213    50.200704    24.974958    22.987046            0            0            0     28820.25    8461.5155    10065.623    8903.7248   -131.19317   -109.10276    282.41349    50.200704    24.974958    22.987046           90           90           90 
  386500    296.14932   -17820.821   -15561.826   -17820.821            0    9737.5347    49.961101    25.014058    23.038192            0            0            0    28791.517    10288.752    9730.5271    9193.3254   -229.76668    939.38531   -422.28761    49.961101    25.014058    23.038192           90           90           90 
  387000     300.9809   -17860.578   -15564.728   -17860.578            0    10125.863    50.017053    24.973641    23.005237            0            0            0    28736.024    10497.443    9720.9422    10159.205   -384.49736   -352.35738    187.55158    50.017053    24.973641    23.005237           90           90           90 
  387500    301.13018   -17897.476   -15600.488   -17897.476            0     10025.42    50.147423    24.996252    22.918236            0            0            0    28727.954    8809.2954    10810.135     10456.83   -272.70128   -83.427263    85.080151    50.147423    24.996252    22.918236           90           90           90 
  388000     297.3831   -17898.342   -15629.936   -17898.342            0     10200.63    49.755481    24.959827    23.110366            0            0            0    28700.491    11488.433    10506.895    8606.5608   -85.652545    460.12265    230.69736    49.755481    24.959827    23.110366           90           90           90 
  388500    294.20916   -17913.987   -15669.791   -17913.987            0    10958.446    50.113595    24.935603    22.889477            0            0            0     28602.98     10726.71    12442.495    9706.1324      332.092    245.34572   -792.04632    50.113595    24.935603    22.889477           90           90           90 
  389000    292.80893    -17856.59   -15623.074    -17856.59            0    10914.161    49.780705      24.9955    23.026242            0            0            0    28651.406    11741.234    10842.591    10158.658    349.06972    713.55181    83.560217    49.780705      24.9955    23.026242           90           90           90 
  389500    296.29448   -17915.932    -15655.83   -17915.932            0     10329.71     50.05219    24.905121    23.000431            0            0            0    28671.321    9362.0938    10962.134    10664.902   -98.164481   -120.36898    554.04044     50.05219    24.905121    23.000431           90           90           90 
  390000    295.43323   -17961.271   -15707.738   -17961.271            0    9996.8204    49.997418    25.006735    22.954101            0            0            0    28698.874    10441.755    10022.586    9526.1199   -406.88469   -472.08374   -282.20381    49.997418    25.006735    22.954101           90           90           90 
  390500      301.844   -17843.692   -15541.258   -17843.692            0    10756.725    49.953761    24.929868    23.047216            0            0            0    28701.635    10628.995    10663.812    10977.368   -185.01008    345.13426    135.25683    49.953761    24.929868    23.047216           90           90           90 
  391000    297.35367   -17836.821    -15568.64   -17836.821            0    11289.841    50.000946    25.044815     22.88562            0            0            0    28658.848    11338.303     10984.43    11546.789    638.30045    46.915899    332.85287    50.000946    25.044815     22.88562           90           90           90 
  391500    299.58001   -17861.676   -15576.512   -17861.676            0    9842.8194    49.892943    25.022698    23.081378            0            0            0    28816.085    9558.7376    9897.6541    10072.067    570.60962   -654.50124       595.08    49.892943    25.022698    23.081378           90           90           90 
  392000    298.50162   -17904.445   -15627.507   -17904.445            0    9943.4655    50.109461    24.887492    23.024372            0            0            0    28713.668     9822.149    11092.162    8916.0854   -402.77966   -388.71752   -575.53232    50.109461    24.887492    23.024372           90           90           90 
  392500    303.65705   -17837.381   -15521.118   -17837.381            0    11220.797    49.830834    25.087005    22.939144            0            0            0     28676.37    12813.363    9972.4174    10876.611   -554.16377    515.40963    -105.9228    49.830834    25.087005    22.939144           90           90           90 
  393000    307.92243   -17878.608   -15529.809   -17878.608            0    10647.969    50.107593    24.827979    23.061936            0            0            0    28690.669     9617.961    11914.384    10411.563    153.38135    -469.8472   -217.69116    50.107593    24.827979    23.061936           90           90           90 
  393500    291.46106   -17824.657   -15601.423   -17824.657            0    10298.806    49.854806    25.057222     22.97835            0            0            0    28705.082    10775.478    8966.5459    11154.393   -344.45252    312.56879    20.678643    49.854806    25.057222     22.97835           90           90           90 
  394000    297.74058    -17883.45   -15612.317    -17883.45            0    10572.335    50.028004    24.961144    22.965265            0            0            0    28678.018    9343.3482    11242.271    11131.385    54.472996   -355.77139   -495.60123    50.028004    24.961144    22.965265           90           90           90 
  394500    298.92677   -17868.405   -15588.224   -17868.405            0    10295.203    49.813955     25.01024    23.079461            0            0            0    28753.754     11540.83    8838.0028    10506.777   -44.220214     132.6091   -304.63693    49.813955     25.01024    23.079461           90           90           90 
  395000     291.7855   -17825.577   -15599.868   -17825.577            0    9764.9565    50.232909    24.921416    23.010242            0            0            0    28805.952    8714.8622    10097.889    10482.118    178.27521   -408.03298    23.886843    50.232909    24.921416    23.010242           90           90           90 
  395500     297.9143   -17915.487   -15643.028   -17915.487            0     9811.357    49.951133    25.080494    22.982633            0            0            0    28792.622    10142.611    9030.4153    10261.045   -366.34174     307.8273   -636.18613    49.951133    25.080494    22.982633           90           90           90 
  396000    293.39767   -17879.166    -15641.16   -17879.166            0    9814.7441    50.026794    24.951559     23.05671            0            0            0    28780.457    9979.9393    10336.114    9128.1786   -379.78364    486.09365   -576.43396    50.026794    24.951559     23.05671           90           90           90 
  396500    307.24785   -17845.084   -15501.431   -17845.084            0    9993.2388    50.061681    25.011508    22.992183            0            0            0    28788.929    9426.1594    9992.2405    10561.316   -1335.9654    205.08269   -816.30862    50.061681    25.011508    22.992183           90           90           90 
  397000    297.80834   -17925.506   -15653.856   -17925.506            0    10411.387    49.925886     24.94281     23.04672            0            0            0    28699.893    10815.315    10166.886    10251.961   -118.98426    623.71752     243.8599    49.925886     24.94281     23.04672           90           90           90 
  397500    305.72128   -17865.841   -15533.832   -17865.841            0    10502.251    49.940459    24.969261     22.99825            0            0            0    28678.273    11234.678    9640.1341    10631.942    379.61024   -393.93931    159.31118    49.940459    24.969261     22.99825           90           90           90 
  398000     298.3369   -17868.656   -15592.974   -17868.656            0    10833.217    50.031538    24.916433      22.9739            0            0            0    28639.435    10009.367    11309.887    11180.396   -27.554679   -42.383551    712.22587    50.031538    24.916433      22.9739           90           90           90 
  398500    301.45436   -17900.993   -15601.531   -17900.993            0    10566.039    49.595018    24.975347    23.167266            0            0            0    28696.199    11157.193    10069.316    10471.608   -418.65487    807.29946   -97.683001    49.595018    24.975347    23.167266           90           90           90 
  399000    289.50456   -17896.491   -15688.182   -17896.491            0    10281.339    50.315665    25.001276    22.823987            0            0            0    28711.568    9645.4977    10662.372    10536.149   -60.878438   -102.04829    360.41954    50.315665    25.001276    22.823987           90           90           90 
  399500    289.41417   -17837.655   -15630.035   -17837.655            0    10467.201    49.758896    24.983539    23.081231            0            0            0     28693.51     11550.52    9768.8087    10082.273   -226.17241   -631.25236    60.150206    49.758896    24.983539    23.081231           90           90           90 
  400000    298.04492   -17901.158   -15627.703   -17901.158            0    9818.3217    50.012681    24.963388    23.041655            0            0            0    28767.182    9897.3373    9897.7806    9659.8473    63.491567    163.35434   -320.10856    50.012681    24.963388    23.041655           90           90           90 
  400500    302.05544   -17887.493   -15583.447   -17887.493            0    9265.7786    50.026567    25.025975    22.977159            0            0            0    28766.567    9003.6631    8860.5273    9933.1454    40.340917   -65.056151    202.76779    50.026567    25.025975    22.977159           90           90           90 
  401000    294.13808   -17820.081   -15576.428   -17820.081            0    9412.1823     50.05175    24.932943    23.118325            0            0            0    28850.223    8746.9042    9999.7576    9489.8851    647.86153    382.38715   -37.885576     50.05175    24.932943    23.118325           90           90           90 
  401500    302.05015   -17860.864   -15556.858   -17860.864            0    8840.6482    50.031627    25.151061    22.945013            0            0            0    28872.822    8383.9363     8487.931    9650.0773     16.61555   -799.36642   -227.94748    50.031627    25.151061    22.945013           90           90           90 
  402000    298.51938   -17899.206   -15622.132   -17899.206            0    9183.0377    50.072902     24.93747     23.07849            0            0            0    28817.914    8773.8795    9604.2721    9170.9615   -384.14912     774.5065   -290.16267    50.072902     24.93747     23.07849           90           90           90 
  402500    296.77575   -17808.964   -15545.191   -17808.964            0    9871.2003      49.9615    25.021381     23.08665            0            0            0    28860.754    9956.8807    9403.0682    10253.652   -125.47519    -105.6098   -162.23078      49.9615    25.021381     23.08665           90           90           90 
  403000    296.55035   -17879.767   -15617.712   -17879.767            0    9383.6562    50.145426    25.008719    22.956209            0            0            0    28788.759    9394.5268    9700.7337     9055.708    -512.2762   -301.83819   -265.87302    50.145426    25.008719    22.956209           90           90           90 
  403500    292.62193   -17861.129    -15629.04   -17861.129            0     9996.381    49.868101    24.939756    23.112176            0            0            0    28744.573    10638.395     9574.704    9776.0437    203.37579    49.057701    83.686735    49.868101    24.939756    23.112176           90           90           90 
  404000    295.08187   -17893.957   -15643.104   -17893.957            0    9864.5586    50.039204    25.097086    22.869837            0            0            0    28720.815    8564.1274    9252.5723    11776.976    414.99362    381.10169   -195.54258    50.039204    25.097086    22.869837           90           90           90 
  404500    291.49634   -17873.849   -15650.346   -17873.849            0    9835.6121     50.00893    24.869136    23.135141            0            0            0    28772.687     9945.466    10239.986    9321.3843    686.73879   -397.51815   -390.26985     50.00893    24.869136    23.135141           90           90           90 
  405000    304.45628   -17939.144   -15616.784   -17939.144            0    9284.6592    49.843866    25.023912    23.056427            0            0            0    28758.017    9655.8438    8942.2285    9255.9053    115.88041   -79.129153    745.06344    49.843866    25.023912    23.056427           90           90           90 
  405500    303.97096   -17860.795   -15542.137   -17860.795            0     10344.89    50.077137    25.028299    22.926362            0            0            0    28734.654    9765.3329    10148.289    11121.049   -379.02069     837.2505    -6.895762    50.077137    25.028299    22.926362           90           90           90 
  406000    306.66468    -17868.32   -15529.115    -17868.32            0    10406.595    49.916717     24.93053    23.110081            0            0            0    28759.345    10392.267    10835.636    9991.8826    162.31234    169.94917    403.45444    49.916717     24.93053    23.110081           90           90           90 
  406500    299.92697   -17943.292   -15655.481   -17943.292            0    10501.113    49.959641    25.025382    22.938497            0            0            0    28679.064    10406.304    10142.906    10954.128   -242.29234    518.57963    54.375103    49.959641    25.025382    22.938497           90           90           90 
  407000    304.22199   -17926.758   -15606.185   -17926.758            0    10374.304    50.001556    24.898145    23.045411            0            0            0    28690.292    9802.2021    10708.213    10612.496    275.00774   -636.30679    174.29357    50.001556    24.898145    23.045411           90           90           90 
  407500    301.86173   -17846.957   -15544.388   -17846.957            0    10483.287    49.849757    25.074081    22.974078            0            0            0    28716.147    11353.162    9652.5116    10444.186   -43.795376    468.35965   -1531.5997    49.849757    25.074081    22.974078           90           90           90 
  408000    298.85325   -17821.156   -15541.535   -17821.156            0    10247.058    50.186853    24.859621    23.025132            0            0            0    28726.757    8868.9844    11864.241     10007.95     217.8141   -115.40013    69.625962    50.186853    24.859621    23.025132           90           90           90 
  408500    301.11339   -17819.421    -15522.56   -17819.421            0    10526.322    49.765284    25.060784    23.048572            0            0            0    28745.188    10422.674    9978.8765    11177.416   -535.78022    225.88841   -153.98943    49.765284    25.060784    23.048572           90           90           90 
  409000    298.30979    -17784.15   -15508.675    -17784.15            0    10477.054    50.243637      24.9105    22.998177            0            0            0    28784.384    10793.225    10891.387    9746.5519   -376.61659   -133.57595     238.1781    50.243637      24.9105    22.998177           90           90           90 
  409500    301.22542   -17898.929   -15601.214   -17898.929            0    9573.6778    49.754868    25.070474    23.071185            0            0            0    28778.491    10441.664    8726.5691    9552.8008   -689.85141   -295.48853    756.57996    49.754868    25.070474    23.071185           90           90           90 
  410000    301.11648   -17897.624    -15600.74   -17897.624            0    9224.4653    50.137334    24.951659    23.029789            0            0            0    28810.489    8194.8098    10604.115    8874.4715   -4.3941329    -601.1392   -474.87377    50.137334    24.951659    23.029789           90           90           90 
  410500      301.544   -17878.386    -15578.24   -17878.386            0    9237.2601    49.982519    25.021615    23.033807            0            0            0    28807.077    9860.9162    8705.6424    9145.2216    -448.3826   -150.47953    356.68057    49.982519    25.021615    23.033807           90           90           90 
  411000    304.04812   -17818.592   -15499.345   -17818.592            0     10131.71    50.127091    24.998556    22.991253            0            0            0    28810.451    9597.5579    10855.496    9942.0749    530.90682   -802.89896   -47.006393    50.127091    24.998556    22.991253           90           90           90 
  411500    293.36943   -17909.421    -15671.63   -17909.421            0    10083.758    49.981928    24.997241    22.998812            0            0            0    28734.953    9010.3387    11134.099    10106.835   -708.72997    741.96668    724.00029    49.981928    24.997241    22.998812           90           90           90 
  412000    294.86682   -17860.691   -15611.479   -17860.691            0    9899.4058    49.971725    25.008974    23.025087            0            0            0    28775.408    10553.994    9594.4226    9549.8005   -314.28278   -204.86192   -414.20387    49.971725    25.008974    23.025087           90           90           90 
  412500    295.23658   -17847.565   -15595.532   -17847.565            0    9784.9272    50.240197    24.962591    22.987734            0            0            0    28829.503    8712.6097    10326.976    10315.196    111.61943   -628.83921    437.89333    50.240197    24.962591    22.987734           90           90           90 
  413000    293.25588   -17929.813   -15692.888   -17929.813            0     9948.978    49.818385    25.069363    22.990196            0            0            0    28712.804    9663.9581    9744.0163    10438.959   -86.872755    65.819558   -810.48971    49.818385    25.069363    22.990196           90           90           90 
  413500    296.66238   -17866.388    -15603.48   -17866.388            0    10393.813    50.152754    24.878269     23.02914            0            0            0    28733.774    9859.0884    10911.351    10410.999    118.52262   -451.12722    293.29312    50.152754    24.878269     23.02914           90           90           90 
  414000    295.43302   -17876.878   -15623.346   -17876.878            0    10007.575    49.909115    25.063726    22.994123            0            0            0    28763.541    10180.706    9345.6279    10496.391   -289.20136   -31.955243   -661.87307    49.909115    25.063726    22.994123           90           90           90 
  414500    299.73986   -17932.072   -15645.689   -17932.072            0     10398.41    50.053178    24.906599    22.987576            0            0            0    28657.564     10128.66    11096.534     9970.037   -58.874043    818.07383    785.19948    50.053178    24.906599    22.987576           90           90           90 
  415000    303.83647   -17914.402    -15596.77   -17914.402            0    10492.534    49.796895     25.01266     23.02478            0            0            0     28678.58    11155.066    9414.4771    10908.058    115.99572   -877.40296   -561.61481    49.796895     25.01266     23.02478           90           90           90 
  415500    302.91543   -17919.375   -15608.769   -17919.375            0    10685.427     50.09638    24.886021    22.984538            0            0            0    28654.814    10019.918    11855.972    10180.393    181.14797    415.71688   -520.10678     50.09638    24.886021    22.984538           90           90           90 
  416000    305.06202   -17890.529   -15563.548   -17890.529            0    10703.293    49.871908     25.05067     22.94842            0            0            0    28670.029    10981.512    10355.329    10773.039    22.037688   -82.557732    24.704791    49.871908     25.05067     22.94842           90           90           90 
  416500    301.87608   -17896.804   -15594.126   -17896.804            0    10265.596    50.002721    24.867373     23.07779            0            0            0    28695.762    10409.054    10371.468    10016.267   -896.38056     429.4105   -17.348499    50.002721    24.867373     23.07779           90           90           90 
  417000    302.06901   -17888.203   -15584.053   -17888.203            0    9967.9199    49.894596    25.060557    22.969981            0            0            0    28721.351    10927.525    9353.7999     9622.435    205.42792    204.86753    656.56664    49.894596    25.060557    22.969981           90           90           90 
  417500    304.93657    -17848.89   -15522.866    -17848.89            0    9147.8483    50.000919    25.019088    23.047469            0            0            0    28831.863    8623.1529    9531.9981     9288.394    6.7051973    136.47604   -468.48379    50.000919    25.019088    23.047469           90           90           90 
  418000    299.47997   -17882.785   -15598.383   -17882.785            0     8924.345    49.989496    24.981477    23.106749            0            0            0    28855.972    9363.9625    9425.2908    7983.7815    126.92895   -510.46565    31.827066    49.989496    24.981477    23.106749           90           90           90 
  418500    305.23317   -17798.522   -15470.237   -17798.522            0    9557.8201    50.167832    25.054911    22.971953            0            0            0     28874.61    9595.4795    9475.8679    9602.1128    215.67454   -555.77078    234.73673    50.167832    25.054911    22.971953           90           90           90 
  419000    303.96014   -17873.006    -15554.43   -17873.006            0    9444.6473    49.981609    24.930677    23.118074            0            0            0    28806.862    9836.7516    9725.7595    8771.4308   -285.94278    649.22487   -181.37767    49.981609    24.930677    23.118074           90           90           90 
  419500    303.52405   -17885.687   -15570.438   -17885.687            0    9805.9818     49.97635     25.05123    22.988489            0            0            0    28780.877     9933.948    9756.0609    9727.9364    347.70272   -430.88249   -944.77552     49.97635     25.05123    22.988489           90           90           90 
  420000    303.66661   -17887.852   -15571.516   -17887.852            0    10377.604     50.11574    24.942432    22.976456            0            0            0    28720.763    9418.3367    11123.039    10591.437    463.55146   -807.56723    629.13406     50.11574    24.942432    22.976456           90           90           90 
  420500    307.36162   -17850.659   -15506.137   -17850.659            0    10043.748     49.77602     25.01109    23.085788            0            0            0     28740.71    10896.269    9894.5545    9340.4199    366.63515    662.99243   -1066.1636     49.77602     25.01109    23.085788           90           90           90 
  421000    298.09601   -17868.114   -15594.269   -17868.114            0    10171.996    50.242315     24.96275     22.91246            0            0            0    28736.494    9932.2709    9726.5719    10857.145    1046.1854   -113.00875     681.0751    50.242315     24.96275     22.91246           90           90           90 
  421500    305.19642   -17830.511   -15502.505   -17830.511            0    10122.876    49.770069    24.980712    23.132288            0            0            0    28760.184    12123.527    9219.0115    9026.0887   -58.570512   -362.41134   -51.791509    49.770069    24.980712    23.132288           90           90           90 
  422000    298.95105    -17822.55   -15542.183    -17822.55            0    10326.841    50.091267    24.951429    23.008008            0            0            0    28756.529    10494.276    9961.3933    10524.853    265.17438   -584.23953     325.7326    50.091267    24.951429    23.008008           90           90           90 
  422500    303.83349   -17814.223   -15496.614   -17814.223            0    9922.0667    50.057454    25.042355    22.997774            0            0            0    28829.009    9988.7254    8963.3029    10814.172   -405.27746    151.95405   -927.63749    50.057454    25.042355    22.997774           90           90           90 
  423000    307.02991   -17861.883   -15519.892   -17861.883            0    9907.2953    49.963682     24.95692    23.096467            0            0            0      28799.9    10026.429    9446.4859    10248.971    -124.2405    742.30786    835.96306    49.963682     24.95692    23.096467           90           90           90 
  423500    288.05009   -17850.513   -15653.298   -17850.513            0    10233.494    50.041549    25.034759    22.918926            0            0            0    28712.328    9160.0281    10468.681    11071.773   -237.17603   -1001.0913    427.23541    50.041549    25.034759    22.918926           90           90           90 
  424000     297.5568   -17924.045   -15654.313   -17924.045            0    10164.494    49.866438    24.926721     23.11573            0            0            0    28733.009    9656.7694    10668.437    10168.277   -303.74322   -528.07792   -475.49497    49.866438    24.926721     23.11573           90           90           90 
  424500    301.74276   -17870.966   -15569.305   -17870.966            0    10263.889    49.904155    25.020579    22.999422            0            0            0    28717.789     10397.75    9808.6618    10585.256    755.27508   -71.751311    238.37096    49.904155    25.020579    22.999422           90           90           90 
  425000    302.58594    -17861.49   -15553.397    -17861.49            0    9604.0092    50.226145    24.992791    22.939655            0            0            0    28795.954    9429.4182    9144.3869    10238.222     275.8114   -182.21951   -760.60296    50.226145    24.992791    22.939655           90           90           90 
  425500    301.79102   -17841.333   -15539.304   -17841.333            0    10370.626    49.845564    25.035538    23.085899            0            0            0    28809.137     11398.97    9395.9594     10316.95   -655.92795    739.75154    405.26422    49.845564    25.035538    23.085899           90           90           90 
  426000    301.22399   -17876.372   -15578.667   -17876.372            0    9675.1681    50.270188    24.954082    22.944952            0            0            0    28783.212    8484.8889    9929.5253     10611.09   -97.656982   -2.4694283    391.33353    50.270188    24.954082    22.944952           90           90           90 
  426500    302.40997   -17905.937   -15599.186   -17905.937            0     10125.66    49.837856    25.014438    23.072899            0            0            0    28764.198    10945.138    9758.5346    9673.3072    89.626468   -203.61459   -270.56513    49.837856    25.014438    23.072899           90           90           90 
  427000     293.9874   -17909.239   -15666.734   -17909.239            0    9925.2523    50.094248    24.961568     22.99481            0            0            0    28753.422    10162.894    10068.936    9543.9263    500.64506    901.41845    230.36611    50.094248    24.961568     22.99481           90           90           90 
  427500    302.20969   -17841.395   -15536.172   -17841.395            0    10350.873    49.964434    24.984136    23.024939            0            0            0     28742.45    9786.3401    10447.622    10818.656    579.89453    629.27267   -158.52698    49.964434    24.984136    23.024939           90           90           90 
  428000    295.56872   -17879.453   -15624.886   -17879.453            0    10332.128     49.91683    24.979321    23.041998            0            0            0    28730.803    10917.311    10098.828    9980.2451   -1046.3777    80.031812    599.55246     49.91683    24.979321    23.041998           90           90           90 
  428500    296.89476   -17883.482   -15618.801   -17883.482            0    9539.7943    50.101668    24.971521     22.99472            0            0            0    28769.036    9046.7774    9654.5676     9918.038   -432.41927    320.55176   -447.35931    50.101668    24.971521     22.99472           90           90           90 
  429000    304.12503   -17903.446   -15583.613   -17903.446            0     9805.641    49.902687    25.021769     23.03637            0            0            0    28764.444    10669.894    8840.4398    9906.5887    212.65705    246.85617    69.785636    49.902687    25.021769     23.03637           90           90           90 
  429500    304.41016   -17834.073   -15512.065   -17834.073            0    10085.057    50.143584    24.956854     23.00275            0            0            0    28786.242    9716.6859    10254.181    10284.305    -228.0112   -214.96836    299.38139    50.143584    24.956854     23.00275           90           90           90 
  430000    296.07135   -17872.644   -15614.244   -17872.644            0    10409.433    49.780901    25.013411    23.045548            0            0            0    28696.089    10317.357    10664.602    10246.341   -504.37795    205.18232    101.22286    49.780901    25.013411    23.045548           90           90           90 
  430500    308.55289   -17904.717   -15551.109   -17904.717            0    10353.749    50.314104    24.872675    22.934434            0            0            0    28701.214    9991.3996    10646.471    10423.377   -707.26236    81.368572    305.71554    50.314104    24.872675    22.934434           90           90           90 
  431000    301.27333   -17910.482   -15612.401   -17910.482            0    10692.456    49.588109    25.149951    23.002345            0            0            0    28687.111    12346.004    8835.6352    10895.729   -729.72531    702.83995    153.32183    49.588109    25.149951    23.002345           90           90           90 
  431500    307.00974   -17859.204   -15517.367   -17859.204            0    10153.061    50.089143    24.876635    23.059512            0            0            0    28733.289    10465.668    10250.138    9743.3763   -203.22619    653.13437    356.72275    50.089143    24.876635    23.059512           90           90           90 
  432000    303.02206   -17834.986   -15523.566   -17834.986            0    10649.647    49.899881    25.073178    22.940435            0            0            0    28701.893    10911.274    10421.083    10616.585   -495.83136    432.40722    791.75552    49.899881    25.073178    22.940435           90           90           90 
  432500    300.06319   -17917.355   -15628.506   -17917.355            0    10555.679     49.98872    24.900905    23.018715            0            0            0    28652.876    10900.134    10833.683    9933.2184   -188.83762   -257.30622   -143.23033     49.98872    24.900905    23.018715           90           90           90 
  433000    307.79564   -17888.366   -15540.534   -17888.366            0    9971.2829    49.956292    24.980803    23.035138            0            0            0    28746.661    10090.024    10365.371    9458.4542    517.98885    3.2480259   -78.525715    49.956292    24.980803    23.035138           90           90           90 
  433500    297.57054   -17852.383   -15582.547   -17852.383            0    10783.233     49.98412    25.005601    22.945941            0            0            0    28679.741    11063.757    11113.984    10171.958    225.93916    46.676807    1682.9087     49.98412    25.005601    22.945941           90           90           90 
  434000    303.75613   -17873.348   -15556.328   -17873.348            0    10412.554    49.880828    24.889143    23.115994            0            0            0      28698.3    10960.839    11231.957    9044.8649   -355.43036    124.66255    913.39382    49.880828    24.889143    23.115994           90           90           90 
  434500     306.7344   -17835.989   -15496.252   -17835.989            0     10342.69    49.855332     25.05844    22.996392            0            0            0    28729.319    11038.897     10197.04    9792.1325   -465.38197    219.53306    972.72074    49.855332     25.05844    22.996392           90           90           90 
  435000    289.25573   -17874.898   -15668.487   -17874.898            0    10783.454     50.14909    24.928512    22.924176            0            0            0     28658.48    10250.983    10895.155    11204.225   -43.079712    395.83369   -835.65138     50.14909    24.928512    22.924176           90           90           90 
  435500    294.82931   -17944.295   -15695.368   -17944.295            0     9039.221    49.891984     24.98884    23.086281            0            0            0    28782.654    10265.108    8146.5654    8705.9899   -183.69059    141.63855   -71.792905    49.891984     24.98884    23.086281           90           90           90 
  436000    302.22086   -17894.046   -15588.738   -17894.046            0    9276.9271    50.110513    24.974219    23.034858            0            0            0    28827.455    9290.6858    9185.6019    9354.4936    372.96664   -94.516202     963.9407    50.110513    24.974219    23.034858           90           90           90 
  436500    297.36991    -17903.82   -15635.514    -17903.82            0    9315.1641    49.939639    25.023221    23.051999            0            0            0    28806.944    9818.9127    8804.6693    9321.9104   -695.15316    70.277521   -290.40715    49.939639    25.023221    23.051999           90           90           90 
  437000     301.9199   -17905.733    -15602.72   -17905.733            0    8809.5177    50.174509    24.954222    23.043082            0            0            0    28851.456    8338.2101    9390.4793    8699.8637    255.33305   -541.94683    339.94349    50.174509    24.954222    23.043082           90           90           90 
  437500    297.75829   -17841.343   -15570.075   -17841.343            0    8727.3722     49.89902    25.092239    23.098388            0            0            0    28920.987    10308.131    7496.7526     8377.233    140.16554    1044.8411   -112.58843     49.89902    25.092239    23.098388           90           90           90 
  438000    301.26892   -17891.212   -15593.165   -17891.212            0    9026.8921    50.273045    24.913914    23.012763            0            0            0    28823.447    8482.5569    9253.9828    9344.1365    714.08739   -882.31035   -186.05645    50.273045    24.913914    23.012763           90           90           90 
  438500    296.20324   -17845.725   -15586.319   -17845.725            0    9704.5867    49.875999    25.058738    23.013347            0            0            0    28762.762    10180.664    9501.5837    9431.5126    12.455607   -641.94776     -284.462    49.875999    25.058738    23.013347           90           90           90 
  439000    304.96336   -17890.062   -15563.834   -17890.062            0    9434.5366    50.044621    24.967836    23.066514            0            0            0    28821.745    10197.228    9504.4573    8601.9249    -140.5095    1048.1741   -79.053182    50.044621    24.967836    23.066514           90           90           90 
  439500    301.51688   -17852.865   -15552.926   -17852.865            0    9741.1954    50.051606    24.963007    23.012344            0            0            0    28752.511    9577.8249    9739.6959    9906.0652   -813.81279    71.818852   -483.75629    50.051606    24.963007    23.012344           90           90           90 
  440000    302.20508   -17939.718    -15634.53   -17939.718            0    9797.8021    49.905211    25.012878    23.020603            0            0            0    28735.996    9978.2571    9434.8132    9980.3361    360.19698    -75.57078   -593.56653    49.905211    25.012878    23.020603           90           90           90 
  440500    300.03495   -17914.555   -15625.921   -17914.555            0    10425.034    50.037599    24.919759    23.023026            0            0            0    28707.984    9706.7332    10931.154    10637.216     99.77158   -340.54634    505.36828    50.037599    24.919759    23.023026           90           90           90 
  441000    298.24699   -17918.461   -15643.465   -17918.461            0    10599.005     49.88772    25.016838    22.996651            0            0            0     28700.58    10652.966    10447.554    10696.495   -480.55512    -298.0631   -796.33516     49.88772    25.016838    22.996651           90           90           90 
  441500    297.05062   -17841.448   -15575.578   -17841.448            0    10989.024    50.026192    24.870709    23.024161            0            0            0    28646.358     11480.33    11336.423    10150.319    632.91525    138.27403   -605.25462    50.026192    24.870709    23.024161           90           90           90 
  442000    306.73399    -17909.28   -15569.546    -17909.28            0    11430.589    49.796728    25.055103    22.929197            0            0            0    28607.892    11959.269    11111.255    11221.244    109.75404    297.43245   -778.85469    49.796728    25.055103    22.929197           90           90           90 
  442500    306.68927   -17834.109   -15494.716   -17834.109            0    10276.692    50.251868    24.800048    23.050176            0            0            0    28726.252    9059.8803    11388.998    10381.198    309.68404    402.12972    604.79187    50.251868    24.800048    23.050176           90           90           90 
  443000      299.369   -17865.595    -15582.04   -17865.595            0    10150.369    49.735599     25.07284    23.049491            0            0            0    28743.009    11719.036    8045.0242    10687.046    355.53695    21.474018   -596.80903    49.735599     25.07284    23.049491           90           90           90 
  443500    305.30199   -17879.147   -15550.336   -17879.147            0    9569.4052    50.177501    24.960852    22.965064            0            0            0    28763.128    9130.2425    10118.582    9459.3913   -485.89618   -236.94812   -284.44379    50.177501    24.960852    22.965064           90           90           90 
  444000    297.59813   -17886.005   -15615.958   -17886.005            0    10379.619    49.846572    24.980327    23.083053            0            0            0    28742.641    11057.649    10062.107    10019.101    29.073824   -170.22973   -324.96605    49.846572    24.980327    23.083053           90           90           90 
  444500    298.84081   -17894.442   -15614.916   -17894.442            0    10266.047    50.091696    24.958877    22.973679            0            0            0    28722.439     9801.307    10346.756    10650.077    323.19863    217.53481   -327.83769    50.091696    24.958877    22.973679           90           90           90 
  445000    306.30553   -17959.479   -15623.014   -17959.479            0    9830.3713    49.813417    25.056595    23.044475            0            0            0    28763.068    10281.517    8959.5302    10250.066    36.787508   -1418.0118   -871.71025    49.813417    25.056595    23.044475           90           90           90 
  445500    304.73285   -17857.806   -15533.337   -17857.806            0    9777.7801    50.069497    24.905484    23.086869            0            0            0    28789.441    8541.9751    11220.672     9570.693     931.2394    103.36328    544.66625    50.069497    24.905484    23.086869           90           90           90 
  446000    294.10241    -17841.86   -15598.478    -17841.86            0     10033.82    49.922689    25.039943    22.974975            0            0            0    28720.127    10477.716     9614.712    10009.031   -1208.5229    464.91878   -342.40926    49.922689    25.039943    22.974975           90           90           90 
  446500    298.35356   -17938.384   -15662.575   -17938.384            0    9978.6817    49.881419    24.950368    23.075423            0            0            0    28718.743    10225.134    9870.5438    9840.3678    -221.2983    1172.5825   -191.85425    49.881419    24.950368    23.075423           90           90           90 
  447000    295.54203   -17792.724   -15538.361   -17792.724            0    9967.1938    50.052938    24.984971    23.012717            0            0            0     28779.04    10670.671    9121.4828    10109.427   -539.63112    -462.0712    607.74929    50.052938    24.984971    23.012717           90           90           90 
  447500    304.35423   -17883.304   -15561.722   -17883.304            0    10177.735    49.964714    24.996467    23.030443            0            0            0    28763.672    10137.519    10480.817    9914.8696   -100.62378   -180.32535   -47.836158    49.964714    24.996467    23.030443           90           90           90 
  448000    294.21686   -17879.287   -15635.033   -17879.287            0    10035.586    50.123645    25.015911    22.947113            0            0            0    28773.124    9460.3769    10387.776    10258.606   -200.54915   -410.00838    303.87948    50.123645    25.015911    22.947113           90           90           90 
  448500    298.00806   -17894.663    -15621.49   -17894.663            0    9855.4338    49.752716    24.965912    23.186318            0            0            0    28800.234    11097.044    10214.847    8254.4103   -447.18697   -343.43974    553.27304    49.752716    24.965912    23.186318           90           90           90 
  449000    288.45519   -17862.474   -15662.169   -17862.474            0    9425.4853    50.248506    24.943124     22.98746            0            0            0    28811.442    8685.6454    10391.662    9199.1481    330.28218   -157.51362    675.83826    50.248506    24.943124     22.98746           90           90           90 
  449500    295.10257   -17914.327   -15663.317   -17914.327            0    9466.0165    49.944115    25.104487    22.989206            0            0            0    28824.358     9936.659    8591.0831    9870.3075   -364.05669   -517.66385    311.71719    49.944115    25.104487    22.989206           90           90           90 
  450000    304.53212   -17901.416   -15578.478   -17901.416            0    8841.2734    50.054335      24.9347    23.105977            0            0            0    28838.335    8402.1719    9513.5796    8608.0686    202.29219    154.82811    22.031727    50.054335      24.9347    23.105977           90           90           90 
  450500    306.17237   -17893.168   -15557.718   -17893.168            0    9325.9699     50.03093    25.034177    22.987581            0            0            0    28791.558      9803.41    8673.2708    9501.2288     473.6304   -113.89089    883.25507     50.03093    25.034177    22.987581           90           90           90 
  451000    295.61851   -17970.521   -15715.575   -17970.521            0    9711.8351    49.993022    24.970904    23.028544            0            0            0    28748.166    9540.0872    9612.1306    9983.2876    404.78536   -323.49502    19.760024    49.993022    24.970904    23.028544           90           90           90 
  451500    301.65178   -17860.358   -15559.391   -17860.358            0    9278.6254    50.043519    25.026012    23.030752            0            0            0    28843.477    9365.6822    8987.2295    9482.9646   -187.45912   -756.01392    280.08092    50.043519    25.026012    23.030752           90           90           90 
  452000    297.39581   -17894.853    -15626.35   -17894.853            0    9021.0134    50.089528     24.97797    23.088827            0            0            0    28887.234    9099.5412    9414.2662    8549.2329   -393.68178    428.74105    220.03046    50.089528     24.97797    23.088827           90           90           90 
  452500    300.33471   -17862.825   -15571.904   -17862.825            0    9377.1954     49.86418     25.02781    23.124257            0            0            0    28858.869    9553.9053    9413.5768    9164.1041   -432.09809      163.384    225.95303     49.86418     25.02781    23.124257           90           90           90 
  453000    291.60581   -17888.733   -15664.395   -17888.733            0    9434.1186    50.287636    24.976688    22.888512            0            0            0    28748.396    8347.6108    9676.3784    10278.367   -489.40538    381.54207    290.24117    50.287636    24.976688    22.888512           90           90           90 
  453500    302.84961   -17862.674   -15552.569   -17862.674            0    9314.0209    49.890964    25.015829    23.125366            0            0            0    28861.932    8933.5446    10354.173    8654.3456    127.71699    377.77099   -588.37982    49.890964    25.015829    23.125366           90           90           90 
  454000    299.81844   -17777.357   -15490.374   -17777.357            0    9702.6728    50.154472    24.949427    23.083959            0            0            0    28885.543    8486.8891    9984.3881    10636.741    79.943274    -866.9038    361.40227    50.154472    24.949427    23.083959           90           90           90 
  454500    296.97749   -17792.871   -15527.559   -17792.871            0    9849.6813    49.858397    25.156895    22.993826            0            0            0    28840.753    11203.547    8646.6476    9698.8489    239.70473   -748.60863   -803.87468    49.858397    25.156895    22.993826           90           90           90 
  455000    301.11667   -17829.515   -15532.629   -17829.515            0    10013.728    50.054077    24.806539    23.199456            0            0            0    28806.031      8581.03    11726.928    9733.2257    612.03353    32.099367    -177.1461    50.054077    24.806539    23.199456           90           90           90 
  455500    300.26466   -17868.268   -15577.881   -17868.268            0    10821.135    49.852828     25.07103    22.935788            0            0            0    28666.564     11983.58    9115.0408    11364.784    415.52201   -802.71896    65.259824    49.852828     25.07103    22.935788           90           90           90 
  456000    304.69086   -17854.073   -15529.923   -17854.073            0    10082.144    50.096578    24.909703    23.015167            0            0            0    28720.417    9503.5117    10707.747    10035.173   -136.61157   -206.30098    178.09782    50.096578    24.909703    23.015167           90           90           90 
  456500     295.6739   -17869.046   -15613.677   -17869.046            0    10307.185    49.809787    25.002007    23.055886            0            0            0    28712.524     11035.93    9294.2339    10591.391   -507.85582   -797.98835   -318.21164    49.809787    25.002007    23.055886           90           90           90 
  457000    299.05633   -17963.577   -15682.408   -17963.577            0    10419.589    50.049273    24.941215    22.967144            0            0            0    28669.649    10079.043    10820.519    10359.205    403.63999   -548.22029    -504.6206    50.049273    24.941215    22.967144           90           90           90 
  457500    300.22489   -17825.138   -15535.055   -17825.138            0    10230.252    49.888962    24.928692    23.074041            0            0            0    28696.414    10104.399    10357.165    10229.191    295.27801   -896.03643    171.67336    49.888962    24.928692    23.074041           90           90           90 
  458000    297.52714   -17842.344   -15572.839   -17842.344            0    11518.215    49.922302     24.96158    22.950277            0            0            0    28599.248    10871.007    11895.872    11787.766   -660.87125   -1020.1004    106.51819    49.922302     24.96158    22.950277           90           90           90 
  458500    300.40133   -17831.537   -15540.108   -17831.537            0    11174.708    50.033474     24.95636    22.929923            0            0            0    28631.525    10608.062    11460.536    11455.527     -331.444   -299.22122    940.42959    50.033474     24.95636    22.929923           90           90           90 
  459000    296.12238   -17916.701   -15657.911   -17916.701            0    10395.281    49.834949    24.938255    23.045187            0            0            0    28640.482    11049.339    10512.238    9624.2678   -91.329927    155.71995     160.6926    49.834949    24.938255    23.045187           90           90           90 
  459500     295.4866    -17915.29    -15661.35    -17915.29            0    10739.273    49.919553    24.974041    22.968393            0            0            0    28634.535    10214.657    11358.085    10645.076    202.05203    384.36676   -32.870691    49.919553    24.974041    22.968393           90           90           90 
  460000    302.18428   -17856.395   -15551.365   -17856.395            0    10636.796    49.958122     24.94762    23.037932            0            0            0     28713.01    11342.719     9774.116    10793.552    -482.1031    189.69083   -132.09051    49.958122     24.94762    23.037932           90           90           90 
  460500    297.14007   -17870.081   -15603.528   -17870.081            0    9509.9834    50.046875    25.002565    23.008683            0            0            0    28790.771    9586.6569    9296.2498    9647.0435   -429.54203   -28.145929   -317.31673    50.046875    25.002565    23.008683           90           90           90 
  461000    305.76163   -17884.185   -15551.868   -17884.185            0    9801.0047    50.007433    25.006551    23.034197            0            0            0    28804.572    9829.2954    10034.657    9539.0617   -636.44679    371.86898    1363.6338    50.007433    25.006551    23.034197           90           90           90 
  461500    297.41141   -17914.713    -15646.09   -17914.713            0     10353.94    50.021212    24.948541    22.993833            0            0            0    28695.297    10079.356    11072.851    9909.6138    -320.9121    452.42752   -923.74387    50.021212    24.948541    22.993833           90           90           90 
  462000    303.42724   -17853.284   -15538.773   -17853.284            0     10186.26     49.86416     25.05175    23.039855            0            0            0     28781.03    10565.178    9646.1432    10347.458   -106.67568    183.15157    33.005476     49.86416     25.05175    23.039855           90           90           90 
  462500    308.77887   -17835.116   -15479.784   -17835.116            0    9445.5468     50.19052    24.972575    23.020907            0            0            0    28854.096    8707.6609    9557.7833    10071.196   -130.69667    -1062.414    538.18427     50.19052    24.972575    23.020907           90           90           90 
  463000     297.2868   -17810.474   -15542.802   -17810.474            0    9434.8693    49.876178    25.103907    23.026067            0            0            0    28830.637    9544.7453    9497.2084    9262.6543     369.9588    44.271212    527.71848    49.876178    25.103907    23.026067           90           90           90 
  463500     305.0523   -17890.084   -15563.177   -17890.084            0    8746.3372    50.194739    24.935742    23.078545            0            0            0    28886.101    8472.8647    8818.8274    8947.3194   -193.74291    296.68634   -270.96252    50.194739    24.935742    23.078545           90           90           90 
  464000    302.26145    -17896.08   -15590.462    -17896.08            0    8523.3939    50.025058    25.162607    22.962325            0            0            0    28904.076    8108.5916    7906.8946    9554.6955    42.911413   -1.9671899    644.38115    50.025058    25.162607    22.962325           90           90           90 
  464500     296.2105   -17858.952    -15599.49   -17858.952            0    9474.4532    50.085074    24.876267    23.110777            0            0            0    28794.404    8969.5277    10454.316    8999.5157    91.052342   -19.596093    615.69625    50.085074    24.876267    23.110777           90           90           90 
  465000     294.9112   -17852.254   -15602.703   -17852.254            0    10226.615    49.852645    25.059253    23.022011            0            0            0    28760.709    9708.4562    10028.094    10943.294   -150.23417    363.06524    692.24862    49.852645    25.059253    23.022011           90           90           90 
  465500    300.26067   -17926.176   -15635.819   -17926.176            0    10074.795     50.12312    24.936194    23.001567            0            0            0    28749.195    9843.2098    9615.6082    10765.568    65.058028    235.89857    58.647822     50.12312    24.936194    23.001567           90           90           90 
  466000    305.21774   -17950.701   -15622.533   -17950.701            0    9350.5247    49.883648    25.013361    23.081564            0            0            0    28800.198    10265.702    8954.4459    8831.4259    150.17275     151.4972   -107.69472    49.883648    25.013361    23.081564           90           90           90 
  466500     296.7292   -17870.383   -15606.964   -17870.383            0    9491.8516     50.13469    24.965247    23.025674            0            0            0    28819.508     9550.981    9397.6269     9526.947   -95.606246   -129.91405    60.951541     50.13469    24.965247    23.025674           90           90           90 
  467000    309.24944   -17833.374   -15474.453   -17833.374            0    9585.2451    50.025806    25.017992    23.081108            0            0            0    28887.049    8886.3026    10331.838    9537.5946    148.66008   -947.63352    650.18465    50.025806    25.017992    23.081108           90           90           90 
  467500    297.83311   -17933.217   -15661.378   -17933.217            0    10245.243    49.946058    24.991423    23.007164            0            0            0    28718.073    9752.4614    9633.3548    11349.911   -244.94433   -321.28572   -744.49886    49.946058    24.991423    23.007164           90           90           90 
  468000    295.77242   -17860.286   -15604.165   -17860.286            0    10210.199    49.929059    24.964662    23.031455            0            0            0    28707.835    10086.728    10710.167     9833.701   -243.64838     103.3818   -243.82331    49.929059    24.964662    23.031455           90           90           90 
  468500    297.99169   -17856.855   -15583.806   -17856.855            0     10309.34     50.05033     24.98594    22.968824            0            0            0    28723.767     10042.07    10633.555    10252.396   -149.86611    -53.84655   -1223.8363     50.05033     24.98594    22.968824           90           90           90 
  469000    304.47805   -17897.246    -15574.72   -17897.246            0    9757.2854    49.996751    24.962574    23.061655            0            0            0    28782.043    10298.939    10145.996    8826.9215    953.29609   -384.54065    514.01404    49.996751    24.962574    23.061655           90           90           90 
  469500    290.55393   -17852.123   -15635.809   -17852.123            0      10070.9    49.847872    25.040051    23.011238            0            0            0    28722.472    11036.552    8378.8646    10797.282   -526.91831   -711.77146    341.64243    49.847872    25.040051    23.011238           90           90           90 
  470000    299.81366   -17885.314   -15598.367   -17885.314            0    9521.5377    50.146853    24.951384     22.97855            0            0            0    28751.528    9281.0922    9399.7076    9883.8133   -619.82426   -417.31769   -710.73282    50.146853    24.951384     22.97855           90           90           90 
  470500    297.95195   -17843.649   -15570.904   -17843.649            0    10513.199    49.765517     25.01597    23.076459            0            0            0    28728.638    11026.873     9774.233    10738.492    225.71881    809.27908     582.1065    49.765517     25.01597    23.076459           90           90           90 
  471000    308.65481   -17890.846    -15536.46   -17890.846            0    9974.0551    50.230419    24.932388    22.936567            0            0            0    28724.937    9946.7557    9559.2163    10416.193    190.13134    204.11004    637.55888    50.230419    24.932388    22.936567           90           90           90 
  471500     303.8361   -17876.429     -15558.8   -17876.429            0    10198.007    49.714734    25.069631    23.029908            0            0            0    28702.865    11551.615    9403.0483    9639.3586    137.09617   -14.419239    1151.0385    49.714734    25.069631    23.029908           90           90           90 
  472000    300.88041   -17862.019   -15566.935   -17862.019            0    9679.6004    50.173052    24.938229    23.019908            0            0            0    28803.131    9494.2002    9271.2341    10273.367   -231.02004   -129.90082     195.8633    50.173052    24.938229    23.019908           90           90           90 
  472500    298.87689   -17896.556   -15616.755   -17896.556            0     9144.191    50.092863    25.030756    22.995216            0            0            0    28832.833    9112.8987    9021.1109    9298.5635    572.28292   -621.81396    540.09204    50.092863    25.030756    22.995216           90           90           90 
  473000    297.03734   -17864.601   -15598.832   -17864.601            0    8825.7318    50.003411     25.02036    23.086993            0            0            0    28884.215     9225.451    8260.9624    8990.7819   -386.36516    489.48146   -864.64162    50.003411     25.02036    23.086993           90           90           90 
  473500    294.95423   -17849.946   -15600.067   -17849.946            0    8585.4467    50.152745    25.011757     23.02304            0            0            0    28880.292     8286.695    8770.5069    8699.1383    317.53937    264.66381    740.97973    50.152745    25.011757     23.02304           90           90           90 
  474000    298.44066    -17906.22   -15629.747    -17906.22            0     9328.028    50.031889    24.996823    22.998645            0            0            0    28762.985    10415.878    7882.7286    9685.4773   -206.15756   -253.91077   -465.40334    50.031889    24.996823    22.998645           90           90           90 
  474500    305.96463   -17891.726   -15557.861   -17891.726            0    9677.4729     49.98956    24.971305    23.056488            0            0            0    28781.519    9366.7438    10393.607    9272.0675    572.13111     356.4496    -345.0957     49.98956    24.971305    23.056488           90           90           90 
  475000    302.29737   -17914.424   -15608.532   -17914.424            0     9528.056       50.023     25.01566    23.005106            0            0            0    28787.632    9695.8682    9165.5915    9722.7083    20.468116    639.68037    249.40627       50.023     25.01566    23.005106           90           90           90 
  475500    297.99747   -17932.572   -15659.479   -17932.572            0    10248.138    49.954466     24.97057    23.019003            0            0            0    28713.708    9602.8469    10931.899    10209.669   -293.95187   -43.801977   -526.66594    49.954466     24.97057    23.019003           90           90           90 
  476000    302.18263   -17842.677   -15537.661   -17842.677            0     9639.085    49.974177     25.00567    23.017132            0            0            0    28763.078    9753.0395    9508.2063    9656.0091    20.004049   -71.524952    34.735511    49.974177     25.00567    23.017132           90           90           90 
  476500    304.76198   -17932.274   -15607.582   -17932.274            0    10165.851    50.036504    24.977027    22.958811            0            0            0    28693.076    9409.9696    11539.309    9548.2754   -306.75545   -214.45493   -51.698816    50.036504    24.977027    22.958811           90           90           90 
  477000    293.41317   -17821.837   -15583.712   -17821.837            0    10630.557    49.925274    24.996446    23.014142            0            0            0    28720.601    11164.506    9928.7721    10798.392   -74.773072   -25.610135    431.79151    49.925274    24.996446    23.014142           90           90           90 
  477500    305.27913   -17783.094   -15454.457   -17783.094            0    9975.1565    50.113604    24.940848    23.019423            0            0            0    28771.419    9102.7222    11113.996     9708.751    1078.3733   -402.90349   -637.65224    50.113604    24.940848    23.019423           90           90           90 
  478000     299.5668   -17861.457   -15576.393   -17861.457            0    9990.3499    49.845209    25.035558    23.039671            0            0            0    28751.266    10804.627    9747.0603    9419.3627   -420.56938    221.75812     182.8946    49.845209    25.035558    23.039671           90           90           90 
  478500     298.9823   -17897.373   -15616.768   -17897.373            0        10617    50.202004    24.898336    22.935108            0            0            0    28667.655    9595.1216    12117.216    10138.663    163.11892    882.42217   -522.73013    50.202004    24.898336    22.935108           90           90           90 
  479000    297.46549   -17888.113   -15619.078   -17888.113            0    11009.779    49.741395    25.042194    22.998747            0            0            0    28648.013    11939.468    10233.263    10856.605    -935.7233   -340.75201    550.94252    49.741395    25.042194    22.998747           90           90           90 
  479500    289.52973   -17883.778   -15675.277   -17883.778            0    11558.357    50.095328    24.807998     22.99826            0            0            0    28581.428    10853.401    11877.025    11944.646   -92.414458   -504.48822   -506.68678    50.095328    24.807998     22.99826           90           90           90 
  480000    301.98116   -17816.458   -15512.978   -17816.458            0    11793.148    49.723048    25.093805    22.900878            0            0            0    28574.353    12835.327    10449.578    12094.538    628.95887    647.87551   -444.21645    49.723048    25.093805    22.900878           90           90           90 
  480500    300.44636   -17794.098   -15502.325   -17794.098            0    11082.228    50.131663    24.879791    22.982862            0            0            0    28665.726    9719.2455    12151.174    11376.265    37.142123   -291.20861   -152.84366    50.131663    24.879791    22.982862           90           90           90 
  481000    296.57104   -17913.148   -15650.936   -17913.148            0    10563.002    49.851116    24.972803    23.048934            0            0            0    28694.127    10432.598    10727.652    10528.756   -62.877504    395.72202    608.34028    49.851116    24.972803    23.048934           90           90           90 
  481500    294.96725   -17825.437   -15575.458   -17825.437            0    10358.231    50.040012    24.958367    23.041128            0            0            0    28776.456    10816.781    9798.5315    10459.379   -341.93493    441.22007   -89.361295    50.040012    24.958367    23.041128           90           90           90 
  482000     301.4097   -17941.136   -15642.015   -17941.136            0    9935.5288    49.995522    24.975656    22.998342            0            0            0    28717.361    9386.3185    10810.488    9609.7805   -42.837144    105.23694    158.35548    49.995522    24.975656    22.998342           90           90           90 
  482500    294.03752   -17780.757   -15537.871   -17780.757            0    10084.058    49.954774    25.077633    23.014837            0            0            0     28831.78    10671.069    9596.0417    9985.0614   -260.80737   -443.28633   -413.03192    49.954774    25.077633    23.014837           90           90           90 
  483000      300.911   -17945.625   -15650.308   -17945.625            0    9484.0097    50.093749    24.921839    23.041546            0            0            0    28765.719    9123.7036    10031.917     9296.408    -497.1411    264.70848    411.05518    50.093749    24.921839    23.041546           90           90           90 
  483500    294.55636   -17786.458   -15539.613   -17786.458            0       9839.5    49.851253    25.120632    22.993653            0            0            0    28794.837    10271.825    9604.7611    9641.9141   -81.151937   -12.962468     614.3753    49.851253    25.120632    22.993653           90           90           90 
  484000    295.06489   -17860.296   -15609.572   -17860.296            0    9375.4238    50.186065    24.896917    23.057469            0            0            0    28809.807    8839.9569    10192.333    9093.9817    562.94496    552.25474    452.31014    50.186065    24.896917    23.057469           90           90           90 
  484500    304.88155    -17906.75   -15581.146    -17906.75            0    9380.9915    49.895836     25.10252    22.994008            0            0            0    28800.253    10026.034    8314.0578    9802.8826   -108.55039   -63.091713    29.148547    49.895836     25.10252    22.994008           90           90           90 
  485000     305.0177   -17861.768   -15535.126   -17861.768            0    9145.3484    50.241322    24.967255    23.002262            0            0            0     28853.76    8310.9627    9799.5391    9325.5434    162.16177   -659.37865    972.21769    50.241322    24.967255    23.002262           90           90           90 
  485500    298.75619   -17907.108   -15628.228   -17907.108            0    9395.4335    49.821473    24.978472    23.132822            0            0            0     28787.97    9853.1804    9436.7136    8896.4064      -769.87   -126.99003   -47.774602    49.821473    24.978472    23.132822           90           90           90 
  486000    285.12839   -17883.457   -15708.528   -17883.457            0    9773.0789    50.119458    25.006567     22.92962            0            0            0    28738.051    9105.2384    9320.4616    10893.537   -185.10188   -130.42269    454.96376    50.119458    25.006567     22.92962           90           90           90 
  486500    298.07158    -17901.16   -15627.502    -17901.16            0     9540.278    49.909933    25.010212    23.092024            0            0            0    28824.803    9330.2897     9776.298    9514.2462   -473.55841    517.74276    284.47447    49.909933    25.010212    23.092024           90           90           90 
  487000    302.29959   -17958.372   -15652.463   -17958.372            0    8684.3218     50.09359    24.956694    23.031428            0            0            0    28793.209    8519.7301    8589.8344    8943.4009   -122.86408   -414.91276    523.13487     50.09359    24.956694    23.031428           90           90           90 
  487500    292.33727     -17901.6   -15671.683     -17901.6            0    8844.4255    50.140253    25.070447    22.966263            0            0            0    28869.477    9381.2086    8853.6845    8298.3835    194.01152   -329.93359     855.0658    50.140253    25.070447    22.966263           90           90           90 
  488000    303.97661   -17835.661    -15516.96   -17835.661            0    9199.6761    49.953783    25.024507    23.088607            0            0            0    28862.347     9827.943    8451.4589    9319.6265    86.671721   -584.11913    403.72294    49.953783    25.024507    23.088607           90           90           90 
  488500    298.91513   -17866.905   -15586.813   -17866.905            0    9755.1952    50.095553    24.992273    23.035031            0            0            0      28839.9     10359.59    9076.2866    9829.7087    92.048703    -719.0601     84.34956    50.095553    24.992273    23.035031           90           90           90 
  489000    298.32689   -17886.883   -15611.277   -17886.883            0     9907.749     49.94803    25.090332    22.962655            0            0            0     28777.09    10334.036    8722.1139    10667.097    295.15312   -186.93679    19.690564     49.94803    25.090332    22.962655           90           90           90 
  489500    295.95086   -17808.265   -15550.784   -17808.265            0    9380.2597    50.021983    24.928838    23.148819            0            0            0    28866.343    10287.283    9708.1189    8145.3769   -759.10976    163.16769   -804.92445    50.021983    24.928838    23.148819           90           90           90 
  490000     304.6763   -17889.016   -15564.977   -17889.016            0    9531.3872    50.052485    25.127408    22.917402            0            0            0     28822.97    9752.1718    9225.5501    9616.4397    440.21786    684.93229    44.864447    50.052485    25.127408    22.917402           90           90           90 
  490500    301.36711   -17805.549   -15506.753   -17805.549            0    9827.0447    50.081185    24.911577    23.079668            0            0            0    28794.224    9687.8799    10004.792    9788.4622    414.12124    96.244856    789.83021    50.081185    24.911577    23.079668           90           90           90 
  491000     304.2576   -17837.018   -15516.174   -17837.018            0    10187.594    49.908867    24.995153    23.050877            0            0            0    28755.503    10013.651    10236.457    10312.673   -53.095288    866.20542    903.98659    49.908867    24.995153    23.050877           90           90           90 
  491500    309.51931   -17909.486   -15548.506   -17909.486            0     10291.75    50.117274    24.993449    22.934422            0            0            0    28727.738    10735.936    9610.9437     10528.37    69.954384    227.40009   -85.441957    50.117274    24.993449    22.934422           90           90           90 
  492000    301.00276   -17898.282   -15602.265   -17898.282            0    10372.599    49.921155    24.933245    23.060752            0            0            0    28703.634    10722.199    10408.847    9986.7525    598.29962    451.75383   -201.08806    49.921155    24.933245    23.060752           90           90           90 
  492500    304.43247   -17924.906   -15602.728   -17924.906            0    10421.688     49.94497    25.008288    22.992344            0            0            0    28718.316    10994.467    8966.5446    11304.053    397.42937    264.13821   -58.581071     49.94497    25.008288    22.992344           90           90           90 
  493000    295.56732   -17875.433   -15620.878   -17875.433            0    11227.345    49.986005    24.903681    22.983462            0            0            0    28610.629    11785.668     11158.35    10738.017    171.58464   -140.12405    155.44312    49.986005    24.903681    22.983462           90           90           90 
  493500    310.32473    -17852.51   -15485.386    -17852.51            0    11111.776    49.891781    25.007749    22.974906            0            0            0    28665.356    11966.715    10172.974    11195.638    -113.1674    363.36063     214.3303    49.891781    25.007749    22.974906           90           90           90 
  494000    295.36987   -17781.722   -15528.672   -17781.722            0    11607.673    49.966131    24.905341    22.981249            0            0            0    28598.407    12002.696     11006.27    11814.052   -244.13111    549.55095    43.945019    49.966131    24.905341    22.981249           90           90           90 
  494500    299.86073   -17901.976    -15614.67   -17901.976            0    10906.756    49.774651    24.950348    23.039149            0            0            0    28612.202    12140.794    10136.073      10443.4   -546.73835    61.960244   -151.92959    49.774651    24.950348    23.039149           90           90           90 
  495000    297.93026   -17859.863   -15587.283   -17859.863            0    11404.969    50.044862    24.950141    22.918142            0            0            0    28616.197      11369.3    10617.945    12227.663    231.78319   -346.37167    -648.5038    50.044862    24.950141    22.918142           90           90           90 
  495500    304.66528   -17865.411   -15541.456   -17865.411            0    10751.815    49.855255    24.956423     23.04306            0            0            0     28670.38    10646.252    10932.503     10676.69    249.69478   -339.47323    -154.0911    49.855255    24.956423     23.04306           90           90           90 
  496000      305.664   -17942.433   -15610.861   -17942.433            0    10452.063    50.045529     24.93179     22.96974            0            0            0     28659.91    9918.5108    10252.058    11185.621   -287.60461   -55.658856   -443.02038    50.045529     24.93179     22.96974           90           90           90 
  496500    309.83132   -17940.401   -15577.041   -17940.401            0    9820.2242     49.95174    25.010697    22.996805            0            0            0    28730.549    10068.216     10159.51    9232.9459    392.87836    210.16928    329.82027     49.95174    25.010697    22.996805           90           90           90 
  497000    297.12383   -17948.488   -15682.059   -17948.488            0    9778.0729     49.98141    24.892919    23.138362            0            0            0    28788.361    9666.9651     10990.88     8676.373    201.42647    106.67007    56.635108     49.98141    24.892919    23.138362           90           90           90 
  497500    290.23321   -17938.112   -15724.244   -17938.112            0    8854.8547     50.11855    25.126284    22.858497            0            0            0    28785.543    8394.2542    8640.7571    9529.5527   -458.07285   -26.378626   -282.82392     50.11855    25.126284    22.858497           90           90           90 
  498000    303.99341   -17925.169    -15606.34   -17925.169            0     8697.079    50.063314     24.94203    23.081444            0            0            0    28821.354    8589.4896    8745.8995    8755.8479    187.78452   -382.84824    463.54684    50.063314     24.94203    23.081444           90           90           90 
  498500    303.87165    -17856.96    -15539.06    -17856.96            0    9749.5834    49.919786    24.970439     23.09123            0            0            0    28783.657    10289.988    9336.6904     9622.072    390.95196    150.96039    858.03888    49.919786    24.970439     23.09123           90           90           90 
  499000    304.49789   -17833.538    -15510.86   -17833.538            0    9939.2039    50.114768    25.017481    22.959929            0            0            0    28785.902    8751.7053    10335.931    10729.975    227.88575    63.713491    354.67743    50.114768    25.017481    22.959929           90           90           90 
  499500     292.9527   -17865.653   -15631.041   -17865.653            0    10182.567    49.868518    24.953893    23.102357            0            0            0    28748.889    9626.0403    11055.768    9865.8917   -198.13738   -291.26623   -530.69992    49.868518    24.953893    23.102357           90           90           90 
  500000    298.91012   -17816.045    -15535.99   -17816.045            0    10346.838    50.141712    25.005587    22.944136            0            0            0    28767.884    9782.8334    10086.569    11171.112   -563.47085   -78.425071    396.76979    50.141712    25.005587    22.944136           90           90           90 
Loop time of 7426.14 on 42 procs for 500000 steps with 3840 atoms

Performance: 5.817 ns/day, 4.126 hours/ns, 67.330 timesteps/s
96.2% CPU use with 42 MPI tasks x 1 OpenMP threads

MPI task timing breakdown:
Section |  min time  |  avg time  |  max time  |%varavg| %total
---------------------------------------------------------------
Pair    | 376.79     | 437.86     | 503.54     | 191.4 |  5.90
Bond    | 0.60486    | 0.64825    | 0.76076    |   5.4 |  0.01
Kspace  | 4214.1     | 4293.1     | 4368.4     |  64.7 | 57.81
Neigh   | 79.408     | 80.678     | 81.916     |   6.8 |  1.09
Comm    | 550.11     | 636.43     | 717.69     | 168.1 |  8.57
Output  | 37.342     | 37.397     | 37.635     |   0.9 |  0.50
Modify  | 1627.7     | 1685.8     | 1734.3     |  69.0 | 22.70
Other   |            | 254.3      |            |       |  3.42

Nlocal:        91.4286 ave         102 max          83 min
Histogram: 6 3 5 4 9 2 3 5 2 3
Nghost:        3758.50 ave        3863 max        3675 min
Histogram: 2 3 9 5 3 13 3 2 0 2
Neighs:        32174.2 ave       36611 max       28761 min
Histogram: 5 2 8 5 6 3 6 2 2 3

Total # of neighbors = 1351318
Ave neighs/atom = 351.90573
Ave special neighs/atom = 2.0000000
Neighbor list builds = 19925
Dangerous builds = 0

unfix           1
unfix           2


# create group to melt
variable	meltPt equal (xlo)+(lx)/2.0
variable	xlo equal (xlo)
variable	xhi equal (xhi)
variable	ylo equal (ylo)
variable	yhi equal (yhi)
variable	zlo equal (zlo)
variable	zhi equal (zhi)

variable	xy equal (xy)
variable	xz equal (xz)
variable	yz equal (yz)


region		meltReg prism ${meltPt} ${xhi} ${ylo} ${yhi} ${zlo} ${zhi} ${xy} ${xz} ${yz}
region		meltReg prism 24.7299994999985 ${xhi} ${ylo} ${yhi} ${zlo} ${zhi} ${xy} ${xz} ${yz}
region		meltReg prism 24.7299994999985 49.8008553829683 ${ylo} ${yhi} ${zlo} ${zhi} ${xy} ${xz} ${yz}
region		meltReg prism 24.7299994999985 49.8008553829683 -0.0171796944942315 ${yhi} ${zlo} ${zhi} ${xy} ${xz} ${yz}
region		meltReg prism 24.7299994999985 49.8008553829683 -0.0171796944942315 24.9884076944934 ${zlo} ${zhi} ${xy} ${xz} ${yz}
region		meltReg prism 24.7299994999985 49.8008553829683 -0.0171796944942315 24.9884076944934 0.0374396400620274 ${zhi} ${xy} ${xz} ${yz}
region		meltReg prism 24.7299994999985 49.8008553829683 -0.0171796944942315 24.9884076944934 0.0374396400620274 22.9815753599369 ${xy} ${xz} ${yz}
region		meltReg prism 24.7299994999985 49.8008553829683 -0.0171796944942315 24.9884076944934 0.0374396400620274 22.9815753599369 0 ${xz} ${yz}
region		meltReg prism 24.7299994999985 49.8008553829683 -0.0171796944942315 24.9884076944934 0.0374396400620274 22.9815753599369 0 0 ${yz}
region		meltReg prism 24.7299994999985 49.8008553829683 -0.0171796944942315 24.9884076944934 0.0374396400620274 22.9815753599369 0 0 0
units box
ERROR: Units command after simulation box is defined (../input.cpp:1932)
Last command: units box
