LAMMPS (30 Jul 2021)
  using 1 OpenMP thread(s) per MPI task
package omp 0
using multi-threaded neighbor list subroutines
echo both

include		in.partitions
variable        pid world 0
include		in.temp
variable        temperature equal 269.26
variable	tempDamp equal 100.0
include		in.pressure
variable        pressure equal 11250.0
variable        pressureDamp equal 1000.0 # This is 1 ps
include		in.seed
variable        seed world 745823

units		real
atom_style	full
read_restart    restart.lmp.${pid}
read_restart    restart.lmp.0
Reading restart file ...
  restart file = 30 Jul 2021, LAMMPS = 30 Jul 2021
  restoring atom style full from restart
  triclinic box = (-3.0284237 -0.41427259 0.064899002) to (14.638423 22.994272 19.165099) with tilt (-0.11301343 -5.9093025 0.11037321)
  4 by 4 by 4 MPI processor grid
  restoring pair style lj/cut/tip4p/long/omp from restart
  restoring bond style harmonic/omp from restart
  restoring angle style harmonic/omp from restart
  1008 atoms
  672 bonds
  336 angles
Finding 1-2 1-3 1-4 neighbors ...
  special bond factors lj:    0        0        0       
  special bond factors coul:  0        0        0       
     2 = max # of 1-2 neighbors
     1 = max # of 1-3 neighbors
     1 = max # of 1-4 neighbors
     2 = max # of special neighbors
  special bonds CPU = 0.030 seconds
  read_restart CPU = 0.233 seconds

include 	in.setup
variable	out_freq equal 1000
variable	out_freq2 equal 10000
variable	out_freq3 equal 1000

timestep	2.0

neigh_modify    delay 7 every 1

include		in.tip4p
# This is TIP4P/Ice

# create groups ###
group ox type 2
336 atoms in group ox
group hy type 1
672 atoms in group hy

# set charges - beside manually ###
set group ox charge -1.1794
Setting atom values ...
  336 settings made for charge
set group hy charge 0.5897
Setting atom values ...
  672 settings made for charge

# ### TIP3P Potential Parameters ###
pair_style lj/cut/tip4p/long/omp 2 1 1 1 0.1577 8.5
pair_coeff 1 1*2 0.000 0.000
pair_coeff 2 2 0.21084 3.1668
bond_style  harmonic
bond_coeff  1 450 0.9572
angle_style harmonic
angle_coeff 1 55 104.52
kspace_style pppm/tip4p/omp 1.0e-5
pair_modify tail yes

thermo          ${out_freq}
thermo          1000
thermo_style    custom step temp pe etotal epair emol press lx ly lz vol pxx pyy pzz pxy pxz pyz enthalpy

restart 	${out_freq3} restart.lmp.${pid} restart2.lmp.${pid}
restart 	1000 restart.lmp.${pid} restart2.lmp.${pid}
restart 	1000 restart.lmp.0 restart2.lmp.${pid}
restart 	1000 restart.lmp.0 restart2.lmp.0


include         in.dump
dump            myDump all atom ${out_freq2} dump.water.${pid}
dump            myDump all atom 10000 dump.water.${pid}
dump            myDump all atom 10000 dump.water.0
dump            myDump2 all dcd ${out_freq2} dump.dcd
dump            myDump2 all dcd 10000 dump.dcd
dump_modify     myDump append yes
dump_modify     myDump2 append yes


variable natoms 	equal  "count(all)"                        # NUMBER ATOMS
variable H      	equal  "enthalpy/v_natoms"                 # ENTHALPY-per-atom
variable Vol      	equal  "vol/v_natoms"                 # volume-per-atom
fix AVG all 		ave/time ${out_freq} 1 ${out_freq} v_Vol v_H file vol_enthalpy.dat
fix AVG all 		ave/time 1000 1 ${out_freq} v_Vol v_H file vol_enthalpy.dat
fix AVG all 		ave/time 1000 1 1000 v_Vol v_H file vol_enthalpy.dat



fix 		1 all shake 1e-6 200 0 b 1 a 1
       0 = # of size 2 clusters
       0 = # of size 3 clusters
       0 = # of size 4 clusters
     336 = # of frozen angles
  find clusters CPU = 0.001 seconds
fix             2 all nph tri ${pressure} ${pressure} ${pressureDamp}
fix             2 all nph tri 11250 ${pressure} ${pressureDamp}
fix             2 all nph tri 11250 11250 ${pressureDamp}
fix             2 all nph tri 11250 11250 1000
fix             3 all temp/csvr ${temperature} ${temperature} ${tempDamp} ${seed}
fix             3 all temp/csvr 269.26 ${temperature} ${tempDamp} ${seed}
fix             3 all temp/csvr 269.26 269.26 ${tempDamp} ${seed}
fix             3 all temp/csvr 269.26 269.26 100 ${seed}
fix             3 all temp/csvr 269.26 269.26 100 745823


run             250000
PPPM initialization ...
  extracting TIP4P info from pair style
  using 12-bit tables for long-range coulomb (../kspace.cpp:340)
  G vector (1/distance) = 0.38354894
  grid = 24 30 32
  stencil order = 5
  estimated absolute RMS force accuracy = 0.0019382736
  estimated relative force accuracy = 5.8370533e-06
  using double precision FFTW3
  3d grid and FFT values/proc = 3825 384
Last active /omp style is kspace_style pppm/tip4p/omp
Neighbor list info ...
  update every 1 steps, delay 7 steps, check yes
  max neighbors/atom: 2000, page size: 100000
  master list distance cutoff = 10.8154
  ghost atom cutoff = 10.8154
  binsize = 5.4077, bins = 5 5 4
  1 neighbor lists, perpetual/occasional/extra = 1 0 0
  (1) pair lj/cut/tip4p/long/omp, perpetual
      attributes: half, newton on, omp
      pair build: half/bin/newton/tri/omp
      stencil: half/bin/3d/tri
      bin: standard
Per MPI rank memory allocation (min/avg/max) = 9.328 | 9.334 | 9.336 Mbytes
Step Temp PotEng TotEng E_pair E_mol Press Lx Ly Lz Volume Pxx Pyy Pzz Pxy Pxz Pyz Enthalpy 
17000000    268.99597   -4779.5169   -4241.4917   -4779.5169            0     10075.23    17.666846    23.408544      19.1002    7898.9862    9426.9839    10253.663    10545.042    467.94787    -436.6477   -1775.8015   -3080.8392 
17001000    278.22254   -4825.3621   -4268.8827   -4825.3621            0    12232.641    17.422407    23.601062    18.959999    7796.1111    11439.969    11148.244    14109.709    612.19704    381.83929    143.39569   -2878.0524 
17002000     275.1274   -4817.2446   -4266.9558   -4817.2446            0    9744.7365    17.684854    23.441008    18.975493    7866.3058    8282.6955     9227.683    11723.831   -64.484589    829.71832   -1396.5741   -3149.0201 
17003000    271.17468   -4813.5619   -4271.1791   -4813.5619            0    11369.919    17.692734    23.116287    19.054233    7792.9969    12537.814    10377.292    11194.652   -696.03968    759.84445   -373.55965   -2978.9552 
17004000    254.32304   -4809.5359   -4300.8584   -4809.5359            0     10200.45    17.645815    23.130771    19.215349     7842.962    10805.755    9978.4044    9817.1897    78.779615   -384.58519    -6.927153   -3134.1151 
17005000    264.70432   -4788.1443    -4258.703   -4788.1443            0    10519.469    17.834312    23.265282    18.930918    7854.8222    9911.9081    9646.6779    11999.821   -761.98972    378.95099   -708.78889   -3053.6502 
17006000    269.39592   -4793.8037   -4254.9785   -4793.8037            0    8858.1269    17.690811    23.124359    19.274176    7884.8471    8707.2026    8820.8941     9046.284    1298.7003    49.519417   -125.39243   -3236.3612 
17007000    267.43924   -4801.2985    -4266.387   -4801.2985            0    11144.454    17.739455    23.209953    19.021039    7831.5688    10774.304    10225.173    12433.883    325.49112   -942.89336    219.55499   -2993.5188 
17008000     260.3479   -4779.6321   -4258.9041   -4779.6321            0    12674.744    17.623972    23.185384    19.114497    7810.5381    12306.636    13218.863    12498.733   -286.12764    314.12963    571.47356   -2815.1407 
17009000    275.38982     -4780.05   -4229.2363     -4780.05            0    10533.611    17.752508    23.204214     19.08893    7863.3602    11458.447    10532.376    9610.0111    804.90794   -1100.0555    2772.2877   -3021.2519 
17010000    271.07937   -4792.2005   -4250.0083   -4792.2005            0    9539.2927    17.614772    23.151115    19.303502    7871.9993     9332.383    10283.839    9001.6559   -267.00884    80.636083     -341.032   -3154.8495 
17011000    275.83821   -4832.6433   -4280.9328   -4832.6433            0    11444.092    17.846771    23.050187    19.027137    7827.2201    13146.228    11322.073    9863.9756   -485.42977     567.5243    -1159.407    -2974.567 
17012000    288.22863   -4797.9992   -4221.5063   -4797.9992            0     10463.22    17.716997    23.128646    19.211211    7872.1809    10001.566    10406.639    10981.453   -310.55055    275.44235    882.74765   -3020.2483 
17013000    272.89673   -4756.2922    -4210.465   -4756.2922            0    12072.965    17.738021     23.14079    19.063918    7825.2008    11911.105    13208.456    11099.334    963.28727    711.97665    638.50766   -2832.6678 
17014000    268.51034   -4807.8673   -4270.8134   -4807.8673            0    11001.256    17.562482    23.251981    19.236416    7855.4308     12591.18    10312.722    10099.866    620.54123   -373.94779   -100.78666   -3010.4721 
17015000    262.52798   -4781.0889   -4256.0005   -4781.0889            0    12568.089    17.767566    23.246271    18.898103    7805.4769    9848.0215    13846.838    14009.408   -528.24326   -640.31719    1430.5913   -2825.3136 
17016000    276.70225   -4813.9898   -4260.5511   -4813.9898            0    10945.002     17.66339    23.038267    19.246748    7832.1537    12210.144    10765.925    9858.9379    1381.1907   -408.20685     361.4338     -3010.37 
17017000    268.12855   -4806.3622   -4270.0719   -4806.3622            0    9040.2838    18.039013     23.08704    18.994223     7910.475    7565.4886    8940.2103    10615.152    1862.8346    253.69259    1822.3885   -3227.1291 
17018000    269.29046     -4829.59   -4290.9758     -4829.59            0    9382.4534    17.760382    22.721601    19.445019    7846.9268    9104.0175    11047.936    7995.4067    732.53685     108.9928     552.2934   -3217.2537 
17019000    266.47509   -4800.8389   -4267.8558   -4800.8389            0    10778.981    18.158405    22.480629    19.223059    7847.0905    10237.413    11708.571    10390.958     1036.545   -67.844574   -269.45722   -3034.2902 
17020000    276.23163     -4828.87   -4276.3726     -4828.87            0    10738.155    18.001501    22.501361    19.399214    7857.8118    9432.2408    13313.981    9468.2439    -107.5849    756.30964   -75.631905   -3045.8001 
17021000    265.38352   -4827.2793   -4296.4795   -4827.2793            0    11379.336    17.977445     22.61422    19.319714    7854.3505    11730.964    11676.901    10730.142   -105.15479   -778.32531   -304.38084   -2993.0034 
17022000    261.31251   -4801.7797   -4279.1224   -4801.7797            0     10086.76    17.776026    22.882856    19.466564    7918.3413    10871.032    10096.442    9292.8048    146.51466    531.19159    1223.3255   -3114.2945 
17023000     259.4552   -4814.9033   -4295.9609   -4814.9033            0    12190.437    17.896407    22.874902    19.113316    7824.5815    10397.017    12956.756    13217.538    121.42094    773.42411    2422.2708   -2904.8675 
17024000    274.41861   -4759.1955   -4210.3244   -4759.1955            0    12515.032    17.752896    23.042833    19.172334    7842.9608    12330.148    12218.484    12996.464   -774.05873      233.078    1439.0942   -2778.8358 
17025000    276.16039   -4786.6018    -4234.247   -4786.6018            0    10729.111    17.790226    23.219981    19.012494    7853.8464    11234.269     10605.22    10347.843   -800.46308    76.594674   -41.173743   -3005.3314 
17026000    279.95685    -4807.315   -4247.3667    -4807.315            0    9573.1705    17.690344    23.143196    19.253986    7882.7954    10162.461    9633.8129    8923.2376    170.11178   -493.34716   -569.91757   -3146.8113 
17027000     275.4771   -4792.0414   -4241.0532   -4792.0414            0    10131.071    17.895239    22.836898    19.315219    7893.5843    10350.798    10330.948    9711.4662    117.98186    333.68971    166.96715    -3074.766 
17028000    263.18557   -4809.3162   -4282.9125   -4809.3162            0    11084.755     17.87846    22.608773    19.409187    7845.3883    10192.812     12153.41    10908.043   -1078.4121    1490.3392   -1016.0296   -3014.6288 
17029000    264.09132   -4790.4996   -4262.2843   -4790.4996            0     11125.36     18.09295    22.580986    19.294412    7882.8604    8515.2005     12454.69    12406.189   -1603.2052    128.16866    698.24285   -2983.2747 
17030000    283.51197   -4809.2498   -4242.1908   -4809.2498            0     9496.315    17.929641    22.769306    19.383182    7913.0963    8458.3376    9754.0174     10276.59    621.62995   -278.40562    856.21259   -3146.2744 
17031000    273.01408   -4792.2109   -4246.1491   -4792.2109            0    10408.889    17.990027    22.958163    19.147146    7908.1153    9317.2493    10936.392    10973.024    2224.8309    159.99919    300.71761   -3045.6737 
17032000    267.59975   -4781.3141   -4246.0816   -4781.3141            0    11459.458     17.69731    22.929578    19.241786    7808.1603    11513.613    11209.703    11655.058   -185.60449   -712.43059   -168.14305   -2941.1471 
17033000     268.3423   -4806.8783   -4270.1605   -4806.8783            0    11628.859      17.9757    23.049008    18.953205    7852.7307    10986.645    11613.845    12286.087   -349.47202    30.552571    751.80523   -2938.3768 
17034000     267.0426   -4824.4651    -4290.347   -4824.4651            0    13168.543    17.512976    23.092294    19.226318    7775.4071    14161.006    13620.899    11723.725    234.18987   -562.53656    830.30688   -2797.0824 
17035000    260.79778   -4818.1663   -4296.5385   -4818.1663            0    12508.676    17.663865    23.179044    19.048807    7799.1817    11684.898    12195.452    13645.678   -37.946402    468.36515   -1203.9492   -2873.7634 
17036000    265.56542   -4819.1276   -4287.9639   -4819.1276            0    12007.133    17.558742    23.205004    19.109366    7786.1241    13544.682    11685.673    10791.043    2571.3868    497.36263    835.04957   -2924.5224 
17037000    274.05815   -4805.5921   -4257.4419   -4805.5921            0    10962.734    17.638665    23.499632    18.858008    7816.6845    10819.706    9023.5354    13044.961   -500.35397   -580.11854   -2044.5134   -3007.7086 
17038000       267.09   -4791.9607   -4257.7477   -4791.9607            0    12178.447    17.495088    23.291499    19.096982    7781.7685    14056.897     11704.63    10773.814   -458.98483   -547.36524    128.83162   -2875.6266 
17039000    264.44963   -4801.9636   -4273.0317   -4801.9636            0    10884.166    17.660823    23.358722    19.017314    7845.2934     10322.63    10194.388    12135.481    1465.7538   -1028.4164    1761.6097   -3027.7137 
17040000     261.0716   -4788.0072   -4265.8317   -4788.0072            0    11168.343    17.698019    23.217618    19.134243    7862.3721    11644.728    9746.8093    12113.491    1986.0092   -478.41182    599.68453   -2985.2178 
17041000    269.65754   -4798.3534    -4259.005   -4798.3534            0    11500.144    17.934518    23.141397    18.889289    7839.6176     10920.72    9116.8449    14462.868    434.13094   -803.77878    -963.4405   -2944.1615 
17042000    255.48834    -4775.057   -4264.0488    -4775.057            0    12062.715    17.646817    22.998946    19.332723    7846.3439    14101.047    11391.407    10695.689    1596.5248   -1135.3451   -940.54378   -2883.7017 
17043000    274.99592   -4787.6335   -4237.6077   -4787.6335            0    10531.163    17.844558    22.901413    19.196235    7844.8406    10213.842    11299.447    10080.199   -500.98171   -304.93834   -1545.4819   -3032.7484 
17044000     265.7193   -4824.9731   -4293.5017   -4824.9731            0    11248.526    17.868354    22.691047    19.301506    7825.8276    11602.383    11822.883    10320.312    663.46401   -1362.1774   -479.77837   -3009.6886 
17045000    267.37827   -4841.9025   -4307.1129   -4841.9025            0    9795.1522    17.951403    22.953466      19.1786     7902.483    8729.7805    9367.1288    11288.547   -808.58366   -398.54687   -1502.2281   -3178.2254 
17046000    259.44231   -4820.3624   -4301.4457   -4820.3624            0     9450.757    17.832087    23.002685    19.238329    7891.2907    9640.3027    9633.1935    9078.7749    550.82599   -454.12801    216.05364   -3213.7923 
17047000    273.72175   -4810.4937   -4263.0164   -4810.4937            0    12240.951    17.736335    22.942325    19.236282    7827.4884    11624.234    12649.132    12449.487   -2706.7148    298.95486    -91.47755   -2865.6397 
17048000    270.24569   -4826.1321   -4285.6074   -4826.1321            0    11669.832    17.782429    22.819506     19.21401    7796.7807    11310.269    12034.575    11664.651    1435.9167      -21.509    2763.0101   -2958.6536 
17049000    284.53028    -4818.755   -4249.6593    -4818.755            0    10881.013    17.935028    22.708006    19.361837    7885.4705    12209.358    11339.688    9093.9918   -1205.3505   -635.97942   -31.014348   -2998.3265 
17050000    267.59504   -4833.9067   -4298.6836   -4833.9067            0    10697.753    17.914653    22.829946     19.24245    7869.9805    10179.552    12155.604    9758.1022     670.5094    83.357479    826.70645   -3070.8427 
17051000    272.30643   -4747.6322   -4202.9857   -4747.6322            0    10905.294     17.77035    23.063045    19.245556     7887.567    9592.9601    12046.739    11076.182   -925.02626    860.88115    309.30784   -2948.5271 
17052000      271.067   -4823.8284   -4281.6609   -4823.8284            0    13638.219    17.637535    22.849975    19.265636    7764.3835    14277.395    12742.863      13894.4   -1009.9595    420.90974    1247.5113   -2737.3294 
17053000    266.91905   -4825.6713   -4291.8002   -4825.6713            0    12863.188    17.947417    22.934246    18.894664    7777.2418    9710.9645    13928.188    14950.411    348.16577   -714.76027    444.14423   -2832.8177 
17054000    282.58826   -4804.6982   -4239.4867   -4804.6982            0    9618.7186    17.788488    23.026701    19.185246    7858.4725    10504.509    9348.6278    9003.0187    38.382563   -730.30391   -1616.1807   -3137.1069 
17055000    269.43966    -4787.822   -4248.9094    -4787.822            0    11546.717    17.716245    22.896102    19.388471    7864.6025    11281.546    11968.599    11390.005    714.99137    -285.0407    1798.0612   -2924.5338 
17056000    280.48039   -4781.3169   -4220.3214   -4781.3169            0    12693.872     17.89312    22.884668    19.133906    7834.9159     12488.62    13302.038    12290.956    1961.0507    988.22602   -738.06013   -2769.8662 
17057000    264.34976   -4829.7526   -4301.0204   -4829.7526            0    10691.983    17.678754    22.801069    19.444285    7837.8846    12039.978    11619.933    8416.0374    -378.1127   -790.28033   -196.59088   -3078.8465 
17058000    271.86196   -4808.2947   -4264.5372   -4808.2947            0    10608.565    17.858275    23.082796    19.032549    7845.5765     10253.83    8791.4439    12780.421    319.21873   -1219.5143    475.58514   -3050.7085 
17059000    275.06914   -4815.9916   -4265.8193   -4815.9916            0    9842.1353    17.711043    23.029046    19.255086    7853.5418    9685.8421    10420.488    9420.0759     751.8008    273.43412    1861.6705   -3138.5419 
17060000    272.58756   -4820.9566   -4275.7478   -4820.9566            0    11243.941    17.835187     23.26128    18.889072    7836.4957    9950.5815     10451.51    13329.732   -368.63344    550.68068     235.3515   -2990.7087 
17061000    273.82366   -4802.0185   -4254.3374   -4802.0185            0    10353.386    17.830616    23.005122    19.213403    7881.2514    10485.904    10539.376    10034.878   -1045.3085    886.92118   -187.54075   -3064.3195 
17062000    281.04825   -4779.4867   -4217.3555   -4779.4867            0    9343.8792    17.793003    23.176335    19.164847    7903.1346    10335.267    8862.2434    8834.1277    742.23492    173.27908    1126.6004   -3140.3882 
17063000    281.87347   -4791.9541   -4228.1724   -4791.9541            0    11350.665    17.637017    23.140618    19.224691    7846.2013    10828.826    11231.461    11991.707   -323.54828    97.679321    684.20136   -2929.3294 
17064000    277.23408    -4821.411   -4266.9086    -4821.411            0    8809.7415    17.585112    23.200347    19.259071     7857.329    8479.8919    9245.5456    8703.7871   -833.82275    -774.0253    41.441628   -3257.3908 
17065000     263.2049   -4820.0361   -4293.5938   -4820.0361            0     11362.12    17.733172    23.201148    19.025473    7827.6493    12171.665    11267.396    10647.299    241.58091   -397.17623    1711.1897   -2996.5142 
17066000    269.54015   -4780.3686    -4241.255   -4780.3686            0    10723.262     17.76583    23.152234    19.181306    7889.6291    10808.454    10357.392    11003.941   -1144.8258    457.61581   -477.58115   -3007.4134 
17067000     282.1476   -4842.5672   -4278.2371   -4842.5672            0    11726.149    17.861503    22.942818    19.078051    7818.0555    11517.021    11488.136    12173.292    936.66227    -84.46175    3264.6822   -2941.2413 
17068000    261.53338   -4788.1395   -4265.0404   -4788.1395            0    10185.292    17.855133    22.974908    19.177148    7866.8503    9471.5755    10705.636    10378.665   -2801.8744   -663.96097   -35.534548   -3096.4824 
17069000    264.57241   -4835.9937   -4306.8162   -4835.9937            0    11036.687     17.77022    23.033135    19.185432    7852.6712    12210.673    10697.267     10202.12     122.9568    1534.6348    1306.0968     -3042.86 
17070000    273.14788   -4807.8964   -4261.5669   -4807.8964            0    11395.779    17.899006    22.898632    19.162302    7853.9137    12033.621    10538.503    11615.213    289.22772   -888.06836   -1003.3648   -2956.2799 
17071000    267.26417   -4803.7662   -4269.2049   -4803.7662            0    10990.178    17.772442    23.026724     19.22817    7868.9577    10484.645    11501.107    10984.783   -392.50944   -12.782192    -782.7561   -3007.9646 
17072000    281.74254   -4777.0125   -4213.4926   -4777.0125            0     9673.643    17.726838     22.85406    19.481665    7892.6114     9374.053    11051.595    8595.2816     1601.544    208.40877    113.52583   -3100.0018 
17073000    255.56652   -4813.1017   -4301.9371   -4813.1017            0    11670.326    17.851471     22.94494    19.082287    7816.1227    8947.5169    13411.087    12652.374   -601.02836    135.37908   -2649.2634   -2971.6351 
17074000    258.53537   -4830.6175   -4313.5148   -4830.6175            0    11541.966    17.800153    23.093251    19.090308    7847.3273    11359.035    11845.465    11421.398    1345.1935    865.61342   -1809.9384   -2992.5919 
17075000    257.90331    -4793.145   -4277.3065    -4793.145            0    11301.011    17.794878    23.018378    19.176645    7854.9309    11936.392    11403.298    10563.344   -592.50189    968.83289    -1152.771   -2982.7066 
17076000    277.93285   -4819.0889   -4263.1889   -4819.0889            0    10645.648    17.864482    22.960257    19.185591    7869.4133    9449.9777    10426.754    12060.211   -395.65201    244.64432    422.62166   -3041.4164 
17077000    246.96208   -4812.4924   -4318.5377   -4812.4924            0    12400.579    17.738552    22.916286     19.21386    7810.4676    12081.142    12296.964    12823.629    721.79584   -982.22752   -505.53793   -2906.0169 
17078000    283.06543   -4775.5641   -4209.3983   -4775.5641            0    13648.414    17.703393    22.907746    19.270033    7814.8618    13680.257    13993.209    13271.777   -833.59089    776.99392   -353.20571   -2653.8647 
17079000    270.55906   -4829.1087   -4287.9572   -4829.1087            0    9208.0008    17.831584    23.000709     19.21358    7880.2398    11486.537    8437.4482    7700.0171    -933.3973   -476.69559    466.19818   -3229.7257 
17080000    267.81134   -4770.4878    -4234.832   -4770.4878            0    11475.557    17.840996     23.23473    19.002949    7877.3065    11856.964    10194.214    12375.494    466.94043   -59.349898    -1270.703   -2916.4921 
17081000    273.37805   -4798.8454   -4252.0555   -4798.8454            0    12086.734    17.521821    23.287119    19.128353    7804.9943    13453.621    11044.904    11761.677    1352.5423   -480.34326    1367.1957   -2876.2487 
17082000    254.99759   -4814.4164   -4304.3897   -4814.4164            0    11254.254    17.804737    23.097256    19.143716    7872.6726    11143.877    10932.849    11686.035    378.24484    758.09213   -1080.6522   -3012.2342 
17083000     278.0188   -4806.4234   -4250.3515   -4806.4234            0    11038.007    17.769466    23.066864    19.189125    7865.3513    11426.601    11885.937    9801.4819    972.80202   -535.62347    59.658161   -2984.2029 
17084000    274.01528   -4774.1931   -4226.1287   -4774.1931            0    9789.8849     17.85674     22.84421    19.386707    7908.2858    10967.425    10763.137    7639.0926   -1005.9701    289.50827   -3360.4385   -3097.0198 
17085000    268.56118   -4825.4374   -4288.2819   -4825.4374            0    9825.3181    17.693776    23.171799    19.119163    7838.7919    9468.0296      9223.05    10784.875    476.01772   -710.56765   -495.89421   -3165.0442 
17086000    270.50737   -4822.5029   -4281.4547   -4822.5029            0    10902.517    17.856235    22.866617    19.170881     7827.695    11327.035    10398.163    10982.351    3145.2365   -258.05298    465.03806   -3036.8354 
17087000    267.76715   -4818.2962   -4282.7289   -4818.2962            0    10573.103    17.985249     22.92391    19.116377    7881.5338    11076.767    10631.745    10010.797   -115.67799   -32.913526   -589.84286   -3067.4132 
17088000    272.80402   -4807.9288   -4262.2871   -4807.9288            0    10876.462    17.649503    22.704885    19.603114    7855.5548    10936.321    13021.751    8671.3135   -380.43055    444.25503   -41.306869   -3016.2229 
17089000    255.40447   -4824.1655   -4313.3251   -4824.1655            0    12005.767    17.886002    22.709462    19.211013    7803.1575    12973.855     11070.68    11972.767      870.147   -664.71395     513.0911   -2947.0562 
17090000    263.64353   -4807.4526    -4280.133   -4807.4526            0    12919.031    17.723985    22.878345     19.24261    7802.7905    11686.221    13984.143    13086.729    312.64609    870.72515   -692.73911   -2810.0029 
17091000    270.47757   -4819.1218   -4278.1332   -4819.1218            0     12090.51    18.036552    22.910996    18.939359    7826.4128     10184.43    12662.859    13424.242   -2003.6175   -98.147753    -1627.872   -2898.1199 
17092000    265.03319   -4799.3981   -4269.2989   -4799.3981            0    11553.045    17.844428    22.659606    19.386951    7839.0689    12512.567    10694.265    11452.301   -629.60132   -1024.1492    782.81739   -2948.4997 
17093000    279.01407   -4801.7744   -4243.7118   -4801.7744            0    11724.746    17.908223    22.803546    19.235426    7855.1897    11767.398    12700.256    10706.584   -1420.1876    268.52762    826.01171   -2900.5262 
17094000    271.43226   -4827.3015   -4284.4034   -4827.3015            0    9493.2702    17.819379    22.815067    19.385702    7881.2637    10487.328    9977.0213     8015.461    628.16848   -585.77459    77.881961   -3193.2455 
17095000    266.02884   -4839.4733   -4307.3827   -4839.4733            0    12152.065    17.731584    22.980219    19.116403    7789.4694    14651.298    10070.365    11734.532   -662.61565    257.25569    1239.1768   -2926.8909 
17096000     270.1408   -4789.8469   -4249.5319   -4789.8469            0    12486.175    17.689503    23.176578    19.080461    7822.6484    12528.748    10851.736     14078.04   -1886.1276   -1330.9362   -1058.9384   -2825.0429 
17097000    263.89005   -4788.2297    -4260.417   -4788.2297            0    13098.443    17.697196    23.047238    19.107034    7793.2145    13890.852    13381.102    12023.376    2228.1158    342.12009    1090.3298   -2771.6998 
17098000    263.21181   -4803.0405   -4276.5844   -4803.0405            0    9650.8888    17.809506    23.124306    19.124067    7875.9117    8844.0764    11070.355     9038.235    4.9492972   -488.53203   -1074.2135   -3168.0631 
17099000     269.4612   -4809.5771   -4270.6214   -4809.5771            0    12274.505    17.560946    23.094946    19.253541    7808.6411    12559.184    12719.475    11544.856    1834.9733   -994.30416    1336.6314   -2872.7882 
17100000    267.36118   -4804.0774    -4269.322   -4804.0774            0     11226.94    17.843591    23.204853    18.971544    7855.3178    11842.315    10476.922    11361.584   -1256.3941   -255.61998    -2659.043    -2983.144 
17101000    273.33043   -4857.6629   -4310.9683   -4857.6629            0    10717.059    17.500462    23.286062    19.155764    7806.2966    10141.048    10441.655    11568.473    1317.3579    76.390952    1550.8435   -3090.8652 
17102000    270.56538   -4817.9726   -4276.8084   -4817.9726            0    9653.2093    17.836352    23.110927    19.103016    7874.5424    9795.5388    9419.4424    9744.6467    314.70335   -150.56675     547.7152   -3168.2133 
17103000    269.77811   -4786.0665    -4246.477   -4786.0665            0    10233.401    17.658101    23.107739    19.253528    7856.1862    10147.294    11258.423    9294.4873    279.97348    673.68867    377.68238   -3073.9909 
17104000    262.57383   -4791.2882   -4266.1081   -4791.2882            0    10774.528    17.739313    23.061364    19.232429    7867.8473    10234.706    10386.941    11701.938   -2307.0162    87.762309   -1824.4593   -3029.7905 
17105000     271.0994   -4764.0085   -4221.7762   -4764.0085            0    11864.153    17.815895    22.920702    19.265991     7867.322     11071.98    12547.719    11972.761    1541.1425    2242.7454    -518.7311    -2860.521 
17106000      259.115   -4827.5411   -4309.2791   -4827.5411            0    10497.842    17.854107    23.082401     19.10247    7872.4269    11374.669     10249.52    9869.3361    360.89623    740.82059    -382.3561   -3104.0086 
17107000    273.62583   -4793.1749   -4245.8894   -4793.1749            0    10585.876    17.700033    22.987912    19.277958    7843.9468    9821.6948    10674.392    11261.543   -790.53982   -155.79237    272.86744   -3034.9083 
17108000    259.76745   -4768.3429   -4248.7759   -4768.3429            0    10972.869    17.878449    23.085018    19.050421    7862.5723    10016.412    11107.272    11794.922   -1998.4209   -1203.8172    451.12925   -2990.5439 
17109000    262.19822   -4804.5337   -4280.1049   -4804.5337            0    11574.339    17.702316     22.98386    19.233293    7825.4027    13106.599    11017.373    10599.043    547.01713    364.14849   -470.40331   -2959.1781 
17110000     274.9685   -4794.7058   -4244.7348   -4794.7058            0    11807.287    17.772132    23.129746    19.068278    7838.2994    12513.848    10267.582    12640.431   -1347.7209   -216.02688    1077.5299   -2895.0018 
17111000    279.53673   -4789.7744   -4230.6664   -4789.7744            0    10551.505     17.67966    23.155979    19.262002    7885.6676    8973.9974    11746.337     10934.18    928.17325    496.65077    1947.0644   -3017.1972 
17112000    268.45943   -4782.1935   -4245.2415   -4782.1935            0    12487.101    17.693887    23.044915    19.073855    7777.4431    13219.679    12428.477    11813.146   -167.14028   -1159.1722   -2044.4787   -2828.8792 
17113000    268.69945   -4823.9865   -4286.5544   -4823.9865            0    12410.353    17.890609    22.864343    19.076117    7803.2197    13307.986     10715.34    13207.733    333.28408   -1193.6754   -232.97476    -2874.232 
17114000    284.00211   -4828.4414   -4260.4021   -4828.4414            0    10608.983    17.917585    22.829339    19.217397    7860.8113    11122.331     10688.01    10016.608    -1852.596    1244.6568    1298.4648   -3044.1684 
17115000    262.17346   -4799.5617   -4275.1823   -4799.5617            0    10822.328    18.022934    22.663967    19.349384    7903.6656    10483.793    11000.136    10983.055   -1009.4152   -786.07072   -1222.7561   -3027.7266 
17116000    261.20377   -4807.8849   -4285.4451   -4807.8849            0    11147.459    17.705402    22.941179    19.231462    7811.4891    8550.3551    12014.429    12877.594    198.62149    219.23288     409.6682   -3015.4981 
17117000    256.61711   -4822.4739    -4309.208   -4822.4739            0    11049.357    17.785212    22.988438    19.242057    7867.1966    10923.091    12065.409     10159.57   -516.91071     493.4938   -2043.3488   -3041.4601 
17118000    275.08486   -4846.5845   -4296.3808   -4846.5845            0    10035.242    17.780988    23.027021    19.133329    7834.0112     11946.57    9360.8615    8798.2933    1113.2152   -817.87392   -205.18843   -3149.8442 
17119000    259.40006   -4805.7493   -4286.9171   -4805.7493            0    11692.007    17.764308    22.990397    19.087322    7795.4243    10818.058    12458.046    11799.918   -461.26536    6.6539051   -629.14732    -2957.673 
17120000    268.00184     -4806.58   -4270.5432     -4806.58            0      11403.8    17.805493    23.093961    19.050746    7833.6544    11240.138    11108.099    11863.163    282.77594    669.28898   -605.46232   -2967.7068 
17121000    265.88089   -4820.3542   -4288.5596   -4820.3542            0    11989.989    17.589924      23.1129    19.225923    7816.3792    15198.982    9628.1059    11142.879     261.3605   -2091.1211    739.03046   -2921.7743 
17122000    280.87388   -4791.9202   -4230.1377   -4791.9202            0    11316.272    17.892561    23.086845     18.94121    7824.2879    9915.8581    12670.615    11362.342    1499.5752   -294.63189    193.92906   -2938.8468 
17123000    266.22392   -4809.7793   -4277.2986   -4809.7793            0    9946.2429    17.619522    23.116826    19.303815    7862.5874    12791.801    8668.7633    8378.1639   -474.87629    1006.1089    805.65721   -3136.7851 
17124000    277.82717   -4814.2047   -4258.5161   -4814.2047            0    10659.612     17.93867    23.015466    19.007562    7847.5924     9544.406    10762.956    11671.473   0.39822935    124.10726   -197.55154   -3038.5333 
17125000    269.98047   -4770.1094   -4230.1151   -4770.1094            0    12583.345    17.580505    23.156804    19.245325    7834.9316    13992.375    11129.334    12628.326    1674.3836    -777.6276    982.54823   -2792.2862 
17126000    267.66576   -4826.0738   -4290.7092   -4826.0738            0    9054.3644    17.849472    22.950074    19.330567    7918.7031     8487.374     8895.035    9780.6843   -1906.9953   -1300.5622   -2845.9992   -3245.0554 
17127000    270.61971   -4834.1142   -4292.8413   -4834.1142            0    10901.947    17.809371    22.947147    19.230643    7859.0687    12798.551    9702.7479    10204.543    17.819361   -560.62219    -354.6753   -3043.2987 
17128000    276.36593   -4830.1823   -4277.4163   -4830.1823            0    12817.398     17.82881    22.801924    19.157546    7788.1398     12535.51     12453.34    13463.344   -187.54652    369.46367   -274.17018   -2821.5902 
17129000    271.94758   -4761.9021   -4217.9733   -4761.9021            0    10930.234    17.880936    22.976552    19.216821    7895.0819    10539.231    10728.177    11523.295    502.28952   -166.84059     913.3538   -2959.4479 
17130000    256.20446   -4819.7564   -4307.3158   -4819.7564            0    11842.397    17.761277    22.924885    19.187752    7812.7778    11316.189    11967.009    12243.994   -123.91954   -1270.3934   -1503.8928   -2957.9771 
17131000     259.9569   -4829.3127   -4309.3668   -4829.3127            0    11898.763    17.776907    22.761345     19.25109     7789.498    10695.609    12238.605    12762.075    958.59474   -1769.2377   -489.18851   -2957.6455 
17132000    276.79467    -4792.268   -4238.6445    -4792.268            0    11352.849    17.992695    22.817225    19.179496     7874.015    9447.1574    12076.284    12535.107    1550.1252    209.89419    86.917703   -2934.9464 
17133000    279.86895   -4806.9333   -4247.1609   -4806.9333            0    11669.617    17.923358    22.767463    19.251925    7856.1211    12765.229    10839.003    11404.617    39.559344    -722.0451   -1778.2417   -2910.1324 
17134000    263.55897   -4818.1818   -4291.0313   -4818.1818            0    11491.126    17.699423    22.822284    19.309655    7799.9659    11322.001    11624.782    11526.595   -1183.0213   -331.62337    180.81104    -2983.864 
17135000    267.87101   -4813.9079   -4278.1328   -4813.9079            0    12221.198    17.808182    23.026559    19.028547     7802.868    12786.799    12843.246     11033.55    1853.7153   -200.14977    13.175111   -2887.3992 
17136000    280.20342   -4806.7899   -4246.3484   -4806.7899            0    12037.817    17.639476    22.928021    19.323382    7815.1155    11834.385    12394.525    11884.543    755.90533    471.86187    -141.2572   -2874.3328 
17137000    257.39137   -4786.8333   -4272.0188   -4786.8333            0    12890.217    17.787082    23.087808    18.937803    7777.0875     10254.11    13931.481    14485.058    523.73323    567.57993   -384.81703   -2809.9995 
17138000     266.6377   -4804.6199   -4271.3116   -4804.6199            0    10358.348    17.689584    23.005187    19.300487    7854.3751    11178.239    11226.168    8670.6382   -1308.7858    807.81932    260.67447   -3084.7834 
17139000    261.35251    -4811.024   -4288.2867    -4811.024            0    12475.883    17.865173    22.835246    19.042393    7768.4515    10959.276    12391.551    14076.823   -875.55592   -763.09624    14.063039   -2874.8328 
17140000    276.59915   -4810.5957   -4257.3633   -4810.5957            0    10169.065    17.795157    22.992461     19.27549    7886.6525    9873.2337    10515.325    10118.635    1030.6796    339.39701    187.43293   -3087.7303 
17141000    259.51726   -4799.5693   -4280.5027   -4799.5693            0    11798.918    17.781194    23.010379    19.085567    7808.8979    10672.012     12867.67    11857.071   -721.95612    193.89184    481.80534   -2936.7857 
17142000    274.37055   -4812.5184   -4263.7434   -4812.5184            0    12083.113    17.647741    22.986016    19.226152    7799.1129    12699.417    12584.095    10965.827   -1274.4618    403.71651   -167.61147   -2889.3852 
17143000    259.75512   -4794.7703    -4275.228   -4794.7703            0    13359.322      17.6281    23.193893    19.049944     7788.841    13340.186    11962.157    14775.625   -1813.0749   -383.89157    -945.9907   -2757.7124 
17144000    275.33765   -4829.8079   -4279.0986   -4829.8079            0    10090.997    17.664466    23.198402    19.207434    7870.9638    10868.104    9472.5457    9932.3417    -781.6885     1101.824    835.61347   -3120.7537 
17145000    259.77898   -4785.3191   -4265.7291   -4785.3191            0    12317.504    17.592015    23.226481    19.163464    7830.2028    14078.427     12520.54    10353.544   -413.87922     1526.309    1492.1598   -2859.1259 
17146000    254.21728   -4797.8549   -4289.3889   -4797.8549            0    10786.621    17.824432     22.86876    19.271799    7855.6218    10108.339    12285.816    9965.7072    799.47141    1431.5743   -634.74117   -3053.6069 
17147000    255.19822   -4824.4648   -4314.0368   -4824.4648            0    10146.506    17.889189    22.940457    19.122604    7847.6521    12234.525    8308.6283    9896.3654   -830.19049   -2160.1288   -2.2211112   -3152.7696 
17148000     271.0411   -4841.3079   -4299.1922   -4841.3079            0    9347.1587    17.749749    22.815246    19.460594    7880.8575    10984.729    9295.1965     7761.551     180.1208    -758.9177    79.048421   -3224.8838 
17149000    276.43974    -4795.086   -4242.1724    -4795.086            0    10887.414    17.919205    22.929549    19.162995    7873.6777    9054.0881    11426.439    12181.715   -1721.8149   -551.73715   -2259.9197   -2991.9759 
17150000    259.23709   -4814.8113   -4296.3051   -4814.8113            0     11261.88    17.745713     22.99187    19.238827    7849.5788    9806.6988    12382.151    11596.789   -673.04194    698.03097   -233.59967    -3007.067 
17151000     280.3182   -4785.4208   -4224.7498   -4785.4208            0    9658.6615    17.902034    22.873146    19.288483    7898.1676    8662.5797     9592.025     10721.38   -1486.9471      207.955   -783.82726   -3112.2007 
17152000    272.72142   -4812.7563   -4267.2798   -4812.7563            0    10958.245    17.734936    22.954791    19.306827    7859.8431    13733.142    9757.4702     9384.123    355.34184   -919.88406   -618.96336   -3011.1608 
17153000    270.51718   -4791.8694   -4250.8016   -4791.8694            0    11377.561    17.884614    22.966339    19.096465    7843.7605    10647.978    11183.838    12300.866   -1070.3867   -616.34527   -1240.6443    -2949.286 
17154000    270.69903   -4829.2344   -4287.8029   -4829.2344            0    10222.667    17.793181    22.940489    19.268765    7865.2066    10379.601    11473.937     8814.463    897.76088    1133.5095    788.93367   -3115.2019 
17155000    255.74672   -4797.0422   -4285.5172   -4797.0422            0    8845.6084    17.925983    22.984998    19.284193    7945.6407    8440.9504    10064.828    8031.0465   -13.569765    676.87128     1147.638   -3260.4967 
17156000     266.2673   -4835.1047   -4302.5372   -4835.1047            0    9822.2516    17.732245    23.052967    19.245032    7867.0009     10061.92    10702.868    8701.9675    130.42054    822.31701     2020.415   -3175.6093 
17157000    266.37247   -4817.8671   -4285.0893   -4817.8671            0    11722.396    17.836061    22.876099    19.274536    7864.3869    11819.409    11930.651    11417.127    42.663688    714.02328    111.00717   -2940.6006 
17158000      256.552   -4817.5297    -4304.394   -4817.5297            0     10605.53    17.937104    22.919266    19.094383    7849.8011    11400.573    10800.364    9615.6532   -882.05601    1600.0194    758.51191   -3090.2592 
17159000    263.49894   -4818.1367   -4291.1063   -4818.1367            0    12140.439    17.978366    22.586337    19.224775    7806.5164    12349.718    13650.073    10421.527    1322.1622   -101.65385    1139.1524   -2908.9169 
17160000    270.96107   -4790.1754   -4248.2198   -4790.1754            0    12552.795    17.746259    22.870663    19.271159    7821.5604    13031.331    12929.445     11697.61    1596.3521   -14.404332    49.243038   -2816.3295 
17161000    261.04492   -4815.9809   -4293.8588   -4815.9809            0    10667.799    17.956385    22.670561    19.292221    7853.5027    10801.074    11800.018     9402.303   -441.81125   -312.85584   -295.13661   -3072.0195 
17162000     263.9588   -4795.7944   -4267.8442   -4795.7944            0    10225.132    17.966127    22.748249    19.234708    7861.1855    9827.6305    10780.978    10066.786   -568.19554   -607.98987   -1860.9732   -3095.5602 
17163000    269.99665   -4817.2227    -4277.196   -4817.2227            0    10422.101    17.839277    22.803444     19.29321    7848.4189    10540.732    12165.463    8560.1084    418.74514   -369.67433   -734.27482   -3084.2705 
17164000    264.60741   -4816.7447   -4287.4972   -4816.7447            0    9970.7341      17.8004    23.012273    19.136895    7839.0015    10996.946    9614.4685    9300.7879    426.56968   -341.76755    109.84758    -3147.605 
17165000    260.71847   -4805.2818   -4283.8127   -4805.2818            0     12441.57    17.532615    23.147025    19.206335    7794.4661    11828.607    14057.088    11439.015    -137.1373    180.73412    878.16695    -2869.526 
17166000    287.75655   -4787.1663   -4211.6176   -4787.1663            0    13119.993    17.760843    22.963098     19.10973    7793.7884    12535.253    13517.574    13307.153   -93.621752     9.557336   -1552.1308   -2720.3414 
17167000    257.42424   -4802.9699   -4288.0896   -4802.9699            0    10176.974    17.625761    23.243893    19.211459     7870.768    10562.114    10572.809    9395.9997    1655.6178   -396.92111    733.93552   -3119.9044 
17168000    267.22268   -4779.7482   -4245.2699   -4779.7482            0    10714.067    17.560785    23.210527    19.206018    7828.2781    9770.1417    11024.996    11347.063    819.87166   -763.36327   -209.47719   -3022.0726 
17169000    267.36754   -4767.1805   -4232.4124   -4767.1805            0    11842.896    17.629878    23.423021    19.041512     7863.097    12205.759    10325.653    12997.276    1928.2727   -885.50166   -262.58124   -2874.3259 
17170000     264.0096   -4791.8705   -4263.8187   -4791.8705            0    12046.203    17.577438    23.253571     19.13951     7823.049    11815.903    12112.924    12209.782   -774.74164   -357.34289   -85.740826   -2889.4536 
17171000    265.13012   -4796.3194   -4266.0264   -4796.3194            0     10436.25    17.815551    23.198459    19.030273    7865.0848    10327.212    10064.196    10917.342    11.845201    729.78631    1292.9591   -3068.9447 
17172000    255.60462   -4791.5366   -4280.2958   -4791.5366            0    10917.481    17.589138    23.104395     19.23041    7814.9767    10641.415     12373.99     9737.039    69.076297    2339.9548    715.13789   -3035.9931 
17173000     269.8887   -4832.8476   -4293.0369   -4832.8476            0     11834.32    17.837691    22.950739    19.032006     7791.479    10946.299    12673.986    11882.676   -385.52592   -1412.7666   -1620.0311   -2948.2944 
17174000    262.68567    -4799.661   -4274.2572    -4799.661            0    12209.132    17.760703    22.845102    19.293571    7828.2712    12514.251    12818.451    11294.693   -685.84673    -533.2647    2389.0053   -2880.3735 
17175000     264.2156   -4805.8002   -4277.3364   -4805.8002            0     10987.75    17.986507    22.665352    19.270571    7856.0435    9829.1324    10468.744    12665.373    195.06276   -662.98386    168.34106   -3018.4443 
17176000    267.86673   -4817.6524   -4281.8859   -4817.6524            0    10639.123    17.895131    22.760629    19.246691    7839.2626    10323.749    11616.693    9976.9274   -653.59204   -188.50968    2039.1098   -3065.5404 
17177000    274.89515   -4801.8107   -4251.9864   -4801.8107            0    10043.802    18.093823     22.73799    19.195481    7897.3501      8038.23    10625.885    11467.291   -1737.9104    292.04881    41.702798   -3095.1941 
17178000    272.87555   -4804.5886   -4258.8038   -4804.5886            0    11181.976     17.80501     22.57871    19.515096    7845.3446    12126.897    10902.512    10516.517    -22.45772   -566.52963    1042.2411   -2979.4034 
17179000    275.06694    -4811.908   -4261.7401    -4811.908            0    9249.1494    18.038042    22.838836    19.198419     7909.132    8518.0753    9490.4349    9738.9382    408.05948     55.57689   -1429.7398   -3194.8824 
17180000    277.27361   -4828.0529   -4273.4714   -4828.0529            0    10565.163    17.883995    22.669829     19.42762     7876.484    10164.683    12072.963    9457.8433    1445.0201    2009.9461    -687.9989   -3059.8465 
17181000    265.21595   -4822.3536   -4291.8889   -4822.3536            0    9429.0579    18.024164    22.770865    19.151705     7860.354    8819.2794     9334.503    10133.391   -180.51572   -381.78122    301.63129    -3210.987 
17182000    275.93222   -4813.1042   -4261.2057   -4813.1042            0    11607.419    17.798971    22.807267    19.302307    7835.6925    12192.148    13073.761    9556.3482   -1091.1472   -333.40482   -55.953538   -2934.7616 
17183000    256.22067   -4812.0804   -4299.6074   -4812.0804            0    9313.1939    17.958504    22.759173    19.296852    7887.0229    8942.9642     10263.18     8733.437   -1182.2651   -704.88492   -220.48197   -3228.3653 
17184000     257.2081   -4820.1517   -4305.7037   -4820.1517            0    10501.746    17.995291    22.755279    19.226161    7872.8793    10455.172    11490.177    9559.8893    -1268.987     -296.407   -365.29245   -3099.9156 
17185000    283.17636   -4818.9044   -4252.5167   -4818.9044            0    9601.4897    17.870723    22.879055    19.283723    7884.4442    10911.891    9543.8698    8348.7081   -432.10891    238.12043   -1314.4967   -3148.4747 
17186000    267.94967    -4788.854   -4252.9216    -4788.854            0    11780.146    17.941455    22.897348    19.077199    7837.1371    12534.319    10555.562    12250.557   -1474.3021   -426.77377   -107.77488   -2906.4909 
17187000     261.5461    -4814.223   -4291.0985    -4814.223            0    10409.833    17.744284    22.880243    19.327256    7846.7409     12049.83    11155.553     8024.115    47.609525    352.78102    219.01987   -3099.8319 
17188000    259.31109   -4765.1504   -4246.4962   -4765.1504            0    12833.906    17.749021    23.013854    19.141944    7818.9744    13064.493    11419.852    14017.372    40.700157   -1023.4016    117.76683   -2783.0238 
17189000    255.63671   -4815.6722   -4304.3672   -4815.6722            0    10888.051    17.720964    22.926386    19.288495    7836.4844    11420.441    11122.778    10120.935    531.80432    626.42288    859.39192   -3060.0035 
17190000    277.05796   -4779.9681    -4225.818   -4779.9681            0    10941.464    17.950449    22.967176    19.082062    7866.9831    8593.5381    10712.348    13518.505   -945.51232    94.347855   -1721.1954   -2970.4833 
17191000    275.35837   -4810.6182   -4259.8675   -4810.6182            0     11335.26     17.63838     22.88527     19.43262     7844.154    11014.223    12033.893    10957.665    1025.2864    760.35088    2027.0412   -2963.1257 
17192000    281.91998   -4814.9056   -4251.0308   -4814.9056            0     12127.21    17.876637    22.966808    19.010511    7805.1322    9949.8475    12238.302    14193.479   -827.51959    81.914473   -1164.6025   -2870.5924 
17193000    255.89514   -4785.9062   -4274.0843   -4785.9062            0     10412.59    17.652543    23.145197    19.226997    7855.6049    10383.271    10791.823    10062.674    1561.8193   -852.57006     3604.791   -3081.1562 
17194000    276.15455   -4815.9439   -4263.6006   -4815.9439            0    12494.566    17.853339    23.099307    18.968289    7822.5178    13501.698    11885.029    12096.972    -2565.765    12.700639   -660.79109    -2838.178 
17195000    273.63971   -4811.0609   -4263.7477   -4811.0609            0    10766.722    17.705821     23.09346    19.232975    7864.1456     11713.45    10162.929    10423.786    2003.9382   -909.13935    298.68976    -3028.907 
17196000    269.21293   -4804.7044   -4266.2453   -4804.7044            0    11037.716    17.656715    23.294787       18.995    7812.8224    12099.229    10611.407    10402.512    291.00513    480.76706   -1210.1021   -3008.5859 
17197000    278.32125   -4816.2941   -4259.6172   -4816.2941            0    12269.394     17.59286    23.152141    19.183593    7813.7152    11986.058    12075.908    12746.215   -108.45253    574.85618    -1889.101   -2861.4582 
17198000    262.46024   -4798.8725   -4273.9196   -4798.8725            0    10615.038    17.937803    23.110627    18.970413    7864.2582    10883.574    9646.5461    11314.992   -791.77473    503.80492    552.54508   -3056.4582 
17199000    278.94405   -4802.2812   -4244.3587   -4802.2812            0    10923.522    17.648486    22.854635     19.47326    7854.5339    12510.879    10922.188    9337.4985    -674.3206   -1747.2772    160.06649   -2993.0658 
17200000    267.60755   -4802.3105   -4267.0624   -4802.3105            0    11455.997    17.894843    23.027249    19.047464    7848.8699    10137.262    12301.035    11929.693   -812.96686   -440.35442   -1079.2078   -2955.7206 
17201000     265.1083   -4786.1117   -4255.8624   -4786.1117            0     12013.83    17.649411    23.060844    19.245837    7833.2541     13999.44    11815.769     10226.28   -2359.5345    442.68232    -1892.658   -2883.4027 
17202000     264.7204   -4785.3316   -4255.8581   -4785.3316            0    11313.084    17.795427    22.907588    19.134162    7800.0472    11323.937    10432.323    12182.992     505.3528     304.3392    948.91282   -2968.9304 
17203000    263.28851   -4828.8838   -4302.2743   -4828.8838            0     11448.43    17.804746    22.990302    19.104488    7820.1643    12431.416    10032.781    11881.092    267.65005   -116.78485    19.655293   -2996.5914 
17204000    266.04629   -4832.5122   -4300.3868   -4832.5122            0    10551.291    17.654093     23.02039    19.242972    7820.4228    10163.303     11493.07    9997.5005    550.10158    601.79065   -10.204887    -3096.982 
17205000    262.68218   -4828.4343   -4303.0374   -4828.4343            0    11297.501    17.948909    23.080795    18.956435     7853.179    8715.0065    12182.008    12995.487   -1874.8062    1734.1534    -1172.151   -3009.1284 
17206000     258.0421   -4794.2207   -4278.1046   -4794.2207            0    12381.144    17.931603    22.553051    19.319598    7813.0843    10337.576    14542.493    12263.364    1534.1584    554.19141    1412.2639   -2867.3249 
17207000    277.88771   -4825.1704   -4269.3606   -4825.1704            0    7966.7864    17.883296    22.843849    19.349027    7904.5284    6823.2723    9480.3319    7596.7549   -1461.2267   -365.56226   -806.57227    -3350.954 
17208000    275.35304   -4790.2965   -4239.5564   -4790.2965            0    10893.063    17.824181    22.833195    19.290889    7851.0643    10306.412    12903.228    9469.5495   -977.22852     769.4483   -983.47832   -2992.3037 
17209000    274.82058   -4811.8973   -4262.2222   -4811.8973            0    11792.875    17.915575    22.766247     19.22541    7841.4757    10856.718    12014.846     12507.06    977.55702   -411.32973    1336.3406   -2913.5904 
17210000    277.33007   -4807.3078   -4252.6134   -4807.3078            0    10750.729    17.852636    22.853943    19.304391     7876.252    13735.254     9913.516    8603.4177    -2049.234    1339.7412    -877.3194   -3017.7088 
17211000    274.61936   -4814.7963   -4265.5237   -4814.7963            0    11822.994    17.836007    22.979933    19.145711    7847.2574    12039.722    10649.218    12780.041   -88.184955   -271.46181    -338.0593   -2912.4506 
17212000    278.07105   -4803.6275    -4247.451   -4803.6275            0    12815.724    17.661708     23.15903    19.059608     7795.914    13846.586    11995.229    12605.358   -91.764169   -1578.3026   -182.78964    -2790.362 
17213000    263.25012   -4797.2498   -4270.7171   -4797.2498            0    10759.381    17.800186    23.093486     19.18673    7887.0571    11664.389    11271.252    9342.5017    265.09783    637.84324    101.96032   -3033.1231 
17214000    259.74536   -4793.8616   -4274.3388   -4793.8616            0    10504.481    17.710686    23.141601    19.213478    7874.7135     11989.33    11054.402    8469.7115    602.03246    1000.9424    1067.8227   -3067.9557 
17215000    268.53536   -4842.0221   -4304.9182   -4842.0221            0    12389.874    17.631527    23.141845    19.069732    7780.9477    13941.268    11538.303     11690.05    1139.9005    122.61662   -227.42313   -2898.9508 
17216000     263.8046   -4786.1125   -4258.4707   -4786.1125            0    12761.883    17.684633    23.063546    19.094582    7788.1137    13771.239    11524.981    12989.431   -294.94482   -1494.6103    -618.2975   -2808.9549 
17217000    255.24866   -4804.4913   -4293.9625   -4804.4913            0    11634.683     17.55332    23.267832    19.141575    7817.9495    12294.592    11296.166    11313.291   -1261.0452    933.19949   -342.28286   -2967.4134 
17218000    274.13901   -4784.0153   -4235.7034   -4784.0153            0     12514.53    17.706266    23.336132    18.905318    7811.5971    9430.7162    13630.235     14482.64   -641.19925    446.26828    374.94177   -2809.9964 
17219000    268.43844   -4802.5214   -4265.6113   -4802.5214            0    11959.349     17.70351    23.137532    19.082365    7816.4334    11782.797    12331.636    11763.614    344.93356    1001.3723     1636.262   -2902.3094 
17220000    264.15639   -4815.3074    -4286.962   -4815.3074            0    10395.659    17.559044     23.55126    18.880965    7807.9895    9726.1895    9529.5883    11931.199     231.3653     83.47632   -820.55584   -3103.1926 
17221000    259.84993    -4792.285    -4272.553    -4792.285            0    10290.249    17.614102    23.204293    19.230523    7859.9532    12795.947    9235.2173    8839.5827    1169.5567   -127.02166    1739.6456   -3092.9884 
17222000    264.15777   -4832.9104   -4304.5623   -4832.9104            0    10975.301    17.859463      23.0284    19.011685    7819.0278    12074.928    10469.923     10381.05    1066.1778    476.63789   -1169.9198   -3053.0213 
17223000    259.13817    -4806.479   -4288.1706    -4806.479            0    12635.039    17.628062    23.128628    19.123235     7796.789    14565.692    11989.574     11349.85    46.280722   -1331.2189   -1651.4388   -2851.4635 
17224000    265.00062   -4794.5037   -4264.4697   -4794.5037            0    9384.6482     18.08985    23.015118    18.932284    7882.2678    8253.8118    8757.1203    11143.013   -1830.9419   -749.21682    916.52149   -3185.6594 
17225000    275.44566   -4824.7449   -4273.8196   -4824.7449            0    13388.951    17.624627    22.696678    19.397787    7759.5124    15624.466    13646.519    10895.867   -196.48542    575.19708   -444.31647   -2758.6653 
17226000    270.76439    -4809.033   -4267.4708    -4809.033            0    12414.874    17.928107    22.788035    19.139348    7819.3103    10383.389    13874.169    12987.063   -398.59641    1036.4088   -609.25651   -2851.7205 
17227000    283.89307   -4760.9652    -4193.144   -4760.9652            0    11362.138     17.62186    23.002568    19.378254    7854.9369    10910.757    10943.505    12232.154   -1556.6534   -200.77684   -354.07328   -2891.5406 
17228000    269.48934   -4774.7857   -4235.7737   -4774.7857            0     11851.41    17.772045    23.066062    19.144808     7848.052    12643.134    10426.347    12484.748    200.11911   -794.92452    1332.2676   -2879.3113 
17229000    268.85867   -4778.5552   -4240.8046   -4778.5552            0     10310.02    17.673494    23.250537    19.214744     7895.688    10839.932    10430.242    9659.8877    -131.1401     267.2078    1049.3929   -3053.6005 
17230000    278.20693    -4770.401   -4213.9528    -4770.401            0    9685.7415    17.644842    23.543131    19.013134    7898.3377    9931.0814    8630.5418    10495.601    483.24803    40.849551    1239.4339   -3098.2604 
17231000    268.00102   -4771.4999   -4235.4647   -4771.4999            0    12061.008    17.566571    23.227908    19.172565    7823.0719    13104.372    12782.438    10296.215    826.51598    263.73859   -850.53735   -2859.4064 
17232000    270.71768   -4792.5172   -4251.0484   -4792.5172            0    13596.437    17.697311    23.151722    19.018212    7792.2033     15811.01    12026.904    12951.396   -1529.7425    21.752078   -1401.2439   -2705.9318 
17233000    271.02902   -4817.7871   -4275.6956   -4817.7871            0    10703.461    17.680659    23.122581     19.21316    7854.7716    10991.483    9677.3461    11441.554   -1066.5977   -559.28468    236.42642   -3049.5736 
17234000    276.10208   -4791.5373    -4239.299   -4791.5373            0    11744.625    17.716656    23.167959    19.047992    7818.4154    12144.429     10410.15    12679.298    332.57016   -1316.4406    -1927.566   -2900.1349 
17235000    258.05473    -4813.224   -4297.0827    -4813.224            0    10138.828    17.747635    23.172497    19.137009    7870.2289     10573.28    9550.7217    10292.482    367.53875    499.59805   -911.59232    -3133.356 
17236000    259.11977   -4794.5632   -4276.2916   -4794.5632            0    9632.4308    17.833613    23.163902    19.063876    7875.2123     9703.442     10458.27    8735.5803    240.13522    638.11547    37.802182   -3169.9887 
17237000    266.59591   -4809.0693   -4275.8445   -4809.0693            0    8635.3171    17.648838    23.237166    19.216173    7880.7248    8849.5188    7689.9873    9366.4452    623.41712    367.97043    620.89497   -3283.3678 
17238000    262.66481   -4775.8923   -4250.5302   -4775.8923            0    10638.597    17.849297    23.169502    19.090209    7894.9341    10630.876    10618.689    10666.227   -129.87803    227.08887   -486.24394   -3025.6073 
17239000    276.36186   -4818.7062   -4265.9483   -4818.7062            0    10543.092    17.613977    23.016345    19.326584    7835.1786    10711.618    11475.863    9441.7939    1019.8265   -189.08321   -94.313362   -3061.2099 
17240000    263.71356   -4781.7465   -4254.2868   -4781.7465            0    9639.5972    17.931548    23.018515    19.210777    7929.3941    9008.3334    9476.1471    10434.311    1306.0918   -282.60853    2715.2808   -3139.5438 
17241000    266.70379   -4820.8625    -4287.422   -4820.8625            0    11959.829     17.80679    22.839534     19.25076    7829.2608     11133.53    13573.968    11171.989   -1183.4196    1595.8862   -1204.3514   -2921.8279 
17242000    260.80915   -4794.2923   -4272.6418   -4794.2923            0    10928.967    17.745559    23.117549    19.155125    7858.0806    9888.7803    11283.995    11614.126    40.783833    1101.8756   -359.04654   -3020.1598 
17243000    293.16771   -4817.7811   -4231.4094   -4817.7811            0    10457.538    17.748245    22.974396    19.256925    7852.1113    9723.8588    11182.929    10465.827   -1018.3657    350.96571   -620.72045   -3033.8646 
17244000    275.17795   -4795.4651   -4245.0752   -4795.4651            0    10031.136    17.915835    22.723982    19.303067    7858.6474    10827.299    11129.522    8136.5884    1850.4252   -1599.1775     477.3811   -3095.4035 
17245000    269.66785   -4766.6852   -4227.3162   -4766.6852            0    10041.103     17.82651    22.907017    19.290755    7877.4219    9225.6549    10524.826    10372.828    -134.7984    69.474528    603.47719   -3073.7529 
17246000    261.06809   -4796.4585   -4274.2901   -4796.4585            0    11309.773    17.865879    22.932928    19.220903    7875.1293    9280.1986    12472.164    12176.957    620.39348     1812.891    1054.3596   -2975.3549 
17247000    274.67253   -4805.7565   -4256.3775   -4805.7565            0    10688.352    18.077782    22.681359    19.089127    7827.0893    7346.2506    12095.866    12622.941    401.02251   -382.91981   -1215.4527   -3036.3013 
17248000    281.60005   -4801.7511   -4238.5162   -4801.7511            0    10441.915    17.811024    22.827972    19.335892    7861.7717    10307.202    11575.107    9443.4366    1969.1175   -1198.6037    872.40033   -3041.2892 
17249000    274.07732   -4832.2234   -4284.0349   -4832.2234            0    10098.815    17.870201    22.807922    19.224095    7835.3981    8948.4445    11151.487    10196.513   -1941.4565    228.02698   -172.06732   -3130.0308 
17250000    262.99423   -4761.2857   -4235.2648   -4761.2857            0    9287.2155    17.924695    22.673948     19.54233    7942.4644    8186.7383    10935.884    8739.0243    464.13942    2026.8205   -829.92919   -3159.5016 
Loop time of 464.402 on 64 procs for 250000 steps with 1008 atoms

Performance: 93.023 ns/day, 0.258 hours/ns, 538.327 timesteps/s
99.2% CPU use with 64 MPI tasks x 1 OpenMP threads

MPI task timing breakdown:
Section |  min time  |  avg time  |  max time  |%varavg| %total
---------------------------------------------------------------
Pair    | 28.663     | 32.652     | 36.244     |  31.0 |  7.03
Bond    | 0.28659    | 0.29431    | 0.30385    |   0.7 |  0.06
Kspace  | 215.33     | 222.79     | 231.57     |  26.3 | 47.97
Neigh   | 4.5426     | 5.0066     | 5.6927     |  14.3 |  1.08
Comm    | 84.974     | 94.581     | 101.41     |  40.5 | 20.37
Output  | 1.5518     | 1.5534     | 1.5665     |   0.1 |  0.33
Modify  | 98.7       | 101.47     | 103.65     |  14.7 | 21.85
Other   |            | 6.062      |            |       |  1.31

Nlocal:        15.7500 ave          20 max          12 min
Histogram: 2 7 10 9 0 11 15 5 3 2
Nghost:        2518.91 ave        2538 max        2500 min
Histogram: 2 3 7 13 7 14 4 5 4 5
Neighs:        5265.75 ave        6698 max        3996 min
Histogram: 2 7 10 9 5 7 14 5 3 2

Total # of neighbors = 337008
Ave neighs/atom = 334.33333
Ave special neighs/atom = 2.0000000
Neighbor list builds = 10002
Dangerous builds = 0

unfix		3
unfix		2
unfix		1

write_data	data.final.${pid}
write_data	data.final.0
System init for write_data ...
PPPM initialization ...
  extracting TIP4P info from pair style
  using 12-bit tables for long-range coulomb (../kspace.cpp:340)
  G vector (1/distance) = 0.38003938
  grid = 24 27 36
  stencil order = 5
  estimated absolute RMS force accuracy = 0.0023458631
  estimated relative force accuracy = 7.0644972e-06
  using double precision FFTW3
  3d grid and FFT values/proc = 4050 480
Last active /omp style is kspace_style pppm/tip4p/omp
WARNING: Not all mixed pair coeffs generated from mixing. Use write_data with 'pair ij' option to store all pair coeffs. (../write_data.cpp:312)

write_restart   restart.lmp.${pid}
write_restart   restart.lmp.0
System init for write_restart ...
PPPM initialization ...
  extracting TIP4P info from pair style
  using 12-bit tables for long-range coulomb (../kspace.cpp:340)
  G vector (1/distance) = 0.38003938
  grid = 24 27 36
  stencil order = 5
  estimated absolute RMS force accuracy = 0.0023458631
  estimated relative force accuracy = 7.0644972e-06
  using double precision FFTW3
  3d grid and FFT values/proc = 4050 480
Last active /omp style is kspace_style pppm/tip4p/omp
Total wall time: 0:07:44
