LAMMPS (30 Jul 2021)
  using 1 OpenMP thread(s) per MPI task
package omp 0
using multi-threaded neighbor list subroutines
echo both

include		in.partitions
variable        pid world 0
include		in.temp
variable        temperature equal 262.44
variable	tempDamp equal 100.0
include		in.pressure
variable        pressure equal 7250.0
variable        pressureDamp equal 1000.0 # This is 1 ps
include		in.seed
variable        seed world 745823

units		real
atom_style	full
read_restart	restart.lmp.${pid}
read_restart	restart.lmp.0
Reading restart file ...
  restart file = 30 Jul 2021, LAMMPS = 30 Jul 2021
  restoring atom style full from restart
  orthogonal box = (0.53742395 1.7245457 0.65565596) to (17.670148 21.904632 21.557540)
  4 by 4 by 4 MPI processor grid
  restoring pair style lj/cut/tip4p/long/omp from restart
  restoring bond style harmonic/omp from restart
  restoring angle style harmonic/omp from restart
  864 atoms
  576 bonds
  288 angles
Finding 1-2 1-3 1-4 neighbors ...
  special bond factors lj:    0        0        0       
  special bond factors coul:  0        0        0       
     2 = max # of 1-2 neighbors
     1 = max # of 1-3 neighbors
     1 = max # of 1-4 neighbors
     2 = max # of special neighbors
  special bonds CPU = 1.346 seconds
  read_restart CPU = 1.648 seconds
include 	in.setup
variable	out_freq equal 1000
variable	out_freq2 equal 10000
variable	out_freq3 equal 1000

timestep	2.0

neigh_modify    delay 7 every 1

include		in.tip4p
# This is TIP4P/Ice

# create groups ###
group ox type 2
288 atoms in group ox
group hy type 1
576 atoms in group hy

# set charges - beside manually ###
set group ox charge -1.1794
Setting atom values ...
  288 settings made for charge
set group hy charge 0.5897
Setting atom values ...
  576 settings made for charge

# ### TIP3P Potential Parameters ###
pair_style lj/cut/tip4p/long/omp 2 1 1 1 0.1577 8.5
pair_coeff 1 1*2 0.000 0.000
pair_coeff 2 2 0.21084 3.1668
bond_style  harmonic
bond_coeff  1 450 0.9572
angle_style harmonic
angle_coeff 1 55 104.52
kspace_style pppm/tip4p/omp 1.0e-5
pair_modify tail yes

thermo          ${out_freq}
thermo          1000
thermo_style    custom step temp pe etotal epair emol press lx ly lz vol pxx pyy pzz pxy pxz pyz enthalpy

restart 	${out_freq3} restart.lmp.${pid} restart2.lmp.${pid}
restart 	1000 restart.lmp.${pid} restart2.lmp.${pid}
restart 	1000 restart.lmp.0 restart2.lmp.${pid}
restart 	1000 restart.lmp.0 restart2.lmp.0


include         in.dump
dump            myDump all atom ${out_freq2} dump.water.${pid}
dump            myDump all atom 10000 dump.water.${pid}
dump            myDump all atom 10000 dump.water.0
dump            myDump2 all dcd ${out_freq2} dump.dcd
dump            myDump2 all dcd 10000 dump.dcd
dump_modify     myDump append yes
dump_modify     myDump2 append yes


variable natoms 	equal  "count(all)"                        # NUMBER ATOMS
variable H      	equal  "enthalpy/v_natoms"                 # ENTHALPY-per-atom
variable Vol      	equal  "vol/v_natoms"                 # volume-per-atom
fix AVG all 		ave/time ${out_freq} 1 ${out_freq} v_Vol v_H file vol_enthalpy.dat
fix AVG all 		ave/time 1000 1 ${out_freq} v_Vol v_H file vol_enthalpy.dat
fix AVG all 		ave/time 1000 1 1000 v_Vol v_H file vol_enthalpy.dat


timer           timeout 23:50:00 every 1000
New timer settings: style=normal  mode=nosync  timeout=23:50:00

fix 		1 all shake 1e-6 200 0 b 1 a 1
       0 = # of size 2 clusters
       0 = # of size 3 clusters
       0 = # of size 4 clusters
     288 = # of frozen angles
  find clusters CPU = 0.013 seconds
fix             2 all nph iso ${pressure} ${pressure} ${pressureDamp}
fix             2 all nph iso 7250 ${pressure} ${pressureDamp}
fix             2 all nph iso 7250 7250 ${pressureDamp}
fix             2 all nph iso 7250 7250 1000
fix             3 all temp/csvr ${temperature} ${temperature} ${tempDamp} ${seed}
fix             3 all temp/csvr 262.44 ${temperature} ${tempDamp} ${seed}
fix             3 all temp/csvr 262.44 262.44 ${tempDamp} ${seed}
fix             3 all temp/csvr 262.44 262.44 100 ${seed}
fix             3 all temp/csvr 262.44 262.44 100 745823

run             250000
PPPM initialization ...
  extracting TIP4P info from pair style
  using 12-bit tables for long-range coulomb (../kspace.cpp:340)
  G vector (1/distance) = 0.37349734
  grid = 24 24 24
  stencil order = 5
  estimated absolute RMS force accuracy = 0.0032493081
  estimated relative force accuracy = 9.7851948e-06
  using double precision FFTW3
  3d grid and FFT values/proc = 2535 216
Last active /omp style is kspace_style pppm/tip4p/omp
Neighbor list info ...
  update every 1 steps, delay 7 steps, check yes
  max neighbors/atom: 2000, page size: 100000
  master list distance cutoff = 10.8154
  ghost atom cutoff = 10.8154
  binsize = 5.4077, bins = 4 4 4
  1 neighbor lists, perpetual/occasional/extra = 1 0 0
  (1) pair lj/cut/tip4p/long/omp, perpetual
      attributes: half, newton on, omp
      pair build: half/bin/newton/omp
      stencil: half/bin/3d
      bin: standard
Per MPI rank memory allocation (min/avg/max) = 9.236 | 9.238 | 9.240 Mbytes
Step Temp PotEng TotEng E_pair E_mol Press Lx Ly Lz Volume Pxx Pyy Pzz Pxy Pxz Pyz Enthalpy 
13000000    269.77912   -3831.0108   -3368.6186   -3831.0108            0    6412.6388    17.132725    20.180086    20.901884    7226.6144    5543.7998    8302.2027    5391.9138    851.46047    1312.1388   -598.25898   -2692.7729 
13001000    271.36061   -3866.8883   -3401.7855   -3866.8883            0    4628.6464    17.135844     20.18376    20.905689    7230.5623     2344.911     7083.606     4457.422    622.14103    1137.8699   -345.29899   -2913.6932 
13002000    282.40384   -3879.2917   -3395.2612   -3879.2917            0    6167.7571    17.138371    20.186737    20.908772    7233.7616    5359.9368    7756.9453    5386.3892   -75.214485    962.46134   -53.287265   -2744.5814 
13003000    257.90041   -3864.3333   -3422.3008   -3864.3333            0    7786.5132    17.133934    20.181511     20.90336    7228.1453    7001.9676    9396.8348    6960.7373    480.13482    501.64489    191.81135   -2601.4849 
13004000    252.60451   -3911.7607   -3478.8052   -3911.7607            0     6731.553    17.160635    20.212962    20.935935    7261.9907    7704.1844    6916.3186    5574.1561    149.98201     -352.767    141.10155   -2765.8753 
13005000    270.90537   -3882.0736   -3417.7511   -3882.0736            0    7762.3138    17.116141    20.160553    20.881652    7205.6501    10569.144    7581.0219    5136.7758    -330.4993    530.26765    807.30316   -2602.0327 
13006000    250.41695   -3832.8056   -3403.5995   -3832.8056            0    5875.9033    17.154271    20.205465    20.928171     7253.914    8906.3015    5276.1205    3445.2879    1495.0814   -639.40328   -62.106775   -2781.9824 
13007000    266.24995   -3856.7944   -3400.4511   -3856.7944            0    7657.2628    17.125393    20.171451     20.89294    7217.3414    8546.9374     6401.753    8023.0981    580.66168    1099.5858    -601.5787   -2594.4666 
13008000    262.11693   -3823.5184   -3374.2589   -3823.5184            0    6543.4562    17.127758    20.174237    20.895825    7220.3319     8945.947    4242.5112    6441.9104   -1292.4691    810.82354   -1059.6777   -2685.2256 
13009000    262.89285   -3818.2617   -3367.6723   -3818.2617            0    7606.2092    17.076278      20.1136     20.83302    7155.4223    7109.6868    7582.4447    8126.4962   -26.504725    414.25805    -399.3675   -2573.9302 
13010000    267.46611   -3846.8638   -3388.4361   -3846.8638            0    6050.5674    17.102323    20.144278    20.864795     7188.213    5390.5552    4716.3095    8044.8375    513.84114   -727.74922    696.62313   -2754.1387 
13011000    269.63535   -3843.2994   -3381.1536   -3843.2994            0    6729.0893    17.102037    20.143941    20.864445    7187.8521    6258.2248    6716.5472    7212.4958    517.02476    177.76526     -280.262   -2675.7604 
13012000    278.97008   -3825.7462    -3347.601   -3825.7462            0    7382.7015    17.051153    20.084006    20.802367    7123.8839    8735.3198    6345.0983    7067.6863   -141.38088    1562.1021    247.79096   -2580.5787 
13013000    272.84749    -3849.359   -3381.7077    -3849.359            0    7328.7669    17.085292    20.124217    20.844016    7166.7586    7484.7718    7345.2985    7156.2305    763.56667   -535.83502    1390.0639   -2615.7063 
13014000    259.90931   -3872.6712   -3427.1956   -3872.6712            0    6319.3383    17.055766    20.089439    20.807994    7129.6669    6983.5207    5541.6051     6432.889    -355.1408   -9.5131767    366.89602   -2770.1179 
13015000    250.88393   -3841.0684   -3411.0619   -3841.0684            0     7238.074    17.103342    20.145478    20.866038    7189.4979    6607.6837    7652.8164     7453.722    2431.6829    491.87369   -364.44224   -2652.1393 
13016000    266.08024   -3823.3414    -3367.289   -3823.3414            0    7920.5133    17.034931    20.064898    20.782576    7103.5705    7252.7355    8287.5209    8221.2836   -1077.8548   -2001.8094    671.93108   -2546.7374 
13017000    270.57632    -3842.769   -3379.0105    -3842.769            0    7687.1983    17.027215     20.05581    20.773163    7093.9227    8690.7737    6012.3976    8358.4237   -838.60918     1781.626    870.29451   -2583.7115 
13018000    246.58912   -3848.7308   -3426.0855   -3848.7308            0    7537.1302    17.017799     20.04472    20.761675    7082.1607    7309.4209    7131.7199    8170.2499    1047.2989   -530.06027    1699.4392   -2647.6051 
13019000    260.97291   -3852.9852   -3405.6865   -3852.9852            0    4442.6887    17.165705    20.218933     20.94212    7268.4285    4198.6972    4260.0662    4869.3026   -1416.7255    168.91894    179.80409   -2934.7501 
13020000     262.2667   -3881.4625   -3431.9464   -3881.4625            0    8341.0566    17.032393    20.061909     20.77948    7100.3966    9105.5235    8486.1162      7431.53   -91.965888    1384.5921   -499.31492   -2568.2133 
13021000    248.77378   -3872.2324   -3445.8426   -3872.2324            0    6911.9891    17.101573    20.143394    20.863879    7187.2669    8464.7606    6031.3522    6239.8544   -1167.6518    391.02652    575.65763   -2721.3354 
13022000    271.13151   -3871.2208   -3406.5107   -3871.2208            0    5040.0156    17.098761    20.140082    20.860449    7183.7224    5905.9703    3913.3353    5300.7413    112.85511    -71.53919   -662.54421   -2878.4822 
13023000    248.26818   -3878.9985   -3453.4754   -3878.9985            0    6351.8607    17.074342     20.11132    20.830658    7152.9886    6657.3146    6982.6682    5415.5992    1000.0598   -95.088272    -1857.524   -2790.8556 
13024000    274.97675   -3854.2701   -3382.9694   -3854.2701            0    5439.1702    17.179629    20.235334    20.959108    7286.1308     6668.378    2569.1207    7080.0119   -1000.9433   -1005.4764    -143.0158   -2804.9991 
13025000     267.8581   -3877.7842   -3418.6846   -3877.7842            0    5755.8596    17.102096     20.14401    20.864517    7187.9265    6377.7131    6301.1498    4588.7157   -1459.2449    1.5179082    66.923316   -2815.3063 
13026000    278.53763    -3835.535   -3358.1311    -3835.535            0    8926.1659    17.079792    20.117738    20.837306    7159.8395    9257.2915     10839.88    6681.3261    -981.5412     131.2269     154.5552   -2426.0705 
13027000    269.72321   -3861.0091   -3398.7127   -3861.0091            0    9639.4196    17.022059    20.049737    20.766872      7087.48    9128.6817    11381.811    8407.7662   -1051.2958    1364.6276    -1151.047   -2402.3474 
13028000    266.39155   -3899.2508   -3442.6648   -3899.2508            0    6128.3694    17.113284    20.157188    20.878167    7202.0425    5201.3897    6837.1821    6346.5364     459.0967    479.91694    766.18004   -2798.9752 
13029000    263.16285   -3910.9864   -3459.9343   -3910.9864            0     5019.903    17.110559    20.153979    20.874842    7198.6027     5514.294    4741.5626    4803.8522   -631.65018    100.96144   -480.69445   -2932.9236 
13030000    259.76248   -3834.4942   -3389.2702   -3834.4942            0     5488.831    17.117166     20.16176    20.882902    7206.9441    4551.0332    5445.6218     6469.838    785.10205   -305.62572   -1017.1046   -2812.3617 
13031000    269.13074    -3846.703   -3385.4221    -3846.703            0    4917.3833    17.215097     20.27711    21.002378    7331.3505    5569.8048    3322.2939    5860.0512    387.93959   -70.976624   -1098.1114   -2859.6544 
13032000    264.69503   -3832.0057   -3378.3274   -3832.0057            0    6057.3786    17.072164    20.108754       20.828    7150.2517    7060.6005    4961.4384    6150.0968    662.01785     2018.646   -87.796987   -2746.6695 
13033000     265.2041   -3858.8338    -3404.283   -3858.8338            0    6760.8945    17.166969    20.220422    20.943662    7270.0345      7049.88    7219.8791    6012.9245    290.56082    1318.3315    2518.8355   -2687.4525 
13034000    244.34706   -3854.3045    -3435.502   -3854.3045            0    7034.1551    17.142647    20.191774    20.913989    7239.1779    6817.0865    6888.4671    7396.9117   -657.82316   -648.81968    356.09036   -2692.8642 
13035000    261.13357   -3895.1775   -3447.6035   -3895.1775            0    5742.1574    17.093441    20.133816    20.853959    7177.0192    6128.7129    4011.5858    7086.1736   -1115.5523   -674.48528    1562.1489    -2846.575 
13036000    254.09142   -3868.0836   -3432.5796   -3868.0836            0    7229.3695    17.059216    20.093503    20.812204    7133.9951    7139.5916    7287.9575    7260.5594   -229.97151    88.810095   -638.87505   -2680.4215 
13037000    267.15102   -3852.9591   -3395.0714   -3852.9591            0    7719.4039    17.120712    20.165937    20.887229    7211.4242    9091.5742    9170.2967    4896.3408   -256.92774    1226.9364   -188.04128   -2583.2122 
13038000    254.99918   -3830.1602   -3393.1003   -3830.1602            0      6770.89    17.064094    20.099249    20.818155     7140.117    8390.8734    6263.4084    5658.3883    667.33667   -234.64085   -226.88877   -2688.0388 
13039000    257.30943    -3865.276   -3424.2565    -3865.276            0    5887.2477    17.070539     20.10684    20.826017    7148.2095    5083.5816    7028.3134     5549.848    1931.9747    1037.6679    1649.6905    -2810.515 
13040000    257.17125   -3882.7786   -3441.9958   -3882.7786            0    6710.5964    17.079753    20.117692    20.837258    7159.7904    5078.6001    7280.3003    7772.8889    1434.2937    178.97633   -93.896403   -2741.2874 
13041000    262.73521   -3879.0914   -3428.7723   -3879.0914            0    7129.6263     17.06106    20.095675    20.814454    7136.3089    7554.1407    6998.3953     6836.343    738.29979   -1665.1443   -368.27895   -2686.7511 
13042000    258.12468   -3895.8194   -3453.4026   -3895.8194            0    9575.7142    17.046832    20.078916    20.797095    7118.4695    10674.841    8826.7261    9225.5755    1094.5415   -355.64534    165.55155   -2459.2943 
13043000    258.51871   -3861.3949   -3418.3026   -3861.3949            0     6011.688     17.10043    20.142048    20.862485    7185.8261    6189.6742    6096.6846    5748.7051   -2307.4895    361.02266   -563.94067   -2788.2903 
13044000    264.37798   -3867.3928    -3414.258   -3867.3928            0    7235.4279    17.034703     20.06463    20.782298     7103.286    6794.6795    8951.4539    5960.1504     628.4094    1469.8184    1248.1817   -2664.7101 
13045000    243.71196     -3883.23    -3465.516     -3883.23            0    8714.4962    17.002124    20.026256    20.742551    7062.6082    8603.9316    8826.3905    8713.1664    947.53509    764.30796    1334.1978   -2567.9151 
13046000    256.17084   -3832.4748   -3393.4068   -3832.4748            0    8066.6484    17.059137     20.09341    20.812107    7133.8958    8176.5615    8621.7673    7401.6164   -1107.1012    1126.8111    381.39031   -2554.1482 
13047000    251.58844   -3834.4724   -3403.2584   -3834.4724            0    8487.4552    17.039023    20.069718    20.787568    7108.6912      7788.77    8238.7905    9434.8051    272.97409   -1005.0243    249.21328   -2523.3388 
13048000     266.7799    -3888.885   -3431.6333    -3888.885            0    6956.9301    17.030249    20.059383    20.776864    7097.7149    8286.5991    5776.9856    6807.2057    323.54817   -1326.5994   -356.77757   -2711.5014 
13049000     270.4305   -3887.8144   -3424.3058   -3887.8144            0    8107.3415    17.018719    20.045804    20.762798    7083.3097    8811.4916    8821.5457    6688.9871    410.76144    71.582658    854.59284   -2586.7946 
13050000    271.03737   -3929.4918   -3464.9431   -3929.4918            0    9189.0979    17.038169    20.068713    20.786527    7107.6231    7899.2383    9668.9888    9999.0667    1425.4769    -2260.718    104.22879   -2512.4251 
13051000    276.08111   -3895.3988   -3422.2052   -3895.3988            0    5353.6826    17.120112    20.165231    20.886497    7210.6666    5899.1558    3793.8436    6368.0485   -1419.1008   -56.626874    255.42671    -2859.211 
13052000    271.01341   -3919.0973   -3454.5896   -3919.0973            0    6464.2976    17.060603    20.095137    20.813896    7135.7355    8049.3274    4702.8265     6640.739   -513.47721    1905.5432   -49.456752    -2781.867 
13053000    261.44888    -3878.438   -3430.3235    -3878.438            0    8853.0212      17.0517     20.08465    20.803034    7124.5693     7999.798     8230.855    10328.411   -20.887483   -165.13033    523.05671   -2510.4545 
13054000    273.09987    -3863.798   -3395.7141    -3863.798            0    5710.8604    17.101678    20.143518    20.864007    7187.3994    5819.0875    5102.8478    6210.6459   -798.77499   -452.22673   -122.73446   -2797.0969 
13055000    268.24313    -3891.564   -3431.8045    -3891.564            0    6539.3185    17.043633    20.075148    20.793192    7114.4626    6291.7355    6229.0252    7097.1949   -1012.8383   -535.04831   -47.074285   -2753.3035 
13056000    268.07996   -3826.5902   -3367.1104   -3826.5902            0    8956.3256    17.021209    20.048735    20.765835    7086.4181    8692.0839    9868.9742    8307.9186    -46.22934   -859.55124    150.26857   -2441.4908 
13057000    261.71188   -3859.1596   -3410.5944   -3859.1596            0     6371.742    17.082218    20.120596    20.840266    7162.8912    5758.7506    6822.0805    6534.3948    696.04066    1323.1135    519.00713   -2744.9804 
13058000    269.42194   -3877.9388   -3416.1588   -3877.9388            0    8070.1594    17.057344    20.091298    20.809919     7131.646     9808.921     6558.699    7842.8583    1171.0971     -37.1609    1235.6338   -2576.7998 
13059000     268.1779   -3877.3148   -3417.6671   -3877.3148            0    7736.3716    17.078873    20.116656    20.836185     7158.684    7601.4343    8326.6834     7280.997    965.05131   -422.02768    176.63709   -2609.9739 
13060000    261.39422   -3900.2899   -3452.2692   -3900.2899            0    7194.9522    17.076015    20.113291    20.832699    7155.0918    7149.0032    6617.2591    7818.5942    42.358333   -436.12492    297.31412   -2701.4783 
13061000    277.45295   -3898.1367   -3422.5919   -3898.1367            0    8029.9615    17.022983    20.050825       20.768    7088.6346    9860.5506     7343.147    6886.1868   -688.58178   -100.52654    422.37199   -2592.4507 
13062000    253.73926   -3853.1651   -3418.2647   -3853.1651            0    3844.1309     17.17024    20.224274    20.947652    7274.1903    5825.8451    2741.4255    2965.1221    36.115236     428.1864    341.56718   -3010.4539 
13063000    266.21383   -3845.2518   -3388.9705   -3845.2518            0     6538.526    17.172002     20.22635    20.949802    7276.4306    6406.2116    6353.8312    6855.5352    784.01841    1745.6595   -401.36823   -2695.1068 
13064000     269.9228   -3873.6331   -3410.9947   -3873.6331            0    7138.0438    17.069789    20.105956    20.825102    7147.2674    6901.4062    8044.1203     6468.605    938.06075    2.2566208    1627.0316   -2666.9566 
13065000    256.47698   -3906.5628   -3466.9701   -3906.5628            0    7670.7211    17.027662    20.056337    20.773708    7094.4817    8086.5409    6120.7783    8804.8441   -565.00623   -1327.0697    1034.2538   -2673.3133 
13066000    271.01455   -3856.4908   -3391.9811   -3856.4908            0    5730.0453    17.107112    20.149919    20.870637     7194.253     3947.685    5831.1399     7411.311   -300.13495   -156.29599   -84.423814   -2790.7802 
13067000    248.82833   -3905.8812   -3479.3979   -3905.8812            0    6421.5002    17.048506    20.080888    20.799137    7120.5666    5814.2448    5420.1069     8030.149    549.48323   -462.95976   -1438.6065   -2812.5498 
13068000     261.0047   -3894.9632   -3447.6101   -3894.9632            0    6703.6725    17.030277    20.059417    20.776899    7097.7511    6552.0473    6940.7525    6618.2177    1388.7323   -1245.4732    572.49372     -2753.69 
13069000    251.46314   -3901.6239   -3470.6247   -3901.6239            0    5016.6841    17.117419    20.162058    20.883211    7207.2636    2298.0731    6668.9358    6083.0435   -623.68799   -458.16971   -55.646779   -2943.3183 
13070000    259.02407   -3853.7037   -3409.7453   -3853.7037            0     7616.645     17.08093    20.119079    20.838694     7161.271    7182.7805    7634.6067    8032.5478    -186.2663   -826.55545      89.5825   -2614.2644 
13071000     260.5429   -3893.8705   -3447.3089   -3893.8705            0    6427.6678    17.139387    20.187934    20.910012    7235.0487    6721.9324    5955.2659    6605.8051    217.80381    1203.2223   -588.05119   -2769.0886 
13072000    282.45578   -3832.1731   -3348.0535   -3832.1731            0    7296.3137    17.109465     20.15269    20.873508    7197.2221    7704.1285    7462.7241    6722.0886    214.80103    1468.8249     574.8539   -2582.2025 
13073000    241.78924   -3865.7584     -3451.34   -3865.7584            0    8215.0108    17.046585    20.078625    20.796794    7118.1599    7224.7091    8081.1608    9339.1626   -1333.0852   -780.59295   -1792.2298    -2598.531 
13074000    267.70302   -3889.1374   -3430.3035   -3889.1374            0    7478.4601    17.071346    20.107791    20.827002    7149.2236    6945.9808    6793.3518    8696.0475    -1342.935    296.96273   -652.84116   -2650.5687 
13075000    257.80031   -3870.1178   -3428.2569   -3870.1178            0    8193.7384     17.07101    20.107395    20.826592    7148.8016    7681.1241    8279.0837    8621.0075    -1481.641    1067.3227    -1030.321   -2573.9946 
13076000    253.91873   -3865.3263   -3430.1183   -3865.3263            0    7892.6928    17.095014    20.135668    20.855877    7178.9998    7725.3187    8891.8548    7060.9049   -397.37046   -496.22464    1522.7372   -2603.7664 
13077000    259.84189   -3885.2081    -3439.848   -3885.2081            0    8474.4454    17.083138     20.12168    20.841389    7164.0491    9233.6803    7070.0149     9119.641    1395.5338   -82.478268    779.28407   -2554.4353 
13078000    278.05881   -3866.2893    -3389.706   -3866.2893            0    7664.8951    17.074308     20.11128    20.830616    7152.9458    7170.0201     7549.508    8275.1574    108.58978   -552.70297    515.53954   -2590.1166 
13079000    255.64658   -3876.0708   -3437.9014   -3876.0708            0    7622.5387     17.07361    20.110457    20.829764    7152.0683    8949.9951    6716.2158    7201.4053    262.37358    1405.4585    520.68036    -2642.828 
13080000    261.97826    -3841.312   -3392.2903    -3841.312            0    7113.1919    17.092923    20.133206    20.853327    7176.3667    8010.1412    7255.3618    6074.0728     355.2383    125.98747   -505.33373    -2647.824 
13081000    264.72573   -3878.9164   -3425.1855   -3878.9164            0    6363.8998    17.085939    20.124979    20.844806    7167.5735    6919.9763    5569.7004    6602.0227    507.83581    521.45378    262.34549   -2759.9562 
13082000    261.10224   -3891.9226   -3444.4023   -3891.9226            0    7520.0897    17.138648    20.187064    20.909111    7234.1127    9171.0377     6497.125    6892.1063    979.08676   -142.10342     437.8629    -2651.017 
13083000    251.55575   -3862.9392   -3431.7813   -3862.9392            0     8128.825    17.011443    20.037233    20.753921    7074.2279    8754.9133    7049.0961    8582.4656   -326.99788   -915.98396     19.82944   -2593.1275 
13084000    266.98347   -3812.8783   -3355.2778   -3812.8783            0    7415.9707    17.080036    20.118027    20.837604    7160.1472    6891.4714    7002.1451    8354.2958   -229.22591    297.88947   -553.60259   -2580.8769 
13085000    270.71625   -3907.6198   -3443.6214   -3907.6198            0    6458.4582    17.056329    20.090103    20.808682     7130.374    7397.1796    5115.6052    6862.5897     1.419955    16.381302    -1369.848   -2772.0116 
13086000    247.14857   -3854.7071   -3431.1029   -3854.7071            0    5706.8794    17.135704    20.183596    20.905519    7230.3858    5763.4386    7052.0687    4305.1311    2371.7027   -530.62759    206.32688   -2829.3253 
13087000    250.43756   -3889.6403   -3460.3989   -3889.6403            0    7173.1823    17.101123    20.142865    20.863331    7186.7001    3858.9604    9419.6132    8240.9734     852.6451    962.97541   -909.87982    -2708.573 
13088000    268.92379   -3843.3289   -3382.4027   -3843.3289            0    8033.4742    17.059973    20.094395    20.813128    7134.9452    6127.1214    8642.4898    9330.8116   -1732.4562    1022.0505    750.39469   -2546.4727 
13089000     250.0871    -3900.496   -3471.8553    -3900.496            0    5973.5624    17.069826       20.106    20.825148    7147.3143    5347.1261    7874.4595    4699.1015   -61.133134     335.4978   -1210.5835   -2849.1936 
13090000     265.4705   -3889.4968   -3434.4895   -3889.4968            0    6434.8575    17.083109    20.121646    20.841353    7164.0124    7572.4951    6486.7256    5245.3519   -378.01335    746.23051   -679.26734    -2762.177 
13091000    251.52563   -3896.9848   -3465.8784   -3896.9848            0     7922.082    17.074079    20.111009    20.830336    7152.6573    8948.8736    6685.1894    8132.1831   -520.09781    897.72082   -177.34023    -2639.493 
13092000    274.38506   -3874.1722   -3403.8856   -3874.1722            0    7771.9069    17.064276    20.099463    20.818376    7140.3444    7061.1177    7165.4702    9089.1327   -346.64626    1733.0131   -537.73195   -2594.5612 
13093000    257.01743   -3862.8737   -3422.3546   -3862.8737            0    9728.0698    17.010835    20.036517    20.753179    7073.4696    9905.7765    10210.945    9067.4876   -1101.6112   -1944.1237   -776.22808   -2418.8137 
13094000    258.95449   -3885.9238   -3442.0847   -3885.9238            0    7657.3564    17.096441    20.137349    20.857618    7180.7982    8994.9343     6747.057    7230.0779    307.62274    514.67527   -485.42456   -2640.1713 
13095000    268.78382   -3928.4495   -3467.7632   -3928.4495            0    7149.1735    17.137365    20.185552    20.907545    7232.4881    7257.2324    6118.2309    8072.0572   -1241.3139    579.88038   -571.54384   -2713.6797 
13096000    268.54104   -3869.9383   -3409.6681   -3869.9383            0    6204.1982    17.113886    20.157897    20.878901    7202.8019    7765.0292    4490.5441    6357.0213    1181.5899    605.79168    402.51094   -2757.9451 
13097000    271.81893   -3890.3731   -3424.4847   -3890.3731            0    7801.3925    17.043497    20.074988    20.793027    7114.2925    8389.5831    6056.3478    8958.2467    663.02158   -312.33486   -357.64961   -2615.0539 
13098000    255.45113   -3879.2529   -3441.4184   -3879.2529            0    6931.1647    17.044553    20.076233    20.794315    7115.6154    6877.5273    6623.7005    7292.2664   -1531.2707   -1038.6506    377.82584   -2722.1441 
13099000    266.03446   -3887.4066   -3431.4327   -3887.4066            0    6831.5252    17.118002    20.162745    20.883922    7208.0002    6589.2336     6509.872      7395.47    2298.9804   -1341.9258    930.76104   -2713.2939 
13100000    257.16151   -3893.2372   -3452.4712   -3893.2372            0    6671.7206     17.03336    20.063048    20.780659    7101.6058    6920.6344    5840.3815     7254.146    265.54923   -1506.8597   -747.13596   -2761.4835 
13101000    258.22471   -3899.0608   -3456.4724   -3899.0608            0    7912.3199    17.020628    20.048052    20.765127    7085.6932    7936.9302    7902.9415    7897.0881    74.106886   -450.27638    1335.4603   -2638.8325 
13102000     274.0081   -3861.4727   -3391.8321   -3861.4727            0    6870.9709    17.071756    20.108274    20.827503     7149.739    7357.6932    6497.6682    6757.5513     659.2988   -2050.5768   -1203.9243   -2675.3849 
13103000    269.73092   -3869.4064   -3407.0969   -3869.4064            0    7474.5806    17.094103    20.134596    20.854766    7177.8528     7364.728    9327.6686    5731.3454   -479.21208    -162.1252   -115.76726   -2624.6456 
13104000     264.4827   -3849.9851   -3396.6708   -3849.9851            0    7700.1925    17.059081    20.093344    20.812039    7133.8255    6655.2642    9257.3584     7187.955   -1862.3991   -236.90913    769.34282   -2595.5464 
13105000    275.42304   -3870.2977    -3398.232   -3870.2977            0     7823.972    17.108651    20.151731    20.872514    7196.1947    7063.8298    7813.6743     8594.412   -2023.8535    49.669929    72.275171    -2577.113 
13106000    258.50685   -3858.7582   -3415.6863   -3858.7582            0    7055.7642    17.154535    20.205776    20.928493    7254.2486    4645.7542    9433.3141    7088.2242   -612.26471   -578.96096    928.83137   -2669.2162 
13107000    268.99028    -3903.318   -3442.2778    -3903.318            0    5869.3029    17.143061    20.192261    20.914494    7239.7018    4895.4029    6075.8561    6636.6495   -690.76583   -1147.7688     230.6157   -2822.5756 
13108000    264.83444   -3864.2913   -3410.3741   -3864.2913            0    4993.2423    17.139051    20.187538    20.909602     7234.623    5408.2348    5047.5656    4523.9265   -1647.4534   -446.80743    729.15274   -2883.5393 
13109000     265.1726   -3881.6108    -3427.114   -3881.6108            0    6202.8846    17.099933    20.141462    20.861878    7185.1988     6830.917    5494.8798    6282.8571   -139.46947   -236.80557    1044.0666   -2777.1215 
13110000    263.30925   -3856.0839   -3404.7809   -3856.0839            0    6766.7404    17.082892     20.12139    20.841088    7163.7391    8327.4025    6454.4904    5518.3284   -406.44939   -604.03626   -131.77344   -2697.8204 
13111000    275.09419    -3868.112     -3396.61    -3868.112            0    7383.0221    17.072541    20.109198     20.82846    7150.7249    6890.8967     9018.633    6239.5366   -613.66941    -473.2218    1147.7438   -2626.6642 
13112000     265.5518   -3861.2044   -3406.0578   -3861.2044            0    4794.8883    17.145241     20.19483    20.917154    7242.4648    5106.9483    4012.6914    5265.0251    832.10861    -518.3805   -81.450434   -2899.6029 
13113000    262.55108   -3883.4141   -3433.4105   -3883.4141            0    6269.5151     17.04292    20.074308    20.792322    7113.5698    8827.3278    5800.6207    4180.5969    554.12767   -341.24209    621.40984   -2782.9852 
13114000      281.732   -3854.7971   -3371.9181   -3854.7971            0    7180.5373    17.116231     20.16066    20.881762     7205.764    6747.1489    7694.5167    7099.9464    257.42229   -1062.0211    124.09734   -2617.3249 
13115000    270.73658   -3846.3761   -3382.3428   -3846.3761            0    8243.3207     17.07044    20.106723    20.825896    7148.0848    7249.8278    7426.9167    10053.218    826.20624    204.99015    656.21091   -2522.9974 
13116000    270.20291   -3891.0541   -3427.9355   -3891.0541            0    6114.0579    17.081823    20.120131    20.839784    7162.3946    6391.1788    6480.6422    5470.3527   -51.689825   -668.58551    1430.1771   -2789.2844 
13117000    251.53276   -3859.8156   -3428.6971   -3859.8156            0    9221.7139    16.931091    19.942589    20.655892    6974.4578    9969.1675    10578.031    7117.9427    384.63199    352.90797   -1030.2626   -2490.7076 
13118000    255.51436   -3877.0431   -3439.1002   -3877.0431            0    8223.1417    17.029174    20.058117    20.775552    7096.3712    6452.0767    9330.9007    8886.4477   -801.55785    -790.4399    768.84362   -2588.0602 
13119000    273.13226   -3906.3944    -3438.255   -3906.3944            0    6701.1937    17.116454    20.160921    20.882033    7206.0447     6150.852    5838.4921    8114.2368    248.18542   -196.80781    607.29251    -2734.008 
13120000    257.02284   -3878.3665   -3437.8381   -3878.3665            0    7581.6705    17.048845    20.081288    20.799552    7120.9922      8500.33    6975.6096    7269.0719   -387.79446    42.650008    326.73484   -2650.4637 
13121000    256.24111   -3880.7899   -3441.6014   -3880.7899            0    8086.5716    17.063284    20.098295    20.817167    7139.0999    6645.9472    8317.9919    9295.7758   -1913.6453    293.16794   -1298.2112   -2599.6563 
13122000    278.56611   -3866.2409   -3388.7882   -3866.2409            0    3937.1754    17.166001    20.219282    20.942481    7268.8049     3808.148    4525.5751    3477.8032   -171.63549   -993.53629   -749.82039   -2971.4158 
13123000    259.72338   -3874.4264   -3429.2695   -3874.4264            0    6866.3238     17.03913    20.069844    20.787698    7108.8247    5868.0347    7343.8746    7387.0622   -584.45366    849.26702   -1064.0105   -2717.4039 
13124000     267.1457   -3849.0674   -3391.1888   -3849.0674            0    7692.3115    17.019536    20.046765    20.763794    7084.3289    8574.1543    8729.9061    5772.8741    29.207249    663.55623    548.11048   -2596.4371 
13125000    278.22282   -3854.0211   -3377.1567   -3854.0211            0      8694.86    17.042536    20.073856    20.791854    7113.0887    7500.9288    9571.5937    9012.0577    -217.8079    157.43241    -427.1714   -2475.1771 
13126000    255.19218    -3844.817   -3407.4263    -3844.817            0    6776.8178    17.103637    20.145825    20.866397    7189.8691    6709.8983    6366.2116    7254.3436   -137.52537    866.29899    3.5332052   -2696.8304 
13127000    257.69614   -3829.4713    -3387.789   -3829.4713            0    7408.0161    17.073684    20.110545    20.829855     7152.162    7233.2978    6508.8203    8481.9304    1603.0851   -891.51544    1589.4373   -2615.0814 
13128000    276.65908   -3878.3142     -3404.13   -3878.3142            0    7438.0967    17.090852    20.130766    20.850799    7173.7577    8365.9225    7551.8448    6396.5228   -2245.6838   -705.13994   -114.58218   -2625.9422 
13129000     264.1363   -3847.4202   -3394.6996   -3847.4202            0      5939.93    17.139603    20.188188    20.910275    7235.3214    6173.2269    5323.4667    6323.0963    532.63558    414.68695   -798.20301   -2767.9197 
13130000    260.54883   -3862.2935   -3415.7217   -3862.2935            0    9060.5222    17.034395    20.064267    20.781922       7102.9    9334.4503    8176.8856    9670.2307   -109.32444    304.69869    72.310216   -2477.1557 
13131000    265.01914   -3873.3133   -3419.0795   -3873.3133            0    8778.6793     16.95117    19.966239    20.680388    6999.3005    9558.5872    8336.2413    8441.2093     71.65267    1032.7693   -642.56977   -2522.9729 
13132000    255.07595   -3811.9588   -3374.7673   -3811.9588            0    7276.6257     17.08817    20.127608    20.847528    7170.3819    8488.0367    8534.1881    4807.6523   -1101.2901   -1657.4679   -113.15128   -2613.8312 
13133000    266.58512   -3843.8537   -3386.9359   -3843.8537            0    5389.9086    17.116019    20.160409    20.881503    7205.4952    5035.8914    5985.3275    5148.5069   -1829.0785    -357.1418    40.472268   -2820.5386 
13134000    248.43404   -3856.0587   -3430.2513   -3856.0587            0     5976.336     17.12576    20.171884    20.893388    7217.8057    7091.3748    5684.5309    5153.1023   -1343.2239    1150.3971    284.68823   -2801.1565 
13135000    249.49445   -3864.0678   -3436.4428   -3864.0678            0    6520.7892    17.023662    20.051625    20.768828    7089.4831    5945.6412    8976.3625     4640.364    247.00534    1473.7996    376.39864   -2762.2399 
13136000    259.19768   -3836.3157   -3392.0597   -3836.3157            0    6160.3974    17.032751    20.062331    20.779917    7100.8445    5244.3931    6599.0962     6637.703    1183.3879    985.57647   -640.20914    -2754.098 
13137000    251.14487   -3852.1633   -3421.7096   -3852.1633            0    7523.8485    17.090533     20.13039     20.85041    7173.3559    9200.8822    7940.3751    5430.2881    1204.3691     521.1881    458.16363   -2634.5944 
13138000    271.04196   -3851.4893   -3386.9326   -3851.4893            0    6372.0012     17.06155    20.096252    20.815051    7136.9235    6788.8743      7204.14    5122.9892    1276.8527    501.15203   -86.974793   -2723.7047 
13139000     245.7825   -3899.4769   -3478.2141   -3899.4769            0    5159.6519    17.089483    20.129154    20.849129    7172.0343    5610.4262    6232.9233    3635.6063   -848.63651      336.904   -73.595485   -2938.5312 
13140000     255.6216   -3855.4739   -3417.3472   -3855.4739            0    6545.5696    17.112155    20.155859     20.87679    7200.6175    9049.4722    6040.0929    4547.1437    846.51327   -1154.4845   -783.95622   -2729.9732 
13141000    273.02601    -3902.688   -3434.7307    -3902.688            0    6120.1442    17.047071    20.079197    20.797386    7118.7685    7719.2852    6706.1538    3934.9935    1622.8666   -909.30316   -847.81673   -2799.3378 
13142000    263.52293   -3864.6264   -3412.9571   -3864.6264            0    7376.0736    17.127987    20.174506    20.896104    7220.6209    7676.6765    6734.0404    7717.5038    804.76518    758.25298    -111.6312   -2636.2171 
13143000    257.85121   -3867.2117   -3425.2636   -3867.2117            0     7926.357    17.067377    20.103116     20.82216    7144.2387    8736.1886    8476.3671    6566.5154   -795.77564    1324.1725   -1080.9791   -2599.4054 
13144000    259.03596   -3838.7626   -3394.7839   -3838.7626            0     7347.268    17.063573    20.098636     20.81752    7139.4629    5922.9083     8805.961    7312.9347   -45.428233    521.25639     1517.269   -2629.7735 
13145000    258.05897   -3856.3166   -3414.0123   -3856.3166            0    7101.4987    17.079589    20.117499    20.837058    7159.5842     6313.046    6230.1505    8761.2995    919.32733    1434.4378   -606.99989    -2672.508 
13146000     250.5417   -3864.4255   -3435.0056   -3864.4255            0    7897.7519    17.076706    20.114104    20.833542      7155.96    8340.4702    7470.3424     7882.443   -2295.7471    309.35472    70.177542   -2610.7778 
13147000    260.88602   -3907.3105   -3460.1608   -3907.3105            0     8254.095    17.032952    20.062567    20.780161    7101.0953    9759.9013     6398.106    8604.2777    280.07625   -920.03043   -1740.0703   -2605.3487 
13148000    239.66547    -3865.397   -3454.6186    -3865.397            0    7271.5992    17.047638    20.079865    20.798078    7119.4788    7293.4241     5975.616    8545.7575    1078.3813    2108.4637   -1264.8977   -2699.6063 
13149000    277.25572   -3847.0598    -3371.853   -3847.0598            0    8160.6734    17.018381    20.045405    20.762386    7082.8876    8705.7044    7577.6426    8198.6733   -103.19267   -731.66917   -573.62518   -2528.8828 
13150000    247.17871   -3848.0301   -3424.3743   -3848.0301            0    6445.3748    17.105255     20.14773    20.868371    7191.9096    4708.4647     8446.496    6181.1636    607.69808    24.585254   -113.33532   -2748.3407 
13151000    266.25846   -3830.8945   -3374.5366   -3830.8945            0    6567.0769    17.055967    20.089676     20.80824    7129.9194    5119.8747     7206.816    7374.5402    -1323.858   -1909.3972   -480.59349   -2691.6751 
13152000     253.7971   -3885.5617   -3450.5622   -3885.5617            0     6402.806    17.123296     20.16898    20.890381    7214.6895    5370.6158    6459.9223      7377.88   -33.569342    843.86347    1437.6983   -2776.8663 
13153000    266.17161   -3880.6709   -3424.4619   -3880.6709            0    7053.9655    17.109194     20.15237    20.873176    7196.8793    6296.7262    6749.4104      8115.76     1472.503   -2435.6827    608.62296    -2684.084 
13154000    244.09752   -3874.5116   -3456.1368   -3874.5116            0      8913.57    16.998243    20.021686    20.737817    7057.7737    8036.6135    9563.5141    9140.5825     975.4227   -2295.6211    1284.3115   -2538.6595 
13155000    252.81837   -3850.5344   -3417.2123   -3850.5344            0     8577.036    17.041339    20.072446    20.790393    7111.5898    8366.2774    10167.894     7196.937   -617.18786   -595.11477   -317.23318   -2527.6429 
13156000    251.70348   -3897.3039   -3465.8927   -3897.3039            0    7981.2707    17.067902    20.103734    20.822801    7144.8977    7976.9449     8330.428    7636.4393   -305.08363    423.25179    128.61111   -2634.2363 
13157000    260.41435   -3862.3217   -3415.9804   -3862.3217            0    9089.6271    17.013754    20.039954     20.75674     7077.111    9045.5229    10258.949    7964.4093    776.88777    -1062.615   -2153.5964   -2477.8181 
13158000    251.27049   -3872.6782   -3442.0092   -3872.6782            0    8363.1285    17.085465    20.124421    20.844228    7166.9772    7286.6088    9256.0714    8546.7054    689.50969   -2159.3478    375.30176   -2567.8698 
13159000    253.61623   -3858.4883   -3423.7988   -3858.4883            0    7087.4615    17.047702    20.079942    20.798157    7119.5601    7233.7982    7558.8988    6469.6876    367.45766    113.17676    1471.4561   -2687.8971 
13160000    275.79712   -3871.5199   -3398.8131   -3871.5199            0    8357.6017    17.097659    20.138783    20.859103    7182.3325    9422.8168    8421.5479    7228.4402    213.32716   -879.18768    1684.8553   -2523.3798 
13161000    250.51105   -3898.9561   -3469.5888   -3898.9561            0    6397.5299    17.089026    20.128615    20.848572    7171.4588    4713.7073    7166.6267    7312.2557    380.98477   -1099.5252   -296.04198   -2800.4815 
13162000    252.90527    -3863.787    -3430.316    -3863.787            0    6129.2262    16.998174    20.021604    20.737733    7057.6871    5761.1829     5322.934    7303.5618   -79.384518   -2358.3802   -628.56522   -2799.4401 
13163000    277.92182    -3894.712   -3418.3635    -3894.712            0     8092.991    17.073957    20.110867    20.830188     7152.505    8140.9556    8053.7978    8084.2197    1392.8362   -245.35251   -689.97209   -2574.1678 
13164000    268.99593   -3897.0551   -3436.0052   -3897.0551            0    6324.3357    17.118403    20.163218    20.884412    7208.5074    6822.5157    6083.8845    6066.6071   -432.12426    638.03305   -514.08984   -2771.1361 
13165000    259.24227   -3843.5895   -3399.2571   -3843.5895            0    8799.6357    17.018317    20.045329    20.762307    7082.8068    10310.702    8768.8243    7319.3804   -1051.7541   -511.73108   -778.39004   -2490.2946 
13166000    259.28086   -3843.3914   -3398.9929   -3843.3914            0    5981.3952    17.095707    20.136485    20.856723    7179.8738    7000.5061    5842.7199    5100.9595   -702.07689    1318.7598    1305.7051   -2772.6745 
13167000    257.58552   -3903.5199   -3462.0271   -3903.5199            0    8299.6857    17.022106    20.049792    20.766929    7087.5386    7821.8538    7979.8156    9097.3877   -838.79597   -655.72161    33.762309   -2604.1344 
13168000    272.59941   -3864.5326   -3397.3066   -3864.5326            0    6000.7405    17.105744    20.148307    20.868968    7192.5271    5138.5953    7594.4859    5269.1404    -35.12172     171.5681   -400.89812   -2767.8551 
13169000    267.92308   -3861.9534   -3402.7424   -3861.9534            0    5745.8811    17.076135    20.113432    20.832845    7155.2424    7139.9513     4594.524     5503.168     294.3103    474.42399    1140.1234    -2803.149 
13170000    271.76433   -3877.2878    -3411.493   -3877.2878            0     8473.728    17.020188    20.047533     20.76459    7085.1434    7737.8535    10199.864    7483.4665    79.089683    -1085.253    -133.7144   -2535.9065 
13171000    269.66607   -3885.4447   -3423.2463   -3885.4447            0    7087.6393     17.03902    20.069715    20.787564    7108.6874    8223.0603    6380.3963    6659.4613   -513.17256    797.45199    737.80625   -2688.4501 
13172000    253.09153   -3879.9926   -3446.2023   -3879.9926            0    7229.0222    17.112491    20.156254    20.877199    7201.0408    9699.9815    6464.1751    5522.9098   -809.36382   -715.46807   -979.28773   -2687.0119 
13173000    254.26814   -3862.0961   -3426.2892   -3862.0961            0    7454.6523    17.059253    20.093546    20.812248    7134.0409    6770.2308    9404.3408    6189.3854    776.85343    1368.6473    785.80211   -2650.6872 
13174000     256.6326   -3873.9689   -3434.1095   -3873.9689            0    7587.0971    17.067071    20.102756    20.821787    7143.8546    8152.9111    6941.3903    7666.9899   -533.51975   -1419.6267    1502.5307   -2643.6417 
13175000    273.27679   -3884.5365   -3416.1495   -3884.5365            0    7803.3585     17.05127    20.084144    20.802509    7124.0305    7699.9064     5961.334    9748.8349    320.83985    321.78227   -586.77382   -2605.4064 
13176000    263.15078   -3899.6015   -3448.5701   -3899.6015            0     8205.429    17.072691    20.109375    20.828643    7150.9137    6182.4861    8864.3672    9569.4336   -923.62349   -1110.7627    298.65802   -2592.8362 
13177000    275.60039   -3876.9582   -3404.5885   -3876.9582            0     7802.667    16.992804    20.015279    20.731181    7051.0003    6733.2752    7504.5192    9170.2067   -445.56096   -121.37402   -913.98408   -2602.2277 
13178000    268.23213   -3875.1125   -3415.3718   -3875.1125            0    7206.9353     16.99965    20.023342    20.739533     7059.526    7428.7119    6344.7545    7847.3395   -986.63867   -1064.3504    -1191.834    -2673.375 
13179000    265.87113   -3889.3186   -3433.6246   -3889.3186            0    4693.0846    17.066916    20.102572    20.821597     7143.659    5469.3943    4147.7681    4462.0913    268.32448    1317.1897    -1049.884   -2944.6853 
13180000    259.89988   -3882.1921   -3436.7327   -3882.1921            0    6417.5584    17.004106    20.028591     20.74497    7065.0788     5117.316     7727.716    6407.6432    1130.6639   -895.11329   -363.14751   -2775.4872 
13181000    262.08518   -3836.7027   -3387.4977   -3836.7027            0    8133.1744    17.001113    20.025066    20.741318    7061.3487    8762.7532    8070.1387    7566.6315    23.656004    232.96457    381.71048   -2549.9228 
13182000    265.46213   -3848.0635   -3393.0705   -3848.0635            0    8850.3539    17.111883    20.155538    20.876457    7200.2732    7946.6639    8262.9776     10341.42    1388.3956    1442.8218    543.99876   -2463.7073 
13183000    261.66596   -3872.8966   -3424.4101   -3872.8966            0    7447.2435    17.037493    20.067917    20.785702     7106.777    7461.0622    8603.2674    6277.4008   -2280.6345    535.34011   -548.67847   -2652.5402 
13184000    254.87099    -3883.317   -3446.4769    -3883.317            0    6700.4491    17.058067     20.09215    20.810802    7132.5539    6220.7314    6830.5807    7050.0352   -485.23951   -1282.9352    681.12317   -2749.4896 
13185000    268.65087   -3852.8218   -3392.3634   -3852.8218            0    8250.5219      17.0575    20.091481     20.81011    7131.8417    7803.1824    7341.7705     9606.613   -322.35127    1035.8409   -29.666001   -2534.2217 
13186000     266.9067   -3826.8535   -3369.3846   -3826.8535            0    7650.8499     17.09973    20.141223     20.86163    7184.9428    8572.4845    8234.9148    6145.1505    1182.1587      412.317    330.36853   -2567.6901 
13187000    263.65071   -3871.6338   -3419.7455   -3871.6338            0    8069.1468    17.005865    20.030663    20.747116    7067.2714     7286.003    7913.3629    9008.0744   -569.43953   -130.89718    263.11908   -2588.0674 
13188000    274.34471   -3841.1749   -3370.9575   -3841.1749            0    8245.1134     17.03035    20.059503    20.776987    7097.8416     8203.717    8202.3216    8329.3015   -274.72407   -436.94021    541.01549   -2517.4667 
13189000    257.98038   -3883.6114   -3441.4418   -3883.6114            0    6756.0332    17.103152    20.145254    20.865806    7189.2583    6371.1365    6256.1952    7640.7677   -367.66844    766.57787    321.56973   -2733.0855 
13190000     273.7703    -3837.863     -3368.63    -3837.863            0    7577.6029    17.020848    20.048311    20.765395    7085.9678    8049.6984    9599.0447    5084.0657   -540.89946    1321.9744    1605.2831   -2585.5486 
13191000    278.14563   -3895.4821     -3418.75   -3895.4821            0    7841.9335    17.095475    20.136211    20.856439    7179.5809    8136.9327    7256.3027    8132.5651   -745.30585   -842.98589   -616.57258   -2597.6461 
13192000    262.58799   -3856.3121   -3406.2453   -3856.3121            0    9165.0192    17.082407     20.12082    20.840497    7163.1298    10157.219    7843.6946    9494.1439    1839.1395   -651.33731   -791.35294   -2448.8041 
13193000    263.98245   -3868.6754   -3416.2185   -3868.6754            0    9704.2335    17.048304     20.08065    20.798891    7120.3138    9068.3731    9766.6146    10277.713    953.02118   -157.91163    776.19586   -2408.5069 
13194000    266.59187   -3852.7097   -3395.7804   -3852.7097            0    8942.1283    16.980252    20.000494    20.715867    7035.3865     8041.581    8018.0086    10766.795    1740.4489   -148.68308     636.6692   -2478.2832 
13195000    261.68536   -3889.5063   -3440.9865   -3889.5063            0    7493.1086    17.034155    20.063984    20.781629    7102.6001    7427.9513      8122.47    6928.9045    245.03123    313.38684   -1440.9606   -2664.8193 
13196000    248.30356   -3841.9051   -3416.3213   -3841.9051            0    9823.8475    17.077618    20.115178    20.834654    7157.1061    10888.852    9557.7333    9024.9577    581.70647   -36.999847   -691.51885   -2390.9174 
13197000    255.16524    -3854.452   -3417.1075    -3854.452            0    8626.4396    17.050554      20.0833    20.801636    7123.1332    10360.134       7579.5    7939.6846   -1456.6745    637.05066    -407.7519    -2520.962 
13198000    272.23611   -3895.2524    -3428.649   -3895.2524            0    5627.3479    17.123907      20.1697    20.891126     7215.462    5478.9703    5679.0103    5724.0631   -12.588089    648.59577   -702.47364   -2836.4825 
13199000    276.47412   -3875.4777   -3401.6105   -3875.4777            0    8418.5928    17.061272    20.095924    20.814712    7136.5741    6108.9886    9930.3024    9216.4875   -202.45945    620.41197   -978.37173   -2525.4066 
13200000    253.47492   -3837.3042   -3402.8568   -3837.3042            0    7744.3332    17.073738    20.110608    20.829921    7152.2296    7576.7762    9454.7059    6201.5175    671.64138    1055.8646   -560.60513   -2595.0615 
13201000    250.61976   -3846.9209   -3417.3672   -3846.9209            0    7060.1433    17.097085    20.138108    20.858404    7181.6097    5455.8879    6494.0648    9230.4773   -877.02317    -521.7005    594.07172   -2677.9131 
13202000    269.26922   -3893.7575   -3432.2393   -3893.7575            0    6772.8657    17.101223    20.142981    20.863452     7186.825     5356.265    7933.3319    7029.0003   -615.01407    342.40409    -447.4304   -2722.3585 
13203000    262.44701   -3896.0405   -3446.2153   -3896.0405            0    7890.7479    16.954139    19.969736     20.68401    7002.9786    7035.0669    8620.6423    8016.5344     -1533.23   -722.10264   -34.673815   -2640.3232 
13204000    253.85321   -3899.4747    -3464.379   -3899.4747            0    5363.9371    17.091592    20.131638    20.851702    7174.6898    7189.3243    4790.5321    4111.9549   -1484.6378    8.6630916    449.25933   -2903.1208 
13205000    248.04189   -3880.6823    -3455.547   -3880.6823            0     6570.842    17.040511    20.071471    20.789383    7110.5536    4515.8386    8068.6579    7128.0295    -181.7831    233.94408   -5.4163937   -2774.1498 
13206000    258.29767   -3882.8206   -3440.1072   -3882.8206            0    5145.7755    17.061658    20.096379    20.815183    7137.0587    4622.2375    6295.7822    4519.3067    545.36218   -434.44934   -841.21825   -2904.5005 
13207000    259.57404   -3875.6939   -3430.7929   -3875.6939            0    6775.0312    17.103389    20.145533    20.866094    7189.5562    6348.0236    8241.8685    5735.2014    534.66833    449.34789    1926.8901   -2720.4153 
13208000    273.43187   -3834.5378    -3365.885   -3834.5378            0    7356.4593    17.043505    20.074998    20.793037     7114.303    7427.7847    7039.1995    7602.3936   -319.78744     1004.211    -135.1797   -2602.6169 
13209000    265.01869   -3864.7626   -3410.5296   -3864.7626            0    8548.6277    17.045548    20.077404    20.795529    7116.8613    8384.9835    7748.5631    9512.3365   -2214.8659    1075.6215   -1319.5173   -2523.2494 
13210000    245.37317   -3794.3854   -3373.8242   -3794.3854            0    7225.8876    17.126384    20.172618    20.894148    7218.5936    7014.9367     8284.961    6377.7652   -1478.0348   -551.79759   -10.255177   -2613.1132 
13211000    258.14603   -3834.8565    -3392.403   -3834.8565            0    9051.6496    17.036596     20.06686    20.784608    7105.6546    9293.3219    9939.4852    7922.1418     663.7675     2026.664   -136.29972   -2454.3925 
13212000    270.06188   -3842.9998    -3380.123   -3842.9998            0    7279.4984    17.071067    20.107462    20.826662    7148.8729    9081.3484    6557.0651    6200.0818   -1113.5569    1549.2108    498.90215   -2621.1699 
13213000    265.18746   -3825.1794   -3370.6572   -3825.1794            0    8518.0437    17.094857    20.135483    20.855685     7178.802    7855.7031    10331.553    7366.8753   -175.80877    1101.8231   -381.31368   -2478.8566 
13214000     256.1413   -3859.2978   -3420.2803   -3859.2978            0    6274.1043    17.185509    20.242259    20.966281     7293.614     5941.725     8829.479    4051.1088   -820.60097   -377.59052   -145.92066   -2752.9046 
13215000    240.33482   -3888.6233   -3476.6976   -3888.6233            0    5279.3477    17.149392    20.199719    20.922219    7247.7267    7670.6916    3848.0152    4319.3363   -942.87808    470.04998   -781.80655   -2918.6671 
13216000    256.60106   -3892.4113   -3452.6058   -3892.4113            0    6449.7571    17.205352    20.265632     20.99049    7318.9082    8278.0478    5401.6137    5669.6099     207.8801    66.742078    194.21756   -2764.1667 
13217000     258.6424   -3888.7344   -3445.4301   -3888.7344            0    7394.4355    17.039742    20.070566    20.788446    7109.5917    7187.5741    6256.4343     8739.298   -1281.9279    1480.4274   -732.32798     -2678.73 
13218000    269.81951   -3876.0216   -3413.5602   -3876.0216            0    8792.9876    17.066284    20.101829    20.820827    7142.8665    9783.7051    7584.6833    9010.5744   -991.98455   -149.33104    891.16743   -2497.5825 
13219000    263.40401   -3858.1247   -3406.6592   -3858.1247            0    6368.1485    17.126806    20.173115    20.894663    7219.1274    6227.6662    5444.4426    7432.3366   -1297.8714     475.7414    693.92874   -2736.1978 
13220000    253.15325    -3881.284    -3447.388    -3881.284            0    6691.5969    17.075532    20.112722     20.83211    7154.4844    9041.8155    5414.5383     5618.437     650.2535   -1992.4956    346.76892   -2749.1813 
13221000    271.23893   -3891.3021   -3426.4079   -3891.3021            0    6778.7304    17.047806    20.080064    20.798284      7119.69    6037.0368     6660.313    7638.8413    801.46566   -958.51917    166.81388   -2722.5494 
13222000    263.84346   -3890.3431   -3438.1245   -3890.3431            0    8398.7053    17.024025    20.052052     20.76927    7089.9358    7704.7588    7188.1803    10303.177    300.76472   -1100.7599   -697.51537    -2569.703 
13223000    263.33586   -3907.7936    -3456.445   -3907.7936            0    5447.5486    17.110964    20.154456    20.875336    7199.1139    3725.0872    4118.0462    8499.5122    1082.0207    931.38528   -595.12182   -2884.4976 
13224000    262.80503    -3858.362   -3407.9232    -3858.362            0    6954.7136     17.13672    20.184793    20.906759    7231.6719    6673.6192    5612.1363    8578.3854    -1904.713     452.9608   -1384.3581   -2674.4338 
13225000    257.09515   -3853.7136   -3413.0613   -3853.7136            0    9988.5283    16.995189    20.018087     20.73409     7053.969    12746.325    7730.1211    9489.1389   -551.96132    1132.8707    516.61449   -2385.4924 
13226000    260.79272   -3870.1437   -3423.1539   -3870.1437            0     5983.174    17.116706    20.161219    20.882341    7206.3635    6759.3942    4113.7243    7076.4035   -1037.7069   -827.27183    827.32861   -2794.3378 
13227000    272.58029   -3782.0946   -3314.9013   -3782.0946            0    6083.0082    17.096623    20.137563     20.85784     7181.027    7951.9123    5981.8966    4315.2158    622.40116   -686.24765   -924.33329   -2677.8405 
13228000    267.59825   -3842.4757   -3383.8215   -3842.4757            0    7941.4668    17.107589     20.15048    20.871219    7194.8547    6353.2141    8921.1069    8550.0794   -315.18316   -5.0777126    255.30971   -2550.5267 
13229000    275.29027   -3861.0377   -3389.1996   -3861.0377            0    6636.5845    17.066981    20.102649    20.821677    7143.7407     7116.374     6342.649    6450.7305    301.73122    704.92203   -1545.2965   -2697.7728 
13230000    267.52364   -3840.9098   -3382.3834   -3840.9098            0    6294.1407    17.098939    20.140291    20.860665    7183.9457     6530.298    7090.4505    5261.6738   -1828.7973   -405.58147     2010.087   -2722.9433 
13231000    269.03289   -3853.8896   -3392.7764   -3853.8896            0    6077.5741    17.094186    20.134693    20.854866    7177.9567    5871.1294    5882.3069    6479.2862    612.87021   -819.97112    798.42472   -2756.5569 
13232000    255.81276   -3858.7673    -3420.313   -3858.7673            0    5250.8187     17.05811    20.092201    20.810855    7132.6077    4663.5427    6596.3286    4492.5849     828.4702    1356.6874    552.86177   -2874.1135 
13233000    256.72885   -3867.9993   -3427.9749   -3867.9993            0    7963.8823    17.046945    20.079049    20.797233    7118.6106     9007.434     8256.058    6628.1549   -314.35947    205.38072   -1399.0349   -2601.1835 
13234000    266.54774   -3849.4041   -3392.5504   -3849.4041            0    7137.7356    17.084598    20.123399    20.843169    7165.8853     6493.697    8635.3641    6284.1456    1473.9829   -256.58714    262.52101   -2646.6065 
13235000    253.93694   -3856.3748   -3421.1356   -3856.3748            0     7603.604    16.961189     19.97804    20.692611    7011.7184    8361.7225    7861.4478    6587.6417   -1722.8207   -1816.0494    785.21839   -2643.6007 
13236000    264.50579   -3849.9971   -3396.6433   -3849.9971            0     7998.612    17.027702    20.056383    20.773756    7094.5308    8347.4733    6310.4106    9337.9519   -294.46237   -403.31544    512.75439   -2569.0552 
13237000    260.04555   -3864.5072    -3418.798   -3864.5072            0    6300.0012    17.120579    20.165781    20.887067    7211.2569    6586.0847    5046.1218    7267.7971    382.12253    2373.1685   -742.39802   -2756.2346 
13238000    273.86228   -3868.4731   -3399.0825   -3868.4731            0    9542.9316    17.002242    20.026396    20.742696     7062.756    9716.8871     7576.483    11335.425   -179.34507    553.87516    226.08205   -2416.1314 
13239000     260.3893   -3859.6234   -3413.3251   -3859.6234            0    9041.5443    16.967631    19.985628     20.70047    7019.7111     8048.077    6593.6507    12482.905   -450.30864   -332.11145   -1698.5829   -2487.6944 
13240000    263.04565   -3848.6731   -3397.8218   -3848.6731            0    9621.9634    16.934679    19.946815    20.660269    6978.8924    10512.652    7924.4446    10428.794    133.94317    541.93086   -899.80335   -2418.4985 
13241000    251.56726    -3863.506   -3432.3284    -3863.506            0    7316.8124      17.0169    20.043661    20.760578    7081.0383    8484.6688    6693.8945    6771.8738    444.07811    1271.5204   -1131.4085   -2676.7235 
13242000      258.698    -3849.771   -3406.3715    -3849.771            0    5710.8674    17.093305    20.133655    20.853792     7176.847    4988.6498    7737.9597    4405.9927   -1044.9501    -911.6448   -346.20407   -2808.6324 
13243000    272.69277   -3854.2669   -3386.8808   -3854.2669            0    6910.7048    17.052856    20.086012    20.804444    7126.0186    6757.1687    7176.2387    6798.7071       1551.6    1270.5015   -1634.7613   -2668.6811 
13244000    260.65714   -3844.3592   -3397.6018   -3844.3592            0    8291.9659    17.059641    20.094004    20.812722     7134.528    9563.3492    8815.2265    6497.3221   -149.69151   -886.25735    847.27566   -2534.8246 
13245000    262.97073   -3851.6826   -3400.9598   -3851.6826            0    7607.5587    17.072379    20.109007    20.828263    7150.5216    7601.4905    6208.5991    9012.5864    2541.4266   -1672.2211   -325.09143   -2607.6206 
13246000    257.35438   -3834.3867   -3393.2901   -3834.3867            0    6503.4183    17.016997    20.043774    20.760696    7081.1588    6603.8898    6407.0219    6499.3431    -1993.562   -1095.2479    -502.4609   -2721.6727 
13247000    242.88445   -3837.9901   -3421.6945   -3837.9901            0    6470.1438    17.032463    20.061991    20.779565    7100.4837    5615.2292    7449.3794    6345.8227    1277.9607   -486.28419   -304.61993   -2751.6899 
13248000     271.6275   -3848.7103   -3383.1501   -3848.7103            0    7729.1788    17.084037    20.122739    20.842486    7165.1804    7050.2563    7240.7856    8896.4944    217.02358   -117.15511   -1213.0736   -2575.4756 
13249000    249.98362     -3875.98   -3447.5166     -3875.98            0    5723.5779    17.090806    20.130712    20.850744    7173.7005    8201.3575    4042.1002    4927.2759    1149.5213   -146.90021    113.76164   -2848.7098 
13250000    271.87841   -3840.5364   -3374.5461   -3840.5364            0     7237.185    17.100643    20.142299    20.862745    7186.0943    8031.2052    7458.1703    6222.1796    634.30872   -736.60091    439.10099    -2616.076 
Loop time of 504.719 on 64 procs for 250000 steps with 864 atoms

Performance: 85.592 ns/day, 0.280 hours/ns, 495.325 timesteps/s
99.1% CPU use with 64 MPI tasks x 1 OpenMP threads

MPI task timing breakdown:
Section |  min time  |  avg time  |  max time  |%varavg| %total
---------------------------------------------------------------
Pair    | 21.479     | 26.468     | 31.775     |  47.9 |  5.24
Bond    | 0.27366    | 0.2801     | 0.29538    |   0.8 |  0.06
Kspace  | 210.63     | 225.2      | 247.74     |  54.1 | 44.62
Neigh   | 5.2563     | 6.3073     | 9.0691     |  37.7 |  1.25
Comm    | 99.344     | 124.59     | 139.11     |  79.8 | 24.68
Output  | 1.0915     | 1.0926     | 1.0993     |   0.1 |  0.22
Modify  | 112.82     | 116.41     | 120.4      |  18.7 | 23.06
Other   |            | 4.371      |            |       |  0.87

Nlocal:        13.5000 ave          19 max           6 min
Histogram: 1 0 1 9 8 8 25 7 3 2
Nghost:        2210.25 ave        2237 max        2176 min
Histogram: 4 3 3 5 5 15 9 10 7 3
Neighs:        4293.23 ave        6418 max        1800 min
Histogram: 1 0 4 6 14 18 11 5 1 4

Total # of neighbors = 274767
Ave neighs/atom = 318.01736
Ave special neighs/atom = 2.0000000
Neighbor list builds = 14208
Dangerous builds = 0

unfix		3
unfix		2
unfix		1

write_data	data.final.${pid}
write_data	data.final.0
System init for write_data ...
PPPM initialization ...
  extracting TIP4P info from pair style
  using 12-bit tables for long-range coulomb (../kspace.cpp:340)
  G vector (1/distance) = 0.37365243
  grid = 24 24 24
  stencil order = 5
  estimated absolute RMS force accuracy = 0.0032312087
  estimated relative force accuracy = 9.7306889e-06
  using double precision FFTW3
  3d grid and FFT values/proc = 2535 216
Last active /omp style is kspace_style pppm/tip4p/omp
WARNING: Not all mixed pair coeffs generated from mixing. Use write_data with 'pair ij' option to store all pair coeffs. (../write_data.cpp:312)

write_restart   restart.lmp.${pid}
write_restart   restart.lmp.0
System init for write_restart ...
PPPM initialization ...
  extracting TIP4P info from pair style
  using 12-bit tables for long-range coulomb (../kspace.cpp:340)
  G vector (1/distance) = 0.37365243
  grid = 24 24 24
  stencil order = 5
  estimated absolute RMS force accuracy = 0.0032312087
  estimated relative force accuracy = 9.7306889e-06
  using double precision FFTW3
  3d grid and FFT values/proc = 2535 216
Last active /omp style is kspace_style pppm/tip4p/omp
Total wall time: 0:08:27
