LAMMPS (30 Jul 2021)
Processor partition = 0
  using 2 OpenMP thread(s) per MPI task
using multi-threaded neighbor list subroutines
variable        pid world 0 1
variable        phase world IceVI IceV

shell cd ${phase}
shell cd IceVI
include Restart.lmp
echo both
log log.lammps
#include		in.partitions
include		in.temp
variable        temperature equal 250.77
variable	tempDamp equal 100.0
include		in.pressure
variable        pressure equal 8350.6
variable        pressureDamp equal 1000.0 # This is 1 ps
include		in.seed
variable        seed equal 745823

units		real
atom_style	full
read_restart	restart.lmp.${pid}
read_restart	restart.lmp.0
Reading restart file ...
  restart file = 30 Jul 2021, LAMMPS = 30 Jul 2021
  restoring atom style full from restart
  orthogonal box = (-0.086304415 -0.10524471 -0.092196403) to (24.816305 24.835246 22.902196)
  4 by 4 by 2 MPI processor grid
  restoring pair style lj/cut/tip4p/long/omp from restart
  restoring bond style harmonic/omp from restart
  restoring angle style harmonic/omp from restart
  1920 atoms
  1280 bonds
  640 angles
Finding 1-2 1-3 1-4 neighbors ...
  special bond factors lj:    0        0        0       
  special bond factors coul:  0        0        0       
     2 = max # of 1-2 neighbors
     1 = max # of 1-3 neighbors
     1 = max # of 1-4 neighbors
     2 = max # of special neighbors
  special bonds CPU = 0.002 seconds
  read_restart CPU = 0.009 seconds
include 	in.setup
variable	out_freq equal 1000
variable	out_freq2 equal 10000
variable	out_freq3 equal 1000

timestep	2.0

neigh_modify    delay 7 every 1

include		in.tip4p
# This is TIP4P/Ice

# create groups ###
group ox type 2
640 atoms in group ox
group hy type 1
1280 atoms in group hy

# set charges - beside manually ###
set group ox charge -1.1794
Setting atom values ...
  640 settings made for charge
set group hy charge 0.5897
Setting atom values ...
  1280 settings made for charge

# ### TIP3P Potential Parameters ###
pair_style lj/cut/tip4p/long/omp 2 1 1 1 0.1577 8.5
pair_coeff 1 1*2 0.000 0.000
pair_coeff 2 2 0.21084 3.1668
bond_style  harmonic
bond_coeff  1 450 0.9572
angle_style harmonic
angle_coeff 1 55 104.52
kspace_style pppm/tip4p/omp 1.0e-5
pair_modify tail yes

thermo          ${out_freq}
thermo          1000
thermo_style    custom step temp pe etotal epair emol press lx ly lz vol pxx pyy pzz pxy pxz pyz enthalpy

restart 	${out_freq3} restart.lmp.${pid} restart2.lmp.${pid}
restart 	1000 restart.lmp.${pid} restart2.lmp.${pid}
restart 	1000 restart.lmp.0 restart2.lmp.${pid}
restart 	1000 restart.lmp.0 restart2.lmp.0


include         in.dump
dump            myDump all atom ${out_freq2} dump.water.${pid}
dump            myDump all atom 10000 dump.water.${pid}
dump            myDump all atom 10000 dump.water.0
dump            myDump2 all dcd ${out_freq2} dump.dcd
dump            myDump2 all dcd 10000 dump.dcd
dump_modify     myDump append yes
dump_modify     myDump2 append yes


variable natoms 	equal  "count(all)"                        # NUMBER ATOMS
variable H      	equal  "enthalpy/v_natoms"                 # ENTHALPY-per-atom
variable Vol      	equal  "vol/v_natoms"                 # volume-per-atom
fix AVG all 		ave/time ${out_freq} 1 ${out_freq} v_Vol v_H file vol_enthalpy.dat
fix AVG all 		ave/time 1000 1 ${out_freq} v_Vol v_H file vol_enthalpy.dat
fix AVG all 		ave/time 1000 1 1000 v_Vol v_H file vol_enthalpy.dat




fix 		1 all shake 1e-6 200 0 b 1 a 1
Finding SHAKE clusters ...
       0 = # of size 2 clusters
       0 = # of size 3 clusters
       0 = # of size 4 clusters
     640 = # of frozen angles
  find clusters CPU = 0.001 seconds
fix             2 all nph aniso ${pressure} ${pressure} ${pressureDamp}
fix             2 all nph aniso 8350.6 ${pressure} ${pressureDamp}
fix             2 all nph aniso 8350.6 8350.6 ${pressureDamp}
fix             2 all nph aniso 8350.6 8350.6 1000
fix             3 all temp/csvr ${temperature} ${temperature} ${tempDamp} ${seed}
fix             3 all temp/csvr 250.77 ${temperature} ${tempDamp} ${seed}
fix             3 all temp/csvr 250.77 250.77 ${tempDamp} ${seed}
fix             3 all temp/csvr 250.77 250.77 100 ${seed}
fix             3 all temp/csvr 250.77 250.77 100 745823


run             250000
PPPM initialization ...
  extracting TIP4P info from pair style
  using 12-bit tables for long-range coulomb (../kspace.cpp:340)
  G vector (1/distance) = 0.3744763
  grid = 30 30 30
  stencil order = 5
  estimated absolute RMS force accuracy = 0.0032681735
  estimated relative force accuracy = 9.8420074e-06
  using double precision FFTW3
  3d grid and FFT values/proc = 5400 960
Last active /omp style is kspace_style pppm/tip4p/omp
Neighbor list info ...
  update every 1 steps, delay 7 steps, check yes
  max neighbors/atom: 2000, page size: 100000
  master list distance cutoff = 10.8154
  ghost atom cutoff = 10.8154
  binsize = 5.4077, bins = 5 5 5
  1 neighbor lists, perpetual/occasional/extra = 1 0 0
  (1) pair lj/cut/tip4p/long/omp, perpetual
      attributes: half, newton on, omp
      pair build: half/bin/newton/omp
      stencil: half/bin/3d
      bin: standard
Setting up Verlet run ...
  Unit style    : real
  Current step  : 2750000
  Time step     : 2
Per MPI rank memory allocation (min/avg/max) = 10.54 | 10.55 | 10.55 Mbytes
Step Temp PotEng TotEng E_pair E_mol Press Lx Ly Lz Volume Pxx Pyy Pzz Pxy Pxz Pyz Enthalpy 
 2750000    262.89788   -9162.4053   -8160.1186   -9162.4053            0    8988.3916     24.90261     24.94049    22.994393    14281.433    8549.0785    9495.2853    8920.8109   -796.84273   -379.71816    36.921297   -6288.0159 
 2751000      252.207   -9170.3075   -8208.7794   -9170.3075            0    7950.3002    25.031609    24.957335     22.92766     14323.42    7908.8009    8055.7022    7886.3973    262.76234   -380.82417   -908.13968   -6548.0223 
 2752000    247.81385   -9135.3029   -8190.5235   -9135.3029            0    7760.0434    24.946228    24.966261    23.088505    14379.845    7991.9227    8222.9668    7065.2407   -44.950024   -1113.5235   -98.971383   -6563.1238 
 2753000    252.90234   -9145.5571    -8181.378   -9145.5571            0    7936.3103    24.976029    25.072579    22.871776    14322.613    8630.7277    7074.4677    8103.7356    1108.8768     38.60138    245.81358   -6523.6365 
 2754000    254.29871   -9203.3608   -8233.8582   -9203.3608            0    7403.8386    24.972091    25.030475    22.952914    14347.024    6775.5446    7005.7978    8430.1733    710.84695   -457.79653   -268.51842   -6684.7039 
 2755000    247.92824   -9127.8617   -8182.6461   -9127.8617            0    6806.6958    24.999823    24.933643    23.127932    14416.487    7421.7433     6189.491    6808.8531   -728.42436   -121.72529   -888.26007   -6751.5405 
 2756000    253.25117   -9118.9702   -8153.4612   -9118.9702            0    7974.4106    24.953814    24.993784     23.02758    14362.077    7478.3631    8338.0681    8106.8006    466.57197   -1012.7568    437.52934   -6483.1718 
 2757000    249.68887   -9162.3325   -8210.4047   -9162.3325            0    6881.1935    24.859364    25.081289    23.079697    14390.304    6487.4123    6524.8221    7631.3462   -1025.8973    688.41208    837.10526   -6766.2636 
 2758000    244.57513   -9147.3086   -8214.8766   -9147.3086            0    6908.2576    24.921557    25.015558    23.078268    14387.608    7442.7461    6345.5336    6936.4931    154.08146    280.11586    340.05522   -6765.3273 
 2759000    261.05229   -9139.2209   -8143.9706   -9139.2209            0    7733.6574    24.884185    25.102263    22.986737     14358.65    8501.7593    6704.3133    7994.8995   -965.52859    468.30897   -72.556361   -6524.4949 
 2760000    248.57709   -9116.2597   -8168.5705   -9116.2597            0    10258.645     24.85392    25.062932    22.892618    14260.089     10101.19    9073.2047     11601.54   -355.09956    449.58954    457.02765   -6035.0928 
 2761000    252.61329   -9166.4554   -8203.3783   -9166.4554            0    7824.9519    24.842072    25.045664    23.028714    14328.147    8045.9236     7309.678    8119.2539   -70.078108   -854.98782    789.59126   -6568.2659 
 2762000    255.42046   -9123.0381   -8149.2588   -9123.0381            0    6017.2498    24.864483     25.20196    23.049208    14443.411    7270.6903    4579.5645    6201.4947   -761.82842    233.01426   -401.87681   -6881.7713 
 2763000    246.80273   -9106.2259   -8165.3013   -9106.2259            0    8099.6512    24.803779    25.103514    23.049184    14351.852    9910.1292     6287.481    8101.3435   -344.62338    254.05369    978.81652   -6469.9873 
 2764000    242.83006   -9165.5361   -8239.7572   -9165.5361            0    8139.7344    24.839375    25.136346    22.939269    14322.617     9559.298    6804.5903    8055.3149    715.96209   -2076.9753    644.59082   -6539.5239 
 2765000    248.11089     -9139.16   -8193.2481     -9139.16            0    8983.7062     24.86479    24.994497    23.000964    14294.706     9136.999    9430.6962    8383.4233   -470.17258    413.12261    240.82059   -6320.3823 
 2766000    260.65963   -9172.5442   -8178.7908   -9172.5442            0    8963.4428    24.867204    24.865717    23.110803    14290.354    8935.1528    9373.6701    8581.5054    28.141663   -880.37834   -297.15928   -6310.7183 
 2767000    258.02633   -9169.9548   -8186.2408   -9169.9548            0    8731.0539    24.973309    24.951206    22.976194    14316.791    8143.9424    8098.9841    9950.2353   -542.81015     418.4491   -130.90235   -6363.2341 
 2768000    244.82224   -9151.9472   -8218.5732   -9151.9472            0    8149.0415    25.078297    24.794316    23.076567    14348.991    7206.5679    8518.9027    8721.6539  -0.48848938    377.80732   -355.97906   -6513.2614 
 2769000     246.8889   -9148.0237   -8206.7706   -9148.0237            0    8434.8546    25.059424    24.894697    22.943161    14313.017    7300.4737    9129.0509    8875.0391   -185.39961    104.51633    72.569071   -6446.0734 
 2770000    250.90922    -9169.237   -8212.6566    -9169.237            0    8646.2342    25.034615     24.80218    23.030196    14299.749    7144.3227    10718.171    8076.2093    -499.0299    289.62009    1295.8699    -6409.509 
 2771000    255.39782   -9173.6119   -8199.9189   -9173.6119            0     8595.056    25.005251    24.847539    22.975106    14274.869    7845.2321    9699.2461    8240.6896    154.37894    1074.2967    217.35073   -6410.5631 
 2772000    252.78961   -9122.4593     -8158.71   -9122.4593            0    8650.3115    25.027726    24.897895    22.955196    14304.247    6962.3331    10068.651    8919.9506   -47.560355    74.042928   -490.93292   -6354.1445 
 2773000    243.05498    -9162.004   -8235.3676    -9162.004            0    9233.4833    24.952236    24.856703    23.008279    14270.432     9533.774    9772.2398     8394.436   -644.46761   -478.30643    1308.2758   -6313.6986 
 2774000    259.07851   -9111.6998   -8123.9744   -9111.6998            0    8296.0279    24.900872    24.873225    23.150334    14338.506    8282.5635    9526.5549    7078.9652   -171.00685   -1259.5071    452.32975    -6389.172 
 2775000     253.4125   -9160.3438   -8194.2198   -9160.3438            0    6691.9119    25.200908    25.050712    22.815437    14403.401    5182.3565    6738.8773    8154.5019   -442.25125   -151.59489    -1302.678   -6788.5246 
 2776000    250.88783   -9115.9389   -8159.4401   -9115.9389            0    8349.4288    24.969506    24.953387    22.992051    14325.744    8321.0567    9038.6736    7688.5562    328.76284    -409.6905   -506.04511    -6415.025 
 2777000    242.77092   -9105.7264   -8180.1729   -9105.7264            0     7238.955    24.988332    24.886236    23.170175    14408.733    7174.7559    7934.6683    6607.4408   -845.00166    1384.6235    3.4329407   -6659.0035 
 2778000    253.90027   -9171.4804   -8203.4967   -9171.4804            0    8218.6586     25.01284    24.909944    23.011773     14337.91    7075.0961    8227.9475    9352.9323    561.15225   -81.977785    488.97343   -6484.9448 
 2779000    241.34162   -9130.2974   -8210.1931   -9130.2974            0    7587.5044    25.176605    24.994401    22.810087    14353.798    5886.9557    8179.8748    8695.6827   -117.19612    109.49557    537.78233   -6621.8596 
 2780000    251.61409   -9121.5536   -8162.2859   -9121.5536            0    7775.2401     25.00687    24.923471     23.05603    14369.855    7439.2685    8534.1328    7352.3191   -258.45366    693.84949    390.67113    -6532.832 
 2781000    251.35019   -9108.6043   -8150.3428   -9108.6043            0    6846.0432    25.019164    24.867916    23.171758    14416.876    7558.7478    7810.4727     5168.909   -202.75072    1.4561249   -658.92232   -6710.9255 
 2782000    253.63509   -9129.8814   -8162.9088   -9129.8814            0    7691.0082    25.020113     24.92761     23.03232    14365.065    7634.6596    7198.8423    8239.5225    451.43361   -558.80803   -1207.4942   -6551.6446 
 2783000     251.2999   -9137.0852   -8179.0154   -9137.0852            0    7589.3416    25.036969    25.093091    22.890184    14380.872    6803.8057    6874.3478    9089.8715    -195.7266    -1496.922    312.85783   -6587.3008 
 2784000    247.72442   -9185.7657   -8241.3272   -9185.7657            0    7384.2132    24.953022    24.992406    23.018694    14355.288    7849.7205     7220.339    7082.5802    -932.6829   -395.76451   -755.03058   -6695.3894 
 2785000    249.86672    -9211.162   -8258.5561    -9211.162            0    7664.7138    24.895929      24.9062    23.112245    14331.048    6935.1436    9168.9305    6890.0673   -825.21093   -882.86746   -2.6397909   -6656.6031 
 2786000    255.19733   -9181.8446    -8208.916   -9181.8446            0     7052.792    24.943929    25.016719    23.025662    14368.364    8089.4601    7431.3653    5637.5507    313.30612   -302.62801   -602.91654   -6731.0185 
 2787000    248.33355   -9141.4762   -8194.7154   -9141.4762            0    8964.0739    24.942423    25.004469    22.950049    14313.304    8151.5808    9017.8011    9722.8399   -808.06435   -587.92285   -2.2250213   -6323.5112 
 2788000     253.4528   -9144.3386    -8178.061   -9144.3386            0    7945.8148    24.857562    24.965911    23.118277    14347.011    9483.8061    7724.0045    6629.6338    44.572017    -1330.731   -447.20241    -6515.507 
 2789000    244.80943   -9159.7373   -8226.4121   -9159.7373            0    8354.9419     24.96691    25.088745    22.895484    14341.466    8256.1533    7242.7801    9565.8923   -306.68955   -1016.1772   -1617.8636   -6478.9295 
 2790000    245.14289   -9134.5979   -8200.0015   -9134.5979            0    9193.8197    24.987229    24.858649    22.983926    14276.437    7918.6624    10057.099    9605.6977   -677.70519   -40.634058   -258.61354   -6285.7821 
 2791000    249.44181   -9182.9263   -8231.9404   -9182.9263            0    9859.4868    24.936279    24.772855    23.034037    14229.111    10370.696     10342.54    8865.2241    172.89585   -107.51352   -10.896098   -6185.9294 
 2792000    255.19743   -9176.4692   -8203.5402   -9176.4692            0    7769.1409    25.039883    24.948296    22.903745    14308.024    7284.9293    8497.2513     7525.242   -478.68846   -140.33283    1030.2697   -6582.3702 
 2793000    254.55484   -9141.9306   -8171.4515   -9141.9306            0    8631.2433    24.888126    24.801183    23.204705     14323.22    8796.1557    10354.335    6743.2388    560.05281    751.22477    411.19532   -6368.4757 
 2794000    248.02425   -9140.4201   -8194.8386   -9140.4201            0    9308.2456      24.9339    24.822171    23.066971     14276.46    8091.4885    10917.462    8915.7866    649.38532   -588.08789   -855.33024   -6256.7918 
 2795000    239.77044   -9162.4945   -8248.3802   -9162.4945            0    8317.1484    25.096396     24.82688    22.921188    14281.395    7204.8085    9402.4923    8344.1445    1013.0671    -245.0143    65.109292   -6516.0888 
 2796000    260.82348   -9137.5063   -8143.1283   -9137.5063            0    8431.1292    25.017769    24.921412    22.978684    14326.707    7893.5594    9241.5652    8158.2631   -39.764342   -897.09098    669.24919   -6381.5254 
 2797000    246.80849   -9142.4658   -8201.5193   -9142.4658            0    9570.4583    25.054948    24.866155    22.834112    14226.114    7199.4451    10053.739     11458.19    79.345951   -646.83265   -49.295645    -6215.905 
 2798000    246.33839   -9149.5869   -8210.4327   -9149.5869            0    8319.9664    25.030042    24.885196    22.969154    14306.969    7401.8878     8020.262    9537.7495    158.30269   -718.05057    1278.6657   -6474.4511 
 2799000     247.4256   -9118.9556   -8175.6564   -9118.9556            0    7258.3962    24.988223    24.893732    23.125034     14384.93    6450.5622    7815.5315    7509.0948    194.38909   -867.29431    1013.4087   -6652.9215 
 2800000    253.81041   -9122.8968   -8155.2558   -9122.8968            0    8633.0934    24.992344    24.854876    23.067245    14328.948    9115.9563    9383.0411    7400.2826     685.7478   -289.76705    964.80053   -6351.1723 
 2801000    245.95048   -9125.2883   -8187.6129   -9125.2883            0    7429.7344    25.046724    25.029408    22.929353    14374.518    7124.5505    7356.5691    7808.0835    201.35313    297.35348    816.93122   -6630.0612 
 2802000    250.31792   -9140.5146   -8186.1886   -9140.5146            0    8543.0222    25.003285    24.845441    22.991478    14282.712    8004.6851    8768.1145     8856.267    152.96427   -1320.9835     244.8951   -6406.6881 
 2803000    245.39814   -9124.4401   -8188.8705   -9124.4401            0    9346.1439    24.879593    24.859779    23.111716    14294.623    9727.6761    9655.9681    8654.7877    226.43759    717.90243    717.61109   -6240.4572 
 2804000    253.66283    -9140.898   -8173.8196    -9140.898            0    8113.6246    25.056679    24.981631    22.925261    14350.221    7222.2514    8193.2327    8925.3897    361.64388   -478.99413    596.85059   -6475.7738 
 2805000    251.09113   -9111.4332   -8154.1593   -9111.4332            0    9098.6718    25.036571    24.943986    22.886885    14293.131    8769.6245    9558.0099    8968.3811   -522.41848    63.892274    622.51554   -6257.5353 
 2806000    253.79806   -9129.9005   -8162.3066   -9129.9005            0     8447.345    24.945049    24.896762    23.078871    14333.155    8084.0601    9128.1787    8129.7961    -135.0913    135.16566    179.71304   -6396.5213 
 2807000    249.41453   -9149.8947   -8199.0128   -9149.8947            0    8120.3493    25.078122    24.898564    22.995004    14358.293    6385.6014    9814.9586    8160.4879    513.79815   -1097.1206   -600.20995   -6498.6037 
 2808000    245.65605   -9140.4612   -8203.9082   -9140.4612            0    8104.3235    25.005518    24.939597     22.97636    14328.691    7478.5585    8961.1169     7873.295    168.42285   -455.82196    1260.0822   -6510.3538 
 2809000    252.85383   -9138.9522    -8174.958   -9138.9522            0    9209.0386    25.008084    24.902545    22.918923    14273.102    7822.1558    8869.2238    10935.736   -1314.5294   -242.50896    -664.7707    -6258.018 
 2810000    249.24912   -9182.5136   -8232.2623   -9182.5136            0    9514.1723    25.035299    24.818532    22.886691    14220.402    8768.4232    11131.597    8642.4968   -482.02702   -362.93432    214.74415   -6259.1183 
 2811000    247.78559   -9155.8137    -8211.142   -9155.8137            0    8203.3641    24.938203    24.932252    23.019354    14312.642     8061.868     8137.681    8410.5432   -676.27976    400.95485    -700.2569   -6498.8112 
 2812000     254.8587   -9152.4488   -8180.8112   -9152.4488            0    9346.6295      24.9638    24.872445    23.013707    14289.458     8685.442    10328.968    9025.4784    -377.7701   -69.462498    850.13129   -6233.0007 
 2813000    248.71863    -9081.029   -8132.8002    -9081.029            0    9432.9957    25.006607    24.932631    22.910899    14284.499    8496.8967    9252.9365    10549.154    459.17738     190.6628    460.26678   -6167.6735 
 2814000    259.45227   -9157.4603     -8168.31   -9157.4603            0    10593.711    24.902531    24.883702    22.900214    14190.511    10655.777    10643.227    10482.131     137.1001   -764.67135   -623.66021   -5975.8986 
 2815000    240.49412   -9155.1119   -8238.2386   -9155.1119            0    9009.3541    24.868801    25.012074    22.972029    14289.068    10771.926    7548.4786    8707.6578    230.30814    609.12398    576.88317   -6360.7668 
 2816000    255.45127   -9103.6722   -8129.7755   -9103.6722            0    7138.6793    24.910378    25.032938    23.111998    14412.179    7693.9006    6927.2059    6794.9315     -126.423    511.92507    79.681225    -6629.319 
 2817000    241.83209   -9154.4917   -8232.5175   -9154.4917            0    7559.0967    24.890412     25.09378    22.989258    14358.965    8940.0775    6599.5464    7137.6661    -328.7513   -582.41205   -1327.6596   -6649.5612 
 2818000    243.59562   -9151.6082   -8222.9106   -9151.6082            0    8533.6635    24.910484    24.935127    23.053106    14319.346    9247.3207    8599.1484    7754.5213   -180.57621   -420.80812   -1270.4871   -6440.8002 
 2819000    243.90616    -9162.339   -8232.4575    -9162.339            0    9055.6547    24.769532    24.948333    23.126654    14291.313    10280.773    9401.2069    7484.9844    -310.6507    353.38293    407.10574   -6345.0405 
 2820000    245.92435   -9155.0522   -8217.4764   -9155.0522            0    8300.1466    24.945925    25.060106    22.912585    14323.745    7715.9443    8129.6311    9054.8644   -124.00477   -217.92115    524.40285   -6483.5996 
 2821000    254.63471   -9156.1962   -8185.4126   -9156.1962            0    6406.4992    24.973864    25.160843    22.922157    14403.447    7480.8824    4527.6317    7210.9833   -393.04601    1035.5281    83.792449   -6839.6666 
 2822000    244.07744    -9085.018   -8154.4835    -9085.018            0    9305.6227     24.90244    24.986587     22.99508    14308.159    8729.8554    9985.6011    9201.4115   -569.96776    767.78543   -650.89159   -6212.6808 
 2823000     245.3712   -9195.1565   -8259.6896   -9195.1565            0    8624.7705    24.783493    24.905162    23.109864    14264.261    9946.2215    8048.1724    7879.9175   -698.16536    151.60021    317.51816   -6465.4819 
 2824000     253.9541   -9146.4242   -8178.2354   -9146.4242            0    8992.2212    25.038019    25.040366    22.739363    14256.697    7873.1876    8525.3803    10578.096   -265.59469   -1295.0931   -169.38545    -6308.579 
 2825000    257.68948   -9133.8859   -8151.4561   -9133.8859            0    9174.6752    24.914133    24.970595    22.992331    14304.006    8198.2909         9729    9596.7345    72.996288   -481.26201    -532.0657    -6237.534 
 2826000    258.82346   -9177.1851    -8190.432   -9177.1851            0    8685.9594    24.941101    24.877283    23.033539    14291.547     9344.215    8338.2496    8375.4136   -260.56451   -113.94352   -1178.8336   -6380.0387 
 2827000    237.60092   -9146.5109   -8240.6679   -9146.5109            0    9363.2059    25.006338    24.856004     22.96104     14271.61     8855.385    10360.694    8873.5386   -173.11968     1418.229   -671.23447   -6291.8403 
 2828000    251.05981    -9103.965   -8146.8105    -9103.965            0    9720.3755    24.964924    24.680993    23.152937    14265.893    9471.0528    9823.8963    9866.1773    422.40266    1430.1843    463.65227   -6124.4532 
 2829000    252.63551   -9164.3326   -8201.1708   -9164.3326            0    9539.6389     24.93257    24.905903    22.944078    14247.543    10169.986    9095.9044    9353.0258   -337.98328   -842.81539    246.74664   -6218.9693 
 2830000    246.34058    -9130.868   -8191.7054    -9130.868            0    8270.7871    24.936393    25.022745    22.939307    14313.601    8498.3312    8199.5018    8114.5284   -879.32941   -916.22282   -21.622981   -6465.1853 
 2831000    257.94768   -9141.5273   -8158.1131   -9141.5273            0    9034.4618    24.900752    24.922889    23.030049    14292.418    9033.2106      9510.63    8559.5447    709.22632   -614.32364   -678.08848   -6274.9675 
 2832000    248.17066   -9142.7479   -8196.6082   -9142.7479            0    8312.1408    24.893309    24.936583    23.036259    14299.851    9104.1282    7642.4248    8189.8695    323.19485   -736.78915   -293.49994   -6463.1223 
 2833000    241.19049   -9165.5378   -8246.0097   -9165.5378            0    8061.7903    24.932906    25.059234    22.891989    14302.904    7714.5707    7968.8126    8501.9876    474.65233   -326.52598   -1185.7381   -6564.3752 
 2834000      257.379   -9133.6071    -8152.361   -9133.6071            0    7847.0135    24.927166    25.067143    22.991285    14366.169    7515.3004    7675.5923    8350.1477   -710.41451   -858.17419    573.80717   -6508.2873 
 2835000    244.34766   -9134.3577    -8202.793   -9134.3577            0    9312.8004    24.833793     25.02976    22.973215     14279.78    9483.1837    8865.1754    9590.0421   -983.60268    -382.3524   -431.26899   -6263.3469 
 2836000    250.61176    -9151.637   -8196.1906    -9151.637            0    7816.2903     24.95566    24.922809    23.058304    14341.462    8997.2199    7373.1966    7078.4545   -780.92022   -388.30914    1080.8835   -6561.3704 
 2837000    253.75348    -9162.986    -8195.562    -9162.986            0    8648.1993    25.044407    25.030463    22.840049    14317.812    8443.7372    7945.8721    9554.9885   -660.94173   -380.34092   -588.03337   -6389.7263 
 2838000    262.91307   -9147.1396   -8144.7951   -9147.1396            0    8874.6833    24.964678    24.936212    23.002376    14319.542    9831.2833    8047.9937    8744.7727    569.77678    708.63264    148.27771   -6291.4431 
 2839000    241.48125    -9163.016   -8242.3794    -9163.016            0     9918.961      24.8607    24.877874    22.966318    14204.239    10866.513    9731.2318    9159.1384   -488.08618   -217.19977    142.18329   -6187.6243 
 2840000    255.85362    -9149.299   -8173.8683    -9149.299            0    8609.3021    24.915171    24.968463    22.982541     14297.29    8390.8665    8899.1815    8537.8583     94.54392   -374.08369   -128.90904   -6378.7315 
 2841000    244.52482   -9155.5749   -8223.3348   -9155.5749            0    8589.0523    24.937508    25.019896    22.929548    14306.521    8684.2803    7715.5461    9367.3306   -762.28309    841.33008    754.07873   -6431.2639 
 2842000    256.75443   -9166.5014   -8187.6365   -9166.5014            0     7649.515     24.92095    25.042139    22.964505    14331.548    7703.7342    7150.0936    8094.7172   -103.01655   -837.30064    250.17185   -6588.8043 
 2843000    251.06762   -9130.5137   -8173.3294   -9130.5137            0     8425.765    24.895082    24.925316    23.093319    14329.815    7750.9515    10058.554    7467.7896   -536.59647   -102.99464    391.28133   -6412.4654 
 2844000    242.08644    -9115.688   -8192.7441    -9115.688            0    9560.2977    24.955331    24.970357    22.905358    14273.326    10118.728    8641.4067    9920.7585    307.13311    921.19989    1172.4973   -6202.6552 
 2845000      237.222   -9159.7928   -8255.3943   -9159.7928            0    9691.0301    24.923763    24.895555    22.941373    14234.913    8610.8782    10536.824    9925.3882   -139.50145    723.46168    194.75938   -6243.5209 
 2846000    257.31083   -9162.6105   -8181.6242   -9162.6105            0    9121.9709    24.886235    24.858782    23.048165    14258.551    9716.9239    9443.6093    8205.3795   -616.41196   -244.09212   -100.05508   -6284.7438 
 2847000    251.93402   -9131.4503   -8170.9629   -9131.4503            0    8733.5156    24.915682    24.962989    23.021962    14318.968    9538.0291    8165.6084    8496.9092    955.81358    -386.1296    24.519109   -6347.1651 
 2848000     246.0612   -9189.3064   -8251.2089   -9189.3064            0    8237.8438    24.991142    24.931836    22.966223    14309.681    8393.8736    8377.1707    7942.4872    397.01339   -1173.8733    53.284961   -6532.0367 
 2849000    248.09562   -9131.3701   -8185.5165   -9131.3701            0    7734.2289    25.069315    24.927646     23.00767    14377.931    6984.8873    8329.5564    7888.2429   -1065.1179   -308.04533   -535.62546   -6563.7464 
 2850000     245.0118   -9167.3471   -8233.2504   -9167.3471            0    8187.4229    25.020872    24.868683    22.972525    14294.335    7180.6493    9123.9161    8257.7034    84.876405     97.22368    22.519712   -6526.4329 
 2851000    258.50439   -9190.8906   -8205.3539   -9190.8906            0    8923.4353     24.99073    24.861513     22.97362     14273.68         9065    9958.7915    7746.5144    240.56208     749.6761    678.56534   -6347.7894 
 2852000    255.80121   -9133.2684   -8158.0375   -9133.2684            0    8396.1919    25.111651    24.835046    22.981884    14332.629    7377.6317    9902.3107    7908.6332    152.73667    490.05832    32.505522   -6403.0093 
 2853000    247.66601   -9127.7105   -8183.4947   -9127.7105            0    8505.6641    25.048354    24.900718    22.946748    14312.392    7996.2561    9556.9622     7963.774   -105.80192     487.3739    28.436286   -6408.0942 
 2854000    255.87321   -9173.9372   -8198.4318   -9173.9372            0    8189.3807    25.045864    24.845837    23.038984    14336.825    7584.8458    8955.6346    8027.6617    170.46116   -588.22394   -104.93821   -6486.1315 
 2855000    254.19558    -9151.323   -8182.2135    -9151.323            0    7226.0191    25.131483    24.921557    22.980013    14392.742    7545.6852    7576.7937    6555.5785    111.92427   -472.06168   -73.462465   -6665.4477 
 2856000     253.8919   -9186.3466   -8218.3949   -9186.3466            0    8940.0466    24.954924    24.849559    23.041048    14288.188    8426.9804    10687.104     7706.055   -386.29885    535.60054    160.97734   -6355.4808 
 2857000    253.62108   -9158.1184   -8191.1992   -9158.1184            0    8687.3736    25.005288    24.907131    22.965451    14303.112    9548.1255    8504.2968    8009.6985   -110.39851    475.14935    943.16293   -6379.0459 
 2858000    249.79798   -9143.0241   -8190.6802   -9143.0241            0    8937.8379    24.959165    24.919142    22.973526    14288.636    8302.1756    9903.7107    8607.6274     408.4069    -324.4662   -511.38974    -6328.168 
 2859000    249.46978   -9151.5428   -8200.4502   -9151.5428            0    8885.2457    24.940692    24.892328    23.017896    14290.244    9032.9062    9749.5944    7873.2366   -63.615917      625.071   -638.50658   -6348.6891 
 2860000    247.22596    -9152.097   -8209.5589    -9152.097            0    8997.3597    24.981546    24.914131    22.957987    14288.902    8280.3232    8968.5533    9743.2026    575.50193   -393.37548   -645.16011   -6334.6082 
 2861000    250.08957   -9138.2468   -8184.7913   -9138.2468            0    8080.9669    24.975759    24.928254    22.982869    14309.182    7992.7677    9279.2818    6970.8511   -1035.8783    672.71111   -174.06424   -6498.4168 
 2862000    250.04696   -9126.9805   -8173.6875   -9126.9805            0    8439.6222    25.046698    24.812458     23.06629    14335.011    7150.1873    10359.823    7808.8564   -936.74352   -683.01987    474.34535    -6409.288 
 2863000    250.49024   -9146.6329   -8191.6498   -9146.6329            0    6996.2503     25.11747    24.970565    22.932459    14383.179      6731.83    7397.6726    6859.2484   -543.27485    1567.2371    498.17028   -6724.0889 
 2864000    267.77223   -9152.8197   -8131.9498   -9152.8197            0    8217.7999    24.975157    24.927557     23.04656    14348.088    8096.4624    7960.5234    8596.4138    60.746729    226.79317   -404.76028   -6412.3575 
 2865000    261.62449   -9139.3195   -8141.8877   -9139.3195            0    8862.4809    24.893474    24.888635    23.055223      14284.2    9794.8286    8672.4142    8120.1998   -150.36787    359.12757    138.74596   -6295.6521 
 2866000    251.33713   -9169.2082   -8210.9964   -9169.2082            0    9621.4341     25.00842    24.974969    22.768808    14221.045    9224.9977    9341.9184    10297.386    992.93414   -471.54485   -482.84882   -6215.5172 
 2867000    238.77926   -9164.0435   -8253.7081   -9164.0435            0    8454.3222    24.904397    24.901508     23.04742     14293.02    8659.4335    10025.533    6678.0005   -590.03877    337.48775   -268.80109   -6491.4128 
 2868000    238.78376   -9162.8765   -8252.5239   -9162.8765            0    7683.3361    24.817097    24.921862    23.140667    14312.231    9566.0146     7461.059    6022.9348    361.82079   -224.42036   -41.192463   -6648.7872 
 2869000    248.70492    -9147.819   -8199.6424    -9147.819            0    8423.3824    24.862798    25.076702    22.950789    14309.288    10200.987    6663.4159    8405.7444   -35.705626    261.55413   -739.04317    -6441.798 
 2870000    249.79235   -9159.1889   -8206.8665   -9159.1889            0    8890.1763    24.794813    25.030893    23.003448    14276.775    10466.159    7737.4693    8466.9006   -162.35657   -680.23606    582.00092   -6355.8241 
 2871000    251.76605   -9169.1067   -8209.2597   -9169.1067            0    9195.9166    24.831121    24.978346    23.012718    14273.416    9624.9336    9233.6522    8729.1639   -67.028656   -311.11652   -1092.7355   -6295.0089 
 2872000    252.79107   -9134.0082   -8170.2533   -9134.0082            0    7930.5091    24.946599    25.201804     22.81675    14344.875    8235.0959    5849.8932    9706.5383   -578.54596    313.04479    78.611588   -6511.1489 
 2873000     245.3721   -9164.6912   -8229.2208   -9164.6912            0    7406.3987    24.900848    25.085085     22.98849    14359.528    7631.3146    6477.6517    8110.2297    165.22735   -17.788117   -408.66668   -6678.1803 
 2874000    258.09268    -9140.807     -8156.84    -9140.807            0    7661.1613    24.929561    25.073627    22.995824    14374.104    7258.0433    6963.0748    8762.3659    79.367572   -40.361285    1023.4614   -6550.8188 
 2875000    256.44289   -9116.5889   -8138.9117   -9116.5889            0     8536.008    24.946122    25.036346    22.916185    14312.527    8929.3427    7674.6553    9004.0259   -463.36278   -77.252061    988.92331   -6357.1606 
 2876000    247.90808   -9139.5357   -8194.3971   -9139.5357            0    8508.1104    24.804328    24.932406    23.112925    14293.763    9599.4822    8629.3151     7295.534    543.12867    209.33775   -660.39866   -6420.7974 
 2877000    254.65845   -9147.8806   -8177.0064   -9147.8806            0    8697.1816    24.936738    24.932979    22.996474    14297.993    8597.9588    8463.2567    9030.3292     4.556133   -354.75676   -410.98738   -6363.4566 
 2878000    247.94698   -9145.7313   -8200.4443   -9145.7313            0    8676.4737    24.941474    25.034126    22.888287    14291.172    8518.5595    7433.5357    10077.326   -311.17621    430.91919     161.2965   -6392.0756 
 2879000    251.46385   -9137.6238    -8178.929   -9137.6238            0    8951.9555    24.921426    25.030977    22.920335     14297.88    8973.8503     8639.451    9242.5652    -122.5353   -377.04729   -155.95128   -6312.2679 
 2880000    249.35424   -9173.7537   -8223.1016   -9173.7537            0    9249.1029    24.743787    24.889518    23.146469    14255.006    9819.9102    9853.2612    8074.1374   -822.18503   -1288.1306   -97.158071   -6300.2627 
 2881000    250.26699   -9184.3862   -8230.2543   -9184.3862            0    8794.7075     24.93381    25.026303    22.865751    14268.254    8499.0199     9011.673    8873.4297    -343.3121   -280.31036    221.03644   -6400.1826 
 2882000    247.94504    -9146.004   -8200.7244    -9146.004            0    7090.6388    24.931208     24.99842    23.102217    14398.244    7906.7256    6718.9398    6646.2508    440.32311   -532.41671    311.15301   -6711.8064 
 2883000    245.69556   -9140.7134   -8204.0099   -9140.7134            0    7164.9683    24.927533     25.02124    23.094666    14404.554    7899.0553    6957.2274     6638.622    203.79408    -591.2294   -987.54097   -6698.8246 
 2884000    244.20971   -9175.9628    -8244.924   -9175.9628            0    7091.7705    24.991779    25.004028     22.99915    14372.057    6774.1534    7489.7818    7011.3762   -123.00506    28.108939   -310.15099   -6758.4768 
 2885000    239.36651   -9164.5989   -8252.0246   -9164.5989            0    7783.5438    24.954075    25.043768    22.947416    14340.852    7519.0242    7413.7826    8417.8247    303.65606   -599.60271    1131.9129   -6624.1228 
 2886000      252.414   -9150.8965   -8188.5792   -9150.8965            0     7743.161    24.942411     24.97341    23.024176    14341.692    7853.2178    8334.8507    7041.4144    884.52335   -839.27574   -897.83435   -6569.0284 
 2887000    247.05358   -9163.4381   -8221.5572   -9163.4381            0    7485.9215    25.120217    24.970497    22.861143    14339.979    6608.3646    8075.6395    7773.7604    186.62191    612.74378   -467.33506   -6655.9974 
 2888000     256.3711   -9165.7739   -8188.3703   -9165.7739            0     8556.327    24.928069    25.026962    22.947068    14316.075    8948.5328    7783.9674    8936.4809   -116.72224    755.02273   -222.07485   -6401.9353 
 2889000    244.33732   -9178.4893    -8246.964   -9178.4893            0    7559.1026     24.99176    25.081582    22.853651     14325.42    7995.6334    7047.1047    7634.5697    1050.6154    261.98613    505.02259   -6667.7045 
 2890000    251.82867     -9149.64   -8189.5543     -9149.64            0    7886.8829    24.941294    24.944654     23.08598    14362.987    7575.8146    7681.7985    8403.0355     484.9561   -469.76726    239.30634   -6537.4934 
 2891000    247.60058   -9176.0346   -8232.0683   -9176.0346            0    7644.2976    24.929168     24.86973    23.130727    14340.627    8180.3505    7817.8621    6934.6801    -392.5926   -770.92273   -207.09527   -6633.3144 
 2892000    242.31693   -9153.4376    -8229.615   -9153.4376            0    8075.5008    25.056421    24.892696    22.995398    14342.733    6572.8161    8973.8407    8679.8454   -263.68273     -428.756   -848.02417   -6540.4298 
 2893000    251.92776   -9153.6582   -8193.1946   -9153.6582            0    8107.6211    25.022656    24.984969    22.917699    14327.923    8183.6328    7640.1963    8499.0342     65.09721   -114.83884   -183.15636   -6499.0419 
 2894000    248.12999   -9137.4248   -8191.4401   -9137.4248            0    9460.2104    24.952457    24.937398    22.952659    14282.277    9305.1118    9227.1611    9848.3583      11.9782     -481.779     124.9818   -6220.9506 
 2895000    259.37223   -9122.3524   -8133.5071   -9122.3524            0    9439.3486    24.996397    24.834584    22.993536    14273.815    9099.1828    10149.082    9069.7812   -300.63995    79.402479    639.76696   -6168.5278 
 2896000    248.77489   -9154.8714    -8206.428   -9154.8714            0    9142.4383    25.008093    24.828478    23.007413    14285.599    7661.6252    10928.827    8836.8633    537.02856   -461.56863    212.67819    -6301.685 
 2897000    251.39202   -9160.3959   -8201.9749   -9160.3959            0    9449.1561    24.939358    24.896426    22.977836    14266.959    9352.5843    9226.6316    9768.2523    554.12003   -598.36337    63.198646   -6235.8988 
 2898000    248.72381   -9186.4633   -8238.2147   -9186.4633            0    8584.5516    24.898861    24.985155    22.953837    14279.625    8645.3014     8772.586    8335.7674    485.19078    14.247483   -142.67328   -6450.4502 
 2899000     250.3642   -9152.3169   -8197.8144   -9152.3169            0    8356.7154    24.881591    24.944056     23.10266    14338.615    9342.5186    7867.0628    7860.5647   -106.42146   -737.64412   -164.09608   -6450.3083 
 2900000      254.167   -9183.9252   -8214.9246   -9183.9252            0    8768.5058    24.843999    25.066533     22.96056    14298.756    9055.4462    7545.6626    9704.4087   -624.29509   -970.23892    444.89771   -6386.4046 
 2901000    256.83916     -9163.08    -8183.892     -9163.08            0    8866.5577     24.96289    24.986445    22.905041     14286.65    7516.1333    8974.9226    10108.617    204.03422   -139.24682   -528.90235   -6336.4902 
 2902000    241.75359   -9153.6097   -8231.9347   -9153.6097            0    7270.7976     25.01388     25.00296    22.965508    14363.113    7585.9162    7480.1951    6746.2817    662.93883    -753.1544    474.88082   -6708.9115 
 2903000    251.43008   -9140.3997   -8181.8335   -9140.3997            0    7548.7287     24.95125    24.975477    23.041711    14358.888    7317.2018    7351.4564    7977.5278   -669.80516   -66.551819   -612.80675   -6601.0569 
 2904000    246.00927   -9176.0773   -8238.1778   -9176.0773            0     7508.123    24.942887    24.892758    23.079178    14329.798    7016.5606    7406.5631    8101.2453    276.34798   -591.16956    319.63716   -6669.0897 
 2905000    248.66476    -9140.372   -8192.3485    -9140.372            0    8970.0646    24.962596    25.020389     22.88276    14291.974    8416.7971    8305.9207    10187.476    329.72544    61.290764    1312.2752    -6322.684 
 2906000    237.58374   -9191.4244   -8285.6469   -9191.4244            0     8354.456    24.812449    25.101622    22.905383    14266.222    9954.0607     7484.725    7624.5822   -150.42021   -1017.6876    176.05642   -6547.4337 
 2907000    252.79322   -9175.6396   -8211.8765   -9175.6396            0    7940.4632    24.872159    25.023575    23.006566    14319.064    8755.8936    7070.9349    7994.5611    -1472.476    163.09353    82.923538   -6553.6786 
 2908000    248.90958   -9143.1721   -8194.2153   -9143.1721            0    8121.9126    24.824339    24.963493    23.128458    14332.757    8936.8613    8155.2156    7273.6609   -245.11045    -1216.395   -688.46625   -6496.5036 
 2909000    251.86497   -9133.4638   -8173.2397   -9133.4638            0    8242.5117    24.944038    25.001699    22.965179    14322.081    8313.0586    8276.9273    8137.5492    633.49707    347.55449    834.48517   -6451.6027 
 2910000    239.42941   -9109.6448   -8196.8307   -9109.6448            0    9054.5313    25.056545     25.07776    22.763707    14303.849    8157.8556    8899.8207    10105.917    436.79882    371.04296    205.29761   -6307.9924 
 2911000    245.61123   -9182.3714   -8245.9894   -9182.3714            0    9047.7576    24.881978    24.937957    22.969635    14252.789    8936.8048    8643.5756    9562.8925    943.33532   -1220.9547     502.7906   -6365.3016 
 2912000    249.98935   -9152.3154    -8199.242   -9152.3154            0    9234.0672    24.868679    24.932709    23.056608      14296.1    9853.5518    8852.9385    8995.7113    -1185.257    213.73468   -628.66259   -6273.9947 
 2913000    251.73456   -9150.6454   -8190.9185   -9150.6454            0    9006.3151    24.897713    24.992475    22.969253    14292.743    8937.1362    9448.5249    8633.2843    -459.6519   -259.79214    730.41548   -6313.5972 
 2914000    247.26734   -9168.4504   -8225.7545   -9168.4504            0    8491.9668    24.989823    24.949754    22.932623     14298.26    8989.4972    8273.4929    8212.9101    -336.3415    55.009408    1846.3805   -6454.9633 
 2915000    251.15864   -9159.6611   -8202.1299   -9159.6611            0     9247.547    24.855019     24.92584    23.015453    14258.815    10197.904    8785.7799     8758.957    388.84153    314.48643   -379.01492   -6279.1008 
 2916000    249.21704   -9121.9657   -8171.8367   -9121.9657            0    8105.0282    24.931991    24.885298    23.102349    14333.622    7758.7012    9513.7345    7042.6488    1150.8808   -1072.0094    795.21045   -6477.5521 
 2917000    242.96753   -9189.5462   -8263.2432   -9189.5462            0    7105.0748    24.971553    24.942499    23.050085    14356.813    6235.8013    8192.5188    6886.9042   -267.17097     142.3602    453.05412   -6775.5869 
 2918000    255.78315   -9118.7072   -8143.5451   -9118.7072            0    7558.6582     25.05909    25.065045    22.866366     14362.53    7355.6313    7959.6144    7360.7291    415.11816   -894.05607   -933.07945   -6560.2877 
 2919000     235.4801   -9101.0851   -8203.3275   -9101.0851            0    8226.9245    24.895665     24.94395    23.129311    14363.214     9377.804    8020.9004    7282.0692   -492.80023     58.70282     646.0964    -6480.011 
 2920000    241.41015   -9125.6373   -8205.2718   -9125.6373            0     8984.817    24.914648    24.920269    23.070681    14324.118    8453.4818    9470.0425    9030.9265   -1262.4553   -183.34644   -455.36287   -6328.3204 
 2921000    250.13088   -9161.1546   -8207.5416   -9161.1546            0    8941.8679    24.859052    25.029457    22.927256    14265.535    9802.3144    7549.5709    9473.7184    12.865415    -249.2191   -798.44075   -6347.2021 
 2922000    251.99588    -9161.456   -8200.7328    -9161.456            0    8573.4234    24.905611    25.005787    22.961909    14300.319    8597.8884    8373.1471    8749.2348     446.4873   -415.81992     409.5618   -6412.6984 
 2923000    244.38979   -9136.5508   -8204.8255   -9136.5508            0    9215.2181    24.925609    24.901257    23.031022    14294.872    9341.7973    9164.2562    9139.6007    614.38405   -59.455263   -263.56907   -6283.6733 
 2924000    249.64925   -9160.8724   -8209.0956   -9160.8724            0    10456.231     24.90251    24.984692    22.827414    14202.796     10479.03    9781.7947    11107.868    107.64852   -277.81196   -249.94054   -6043.2629 
 2925000    251.05351   -9161.7375    -8204.607   -9161.7375            0    9028.5874    24.922608    24.971084    22.952873    14284.595    9121.1486    9160.8168    8803.7966   -205.17958    -731.5377    -2146.019    -6323.716 
 2926000    241.65445   -9140.1024   -8218.8055   -9140.1024            0     9621.517    24.792246    24.986817    23.032664    14268.258    10107.637    8849.5567    9907.3577    383.57415    236.61901    201.22925   -6216.6841 
 2927000    256.15415   -9168.7467   -8192.1703   -9168.7467            0    7687.7932    24.917529    25.115605    22.888286     14323.92     7304.316    6899.4187     8859.645   -467.60402   -327.39917   -789.47005   -6586.1928 
 2928000    254.96273   -9183.1994   -8211.1653   -9183.1994            0    6759.7876    24.893078    25.114237    23.011828     14386.32    7020.4896    5974.7265    7284.1468   -644.52206    30.407273    80.249393   -6792.8961 
 2929000    250.48801   -9171.7435    -8216.769   -9171.7435            0    6556.2376    24.879147    25.070115    23.099416    14407.639    7805.4949    5632.2352    6230.9827    15.810569   -70.210381    406.55856   -6839.1682 
 2930000      250.125   -9180.1278   -8226.5372   -9180.1278            0    8083.0368    24.965114    24.925673    22.997193    14310.515    8044.5706    9216.3019    6988.2379    267.90249     119.8481    726.88726   -6539.5736 
 2931000    244.18436   -9122.0243   -8191.0822   -9122.0243            0    10300.903    24.853397    24.907815     22.99428    14234.466     10034.26    10489.348      10379.1   -422.33401    -2107.282    1156.5724   -6052.6653 
 2932000    249.80671   -9108.3434   -8155.9663   -9108.3434            0    9571.7125    25.064732    24.927171    22.860258    14282.927    9111.6911    9608.9189    9994.5274    1.9155511   -679.08268    -150.3858   -6162.1611 
 2933000    248.99985   -9159.4155   -8210.1145   -9159.4155            0    8114.4207    25.052829     24.87566     23.00638    14337.706    6451.6547    9073.7982    8817.8093   -1499.1438   -708.34257    1529.7745   -6513.3832 
 2934000    260.51355    -9171.284   -8178.0875    -9171.284            0     9723.563     24.90927    24.816506    23.072938    14262.791    10240.417    10105.665    8824.6065    154.67286    892.05347    73.180038   -6155.5069 
 2935000    259.07528   -9126.3136   -8138.6005   -9126.3136            0    9552.7215    24.916971    24.899927    23.019395    14281.941    9006.8121    9737.8417    9913.5107    761.78903   -915.21707    212.53143   -6148.8884 
 2936000    249.79894   -9104.5104    -8152.163   -9104.5104            0    8484.3242     25.07694    25.013319    22.824454     14316.81    9140.8424    7168.1296    9144.0006   -406.90149    274.22281   -7.5165399   -6380.6701 
 2937000    242.28839   -9182.2785   -8258.5647   -9182.2785            0    7369.6612     24.97669    24.915277    23.026947    14329.695    6335.9402    7770.0781    8002.9652    785.96614     671.0101    651.45199   -6718.4241 
 2938000    252.29127   -9116.8159   -8154.9666   -9116.8159            0    8877.3821    24.956195    24.971439    22.974685    14317.642    8459.9205    8624.0514    9548.1744    1321.7109   -397.33664    773.54233   -6301.2971 
 2939000    242.33074   -9172.4913    -8248.616   -9172.4913            0    8403.0606    25.017458    24.949822    22.879618    14281.026    7150.3966    8479.2357    9579.5495    1008.5606   -339.46452   -918.48584    -6498.476 
 2940000    250.59941   -9105.0299   -8149.6306   -9105.0299            0    9725.1542    24.934869    24.907375    22.987595    14276.725    9358.8096    10104.257    9712.3964    868.80422    70.416549    1112.4034   -6124.7428 
 2941000    253.27979   -9156.8056   -8191.1875   -9156.8056            0    6776.4771    25.029322    25.030842    22.974009    14393.331    6272.6571    6814.7263    7242.0478    646.61815    425.10889   -141.45125   -6768.7239 
 2942000    252.70424   -9131.3549   -8167.9311   -9131.3549            0    8566.6526    24.969308    24.997592    22.927202    14310.531    8447.3164    9106.0518    8146.5898    363.00446    1186.3327    515.22553   -6380.0328 
 2943000    251.10812   -9153.2536   -8195.9149   -9153.2536            0    8661.2163    24.850671    24.864999    23.170572    14317.372    8966.5443     8993.966    8023.1387   -592.95273   -465.55332    1118.4092   -6387.4167 
 2944000    246.49512   -9149.4298    -8209.678   -9149.4298            0    8496.2407    24.865816    25.013482    23.063168    14344.844    8729.7421    8386.8451    8372.1349    620.17395    -552.8264    1085.4917   -6432.2234 
 2945000    256.84661   -9171.8411   -8192.6247   -9171.8411            0    8386.7551    24.958371    25.112082    22.828114    14307.673    8333.8176    7699.2241    9127.2237    590.32224    157.60931   -294.31366   -6442.6215 
 2946000    257.17691   -9145.5108   -8165.0351   -9145.5108            0    11071.057    24.816307    25.019849     22.83087    14175.693    12211.574    9198.4361    11803.161   -616.10468   -806.01519   -389.45571   -5876.2276 
 2947000    253.11366   -9163.2771   -8198.2924   -9163.2771            0    8774.0714    24.898454    24.930479    23.061118    14314.737    9623.3285    9055.5286    7643.3573   -347.19049    356.07724    542.29792   -6366.5668 
 2948000    254.90037   -9142.8021   -8171.0056   -9142.8021            0    9235.0157    24.854857    25.013113     22.92983    14255.414    9125.7548    7927.1694    10652.123   -795.08517   -451.34535   -380.29947   -6251.0404 
 2949000    250.60147   -9115.2168   -8159.8096   -9115.2168            0    9206.7901    24.980061     25.00044    22.880417    14289.107    8519.6683    8854.3196    10246.382    158.10163   -497.80474    105.55769   -6241.1885 
 2950000    259.82417   -9198.0026   -8207.4344   -9198.0026            0    8299.5386    24.920107    24.909958    22.996632    14275.362    8828.0739    8214.4032    7856.1385   -294.43589    996.26723   -1038.1531   -6479.5409 
 2951000    258.00705   -9139.6431   -8156.0025   -9139.6431            0    9683.7832    24.974547    24.885138    22.966399    14273.503    8491.7987    10968.028    9591.5227   -385.05245   -469.77425    659.22379   -6140.1836 
 2952000    247.14012   -9150.1152   -8207.9044   -9150.1152            0    9331.4196    25.005086    24.964527    22.846476    14261.688    9295.7396    8518.6715    10179.848   -94.426286   -1488.1709   -467.16764    -6267.043 
 2953000    242.97655   -9178.5183   -8252.1809   -9178.5183            0    8477.0602    24.873984    24.927373     23.04011    14285.861    8623.8262    8217.2235     8590.131   -651.23566    423.62133   -567.03497   -6486.0309 
 2954000    251.47678    -9134.874   -8176.1298    -9134.874            0    8124.2269    24.956178    24.936113    23.018051    14324.365    8021.7889    8228.6129     8122.279   -521.84817    189.20758    295.22595   -6478.9287 
 2955000    237.01797   -9130.4644   -8226.8438   -9130.4644            0    8525.1508    24.976458    24.973785    22.943577    14311.209    7721.3675    9530.4641    8323.6208   -261.86096    43.361788   -51.218497   -6447.5228 
 2956000    241.98272   -9192.9853   -8270.4368   -9192.9853            0    9017.9276    24.791613    24.915059    23.099776    14268.374     9663.416    8934.5092    8455.8575   -317.78948    -1043.811    207.18344   -6393.8999 
 2957000     242.3031   -9129.5587   -8205.7888   -9129.5587            0    8350.2345    24.929091    25.077514    22.870403    14297.652    7933.9131    7125.8995    9990.8909   -613.12729   -544.28983   -449.50892   -6464.6263 
 2958000    250.39374   -9156.7512   -8202.1361   -9156.7512            0    7967.3648    24.961225     25.00849    22.976694     14343.03    8430.4198     7266.811    8204.8637    233.88554   -988.27202    68.497512   -6535.5356 
 2959000     245.2342   -9098.3717   -8163.4271   -9098.3717            0    8167.7693    24.968185    24.971725     23.02893    14358.507    8296.2006    7656.6514     8550.456    567.63286   -544.68446    315.76271   -6453.0627 
 2960000    256.47932   -9155.6142    -8177.798   -9155.6142            0     7483.794    24.854697    24.891536    23.166369    14332.374    6996.7289    8853.8717    6600.7815   -515.09013   -705.44929    145.58537   -6613.5132 
 2961000    254.42298   -9136.9093   -8166.9329   -9136.9093            0    8088.8678    25.008347    25.004602    22.957747    14356.024    6523.8664    8677.7591    9064.9778    -727.7952    835.42122    1564.7636   -6473.3837 
 2962000    252.31155   -9178.7191   -8216.7924   -9178.7191            0    7435.1233     24.94936    24.936691    23.084528    14362.143    6947.1348    8146.8803    7211.3548   -666.84102   -436.82459    427.43419   -6659.4529 
 2963000    245.97266   -9153.2845   -8215.5246   -9153.2845            0    7912.7867    24.851246    24.986831    23.118627    14355.601    9671.0331    7697.3666    6369.9604   -135.73333   -812.16083    246.22008   -6558.8899 
 2964000    260.01336   -9171.5635    -8180.274   -9171.5635            0    8775.7244    24.979913     25.00371    22.867757    14282.984    8025.6695    8459.1875    9842.3161   -125.10168   -29.013772    -717.8561   -6352.2672 
 2965000    242.70757   -9135.5117   -8210.1997   -9135.5117            0    9240.9828    24.944917    25.060125    22.816577    14263.161    8231.1118    8705.6345    10786.202    235.45078    985.54341   -216.37463   -6287.9498 
 2966000    234.03309   -9124.4176   -8232.1767   -9124.4176            0    8293.6929    24.874629     24.94797    23.089795    14328.869    8041.9422     9329.298    7509.8384    -363.7556    269.71349   -820.51484   -6499.0284 
 2967000    254.04294     -9143.63   -8175.1025     -9143.63            0    7819.4451    24.876649    24.973142    23.116881    14361.318    9043.4617    7560.1804    6854.6931   -899.30363   -977.76402   -406.36047    -6537.358 
 2968000    242.05066   -9107.5167   -8184.7092   -9107.5167            0    9567.2675    24.942243    25.033734    22.885283    14289.513     10370.99    7043.7059    11287.107    -290.3083    -1467.635   -336.98539   -6190.9109 
 2969000    249.18936    -9182.352   -8232.3285    -9182.352            0    10741.349    24.860903     24.89235     22.93349    14192.305    10059.858    10566.553    11597.635    687.54424     306.8915   -1029.1223   -6009.0818 
 2970000    254.88199   -9181.1383   -8209.4119   -9181.1383            0    8164.8121    24.871046    24.866306     23.13256    14306.356    8964.7643    8284.6134    7245.0586    790.71486   -381.42887    186.44922   -6505.8767 
 2971000    246.74302   -9149.2875   -8208.5905   -9149.2875            0    8917.8679    24.965817    24.954536    22.933203    14287.624    9139.3411     7840.984    9773.2785    144.93041   -442.90932   -698.79758   -6350.3714 
 2972000    248.18245   -9165.7057    -8219.521   -9165.7057            0    9721.0735    24.827023    24.996384    22.895813    14208.816    9928.8003    9517.3184    9717.1019   -523.20441   -846.70974    681.38271   -6205.1103 
 2973000    254.35275   -9178.2766   -8208.5679   -9178.2766            0    8227.3895    24.950588    25.012386     22.92157     14304.75    8390.8136    7469.8045    8821.5505    372.66982   -408.58614   -373.04261   -6492.1691 
 2974000     248.4562   -9090.4329   -8143.2045   -9090.4329            0    7820.2491    24.926069    24.853101    23.186616     14363.88    7309.4036    8918.9556    7232.3879   -361.60563   -667.91135   -558.26536   -6504.9996 
 2975000     246.2135   -9157.4942   -8218.8161   -9157.4942            0    8141.7443    24.982202    24.985058    22.950819    14325.483    8085.0008    8331.5949    8008.6371   -664.43364   -25.108322     828.7055   -6517.8227 
 2976000    251.49437   -9143.7603   -8184.9491   -9143.7603            0    9470.5468    24.957202    24.955577    22.885419    14253.528    9284.9653    9330.7171    9795.9581     563.3884    1138.4583    251.34918   -6216.2773 
 2977000    254.35857   -9151.8783   -8182.1474   -9151.8783            0    7716.7717    24.882338    25.004479    23.084856    14362.702    7753.9189    8019.2462    7377.1499   -100.05178   -849.92892    470.58625   -6565.7517 
 2978000    251.03694    -9140.573   -8183.5057    -9140.573            0    5616.6991    24.946834    25.095244    23.115221    14471.212    5525.5102    5289.3293    6035.2577   -489.81567    146.79501   -865.41846   -6998.1138 
 2979000    250.87424   -9175.9928   -8219.5458   -9175.9928            0     7567.621    24.937714    25.054046    22.989943    14363.901    8125.6824    6935.1806    7642.0001    43.455948   -558.69931   -581.92443   -6634.2596 
 2980000    245.81882   -9115.8132   -8178.6397   -9115.8132            0     8232.163    24.845272     25.15339    22.947456    14340.848      9598.93    6392.0299     8705.529   -785.35438    1304.4768    973.94188   -6456.9112 
 2981000    259.21116   -9152.5687   -8164.3375   -9152.5687            0    8253.2909    24.805554    25.107664    22.983643    14314.431    8727.9684    8282.2847    7749.6197   -89.377092   -643.53603   -1550.1736   -6441.3698 
 2982000    244.33685   -9116.2255    -8184.702   -9116.2255            0    8580.5058     24.83008    25.049002    23.034598    14326.799    8571.8512    8889.3199    8280.3464    -962.7254    157.33518    363.46386   -6391.8768 
 2983000    255.61886   -9144.2723   -8169.7366   -9144.2723            0    8533.2077    24.830278    25.025589    23.035733    14314.228    8942.7083    8661.1217     7995.793    900.59167   -127.60993    -650.0417   -6388.3584 
 2984000    258.79872   -9175.6263   -8188.9675   -9175.6263            0    7209.3365    24.976659    25.025244    22.979548    14363.297    7579.4414    7462.4544    6586.1136   -227.16066    1084.1997    1100.8773   -6678.7993 
 2985000    244.55218   -9168.3433   -8235.9989   -9168.3433            0    6361.3231     25.00588    24.947799    23.117635    14421.744    6055.4421    7421.6889    5606.8383   -189.08591   -273.65281    1058.4245   -6898.0451 
 2986000    251.70736   -9134.0092    -8174.386   -9134.0092            0    8931.1064    24.837221    24.918332    23.064213     14274.49    9063.8983    9838.1286    7891.2923    767.78602    786.32666   -206.78776    -6315.119 
 2987000    251.10935    -9172.884   -8215.5406    -9172.884            0    8068.8525    24.904091    25.056272    22.932916    14310.224    9762.2348    6776.9075    7667.4151   -224.05272    1093.8151   -104.49006   -6531.5716 
 2988000    263.76432   -9148.0013   -8142.4114   -9148.0013            0    8381.5351    25.000353    24.975238    22.933467    14319.422    8649.5303    8021.0479    8474.0271   -548.64244   -367.13012   -475.29707   -6392.0612 
 2989000    253.46449   -9168.2686   -8201.9464   -9168.2686            0    6832.4439    24.837735    24.997925    23.207071    14409.081    7239.5053    7009.1335     6248.693   -1075.5067   -977.45423    502.04825   -6766.1653 
 2990000    255.36009   -9133.4167   -8159.8676   -9133.4167            0    7862.7046    24.948124    24.971966    23.047517    14358.689    7197.8282    7841.4944     8548.791    557.39949    507.06627    923.81079   -6513.3642 
 2991000    252.34443   -9137.4105   -8175.3585   -9137.4105            0    7947.3293     25.02865    24.985196    22.921336    14333.759    6920.9207    8482.5941    8438.4732   -431.30946   -399.49518    854.48589   -6514.0235 
 2992000    253.16773   -9126.0642   -8160.8733   -9126.0642            0     8721.493    24.957559    24.958991    22.968743    14307.586    9388.3283    8703.8506       8072.3   -295.30572   -52.852516    1121.5293   -6341.0338 
 2993000    252.61244   -9160.9714   -8197.8975   -9160.9714            0    9517.2774    24.906415    24.976194    22.911597    14252.559    10070.195    9174.6689    9306.9679    598.57913   -278.32647    207.80132   -6219.6463 
 2994000    247.93426   -9164.0425   -8218.8041   -9164.0425            0    8672.5203    24.906336    24.969285    22.994163    14299.918    9256.1132    7824.3907     8937.057    844.67547   -25.931129   -696.34973   -6410.1531 
 2995000    261.25193   -9174.0782   -8178.0667   -9174.0782            0    8920.2173    24.855544     24.87718    23.057918    14257.538    8908.0693    9945.8884    7906.6942    254.12793   -31.604946    1262.7747    -6323.272 
 2996000     254.1982   -9184.9957   -8215.8762   -9184.9957            0    8620.5386    24.960756    24.916223    22.930739    14261.264    7742.8391     9754.014    8364.7628    1066.5883    1314.3881    -755.8013   -6422.9257 
 2997000    255.80653   -9117.7779   -8142.5267   -9117.7779            0    8455.9249    25.033984    25.058234    22.813951    14311.361    7815.4095    8374.5326    9177.8325   -143.81741   -623.63215   -176.77047   -6377.6355 
 2998000    247.38335   -9183.0072    -8239.869   -9183.0072            0    8419.4621     24.89551    24.961646    23.057924    14328.953    8995.3422    7926.3065    8336.7376   -527.40593    820.42017    1474.9341   -6480.4281 
 2999000    240.14757   -9164.1445   -8248.5925   -9164.1445            0    8917.7221     24.96467     24.93929    22.906952    14261.894    8021.5112    8824.5795    9907.0754   -1054.5343    381.02206   -845.11825     -6393.75 
 3000000    253.17457   -9130.1561   -8164.9392   -9130.1561            0    9028.8603    25.015452    24.979779    22.877571    14295.747     8875.179    8525.9626    9685.4392    49.877486   -1094.5662     30.17317   -6282.5228 
Loop time of 559.111 on 64 procs for 250000 steps with 1920 atoms

Performance: 77.265 ns/day, 0.311 hours/ns, 447.138 timesteps/s
195.9% CPU use with 32 MPI tasks x 2 OpenMP threads

MPI task timing breakdown:
Section |  min time  |  avg time  |  max time  |%varavg| %total
---------------------------------------------------------------
Pair    | 72.104     | 75.458     | 86.054     |  32.6 | 13.50
Bond    | 0.82711    | 1.034      | 1.7408     |  19.2 |  0.18
Kspace  | 257.66     | 269.2      | 277.64     |  23.6 | 48.15
Neigh   | 4.7677     | 5.1626     | 5.8734     |  10.5 |  0.92
Comm    | 86.49      | 94.169     | 101.29     |  33.6 | 16.84
Output  | 0.58483    | 0.58525    | 0.58694    |   0.0 |  0.10
Modify  | 90.488     | 97.616     | 102.02     |  30.0 | 17.46
Other   |            | 15.88      |            |       |  2.84

Nlocal:        60.0000 ave          65 max          55 min
Histogram: 1 0 4 6 3 2 7 5 2 2
Nghost:        3363.34 ave        3395 max        3335 min
Histogram: 3 6 1 3 2 6 3 2 3 3
Neighs:        21243.2 ave       23088 max       19771 min
Histogram: 2 8 3 2 0 6 5 3 1 2

Total # of neighbors = 679784
Ave neighs/atom = 354.05417
Ave special neighs/atom = 2.0000000
Neighbor list builds = 9681
Dangerous builds = 0

unfix		3
unfix		2
unfix		1

write_data	data.final.${pid}
write_data	data.final.0
System init for write_data ...
PPPM initialization ...
  extracting TIP4P info from pair style
  using 12-bit tables for long-range coulomb (../kspace.cpp:340)
  G vector (1/distance) = 0.37437729
  grid = 30 30 30
  stencil order = 5
  estimated absolute RMS force accuracy = 0.0032841504
  estimated relative force accuracy = 9.8901213e-06
  using double precision FFTW3
  3d grid and FFT values/proc = 5400 960
Last active /omp style is kspace_style pppm/tip4p/omp
WARNING: Not all mixed pair coeffs generated from mixing. Use write_data with 'pair ij' option to store all pair coeffs. (../write_data.cpp:312)

write_restart   restart.lmp.${pid}
write_restart   restart.lmp.0
System init for write_restart ...
PPPM initialization ...
  extracting TIP4P info from pair style
  using 12-bit tables for long-range coulomb (../kspace.cpp:340)
  G vector (1/distance) = 0.37437729
  grid = 30 30 30
  stencil order = 5
  estimated absolute RMS force accuracy = 0.0032841504
  estimated relative force accuracy = 9.8901213e-06
  using double precision FFTW3
  3d grid and FFT values/proc = 5400 960
Last active /omp style is kspace_style pppm/tip4p/omp
Total wall time: 0:09:19
