LAMMPS (30 Jul 2021)
  using 1 OpenMP thread(s) per MPI task
package omp 0
using multi-threaded neighbor list subroutines
echo both

include		in.partitions
variable        pid world 0
include		in.temp
variable        temperature equal 286.04
variable	tempDamp equal 100.0
include		in.pressure
variable        pressure equal 12000.0
variable        pressureDamp equal 1000.0 # This is 1 ps
include		in.seed
variable        seed world 745823

units		real
atom_style	full
read_restart	restart.lmp.${pid}
read_restart	restart.lmp.0
Reading restart file ...
  restart file = 30 Jul 2021, LAMMPS = 30 Jul 2021
  restoring atom style full from restart
  orthogonal box = (-0.088338515 -0.12676606 -0.033164386) to (24.818340 24.856767 22.843164)
  4 by 4 by 4 MPI processor grid
  restoring pair style lj/cut/tip4p/long/omp from restart
  restoring bond style harmonic/omp from restart
  restoring angle style harmonic/omp from restart
  1920 atoms
  1280 bonds
  640 angles
Finding 1-2 1-3 1-4 neighbors ...
  special bond factors lj:    0        0        0       
  special bond factors coul:  0        0        0       
     2 = max # of 1-2 neighbors
     1 = max # of 1-3 neighbors
     1 = max # of 1-4 neighbors
     2 = max # of special neighbors
  special bonds CPU = 0.571 seconds
  read_restart CPU = 0.783 seconds
include 	in.setup
variable	out_freq equal 1000
variable	out_freq2 equal 10000
variable	out_freq3 equal 1000

timestep	2.0

neigh_modify    delay 7 every 1

include		in.tip4p
# This is TIP4P/Ice

# create groups ###
group ox type 2
640 atoms in group ox
group hy type 1
1280 atoms in group hy

# set charges - beside manually ###
set group ox charge -1.1794
Setting atom values ...
  640 settings made for charge
set group hy charge 0.5897
Setting atom values ...
  1280 settings made for charge

# ### TIP3P Potential Parameters ###
pair_style lj/cut/tip4p/long/omp 2 1 1 1 0.1577 8.5
pair_coeff 1 1*2 0.000 0.000
pair_coeff 2 2 0.21084 3.1668
bond_style  harmonic
bond_coeff  1 450 0.9572
angle_style harmonic
angle_coeff 1 55 104.52
kspace_style pppm/tip4p/omp 1.0e-5
pair_modify tail yes

thermo          ${out_freq}
thermo          1000
thermo_style    custom step temp pe etotal epair emol press lx ly lz vol pxx pyy pzz pxy pxz pyz enthalpy

restart 	${out_freq3} restart.lmp.${pid} restart2.lmp.${pid}
restart 	1000 restart.lmp.${pid} restart2.lmp.${pid}
restart 	1000 restart.lmp.0 restart2.lmp.${pid}
restart 	1000 restart.lmp.0 restart2.lmp.0


include         in.dump
dump            myDump all atom ${out_freq2} dump.water.${pid}
dump            myDump all atom 10000 dump.water.${pid}
dump            myDump all atom 10000 dump.water.0
dump            myDump2 all dcd ${out_freq2} dump.dcd
dump            myDump2 all dcd 10000 dump.dcd
dump_modify     myDump append yes
dump_modify     myDump2 append yes


variable natoms 	equal  "count(all)"                        # NUMBER ATOMS
variable H      	equal  "enthalpy/v_natoms"                 # ENTHALPY-per-atom
variable Vol      	equal  "vol/v_natoms"                 # volume-per-atom
fix AVG all 		ave/time ${out_freq} 1 ${out_freq} v_Vol v_H file vol_enthalpy.dat
fix AVG all 		ave/time 1000 1 ${out_freq} v_Vol v_H file vol_enthalpy.dat
fix AVG all 		ave/time 1000 1 1000 v_Vol v_H file vol_enthalpy.dat




fix 		1 all shake 1e-6 200 0 b 1 a 1
       0 = # of size 2 clusters
       0 = # of size 3 clusters
       0 = # of size 4 clusters
     640 = # of frozen angles
  find clusters CPU = 0.299 seconds
fix             2 all nph aniso ${pressure} ${pressure} ${pressureDamp}
fix             2 all nph aniso 12000 ${pressure} ${pressureDamp}
fix             2 all nph aniso 12000 12000 ${pressureDamp}
fix             2 all nph aniso 12000 12000 1000
fix             3 all temp/csvr ${temperature} ${temperature} ${tempDamp} ${seed}
fix             3 all temp/csvr 286.04 ${temperature} ${tempDamp} ${seed}
fix             3 all temp/csvr 286.04 286.04 ${tempDamp} ${seed}
fix             3 all temp/csvr 286.04 286.04 100 ${seed}
fix             3 all temp/csvr 286.04 286.04 100 745823


run             250000
PPPM initialization ...
  extracting TIP4P info from pair style
  using 12-bit tables for long-range coulomb (../kspace.cpp:340)
  G vector (1/distance) = 0.37451225
  grid = 30 30 30
  stencil order = 5
  estimated absolute RMS force accuracy = 0.0032671404
  estimated relative force accuracy = 9.8388963e-06
  using double precision FFTW3
  3d grid and FFT values/proc = 3600 512
Last active /omp style is kspace_style pppm/tip4p/omp
Neighbor list info ...
  update every 1 steps, delay 7 steps, check yes
  max neighbors/atom: 2000, page size: 100000
  master list distance cutoff = 10.8154
  ghost atom cutoff = 10.8154
  binsize = 5.4077, bins = 5 5 5
  1 neighbor lists, perpetual/occasional/extra = 1 0 0
  (1) pair lj/cut/tip4p/long/omp, perpetual
      attributes: half, newton on, omp
      pair build: half/bin/newton/omp
      stencil: half/bin/3d
      bin: standard
Per MPI rank memory allocation (min/avg/max) = 9.331 | 9.340 | 9.346 Mbytes
Step Temp PotEng TotEng E_pair E_mol Press Lx Ly Lz Volume Pxx Pyy Pzz Pxy Pxz Pyz Enthalpy 
 8250000    288.57328   -8985.1569   -7884.9839   -8985.1569            0    11876.947    24.906678    24.983533    22.876329    14234.951    12665.849    11186.467    11778.525    541.43381     -89.3784    588.31842    -5419.304 
 8251000    284.82467   -9000.0228   -7914.1412   -9000.0228            0    12527.454    24.818251    24.896499    22.950467    14180.808    14237.377    11818.516    11526.468   -799.72675   -1295.6454    258.77802   -5323.3067 
 8252000    296.24369   -9039.0402   -7909.6242   -9039.0402            0    10897.314    24.952471    24.915655    22.949347    14267.774    10110.559    12654.751    9926.6327    308.21876    552.86408   -478.01918   -5642.1018 
 8253000    291.69701   -9021.2466   -7909.1646   -9021.2466            0    11334.141    24.938361    24.874024    22.938557    14229.186    10358.669    11942.166    11701.588    518.66223   -1497.7451    95.431044   -5557.1254 
 8254000    286.21101   -9058.0146   -7966.8477   -9058.0146            0    10667.782    25.046563    24.814621    22.958359    14269.102    9173.8241    12341.952     10487.57   -222.34958   -1605.1589    482.44185     -5746.88 
 8255000    289.97814   -9003.2163   -7897.6874   -9003.2163            0    10723.649    24.967636    24.894189    22.947996    14263.305    10481.614     12002.37    9686.9618    416.22399   -518.62019   -219.70537   -5667.0004 
 8256000    294.69474   -9004.3833   -7880.8726   -9004.3833            0    10090.861     24.94562    24.831158    23.137052    14331.753    11118.282    9595.1893    9559.1108    433.86911    -375.6498    1044.5917   -5771.7423 
 8257000    283.73472   -9024.1094   -7942.3832   -9024.1094            0    11020.381    24.950555    24.962688     22.91857     14274.44    11859.806    10153.428    11047.911   -336.10048   -3.9241681   -540.26526   -5648.1815 
 8258000    280.96512   -9008.8743   -7937.7071   -9008.8743            0    10947.421    24.903199    25.065246    22.895561     14291.52    11857.712    9256.0473    11728.504    181.11847   -443.03853    389.08091   -5655.9673 
 8259000    294.99429   -8978.6507   -7853.9979   -8978.6507            0    11146.441    24.890601    24.957495    23.001042    14288.409    11824.433    10083.189    11531.703   -1009.4861    332.82426     187.9287   -5531.2825 
 8260000    297.86539   -9019.4763   -7883.8776   -9019.4763            0    12037.599    25.166708    24.904962     22.74125    14253.667    10423.368     11571.99    14117.439    606.96426    314.15446   -662.10461   -5381.5603 
 8261000    292.51598   -9035.7884    -7920.584   -9035.7884            0    11707.329    24.953527    24.865043    22.864108    14186.505    11325.792    12565.023    11231.173   -99.095912    -578.8723   -133.58783   -5498.3889 
 8262000    288.05596   -8956.1931   -7857.9924   -8956.1931            0    11998.794    24.809125    24.882719     23.08014    14247.797     11862.29    12646.527    11487.566    62.924267    129.02834   -556.83643   -5364.7689 
 8263000    295.21199   -9007.1231   -7881.6403   -9007.1231            0    11150.441    24.942929    25.043467    22.791967    14237.172    10623.377    11507.889    11320.056    899.08902    -776.7827    105.06238   -5566.4236 
 8264000    286.39135   -9058.9182   -7967.0637   -9058.9182            0    11219.169    24.814686    24.804614     23.11404    14227.124    10793.815    12190.561    10673.132    434.63706    392.55565   -1183.5743   -5639.2206 
 8265000    282.60588   -8982.7475    -7905.325   -8982.7475            0    12815.689    24.840638    24.827351    23.000885    14185.272    12442.863    13497.459    12506.746    403.06133    310.01935   -68.081398   -5254.0454 
 8266000    292.37814    -9011.155   -7896.4762    -9011.155            0    11622.794    24.957982    24.938872    22.830722    14210.388    11219.505    10783.473    12865.404    27.836991   -484.18312    224.59865   -5487.7227 
 8267000    302.12685   -9037.8485   -7886.0032   -9037.8485            0    12757.477    24.747552      24.8196    23.048359    14156.863     13530.02    12987.894    11754.519    12.653581    342.31812   -230.56037    -5252.052 
 8268000    289.54397   -9052.8299   -7948.9563   -9052.8299            0    11671.755    24.879457    24.956058     22.89275    14213.952     11293.67    11338.132    12383.464    614.81269   -433.17418   -1129.1997   -5529.4491 
 8269000     285.5418   -8999.1897   -7910.5741   -8999.1897            0    13338.809    24.820304    25.005765    22.826007    14166.977    12973.031    12689.758    14353.637    380.60716   -771.43472   -322.05012   -5154.6319 
 8270000    290.07917   -9036.4679   -7930.5538   -9036.4679            0    13009.966     24.73914    24.929331    22.956556    14158.001    13831.566    13478.865    11719.466   -402.99864   -1377.7642    345.95267   -5244.2571 
 8271000    285.35298    -9005.228   -7917.3323    -9005.228            0    12355.979    24.871041    24.986754    22.819226     14180.93    12738.889    11528.528     12800.52    599.58026    672.32861    364.05758   -5361.9389 
 8272000    282.46104   -8958.2237   -7881.3534   -8958.2237            0    11436.565    24.829844    24.946981    23.012656    14254.721    11236.114    12044.925    11028.655    742.06985    54.961109   -446.45841   -5503.8004 
 8273000    293.33397    -9073.139   -7954.8161    -9073.139            0    12046.247    24.938144     24.85678    22.894021    14191.591    12610.012    11263.378    12265.351   -208.13632    589.34369      817.111   -5461.6068 
 8274000    298.37291    -8973.741   -7836.2074    -8973.741            0      11620.9    25.053417    24.814192    22.898813    14235.741    10591.982    12696.512    11574.207   -155.66646    1198.8818    1062.7665   -5423.5496 
 8275000    284.76996   -8990.3078   -7904.6349   -8990.3078            0    10894.177    24.942626    25.000389    22.871544    14262.131    10708.064    10402.546    11571.922   -326.25737    1384.8295    483.37906   -5638.6618 
 8276000    295.27961   -8995.5565    -7869.816   -8995.5565            0    12427.213    24.701419    25.076684    22.954387    14218.629        13429     11119.73     12732.91    750.77859    651.16659   -147.03765   -5292.8578 
 8277000    276.43904   -8949.9423   -7896.0306   -8949.9423            0    11672.433    24.888621    24.963351    22.952721    14260.603     11873.49    11315.912    11827.897   -192.37655    624.71488    581.92145   -5468.4415 
 8278000    281.14824   -9013.2369   -7941.3716   -9013.2369            0    11530.238    24.887676    24.843206    23.030092    14239.268    11015.686    12296.495    11278.532    487.67267   -97.096642    138.47314   -5546.9434 
 8279000    276.90078   -9005.8643   -7950.1922   -9005.8643            0    11343.931    25.027032    25.081841    22.709665    14255.402    10584.167     10691.14    12756.484   -526.91089    -1343.217    13.280036   -5591.7843 
 8280000    286.63254   -8980.4109   -7887.6369   -8980.4109            0    10848.733     24.89854    24.864041    23.080298    14288.512    11839.479    10954.665    9752.0543     218.9265    317.18966    673.20162   -5626.9423 
 8281000    292.85385   -8985.6841   -7869.1917   -8985.6841            0    10264.533    24.974539    25.170253    22.776179    14317.458    9200.3391    9123.3728    12469.888   -490.79438    95.022088   -862.40382   -5725.9013 
 8282000    290.87047   -8996.5346   -7887.6038   -8996.5346            0    10151.218     24.93091    24.938475     23.00648    14304.023    11483.089    9815.2502    9155.3147   -4.0601045    972.94693   -787.31513   -5769.9632 
 8283000    294.43748   -9029.9451   -7907.4151   -9029.9451            0    9540.8267    25.019557    24.914053    22.960636     14312.25    9409.9268    8944.0572    10268.496   -194.07678    254.28557   -388.93518   -5915.9632 
 8284000    279.49263   -9030.7573    -7965.204   -9030.7573            0    10513.015    24.968918    24.993395    22.850793    14260.221    9712.4939    10333.042    11493.509    255.35934   -849.94971   -475.62483    -5778.805 
 8285000     287.2621   -9081.0154   -7985.8413   -9081.0154            0    10628.547    24.792772    24.918964    23.044698    14237.249      11639.5    10142.316    10103.825    189.59849    440.23566    329.52534   -5778.9759 
 8286000    276.41523   -8980.5901   -7926.7692   -8980.5901            0    11370.995    24.864895    25.012736    22.906597    14246.507    10300.337    12090.293    11722.354   -56.719604   -937.06903    8.3937837   -5564.2097 
 8287000    287.11021   -9015.9318   -7921.3367   -9015.9318            0    11557.374    24.907237    24.964299     22.93874    14263.118    12510.486     10255.82    11905.817      746.881     74.02617   -1204.0562   -5517.2532 
 8288000    291.99049   -8989.8844   -7876.6835   -8989.8844            0    12107.746    24.826435    24.902937     22.94263    14184.308    13794.293    11120.697    11408.248    491.14614   -796.58075    1201.9945   -5372.0318 
 8289000    286.71919   -9026.2386   -7933.1343   -9026.2386            0    12088.389    25.007392    24.917496    22.765229    14185.506    11120.361    11720.466    13424.339   -158.18062   -1407.2502   -463.98838   -5432.2757 
 8290000    285.85399   -9000.0566   -7910.2508   -9000.0566            0    13834.975    24.808838    24.801341    22.945488    14118.185    14003.016    14032.035    13469.875   -588.28608    -1495.348   -455.31863   -5061.6397 
 8291000    282.84361   -9039.5309   -7961.2021   -9039.5309            0    12753.493      24.9206    24.965033    22.738036    14146.324    12896.553     10925.58    14438.346   -333.57178   -491.97302    1386.1029   -5330.0338 
 8292000    288.99999   -9031.6141   -7929.8143   -9031.6141            0    12335.693    24.893231     24.87978    22.926892    14199.498    12512.237    10976.556    13518.286    98.516091   -58.325426     120.8807   -5375.2759 
 8293000    289.82972   -8988.6237   -7883.6606   -8988.6237            0    12813.436    24.961537    24.665783    23.057743    14196.557    11443.243    13812.056     13185.01   -632.84599   -1126.6293    -231.8516   -5230.7384 
 8294000    285.55241   -9006.5845   -7917.9285   -9006.5845            0    12505.075    25.004495    24.871298    22.813091     14187.33    11287.995    12837.539    13389.691   -287.24655    500.72105    -728.4107   -5330.5327 
 8295000    277.73721   -9042.6489    -7983.788   -9042.6489            0    12231.717    24.834185    24.764942    23.056697    14180.264    12685.932    12844.772    11164.446    155.78749    192.82641    466.10339   -5454.2126 
 8296000    289.54442   -8955.5489   -7851.6736   -8955.5489            0    12617.648    24.874484    25.043472    22.770446      14184.7    12809.062    11443.782    13600.102   -361.37715    -354.3806    856.54689   -5241.4695 
 8297000    286.22175   -9021.0832   -7929.8754   -9021.0832            0    12785.814     24.82915    24.895505    22.928263    14172.744    13502.459    13514.735    11340.249   -365.31931     765.5926   -466.15698   -5287.1123 
 8298000    288.31818   -9034.2592   -7935.0588   -9034.2592            0    11533.766    24.812566    25.004901    22.915118    14217.359    12223.689    10438.507    11939.102    960.57204   -252.30996   -384.73885   -5543.5833 
 8299000    291.81148   -8994.6912   -7882.1728   -8994.6912            0    11409.262    24.884267    24.927351    22.905762    14208.418    12010.038     9670.143    12547.606    1001.5924   -268.52038    421.08928   -5518.0001 
 8300000     289.1158   -8975.5463    -7873.305   -8975.5463            0    13412.831    24.977759    24.871362    22.817717    14175.071    13451.967    14206.738    12579.788    735.30195   -104.03463    1470.4452   -5100.4857 
 8301000     296.3566   -9029.8421   -7899.9956   -9029.8421            0    13131.604    24.836248    24.858308    22.960653    14175.611    13600.296     13102.13    12692.387   -368.93289   -395.12274   -229.80043   -5185.2104 
 8302000    283.28453   -8991.1705   -7911.1606   -8991.1705            0    12564.475    24.941128    24.817255    22.897499    14172.873    12616.341    12602.472    12474.612   -103.83959    987.21631    -240.9315   -5314.1236 
 8303000    281.22596   -9003.3843   -7931.2226   -9003.3843            0    11545.987     24.90958    25.004113    22.877336    14248.964     12035.36    9899.7748    12702.826   -115.43839   -683.35028    1536.8196   -5531.8912 
 8304000    288.09849   -8994.9887   -7896.6259   -8994.9887            0    9957.4635    24.913655    25.053433    22.940056    14318.554    11346.568    8685.7816    9840.0407   -583.51496   -580.97838    777.66049   -5817.2941 
 8305000    286.54897   -8965.5629   -7873.1075   -8965.5629            0    12501.423    24.787256    24.825675    23.088676    14207.856    13082.652    13562.305    10859.311    439.37707    -970.7229    395.74113   -5282.7251 
 8306000    295.26666   -9009.1725   -7883.4813   -9009.1725            0    11810.363     24.93161    24.974953    22.854484    14230.705    11870.491    11643.245    11917.353   -732.66508    874.39269    618.33108   -5432.3557 
 8307000    285.88263   -9008.2154   -7918.3004   -9008.2154            0    11861.753    24.974482    24.921692    22.865826    14231.835     11248.09    11071.058    13266.112   -347.02716   -154.32481    205.97612   -5456.3138 
 8308000    284.37853   -9021.8368   -7937.6562   -9021.8368            0    11628.387    24.952657    24.862314    22.925824    14222.741    11974.011    12325.384    10585.766   -418.44381    142.68799    555.70644   -5525.6486 
 8309000    291.02319   -9013.7682   -7904.2551   -9013.7682            0    12530.374     24.98805    24.892068    22.749718    14150.421    12085.816    12644.447     12860.86   -644.83957    -1380.248    154.53848   -5318.3695 
 8310000    282.37054    -9035.511   -7958.9857    -9035.511            0    11863.196     24.81406    24.842751    23.046007    14206.699    12999.781    11879.854    10709.953    253.22283   -1133.1425    75.049151   -5501.0485 
 8311000     281.6649   -9002.8964   -7929.0614   -9002.8964            0     11358.23    24.866211    25.019142     22.85806    14220.714     11747.45    11024.554    11302.685   -353.11555   -619.63207    1146.6797   -5573.4267 
 8312000    283.73975   -8993.5545   -7911.8092   -8993.5545            0    11598.411    24.839626    24.978567    22.934296    14229.773    12075.778    11412.888    11306.566   -696.65305   -1558.8697    232.06943   -5504.8299 
 8313000    293.29741   -8970.1499   -7851.9664   -8970.1499            0     12183.33    24.851929    24.977398    22.935357    14236.814    12903.651     12662.86    10983.478    -14.76502    467.27008   -251.79997   -5322.3498 
 8314000    282.12671   -8968.4684   -7892.8727   -8968.4684            0     13486.56    24.814047    24.776714    23.047612    14169.915    14224.317    12515.474    13719.887   -1601.8022    5.2668925   -462.83991   -5105.8256 
 8315000    287.08442   -9060.2356   -7965.7389   -9060.2356            0    11759.627    24.970321     24.96556    22.757809    14187.174    10745.017    11216.794    13317.071   -795.57661   -798.30326    1283.8174   -5532.6087 
 8316000    293.03619   -8946.0682   -7828.8806   -8946.0682            0     10779.47    24.796217    24.938428    23.133984    14305.562    12593.686    9260.3216    10484.403    421.49678   -697.71112    398.96443   -5579.9386 
 8317000    278.27506   -9022.8586   -7961.9472   -9022.8586            0    12246.729    24.939161    24.849835    22.870563    14173.666    12836.588    12754.391    11149.207    885.36792    25.703612    419.18541   -5430.4457 
 8318000    283.00154   -9019.2751   -7940.3442   -9019.2751            0     12263.26    24.879313    25.006876    22.808951    14190.678    12794.606     10757.06    13238.114   -316.25404   -58.504304    1190.6701   -5402.3831 
 8319000    288.52344    -9043.886   -7943.9031    -9043.886            0    13547.112    24.743324    24.980107    22.819469    14104.506    13120.349    14309.272    13211.716   -788.90019     -179.378   -234.69254   -5157.2654 
 8320000    284.70917   -9014.4433   -7929.0022   -9014.4433            0    12887.974    24.811109    24.861231    22.941734    14151.258    12350.659    13985.416    12327.846    444.34387    614.78302    697.64515   -5269.1618 
 8321000    294.28416    -9018.777   -7896.8316    -9018.777            0    11830.182    24.969768    24.963599    22.785174    14202.802    12178.759    10568.154    12743.632    612.24935   -77.589104    87.232972    -5446.407 
 8322000    287.55653   -8962.6919   -7866.3952   -8962.6919            0    12908.669    24.853062    24.782658    23.034689     14187.64     13383.38    14318.921    11023.705   -441.31327    75.392238   -352.97886   -5195.4346 
 8323000    273.91934   -9025.9267   -7981.6213   -9025.9267            0    13606.709    24.900573    24.902631    22.753352    14109.121    14286.495    13544.374    12989.256   -412.98883   -109.20476    276.15625   -5181.8088 
 8324000    299.00489   -9019.6223   -7879.6793   -9019.6223            0    12712.681      24.8574    24.949825    22.869741    14183.534    12528.516    12885.115    12724.411    1207.3954   -408.21759    849.80601   -5250.0321 
 8325000    289.46368   -8963.1397   -7859.5722   -8963.1397            0    13873.082    24.814435    24.812984    22.981351    14150.081    15017.002    13384.218    13218.025    1224.9556   -990.53108   -130.07572   -4996.6616 
 8326000    280.88879   -8969.3022   -7898.4261   -8969.3022            0    14166.752    24.868145    24.906227    22.817718    14132.649    13925.787    14360.203    14214.266    499.98318    609.21641    824.15384   -4978.5143 
 8327000    281.98932   -9033.6691   -7958.5972   -9033.6691            0    12544.993    24.840287    24.899743    22.918015    14175.176    13295.382    12184.906    12154.691    354.03691    295.71843    51.352917   -5365.1657 
 8328000    284.06031   -8941.4663   -7858.4989   -8941.4663            0    13294.172    24.768978    25.109854    22.822526    14194.365     13626.73    12075.215    14180.573   -127.57748    256.86632   -1219.9011   -5106.4688 
 8329000    286.61307   -9026.2057    -7933.506   -9026.2057            0    12300.698    24.820006    24.974023    22.865782    14173.479    11228.773    13950.343    11722.979     1058.903   -664.04009    475.71214   -5390.8822 
 8330000    282.17541   -8999.5298   -7923.7484   -8999.5298            0    11866.473    24.833265    24.998725    22.937485     14239.59    12297.494    11590.058    11711.869    -77.73976    506.20304    300.43779   -5459.4401 
 8331000    303.28445   -9028.2332   -7871.9746   -9028.2332            0    11644.361    24.938091    24.911752    22.890869    14220.987    10721.088    13087.757    11124.239     145.9917   -679.29178   -811.17712   -5456.9513 
 8332000    279.87581   -8991.0301   -7924.0158   -8991.0301            0    12310.327    24.979558    24.862754    22.902424    14223.793    12923.827    11432.542    12574.612   -655.89134    173.74246    811.97162   -5370.3685 
 8333000    281.55731   -9042.8682   -7969.4434   -9042.8682            0    11933.232    24.891733    24.840235    22.960335    14196.754    11852.028    13050.625    10897.042    219.39306    529.41584   -218.74859   -5498.7263 
 8334000    291.94103   -8966.2439   -7853.2315   -8966.2439            0    11070.879    25.163515    24.787247    22.860238    14258.714    8402.3086    13093.041    11717.288   -69.908205    -587.6133   -501.89662   -5551.0564 
 8335000    287.40568   -9027.6731   -7931.9516   -9027.6731            0    11867.497    24.925358    24.908832     22.88862    14210.664    10489.861    12570.285    12542.344    141.31913   -15.937114     1399.076   -5472.4372 
 8336000    290.41306   -8991.1929   -7884.0059   -8991.1929            0    12127.399     24.89107    24.669163    23.126142    14200.419    11489.227    13675.472    11217.499   -1080.3259    432.50207    494.21645   -5372.4391 
 8337000    281.13646   -8974.8012   -7902.9808   -8974.8012            0    13881.611    24.961952    24.856956    22.792725    14142.388     13160.62    14501.034    13983.177   -428.83761    -14.02325    845.85835   -5039.8678 
 8338000     294.5959   -8975.8442   -7852.7103   -8975.8442            0    13345.825    24.864578    24.864779    22.967012    14199.407     12183.82    13225.531    14628.123   -246.73066   -900.40472   -214.54017   -5089.0064 
 8339000    282.88703   -9037.6406   -7959.1462   -9037.6406            0    13944.941    24.876333    24.917243    22.724959    14086.057    13052.303     14928.35     13854.17    1556.1429   -63.914665    813.61681   -5094.4272 
 8340000    293.67059   -9015.4365   -7895.8302   -9015.4365            0    12724.675    24.834873     24.82065    22.986111    14169.046    12553.678    12507.369    13112.978    40.818886   -21.247052    -54.00184   -5266.3907 
 8341000    283.85933    -9027.449   -7945.2478    -9027.449            0    14061.167    25.019369    24.879855    22.656699    14103.302    11458.626    14454.808    16270.068   -744.07327   -161.93821     209.5741    -5053.116 
 8342000    284.23036   -8990.7611   -7907.1453   -8990.7611            0    11330.356     24.93178    24.861054    22.961504    14232.237    12204.594    10276.438    11510.035   -440.68054   -74.540465    613.93741   -5555.3875 
 8343000    284.77718   -8984.4559   -7898.7554   -8984.4559            0    11363.526    25.006949    24.889162    22.953059     14286.03    10044.405    12699.416    11346.758   -824.55654     -945.849    912.93543   -5531.1977 
 8344000    289.33017   -9022.3048   -7919.2463   -9022.3048            0     10974.18    24.875594    24.944327     22.95327    14242.617    10487.929    10223.575    12211.036    945.96545    803.40081    850.73608   -5639.7559 
 8345000    280.14131   -9052.2452   -7984.2187   -9052.2452            0     12331.98    24.871232    25.027294    22.759444    14166.835    12918.392    10975.508    13102.039   -297.47479    870.36686    -74.10693   -5436.3238 
 8346000    291.73847   -9021.1573   -7908.9173   -9021.1573            0     11130.24    24.684742    24.998541    23.096842    14252.658    12673.188    10766.157    9951.3756    623.99968    406.33175   -356.99233   -5595.3811 
 8347000    293.25009    -9005.524   -7887.5209    -9005.524            0    12072.929    24.831995    25.075762     22.80945    14203.015    12136.535    11945.762    12136.491    541.00246    353.67125    162.39025   -5386.7777 
 8348000      273.342   -9027.3897   -7985.2853   -9027.3897            0    10946.976    24.787936    24.963579     23.02068    14245.095    12939.564    10335.344    9566.0208    259.68358   -614.61062     325.8734   -5711.0499 
 8349000    291.57815    -9010.442   -7898.8131    -9010.442            0    11258.147    24.909624    24.979193    22.894508    14245.474    11511.369    11004.699    11258.372    432.25363   -71.097226    566.12099   -5559.8698 
 8350000    284.51395   -9049.7312   -7965.0343   -9049.7312            0    10563.927    24.840821    24.922212    23.042235    14265.176    11631.199    9696.0863    10364.495     263.6742    -334.7724    37.099961   -5767.2838 
 8351000    292.61015    -9038.609   -7923.0457    -9038.609            0    12785.687    24.903588    24.908152    22.828516    14160.582    12221.792    12830.683    13304.587   -142.85055   -775.08247    -739.2654   -5282.5767 
 8352000    289.26126   -8993.3606   -7890.5648   -8993.3606            0    12020.019     25.01471    24.896394     22.90459    14264.431    12119.855    11789.358    12150.845    363.20754    496.37539   -798.66243    -5390.015 
 8353000    293.12072   -9019.2144   -7901.7045   -9019.2144            0    11365.058    25.039262    24.799605    22.947441     14249.53    10114.527    12614.612    11366.034   -65.051527   -329.26284    -940.4598   -5539.8775 
 8354000    287.15539   -9027.7011   -7932.9338   -9027.7011            0    10447.866    24.984372    24.950551    22.907837    14280.147    10364.841    11081.552    9897.2037    90.862892  0.070186043   -2095.6054   -5757.0478 
 8355000    283.90458   -8992.8446   -7910.4709   -8992.8446            0     10894.37    24.861376    25.040485    22.952858    14289.093    10662.125    11535.877    10485.107    1471.8942    637.03009   -523.61535    -5640.174 
 8356000    285.88515   -9037.2587   -7947.3341   -9037.2587            0    12446.578    24.872718    24.900638    22.896189    14180.676    11717.268    12775.479    12846.986    219.78236    79.015435   -1181.8481   -5373.2498 
 8357000    290.36553   -9003.6275   -7896.6217   -9003.6275            0    13006.396    24.847969    24.928722    22.882373    14173.985    14374.868    12641.707    12002.611     631.7327   -159.24389   -537.41884   -5208.0302 
 8358000    288.33165   -9002.7601   -7903.5084   -9002.7601            0    13324.308    24.836311    24.896892    22.867164    14139.842    13809.155      12888.5    13275.267   -761.98865   -303.97029   -878.28771   -5155.8351 
 8359000    286.93057   -9025.7117   -7931.8015   -9025.7117            0    12225.614    24.839023    25.030403    22.829906    14194.055    13068.841    10686.831     12921.17    81.579991   -1110.9381   -36.377265   -5401.0293 
 8360000    282.87451   -9015.5293   -7937.0827   -9015.5293            0    11097.243    24.806619    24.892822    23.049756     14233.38    11121.598    11946.802    10223.329   -458.41559    532.56205     88.78684   -5633.5253 
 8361000    289.76798   -9024.7041   -7919.9765   -9024.7041            0    10400.469    25.030548    24.996855    22.798748    14264.834    9199.7426    11304.429    10697.236    350.62748    41.532788   -2251.4955   -5756.2839 
 8362000    285.35142   -8987.8407   -7899.9509   -8987.8407            0    11793.866    25.011024    24.782265    22.950549    14225.435    11655.666    12890.906    10835.027    269.37475    40.800013    667.85037   -5453.1556 
 8363000    287.88181   -9012.9541   -7915.4173   -9012.9541            0    11011.767    24.977549     24.85099    22.908178    14219.492    11340.249    10463.623     11231.43   -26.813842   -376.42575    1330.4676   -5631.8334 
 8364000    296.27849   -8983.1082   -7853.5595   -8983.1082            0    11286.495    24.969627    24.749558    23.076431    14260.939    10406.713    12849.931    10602.842   -655.99732    967.85674   -237.73927    -5506.181 
 8365000    293.11038   -8969.8165   -7852.3461   -8969.8165            0    12186.644    24.991201    24.862742    22.904253    14231.553    10673.845    13374.493    12511.594   -744.04838   -116.36065   -523.96046   -5322.9765 
 8366000    283.40547   -9007.0744   -7926.6035   -9007.0744            0    13130.333    24.836841    24.859614    22.911461    14146.322     13911.55    13415.011    12064.439   -1285.6561    169.27261   -608.43687   -5217.6898 
 8367000    274.24667   -9018.1111   -7972.5577   -9018.1111            0    12674.377    24.773679    25.040057    22.841264    14169.221    13349.618     11732.01    12941.503   -682.12448    364.94318    406.69689   -5353.4795 
 8368000    276.01428   -9032.2611   -7979.9688   -9032.2611            0    12139.225    24.827046    25.090794      22.7811    14191.037     12402.04    10470.661    13544.974   -1108.3632   -942.83913   -134.65768   -5467.6139 
 8369000    295.25993    -9047.801   -7922.1355    -9047.801            0    10939.943    24.750993    24.929048    23.046236    14219.959    12789.714    9720.8125    10309.303    67.733254    -3.467458    399.84619   -5653.3717 
 8370000    282.82759   -9008.2128    -7929.945   -9008.2128            0    11789.849    24.889241    24.966506     22.90037     14230.23    11249.265    12141.174    11979.107    259.89553   -282.85017    -1215.704   -5483.1587 
 8371000    274.51927   -8978.5302   -7931.9376   -8978.5302            0      11653.5    24.800558    25.060282    22.926434    14248.984    12374.575    10114.356     12471.57   -240.97475    414.19156    -1127.068   -5510.2607 
 8372000    278.88913    -8955.985   -7892.7324    -8955.985            0    10544.352    24.871687    25.107393    22.915641    14309.975    11944.625    9392.8771    10295.555     403.6773    174.81944   -40.630466   -5692.1651 
 8373000    295.40085   -9085.6636   -7959.4608   -9085.6636            0    10744.716    24.924047    24.986438    22.909741    14267.342    10132.155    11371.781    10730.211    586.54424   -259.85805    341.47196   -5723.7589 
 8374000    290.04086   -8984.7743   -7879.0063   -8984.7743            0    12443.914    24.709339    24.873286    23.149398    14227.676    13103.719    11803.395    12424.629   -207.91544   -1542.8146   -111.33491    -5296.943 
 8375000    292.36771   -8971.6553   -7857.0162   -8971.6553            0    12181.064    24.952416     24.95196    22.835584    14217.701    11125.757    12507.469    12909.967    -290.4278     -1112.04    2078.0536   -5331.2653 
 8376000     289.4962   -9021.1796    -7917.488   -9021.1796            0    11945.833    24.730102    25.062778    22.945892     14221.98     11053.32      11879.8     12904.38     71.47109   -458.48955    287.79307    -5439.767 
 8377000    291.61195   -8998.9532   -7887.1955   -8998.9532            0    12888.084    24.661944    24.993699    22.982509    14166.263    15281.543    12212.489    11170.221    574.79398   -81.628957    432.54209    -5224.512 
 8378000    290.77071   -9037.0468   -7928.4962   -9037.0468            0    12306.203     24.94117    24.950465     22.79227    14183.488    12106.922    11936.753    12874.936   -414.16704    411.78786   -70.139361    -5382.938 
 8379000    288.16029   -8993.8625   -7895.2641   -8993.8625            0    12266.792    24.749645    24.904792    23.067911    14218.709    14479.978    11564.892    10755.506    216.24263   -5.9325731    -538.6306   -5351.5573 
 8380000    284.08558   -9053.4971   -7970.4333   -9053.4971            0    11539.589    24.834834    25.067686    22.856848    14229.572    11351.218    11361.657    11905.893   -575.32461   -463.05468    260.49678   -5575.6948 
 8381000    275.65006   -8998.0231   -7947.1194   -8998.0231            0    12399.367    24.829699    24.930911    22.904986    14178.805    12671.416    12209.205    12317.481    604.94489    191.39991     605.8943   -5383.1369 
 8382000     288.8206   -9025.1644   -7924.0486   -9025.1644            0    10704.379    24.977071    24.910962    22.955468    14282.958    10212.891    10384.218    11516.028    674.43659   -202.92151   -769.62955   -5694.3019 
 8383000    278.60549   -8986.7742    -7924.603   -8986.7742            0     11188.42    24.957626    25.000912    22.850181    14257.677    10701.457      11187.1    11676.704    119.73413    849.91221   -566.44814   -5598.1545 
 8384000    279.80486   -9047.6929   -7980.9492   -9047.6929            0    10457.879    24.964993     24.86594    22.981893    14266.654    10012.578    10289.833    11071.228    278.64616   -1020.9232   -1265.8719   -5805.0356 
 8385000    276.26319   -9041.8703    -7988.629   -9041.8703            0    11338.749    24.970214     24.79745    22.957173    14215.027    10740.771    12948.091    10327.384   -1578.7212   -619.24914    365.19415    -5637.975 
 8386000    293.55201   -9034.8069   -7915.6528   -9034.8069            0    10502.465    25.072738    24.943459     22.81057    14265.749    8744.7316    11316.093    11446.571   -238.47738    229.13191    19.804298   -5730.6011 
 8387000    282.88429   -9033.5626   -7955.0787   -9033.5626            0    11044.851    24.920177     24.86125    22.963342    14226.864    10656.754    11515.343    10962.457    656.82018   -409.76504    136.74834   -5663.4464 
 8388000    294.77225   -9045.1113   -7921.3051   -9045.1113            0    10747.226    25.021354    24.796841    22.948016    14238.109    9751.6815    11816.037     10673.96   -390.65517    980.64059   -420.57469   -5689.6628 
 8389000    277.87798   -9021.4924   -7962.0948   -9021.4924            0    12261.737    24.894778    24.884139    22.898011    14184.977    13130.737    11253.842    12400.633    113.69858   -1541.7385    633.68935   -5425.4684 
 8390000    285.18167   -9003.4651   -7916.2225   -9003.4651            0    11527.052    24.866284    24.933326    22.961957    14236.394     12309.48    11758.111    10513.565    104.83961    413.79808    614.07152   -5522.9389 
 8391000    278.17215   -9018.8514   -7958.3323   -9018.8514            0    11298.436    24.940963    25.023064    22.775554    14214.208     11207.46    11302.426    11385.421    1462.7511    176.98288   -189.08406   -5616.1707 
 8392000     278.2895   -9014.9776   -7954.0111   -9014.9776            0    11324.012    24.772656    24.981392     23.01267    14241.516    12168.473    10827.269    10976.295   -75.066173    234.32199    305.76007   -5602.0375 
 8393000    293.04806   -9031.8553   -7914.6225   -9031.8553            0    12105.734    24.746977    25.073409    22.865237    14187.675    12069.443    11052.008    13195.751   -548.23979    275.99281    127.05179   -5409.7924 
 8394000     282.8432   -9005.2949   -7926.9677   -9005.2949            0    12556.953    24.887238    24.923174    22.866087    14183.124    11349.645    13014.073    13307.143    171.61515    23.858071   -1350.6648   -5329.6081 
 8395000    301.43124   -8981.6996   -7832.5063   -8981.6996            0    13500.061    24.909495    24.836144    22.895087    14164.179    12694.657     14607.84    13197.685    907.37572      290.672    229.03249   -5043.7984 
 8396000    292.79598   -9048.9279   -7932.6561   -9048.9279            0    10705.811    25.029367    24.915374    22.847453    14248.038    10450.321    10690.576    10976.536    488.38025   -363.97683      1682.08   -5708.0632 
 8397000    282.89774   -8994.8431   -7916.3079   -8994.8431            0    13191.223    24.999684    24.681727    23.005591    14195.263    11702.388    15164.027    12707.254   -796.74084   -231.96007    372.85596   -5185.4167 
 8398000    285.19686    -9047.138   -7959.8375    -9047.138            0    12705.565    24.940397     24.82261    22.873728    14160.799    12715.788    13422.586     11978.32    190.81749   -364.62021   -239.98997   -5335.8749 
 8399000    283.45217   -8979.3468   -7898.6979   -8979.3468            0    12559.823     24.97612     24.84425    22.889971    14203.524    11472.585    14078.092    12128.792   -233.02374   -30.008466    326.62243   -5297.0081 
 8400000    280.81508   -9001.4055   -7930.8104   -9001.4055            0    11833.251    25.045135    24.789833    22.822896    14169.931    10757.811    12715.553    12026.388    244.44188    335.15123    158.06097   -5485.4229 
 8401000    290.61095   -8999.3826   -7891.4411   -8999.3826            0    12944.768    24.811022    24.797174    23.022971    14164.727     13461.23    14305.903     11067.17   -101.21489    45.348985    -134.8506   -5217.3367 
 8402000    277.39368   -8994.1742    -7936.623   -8994.1742            0    12533.911    24.976967    24.885127    22.789855    14165.149    12111.201    12960.733    12529.799    1065.3897     63.32184    1388.4601   -5347.3155 
 8403000    282.86622   -8980.0404   -7901.6253   -8980.0404            0    12149.367    24.945594    24.934249    22.888094    14236.386    12093.811    11874.896    12479.393    -266.6277    -1399.753   -596.43697   -5379.1363 
 8404000    286.71379   -9049.9357    -7956.852   -9049.9357            0      12205.5     24.79555    24.819264    23.058336    14190.269    13515.743    12105.588     10995.17   -993.40579   -22.464556    535.30426   -5430.9173 
 8405000    285.76874   -9012.4067   -7922.9259   -9012.4067            0    12218.492    24.997818    24.940921     22.79999    14215.078    11412.535    12610.327    12632.613    406.10813    218.48781    423.28105   -5389.8819 
 8406000    283.45901   -9101.1003   -8020.4253   -9101.1003            0    12008.208    24.924735    24.697811    23.001197    14159.225    11342.565    13221.521    11460.539   -13.687108   -790.00181   -235.80074   -5540.7571 
 8407000    287.76477   -9032.7445    -7935.654   -9032.7445            0    11558.491    24.966946    24.879978    22.894719    14221.675    11564.419    10624.606    12486.448    334.92101   -1045.4926     989.2388   -5538.3243 
 8408000    290.62382   -9025.2148   -7917.2242   -9025.2148            0    12004.332    24.935579     25.02106    22.795263    14222.298    10821.996    12643.531    12547.469    349.75854   -950.26296   -447.86002   -5427.3142 
 8409000    291.35331   -8997.7178   -7886.9461   -8997.7178            0    11734.628    24.883712    24.745978    23.139273    14248.512    12049.066    13088.944    10065.873    494.12068   -154.13617    412.28994   -5448.4914 
 8410000    280.86708   -8995.7719   -7924.9785   -8995.7719            0    12734.854    24.954696    24.929178     22.79224    14179.053    13471.351    12371.815    12361.395    993.63688   -198.84929    46.622358    -5291.577 
 8411000    275.53939    -8997.342   -7946.8601    -8997.342            0    15120.538    24.835349    24.864532    22.790521    14073.588    14371.751    14979.768    16010.096    317.78402   -328.83682   -1081.5658   -4843.3872 
 8412000    283.60161   -9007.3546   -7926.1359   -9007.3546            0    12037.591    24.880002    24.886267    22.961388    14217.012    12473.213    11977.004    11662.557   -509.52516   -540.43766     386.9254   -5430.2553 
 8413000    285.81167   -8986.8747   -7897.2303   -8986.8747            0    11928.302    25.020511    25.001685    22.756478    14235.427    12672.156    10141.216    12971.534    239.66779   -720.57077   -1250.4485   -5420.8062 
 8414000    287.84839   -9039.8333    -7942.424   -9039.8333            0    11753.476    24.824146    24.831301    23.038393     14201.23     12880.41    11114.963    11265.055   -7.2647337    1177.8568   -1291.5923   -5508.1572 
 8415000     282.0026   -8994.2576   -7919.1351   -8994.2576            0    12482.341     24.95345    25.056686    22.735485    14215.379    11215.984    12017.808     14213.23   -52.841858    27.540154   -1092.0612    -5331.337 
 8416000    289.45229    -8978.356   -7874.8318    -8978.356            0    11790.638    24.830018     24.92272    23.010152    14239.409     11776.77     12526.83    11068.313    81.620141    277.93619    774.19712   -5426.3034 
 8417000    270.88742   -9029.5862   -7996.8398   -9029.5862            0    9976.7684    24.956921    25.048466    22.843211    14280.035    10635.169    9076.9247    10218.212     107.5249   -247.72135   -96.834963   -5919.0813 
 8418000    286.57899   -8960.8108    -7868.241   -8960.8108            0    12091.738    24.875566    24.979334    22.929933    14248.089      12384.5    11041.734    12848.981   -258.98923     878.0838   -956.57153   -5355.6532 
 8419000    284.73539   -9012.8019   -7927.2608   -9012.8019            0    11428.032    24.855503     24.93671    22.974591    14239.984    10930.237    11351.395    12002.464    -819.4472    1127.6311    855.79458   -5553.9378 
 8420000    292.03225   -9032.3371    -7918.977   -9032.3371            0    12985.291    24.880811    24.850312     22.88745    14151.217    12969.041    13296.161    12690.672   -550.38062    247.08937   -1879.8501   -5239.0599 
 8421000    285.89974   -9025.3454   -7935.3652   -9025.3454            0     11765.35    24.938722    24.867921    22.914164    14210.772    11433.852    13052.657    10809.541    82.338605    1936.2866   -761.88237   -5497.0019 
 8422000    282.43393   -9005.4505   -7928.6836   -9005.4505            0     11770.84    25.071675    24.710919    22.946425    14216.323    10994.535    12525.905     11792.08    576.57131   -740.42931    340.10306   -5488.2296 
 8423000    288.09676   -9016.9956   -7918.6394   -9016.9956            0    13684.633    24.999707    24.815635    22.800157    14144.843    11505.851    14369.578    15178.469   -1037.9516    731.46615   -45.051212   -5095.6635 
 8424000    282.54593   -9017.2104   -7940.0165   -9017.2104            0    13143.333    24.831331     24.84744    22.941692    14154.909    13793.435    12798.844    12837.721   -731.14971   -169.29873   -332.24293   -5226.7747 
 8425000    284.64104   -9018.5702   -7933.3888   -9018.5702            0    11848.366    24.827943     24.90168    22.918836    14169.742    11361.175    12888.472     11295.45   -637.79288   -695.08661    128.40842   -5484.9103 
 8426000    281.89038   -9009.0762   -7934.3815   -9009.0762            0    13681.352    24.899488    24.940024    22.710829    14103.285    13386.181     12931.71    14726.165    1506.8606    257.05296   -287.57839   -5120.3745 
 8427000    284.64476   -9003.9719   -7918.7763   -9003.9719            0    11172.759    24.830422     24.96919    22.974785    14244.263     10570.69    11499.233    11448.356    57.840796     703.5712     1046.535     -5597.77 
 8428000    279.59354      -8996.1   -7930.1619      -8996.1            0    11215.592    24.897448     24.98544    22.886789     14237.27    11505.959    10358.004    11782.812   -1051.7088    1008.6205   -321.12067   -5601.4016 
 8429000    286.06434   -9035.9989   -7945.3912   -9035.9989            0    9940.4479    24.968696     25.06469    22.827098    14285.942    10384.458    9035.2236    10401.662    -20.51962   -234.02356    -791.3652   -5874.3405 
 8430000     277.2498   -9011.1023   -7954.0996   -9011.1023            0    11392.936    24.927638    24.864507    22.984772     14246.27    12043.854    11899.307    10235.648   -762.06428    314.87994    272.47428   -5587.0207 
 8431000    289.62923    -9027.125   -7922.9263    -9027.125            0     11923.86    25.105779    24.835223     22.71525    14163.131    10807.664    11366.948    13596.969   -107.56457    419.89755    425.94805   -5459.9964 
 8432000    287.76695   -8972.5493   -7875.4505   -8972.5493            0    12640.661    24.922186    24.838691    22.971817    14220.346    12524.398    12229.692    13167.893    233.38743    303.89807    564.49643   -5253.9143 
 8433000    288.68252   -9014.0553   -7913.4659   -9014.0553            0    12913.989    24.955785    24.800062    22.875126     14157.53    11531.418    13140.689     14069.86   -436.18208   -270.17574    1844.3646   -5247.0751 
 8434000    288.26252    -8992.602   -7893.6138    -8992.602            0    13163.685    24.854975    24.860626    22.880433    14138.054    14198.947    13091.379    12200.729    197.58327     818.2444    562.80402   -5179.4066 
 8435000    290.46035   -8943.2493    -7835.882   -8943.2493            0     14841.84    24.913246    24.773398    22.831522     14091.29    13336.204    16310.099    14879.218    297.39538   -173.45706    259.05435   -4785.7798 
 8436000    295.35952   -8990.3532    -7864.308   -8990.3532            0    11687.912    25.010462     24.88457    22.886229    14243.807    10109.512     12920.82    12033.403   -362.57318   -466.05236    76.740174   -5436.3627 
 8437000    277.78407   -9047.4823   -7988.4427   -9047.4823            0    10697.442    24.836835    24.905478    23.040906    14252.488    11099.693    10623.762     10368.87    287.14763   -725.32734   -550.51837   -5764.8947 
 8438000    285.78675   -8963.4446   -7873.8952   -8963.4446            0    12482.206    24.922401    24.843217    22.942627    14204.987    10851.815    14226.046    12368.757   -5.2757396    82.053569    1591.8999   -5288.0169 
 8439000    270.26522   -9011.8907   -7981.5164   -9011.8907            0    12218.281    24.915524    24.927401    22.832223     14180.62    11852.642    12233.583    12568.618   -14.155748     955.9128    163.29135   -5454.6561 
 8440000    289.25766   -8965.4726   -7862.6905   -8965.4726            0    12431.773    24.970559    24.813865    22.965744    14229.944    11958.818    13116.562    12219.938    -524.8146   -446.55454    421.71047   -5282.7353 
 8441000    285.64612   -9006.8807   -7917.8674   -9006.8807            0    10585.807    24.916996    25.013274    22.915986    14282.517    10371.147    10695.391    10690.884    -489.1074   -1360.7024     251.9851   -5712.8874 
 8442000    295.93295   -9012.2434    -7884.012   -9012.2434            0    11662.893    24.823603    25.077634    22.866101    14234.542    14169.468     9731.984    11087.225    -799.2853    582.69291   -226.69975   -5462.8399 
 8443000    276.80662   -8977.4417   -7922.1286   -8977.4417            0    13117.742     24.89001    24.959187    22.838512    14188.069     12507.34    13214.183    13631.703     70.27543    516.62798     98.40878    -5207.826 
 8444000    280.84269   -8999.4953   -7928.7949   -8999.4953            0    11775.514    24.958297    24.710493    23.101264    14247.285    10938.523    12847.174    11540.846     755.7385   -412.82114    809.12383   -5482.0545 
 8445000    283.54605   -9000.8442   -7919.8374   -9000.8442            0    11922.435    24.950412    24.907243    22.864527    14209.069     10742.52    13908.283    11116.501    -359.1062    -484.8074    916.58798   -5449.2145 
 8446000    287.46621   -8983.3324   -7887.3801   -8983.3324            0    13743.648    24.761192    24.872291    22.925755    14119.229    14951.932    13852.578    12426.436   -111.11337   -210.45978    471.54004   -5057.3639 
 8447000    286.18278   -9001.1118   -7910.0526   -9001.1118            0    12073.441    24.838234    24.986536    22.890528    14206.352    10792.211    12468.361    12959.751   -906.31814   -1737.3711   -675.73009   -5408.6158 
 8448000    298.67526   -9028.1419   -7889.4556   -9028.1419            0    12736.369    24.889582    25.040829     22.71945    14160.029    13812.756    11277.186    13119.164    674.83801    479.79587   -129.46078   -5259.2745 
 8449000    283.88239   -8964.4175   -7882.1283   -8964.4175            0    12699.902    24.811474    24.907221    22.976395    14199.065     13376.17    12471.509    12252.026      183.318   -628.89407    45.226428   -5252.2479 
 8450000    285.72818   -8994.4542   -7905.1281   -8994.4542            0    13028.149     24.89853    24.972546     22.75767    14150.257    13447.646    11954.563    13682.237   -914.84967    37.235739    733.17719   -5216.5484 
 8451000    290.20299   -8969.8674   -7863.4812   -8969.8674            0    14264.604    24.836469    24.877846    22.894696    14146.125    14204.986    14187.167     14401.66    91.029054   -679.99426   -50.863765   -4920.5974 
 8452000     285.1767   -9002.8398   -7915.6162   -9002.8398            0    14103.917    24.787846    24.756814    22.992947    14110.038    14297.439    15350.719    12663.592   -165.51478   -1824.1646   -51.695458   -5013.3062 
 8453000    279.99211   -9038.4897   -7971.0321   -9038.4897            0    12434.278    24.886625    25.029149    22.741375    14165.399    13219.689    11418.834    12664.312   -446.37972    95.486285   -442.06003   -5402.2617 
 8454000    291.76999   -9007.5698   -7895.2096   -9007.5698            0    11545.504    24.761941    24.932809     23.02634    14216.111    13172.717     11201.64    10262.156   -104.84264    386.21979    744.53488   -5501.5102 
 8455000    286.56172   -9053.3139   -7960.8099   -9053.3139            0    10395.054      24.9189    25.007287    22.896005    14267.739    10852.969    9390.0251    10942.167   -493.15624   -590.16486    203.32651   -5797.8036 
 8456000    275.09792   -9072.3793   -8023.5805   -9072.3793            0    10666.761    24.911478    24.853376    22.950745    14209.594    9961.3654    11541.457    10497.461   -447.64667    70.307518    452.20691   -5813.0824 
 8457000    279.50898   -8972.1154   -7906.4997   -8972.1154            0    13383.057    24.904245    24.869335    22.862639    14160.022     13404.54     12574.95    14169.681   -70.482933    33.421829   -306.78584   -5142.7727 
 8458000    281.84928   -8986.2413   -7911.7033   -8986.2413            0    12900.156      24.9105    24.907355    22.826192    14162.617    13491.274    12182.889    13026.304   -399.39864   -305.50218    180.92822   -5247.2116 
 8459000    284.21826   -8962.7144   -7879.1448   -8962.7144            0    11534.997    24.801593    24.860392    23.112855    14250.862    11208.913    12138.853    11257.223    -625.7047    613.16917   -22.208326   -5481.7779 
 8460000    282.76409   -8983.6939   -7905.6682   -8983.6939            0    11984.307    24.914912    25.060087    22.815869    14245.541    12603.555     10314.61    13034.755   -457.80973   -980.18889   -44.713486   -5415.8493 
 8461000    296.14282   -9020.8207   -7891.7892   -9020.8207            0    12022.661     24.84626    24.931675    22.938017    14209.159    12592.772    11673.682     11801.53   -484.57711   -268.54029    885.23917   -5400.3812 
 8462000    287.97253   -9034.6218   -7936.7392   -9034.6218            0    11979.358    24.861031    24.858805    23.003048    14216.241    12266.081    12344.545    11327.449   -1224.3155    753.12776   -1199.8866   -5453.0673 
 8463000    278.68228   -9000.1421   -7937.6782   -9000.1421            0    11890.487    24.963857    24.921962    22.849433    14215.736    11833.602    11526.315    12311.543    403.85796    -286.9239    -299.7321   -5472.5196 
 8464000    278.03466   -8966.3963   -7906.4013   -8966.3963            0    11884.039     25.12504    24.755745    22.877903    14229.806    9811.4847    13793.366    12047.265    656.73509   -1173.1953    483.56381    -5440.141 
 8465000     280.2058   -9002.8061   -7934.5338   -9002.8061            0    12206.043    24.913905    24.839598    22.964716    14211.746    12229.057    12166.306    12222.765    185.75039   -1212.2897    -262.2537   -5404.6637 
 8466000    279.56494   -9035.0876   -7969.2585   -9035.0876            0    10992.899    24.880617    24.874655    22.976289    14219.951    11832.302     10883.02    10263.375    26.728915    230.11553    805.44812   -5689.5137 
 8467000    287.05445   -8978.5945    -7884.212   -8978.5945            0    12473.637    24.974345    24.972765    22.763812    14197.299    12007.536    11905.192    13508.181   -108.09576    620.19526    1270.1959   -5301.5076 
 8468000    280.91163   -8990.5878   -7919.6246   -8990.5878            0     11804.56    24.882625    24.907042    22.942453    14218.645     10666.49     11490.18    13257.011    -1154.425   -382.75848   -80.534787   -5471.7796 
 8469000     284.1871   -9048.1779   -7964.7271   -9048.1779            0    11781.937     24.89855    24.810701    22.980035    14195.928    10863.703    12893.887     11588.22    35.001764    777.89795   -275.28296   -5525.4769 
 8470000    283.57561   -9006.5832   -7925.4637   -9006.5832            0     11617.52    25.048723    24.743983    22.994137    14251.885    9917.7286    12795.894    12138.938    577.55605   -668.35664    405.92799   -5510.7722 
 8471000    280.88034   -9000.2429    -7929.399   -9000.2429            0    12557.992    24.904696    24.929781    22.868488    14198.326    12760.505    12070.663    12842.807    1564.5798    115.26471    341.46316   -5329.0405 
 8472000    283.79205   -9013.0165   -7931.0718   -9013.0165            0    14438.204    24.835119    24.706538    22.973011    14096.006    14671.252    14654.771    13988.588   -236.14696    560.46983    952.77787   -4962.9268 
 8473000    276.43554   -8975.2273   -7921.3289   -8975.2273            0    13185.694     24.91769    24.899136    22.803921    14148.213      14580.3    12424.071    12552.711   -30.930892    432.37318   -686.64084   -5200.6302 
 8474000    298.21225   -8973.4567   -7836.5356   -8973.4567            0    13566.408    24.833958    24.893688    22.861292    14133.052    13787.799    14436.552    12474.872   -545.23608    945.85383   -371.64649   -5040.2811 
 8475000    287.69029   -9031.2777   -7934.4711   -9031.2777            0    12060.201    24.874099    25.027246    22.782783    14182.971    12050.158    10960.901    13169.543    55.426053    -334.2667      252.362     -5439.89 
 8476000    280.28058   -8974.7629   -7906.2055   -8974.7629            0    13741.086    24.766043    24.811597    23.004207    14135.741    13586.673    14290.209    13346.377    882.76503   -12.859227     361.3345   -5073.4079 
 8477000     283.0156   -8967.7764   -7888.7919   -8967.7764            0    11548.165    25.001634    25.019363    22.766625    14241.093    10998.799    10832.075    12813.619   -672.16467    871.99291    553.61828   -5490.3336 
 8478000    289.36778   -8994.0321   -7890.8302   -8994.0321            0    11543.619    24.827237    24.955815    22.986465    14242.044    12207.011    11369.308    11054.539   -23.267971    424.07456    -970.4711   -5493.1557 
 8479000    285.74794    -9012.943   -7923.5415    -9012.943            0    12945.533    24.863755    24.932036    22.870666    14177.618    13202.652    12063.978    13569.969   -107.92141    1072.8521   -261.76312   -5246.8451 
 8480000    284.54944   -8989.1037   -7904.2715   -8989.1037            0    11207.557    24.939202    24.941852    22.899524    14244.188     11585.29     10792.72     11244.66    -378.7093   -130.08006   -553.30061   -5576.0486 
 8481000     288.2426   -8978.4255   -7879.5132   -8978.4255            0    10003.181    24.953889    24.943052     23.03771    14339.273    11133.056     9396.137    9480.3502    191.18961    861.06717    -1259.558   -5787.6121 
 8482000    280.64853   -8979.4816   -7909.5214   -8979.4816            0    9916.2539    24.952825    25.062388    22.886046    14312.415    10226.379    9880.9633     9641.419    186.64371   -658.01978    971.65943   -5839.6829 
 8483000    289.01344    -8986.709    -7884.858    -8986.709            0    11486.375    24.931925    24.927672      22.9494    14262.935    11533.014    12950.462    9975.6482   -115.80714   -991.84786   -788.99687    -5495.574 
 8484000    298.61916   -9047.6614    -7909.189   -9047.6614            0    10885.194    24.879408    24.937207    23.000942    14270.312    11635.716    10919.236    10100.632   -766.78674    147.07283     212.9603   -5643.7856 
 8485000     283.5265   -9042.6396   -7961.7073   -9042.6396            0    11103.901    24.951419    25.009741    22.796354    14225.575    11612.267    10061.286    11638.151   -1461.1096   -636.31748    665.99475   -5658.0318 
 8486000    290.63877   -8996.4361   -7888.3886   -8996.4361            0    13582.893    24.827295    24.820378    22.955009    14145.401    14366.003    13204.455    13178.221    569.83032   -1147.5163    698.54709   -5086.2899 
 8487000    281.21291   -9004.7867   -7932.6748   -9004.7867            0    11810.349    24.987031    24.855898    22.879061    14209.615    11749.281    12388.206    11293.559   -865.72663    94.114925      86.4774   -5485.1848 
 8488000    288.35399   -8960.8171   -7861.4802   -8960.8171            0    10868.686    24.993414    24.853369    23.007662    14291.682     11135.33    12251.101    9219.6276   -955.09965    254.26375   -130.18778   -5596.1251 
 8489000    284.89001   -8991.6394   -7905.5088   -8991.6394            0     12132.21    25.138357    24.887084    22.725978    14217.836    10711.036    12327.074    13358.519    -1211.906    428.87658   -632.71372   -5389.8642 
 8490000    294.59424   -8996.9022   -7873.7746   -8996.9022            0    12120.872    24.976319    24.787658    22.995808    14236.807    12060.101    12452.846    11849.668     31.50366   -99.296199    579.33916   -5357.1274 
 8491000    288.85474   -9004.9646   -7903.7186   -9004.9646            0    11983.629     24.98879    24.924653    22.800889    14201.235    10793.244    11826.053     13331.59   -76.164232    106.06725    1379.7229   -5421.7837 
 8492000    295.80833    -9014.545   -7886.7887    -9014.545            0    11981.241    24.891196    24.899975    22.923756    14207.918    10722.277    13778.102    11443.344   -255.69082   -435.12241   -755.56262   -5404.1808 
 8493000    288.69626   -9025.4337   -7924.7919   -9025.4337            0    12427.022    24.872804    24.960848    22.840231    14180.273    12724.886    11874.873    12681.306   -293.44582    631.92628   -1009.5005   -5354.8251 
 8494000    272.13469   -8982.9141   -7945.4126   -8982.9141            0    11648.501    24.855898    24.965141    22.923603    14224.806    11460.799    11842.438    11642.266   -681.03127    87.414012    1537.3794   -5528.8821 
 8495000     292.7894   -9007.7403   -7891.4936   -9007.7403            0    11935.891    24.958704    25.021346     22.74379    14203.505    11471.824    11017.727    13318.121   -242.19521   -45.699684   -1371.3397   -5419.0507 
 8496000    281.74797   -9000.2661   -7926.1143   -9000.2661            0    12648.795    24.895033    24.902726    22.900301    14197.138    12707.347    12840.961    12398.075    171.28125    1057.9024   -87.330564   -5307.1727 
 8497000    297.39851   -8995.7367   -7861.9179   -8995.7367            0    11345.529    24.953161    24.877144    22.895396    14212.623    10844.501    11638.865     11553.22    712.64912   -479.91908   -229.42858   -5510.2562 
 8498000    280.10516    -9032.215   -7964.3264    -9032.215            0    11416.852    24.879029    24.959415    22.895202    14217.142    11666.292    10575.566    12008.697    265.21073   -72.629453    157.17357   -5597.1285 
 8499000    274.17938   -9036.3798    -7991.083   -9036.3798            0    11056.708    24.817185    25.028409    22.898383     14222.98    10488.442     12091.44    10590.242   -187.43492   -414.66644     618.5754    -5697.617 
 8500000    289.10577   -8976.2698   -7874.0668   -8976.2698            0     11346.13    24.843543    25.014487    22.936985    14254.155    12416.533    11096.654    10525.203    498.01904    -939.1524    687.63767    -5515.408 
Loop time of 570.631 on 64 procs for 250000 steps with 1920 atoms

Performance: 75.706 ns/day, 0.317 hours/ns, 438.111 timesteps/s
99.2% CPU use with 64 MPI tasks x 1 OpenMP threads

MPI task timing breakdown:
Section |  min time  |  avg time  |  max time  |%varavg| %total
---------------------------------------------------------------
Pair    | 63.825     | 66.361     | 68.111     |  13.1 | 11.63
Bond    | 0.27608    | 0.28306    | 0.29403    |   0.7 |  0.05
Kspace  | 242.9      | 251.93     | 261.34     |  28.8 | 44.15
Neigh   | 7.5271     | 8.5027     | 9.567      |  18.8 |  1.49
Comm    | 100.68     | 113.7      | 126.44     |  53.4 | 19.93
Output  | 1.3166     | 1.3181     | 1.3209     |   0.0 |  0.23
Modify  | 115.94     | 121.45     | 127.76     |  25.2 | 21.28
Other   |            | 7.08       |            |       |  1.24

Nlocal:        30.0000 ave          35 max          27 min
Histogram: 2 7 14 20 0 13 6 0 1 1
Nghost:        2823.50 ave        2851 max        2799 min
Histogram: 3 8 7 6 11 9 9 4 3 4
Neighs:        10660.6 ave       12439 max        9296 min
Histogram: 1 4 14 7 17 11 5 3 1 1

Total # of neighbors = 682277
Ave neighs/atom = 355.35260
Ave special neighs/atom = 2.0000000
Neighbor list builds = 13999
Dangerous builds = 0

unfix		3
unfix		2
unfix		1

write_data	data.final.${pid}
write_data	data.final.0
System init for write_data ...
PPPM initialization ...
  extracting TIP4P info from pair style
  using 12-bit tables for long-range coulomb (../kspace.cpp:340)
  G vector (1/distance) = 0.37450227
  grid = 30 30 30
  stencil order = 5
  estimated absolute RMS force accuracy = 0.0032667003
  estimated relative force accuracy = 9.8375708e-06
  using double precision FFTW3
  3d grid and FFT values/proc = 3600 512
Last active /omp style is kspace_style pppm/tip4p/omp
WARNING: Not all mixed pair coeffs generated from mixing. Use write_data with 'pair ij' option to store all pair coeffs. (../write_data.cpp:312)

write_restart   restart.lmp.${pid}
write_restart   restart.lmp.0
System init for write_restart ...
PPPM initialization ...
  extracting TIP4P info from pair style
  using 12-bit tables for long-range coulomb (../kspace.cpp:340)
  G vector (1/distance) = 0.37450227
  grid = 30 30 30
  stencil order = 5
  estimated absolute RMS force accuracy = 0.0032667003
  estimated relative force accuracy = 9.8375708e-06
  using double precision FFTW3
  3d grid and FFT values/proc = 3600 512
Last active /omp style is kspace_style pppm/tip4p/omp
Total wall time: 0:09:32
