#include		in.partitions
include		in.temp
variable        temperature equal 92.72
variable	tempDamp equal 100.0
include		in.pressure
variable        pressure equal 2057.9
variable        pressureDamp equal 1000.0 # This is 1 ps
include		in.seed
variable        seed equal 745823

units		real
atom_style	full

read_restart	restart.lmp.${pid}
read_restart	restart.lmp.1
Reading restart file ...
  restart file = 30 Jul 2021, LAMMPS = 30 Jul 2021
  restoring atom style full from restart
  orthogonal box = (0.025696301 0.0076928511 -0.015344166) to (19.974305 19.992308 20.715342)
  2 by 4 by 4 MPI processor grid
  restoring pair style lj/cut/tip4p/long/omp from restart
  restoring bond style harmonic/omp from restart
  restoring angle style harmonic/omp from restart
  972 atoms
  648 bonds
  324 angles
Finding 1-2 1-3 1-4 neighbors ...
  special bond factors lj:    0        0        0       
  special bond factors coul:  0        0        0       
     2 = max # of 1-2 neighbors
     1 = max # of 1-3 neighbors
     1 = max # of 1-4 neighbors
     2 = max # of special neighbors
  special bonds CPU = 0.003 seconds
  read_restart CPU = 0.009 seconds
include 	in.setup
variable	out_freq equal 1000
variable	out_freq2 equal 10000
variable	out_freq3 equal 1000

timestep	2.0

neigh_modify    delay 7 every 1

include		in.tip4p
# This is TIP4P/Ice

# create groups ###
group ox type 2
324 atoms in group ox
group hy type 1
648 atoms in group hy

# set charges - beside manually ###
set group ox charge -1.1794
Setting atom values ...
  324 settings made for charge
set group hy charge 0.5897
Setting atom values ...
  648 settings made for charge

# ### TIP3P Potential Parameters ###
pair_style lj/cut/tip4p/long/omp 2 1 1 1 0.1577 8.5
pair_coeff 1 1*2 0.000 0.000
pair_coeff 2 2 0.21084 3.1668
bond_style  harmonic
bond_coeff  1 450 0.9572
angle_style harmonic
angle_coeff 1 55 104.52
kspace_style pppm/tip4p/omp 1.0e-5
pair_modify tail yes

thermo          ${out_freq}
thermo          1000
thermo_style    custom step temp pe etotal epair emol press lx ly lz vol pxx pyy pzz pxy pxz pyz enthalpy

restart 	${out_freq3} restart.lmp.${pid} restart2.lmp.${pid}
restart 	1000 restart.lmp.${pid} restart2.lmp.${pid}
restart 	1000 restart.lmp.1 restart2.lmp.${pid}
restart 	1000 restart.lmp.1 restart2.lmp.1


include         in.dump
dump            myDump all atom ${out_freq2} dump.water.${pid}
dump            myDump all atom 10000 dump.water.${pid}
dump            myDump all atom 10000 dump.water.1
dump            myDump2 all dcd ${out_freq2} dump.dcd
dump            myDump2 all dcd 10000 dump.dcd
dump_modify     myDump append yes
dump_modify     myDump2 append yes


variable natoms 	equal  "count(all)"                        # NUMBER ATOMS
variable H      	equal  "enthalpy/v_natoms"                 # ENTHALPY-per-atom
variable Vol      	equal  "vol/v_natoms"                 # volume-per-atom
fix AVG all 		ave/time ${out_freq} 1 ${out_freq} v_Vol v_H file vol_enthalpy.dat
fix AVG all 		ave/time 1000 1 ${out_freq} v_Vol v_H file vol_enthalpy.dat
fix AVG all 		ave/time 1000 1 1000 v_Vol v_H file vol_enthalpy.dat


timer           timeout 02:55:00 every 1000
New timer settings: style=normal  mode=nosync  timeout=02:55:00

fix 		1 all shake 1e-6 200 0 b 1 a 1
       0 = # of size 2 clusters
       0 = # of size 3 clusters
       0 = # of size 4 clusters
     324 = # of frozen angles
  find clusters CPU = 0.001 seconds
fix             2 all nph aniso ${pressure} ${pressure} ${pressureDamp}
fix             2 all nph aniso 2057.9 ${pressure} ${pressureDamp}
fix             2 all nph aniso 2057.9 2057.9 ${pressureDamp}
fix             2 all nph aniso 2057.9 2057.9 1000
fix             3 all temp/csvr ${temperature} ${temperature} ${tempDamp} ${seed}
fix             3 all temp/csvr 92.72 ${temperature} ${tempDamp} ${seed}
fix             3 all temp/csvr 92.72 92.72 ${tempDamp} ${seed}
fix             3 all temp/csvr 92.72 92.72 100 ${seed}
fix             3 all temp/csvr 92.72 92.72 100 745823


run             250000
PPPM initialization ...
  extracting TIP4P info from pair style
  using 12-bit tables for long-range coulomb (../kspace.cpp:340)
  G vector (1/distance) = 0.37257447
  grid = 24 24 25
  stencil order = 5
  estimated absolute RMS force accuracy = 0.0033876241
  estimated relative force accuracy = 1.0201729e-05
  using double precision FFTW3
  3d grid and FFT values/proc = 3458 576
Last active /omp style is kspace_style pppm/tip4p/omp
Neighbor list info ...
  update every 1 steps, delay 7 steps, check yes
  max neighbors/atom: 2000, page size: 100000
  master list distance cutoff = 10.8154
  ghost atom cutoff = 10.8154
  binsize = 5.4077, bins = 4 4 4
  1 neighbor lists, perpetual/occasional/extra = 1 0 0
  (1) pair lj/cut/tip4p/long/omp, perpetual
      attributes: half, newton on, omp
      pair build: half/bin/newton/omp
      stencil: half/bin/3d
      bin: standard
Per MPI rank memory allocation (min/avg/max) = 10.19 | 10.20 | 10.21 Mbytes
Step Temp PotEng TotEng E_pair E_mol Press Lx Ly Lz Volume Pxx Pyy Pzz Pxy Pxz Pyz Enthalpy 
32250000    93.571344   -5055.7205   -4875.2603   -5055.7205            0    2211.6156    19.948608    19.984615    20.730686    8264.6046    2732.9278    1905.3012    1996.6179   -351.01984     540.5457   -527.83239   -4608.6925 
32251000    87.596791   -5060.9554   -4892.0176   -5060.9554            0    3254.5779     19.91762    19.955251    20.681958    8220.2741    2818.2152    3442.2651    3503.2536   -240.82107    1093.3315    142.20864   -4501.8449 
32252000    94.629332   -5069.9404   -4887.4397   -5069.9404            0    1327.4202    19.996584    19.836486    20.912777    8295.3031    2793.7845    1124.9267    63.549433    68.623499   -55.310664   -402.35501   -4726.8505 
32253000    88.961081   -5063.7973   -4892.2284   -5063.7973            0    829.16091    20.051103    19.920999    20.716122    8274.8066    180.71459    1443.6254    863.14271   -87.202297   -493.54461   -15.231424   -4792.1656 
32254000    88.403554    -5070.979   -4900.4853    -5070.979            0    2187.9795    19.994464    19.825633    20.790871    8241.5617    2614.4303    2512.4203    1437.0878   -379.62676    223.22197    391.83864   -4637.5017 
32255000    96.209741   -5074.8368   -4889.2882   -5074.8368            0    1315.6253    19.930711    19.910359    20.907048    8296.4936    1314.0834    1665.3082     967.4842   -543.73927    171.27658   -383.40082   -4730.1031 
32256000     92.59524    -5059.409   -4880.8313    -5059.409            0    2192.5059    20.012825    19.855904    20.776135    8255.8693     1613.757    2520.8969    2442.8638   -230.44399    501.47953    193.78802   -4616.8462 
32257000    91.601832    -5066.725   -4890.0632    -5066.725            0    1934.2871    20.064686    19.956079    20.742906    8305.7182    618.51743    3097.7261    2086.6178    50.914892    446.25314    505.02511   -4655.7623 
32258000    94.111861   -5067.5786    -4886.076   -5067.5786            0    2405.7556    19.848213    19.943013    20.940107    8288.7894    3620.8616    2015.5711    1580.8342    303.90183    227.38124   -15.211449   -4595.2598 
32259000    99.388783   -5071.5262   -4879.8465   -5071.5262            0    1526.4484    20.103902    19.862297    20.774439    8295.4345    458.90415    2334.3136    1786.1275   -223.55018    317.41133    649.42392   -4695.1762 
32260000      92.3344   -5059.9335   -4881.8588   -5059.9335            0    2128.8949    19.826983    20.062883    20.705704    8236.4482    1967.5757    2935.7475    1483.3616   -113.99871   -438.95515   -220.99705   -4626.1357 
32261000     93.18863   -5072.0684   -4892.3463   -5072.0684            0    927.32633     19.99021    20.015404    20.878928    8353.9122    943.59583    980.54734    857.83581   -26.152822    1272.8566   -327.62371   -4779.3671 
32262000    94.177435   -5053.2146   -4871.5855   -5053.2146            0      1590.85    19.930175    19.962408    20.890751     8311.475    1994.3099    719.37815     2058.862     135.3876    118.77335    93.312497   -4678.7517 
32263000    96.277132    -5060.369   -4874.6904    -5060.369            0    1996.6276    19.949712    19.942464    20.818686    8282.6394    2413.6375    2216.0666    1360.1786    12.972431    157.06759   -289.74535   -4633.5102 
32264000    90.234866   -5064.3269   -4890.3013   -5064.3269            0    2603.1952    19.816241    19.849692    20.900118    8220.9837    3843.5173    2422.9024    1543.1659   -301.37274   -264.58635    1313.2536   -4578.1923 
32265000    93.660886   -5070.3591   -4889.7262   -5070.3591            0    1816.6668    19.913448    19.995554    20.757696     8265.308    2498.0318    1239.9663    1712.0024   -99.678065    177.60634    715.33878   -4670.7433 
32266000    88.552799   -5059.4099   -4888.6283   -5059.4099            0    1589.2368     20.13168     19.90104    20.666224    8279.7444    417.46209    2372.0956    1978.1528    138.50221    341.97563    35.746183   -4696.7255 
32267000    91.640336   -5063.5812   -4886.8451   -5063.5812            0    2327.3369     19.84376    19.988549    20.747713    8229.5379    2851.7101    2169.5924    1960.7081    -32.09647    27.224715    817.82108   -4607.5196 
32268000    90.921975   -5073.1471   -4897.7964   -5073.1471            0    2383.7004    19.970438    19.983813    20.693107    8258.3188    1989.7078    2104.4027    3056.9907   -746.53105    182.00948   -144.34995   -4610.7057 
32269000    92.119336   -5069.9638   -4892.3039   -5069.9638            0    1507.2146    19.967872    19.949058    20.748212    8264.8476     1435.963    1594.0222    1491.6585   -285.19738     1068.267    322.16924   -4710.6328 
32270000    93.849216    -5067.355   -4886.3589    -5067.355            0    2663.8231    19.858156    19.961323    20.677904    8196.6187    3595.8711    2122.4608    2273.1373   -228.41645     591.7963    -50.70379   -4567.9274 
32271000    90.577056   -5072.4918   -4897.8063   -5072.4918            0    2574.2283    20.040463    19.839253    20.781045    8262.2903    2154.8366    2646.6098    2921.2386   -291.78472    659.63443    257.59924   -4587.6194 
32272000     91.79525   -5063.4841   -4886.4492   -5063.4841            0    1461.7311    20.070085    19.969864    20.690856    8292.8301     1014.992    1756.2621    1613.9394   -45.275584   -728.50595   -461.19031   -4709.6639 
32273000    90.345085   -5069.1563   -4894.9182   -5069.1563            0    1856.6859    19.904416    19.994901    20.730197    8250.3455    1787.4014    1346.7315    2435.9248   -200.73146     563.2282    60.218467   -4671.5165 
32274000    96.061744   -5055.0778   -4869.8147   -5055.0778            0    2607.6815    19.876684     20.01882    20.739527    8252.4191    3724.5813    1261.7411     2836.722   -130.75429   -232.79341   -35.063291   -4555.9722 
32275000    96.945179   -5066.5865   -4879.6196   -5066.5865            0    1788.6708    19.997615    19.996776    20.737612    8292.7188    1989.8769    1657.4074    1718.7281   -614.94644    1280.8197    512.13218   -4663.2963 
32276000    94.091533   -5057.4609   -4875.9974   -5057.4609            0    3002.4745    19.963025    19.933214     20.62715    8208.1052    1833.9246    4252.0099    2921.4891    104.85057    746.06281    177.99967   -4516.5808 
32277000     94.25105   -5058.5398   -4876.7688   -5058.5398            0    2952.6205    19.931046    19.992864    20.696705    8247.1959    2590.1779    3183.3643    3084.3194    139.69412     1165.559   -956.49661   -4521.6367 
32278000    92.537703   -5072.7295   -4894.2628   -5072.7295            0    1482.3703    19.965981    19.973528    20.719359    8262.6957    1319.3952     1699.095    1428.6208    186.75104    421.24737    155.91541   -4715.6328 
32279000    95.538802   -5069.8321   -4885.5775   -5069.8321            0    1082.0901    19.899721    20.114145    20.648039     8264.705    1197.8818    368.12969    1680.2588    271.32024    690.77065    275.45472   -4755.1507 
32280000    87.340564   -5047.7125   -4879.2688   -5047.7125            0    2066.7958    20.034263    19.990712    20.558279    8233.5739     972.8859     3059.082    2168.4196   -408.24254   -74.489855    508.28695   -4631.0917 
32281000    94.477153   -5057.9643   -4875.7571   -5057.9643            0     2438.967    19.958732    19.995748    20.621189     8229.706    1490.4124    3283.4979    2542.9907   -537.54624    395.89834   -9.9341687   -4583.0279 
32282000     94.58548    -5067.981   -4885.5649    -5067.981            0    1869.4992    19.986462    19.922016    20.803716     8283.429    1713.4624    2780.5317    1114.5036    51.934705    126.26683   -454.83038   -4659.7195 
32283000    92.528018   -5063.9971    -4885.549   -5063.9971            0    2278.7025    19.787265     20.02792    20.931218    8294.9953    3129.8672    681.42275    3024.8177   -378.68698    231.73592    70.787917   -4609.8853 
32284000    93.443924   -5074.4452   -4894.2307   -5074.4452            0    1545.9104    19.909854    19.917311    20.819775    8256.0973    649.73809    2325.0312    1662.9619    301.29344    1002.0821   -192.74279   -4708.0927 
32285000    88.364102   -5075.5596    -4905.142   -5075.5596            0    2899.1684     19.92515    19.848999    20.888855    8261.4225    2796.6624    3270.3612    2630.4816   -283.17974    517.41043   -756.74329   -4555.8375 
32286000    92.064185   -5077.8184   -4900.2649   -5077.8184            0    1946.2493    19.935174    19.967369    20.832512    8292.4439    1520.7888    2734.7694    1583.1896    172.76568    55.454808    507.17931   -4664.8918 
32287000    95.737482   -5075.3359   -4890.6981   -5075.3359            0    1704.3456    19.906118    19.943866    20.847204    8276.4432    3054.5212    784.97688    1273.5389   -53.242911   -831.25668    42.992863   -4684.9778 
32288000     94.33377   -5062.4922   -4880.5616   -5062.4922            0     2489.409    20.030689    19.839672    20.729938    8238.1247    1837.6464     2786.993    2843.5875   -33.650813    -536.5293   -112.94851   -4581.4726 
32289000     94.38903   -5077.7089   -4895.6718   -5077.7089            0    2510.8893    19.900608    20.026146    20.672357    8238.6057    2620.8791    2412.9404    2498.8483   -103.40466    206.43916   -324.52634   -4593.9844 
32290000    88.018541   -5058.8436   -4889.0925   -5058.8436            0     2468.835    19.849788    19.958175    20.752025    8221.2371    4204.5632    1248.3826    1953.5591   -23.678907    202.14087   -667.07387   -4593.0833 
32291000    91.793803   -5065.3884   -4888.3563   -5065.3884            0     1859.439    19.984888     20.03392     20.70198    8288.5683    1728.3407    1701.0202    2148.9561    41.475932    577.88524     799.5994   -4663.5868 
32292000    92.066588   -5070.8533   -4893.2952   -5070.8533            0    1914.6016    20.017299    19.932707    20.735732    8273.5355    2577.5223    1031.5517     2134.731   -314.27036   -481.14577    802.35414   -4662.2774 
32293000    97.403308   -5068.9996   -4881.1491   -5068.9996            0    2609.9251    19.981334    19.908244    20.759523    8257.9984    1853.8646    3637.8248     2338.086   -304.54479    157.39721    -49.68976   -4566.8242 
32294000    90.106223   -5073.4927   -4899.7153   -5073.4927            0    1595.0961    19.929253    19.999347    20.761765    8275.0592    2016.7549      1088.33    1680.2033   -146.82437   -65.463778    246.53061   -4707.2139 
32295000    91.563189   -5077.3892   -4900.8018   -5077.3892            0    1483.2924    20.064547    20.010719    20.626213    8281.5482    484.75626     1935.357    2029.7639   -300.48931    169.41714    327.83978   -4721.6529 
32296000    89.529314   -5067.2372   -4894.5724   -5067.2372            0    2964.4361     19.89433    19.796585    20.939849    8246.9458    3893.0688    3217.8471    1782.3924   -404.62354    52.150603   -284.64494   -4538.0301 
32297000    91.047716   -5064.0811   -4888.4879   -5064.0811            0    2827.8017    19.966412    19.860953    20.771397    8236.9386    3034.2845    3903.3889    1545.7317   -100.79518    172.57062    306.49285   -4548.7917 
32298000    89.591256   -5071.7266   -4898.9423   -5071.7266            0    2040.0365    20.063359    19.798844    20.827086    8273.1711    759.02127    3265.2713    2095.8168   -162.25358    623.67166    1324.3405   -4652.8003 
32299000     92.00198   -5063.5838   -4886.1502   -5063.5838            0    1822.8505    19.877419    19.947957    20.886437    8281.7626    1857.1595    1929.9089    1681.4833   -100.71059    56.095173   -604.78003   -4665.9845 
32300000     87.28587   -5065.7917   -4897.4535   -5065.7917            0    3084.4963    19.906681     19.89952     20.72692    8210.6252    3515.8839    3359.6614    2377.9436   -531.54562    435.10659   -413.02833    -4528.105 
32301000    101.84515   -5060.1646   -4863.7477   -5060.1646            0    1692.3666    19.918414    19.924914    20.829084    8266.4946     1493.309    1685.9362    1897.8546   -77.679499     346.3247    1300.2814   -4659.7188 
32302000    90.118135   -5068.6812   -4894.8808   -5068.6812            0    2324.0485     19.87206    19.841491    20.907842    8243.7802    1820.1725    2894.3028    2257.6703   -126.28176    109.31561     889.8019   -4615.4673 
32303000    89.482697   -5074.2836   -4901.7087   -5074.2836            0    1501.6747    19.859576    20.046093    20.741869    8257.4811    1741.1113    522.70476    2241.2079      70.0567   -1017.6485    495.31008   -4720.8667 
32304000      94.2319   -5061.0812   -4879.3471   -5061.0812            0     2064.898    19.940719    19.946465    20.792736    8270.2453    1855.6972    2277.6314    2061.3654    11.436272    -492.2391   -529.23063   -4630.2934 
32305000    91.672259   -5063.4043   -4886.6066   -5063.4043            0    2241.3661    20.059972    19.890632    20.738761    8274.8797    1216.1762    2760.8597    2747.0624    120.99638   -126.58403    428.47302   -4616.1172 
32306000    98.533313   -5059.2276   -4869.1978   -5059.2276            0    3194.1583    19.798895    20.059483    20.610433    8185.5487    2242.3822    3698.6424    3641.4504   -133.66648   -42.090943    81.440468   -4487.8861 
32307000    87.991172   -5071.6024   -4901.9041   -5071.6024            0    1023.0673    19.920123    20.091801    20.768077    8312.0317    1820.6193   -527.78597    1776.3686   -368.98752    214.54442   -592.27782   -4777.8853 
32308000    89.693938   -5059.1176   -4886.1353   -5059.1176            0    2657.8879     19.95744    19.952409    20.679223    8234.4461    2215.2275      2773.66    2984.7761   -553.32869   -264.88954   -430.39059    -4566.947 
32309000    92.381822   -5071.2981    -4893.132   -5071.2981            0    2726.8921    19.908568    20.026158    20.782079    8285.6515    2925.5515    2324.6171    2930.5076    636.63582   -253.01648    488.08536   -4563.6206 
32310000    95.311263   -5074.1494   -4890.3337   -5074.1494            0    1195.4147    19.995436    19.923887    20.728334     8257.895    932.14783    1285.6518    1368.4444   -382.70815    -699.0372    739.34365   -4746.3664 
32311000    92.334465   -5062.8424   -4884.7676   -5062.8424            0    1868.1566    19.940509    19.991457    20.777509    8282.7427    1803.6788    1588.9272    2211.8638   -349.17116   -71.423999    588.36464   -4659.1031 
32312000     96.76781   -5061.2049   -4874.5801   -5061.2049            0    1853.0411    19.962331    19.987915    20.737294    8274.2917    1776.8166    1933.7344    1848.5722    113.22692    899.27868   -132.82831   -4650.9698 
32313000    94.000533   -5061.9257   -4880.6377   -5061.9257            0    1685.7897    20.021214    19.911132    20.845917    8310.1211     1942.428    1457.1779    1657.7632   -334.75212    1037.4873    315.57962   -4676.3291 
32314000    92.761204   -5066.9773   -4888.0795   -5066.9773            0    1603.5198    20.022732     19.94164    20.768973    8292.7626    1327.8344    1633.2027    1849.5223   -224.18125    714.53689    380.85231   -4694.1475 
32315000    90.121803   -5066.7084   -4892.9009   -5066.7084            0    2708.8943    19.963284    19.886523    20.744295    8235.4912    2140.6359    3023.6105    2962.4364   -512.88177    784.18319   -753.79892    -4567.546 
32316000    91.706819   -5050.0271   -4873.1628   -5050.0271            0    1355.5704    19.889806    19.968985    20.883902    8294.6528    2213.5002    988.96293    864.24807   -209.66584   -255.63602    921.04594   -4709.1808 
32317000     92.46695   -5070.0694   -4891.7391   -5070.0694            0    2573.3014    19.927657    19.824347    20.905042    8258.5952    1950.8164    2850.9634    2918.1245      122.497   -66.341672    222.84826   -4581.8026 
32318000    92.220379    -5066.831   -4888.9763    -5066.831            0    1437.2539    19.995071    19.912034    20.831328    8293.8377    1467.9434    1101.3959    1742.4225    180.50729     417.2199   -707.07847   -4715.1302 
32319000    89.423026   -5073.8903   -4901.4305   -5073.8903            0    2610.9304    19.889133    20.013451    20.702854    8240.7754    3911.7051    1262.1042    2658.9817    460.82738   -66.413616   -400.95399   -4587.6404 
32320000    95.658815    -5068.697   -4884.2109    -5068.697            0    2970.9722    19.960352    19.886522      20.7106    8220.9066     2652.879    2531.9405    3728.0972   -19.104184   -33.782987   -859.77673   -4528.0107 
32321000    94.269199   -5068.8561     -4887.05   -5068.8561            0    2068.0197    20.125638    19.920109    20.580447    8250.8021    707.49563    2983.9806    2512.5829    -142.5865   -278.49766     419.0121   -4638.2063 
32322000    100.17555   -5060.2678   -4867.0708   -5060.2678            0    2811.2057    19.985443    19.976193    20.637522    8239.1811    2034.9999    2849.5168    3549.1004    53.298547   -67.778175    133.30216   -4529.2763 
32323000    89.453183   -5073.0113   -4900.4933   -5073.0113            0    1697.6103    20.028327    19.915941    20.680124    8248.9492    1689.2687     1438.093    1965.4692    81.110768    1284.0141   -31.972375   -4696.2666 
32324000    88.503501   -5067.0836   -4896.3972   -5067.0836            0    2459.6275    19.937159    19.942111    20.636466    8204.8325    3838.9906    1234.2651    2305.6268   -210.19723   -70.360186    1139.5709   -4602.0805 
32325000    91.187554   -5066.0597   -4890.1968   -5066.0597            0    2456.2239    19.922986    19.956538    20.675453    8220.4329    2091.4764    2445.7275    2831.4679   -463.58871    761.60356    287.36077   -4595.7285 
32326000    93.195894   -5070.8754   -4891.1393   -5070.8754            0    1805.2869    19.932047    20.066929    20.573981    8229.0775    2753.8988    550.70941    2111.2524   -366.00398    684.71123   -375.92294    -4674.482 
32327000    89.921526   -5076.3277   -4902.9065   -5076.3277            0    1905.2605    19.978384    19.877737    20.754418    8242.0993    1784.6358    2374.0843    1557.0613   -63.123889    1046.0162   -440.78267   -4673.8893 
32328000    96.483014   -5062.5493   -4876.4737   -5062.5493            0    1548.8114    20.003689    19.997018    20.662848    8265.4314    1138.4669     1465.511    2042.4564    -20.18524    913.07059     467.9113   -4689.7756 
32329000     92.41242   -5075.9413   -4897.7162   -5075.9413            0    1931.6687    19.985562    19.858669    20.774914    8245.2859    2221.0644    1935.7937     1638.148   -313.18938   -484.97797    292.44211   -4665.4349 
32330000    94.162597   -5061.6822   -4880.0817   -5061.6822            0    2247.8146    20.072867    19.908137    20.711952    8276.7731    1495.4284    3258.2699    1989.7455   -626.59019   -577.09821    379.72233   -4608.7519 
32331000    91.416575   -5061.0654   -4884.7608   -5061.0654            0    2187.5132    19.930621    20.031745    20.666041    8250.8162    1795.0141    1748.5218    3019.0036    274.60986   -328.12746     371.5765    -4621.538 
32332000    93.018888   -5076.2911   -4896.8964   -5076.2911            0    2603.7846      19.9784    19.940565    20.704927    8248.4406    2315.7148    2978.1259    2517.5132   -233.96349    637.60347    74.171344    -4583.674 
32333000    92.892056   -5062.7456   -4883.5954   -5062.7456            0    1373.8796    19.996949    19.949114    20.747314     8276.548    728.27253    1509.5926    1883.7737   -279.18977   -728.38373    1211.8374   -4717.7613 
32334000    93.296234   -5056.4574   -4876.5277   -5056.4574            0    1320.5461    19.909073    20.043856    20.789806    8296.2673    1906.5344    1469.2436    585.86042   -411.58655   -691.23817    671.97028   -4716.7515 
32335000    92.524223    -5074.598   -4896.1573    -5074.598            0    1171.6729    20.051067    19.893689    20.739888    8272.9276    2281.4259    106.88469    1126.7082    338.05192     10.99868    84.458314   -4754.7924 
32336000    85.918986   -5060.4035   -4894.7016   -5060.4035            0    1063.5266    19.914005    19.963345    20.865029    8294.8954     193.8821    1902.4794    1094.2182   -10.295252     698.4707    540.63707    -4766.044 
32337000    87.900232   -5063.0105   -4893.4875   -5063.0105            0    1231.3427    19.918755    20.039098    20.729767    8274.3675    2216.1176    10.391929    1467.5185    -150.0774    486.47557   -74.890346   -4744.8975 
32338000    93.147406   -5066.7241   -4887.0815   -5066.7241            0    1934.3835    20.016192    19.872373    20.770927    8262.0356    1628.3093    2467.0076    1707.8336    149.35669    100.82767    161.44868   -4654.0012 
32339000    90.369611   -5081.0344    -4906.749   -5081.0344            0    2506.6204    20.031513     19.90431    20.700299    8253.4874    1693.9322    3075.6949    2750.2343   -56.111196     -173.529    724.90696   -4605.0305 
32340000    90.210921   -5068.5357   -4894.5564   -5068.5357            0    1711.5208    20.009378    19.978849    20.741891    8291.8684    2325.8126     1218.436    1590.3137    12.146662    521.57007     353.4809   -4687.5849 
32341000    94.096042   -5075.3552   -4893.8831   -5075.3552            0    2945.7606    20.010548    19.788189    20.768384    8223.7088    3082.9135     2804.818    2949.5504    19.633945   -670.46992    -159.4404   -4540.5852 
32342000    93.298712    -5071.374   -4891.4396    -5071.374            0    1959.6719    19.976444    20.043431    20.682854    8281.3419    1335.0818    2348.5071    2195.4267   -445.35309   -854.06002   -586.09951   -4654.7605 
32343000    93.082089   -5061.4915   -4881.9749   -5061.4915            0    1795.1676    19.915984    19.984041    20.711043    8243.0333    2016.8745    1520.9996    1847.6286   -373.41695    430.65671    597.15168   -4666.1667 
32344000    91.657475    -5064.674   -4887.9049    -5064.674            0    1327.8417    19.832512    19.916681    20.929973    8267.2935    2753.9929    956.76824    272.76406   -463.25599     42.08669    902.41743    -4727.807 
32345000    89.263285   -5074.9333   -4902.7816   -5074.9333            0    2065.8631    19.979425    19.914703    20.690059    8232.2497    2655.3908    1619.0824     1923.116   -441.23073    386.82053   -204.86784   -4654.7563 
32346000    92.777004   -5063.2534   -4884.3251   -5063.2534            0    2025.5397    19.992143     19.88235    20.820045    8275.7762    2219.5152    1549.0756    2308.0284   -68.371153    756.57155    392.50636   -4639.8552 
32347000    90.679649   -5063.4981   -4888.6148   -5063.4981            0    3325.8656    20.001115    19.844947    20.687376     8211.255    3452.7222    2653.1768    3871.6977    192.23622    745.31996    438.26638   -4490.3333 
32348000    92.362648   -5068.4133   -4890.2841   -5068.4133            0    1906.1588     19.92377    20.015298    20.815623    8300.8584    2384.1995    1604.1102    1730.1667   -180.81527    827.50123   -618.62161   -4659.5255 
32349000    89.905044   -5063.8414   -4890.4519   -5063.8414            0    2399.2337    19.966879    19.936658     20.73298    8253.2363    2320.3059    2548.4186    2328.9767    131.46267    118.25825    499.60776   -4601.6682 
32350000    93.174275   -5072.1723   -4892.4779   -5072.1723            0    2032.0248    20.074807    19.930419    20.789223     8317.754    1089.6326    3739.9113    1266.5306    -440.8419    765.61537    398.84574   -4645.9812 
32351000    88.530211   -5074.6688   -4903.9308   -5074.6688            0    2588.1008    19.807301    20.008464    20.826238    8253.7228    3221.9427    2506.7859    2035.5738    53.236072    796.86598    383.51325   -4592.3958 
32352000    91.220344   -5066.1952   -4890.2691   -5066.1952            0    2214.3975    20.012049    19.930325    20.767231    8282.9401    1781.6789    2499.8705    2361.6431    419.99112    128.81507   -222.46717   -4622.7739 
32353000    94.402681   -5063.3782   -4881.3147   -5063.3782            0    2949.3258    19.811567    20.115163    20.617344    8216.2778    2108.0338    3478.9987    3260.9451   -40.252669    751.65956   -460.28749   -4527.9088 
32354000    95.105082   -5065.9965   -4882.5783   -5065.9965            0    1796.3265    19.995676    19.922528    20.677732    8237.2723    1538.0678    1122.5309    2728.3806   -121.74253   -84.671339    646.27412   -4666.7817 
32355000    95.084414    -5053.269   -4869.8908    -5053.269            0    2688.1142     19.91981    20.039162    20.598312    8222.3576    2691.7523     2076.158    3296.4323    205.48369    230.22276   -335.98522   -4547.5465 
32356000    93.324504    -5078.005   -4898.0208    -5078.005            0    1668.8339    19.995807     20.05364    20.613866    8265.9276      1214.11    1820.5513    1971.8405   -120.21867    29.994409    1049.8462   -4696.8428 
32357000    94.880381   -5068.5517   -4885.5669   -5068.5517            0    2056.5256     19.96415    19.988006    20.673377    8249.5781    642.57762    2942.9494    2584.0498   -338.37932   -513.55576   -793.56174    -4638.143 
32358000    93.796695   -5060.0399   -4879.1451   -5060.0399            0    2393.0189     20.03539    19.944015    20.565945    8217.8665    2334.8388    1420.3523    3423.8655    269.38981    151.58401    337.12942   -4592.3438 
32359000      90.9749   -5063.6112   -4888.1584   -5063.6112            0    2068.0109    19.943644    20.064279     20.65368    8264.6701    1407.9189    1927.1699    2868.9441    59.951937   -79.554671     1002.092   -4638.8975 
32360000    96.487792   -5066.5376   -4880.4528   -5066.5376            0    2427.2213    19.963804    19.900795    20.683329     8217.395    2171.3158    2615.2685    2495.0796    316.85827    122.35926   -96.817742   -4589.5691 
32361000    95.392479   -5062.6952   -4878.7228   -5062.6952            0    2325.0127     19.98622    20.001595    20.705799    8277.2732    2444.1561    2148.8823    2381.9998   -372.09345    623.48556    -78.03542   -4598.0576 
32362000     91.21361   -5061.5567   -4885.6436   -5061.5567            0     1322.072    19.936461    20.026751    20.762744    8289.7857    1207.5727    1873.9608    884.68256    238.50186    -659.7889   -432.38475   -4725.8077 
32363000    92.124654   -5074.7232   -4897.0531   -5074.7232            0    2040.4094    19.978905    19.971439    20.717982    8266.6297      2819.49    1762.1737    1539.5644   -412.75634     348.4918   -272.62548   -4651.0607 
32364000    90.081295   -5058.5701   -4884.8408   -5058.5701            0    1798.3742     19.95665    19.972135    20.845788    8308.6494    2682.6485    787.20029    1925.2739   -361.94941   -472.84853   -424.03083   -4666.9261 
32365000    91.821983   -5066.8232   -4889.7368   -5066.8232            0    2176.9987    19.929194    19.889897    20.855365      8266.85    2799.4645    1906.3717    1825.1597    2.7993311    560.97946   -302.22413   -4627.2701 
32366000    95.527233    -5084.295   -4900.0627    -5084.295            0     2404.512    19.991693     19.89009    20.816055    8277.2252    2697.2171     1674.897     2841.422   -149.05453   -40.007441   -249.06285   -4609.8024 
32367000    90.523572   -5076.0338   -4901.4515   -5076.0338            0    1754.3916    20.063623    19.896982    20.741124     8279.972    1095.2951    2998.2584    1169.6213   -125.69342    472.36779   -781.37605   -4689.6001 
32368000     93.18349   -5074.3942    -4894.682   -5074.3942            0    2324.8298    19.923379    19.932292    20.679127    8212.0661    2496.0559    2396.0572    2082.3761   -86.952752    134.89671    742.67791   -4616.2498 
32369000    94.515161   -5079.7772   -4897.4968   -5079.7772            0    1862.0377    20.011507    20.014708    20.601619    8251.4527    1473.2519    1549.6985    2563.1626    11.061633    259.81907    116.25159    -4673.421 
32370000    92.396031   -5065.4329   -4887.2393   -5065.4329            0    1506.1781    19.997665    20.026477     20.65461    8271.8156    832.91076    1400.5264    2285.0971     196.6849    332.21672    1019.1856   -4705.5401 
32371000     90.54235   -5077.0859   -4902.4674   -5077.0859            0    2333.0179    19.877784    19.929419    20.782046    8232.8636    2452.6033     2632.626    1913.8245    257.77384    219.02471    1339.0195   -4622.3469 
32372000    95.470904   -5062.4933   -4878.3696   -5062.4933            0    1595.1676    20.134555    19.945387    20.627264    8283.7337    1110.6213    1212.5446    2462.3369   -492.10608   -1271.5366   -318.45556   -4685.6578 
32373000    94.324163   -5070.1551    -4888.243   -5070.1551            0    2925.0607    19.899068    19.968279    20.711621    8229.7656    1975.0845     3388.814    3411.2837    251.44443    713.02405    181.05513   -4537.1694 
32374000    89.650779   -5058.9831   -4886.0841   -5058.9831            0    2730.4363    19.982775    19.979475    20.681757    8257.0951    3038.0822    2237.3185    2915.9082   -117.06118   -138.26858   -169.62207   -4557.2815 
32375000    97.086048   -5067.3343   -4880.0957   -5067.3343            0    2276.4424    19.992273    19.890992    20.726009    8242.0323    2567.1688    1426.3714    2835.7869    391.57389    625.94578    427.66482   -4606.4637 
32376000    87.876067   -5071.2514   -4901.7751   -5071.2514            0    2050.0977     19.96026    20.038112    20.596823    8238.0273     2090.299    1368.3472    2691.6469   -297.08001   -87.673409    -486.4481   -4655.4698 
32377000    92.718383   -5070.8545   -4892.0393   -5070.8545            0    1949.2633    19.875764    19.981206     20.75492     8242.645    3102.5513    1203.8833    1541.3555    37.299627   -837.63327    49.872533   -4657.7173 
32378000    89.655754   -5065.4638   -4892.5552   -5065.4638            0    2330.3751    20.006159    19.856317    20.735715    8237.2342    1834.1968    2717.8432    2439.0853   -434.35348     404.8976    133.30612   -4612.6035 
32379000    97.545837   -5061.8711   -4873.7458   -5061.8711            0    2142.6107    19.927316    19.957356    20.758594    8255.6212    1619.3751    1983.1942    2825.2629    204.95924   -572.10266    297.90009    -4615.776 
32380000    88.873931   -5075.7412   -4904.3403   -5075.7412            0    1298.8047    19.991143    19.843681    20.775161     8241.462    910.84675    2035.1743    950.39314   -118.12408    317.82158   -672.14358   -4748.2327 
32381000    84.045395   -5066.4421   -4904.3534   -5066.4421            0    1552.4992    19.998891    19.975068    20.799416    8308.9339    1673.9937    1202.5576    1780.9462   -28.549427    478.03007    378.61889   -4716.2258 
32382000    96.532926   -5062.6915   -4876.5197   -5062.6915            0    2598.0691    20.142017    19.765947    20.691141    8237.6821    2238.8403    2591.5105    2963.8565   -264.17995    -16.09091   -591.14133   -4564.3925 
32383000    96.804581   -5063.1774   -4876.4816   -5063.1774            0    1921.6624    20.139413    19.840755    20.703937    8272.9034   -590.04331    3794.5867    2560.4438   -316.02787   -373.74285    1002.5254   -4644.6296 
32384000    89.891173   -5070.3313   -4896.9686   -5070.3313            0    1919.0071    20.035042    19.872389    20.804974    8283.3783     1870.392    2250.8415    1635.7877    209.66767     380.6873    283.21174   -4665.1438 
32385000    93.540658   -5074.4078   -4894.0068   -5074.4078            0    1904.7741    19.925348    19.936687    20.837051    8277.4235    2505.9146    2082.0756    1126.3322   -434.53431    724.36738    728.03035   -4664.0668 
32386000    93.431689   -5065.3446   -4885.1538   -5065.3446            0    3094.5009    19.957395    19.872482    20.799973     8249.331    2831.5285    3432.5295    3019.4446    215.98013   -212.04923   -155.22441   -4512.8604 
32387000     89.71151   -5068.1026   -4895.0864   -5068.1026            0    2421.0745    19.911472    19.962415    20.824461    8277.3287    3561.5803    2106.0066    1595.6364   -581.27426   -201.86677   -935.04934   -4602.8232 
32388000    93.362074   -5075.2016   -4895.1449   -5075.2016            0    1945.3816    19.932778    19.892269    20.866332    8273.6713    1771.0134    1735.1421    2329.9893   -299.09143    193.30855   -48.377448   -4660.4093 
32389000    87.125007   -5072.2659    -4904.238   -5072.2659            0    2369.9359    19.977996    19.926695    20.720444    8248.7139    2159.3953    2229.6596     2720.753    -347.1783    527.88247    319.33748    -4619.137 
32390000    94.944809   -5067.4048   -4884.2958   -5067.4048            0    1319.5443    19.934687    19.911569     20.85376    8277.5016    1290.5595    1736.7223    931.35094    210.12157    587.40209    351.97821   -4725.0019 
32391000    93.413266    -5070.668   -4890.5126    -5070.668            0    2148.3372    19.996194    19.846386    20.892715    8291.3194    1426.7615     2940.586    2077.6642    208.18042    832.90714    1330.9704   -4630.7348 
32392000    91.484711    -5066.116     -4889.68    -5066.116            0    1767.1451    19.991551    19.947217    20.798044    8293.7569    1670.0383    1725.0781    1906.3189   -175.01504    1144.7063    408.92878   -4675.9333 
32393000    94.604343   -5075.8566   -4893.4041   -5075.8566            0    2021.5175    19.962884    19.875579    20.856344    8275.2524    637.39141      3126.42     2300.741    216.63358    717.56468    466.35865   -4649.4352 
32394000    93.874371    -5069.579   -4888.5344    -5069.579            0    1532.1986    20.018933     19.95576    20.722262    8278.3988    660.49007    2441.1063    1494.9995    175.49856     476.0966    -432.5425   -4703.5491 
32395000    91.229738   -5067.9599   -4892.0157   -5067.9599            0    1543.0585    19.972051    19.894146    20.808302    8267.6978    784.16317    1852.0237    1992.9885     -27.0925    -276.9739   -32.092398     -4705.96 
32396000    91.549528   -5071.1147   -4894.5538   -5071.1147            0    1486.6128    20.050945    19.934998    20.585089    8228.1803    1205.9279    1476.5546    1777.3559   -34.386313    427.42631    160.35884   -4716.1609 
32397000    89.849739   -5073.0005   -4899.7177   -5073.0005            0    2070.0765    19.839648    19.982025    20.790757    8242.2117    2911.4063    1621.0515    1677.7716    -316.3004   -643.62893   -526.18038   -4650.8858 
32398000    90.864745   -5071.0576   -4895.8173   -5071.0576            0    1399.0605    19.914522    20.064128    20.705087    8273.0802    831.05577    921.03931    2445.0865    92.994506    592.60791    848.07236   -4727.0145 
32399000    93.804846   -5063.9799   -4883.0693   -5063.9799            0     2392.561    19.896358    19.929253     20.85201    8268.2299    3697.0217    1989.4285    1491.2327   -179.88187    352.38111    472.98449   -4594.5656 
32400000    88.866001   -5065.0572   -4893.6716   -5065.0572            0    2485.7677    19.846286    19.997295    20.818894    8262.4367    2908.3842      2039.49     2509.429   -567.44427   -25.252005    371.50392   -4594.1387 
32401000    98.169397   -5065.5478   -4876.2198   -5065.5478            0    681.42689    19.975163    19.990029    20.801335     8306.058    1349.1112    451.14896    244.02053     88.10389   -244.98779    612.15896    -4793.675 
32402000    92.424111   -5060.1196   -4881.8719   -5060.1196            0    2451.7693    19.902239    19.976077    20.799303    8269.1507     2565.922    2121.3074    2668.0783   -232.89072    89.074559    214.45641   -4586.1957 
32403000    92.068767   -5068.8417   -4891.2793   -5068.8417            0     1547.782    19.955029    19.971113    20.770554    8277.5671     1284.762    1502.2096    1856.3745   -82.927457    941.14315   -448.70498   -4704.4314 
32404000    92.582369   -5066.5192   -4887.9663   -5066.5192            0    2174.0653    19.739868     19.94725    20.986078    8263.3955    2529.3996    2657.1507    1335.6457   -111.33953   -1406.0465   -277.74485   -4625.9628 
32405000    94.967741   -5072.0056   -4888.8523   -5072.0056            0    2199.8436    19.925564    19.933393    20.758112    8244.7924    2324.7109    1865.4065    2409.4133    81.641285   -333.55254   -654.45098   -4624.3391 
32406000    91.213185   -5073.2345   -4897.3222   -5073.2345            0    1973.7199    19.931207     19.92991    20.805099    8264.3502    1688.0336    2766.2508    1466.8754   -194.87758    709.77041   -914.01355   -4659.4355 
32407000     95.76625   -5072.7764   -4888.0831   -5072.7764            0    2253.3578    20.007459    19.984884    20.671816    8265.5584    1267.5615    2302.4839     3190.028   -442.33108    247.25323   -23.275577   -4616.4528 
32408000    88.383442   -5075.3425   -4904.8876   -5075.3425            0    591.36128    19.928068    20.053858    20.848515    8331.7888    1633.6062   -432.67439    573.15207   -188.40458    777.86879   -238.63263   -4833.0309 
32409000    91.002024    -5073.871   -4898.3659    -5073.871            0    1693.3516    20.035316    19.869526    20.861903    8304.9615    1831.9186    1585.2405    1662.8957   -507.14708   -11.714224    498.11173   -4693.2683 
32410000    95.690198   -5070.3657   -4885.8191   -5070.3657            0    2359.7436    19.948927    19.719738    20.915763    8228.0023    2151.7214    3663.3244    1264.1852    -50.77916    299.27139   -335.67416    -4602.657 
32411000    95.811272   -5082.9508   -4898.1707   -5082.9508            0    2080.9787    20.031462    19.920425    20.751593    8280.6169    875.51494    2070.1569    3297.2643   -374.49527     -103.571   -492.37954   -4646.8628 
32412000    93.241274   -5064.6021   -4884.7785   -5064.6021            0    2680.5149    19.983435    19.967747     20.64779    8238.9674    2910.9263    2358.5099    2772.1084   -276.89768    54.503036    108.18247   -4562.6962 
32413000    96.045324   -5071.9375    -4886.706   -5071.9375            0    2461.1473    20.086095    19.959918    20.615938    8265.2757    3113.2247    1154.0417    3116.1754   -187.76692     129.8535    69.235442   -4590.0379 
32414000    91.738579   -5070.9813   -4894.0558   -5070.9813            0    1685.3885    20.152058    19.913694    20.616503    8273.4422    844.02156    2159.1688     2052.975    94.123229    -472.8251   -248.65762   -4690.6974 
32415000    93.821203   -5073.6774   -4892.7353   -5073.6774            0     1671.095    19.983594    19.926791     20.76922    8270.4884    1069.0219    2455.4321    1488.8309    83.696622    815.80916   -440.45386   -4691.1735 
32416000    97.513804   -5073.8472   -4885.7836   -5073.8472            0    1034.5698    19.911383    20.001602    20.828614    8295.1945    1613.4649    765.98696    724.25769   -339.37312   -898.29826    577.06152   -4760.6246 
32417000    95.276417   -5072.1197   -4888.3711   -5072.1197            0    2044.3977    19.924977      19.9225    20.801418    8257.2342    2242.6053    1993.7865    1896.8013    368.94342    248.27948   -900.63905    -4642.178 
32418000    98.459987   -5064.0356   -4874.1473   -5064.0356            0    2170.6674    19.909436    20.029896    20.628087    8226.1495    1931.7254    1904.5823    2675.6943   -248.52742    402.97678    125.35011   -4613.7324 
32419000    97.990345   -5069.2689   -4880.2862   -5069.2689            0    3043.2557    19.950576    19.867888    20.808073    8247.8167    3867.7912    2045.8362    3216.1398   -11.107975    71.014896     41.04604   -4514.2253 
32420000    92.551233   -5063.8938    -4885.401   -5063.8938            0    2418.4019    19.932032    19.990601    20.682583    8241.0439    1960.2326    2655.0961    2639.8769    392.78263   -74.277954   -519.09646   -4594.7401 
32421000    93.394262   -5062.4814   -4882.3627   -5062.4814            0    2234.5531    19.841558    20.057586    20.658857    8221.6831    2695.4194    1694.5619     2313.678   -295.65881      370.914   -256.80098   -4614.4291 
32422000    91.731825   -5070.2532   -4893.3407   -5070.2532            0    2708.5407    20.082859     19.91105     20.65462    8259.1795     1908.865    3235.6017    2981.1553     153.2129    853.66428   -165.96115   -4567.0925 
32423000    86.411598   -5067.8368   -4901.1848   -5067.8368            0    1740.5232    19.946667     19.92255    20.791845    8262.4395    2212.5165    1479.3051    1529.7481   -272.74607    449.86413   -343.22943   -4691.4531 
32424000    93.033831   -5066.7697   -4887.3462   -5066.7697            0    3597.9111     19.97609    19.975278    20.577877    8211.1482    4213.5674    2178.3849    4401.7808   -540.52158   -547.39762     385.9694   -4456.4921 
32425000    93.819136   -5072.4757   -4891.5376   -5072.4757            0    1505.9011    20.033197    19.896605    20.716867    8257.5901    211.32295     2048.129    2258.2513   -63.751196    740.75201   -5.2314906   -4710.1842 
32426000    89.312902   -5073.1251   -4900.8777   -5073.1251            0    1116.8241    20.066058    19.968599    20.684252    8287.9946   -1.8216028    1231.4431    2120.8507   -312.62013   -249.96154   -291.45784    -4765.885 
32427000    93.071069   -5066.2402   -4886.7448   -5066.2402            0    1539.0033    19.972165    20.019273    20.628456    8247.8391    1596.6756    1462.6615     1557.673   -46.031235   -234.91705    179.91443   -4701.6238 
32428000    91.247387   -5066.5299   -4890.5517   -5066.5299            0    2103.4531    19.974647    19.924195    20.804411    8279.7137    2855.4308    1263.9407    2190.9877    181.65905    70.841409     133.0361   -4636.5573 
32429000    88.883877   -5053.4836   -4882.0636   -5053.4836            0     1518.923    19.939496    19.957169    20.936357    8331.3281    1514.1946     1483.301    1559.2732   -38.453574    384.92759    481.80785   -4697.5086 
32430000     97.22137   -5068.3881   -4880.8885   -5068.3881            0    2188.3478     20.07335    19.848755    20.735564    8261.6918    999.01517    3597.3544    1968.6738   -223.45717    724.92746   -196.07381   -4617.2182 
32431000    91.572037   -5067.2828   -4890.6784   -5067.2828            0    3257.8076    19.916234    19.810006    20.790621    8202.7465    3433.8243    2893.3063    3446.2921   -39.398913    456.86871    -21.61803   -4500.9513 
32432000     90.07686   -5063.2243   -4889.5035   -5063.2243            0    1348.9052    19.884389    20.081666    20.813559    8311.0966    1419.1259    1315.1608    1312.4288    -422.7585   -128.32988   -756.40123   -4726.0043 
32433000    87.693727   -5070.0116   -4900.8869   -5070.0116            0    1813.0313    20.069668    19.884593     20.69365    8258.3635    933.73797    2069.4653    2435.8908   -18.142551    349.60853   -360.79028   -4682.5258 
32434000     90.30742   -5071.7334   -4897.5679   -5071.7334            0    1614.1272     20.06347    19.893358    20.625111    8232.0961    2107.4793    918.60844     1816.294    149.86105     418.2424   -392.09974   -4703.7812 
32435000    94.960634    -5064.742   -4881.6024    -5064.742            0    1624.2791    19.961288    19.997186    20.750786    8283.0825    1199.0624    1649.9088    2023.8661   -359.02239    866.45833    562.41456   -4685.3891 
32436000    95.350642   -5065.2561   -4881.3643   -5065.2561            0    1537.3787     20.02707    19.869488    20.736147    8251.4856    2478.6852    1346.7557     786.6952    290.24208    299.17121    959.33988    -4696.357 
32437000    92.951409   -5073.8172   -4894.5526   -5073.8172            0    1730.3413     20.06796    19.942993    20.611573    8249.0644    1003.7572    1675.9289    2511.3377    8.2116215   -468.52739   -132.64204   -4686.3853 
32438000    97.787955   -5073.9064   -4885.3141   -5073.9064            0    2286.6537    19.868423    19.991933    20.684838    8216.1866    4066.4707    1534.3406    1259.1498    12.781264   -51.696133    573.04064   -4611.3166 
32439000    89.252578   -5074.7938   -4902.6627   -5074.7938            0    1679.4304    20.083412    19.956576    20.655623    8278.6939    1089.2106    1680.0337    2269.0469    2.7881316    665.23049    447.07404   -4699.8946 
32440000    98.284493   -5066.7583   -4877.2084   -5066.7583            0    1528.3839    19.933746    20.024487     20.59526    8220.8669    1147.4688    1508.8408     1928.842   -351.49037   -451.07965    38.434857    -4693.966 
32441000    90.052316   -5061.4799   -4887.8065   -5061.4799            0    3155.6018     19.95044    20.000277    20.564441    8205.5064    3818.1727     2185.613    3463.0195    150.83573   -138.33299   -421.98036   -4510.1791 
32442000    93.900256    -5067.563   -4886.4684    -5067.563            0    1906.5165    19.911457    19.958777    20.705495    8228.5366    1609.0674    2053.3297    2057.1523    235.15467    164.64988    969.37676   -4657.6774 
32443000    93.417049   -5069.4521   -4889.2894   -5069.4521            0      2028.01    19.939369    19.914884    20.883656    8292.6957    2187.8571    2045.3638    1850.8092    189.28664   -502.31929    55.251556    -4644.021 
32444000    94.247906   -5060.8819   -4879.1168   -5060.8819            0    1463.3542    19.910767    19.980447    20.777305    8265.7527    2122.6262    1713.1786    554.25788     -92.1962     1375.004    729.30628   -4702.7131 
32445000    95.146341   -5070.9307    -4887.433   -5070.9307            0    1326.0346    20.055452    19.893845    20.764575    8284.6514    1016.9353    1694.1745    1266.9939   -31.338464    909.64469   -753.02428   -4727.2174 
32446000    96.389512   -5077.3357   -4891.4404   -5077.3357            0    1667.5313    19.967878    19.967612     20.80651    8295.7811    2000.2775    1603.4579    1398.8584    504.78564    -36.85821   -968.16585   -4689.6934 
32447000    93.500982    -5068.895   -4888.5705    -5068.895            0    1965.5349    19.923412    20.031903    20.658315    8244.8133    2902.4645    931.81186    2062.3283   -106.16275    9.0695048    1217.9919   -4652.2303 
32448000     92.19607   -5066.4966   -4888.6887   -5066.4966            0    1399.8482    20.047661    19.930598    20.741639    8287.5681    1142.2294    1331.8821    1725.4332   -152.52793    268.17445    70.859287   -4719.4951 
32449000    94.583212   -5064.4102   -4881.9985   -5064.4102            0    2023.6084    20.009772    19.930882    20.719918    8263.3601    2753.3446    1417.7332    1899.7473    91.714979   -755.70808    310.57646   -4638.1282 
32450000    92.469707   -5071.2095   -4892.8739   -5071.2095            0    2790.5707    19.929929    19.963939    20.680567    8228.3814     3087.138    2967.2132     2317.361   -147.46814   -783.42111     102.3065   -4557.9984 
32451000     91.42593   -5067.4005   -4891.0779   -5067.4005            0    1693.7313    20.049073    19.953195    20.640566    8257.1154    1457.1437    1146.1879    2477.8622   -338.43612   -336.14367    894.88863   -4687.1162 
32452000    91.307896   -5067.3969   -4891.3019   -5067.3969            0    1947.9329    20.051142    19.969299    20.597446    8247.3671    1181.9854     2149.208    2512.6052    84.096692    173.27818    111.93112   -4657.0057 
32453000    91.378493     -5072.53   -4896.2989     -5072.53            0    2063.6849    20.007397    19.840681    20.705365    8219.2095    2305.8414    1426.3779    2458.8353   -586.49554    111.36203    -429.6401   -4648.9276 
32454000    87.984275   -5067.5845   -4897.8994   -5067.5845            0    1896.0324    19.858619    19.955241    20.881526    8275.0047    2056.2048    2589.5105    1042.3819   -24.494579      204.226    222.40899   -4669.0815 
32455000    89.515821   -5075.7992   -4903.1604   -5075.7992            0    1793.1594    19.983711    19.851374    20.868678    8278.6907    1943.7302    1947.9506    1487.7975   -28.445194    511.54601    354.65174   -4686.6611 
32456000    88.715478   -5071.0604   -4899.9652   -5071.0604            0    1417.2955    20.054302    19.899947    20.673318    8250.2985    1176.8263    1333.4343    1741.6259     302.5677    339.19174   -428.99669   -4729.4331 
32457000    88.583359    -5062.543   -4891.7026    -5062.543            0    1286.3953    19.974156    19.925976    20.847396    8297.3583    1292.0543    717.11447    1850.0171   -107.45875    331.65163    416.35963   -4736.0379 
32458000    90.585943   -5060.6201   -4885.9174   -5060.6201            0    1376.4139    19.963363    19.948876    20.802289    8284.4419    2072.2728    868.93806    1188.0308   -75.937388    830.56971    104.82507    -4719.619 
32459000    88.988231   -5063.7891   -4892.1678   -5063.7891            0    2020.7804    19.999793    19.896973     20.85069    8297.2266    1927.3276    2459.0966     1675.917    -257.8639   -220.67535    207.60988   -4647.6402 
32460000    93.680577   -5058.8159    -4878.145   -5058.8159            0    1444.4666    20.030484     19.89861    20.827183    8301.2737    1283.1855    2123.8053    926.40912    112.41106    10.081128   -75.858842   -4703.2699 
32461000     89.46694    -5060.846   -4888.3015    -5060.846            0    1094.0552    20.032487    19.920328    20.954314    8361.8969    1040.1131     1187.915    1054.1376   -94.342385    93.428417   -34.634437   -4754.8818 
32462000    91.243857   -5069.3209   -4893.3494   -5069.3209            0    2414.3006     19.91111    19.902983    20.859514     8266.427    2008.7441    2883.6815     2350.476   -552.18755    981.89434   -231.03551   -4602.2877 
32463000    94.194917   -5060.6959   -4879.0331   -5060.6959            0    1741.5557    19.964514    19.909552    20.725797    8238.1837    1015.2535    2964.1809    1245.2328    236.90852    53.831439    121.41209   -4669.7931 
32464000    96.874792   -5074.5088   -4887.6776   -5074.5088            0    1451.7454    20.008087    19.983342    20.695197    8274.5286    1025.5521     1521.747    1807.9371   -319.60254    92.493549   -216.06377   -4712.4875 
32465000     91.25178   -5081.4936   -4905.5069   -5081.4936            0    2688.2433    19.928557    19.980351    20.585461    8196.7098     3044.579    1944.4348    3075.7162    156.97817   -369.11056    760.60015   -4584.1527 
32466000    87.330069   -5061.9341   -4893.5107   -5061.9341            0     2057.454    19.951633    19.961998    20.729775    8256.1399    1819.6157    1883.8779    2468.8684   -341.58294    451.69304   -149.34777   -4645.7781 
32467000    90.362911   -5076.4792   -4902.2067   -5076.4792            0    3074.2981    19.884087    19.995822    20.693349    8227.6481       4594.3    1945.7043      2682.89   -271.33491    618.62095    395.87432   -4533.3161 
32468000    92.422697   -5060.9868   -4882.7419   -5060.9868            0    1659.9978    19.892839     19.94977     20.90941    8298.0574    1855.1875    1550.4209     1574.385   -180.20164   -292.63714    362.36778   -4681.8512 
32469000    92.332575   -5065.8101    -4887.739   -5065.8101            0    888.26543    19.936915    19.961037    20.920326    8325.4843    291.81391    2050.9659     322.0165    389.52648    686.77075    846.02426    -4779.887 
32470000    91.107836   -5077.1721   -4901.4629   -5077.1721            0    1968.6141    19.980724    19.885771    20.879916    8296.2613    1436.0929    2782.8322    1686.9172    406.20508    295.62632     209.1926   -4663.2755 
32471000    91.043375   -5065.2693   -4889.6845   -5065.2693            0    3341.6445    19.865288    19.835791    20.831483    8208.5146    2800.8654    5182.8009    2041.2671   -725.56944   -895.98569      99.3261    -4489.647 
32472000    89.545483   -5070.1136   -4897.4176   -5070.1136            0    1435.2503    19.938159    19.935259    20.840987    8283.7165    1915.7593     997.9662    1392.0253   -69.258318   -559.47752    278.86572   -4724.0257 
32473000    91.404642   -5071.4663   -4895.1847   -5071.4663            0     1579.946    19.996807     19.91424    20.771351    8271.5924     1488.025    1955.4985    1296.3143   -390.86893    513.31686   -318.41779   -4704.5916 
32474000     92.96684    -5069.889   -4890.5946    -5069.889            0    3175.1185    19.929589    19.955618    20.725043    8242.5001    2307.8559    3430.4976    3787.0021   -283.97163    44.191769    87.049851   -4508.9187 
32475000    93.575649   -5077.7217   -4897.2532   -5077.7217            0    1910.4501    19.896347    19.958799    20.733262    8233.3275    1697.8718    2596.9234    1436.5553   -71.660302     -263.706     77.98976   -4667.8566 
32476000    91.756173   -5068.0862   -4891.1267   -5068.0862            0    2249.5731    19.992924    19.911854    20.782598    8273.4729    3455.3976    1179.2621    2114.0595   -474.01372    1330.8799    108.47749   -4619.6929 
32477000    100.39855   -5060.9899   -4867.3629   -5060.9899            0    1869.3406    19.843926    20.039213    20.839454    8286.9475    2499.7834    1653.0425    1455.1958    168.48058    326.02301   -669.07023   -4641.4407 
32478000    97.052956   -5066.5034   -4879.3286   -5066.5034            0    2264.7273    19.915744    19.925595    20.760917    8238.6181    2080.1942    2648.8863    2065.1013    25.386833    565.89354     102.1591   -4607.2175 
32479000    96.542011   -5071.5075   -4885.3182   -5071.5075            0     1945.408    19.968855    19.953626    20.776433     8278.392    1335.7606    2679.0239    1821.4396    151.67792   -487.55566   -162.85934   -4650.4454 
32480000    97.977628   -5065.4846   -4876.5266   -5065.4846            0    1853.7668    19.805179    20.061356    20.824577     8273.995    1878.3605    1471.8119     2211.128   -476.66329    9.1830959    23.453828   -4652.8367 
32481000    95.835412   -5066.9704   -4882.1437   -5066.9704            0    2039.5117       20.032    19.862307    20.756899    8258.7913    1355.8522     2805.237    1957.4458   -27.004817     722.1658   -196.22501   -4636.4927 
32482000    91.791387   -5063.4405   -4886.4131   -5063.4405            0    2903.9328    19.863799    19.961893    20.751474    8228.3544    3742.6913    2478.5526    2490.5544   -223.38058    689.64805    627.96301    -4537.935 
32483000    92.032957   -5072.0353    -4894.542   -5072.0353            0    2783.5084    19.946595    19.955178     20.65824    8222.7617    2876.4906    2948.5993    2525.4353    49.549761    651.63584    285.35764   -4560.7422 
32484000    95.788094    -5066.901   -4882.1656    -5066.901            0    1492.7136    20.008012     20.02122    20.551279    8232.5301     1969.642     781.3689    1727.1298    216.57241    132.00811   -782.25436   -4702.9459 
32485000    91.006668   -5077.0965   -4901.5825   -5077.0965            0    835.04961    20.131979    20.028858    20.588633    8301.7598   -843.89279    1318.7825    2030.2591    446.10215    1140.5362    450.05447   -4800.4809 
32486000    89.205325   -5068.3623   -4896.3223   -5068.3623            0    1716.6894     20.02635    19.963667    20.600363    8236.0122    331.79272    2711.9434    2106.3321    347.30611      512.944    564.99053   -4690.1243 
32487000    92.162602   -5067.1902   -4889.4469   -5067.1902            0    1721.2855    19.990082    19.936398    20.659797    8233.5536    833.39299    2977.6238    1352.8396   -147.47957   -622.08518    173.43855   -4682.7585 
32488000    96.184715   -5071.7283    -4886.228   -5071.7283            0    1973.6702    20.051246    19.884662     20.68288    8246.5178    1063.2785    2825.2948    2032.4372   -201.82698    114.64964   -528.53005   -4648.8606 
32489000    90.330522   -5063.9791    -4889.769   -5063.9791            0    1633.1246    19.901257    19.974444    20.795274    8266.4654    1913.1349    1118.4723    1867.7665      31.3314    602.03988   -242.10997   -4692.8829 
32490000    96.756897   -5072.5657   -4885.9618   -5072.5657            0     2193.178    19.998327    19.944231    20.674265    8245.9565    2470.6179    1546.0787    2562.8373   -99.242662    184.32722    257.89015   -4622.2128 
32491000    90.138093   -5070.0118   -4896.1729   -5070.0118            0    1972.8649    19.890196    19.969291    20.777194    8252.5584    3467.3809    748.14707    1703.0668    -295.1556     249.4405   -171.89291   -4658.7286 
32492000    89.577306   -5064.3087   -4891.5514   -5064.3087            0    2690.3003      19.9342    19.945778    20.651339    8211.0369    2096.8486    2980.3567    2993.6956    -584.0043   -187.16744    684.35036   -4569.3891 
32493000    90.852217   -5058.4785   -4883.2623   -5058.4785            0    1428.0892    19.962438     19.94574    20.720706    8250.2726    1985.3214     209.9586    2088.9876   -451.41306   -763.71119   -685.98108   -4711.4321 
32494000     94.52562   -5064.2988   -4881.9982   -5064.2988            0    1939.2498     19.93439    20.034772    20.672623    8256.2521    3171.7751    932.68395    1713.2905   -209.24989    445.32342    822.36406   -4648.4951 
32495000    95.213771   -5058.7469   -4875.1191   -5058.7469            0    2834.5131    19.907544    20.028471    20.652865    8234.6621     3078.684    2945.7596    2479.0956   -271.13923   -559.96296    101.06191   -4534.7108 
32496000    94.190371   -5064.1058   -4882.4517   -5064.1058            0    2358.6997      20.0045    19.982246    20.577693     8225.621    2404.7775    1980.7879    2690.5337    158.48436    705.33144    458.78687   -4599.4968 
32497000    93.314067   -5069.8721   -4889.9081   -5069.8721            0    2517.9652    19.893856      19.9984     20.57555    8185.8853    2490.6191    2364.3807    2698.8957   -530.73017    728.47056    280.73173   -4589.3065 
32498000    93.702072   -5059.8082   -4879.0959   -5059.8082            0    2809.6775    20.000079    19.904726    20.601011    8201.1818    2459.9782    2503.9991     3465.055   -293.78861   -658.02714    158.43103   -4543.0421 
32499000    87.834015    -5067.146   -4897.7507    -5067.146            0    2637.5365    20.096808    19.988956    20.571408    8263.8268    1489.9982    3067.1753    3355.4361    52.473716    39.043901     352.8937   -4579.8763 
32500000     92.29607    -5050.854   -4872.8533    -5050.854            0    1854.1616    20.000184    19.959486    20.620225    8231.4578    736.71543    3018.5655    1807.2038   -716.55509    1441.0881   -596.15732   -4650.2661 
Loop time of 351.159 on 64 procs for 250000 steps with 972 atoms

Performance: 123.021 ns/day, 0.195 hours/ns, 711.927 timesteps/s
196.1% CPU use with 32 MPI tasks x 2 OpenMP threads

MPI task timing breakdown:
Section |  min time  |  avg time  |  max time  |%varavg| %total
---------------------------------------------------------------
Pair    | 26.422     | 35.177     | 44.568     |  78.0 | 10.02
Bond    | 1.0499     | 1.2926     | 2.2865     |  21.6 |  0.37
Kspace  | 154.16     | 166.93     | 174.53     |  39.9 | 47.54
Neigh   | 0.36317    | 0.39651    | 0.42706    |   3.0 |  0.11
Comm    | 59.498     | 63.494     | 67.639     |  28.0 | 18.08
Output  | 0.49781    | 0.49823    | 0.4996     |   0.0 |  0.14
Modify  | 67.405     | 69.776     | 73.376     |  17.0 | 19.87
Other   |            | 13.6       |            |       |  3.87

Nlocal:        30.3750 ave          35 max          26 min
Histogram: 1 3 3 5 7 5 0 4 1 3
Nghost:        2631.28 ave        2657 max        2601 min
Histogram: 3 0 2 6 2 7 3 3 2 4
Neighs:        9571.34 ave       11980 max        7849 min
Histogram: 2 7 5 3 1 6 3 2 2 1

Total # of neighbors = 306283
Ave neighs/atom = 315.10597
Ave special neighs/atom = 2.0000000
Neighbor list builds = 1147
Dangerous builds = 0

unfix		3
unfix		2
unfix		1

write_data	data.final.${pid}
write_data	data.final.1
System init for write_data ...
PPPM initialization ...
  extracting TIP4P info from pair style
  using 12-bit tables for long-range coulomb (../kspace.cpp:340)
  G vector (1/distance) = 0.37151198
  grid = 24 24 24
  stencil order = 5
  estimated absolute RMS force accuracy = 0.0035944649
  estimated relative force accuracy = 1.0824624e-05
  using double precision FFTW3
  3d grid and FFT values/proc = 3211 432
Last active /omp style is kspace_style pppm/tip4p/omp
WARNING: Not all mixed pair coeffs generated from mixing. Use write_data with 'pair ij' option to store all pair coeffs. (../write_data.cpp:312)

write_restart   restart.lmp.${pid}
write_restart   restart.lmp.1
System init for write_restart ...
PPPM initialization ...
  extracting TIP4P info from pair style
  using 12-bit tables for long-range coulomb (../kspace.cpp:340)
  G vector (1/distance) = 0.37151198
  grid = 24 24 24
  stencil order = 5
  estimated absolute RMS force accuracy = 0.0035944649
  estimated relative force accuracy = 1.0824624e-05
  using double precision FFTW3
  3d grid and FFT values/proc = 3211 432
Last active /omp style is kspace_style pppm/tip4p/omp
Total wall time: 0:05:51
