#include		in.partitions
include		in.temp
variable        temperature equal 101.88
variable	tempDamp equal 100.0
include		in.pressure
variable        pressure equal 2418.8
variable        pressureDamp equal 1000.0 # This is 1 ps
include		in.seed
variable        seed equal 745823

units		real
atom_style	full

read_restart	restart.lmp.${pid}
read_restart	restart.lmp.1
Reading restart file ...
  restart file = 30 Jul 2021, LAMMPS = 30 Jul 2021
  restoring atom style full from restart
  orthogonal box = (0.16149826 0.021905617 -0.11126433) to (19.838503 19.978095 20.811262)
  4 by 4 by 4 MPI processor grid
  restoring pair style lj/cut/tip4p/long/omp from restart
  restoring bond style harmonic/omp from restart
  restoring angle style harmonic/omp from restart
  972 atoms
  648 bonds
  324 angles
Finding 1-2 1-3 1-4 neighbors ...
  special bond factors lj:    0        0        0       
  special bond factors coul:  0        0        0       
     2 = max # of 1-2 neighbors
     1 = max # of 1-3 neighbors
     1 = max # of 1-4 neighbors
     2 = max # of special neighbors
  special bonds CPU = 0.005 seconds
  read_restart CPU = 0.012 seconds
include 	in.setup
variable	out_freq equal 1000
variable	out_freq2 equal 10000
variable	out_freq3 equal 1000

timestep	2.0

neigh_modify    delay 7 every 1

include		in.tip4p
# This is TIP4P/Ice

# create groups ###
group ox type 2
324 atoms in group ox
group hy type 1
648 atoms in group hy

# set charges - beside manually ###
set group ox charge -1.1794
Setting atom values ...
  324 settings made for charge
set group hy charge 0.5897
Setting atom values ...
  648 settings made for charge

# ### TIP3P Potential Parameters ###
pair_style lj/cut/tip4p/long/omp 2 1 1 1 0.1577 8.5
pair_coeff 1 1*2 0.000 0.000
pair_coeff 2 2 0.21084 3.1668
bond_style  harmonic
bond_coeff  1 450 0.9572
angle_style harmonic
angle_coeff 1 55 104.52
kspace_style pppm/tip4p/omp 1.0e-5
pair_modify tail yes

thermo          ${out_freq}
thermo          1000
thermo_style    custom step temp pe etotal epair emol press lx ly lz vol pxx pyy pzz pxy pxz pyz enthalpy

restart 	${out_freq3} restart.lmp.${pid} restart2.lmp.${pid}
restart 	1000 restart.lmp.${pid} restart2.lmp.${pid}
restart 	1000 restart.lmp.1 restart2.lmp.${pid}
restart 	1000 restart.lmp.1 restart2.lmp.1


include         in.dump
dump            myDump all atom ${out_freq2} dump.water.${pid}
dump            myDump all atom 10000 dump.water.${pid}
dump            myDump all atom 10000 dump.water.1
dump            myDump2 all dcd ${out_freq2} dump.dcd
dump            myDump2 all dcd 10000 dump.dcd
dump_modify     myDump append yes
dump_modify     myDump2 append yes


variable natoms 	equal  "count(all)"                        # NUMBER ATOMS
variable H      	equal  "enthalpy/v_natoms"                 # ENTHALPY-per-atom
variable Vol      	equal  "vol/v_natoms"                 # volume-per-atom
fix AVG all 		ave/time ${out_freq} 1 ${out_freq} v_Vol v_H file vol_enthalpy.dat
fix AVG all 		ave/time 1000 1 ${out_freq} v_Vol v_H file vol_enthalpy.dat
fix AVG all 		ave/time 1000 1 1000 v_Vol v_H file vol_enthalpy.dat


timer           timeout 02:55:00 every 1000
New timer settings: style=normal  mode=nosync  timeout=02:55:00

fix 		1 all shake 1e-6 200 0 b 1 a 1
       0 = # of size 2 clusters
       0 = # of size 3 clusters
       0 = # of size 4 clusters
     324 = # of frozen angles
  find clusters CPU = 0.001 seconds
fix             2 all nph aniso ${pressure} ${pressure} ${pressureDamp}
fix             2 all nph aniso 2418.8 ${pressure} ${pressureDamp}
fix             2 all nph aniso 2418.8 2418.8 ${pressureDamp}
fix             2 all nph aniso 2418.8 2418.8 1000
fix             3 all temp/csvr ${temperature} ${temperature} ${tempDamp} ${seed}
fix             3 all temp/csvr 101.88 ${temperature} ${tempDamp} ${seed}
fix             3 all temp/csvr 101.88 101.88 ${tempDamp} ${seed}
fix             3 all temp/csvr 101.88 101.88 100 ${seed}
fix             3 all temp/csvr 101.88 101.88 100 745823


run             250000
PPPM initialization ...
  extracting TIP4P info from pair style
  using 12-bit tables for long-range coulomb (../kspace.cpp:340)
  G vector (1/distance) = 0.37274564
  grid = 24 24 25
  stencil order = 5
  estimated absolute RMS force accuracy = 0.0033664264
  estimated relative force accuracy = 1.0137893e-05
  using double precision FFTW3
  3d grid and FFT values/proc = 2366 288
Last active /omp style is kspace_style pppm/tip4p/omp
Neighbor list info ...
  update every 1 steps, delay 7 steps, check yes
  max neighbors/atom: 2000, page size: 100000
  master list distance cutoff = 10.8154
  ghost atom cutoff = 10.8154
  binsize = 5.4077, bins = 4 4 4
  1 neighbor lists, perpetual/occasional/extra = 1 0 0
  (1) pair lj/cut/tip4p/long/omp, perpetual
      attributes: half, newton on, omp
      pair build: half/bin/newton/omp
      stencil: half/bin/3d
      bin: standard
Per MPI rank memory allocation (min/avg/max) = 9.231 | 9.234 | 9.241 Mbytes
Step Temp PotEng TotEng E_pair E_mol Press Lx Ly Lz Volume Pxx Pyy Pzz Pxy Pxz Pyz Enthalpy 
 1500000    104.72021   -5041.9851   -4840.0234   -5041.9851            0    3569.9723    19.677004     19.95619    20.922527    8215.8167    4395.4758    3438.7183    2875.7228   -425.71168    -419.2915    1910.1556   -4412.2719 
 1501000    99.955651   -5045.2777   -4852.5048   -5045.2777            0    2102.9437    20.019256    19.914439    20.701832    8253.2458    1177.1852    2281.3916    2850.2544   -507.20212    49.562445    62.815344   -4599.3838 
 1502000    105.10002   -5051.8551   -4849.1609   -5051.8551            0    2822.6051    20.029518    19.953439    20.573689    8222.4345    2427.1101    2597.5119    3443.1934    7.3568991   -294.10346    169.46425    -4510.686 
 1503000    100.43747   -5048.2091    -4854.507   -5048.2091            0    3542.2472    19.957971    20.026727    20.633164    8246.9277    4057.9707    3076.3534    3492.4174    2.0895009   -2099.8422    38.155913   -4428.4703 
 1504000    99.916958   -5058.7735   -4866.0752   -5058.7735            0    2071.4838    20.026594    19.936294    20.678531    8256.0289    2082.5852    1324.3663    2807.4998   -159.98246    788.32296    85.855992   -4616.6567 
 1505000     100.7126   -5043.8005   -4849.5678   -5043.8005            0     3205.996    19.873412    20.021891    20.612772    8201.8899    4125.7371    2757.1596    2735.0912   -332.30361   -281.66904    187.10646   -4466.0789 
 1506000    103.15861   -5043.9293   -4844.9793   -5043.9293            0    2215.9374    20.017745    19.920115    20.665275    8240.3977    1773.4546     2883.048    1991.3097   -529.85201   -503.70698    98.284063   -4578.6729 
 1507000    100.34693   -5042.3435    -4848.816   -5042.3435            0    2211.5701    19.899423    19.956607    20.785257    8254.3443    3198.6298    1360.4205      2075.66   -548.06122   -896.44141   -11.652525   -4582.5847 
 1508000    101.09414   -5045.1164   -4850.1479   -5045.1164            0    2782.9548    19.961453    19.910125     20.90704    8309.1898    2300.4765    3271.8948    2776.4932    452.85325    252.64596    -592.4648   -4512.9066 
 1509000    100.93353   -5034.4256   -4839.7668   -5034.4256            0    2130.8266    19.949059    19.946512    20.754035    8258.3241    1598.8642    2124.2539    2669.3617   -234.52716    89.814969   -827.42695   -4583.1317 
 1510000    104.99775   -5046.8693   -4844.3723   -5046.8693            0    2738.9017    19.981758    19.945511    20.769764    8277.7143    3151.7239    2391.6152    2673.3661   -7.7487601   -147.62667   -704.44223   -4513.7267 
 1511000    101.30606   -5046.5852   -4851.2079   -5046.5852            0    1899.5239    19.814553    19.974503    20.852357    8253.0678    2126.6772    2437.7488    1134.1459   -267.55268    689.94116    -41.69659   -4622.5764 
 1512000    102.73904    -5032.587   -4834.4461    -5032.587            0    1424.2521    20.041901    19.883869    20.790147    8285.0928     1199.725     1919.355    1153.6764    251.48476   -551.96597    889.26501   -4662.3543 
 1513000    106.23659   -5041.4227   -4836.5365   -5041.4227            0    2129.6844    19.906853    19.993693    20.759882    8262.6723    2498.9864    1279.6597     2610.407    124.19382   -316.70271   -704.17253    -4579.904 
 1514000    101.46685   -5052.2237   -4856.5363   -5052.2237            0    1997.5952    19.955919     19.87596    20.890939    8286.2455    1930.9153     1713.539    2348.3314     27.49262   -321.32061   -615.34061   -4615.1341 
 1515000    104.14646   -5055.7935   -4854.9383   -5055.7935            0    1483.1633    19.934985    19.871398    20.916535    8285.7929    1294.6431    2303.3667    851.48018   -123.95084    214.14183    266.58903   -4675.7132 
 1516000    102.25246   -5049.5496   -4852.3472   -5049.5496            0    2058.8799    19.895669    20.026634    20.767853    8274.8115    2012.2128    1445.3392    2719.0877   -364.66141    430.59618    273.97492   -4603.8823 
 1517000    101.66424   -5050.2495   -4854.1815   -5050.2495            0    2349.0088    20.044436    19.883888    20.755946    8272.5171    1810.6655    2842.5588    2393.8021   -168.25453    617.64362    31.172193   -4570.7825 
 1518000    101.28696   -5056.0097   -4860.6693   -5056.0097            0     2625.697     19.88816     19.94576    20.767374    8238.0949    3286.1676    2387.8223    2203.1012   -199.90658    95.371966   -591.89286   -4545.2071 
 1519000    101.77808   -5048.8737   -4852.5861   -5048.8737            0    1479.1242    19.983262    19.872726    20.785227    8254.2686     1715.634     1196.585    1525.1537    55.114907     1239.019   -457.26635    -4674.529 
 1520000    101.74029   -5049.0651   -4852.8504   -5049.0651            0    3145.3164    19.838994    19.966856    20.879719    8270.9233    3704.2752     2211.684      3519.99    178.73147     680.6603    1111.6909   -4473.4531 
 1521000    98.305496   -5051.5369   -4861.9465   -5051.5369            0    3111.4027     19.94237    19.854672    20.813445     8241.067    3353.5131    3392.5097    2588.1853   -228.78226   -248.29744    100.98152   -4487.9948 
 1522000    98.514387   -5038.4801   -4848.4869   -5038.4801            0    2985.5283    19.934107    19.910245    20.755041    8237.5294    2440.8251    3590.0692    2925.6906    561.07258    397.16519   -21.244773   -4489.8177 
 1523000    100.45031    -5054.129   -4860.4021    -5054.129            0    3164.2931    19.824665    19.943529    20.844355    8241.3116    3944.3499    2250.1982    3298.3311    42.948066    912.50144    -695.8286   -4480.0823 
 1524000    103.77218   -5034.2048   -4834.0714   -5034.2048            0    2639.8975    20.022766    19.887963    20.777373       8273.8    2472.3537     2700.335    2747.0039   -67.747896   -319.03828     279.7156   -4515.5285 
 1525000    105.08653   -5043.5582     -4840.89   -5043.5582            0    2334.2477    19.785287    19.965694    20.869377    8243.9672    3458.8127    1675.0263    1868.9041    108.29376    929.21299   -847.29297   -4560.2438 
 1526000    106.69649   -5046.3122    -4840.539   -5046.3122            0    2561.8484    20.046725    19.867244    20.708689    8247.7152    2568.7219    2225.4686    2891.3547    98.613773   -181.75656    48.975922   -4532.3884 
 1527000    99.771088   -5029.0523   -4836.6354   -5029.0523            0    2572.7116    19.936062    19.941349     20.68902    8224.9607    3723.0559    1561.8179    2433.2611    -207.9728    1029.1061    -1060.993   -4528.0319 
 1528000     97.56125   -5050.2328   -4862.0777   -5050.2328            0    2342.5513    20.011866    19.870482    20.846846     8289.653    2867.3962    2481.8752    1678.3825   -217.98784     449.8604   -679.70466   -4578.8724 
 1529000    106.55655   -5053.8481   -4848.3449   -5053.8481            0    1551.6771    20.006224    19.816509    20.789914    8242.2342   -184.86405    3205.7068    1634.1885    374.37199    324.16505   -44.577028   -4661.8262 
 1530000    101.66336   -5042.1392   -4846.0729   -5042.1392            0     2554.546    20.005412    19.974703    20.698092    8271.0024    2376.2374    2893.1233    2394.2773   -112.01538    838.99008   -1138.0954   -4537.9331 
 1531000    103.67816   -5042.1812   -4842.2291   -5042.1812            0    3153.0325    19.921098    19.922604    20.806189    8257.5631    4160.4532    2394.4656    2904.1786    106.67491    709.39517   -149.15686   -4462.5154 
 1532000    102.42166   -5041.4313   -4843.9026   -5041.4313            0    3134.9918     19.87805     19.92901    20.770702    8228.3106    3594.1915    2820.5639    2990.2201    129.81321    460.55168   -361.46408   -4467.6989 
 1533000    104.14889   -5050.2447   -4849.3848   -5050.2447            0    2607.5047    19.986259    19.897901    20.770589    8260.1436    2931.8769    1592.7762     3297.861    446.58905   -373.00563    357.61893   -4535.2699 
 1534000    101.30062   -5052.1951   -4856.8283   -5052.1951            0    2878.3844    19.916059    19.892019    20.773641     8229.906    2459.2615    3402.4468    2773.4448   -242.34512    1537.7223    736.24097    -4511.351 
 1535000    95.618764   -5053.3025   -4868.8937   -5053.3025            0    2692.1561    19.875639    19.865682    20.883882    8245.8577    3868.7028    2382.5487    1825.2166   -21.029619    454.27426   -42.870531    -4545.142 
 1536000    98.768905   -5055.6542   -4865.1701   -5055.6542            0    2060.0727    19.935352    19.894258    20.855015    8271.0788    3060.6288    1001.1323    2118.4572   -438.18915    145.34698   -671.03047   -4616.6734 
 1537000    102.56236   -5054.3183   -4856.5181   -5054.3183            0    1995.6478    19.918697     19.93331    20.886496    8292.8904    2264.0825    1573.5024    2149.3585   -481.00081   -490.84211    197.04719   -4615.1579 
 1538000     99.92484   -5038.7153   -4846.0019   -5038.7153            0     2832.678    19.957118    19.918419    20.749735    8248.3149    1900.8823    4202.9945    2394.1573   -146.32511    306.85943    514.02208   -4505.2499 
 1539000    98.937048   -5050.6814    -4859.873   -5050.6814            0    2380.4153    20.021104    19.906813    20.744643    8267.9097    2725.7128     1604.655    2810.8781     119.6574   -715.47791    749.94914    -4572.845 
 1540000    102.97784   -5050.9011   -4852.2997   -5050.9011            0    2717.3831    19.852559    20.068151    20.840788    8303.0567    3168.1496    1990.6757    2993.3241   -82.756675    712.00857    383.20694   -4523.2475 
 1541000    99.570113   -5038.6899   -4846.6606   -5038.6899            0    2859.6012    19.976406    19.903936    20.754046    8251.9979    3052.0424    2440.4904    3086.2707   -283.84529   -227.60571   -208.16806   -4502.5164 
 1542000    93.184262   -5037.1079   -4857.3942   -5037.1079            0     2131.131    20.014735    19.929942    20.839581    8312.7524    2501.6124    2067.1144    1824.6663   -266.79565    754.71983    586.98649   -4599.0309 
 1543000     105.7517   -5048.7033   -4844.7523   -5048.7033            0    3673.4824    19.858658    19.909925    20.781295    8216.5994    2654.9556    4950.8121    3414.6794   -265.01234   -304.06145   -870.81035   -4404.5564 
 1544000    99.844262    -5056.069    -4863.511    -5056.069            0    992.00084    19.984696    19.949491    20.770554    8280.8985     1497.604    777.58207    700.81643   -420.63732    83.690974    69.955475   -4743.7086 
 1545000    95.626302   -5051.5875   -4867.1641   -5051.5875            0    2157.0023    19.990718    19.841571    20.785719    8244.5983    2432.1911    1677.8764    2360.9395    354.87148     508.8808    270.98946   -4607.8083 
 1546000    105.31483   -5064.3117   -4861.2032   -5064.3117            0    1841.0925    20.048652    19.907047    20.720553    8269.7687    722.22566    2016.0168     2785.035   -341.42127    398.13419   -150.56315   -4639.1563 
 1547000    100.79494    -5047.629   -4853.2375    -5047.629            0    1911.0264    19.909832    19.956824    20.780813    8256.9859    2388.8302    2032.5756    1311.6734   -290.17153      182.378      945.347   -4623.1123 
 1548000    95.823966   -5050.7961   -4865.9915   -5050.7961            0     2174.914    19.996904    19.766111    20.871072    8249.5211    1927.5799    2808.6938    1788.4684    88.157313   -197.64383   -217.82005   -4604.3259 
 1549000     101.4169   -5042.6901   -4847.0991   -5042.6901            0    1783.5252     19.98271    19.947079    20.714632    8256.7838    1540.1709    2223.4421    1586.9625    -322.7448    607.60061   -40.646607   -4632.3329 
 1550000    103.46287   -5064.1216   -4864.5848   -5064.1216            0    2017.2474    20.014477    19.934007    20.781316     8291.095    2609.3325    1046.0419    2396.3679   -96.917267    36.728993   -709.78404    -4620.665 
 1551000    110.33003   -5035.8222   -4823.0414   -5035.8222            0    2058.5848    19.994974    20.002439    20.636252    8253.4325    1826.0563    1945.2928    2404.4055   -169.41214    243.40135    568.86605    -4575.254 
 1552000    97.697987   -5047.2085   -4858.7897   -5047.2085            0    2896.1704    19.889582    19.962424    20.769898    8246.5692    3343.7782    2147.1975    3197.5356   -227.98128     770.2981     448.1507   -4510.4738 
 1553000     96.96171   -5051.0689   -4864.0701   -5051.0689            0    3649.9393    19.988398    19.985032    20.570624    8217.3217    4186.0509    3458.0295    3305.7377   -154.14121    362.47673    742.77473   -4426.6569 
 1554000    106.77487    -5042.597   -4836.6727    -5042.597            0    1653.9214    19.870933    20.053626    20.581338    8201.3391    3281.6958   -243.58553     1923.654     160.8465   -81.362478   -483.70151   -4638.8502 
 1555000    100.80358   -5043.7444   -4849.3362   -5043.7444            0    2398.0561    20.067678    19.944479    20.581703    8237.6081    1097.9184    3070.2955    3025.9544     10.24998    443.44183    532.53851   -4561.2408 
 1556000    106.42777   -5039.4136   -4834.1587   -5039.4136            0    2850.4859    19.968956    19.976859    20.670185    8245.6886     3788.202    1891.3087     2871.947    -549.8456   -577.81157   -355.73736   -4491.3738 
 1557000    99.653011   -5057.1654   -4864.9762   -5057.1654            0    1872.5552    20.042639     19.97299     20.64005    8262.4483     2056.678    2149.3024    1411.6852    152.62517    1118.9379   -41.024903   -4639.3346 
 1558000    103.03726   -5049.8904   -4851.1744   -5049.8904            0    2375.2512    19.944735    20.014568    20.644321    8240.9086    2159.4892    2160.6918    2805.5728   -492.82214    63.465354    85.659029   -4565.7044 
 1559000    98.850169   -5044.9027   -4854.2618   -5044.9027            0    2092.5584    19.969087    20.041637    20.626653    8255.0588    1070.0994     2377.637    2829.9387   -72.531969    1261.9789    179.44848   -4602.3354 
 1560000     99.65036   -5043.0795   -4850.8954   -5043.0795            0    3236.9228    19.980821    19.901359    20.605362    8193.6295    2979.2451    3767.5219    2964.0013   -44.708943    -433.8458   -23.779744   -4464.0971 
 1561000    101.15864   -5042.4345   -4847.3416   -5042.4345            0    1534.4019    20.091782    19.997536    20.729874    8328.9757    657.02931    2207.3964    1738.7799   -46.493106   -1103.1045     949.9645   -4660.9584 
 1562000    107.99725   -5041.2374   -4832.9556   -5041.2374            0    3054.0951    19.973476    19.986423    20.609298    8227.1978    2740.7712    3057.8549    3363.6592   -37.276057    76.193077   -301.44767   -4466.5093 
 1563000    103.79822   -5042.9614   -4842.7778   -5042.9614            0    1921.4715    20.044162    19.923402    20.758571    8289.8918    1762.9901    2155.8243    1845.6001    -92.11885    1233.6563   -1082.0743   -4610.4727 
 1564000    107.14325    -5057.988   -4851.3532    -5057.988            0    3157.2468    20.018952    19.939667    20.605909    8225.2858     3315.373    3218.5078    2937.8598   -132.61632    222.43633    352.32875   -4472.6183 
 1565000    103.88043   -5054.5423   -4854.2002   -5054.5423            0    3224.6232    19.928252    19.818859    20.724543    8185.2661    3816.4712    3149.7904    2707.6081   -688.80404     8.153074    45.419895   -4469.2649 
 1566000    106.25191   -5041.3428   -4836.4271   -5041.3428            0    2115.1191    19.814007    19.999997    20.860354    8266.5426    2784.7421    1420.7482    2139.8671   -448.33752   -487.65509    169.73455   -4581.4304 
 1567000    99.055459   -5046.8715   -4855.8347   -5046.8715            0    2480.0469    20.105049    19.708573    20.795144    8239.9056    443.07765    4530.4676    2466.5954   -210.52217   -324.50179   -334.24791   -4557.8061 
 1568000    105.91887   -5057.6553   -4853.3819   -5057.6553            0    2139.4149    19.853125    20.082167    20.737111     8267.757     1805.797       2210.8    2401.6477    -299.4179   -96.721999     217.0998   -4595.4182 
 1569000    96.998061   -5050.7991   -4863.7302   -5050.7991            0    3502.8665    19.938685    19.869396    20.674828    8190.7389    3822.6554    3043.9358    3642.0082    440.40075    589.78836    313.17695   -4445.3004 
 1570000    102.33428   -5045.6305   -4848.2702   -5045.6305            0    1916.5807    20.009745     19.98762    20.652983    8260.1021    1438.6019    1695.7175    2615.4229   -237.51351   -51.117318    186.03402   -4617.3891 
 1571000    104.26492    -5048.971   -4847.8873    -5048.971            0    1906.5266    19.914216    19.985624     20.77024    8266.5146    3886.2303    145.79228    1687.5572   -797.44437   -157.38235     121.1515   -4618.0391 
 1572000    105.74754      -5031.3   -4827.3569      -5031.3            0    2450.2861    19.923886    19.875975    20.759346    8220.8395    3887.6527    1113.2241    2349.9815   -176.80992    444.21771    95.319387    -4533.586 
 1573000    97.824337   -5057.4159   -4868.7534   -5057.4159            0     1149.323    19.929112    20.088537    20.779846    8319.1432    1746.2828    638.76995    1062.9163   -174.77492    132.98099    352.83718   -4729.3104 
 1574000    99.155447   -5052.7096     -4861.48   -5052.7096            0    1671.3978    20.028816     19.88537    20.752213    8265.2001    650.54534    2587.3421    1776.3059   -241.11333    37.629021    -567.2536   -4660.0106 
 1575000    105.81595   -5063.2671   -4859.1921   -5063.2671            0    2299.6989     20.00073    19.884466    20.834451    8285.9411     1681.661    3562.7192    1654.7166   -718.33567    759.24527   -62.089096    -4581.292 
 1576000    100.91331   -5048.3892   -4853.7694   -5048.3892            0    3086.5216    19.898187      19.9135    20.783049    8235.1278    4761.2852    1561.5121    2936.7675    175.92776     799.8321    537.50789   -4483.0754 
 1577000    100.99917   -5066.3366   -4871.5512   -5066.3366            0    2527.4447    20.073892    19.963072    20.629175    8266.8647    2395.7131     2152.335    3034.2861   -208.61002   -128.05167   -241.84315    -4566.833 
 1578000    104.41266   -5039.8727   -4838.5041   -5039.8727            0    2463.0802    19.891465    20.131237    20.740959    8305.5056    3932.3996    1182.0247    2274.8164    193.73397    491.58366    1006.5889   -4540.1579 
 1579000    102.63354   -5060.2148   -4862.2774   -5060.2148            0    893.98616    20.106249    19.976554    20.682776    8307.3108   -447.89498    1585.8658    1543.9877   -5.4076392   -402.41408    657.39949   -4753.9677 
 1580000    103.81896   -5040.9577   -4840.7341   -5040.9577            0    2663.7806    19.997942    19.945232    20.560534    8200.8483    1613.7261    3154.7034    3222.9123   -12.041053   -310.70854    49.739695   -4522.1434 
 1581000    103.60766   -5048.7438   -4848.9277   -5048.7438            0    1943.1039    20.026387    19.912713    20.754255    8276.3751   -72.696743    3187.7007    2714.3077     -174.097    43.456643   -927.64421   -4614.3903 
 1582000    99.067336   -5054.0418   -4862.9821   -5054.0418            0    1245.4192    19.938839    19.932527    20.742765    8243.8268    997.70755    943.33993      1795.21    88.707146    95.699113    852.33135   -4713.2482 
 1583000    100.82325   -5040.5614   -4846.1153   -5040.5614            0    2602.6173    20.020334    19.921069    20.642183    8232.6486    2363.7424    2057.2977    3386.8118   -70.937811    340.47586    791.41091   -4533.6327 
 1584000    107.10019   -5043.4202   -4836.8685   -5043.4202            0    1777.3165    20.121149    19.959273    20.524299    8242.6301     412.4393    1743.6648    3175.8455   -96.126428    639.08347    727.61057   -4623.2168 
 1585000    100.20944   -5050.7676   -4857.5052   -5050.7676            0    1962.6887    20.010717    19.886957    20.669687    8225.5487    1776.9394    2513.7157     1597.411   -19.173966     494.2412   -265.01595   -4622.0588 
 1586000    100.46168   -5047.7829   -4854.0341   -5047.7829            0    2508.7018    20.081045     19.85689    20.580943    8206.5914    2114.0438    2489.1798    2922.8817     239.6471    860.67216    -1212.941   -4553.7808 
 1587000    104.14785   -5059.6617   -4858.8038   -5059.6617            0    1335.2153    20.002297    19.917221    20.793857    8284.0683    1162.0385    1200.8801    1642.7273    86.170367    663.74348   -459.77873   -4697.4903 
 1588000    101.47737    -5045.215   -4849.5073    -5045.215            0    2485.2339     19.99983     19.86592    20.682612    8217.5124    2028.2732    3263.1719    2164.2568   -359.05633    478.48221   -515.75078    -4551.667 
 1589000    95.459279   -5052.5441   -4868.4429   -5052.5441            0    1775.1997    20.150036    19.925643    20.564408    8256.6597    1375.1921    1061.9731    2888.4338   -16.457285   -33.285499   -514.95272   -4654.6824 
 1590000    94.944217   -5038.7805   -4855.6725   -5038.7805            0    3031.0105     19.90771      19.9156     20.74918    8226.5103    2596.8016    3344.1807    3152.0492   -521.43919    207.71913   -350.29567   -4492.0264 
 1591000     105.1759   -5062.7484   -4859.9079   -5062.7484            0     2613.306    20.027633    19.883873    20.727978    8254.4386    1489.9237    3811.0535    2538.9408   -324.84073   -303.01983    197.07827   -4545.3115 
 1592000    101.22157   -5053.6187   -4858.4044   -5053.6187            0    1754.6532    19.951124    20.042354    20.732738     8290.348    3254.9047   -69.129474    2078.1844   -214.60013     907.5563   -323.80822   -4646.2559 
 1593000    103.82193   -5044.7289   -4844.4996   -5044.7289            0    2244.0646    20.030094     19.83926    20.796511    8264.1641    2326.5631    2052.7704    2352.8604   -424.11018    1417.1809   -110.64822   -4574.0352 
 1594000    100.08509   -5046.2184   -4853.1959   -5046.2184            0    2577.3982    19.898577    19.941568     20.80801     8256.802    2448.0485    2191.7787    3092.3676    398.01519     471.3813    774.35642   -4542.8333 
 1595000     95.95524   -5051.0722   -4866.0144   -5051.0722            0    2677.3617    19.991284    19.901521    20.665965    8222.0982    1997.5155    3068.4087    2966.1609   -626.43583    329.26022    471.60632   -4544.9696 
 1596000    103.34925   -5046.1483   -4846.8305   -5046.1483            0    2982.1668    19.909768    20.026555    20.704739    8255.4776    2809.8104    2621.6568    3515.0332   -286.41229   -657.02072     558.9258   -4487.7846 
 1597000    99.672688   -5049.1625   -4856.9353   -5049.1625            0    2093.2799    20.031322     19.81853    20.853144     8278.518     961.2728     3492.759    1825.8078   -212.71092    602.01885    -195.3967   -4604.2059 
 1598000     105.2491   -5055.5041   -4852.5224   -5055.5041            0    3305.1426    19.811796    19.940647    20.906861    8259.4649    3405.5274    3819.6331    2690.2674    189.94906    2008.7623   -921.22495   -4454.3987 
 1599000    98.337353   -5045.7012   -4856.0493   -5045.7012            0    1944.2516    19.768215    19.976959    20.978918    8284.7601    1861.9509    2771.7996    1199.0043    137.09362    453.67041   -348.89411   -4621.1357 
 1600000    106.68917   -5059.2126   -4853.4535   -5059.2126            0    2069.8157    19.979671    19.896975    20.787394    8263.7171    2103.7105    2069.6914     2036.045    296.02851   -503.48322   -144.48271   -4604.0038 
 1601000     98.56211   -5061.9635   -4871.8782   -5061.9635            0    2511.3358    19.845403    19.991895    20.915717    8298.2525    2904.8652    1802.7829    2826.3592   -201.21315   -1437.0198    277.13397   -4567.9525 
 1602000    102.36778   -5051.7419    -4854.317   -5051.7419            0    1702.4423    20.016652    19.957428    20.743991    8286.8282    479.95258     2374.064    2253.3105   -167.77881   -449.68334   -73.061817   -4648.5686 
 1603000    100.57333   -5039.5339   -4845.5698   -5039.5339            0     3033.443    19.922226    19.960331    20.652794    8212.6704    2424.6126    3452.8493    3222.8671    104.91594   -1125.7571     -12.4773   -4482.2441 
 1604000    100.11587   -5039.8562   -4846.7744   -5039.8562            0    1755.5274    20.037692    20.009506    20.669476    8287.3087    874.07487    2308.1123    2084.3951   -198.36179   -573.53063    394.77021    -4634.598 
 1605000    105.16414    -5036.916   -4834.0981    -5036.916            0    2891.9683    19.918894    19.985264    20.711136     8244.779    2902.8175    2420.3774    3352.7101   -190.77066   -6.4732929    317.27966   -4486.3631 
 1606000    96.087206   -5046.9518   -4861.6396   -5046.9518            0    2664.9585    20.010389    19.911485    20.678584     8239.104    2801.8413    1809.4314    3383.6029    384.71624    835.22607   -187.10989   -4541.4212 
 1607000    104.93917    -5052.355    -4849.971    -5052.355            0    2177.5095    19.990387     19.94878    20.777183    8285.6044    2221.0021     1947.561    2363.9654   -174.77034    23.261609    405.56925   -4586.8472 
 1608000    103.18401   -5046.4548   -4847.4558   -5046.4548            0    2410.7074    19.900246    20.022853    20.778184     8279.269    3098.2539    2138.5722     1995.296    323.21112    154.88533   -476.34747   -4556.3758 
 1609000    100.63182    -5046.367     -4852.29    -5046.367            0    2930.0191    20.007121    19.941912     20.68889    8254.4583    2705.3678    2699.8496    3384.8399   -5.3845414    353.17112   -108.99126   -4499.5661 
 1610000    106.65817   -5048.4227   -4842.7234   -5048.4227            0    2355.9177    19.987429    19.871646    20.719277    8229.3473    1639.5699    3525.0439    1903.1393   -472.03314   -47.106459    120.73704   -4559.9742 
 1611000    106.89383   -5045.4527    -4839.299   -5045.4527            0    1998.6227    19.932609    20.056454    20.670587    8263.6348    2571.1875    1236.0738    2188.6069    -295.2452    413.83118    502.65774   -4598.4317 
 1612000    108.40202   -5055.0824     -4846.02   -5055.0824            0    2418.6188    20.017299    19.953092    20.591691    8224.4653     2285.901    1661.3314     3308.624    44.880219    20.943096    295.22122   -4555.9178 
 1613000    98.495338   -5051.8629   -4861.9063   -5051.8629            0    2663.6445    19.955689    19.964247    20.731126    8259.2872     3040.588    1789.4415    3160.9042   -131.98488    586.69114   -73.267918   -4541.0617 
 1614000    99.950165   -5035.2364   -4842.4741   -5035.2364            0    2710.1162    19.967197    19.986769    20.626811    8231.7422    2664.3594    2506.3356    2959.6535    544.14241    996.65986    1061.1856   -4517.1205 
 1615000    102.97178   -5049.8047    -4851.215   -5049.8047            0    1993.5932    19.969717    20.025651    20.674589    8267.9042    1214.6344    2879.9804    1886.1646    223.23108    198.92538   -92.643699   -4610.8297 
 1616000    103.17864   -5061.5074   -4862.5187   -5061.5074            0    2219.8049    19.913034    20.035959    20.636565    8233.5094    1827.6924     1998.427    2833.2954   -40.417515    314.03469   -381.50174   -4595.9706 
 1617000     97.15908   -5053.5571   -4866.1777   -5053.5571            0    1481.0721    19.999205    19.854301    20.832729    8272.0565    1215.4269    2277.9713    949.81815   -173.33065    496.10122    988.31284    -4687.502 
 1618000    101.50353   -5051.8215   -4856.0634   -5051.8215            0    3124.8523    19.843446    19.921903    20.732646    8196.0131    3879.5846     2939.839    2555.1332    526.81277    283.22763    165.06203   -4482.5484 
 1619000    103.33576   -5059.3793   -4860.0876   -5059.3793            0    3934.2355     19.97565     19.80132     20.64966    8167.8536    3619.2866    3775.4941    4407.9258    261.73911    34.401355    465.05627   -4391.4424 
 1620000    104.49164   -5050.9191   -4849.3982   -5050.9191            0    2586.4508    19.861883    20.012987    20.707713    8231.2246    2783.1541    2029.3121    2946.8862   -122.34992   -101.85122   -806.90504   -4538.9103 
 1621000    99.683263   -5058.8475   -4866.5999   -5058.8475            0    2504.6891    19.895641    19.889846    20.797922    8230.1795    1874.5188    3072.9161    2566.6325    53.611259    244.06731    346.57223   -4565.9653 
 1622000    103.14399   -5041.9316   -4843.0098   -5041.9316            0    2083.7983    20.009367    19.932631    20.752038     8276.729    2030.4455    2219.3036    2001.6458   -13.788081    277.07748   -9.3898959   -4591.4795 
 1623000    102.35179   -5047.5472   -4850.1531   -5047.5472            0    2468.7804    19.783082    20.076328    20.701896    8222.2057    3274.5257    1432.0443    2699.7712   -419.31427   -255.26778    385.84713   -4554.1157 
 1624000    104.09258   -5049.6985   -4848.9472   -5049.6985            0    2580.2698    19.986182    19.923179    20.683164    8235.7935    3254.8333    2486.4196    1999.5566      93.0549   -359.25754    161.93426   -4539.0294 
 1625000    105.52124   -5045.5808   -4842.0742   -5045.5808            0    2754.8519    19.933113    20.039052    20.721538    8277.0253    3136.0797    1765.2125    3363.2636     85.85738    329.34001   -1.9205947   -4509.5307 
 1626000    100.36945   -5059.6776   -4866.1067   -5059.6776            0    3155.3392    20.016714    19.819786    20.795324    8250.0662    2349.8215    4006.3251     3109.871    360.66683   -13.283514    82.894619   -4486.4602 
 1627000    99.374074   -5047.8248   -4856.1736   -5047.8248            0    2151.3541    19.901783    19.872827    20.948058     8285.055    2157.7002    2884.2795    1412.0825   -227.02311   -133.63136   -1405.0506   -4596.2275 
 1628000     99.00651   -5051.9927   -4861.0503   -5051.9927            0    2682.4316    19.991136    19.978473    20.621025    8235.8799    3505.6832    1745.3978    2796.2137     45.39519    731.45462    23.207974   -4538.8584 
 1629000    106.14272   -5041.6489   -4836.9437   -5041.6489            0    1884.0871    20.090622    19.897882    20.705005      8277.05    1547.6143    1847.7696    2256.8774    208.80351    1076.2291     163.9844   -4609.5113 
 1630000    96.721555   -5055.8527    -4869.317   -5055.8527            0     1674.539    19.962924     19.88809    20.800432    8258.2795    1965.5053    2314.6599    743.45171    79.657813    304.93738    931.43517    -4667.638 
 1631000    98.428945   -5060.2304   -4870.4019   -5060.2304            0    2362.8958    20.048747    19.868249    20.749758    8265.3234    2550.0568     2500.981    2037.6497   -315.25003    746.65965    621.47691   -4585.5755 
 1632000    103.49005   -5038.7414   -4839.1522   -5038.7414            0    955.55353    19.950415    20.093288    20.629846    8269.8747    666.67114    234.01973    1965.9697   -10.585472    119.66896   -96.052743   -4723.9051 
 1633000    104.21503   -5041.3448   -4840.3573   -5041.3448            0    2727.6173    20.018442    19.930187    20.641815    8235.4915    2241.1945    2871.8645    3069.7928   -526.20496   -95.102749   -172.37895   -4512.7536 
 1634000    96.443463   -5043.3571   -4857.3577   -5043.3571            0    1964.9743    19.997871    20.007097    20.599383    8241.7997     3405.693    -294.9193    2784.1494   -170.15677    634.85472    428.74444   -4621.1714 
 1635000     102.9224   -5054.4936   -4855.9991   -5054.4936            0     2422.259    19.984015    19.928645    20.625285     8214.109    2840.7223    2166.9661    2259.0885    99.517816    534.03466    335.82475   -4565.8262 
 1636000    105.20345    -5052.226   -4849.3323    -5052.226            0    2174.0811    20.133643    19.883289    20.666181    8273.1484    2125.4344    2114.6939    2282.1151   -34.668628    528.17043      390.529   -4587.0177 
 1637000    103.03324    -5056.585   -4857.8767    -5056.585            0    3295.7474    19.995753    19.921989     20.57964    8198.0062    2163.9002    4249.1441    3474.1978   -92.132019   -219.66323     212.3172   -4463.8387 
 1638000    102.22455    -5053.738   -4856.5894    -5053.738            0    2935.5044    19.981874    19.953447    20.600331    8213.5012     1961.353    3824.1318    3021.0283    11.765054   -396.49124    130.45737   -4504.9586 
 1639000    99.993454   -5062.9311   -4870.0853   -5062.9311            0    2138.6005    20.066103    20.006243    20.556469    8252.3394    2366.5879    1425.2011    2624.0125    342.07401     274.5393   -1034.1761   -4612.7007 
 1640000    104.20393   -5047.3332   -4846.3672   -5047.3332            0    2349.9681    19.907179    19.965849    20.729202     8239.106    2558.7731    2259.5616    2231.5698    187.13179   -32.740661    444.92172   -4563.9976 
 1641000    98.468364   -5046.3249   -4856.4204   -5046.3249            0    2051.2175    19.960458    19.956639    20.703921    8247.2757    2271.8275    1962.1243    1919.7006    55.221251    982.66494   -626.30436   -4609.7039 
 1642000    98.389227   -5043.4791   -4853.7272   -5043.4791            0    1690.5983    19.964959     19.88144    20.777977     8247.447    1867.2518    1614.8222    1589.7209    199.65647   -701.52281    351.10548   -4650.3811 
 1643000    105.36815   -5057.1533   -4853.9419   -5057.1533            0    2968.4738     20.14903    19.793094    20.584278    8209.2499    1357.1335    3864.8255    3683.4623   -269.14349   -400.28363    20.295667   -4498.5459 
 1644000    103.16874   -5048.3679   -4849.3983   -5048.3679            0    2707.6931    19.975775    19.861084    20.611208    8177.3017    3509.1375    1552.1798     3061.762    170.40792    796.07806   -697.17744   -4526.4855 
 1645000    100.60762    -5045.885   -4851.8547    -5045.885            0    2116.1626    20.048587    19.867321    20.720781    8253.3295    3548.6302    869.84925    1930.0083    95.412159   -493.05308   -189.37311     -4597.14 
 1646000    100.78947   -5054.5298   -4860.1488   -5054.5298            0     1167.914    20.088792     19.93766    20.688673       8286.3    936.31886    851.83418     1715.589   -218.50122    119.45394    777.54711   -4719.0097 
 1647000    100.76859   -5060.0943   -4865.7536   -5060.0943            0    1964.7007    19.891252    19.969629    20.779543     8254.069    1733.9531    2378.7175    1781.4314   -350.36242    442.36736   -16.893771   -4629.2485 
 1648000    99.356715   -5051.5064   -4859.8886   -5051.5064            0    2483.4367    20.047409    19.842526    20.786372    8268.6364    2368.7899    2759.3182    2322.2022   -121.67849    424.13192   -328.46494   -4560.4121 
 1649000    107.28963   -5050.0606   -4843.1435   -5050.0606            0    3698.7941    19.859276    19.893971    20.756407    8200.4388    4661.9566    2501.3861    3933.0396     -204.532     143.7063    -881.8253   -4400.7862 
 1650000    103.59894   -5053.4499   -4853.6506   -5053.4499            0    2186.8624    19.930135    19.884994    20.744309    8221.1898    2357.3788    2744.8079    1458.4006    57.105577    1462.5687    745.92961    -4591.451 
 1651000    103.84413   -5038.1559   -4837.8838   -5038.1559            0    2336.3613    19.890417    19.927929    20.840642    8260.7056    2287.7657    2514.7703    2206.5478   -96.442551   -772.83024   -118.61344   -4556.4132 
 1652000    103.64645   -5043.7741   -4843.8832   -5043.7741            0    3085.1353      20.0936    19.810874    20.673461    8229.5216    2383.6352    3679.6404    3192.1303    15.927794    -318.5038   -348.91901    -4473.608 
 1653000    100.85802   -5052.0565   -4857.5433   -5052.0565            0    1837.3865    19.910725    19.984243    20.748264      8255.75    1834.3121    2455.0789    1222.7686    70.930974   -283.01428    170.48585    -4636.319 
 1654000    102.27231   -5049.9148   -4852.6741   -5049.9148            0    1928.8791    20.113958    19.909999    20.684419    8283.4659    630.67525    2778.5756    2377.3865   -593.31171    1184.6019   -590.63494   -4619.6542 
 1655000    99.242656   -5047.3016   -4855.9038   -5047.3016            0    2397.1209    19.915554     19.99211    20.735825    8256.0505    3456.5701    1827.9742    1906.8184    433.44325   -173.75367    730.35581    -4567.276 
 1656000    100.06148   -5054.0769   -4861.0999   -5054.0769            0    1927.2309    20.044229    19.960758    20.594969    8240.0061    1923.9411    1271.2671    2586.4846   -69.408919    512.46474    716.05339   -4629.5006 
 1657000    103.37093   -5049.4973   -4850.1377   -5049.4973            0    1975.5676    19.952189    19.940415    20.773385    8264.7935    749.45107    3151.7102    2025.5414   -212.59922   -372.61745   -500.33116   -4612.0156 
 1658000    99.682331   -5059.9465   -4867.7008   -5059.9465            0     1770.438    20.022808     19.87808    20.873412    8307.9304     1844.636    2212.7134    1253.9646   -196.70452     570.5012     69.65534   -4653.1898 
 1659000    98.113858    -5052.089   -4862.8681    -5052.089            0    1580.9244    20.108502    19.908177    20.692673    8283.7653     728.1188    1974.3522    2040.3021   -281.10668    106.93111   -779.91398   -4671.8763 
 1660000    103.50724   -5051.9328   -4852.3104   -5051.9328            0    2533.2219     19.94458    20.009446     20.68029    8253.0898    2478.6279    2085.8976    3035.1403   -41.233604    957.37334   -604.53281   -4547.4046 
 1661000     101.6584   -5056.4915   -4860.4347   -5056.4915            0    2442.1365     20.07263    19.813446    20.770161    8260.4586    2919.1883    2043.3694    2363.8517   -244.86292   -144.30828    2.1617704   -4566.2297 
 1662000    104.80806   -5052.9832   -4850.8521   -5052.9832            0    2674.9247    19.962381    19.942338    20.614889     8206.716    1515.8802    2702.1689     3806.725    -580.0436   -14.189151    -206.5143   -4530.6996 
 1663000    102.43751   -5047.3611   -4849.8017   -5047.3611            0    3046.1091    20.124145     19.91286    20.575399     8245.165    2471.1594    3586.2299    3080.9381   -305.49875    475.81034    -255.1706   -4483.5154 
 1664000    101.91968   -5056.4868   -4859.9262   -5056.4868            0    2283.9918    19.972876    19.900103    20.703842    8228.9962    2942.6296    1036.4479    2872.8981   0.17956057    -271.2024   -417.21793   -4585.8209 
 1665000    105.11099   -5057.0181   -4854.3027   -5057.0181            0    2157.4606    20.001594    20.006688    20.675917    8273.7917    2677.3917    1318.9257    2476.0646    128.99874    903.22971   -169.74257   -4593.9733 
 1666000     98.13953   -5034.2566   -4844.9863   -5034.2566            0    1938.7366    20.074338    19.854342    20.758498    8273.5645    128.45303    3356.5053    2331.2515   -64.009277    960.86289    181.29179   -4611.0555 
 1667000    97.340523   -5041.7131   -4853.9837   -5041.7131            0    1962.2263    19.954691    19.911864    20.835834    8278.8083    2809.6384    1466.1223    1610.9183   -82.240379    383.26622    -740.7012   -4617.0686 
 1668000    106.93044   -5043.7588   -4837.5344   -5043.7588            0     2358.149    19.902923    19.998266    20.778441    8270.3171     2144.821    2587.5968    2342.0292    62.792273   -247.46418     376.1686   -4553.1084 
 1669000    107.69149   -5045.4041    -4837.712   -5045.4041            0    2712.1201     19.97726    19.885141    20.715066    8229.0731    3493.9987    2112.3865    2529.9752   -243.64286    7.0663714   -80.942811   -4512.2235 
 1670000    100.84917   -5046.4175   -4851.9213   -5046.4175            0    2788.5761    19.899156    19.830424    20.969569    8274.7744     3304.003    3219.6215    1842.1037   -410.43734    535.87402   -1142.3171   -4515.3985 
 1671000     104.2985   -5046.0799   -4844.9315   -5046.0799            0    3095.8877    19.917031    19.786647    20.839502    8212.6653    2657.6529    3967.3979    2662.6122    256.04999    265.04092    229.95188   -4474.1268 
 1672000    102.69269   -5058.0287   -4859.9772   -5058.0287            0    3254.6523    20.023681    19.913391    20.695994    8252.3083    2657.9529    4545.2609    2560.7431   -120.84629   -332.32618    165.17477   -4468.2751 
 1673000    97.593248   -5053.1519   -4864.9351   -5053.1519            0    2069.5115    19.818111    19.964451    20.891632    8265.9353     2546.476    1531.1927    2130.8656   -133.50151     1076.787   -525.60927   -4615.4551 
 1674000    98.760664   -5043.6805   -4853.2123   -5043.6805            0    3255.0204    19.898323    19.966609    20.843876    8281.3143    3996.9154    3397.1267    2371.0192   -228.76178   -511.29547    32.043739   -4460.0889 
 1675000    105.26305   -5060.6279   -4857.6193   -5060.6279            0    1146.9729    20.055801    19.934813    20.802214     8316.905    1332.3079    270.07206    1838.5388   -61.803856   -299.25506     289.3315   -4718.4989 
 1676000    99.634798   -5054.3685   -4862.2144   -5054.3685            0    1914.6649    19.958016    19.867209     20.72885    8219.1981    1569.3292     2127.839    2046.8266    73.574207    527.90751   -595.46724   -4632.7062 
 1677000     105.0045    -5052.048    -4849.538    -5052.048            0    3266.8548    20.074927     19.88446    20.669712    8250.9166    1997.3375    4138.9615    3664.2654    156.22882   -305.81166   -840.70771   -4456.4336 
 1678000    102.26638   -5048.6751   -4851.4458   -5048.6751            0    2704.0988    19.887316    19.943974    20.654962    8192.4212    1751.5997    3476.1198    2884.5768   -889.45228   -233.02872   -282.42833   -4528.3653 
 1679000    102.63384   -5037.7458   -4839.8078   -5037.7458            0    2752.1156    19.985846    20.048168    20.657821    8277.1672    2805.5031    2156.6727     3294.171   -281.20967    1011.5327    363.60872   -4507.5889 
 1680000    103.21149   -5044.8382   -4845.7861   -5044.8382            0    1750.0356    20.041213    19.906562    20.737614    8273.3054    1773.5646    2077.1613    1399.3808   -56.645381   -284.24679   -795.31302   -4634.6309 
 1681000    102.07271   -5050.9969   -4854.1411   -5050.9969            0    3511.7164    19.949189    19.835187    20.637926     8166.343     2853.689    5219.7425    2461.7176   -335.33065    497.58138   -331.44747   -4435.9036 
 1682000    101.90214   -5051.2028   -4854.6759   -5051.2028            0    2393.1319    19.952033     19.91528    20.791999    8261.7077    3857.4302     1299.006    2022.9595   -52.559949    559.74553    222.00468    -4566.331 
 1683000    99.982527   -5056.0856   -4863.2609   -5056.0856            0    1955.2697     20.01619    19.877125    20.722402    8244.7043     1807.476    2568.2059    1490.1274   -146.77687    900.50309   -567.80442   -4628.1582 
 1684000     93.48877   -5041.3597   -4861.0588   -5041.3597            0    3245.8954    19.908894    19.834607    20.881141    8245.6513    3154.5285    3661.8973    2921.2604   -99.790441    61.905353   -795.51712   -4470.7257 
 1685000     99.40656   -5035.1109    -4843.397   -5035.1109            0    2108.7368    19.976212    19.872538    20.797291    8256.0672    2482.5134    1494.8694    2348.8276   -260.56619    612.92186     627.0835   -4589.4918 
 1686000    103.56714   -5045.1497   -4845.4117   -5045.1497            0    1184.6363    19.949165    19.906438    20.885959    8294.1654   -208.05628    2276.1584    1485.8068   -223.07906    57.066597    -791.5973   -4702.1159 
 1687000    101.41531   -5053.0468   -4857.4588   -5053.0468            0    2472.7573    19.959667    19.871996    20.828983     8261.575    2218.4217     2952.101    2247.7491   -249.72294    35.244047     263.3934   -4559.5247 
 1688000    105.33146    -5047.476   -4844.3354    -5047.476            0    3330.6241    19.946565    19.760698    20.784276    8192.2899    2865.4523    4763.1062    2363.3139   -356.81974    507.25063    323.52282   -4446.4053 
 1689000    95.473936   -5044.9634   -4860.8339   -5044.9634            0    3778.5246    20.078814    19.801713    20.659076    8213.9435     2253.886    4851.9881    4229.6996   -363.87623    1185.9068    75.907434   -4408.1971 
 1690000    102.55365   -5035.5509   -4837.7676   -5035.5509            0    1888.4031    19.960804    19.946858    20.695569     8240.051    3198.5051    667.10789    1799.5963   -42.230192    5.1134337   -370.21073   -4610.8331 
 1691000    103.92269    -5053.503   -4853.0793    -5053.503            0    1881.3429    20.047077    19.923593    20.739994    8283.7566    886.97718    2564.1623    2192.8892   -24.714494    653.25367   -724.88415   -4625.7941 
 1692000    99.870836   -5042.8909   -4850.2816   -5042.8909            0    1998.7799    20.074623    19.885336    20.722631    8272.2799    2270.5235    2056.7528    1669.0634    180.18505    920.51781    339.80489   -4609.1433 
 1693000    100.08509   -5043.3832   -4850.3607   -5043.3832            0    2308.3178    19.912753    19.992933    20.713971     8246.529    2354.4761    2662.3606    1908.1167    267.59402   -130.32855   -28.904959   -4572.7458 
 1694000    106.13426   -5047.5355   -4842.8467   -5047.5355            0    2629.0038    19.994116     19.93411    20.673871    8239.8792    2738.1726    2175.7591    2973.0798   -536.14167    285.65513    129.15358   -4526.9188 
 1695000    100.14897    -5042.174   -4849.0282    -5042.174            0    2636.4776    20.052716     20.03622    20.569723    8264.5163    1387.7697    3210.0276    3311.6354   -41.006997    1045.1321    1148.0771   -4531.2549 
 1696000    103.19171   -5054.9603   -4855.9464   -5054.9603            0    1524.7392    20.028544    20.026066    20.640559    8278.7826    1763.7901    308.96855    2501.4591   -42.043367    366.79627      855.247   -4671.8531 
 1697000    101.48542   -5047.2171    -4851.494   -5047.2171            0    1151.8261    20.042132    19.935121    20.699101    8270.1668    1225.3766    1445.5815    784.52027    279.28804   -99.932271    -694.5126     -4712.57 
 1698000    103.38152   -5052.8931   -4853.5132   -5052.8931            0    2214.9809    20.148462    19.842888    20.673667    8265.4085     2415.664    2011.6731    2217.6057    -434.1086   -193.95892    -618.4414   -4586.5138 
 1699000    102.42989    -5042.408   -4844.8633    -5042.408            0    1482.9955    20.050907    19.942983    20.748549    8296.8237    1216.6954    1524.4395    1707.8516   -172.39906   -61.756433    90.320103   -4665.4199 
 1700000    101.12314   -5052.2187   -4857.1942   -5052.2187            0    2880.7154    19.981434    19.824217    20.775271    8229.4234    3102.8594    2305.1329    3234.1541   -576.29036    821.56115    487.34717   -4511.4574 
 1701000    100.75661   -5049.3614   -4855.0438   -5049.3614            0    2998.7304    19.905807     19.87122    20.829514    8239.1699    3245.7051    3448.7985    2301.6875   -66.111891    373.54931   -108.69146   -4494.7169 
 1702000    100.97521   -5046.5736   -4851.8344   -5046.5736            0    2501.2374    20.072451    19.778111    20.773453    8246.9604    1426.5957    3593.2768    2483.8397    10.342391    1304.0381    765.27571   -4551.0019 
 1703000    96.511144   -5049.8663   -4863.7364   -5049.8663            0    1701.5688    19.970925    19.968805    20.801527    8295.5558    2094.8111    1715.1457    1294.7495   -39.813132    842.37172    219.44606   -4657.8769 
 1704000    97.825428   -5052.1454   -4863.4808   -5052.1454            0    1787.4766    19.943718    19.861798    20.867348    8265.9343    1420.2623    1904.7653    2037.4024    -113.4449    1115.7971   -328.89026   -4648.0002 
 1705000    98.673886   -5054.8947   -4864.5938   -5054.8947            0    2807.2478    19.985264    19.726698    20.852623    8221.0059    1696.8028    3317.2826    3407.6582   -156.44178    383.92333    106.27064    -4528.019 
 1706000    99.201283   -5054.9413   -4863.6232   -5054.9413            0    2776.4747     19.88535    19.948876    20.793573    8248.6105     3604.909    2045.2723    2679.2427    355.31989    267.96314   -1103.5866   -4529.6202 
 1707000    103.30142   -5054.6973   -4855.4719   -5054.6973            0    1197.1195    20.107797    19.944383    20.772504     8330.555    1000.6486    1560.7896    1029.9201   -187.33839    1026.4158   -44.263187   -4710.0307 
 1708000     102.1794   -5046.2021   -4849.1406   -5046.2021            0     1505.836     20.03563    19.831937    20.747069    8243.7514    628.86526     2642.971    1245.6717     95.07044   -11.642161   -334.57379   -4668.0989 
 1709000    101.17521   -5047.9164   -4852.7915   -5047.9164            0    2798.1889    19.823656    19.971999    20.721496    8204.0138    3877.8297    2736.9199     1779.817    5.1955889   -46.690472   -886.10223   -4517.9962 
 1710000    105.06511   -5043.5089    -4840.882   -5043.5089            0    1756.9296    20.038876    19.901751     20.81235    8300.1463    973.09063    2950.1106    1347.5876   -542.31831    672.47148    24.147221   -4628.2072 
 1711000    101.18502   -5044.8181   -4849.6743   -5044.8181            0    3389.3544    19.819395    19.949573    20.815765    8230.3137     4642.656    2533.3676    2992.0395    31.199836    974.42811     928.4865   -4442.8478 
 1712000    102.04576   -5047.2685   -4850.4646   -5047.2685            0    3985.9984    19.942019    19.871851    20.677857    8194.3213    3623.0624    4489.7277     3845.205   -32.353296    615.54948   -191.46384   -4374.1148 
 1713000     106.1362   -5047.1292   -4842.4366   -5047.1292            0    2860.3713    19.997347    19.998598    20.640906    8254.6884    2874.7578    2414.6827    3291.6733   -507.22815    660.18083   -163.26498   -4498.0875 
 1714000    101.38524   -5044.1099     -4848.58   -5044.1099            0    3261.7032    19.986346    19.960831    20.630119    8230.2639     2393.765    3872.5759    3518.7688    227.29304    556.04142    212.06913   -4457.0779 
 1715000    96.391029   -5057.5629   -4871.6647   -5057.5629            0    2738.3103    19.999151    19.849991    20.761608    8242.0046    2582.0319     3403.811     2229.088    47.540688    1230.2807   -623.13444   -4542.5165 
 1716000    101.98445    -5058.507   -4861.8214    -5058.507            0    2052.1173    19.903661    19.941801    20.747694    8235.0674    2042.5241     1576.374    2537.4539   -265.49264    189.63223   -96.751715   -4615.3621 
 1717000    101.96105   -5063.6409   -4867.0004   -5063.6409            0    1487.7534    20.092566    19.918746    20.706092    8286.9656    1138.2978    1979.4621    1345.5002   -241.67283    856.45402   -430.99821   -4687.1952 
 1718000    107.47289   -5050.7916   -4843.5211   -5050.7916            0    3461.4286    20.011503    19.869629    20.588233    8186.3168     2463.946    3496.0062    4424.3336    324.60598   -469.18409    513.21866   -4430.2645 
 1719000    105.73363   -5053.8107   -4849.8945   -5053.8107            0    2692.7703    19.978229    19.995527     20.64032    8245.2966    2031.6529     2758.166    3288.4918   -408.93918   -684.20107   -290.49295   -4526.0911 
 1720000    95.649703   -5044.6392   -4860.1707   -5044.6392            0    2681.0528    19.987744    19.890138    20.725597    8239.6474    2701.8962    2958.3706    2382.8917    308.75571   -637.02584   -371.86649   -4537.9971 
 1721000    101.28798   -5050.4807   -4855.1384   -5050.4807            0    2470.3301    19.984406    19.967284     20.68773    8255.1142    2697.8993    1369.0276    3344.0634   -157.56026   -601.06695    366.70281   -4557.7295 
 1722000    100.44245   -5057.0148   -4863.3031   -5057.0148            0    2403.1097    20.017981    19.964291    20.771211    8301.1064    1752.4684    2540.2028    2916.6578     -127.623   -5.4493001   -172.03322   -4572.3752 
 1723000    102.42904   -5058.1442   -4860.6012   -5058.1442            0    2688.6209    19.896848    19.928818     20.72687    8218.6325     3347.132    1892.1882    2826.5425   -207.31332    45.754829     69.66448   -4538.3422 
 1724000    100.51687   -5049.2363   -4855.3811   -5049.2363            0    2054.0788    19.924793    20.062015    20.657831    8257.5857    2444.4378    1612.1966    2105.6021   -338.91406    535.10233   -354.14271   -4608.0116 
 1725000    96.626935   -5045.5572    -4859.204   -5045.5572            0    3173.7147    19.940215    19.871437     20.74651    8220.6121     3228.764    3370.6517    2921.7283  -0.35102176    445.58861   -338.62757   -4478.7099 
 1726000    103.51776   -5055.4993   -4855.8566   -5055.4993            0    1558.6456     19.89946    20.004015     20.73751     8254.962     1541.192    1772.6947      1362.05   -231.16696   -980.23821    456.70953    -4668.211 
 1727000    108.63004    -5039.977   -4830.4748    -5039.977            0    2095.1568    20.027581    19.934545    20.614949    8230.3272    1711.8193    2465.3169    2108.3343   -221.04281   -254.97322    1054.8609   -4578.9913 
 1728000    108.27363   -5050.4359   -4841.6211   -5050.4359            0    2132.6599    19.892701     19.97997    20.697704    8226.4178    2361.8021    2219.5334    1816.6441   -601.04036    121.26101    520.90105   -4585.7577 
 1729000    102.99323   -5046.2592   -4847.6281   -5046.2592            0    1996.8902    19.725166    20.000335     20.94603    8263.4166    2286.5765     2631.091     1073.003   -196.20528   -984.33257   -631.23081   -4606.9759 
 1730000    101.84225   -5039.6858   -4843.2744   -5039.6858            0    1836.3693    19.974646    20.005262    20.810744     8315.932    1084.5145    2261.7521    2162.8412   -107.57558    710.80243    4.5786902   -4620.5608 
 1731000     107.5044   -5053.2033   -4845.8721   -5053.2033            0    3142.4638     19.93795    19.868001    20.835361    8253.4536    1771.4051    4642.3068    3013.6794   -44.041437    233.22135   -1071.9966   -4467.6195 
 1732000    105.83675   -5055.8027   -4851.6876   -5055.8027            0    2665.2995    19.846818    19.960651    20.742654    8217.3147    2734.2672    2661.1961    2600.4352     -218.461   -179.15908    267.07119   -4532.2752 
 1733000    103.47095   -5057.7287   -4858.1763   -5057.7287            0    2317.9008    20.039568    19.917009    20.627514    8233.0239    616.21088    3615.5262    2721.9653    -287.6091    157.66348    739.22908   -4579.8654 
 1734000    104.12842   -5048.0857   -4847.2653   -5048.0857            0    4032.4615    19.967593    19.947194    20.653882    8226.3887    5343.1217    2530.1165    4224.1463    72.437566    51.892492     422.8557    -4363.477 
 1735000    98.022341   -5052.6353    -4863.591   -5052.6353            0    2072.6056    20.031418    19.903195    20.694833    8250.8068     2663.878    1513.6113    2040.3275   -358.16785    260.21987    197.96743   -4614.1953 
 1736000    100.06289   -5051.8131   -4858.8334   -5051.8131            0    3232.7977    19.976997    19.933917    20.593417    8200.7061    3766.7632    2312.2354    3619.3945   -71.191687    545.97266    -733.5914   -4472.1944 
 1737000    98.478571   -5044.0373   -4854.1131   -5044.0373            0     3125.607    19.979155    20.004402    20.599539    8233.0393     2823.314    2991.7791    3561.7278   -116.90212    351.62226   -330.32217   -4478.8201 
 1738000    105.44956   -5048.6146   -4845.2463   -5048.6146            0    3004.5228    20.061182    19.863101    20.625778    8218.9038    3383.1931    2594.5287    3035.8467   -304.72309    348.45945   -224.67905   -4485.1113 
 1739000    98.775359   -5044.4688   -4853.9722   -5044.4688            0    1975.4998    19.995815    19.969253    20.591221    8222.1052    1481.3184    2362.3495    2082.8314   -173.78215    176.03703    20.879998   -4617.0881 
 1740000    99.844102   -5040.7428   -4848.1851   -5040.7428            0    2007.9867    19.869247    20.032084    20.752814    8260.0851     1752.078    2178.0071    2093.8751   -11.373926    1162.9012    100.77508   -4606.2932 
 1741000    101.47434   -5057.5841   -4861.8823   -5057.5841            0    1681.2953    20.020751    19.968376    20.728817    8287.0053    2756.1391    706.39395    1581.3529   -128.90417   -175.00711    114.87587   -4658.6852 
 1742000    99.297767   -5045.3034   -4853.7993   -5045.3034            0    1943.9793    19.897635    20.006942    20.754552    8262.1966    1162.0836      3065.27    1604.5844     594.3304    521.01197    62.753607   -4619.5582 
 1743000    100.43249   -5038.9376   -4845.2451   -5038.9376            0    1681.2681    20.007158    20.139855    20.565138    8286.5425    1302.9658    1171.3168    2569.5217   -92.401148    626.44003    381.86947   -4642.0626 
 1744000    105.90724   -5049.6526   -4845.4016   -5049.6526            0    1816.0308    19.902641    20.008635     20.72674    8253.8991    1104.3107    1789.8645    2553.9173   -211.32398   -552.54954    866.43315   -4626.7975 
 1745000    107.69287   -5045.5322   -4837.8374   -5045.5322            0    1947.9901    19.973638    19.929736    20.734247    8253.6678    1813.0693    2171.2717    1859.6293   -177.41612    1733.9461   -228.90598   -4603.3554 
 1746000    107.12835   -5050.5614   -4843.9554   -5050.5614            0    2732.6524    19.965562    19.876201    20.650704    8195.0157    1876.4547    3427.3428    2894.1599   -319.82663    992.01687    182.79203     -4517.36 
 1747000    98.204512   -5044.7346   -4855.3389   -5044.7346            0    1605.8767     20.04101    19.965778    20.740646    8299.0452    788.58674    2321.7566    1707.2867   -393.43968   -280.39312    135.92659   -4660.9748 
 1748000    105.10623   -5047.6967   -4844.9905   -5047.6967            0    2441.3576    20.059369    19.810395    20.684295    8219.6086     3167.308    1572.5263    2584.2386    199.52605   -294.18488   -536.90505   -4552.3338 
 1749000    99.738033    -5057.608   -4865.2548    -5057.608            0    1503.8498     19.93376    20.027234    20.782796    8296.8677    1310.5614    1643.4476    1557.5404   -506.65122   -622.93029   -71.801691    -4683.287 
 1750000    106.34188   -5041.2691   -4836.1798   -5041.2691            0      2516.98    19.940676    20.042025    20.690985    8269.1839    2130.3785    2094.9789    3325.5827    154.58161    -594.5466    496.33543   -4532.6381 
Loop time of 368.577 on 64 procs for 250000 steps with 972 atoms

Performance: 117.207 ns/day, 0.205 hours/ns, 678.284 timesteps/s
99.0% CPU use with 64 MPI tasks x 1 OpenMP threads

MPI task timing breakdown:
Section |  min time  |  avg time  |  max time  |%varavg| %total
---------------------------------------------------------------
Pair    | 18.508     | 27.494     | 36.956     |  86.3 |  7.46
Bond    | 0.25632    | 0.275      | 0.28785    |   1.3 |  0.07
Kspace  | 149.23     | 158.47     | 167.95     |  35.7 | 42.99
Neigh   | 0.5669     | 0.57611    | 0.58536    |   0.6 |  0.16
Comm    | 83.031     | 85.023     | 89.14      |  23.0 | 23.07
Output  | 0.61077    | 0.61154    | 0.61257    |   0.1 |  0.17
Modify  | 83.832     | 88.32      | 92.498     |  24.2 | 23.96
Other   |            | 7.811      |            |       |  2.12

Nlocal:        15.1875 ave          19 max          11 min
Histogram: 2 6 9 10 0 7 11 7 7 5
Nghost:        2247.91 ave        2269 max        2223 min
Histogram: 2 2 5 11 4 13 11 9 6 1
Neighs:        4765.75 ave        6581 max        3065 min
Histogram: 3 4 9 12 7 6 9 7 5 2

Total # of neighbors = 305008
Ave neighs/atom = 313.79424
Ave special neighs/atom = 2.0000000
Neighbor list builds = 1772
Dangerous builds = 0

unfix		3
unfix		2
unfix		1

write_data	data.final.${pid}
write_data	data.final.1
System init for write_data ...
PPPM initialization ...
  extracting TIP4P info from pair style
  using 12-bit tables for long-range coulomb (../kspace.cpp:340)
  G vector (1/distance) = 0.37255111
  grid = 24 24 25
  stencil order = 5
  estimated absolute RMS force accuracy = 0.0033909567
  estimated relative force accuracy = 1.0211765e-05
  using double precision FFTW3
  3d grid and FFT values/proc = 2366 288
Last active /omp style is kspace_style pppm/tip4p/omp
WARNING: Not all mixed pair coeffs generated from mixing. Use write_data with 'pair ij' option to store all pair coeffs. (../write_data.cpp:312)

write_restart   restart.lmp.${pid}
write_restart   restart.lmp.1
System init for write_restart ...
PPPM initialization ...
  extracting TIP4P info from pair style
  using 12-bit tables for long-range coulomb (../kspace.cpp:340)
  G vector (1/distance) = 0.37255111
  grid = 24 24 25
  stencil order = 5
  estimated absolute RMS force accuracy = 0.0033909567
  estimated relative force accuracy = 1.0211765e-05
  using double precision FFTW3
  3d grid and FFT values/proc = 2366 288
Last active /omp style is kspace_style pppm/tip4p/omp
Total wall time: 0:06:08
