#include		in.partitions
include		in.temp
variable        temperature equal 270.51
variable	tempDamp equal 100.0
include		in.pressure
variable        pressure equal -125.0
variable        pressureDamp equal 1000.0 # This is 1 ps
include		in.seed
variable        seed equal 745823

units		real
atom_style	full
#include		in.box
read_restart	restart.lmp.${pid}
read_restart	restart.lmp.0
Reading restart file ...
  restart file = 30 Jul 2021, LAMMPS = 30 Jul 2021
  restoring atom style full from restart
  orthogonal box = (0.095643491 0.0071881853 -0.035835968) to (18.111929 23.621990 22.249032)
  2 by 4 by 2 MPI processor grid
  restoring pair style lj/cut/tip4p/long/omp from restart
  restoring bond style harmonic/omp from restart
  restoring angle style harmonic/omp from restart
  864 atoms
  576 bonds
  288 angles
Finding 1-2 1-3 1-4 neighbors ...
  special bond factors lj:    0        0        0       
  special bond factors coul:  0        0        0       
     2 = max # of 1-2 neighbors
     1 = max # of 1-3 neighbors
     1 = max # of 1-4 neighbors
     2 = max # of special neighbors
  special bonds CPU = 0.001 seconds
  read_restart CPU = 0.005 seconds
include 	in.setup
variable	out_freq equal 1000
variable	out_freq2 equal 10000
variable	out_freq3 equal 1000

timestep	2.0

neigh_modify    delay 7 every 1

include		in.tip4p
# This is TIP4P/Ice

# create groups ###
group ox type 2
288 atoms in group ox
group hy type 1
576 atoms in group hy

# set charges - beside manually ###
set group ox charge -1.1794
Setting atom values ...
  288 settings made for charge
set group hy charge 0.5897
Setting atom values ...
  576 settings made for charge

# ### TIP3P Potential Parameters ###
pair_style lj/cut/tip4p/long/omp 2 1 1 1 0.1577 8.5
pair_coeff 1 1*2 0.000 0.000
pair_coeff 2 2 0.21084 3.1668
bond_style  harmonic
bond_coeff  1 450 0.9572
angle_style harmonic
angle_coeff 1 55 104.52
kspace_style pppm/tip4p/omp 1.0e-5
pair_modify tail yes

thermo          ${out_freq}
thermo          1000
thermo_style    custom step temp pe etotal epair emol press lx ly lz vol pxx pyy pzz pxy pxz pyz enthalpy

restart 	${out_freq3} restart.lmp.${pid} restart2.lmp.${pid}
restart 	1000 restart.lmp.${pid} restart2.lmp.${pid}
restart 	1000 restart.lmp.0 restart2.lmp.${pid}
restart 	1000 restart.lmp.0 restart2.lmp.0


include         in.dump
dump            myDump all atom ${out_freq2} dump.water.${pid}
dump            myDump all atom 10000 dump.water.${pid}
dump            myDump all atom 10000 dump.water.0
dump            myDump2 all dcd ${out_freq2} dump.dcd
dump            myDump2 all dcd 10000 dump.dcd
dump_modify     myDump append yes
dump_modify     myDump2 append yes


variable natoms 	equal  "count(all)"                        # NUMBER ATOMS
variable H      	equal  "enthalpy/v_natoms"                 # ENTHALPY-per-atom
variable Vol      	equal  "vol/v_natoms"                 # volume-per-atom
fix AVG all 		ave/time ${out_freq} 1 ${out_freq} v_Vol v_H file vol_enthalpy.dat
fix AVG all 		ave/time 1000 1 ${out_freq} v_Vol v_H file vol_enthalpy.dat
fix AVG all 		ave/time 1000 1 1000 v_Vol v_H file vol_enthalpy.dat


timer           timeout 23:50:00 every 1000
New timer settings: style=normal  mode=nosync  timeout=23:50:00

fix 		1 all shake 1e-6 200 0 b 1 a 1
       0 = # of size 2 clusters
       0 = # of size 3 clusters
       0 = # of size 4 clusters
     288 = # of frozen angles
  find clusters CPU = 0.001 seconds
fix             2 all nph aniso ${pressure} ${pressure} ${pressureDamp}
fix             2 all nph aniso -125 ${pressure} ${pressureDamp}
fix             2 all nph aniso -125 -125 ${pressureDamp}
fix             2 all nph aniso -125 -125 1000
fix             3 all temp/csvr ${temperature} ${temperature} ${tempDamp} ${seed}
fix             3 all temp/csvr 270.51 ${temperature} ${tempDamp} ${seed}
fix             3 all temp/csvr 270.51 270.51 ${tempDamp} ${seed}
fix             3 all temp/csvr 270.51 270.51 100 ${seed}
fix             3 all temp/csvr 270.51 270.51 100 745823


run             250000
PPPM initialization ...
  extracting TIP4P info from pair style
  using 12-bit tables for long-range coulomb (../kspace.cpp:340)
  G vector (1/distance) = 0.37094936
  grid = 24 27 25
  stencil order = 5
  estimated absolute RMS force accuracy = 0.003253429
  estimated relative force accuracy = 9.7976048e-06
  using double precision FFTW3
  3d grid and FFT values/proc = 6300 1296
Last active /omp style is kspace_style pppm/tip4p/omp
Neighbor list info ...
  update every 1 steps, delay 7 steps, check yes
  max neighbors/atom: 2000, page size: 100000
  master list distance cutoff = 10.8154
  ghost atom cutoff = 10.8154
  binsize = 5.4077, bins = 4 5 5
  1 neighbor lists, perpetual/occasional/extra = 1 0 0
  (1) pair lj/cut/tip4p/long/omp, perpetual
      attributes: half, newton on, omp
      pair build: half/bin/newton/omp
      stencil: half/bin/3d
      bin: standard
Per MPI rank memory allocation (min/avg/max) = 12.25 | 12.28 | 12.30 Mbytes
Step Temp PotEng TotEng E_pair E_mol Press Lx Ly Lz Volume Pxx Pyy Pzz Pxy Pxz Pyz Enthalpy 
  750000    273.18488   -4175.4696   -3707.2401   -4175.4696            0     195.0405    18.016285    23.614801    22.284868    9481.1193    1531.9018   -387.36514    -559.4152   -83.171037    189.05503   -107.69184   -3680.2713 
  751000    271.42901   -4200.4007   -3735.1806   -4200.4007            0   -266.90469    18.036355     23.89512    22.020444    9490.3897    443.58613   -1371.3339    127.03369   -466.17087    345.64542   -408.48131   -3772.1223 
  752000    267.74696   -4201.3281    -3742.419   -4201.3281            0   -304.43423     18.33612    23.450068    22.171246    9533.2649     4.996846   -1594.1169    675.81731    -394.4835    652.92752    851.74562   -3784.7453 
  753000    266.87572   -4198.6158   -3741.1999   -4198.6158            0   -113.71502    18.287621     23.43652    22.235596    9530.1367    105.29966   -1346.3537    899.90899   -172.34079   -715.99771    13.165041   -3757.0049 
  754000    254.05964   -4209.7525   -3774.3029   -4209.7525            0   -1907.6524    18.265678    23.678748    22.289046    9640.1992   -2149.6971   -603.21642   -2970.0438    367.80019   -165.62201    201.39574   -4042.5044 
  755000    284.46391   -4202.9864    -3715.425   -4202.9864            0   -249.80974    18.146076    23.752359    22.237185    9584.4961     628.9465   -564.14202    -814.2337    404.76716   -636.99193   -38.540153   -3750.3434 
  756000     279.6251   -4202.0536   -3722.7858   -4202.0536            0    872.02772    18.174318    23.486583    22.146946    9453.4821    1187.1993    1467.6908   -38.806925    232.80782   -69.964203   -1117.6785   -3602.5599 
  757000    267.30256   -4184.3824    -3726.235   -4184.3824            0   -676.76234    18.091741    23.392183    22.530801    9535.1548    319.73038   -1708.9063   -641.11115    119.33632   -818.09706    466.07269   -3820.3459 
  758000    261.14401   -4171.4337   -3723.8418   -4171.4337            0   -670.75513    18.222958    23.824291    22.036207    9566.9982   -1460.8319   -1942.7254    1391.2919    46.680974   -760.38185   -25.019348   -3817.4289 
  759000    288.70618   -4197.7787   -3702.9461   -4197.7787            0   -591.73788    18.055853    23.664907    22.416247    9578.2404    128.43688    474.19311   -2377.8436   -1039.6608   -93.309445   -561.86924   -3785.6053 
  760000    278.08909    -4202.075   -3725.4398    -4202.075            0   -1299.8305    18.184247    23.572944    22.317459    9566.5179   -727.22022   -1557.5339   -1614.7372    111.93289   -303.42493    23.686847   -3906.7893 
  761000    266.42614   -4196.9125   -3740.2672   -4196.9125            0      1555.59    18.234757    23.603626    21.856341    9407.1089    1470.3895    782.57027    2413.8101    943.70722     286.3981    4.8493977   -3526.8511 
  762000    277.41915   -4160.3341   -3684.8472   -4160.3341            0    352.34307     18.13941    23.404502    22.311617    9472.2598   -41.681247    140.75763    957.95282   -1005.6176   -213.98339   -259.71738   -3636.1734 
  763000    270.91156   -4170.4142   -3706.0811   -4170.4142            0   -1122.3463     18.32292    23.701889    22.039249     9571.377   -1431.9141   -1621.8027   -313.32216   -887.48929   -379.70582   -81.890451   -3862.7479 
  764000    254.13565   -4197.5627   -3761.9829   -4197.5627            0    740.70469    18.100717    23.557146    22.193682    9463.4131    1244.8689   -249.39925    1226.6444   -196.55074    423.97091   -509.88838   -3659.7552 
  765000     271.4863   -4199.8275   -3734.5093   -4199.8275            0    1059.2842    18.082009     23.53221    22.239156    9462.9747   -502.44154    1629.1985    2051.0957    105.61101    189.08866    893.29692   -3588.3198 
  766000    271.61446   -4195.3061   -3729.7682   -4195.3061            0   -724.88576    18.336277     23.75866     21.96837     9570.419   -1573.5099   -1283.6742    682.52691   -768.01808   -377.70331    479.63751   -3830.9439 
  767000    262.78458   -4176.0826   -3725.6788   -4176.0826            0   -1238.5427    18.209537    23.423935    22.395478    9552.5449   -2145.2442    -870.1051   -700.27869    234.69201    943.76016   -178.15053   -3898.2252 
  768000    259.77109   -4212.4765   -3767.2377   -4212.4765            0   -667.56488    18.393676     23.54195    22.019614    9534.9996   -2813.6978    559.40072    251.60243     179.8692    341.86636   -220.32021   -3860.0681 
  769000    265.28209   -4190.3599   -3735.6754   -4190.3599            0    1042.8917    17.973752    23.663414    22.243123    9460.4522    1515.7248    2331.9032   -718.95292    224.11091    137.65157    457.18135   -3591.7866 
  770000    271.15028   -4226.4312   -3761.6889   -4226.4312            0    -653.6556    17.970438    23.860399    22.185389    9512.6917   -189.94826   -2129.3661    358.34759   -833.47188    364.40946    181.74837   -3852.3724 
  771000    272.04048   -4226.1677   -3759.8996   -4226.1677            0    61.507535     18.33472    23.509315    22.064064    9510.4218    -1431.368    128.20038    1487.6902    412.52402   -627.72967    173.88498   -3751.3685 
  772000    275.31395   -4186.5989   -3714.7202   -4186.5989            0     1173.637     18.23016     23.21249    22.280111     9428.217     2536.702    1561.5162   -577.30736    618.32808    294.14289   -90.454617   -3553.3441 
  773000    262.79969   -4212.5028   -3762.0731   -4212.5028            0    316.34006    18.275664    23.692558    21.925026    9493.4754    230.50061   -806.08258    1524.6021    352.54567   -566.80706   -61.640993    -3718.275 
  774000    284.51833    -4172.526   -3684.8713    -4172.526            0   -284.34838    18.165906    23.623618    22.275574    9559.4382   -675.88173   -719.36311     542.1997    324.27354    338.44899    89.148417   -3724.5137 
  775000    268.11127   -4188.8206    -3729.287   -4188.8206            0   -81.938849    17.958656    23.810546    22.275246    9525.0152    2056.8961   -1515.5181   -787.19456    236.20995   -421.49797    780.94506   -3740.6694 
  776000    285.43488   -4186.7865   -3697.5609   -4186.7865            0    913.15556    18.163687    23.645018     21.94847    9426.4439    1548.4872   -693.66386    1884.6434    232.38654   -213.67823   -166.89561   -3572.0249 
  777000    282.01779   -4196.8594   -3713.4905   -4196.8594            0    781.33808     18.15722    23.487837    22.269541    9497.3764    553.25092     1982.799    -192.0357    153.77174    61.296063    472.02123   -3605.2678 
  778000    275.71924   -4224.6092   -3752.0359   -4224.6092            0    784.36422    18.078682    23.512196     22.15859     9418.941    2427.1764   -720.06693    645.98321   -116.34939   -221.24016   -201.95381   -3644.2912 
  779000    257.94175   -4210.8778   -3768.7745   -4210.8778            0   -2181.0795    18.374108    23.782812    22.141852    9675.7231   -3209.8011    -1684.024   -1649.4134   -990.34403   -519.86042   -12.228491   -4076.5477 
  780000    284.95833   -4201.1279   -3712.7191   -4201.1279            0    401.65987    18.051489    23.530189    22.302117    9472.9348    621.14555    635.14555   -51.311486    -182.2158    552.98169   -61.550669   -3657.2286 
  781000    270.36589   -4160.8824   -3697.4845   -4160.8824            0    841.90287    18.069978    23.661902    22.170878    9479.6036    1897.4927   -146.81307    775.02896   -1654.9119    417.16682    629.86404   -3581.0912 
  782000    267.57929   -4182.1521   -3723.5304   -4182.1521            0   -507.38214    18.358456     23.51998    22.108274    9546.1429   -1497.8261   -50.942977    26.622657    315.97961   -125.50144    565.37439   -3794.1685 
  783000    293.65253   -4231.8284    -3728.518   -4231.8284            0   -326.44168    18.174072    23.518068    22.377816     9564.705   -585.41039     800.8458   -1194.7605    1897.3811    725.08827    628.22481   -3774.0538 
  784000    258.17866   -4202.7505   -3760.2411   -4202.7505            0   -1254.7714    18.272462    23.907034    21.983524    9603.2906    -2029.396   -2389.8724    654.95409    328.10684     324.1563   -652.21772   -3935.9771 
  785000    267.30425   -4230.3139   -3772.1635   -4230.3139            0   -221.14001    18.158229    23.473293    22.250728    9484.0045    614.82318   -914.62687   -363.61634   -10.089512   -862.86736    896.95524   -3802.7504 
  786000    276.58174   -4242.8852   -3768.8336   -4242.8852            0    202.24819    18.070842    23.443836    22.206424    9407.7482   -982.71245    839.22607    750.23095   -57.414197    238.71866    272.64718   -3741.0847 
  787000    280.34799     -4208.81   -3728.3031     -4208.81            0    -4.582543    18.248135    23.680348    22.057532    9531.5492   -498.58715   -516.23357    1001.0731     315.6905    58.928563    62.591724   -3728.9401 
  788000    270.37562   -4193.7687   -3730.3542   -4193.7687            0   -767.54321     17.91712    23.502151    22.559176    9499.4628    463.63296   -1172.0236    -1594.239     -36.0091    -638.6488   -261.33256   -3836.6895 
  789000    272.26561    -4195.125    -3728.471    -4195.125            0    1765.3639    18.069237    23.564733    22.044867    9386.6324    1894.2201      1586.46    1815.4117    478.32571    737.78115    497.15466   -3486.8026 
  790000    268.98688   -4206.4349   -3745.4006   -4206.4349            0   -1227.3796    18.271004    23.665686    22.245106    9618.6915   -361.34927   -2849.7288   -471.06085    59.311202   -700.48711   -180.38272   -3917.5759 
  791000    265.92132   -4193.6004   -3737.8204   -4193.6004            0   -1189.1579    18.185062     23.65818    22.379887    9628.3977   -1668.9657   -1962.8802    64.372364    515.99527    103.24197   -517.90586   -3904.8023 
  792000    273.27279   -4210.9164   -3742.5362   -4210.9164            0   -1335.8981    18.322246    23.535157     22.20784    9576.3965    -2268.233    68.568048   -1808.0294    86.997803   -190.24692   -167.61912   -3929.1103 
  793000    271.24977   -4188.8739   -3723.9611   -4188.8739            0   -82.026798    18.076029    23.458912    22.336487    9471.6527    810.16773   -181.81618   -874.43194   -878.75644   -217.81279    6.3399587   -3735.2918 
  794000    267.63112   -4192.0667   -3733.3561   -4192.0667            0    2191.5452    18.021954    23.614569    22.049386    9383.7924    3730.0937    872.61622    1971.9256     38.55812    1218.8682    808.06692   -3433.4366 
  795000    258.56155    -4230.062   -3786.8964    -4230.062            0    -841.6125    18.088597    23.705802    22.156179    9500.6742   -1135.6769   -1021.3632   -367.79749   -855.06965   -191.02461   -348.29808   -3903.5082 
  796000    279.46896   -4205.0834   -3726.0831   -4205.0834            0    250.76231     18.21256    23.408274    22.427225    9561.2776   -788.45645    755.71751    785.02587   -107.89264    131.72881    299.94581   -3691.1165 
  797000    261.90142   -4205.7119   -3756.8219   -4205.7119            0   -562.93773    18.356315    23.513389    22.126925    9550.4056   -1462.0234   -1222.3794    995.58964    26.533237     385.6586    276.10369   -3835.2294 
  798000    263.03257   -4178.1405   -3727.3117   -4178.1405            0   -1138.0034     18.40755    23.307012    22.378152    9600.7865   -1651.8544   -1189.9613   -572.19438   -510.43865   -340.30013    62.935661   -3886.6522 
  799000    261.15486   -4164.0341   -3716.4236   -4164.0341            0   -97.095573    18.133106     23.71265    22.210054    9549.9681   -71.268117   -515.47391    295.45531    141.65957   -770.41822     18.69832   -3729.9468 
  800000    262.12331   -4202.3793   -3753.1089   -4202.3793            0    988.38965    18.100464    23.812953    22.107988    9529.1067    271.38418   -248.09025     2941.875   -34.141711   -589.64183    67.759441   -3615.7501 
  801000    277.78811    -4182.795   -3706.6757    -4182.795            0    614.44368     18.07512    23.535339    22.383153    9521.8843     1343.923    666.51328   -167.10524   -286.95828   -284.47551   -457.02944   -3621.3498 
  802000    270.08951   -4207.6669   -3744.7427   -4207.6669            0    762.65897    18.379513    23.420558    22.028439    9482.3279   -579.47385    1297.8902    1569.5605   -443.17478   -138.25642   -181.09809   -3639.2746 
  803000    261.79528   -4207.9555   -3759.2473   -4207.9555            0   -158.57625      18.3609    23.439582    22.167186    9540.1323   -1268.4503   -391.38171    1184.1032   -1001.2004    555.59717     31.65758   -3781.3105 
  804000    271.65417   -4173.6559   -3708.0499   -4173.6559            0   -1688.7002    18.196623    23.718332    22.289138    9619.8484   -442.54602   -3023.0228   -1600.5316   -270.93507   -506.66736   -289.03104   -3944.9672 
  805000    274.67953   -4202.9544   -3732.1631   -4202.9544            0   -391.69561    17.914534    24.139849    22.021749    9523.3968    404.47776   -1565.4491   -14.115458    498.31258    -552.5964   -150.34299   -3786.5653 
  806000    280.55721   -4175.5723   -3694.7069   -4175.5723            0    362.83653    18.092619    23.659049    22.269086    9532.3746     281.3503   -926.87936    1734.0387   -217.38527    1071.5782    303.94161   -3644.2654 
  807000    272.98453   -4204.5351   -3736.6489   -4204.5351            0   -428.51292    18.570849    23.066728    22.183843    9502.8646   -1331.8328    769.11913   -722.82505   -432.55716   -515.49953    189.49161   -3796.0364 
  808000    281.77074   -4223.5907   -3740.6453   -4223.5907            0    946.76371    18.299005    23.410015    22.077154    9457.4106    1203.7084    929.12117    707.46152   -361.37489   -956.18483    398.51486   -3610.0613 
  809000    282.68284   -4211.4539   -3726.9452   -4211.4539            0   -21.198374    18.110416    23.732676    22.123993    9509.0831     745.7186   -1412.6595    603.34575     298.6672   -639.54951   -302.20546    -3729.885 
  810000    258.70541   -4218.8432    -3775.431   -4218.8432            0   -480.08098    17.867769    23.828128    22.274762    9483.6021    409.60759   -1457.0965   -392.75399   -1101.5494   -237.78179    141.96115   -3841.8303 
  811000    264.27901   -4190.6457   -3737.6806   -4190.6457            0    439.04429    18.218587    23.644139    22.221923    9572.3776   -1000.5491    1088.2105    1229.4716    457.00072      400.113    -421.4165   -3676.3885 
  812000    283.44993   -4199.7319   -3713.9084   -4199.7319            0     48.89404     18.36844    23.185102    22.299267     9496.682    88.387342    970.48753   -912.19275   -984.96322    120.11633   -559.17711   -3707.1366 
  813000    277.24553   -4167.6846   -3692.4953   -4167.6846            0    231.11524    18.316304    23.481602    22.154767    9528.6805   -388.94924    85.671485    996.62349   -338.47855    29.964895   -139.05904   -3660.3781 
  814000    262.89257   -4188.4038   -3737.8149   -4188.4038            0   -857.65835    18.278551    23.646204    22.206408    9598.0168     -1003.84   -810.41495   -758.72005    1127.7647   -187.65735   -441.23089   -3857.8675 
  815000    262.66925   -4223.5931    -3773.387   -4223.5931            0    407.85185    17.888575    23.649945    22.351012    9455.9043    603.78096    638.16153   -18.386934   -1037.6525    78.873928    259.57194   -3717.1424 
  816000    273.61105   -4175.1806   -3706.2206   -4175.1806            0    582.57196    18.063361    23.901637    21.996271    9496.7557    347.65859   -894.82337    2294.8806   -1411.8571   -309.82922   -161.10054   -3625.5341 
  817000    264.75409   -4231.2635   -3777.4841   -4231.2635            0   -579.49724    18.315359    23.524795    22.165947    9550.5318   -1209.8493     422.0347   -950.67716    323.14344   -170.54222    10.374455   -3858.1992 
  818000    268.19999   -4203.7411   -3744.0555   -4203.7411            0   -168.04854     18.29378    23.224156    22.261637    9458.0256   -111.63384    428.63207   -821.14386   -253.14446    372.71588    758.58316   -3767.2354 
  819000    262.76343   -4231.5685    -3781.201   -4231.5685            0   -383.07728    18.108876    23.638788    22.342135    9564.0399   -988.77265    -784.0672      623.608   -305.16048    329.45177   -88.276708   -3834.6333 
  820000    262.92777   -4191.6799   -3741.0307   -4191.6799            0   -308.25248    17.979715    24.014355    22.143186    9560.7915   -186.53253   -969.32283    231.09792    927.89233     847.8138    100.51426   -3784.0117 
  821000    281.12876    -4225.052   -3743.2069    -4225.052            0    -103.5809     18.33731    23.515972    22.112093    9535.1697   -927.17801    371.63913    244.79618    690.77991   -430.45468   -426.42706    -3757.611 
  822000    291.25472   -4170.4265   -3671.2259   -4170.4265            0   -71.992623    18.345286      23.5496    22.203613    9592.4972   -1079.7437    535.24388      328.522    387.68374    51.007544    -1004.003   -3681.2975 
  823000    247.54264   -4201.5738   -3777.2942   -4201.5738            0   -60.512413    17.990051    23.485224    22.294422    9419.4021    305.45177   -9.8265201   -477.16248    626.36239    259.11013    804.63071   -3785.6069 
  824000    286.31614   -4239.7848   -3749.0487   -4239.7848            0    1062.6099    18.096355    23.839207    21.765482     9389.689    2016.6387   -351.84894    1523.0399   -564.90746   -257.36962    535.45908    -3603.536 
  825000    273.40921   -4208.9032   -3740.2892   -4208.9032            0    577.18343    17.995727     23.59673    22.232361     9440.757    44.762534    106.75124    1580.0365    693.16301    817.59418   -460.22265   -3660.8204 
  826000     277.6927   -4219.2171   -3743.2613   -4219.2171            0   -1174.8185    18.177076    23.573766    22.239578    9529.7067    -2763.215    -790.0829    28.842465    936.32157   -299.69442     512.8561   -3906.5387 
  827000    260.89484   -4208.7665   -3761.6017   -4208.7665            0    14.379706    18.229639    23.420998    22.076892    9425.8691    2225.1473   -297.85424   -1884.1539    419.45841   -1192.2039     390.4018    -3759.625 
  828000    288.24895   -4185.4681   -3691.4193   -4185.4681            0    209.78926    18.107281    23.449449    22.443665    9529.7093    1244.9205    166.75843   -782.31118   -302.97394   -160.25024    479.85368   -3662.2626 
  829000    275.41826   -4220.2997   -3748.2422   -4220.2997            0   -352.57381    18.192997    23.655873    22.093834    9508.5502   -956.50543   -967.53706    866.32107     655.5056   -681.58888   -54.492682   -3797.1345 
  830000    289.33135   -4200.6316   -3704.7275   -4200.6316            0    161.95671    18.201091     23.30104    22.344293    9476.3118   -199.97253    916.11703   -230.27437    483.20587   -706.46753   -35.693443   -3682.3447 
  831000    272.15378   -4206.1002   -3739.6379   -4206.1002            0   -679.38664     18.25116    23.541782    22.098219    9494.8281   -751.37142   -1338.7103    51.921776   -923.95252   -743.65499    163.95216   -3833.7142 
  832000    270.51407   -4226.3788    -3762.727   -4226.3788            0   -1063.9006    18.000607    23.933775    22.101161    9521.6772   -949.55892   -2052.8745   -189.26853   -396.19173    141.39616    300.44529   -3910.4644 
  833000    266.32589   -4223.2302   -3766.7568   -4223.2302            0   -45.258342    18.091445    23.606731    22.190135    9476.9601   -452.48013   -787.34816    1104.0533   -241.51894   -273.92539    379.15853    -3773.012 
  834000    280.86332   -4175.9376   -3694.5475   -4175.9376            0    707.53128    18.336396    23.470112    21.960341    9450.7919    245.19158    1730.6583    146.74398    -68.55212    116.60486    627.18881   -3597.0284 
  835000    267.08451   -4197.7991   -3740.0254   -4197.7991            0   -157.04641    18.212832    23.366744    22.306785    9493.2007   -928.75531    1406.0859    -948.4698   -192.18338   -149.43777   -1224.9752   -3761.7682 
  836000    265.59427   -4199.5798   -3744.3603   -4199.5798            0    -291.2324    18.391378    23.684463      21.8791    9530.3153   -1397.7489     13.05284     510.9989   -491.13918   -185.83621     97.23244   -3784.8387 
  837000    261.87327    -4210.897   -3762.0552    -4210.897            0   -188.17903     18.13765    23.750332     22.23773    9579.4631    977.41321    -1691.724    149.77366   -587.93883   -449.92167   -69.716331    -3788.345 
  838000     274.2581   -4178.2016   -3708.1326   -4178.2016            0   -875.64552    18.056124    23.770781    22.411152    9619.0494   -29.646471   -1116.9896   -1480.3005    823.18744   -35.912183   -438.08579   -3830.9716 
  839000    258.49902    -4220.251   -3777.1926    -4220.251            0   -225.13731    18.232218    23.690046    22.048506    9523.2362   -1580.1239    1403.6049   -498.89296    70.292589    324.93723   -103.71445   -3808.4611 
  840000    280.34057   -4217.0408   -3736.5466   -4217.0408            0    303.45285    18.117205    23.298222    22.502362     9498.217   -1248.6904    1829.4289    329.62005    931.34432    981.60492    670.68189   -3694.5118 
  841000    271.32374    -4243.992   -3778.9524    -4243.992            0    -230.0426    18.264966    23.577606    22.095182    9515.1616   -92.246362   -736.62995    138.74852   -876.89795   -329.88321    242.94045   -3810.8751 
  842000    280.03652   -4201.1227   -3721.1497   -4201.1227            0   -593.68513    18.232141    23.634102    22.063765    9507.2829    -2568.626    635.09787    152.47275    206.57165    140.28481   -20.835044   -3803.4665 
  843000    251.59764   -4199.7759   -3768.5462   -4199.7759            0    -100.1193    18.202809    23.530732     22.17239    9496.9981   -275.18039   -663.46574    638.28824     981.6608    124.23373   -502.15635   -3782.4131 
  844000    272.81483   -4210.5091   -3742.9138   -4210.5091            0    -288.2291    17.981482      23.8833    22.005356    9450.3574    19.978457   -682.40281   -202.26295   -109.66559   -316.78802    122.17744   -3782.6386 
  845000    269.86147   -4233.0727   -3770.5394   -4233.0727            0    520.51033     18.03771    23.535174    22.361964    9493.1151    2440.6412   -1521.6804    642.57019   -274.76149    676.25686   -405.18139   -3698.4761 
  846000    278.08404   -4186.3939   -3709.7674   -4186.3939            0   -417.33907    18.363566    23.710565    22.008651    9582.7983   -1004.0626   -1179.6531    931.69855    878.63922    647.18365   -419.19247   -3768.0927 
  847000    276.84749    -4208.544   -3734.0369    -4208.544            0   -1197.2497    18.166328     23.38051    22.542392    9574.6106    -1856.855   -718.10583   -1016.7883   -89.958562    612.74024   -842.16739   -3901.2159 
  848000    267.88684   -4235.2123   -3776.0634   -4235.2123            0   -742.90415    18.193718    23.656416    22.255495    9578.7239   -1060.6591   -562.45474   -605.59858    736.79713    285.93057    614.68486   -3879.8441 
  849000    259.87257   -4182.5393   -3737.1266   -4182.5393            0    827.58955    18.187616    23.782137    21.891087    9468.7791    728.36524    138.53695    1615.8665   -891.20985   -67.341082    153.07653   -3622.8427 
  850000    269.09747   -4227.8999   -3766.6761   -4227.8999            0    649.83059    17.901293    23.558828    22.377788    9437.4625    2298.8261    10.010485   -359.34479    256.04064   -194.61453   -442.37472   -3677.2362 
  851000    263.37884   -4234.0546   -3782.6323   -4234.0546            0    -155.3966       18.218    23.684191     22.05666    9516.9769   -1170.6334    703.08131    1.3623132   -815.58175    729.49345    470.16172   -3804.2006 
  852000    273.29341   -4191.0158   -3722.6002   -4191.0158            0   -3.8635892    18.150465     23.66306    22.208176    9538.3123    351.89798   -1045.4865    681.99776    2113.1405   -138.17712   -64.824852   -3723.1377 
  853000    273.06786   -4189.2973   -3721.2683   -4189.2973            0   -1215.9061    18.158635    23.538115    22.410019    9578.4911   -2147.8509   -1517.4871    17.619628    -18.49897   -217.74763   -716.83496   -3891.1213 
  854000    255.50878   -4174.0102   -3736.0769   -4174.0102            0   -1031.0561    18.434509     23.84337    21.899802    9625.8571   -1806.6666   -1241.1755   -45.326175    49.736099   -223.63083    141.44405   -3880.8199 
  855000    278.32732   -4184.6682   -3707.6247   -4184.6682            0   -399.10507    18.121533    23.607444    22.343929    9558.8017   -208.25633   -1188.5343    199.47547   -504.14893   -983.88539    238.01304   -3763.2621 
  856000    282.44189    -4252.682   -3768.5863    -4252.682            0   -418.45403    18.124505    23.829895    22.148427    9566.0179   -654.90701   -1255.8916    655.43656   -620.46114   -249.82497   -902.74026    -3826.965 
  857000    260.64128   -4202.8621   -3756.1319   -4202.8621            0   -840.85839    18.239538    23.720274    22.138153    9578.0021   -1910.1883   -877.42279    265.03595    458.84329   -231.51818   -585.59846   -3873.5875 
  858000    272.54501   -4205.9169    -3738.784   -4205.9169            0   -619.84983    18.234065     23.39128    22.436845    9569.7206    -1278.706    398.89243   -979.73589    416.52032   -418.17656   -174.09377   -3825.2931 
  859000    277.06516   -4225.1588   -3750.2786   -4225.1588            0     80.31707    18.326373    23.548906    22.018845    9502.5852   -290.10641    73.029936    458.02769   -86.117951    1028.1865   -25.678098   -3739.1478 
  860000    266.62605   -4206.2866   -3749.2987   -4206.2866            0   -1303.7146    18.289405    23.609015    22.267605    9615.0368   -1224.6294   -1568.4883   -1118.0261    314.80501     458.9384    260.61483   -3932.1127 
  861000    285.46113   -4224.9819   -3735.7112   -4224.9819            0   -447.33491    18.090437    23.695022     22.31138     9563.847    -429.2883    813.54195   -1726.2584   -238.34146    -242.0784     22.21207    -3798.105 
  862000    271.04146   -4198.2102   -3733.6545   -4198.2102            0   -927.41385    18.074608    24.103772    22.092557    9624.9812    -1932.261   -1247.3529    397.37235    32.020145     459.3378    -838.3489    -3863.836 
  863000    266.05392    -4203.666   -3747.6587    -4203.666            0    666.64576     18.18442    23.487621    22.255948    9505.7101   -470.43439    1035.7688    1434.6028    287.49603    42.189004    227.49199    -3655.241 
  864000    278.02046   -4170.5237   -3694.0061   -4170.5237            0    785.53299    18.402013    23.161448    22.342208    9522.6349    601.56878    1207.9683    547.06191    111.23665    551.36527    70.361288    -3584.913 
  865000     267.2351   -4167.9592   -3709.9274   -4167.9592            0   -568.13194    18.282184    23.671866    22.144956    9583.7485    -1354.711   -508.60658    158.92177    1440.2347   -530.92336    29.153988   -3789.3347 
  866000    261.39916   -4200.8554   -3752.8262   -4200.8554            0    719.16373    18.164503    23.716365    22.057329    9502.2089    745.12509   -921.89002    2334.2561    443.70318   -129.73604   -9.1888676   -3653.1646 
  867000     261.7288   -4231.0317   -3782.4375   -4231.0317            0    824.89443    18.126526     23.48058    22.309101    9495.2301   -297.62254    2059.7978    712.50807    569.58762    64.297856   -34.856026   -3668.2076 
  868000    266.20629   -4212.6304   -3756.3619   -4212.6304            0    79.918838    18.239454     23.66361    22.005651    9497.8879   -1303.7835   -117.53381    1661.0738    -1355.226   -664.97429    540.11065   -3745.2918 
  869000    277.30578   -4200.4606    -3725.168   -4200.4606            0   -1189.2661    18.102132    23.678011    22.342689    9576.5787   -614.04415   -2079.4059   -874.34814    374.84432   -181.65427   -507.86624   -3891.2663 
  870000    264.14706   -4213.4821   -3760.7431   -4213.4821            0   -246.14291     18.18689    23.523264    22.291867    9536.7959   -1201.2771    225.33495    237.51339   -491.97883   -194.85774     283.4826   -3794.9777 
  871000    279.59572   -4235.5167   -3756.2992   -4235.5167            0    502.08292    18.219402    23.504816    22.228941    9519.4043    500.27103    285.13633    720.84141   -23.079569     503.0239    310.32284   -3686.5947 
  872000     280.7021   -4189.8761   -3708.7623   -4189.8761            0    560.52035    18.014927    23.609616    22.271349    9472.5733    236.80462    1271.2958    173.46063    27.500915   -9.3221383   -295.42878   -3631.3276 
  873000     258.9351   -4221.5169    -3777.711   -4221.5169            0    130.12151    18.101871    23.676804    22.097608    9470.9123    -360.0204    108.48731    641.89761   -1095.5563    25.284196     253.2256   -3759.7382 
  874000    262.65855   -4169.6661   -3719.4784   -4169.6661            0    643.86061    17.854767    23.709886    22.431609    9496.0735     380.1236    522.93601    1028.5222   -510.27503   -384.34549     -496.685   -3630.3098 
  875000    278.33699   -4176.9969   -3699.9368   -4176.9969            0    883.83161    18.273754     23.60819    21.989189    9486.3617   -20.092889    1447.8688    1223.7189   -288.19774    97.757964   -376.09922   -3577.6598 
  876000    272.01391    -4206.888   -3740.6654    -4206.888            0    602.28038    18.263305     23.32266     22.23835    9472.3999     1059.835    737.29837    9.7077454   -78.925196   -743.79564    -421.0759   -3657.4633 
  877000    272.13239   -4196.9798   -3730.5542   -4196.9798            0   -329.41295     18.16726    23.590119    22.330678    9570.2099    106.00298    558.61951   -1652.8613    82.934391   -79.218515   -463.68312   -3776.5309 
  878000    271.02351   -4192.9958   -3728.4708   -4192.9958            0   -742.07543    18.274229    23.909414    21.951456     9591.164   -854.34071   -3704.2706     2332.385   -178.50171   -435.27843    455.31895   -3832.2703 
  879000    285.80433    -4201.677   -3711.8182    -4201.677            0   -188.12654    18.064397    23.656945    22.305966    9532.4197   -490.67607    468.26836   -541.97191   -528.64864    151.97668     352.9144   -3737.9716 
  880000     263.3082    -4220.989   -3769.6877    -4220.989            0   -905.08269    18.112236    23.655755    22.390853    9593.5536      31.9219   -556.34419   -2190.8258   -521.46208    22.546169    176.46035   -3896.3198 
  881000    265.24988   -4228.4686   -3773.8394   -4228.4686            0    -217.0203    18.375086    23.429727    22.111103     9519.344   -1603.6418   -604.33296    1556.9139    -199.7805    271.27815   -31.937296   -3803.9683 
  882000    278.34124   -4184.0364    -3706.969   -4184.0364            0   -54.143244    18.215965    23.476439    22.217517    9501.2318    274.62215    678.71271   -1115.7646   -124.09387   -121.47468    -781.5109   -3714.4714 
  883000    264.97399   -4207.8242   -3753.6679   -4207.8242            0   -442.43485    17.946578    23.766596    22.293157    9508.6797    1423.8618   -2001.2746   -749.89176   -3.7390884    550.55437    56.351186   -3815.0222 
  884000    255.10819   -4203.6078   -3766.3611   -4203.6078            0   -183.54471    18.053136    23.746932     22.15261    9496.9704   -489.24229    343.46979   -404.86164   -227.81014    -414.5985    780.06285   -3791.7827 
  885000    260.45033    -4227.182    -3780.779    -4227.182            0   -1326.9193    18.157338    23.347387    22.345454    9472.8276   -1978.0668   -1004.0947   -998.59631   -559.17904    62.918974   -77.632206   -3964.0949 
  886000    281.59776   -4222.5408   -3739.8918   -4222.5408            0    498.89661     18.29308    23.429325     22.14168    9489.8025   -452.56295    911.79012    1037.4626    617.21734    -271.4947   -400.11104    -3670.845 
  887000    268.66108   -4225.0825   -3764.6066   -4225.0825            0   -681.20225    18.295247    23.619892    22.080042    9541.4877    -539.5124   -678.18429   -825.91008   -321.50505    227.64496   -432.12395   -3859.3978 
  888000     269.8072    -4205.904   -3743.4637    -4205.904            0    224.59902    17.920991    23.905047    22.123779    9477.8738    1045.1162    423.00965    -794.3288     373.1162     691.8696    1056.7969   -3712.4185 
  889000    243.63251   -4214.0875   -3796.5097   -4214.0875            0    475.56458    17.972745    23.556153     22.26614    9426.7874   -637.85877    -376.9838    2441.5363   -124.33769   -698.39307    668.17781   -3731.1291 
  890000    271.46668   -4211.1608   -3745.8762   -4211.1608            0   -2109.9586    18.424237    23.701389    22.067908    9636.6143   -3024.8271   -1791.5815   -1513.4671   -540.55609   -102.68306    253.99466   -4042.4101 
  891000    256.65466   -4212.9045   -3773.0072   -4212.9045            0    246.25653    18.270872    23.282973    22.249769    9465.0566   -902.52604   -232.65245    1873.9481   -785.86176   -1482.9789    1277.4641   -3739.0144 
  892000    263.54582   -4211.2461   -3759.5376   -4211.2461            0    807.46523    18.241732    23.510247    22.223923    9531.1212    1070.0317   -436.92484    1789.2888    164.96295    220.80973    105.68017   -3647.2986 
  893000    268.47548   -4214.0936   -3753.9358   -4214.0936            0    443.93744    18.033538    23.755215     22.06666    9453.1491    1555.7177   -393.01274    169.10738   -487.03973   -168.93743   -268.22709   -3692.7326 
  894000    261.66618   -4196.1515   -3747.6646   -4196.1515            0    -696.2048    18.065453    23.620521    22.395514    9556.5111    670.71384   -1280.5024   -1478.8258    44.733616    91.326295    589.29141    -3844.696 
  895000    287.42702   -4203.5069   -3710.8668   -4203.5069            0   -523.84746    18.296005    23.483087     22.24896    9559.1917   -1581.2643   -170.86171    180.58361   -91.473467   -792.27036    168.14992   -3783.8969 
  896000    260.00609   -4200.1736   -3754.5321   -4200.1736            0   -481.63016    18.398038     23.44155    22.108727    9535.0191   -1059.5904    452.65569    -837.9557    959.46524   -291.59622    114.38458   -3821.5068 
  897000    264.84564   -4233.5118   -3779.5754   -4233.5118            0   -424.76659    18.018614    23.774948    22.126028    9478.6049   -575.07034   -1509.4072    810.17777   -513.65217   -135.11727    365.18665   -3838.2933 
  898000    261.28301   -4229.6383   -3781.8082   -4229.6383            0   -258.21495    18.015917    23.742202    22.301956    9539.3838   -321.83461   -303.61947   -149.19078   -433.93586   -209.42774    388.15159   -3817.7316 
  899000    273.42231   -4170.8302   -3702.1937   -4170.8302            0   -41.372396    18.290607    23.645296    22.111218    9562.8101   -808.81746    -8.978522     693.6788    441.56141   -563.63242    296.42547   -3707.9637 
  900000    272.77964   -4223.3048   -3755.7698   -4223.3048            0    84.082132    18.426171    23.183685    22.190476    9479.4728    -778.3414    361.95249    668.63531    578.84226    881.50417    106.36444   -3744.1456 
  901000    270.10896   -4176.6889   -3713.7313   -4176.6889            0   -795.69995    18.215382    23.592508    22.276854    9573.4013    -2323.693    -424.5345    361.12766    239.82378   -314.01452   -335.59671   -3824.8256 
  902000    252.07766   -4204.2169   -3772.1644   -4204.2169            0   -835.39601    17.987124    24.085972    22.168944     9604.415   -553.06937     -3322.16    1369.0413   -570.10746   -353.77157    886.29117   -3889.1788 
  903000    271.22106   -4193.3206    -3728.457   -4193.3206            0    228.28175    18.024428    23.732546    22.238943    9513.0542    559.97608    235.60698    -110.7378   -46.398929     744.1645   -144.22649   -3696.7856 
  904000    266.42192   -4220.4815   -3763.8435   -4220.4815            0    53.582828    18.196343    23.499847    22.187354    9487.5627    761.97296   -151.34054   -449.88394   -178.95605   -643.77029    -284.1915   -3756.4294 
  905000    273.58245   -4217.1471   -3748.2361   -4217.1471            0   -1928.7248    18.490118    23.474925    22.248665     9657.125   -2497.3008   -1201.4187    -2087.455    1074.7796   -397.73767   -762.33577   -4019.8763 
  906000    263.05616   -4253.1355   -3802.2662   -4253.1355            0   -521.11257    18.163608     23.60661    22.172191    9507.0194   -1225.1339   -472.94463    134.74082   -769.23437   -7.5188933    822.02149   -3874.5186 
  907000    274.00296   -4232.5078   -3762.8761   -4232.5078            0    -1097.991    17.836635    24.005575    22.072332    9450.9017   -503.66504   -2145.7671   -644.54074   -1165.5865    210.42646   -221.99326   -3914.2141 
  908000    262.46452   -4216.0969   -3766.2417   -4216.0969            0    1271.8714    18.058933    23.631612    22.038157    9405.0414    1533.9035    1036.8487     1244.862   -131.81664    438.16843    817.48244   -3591.7882 
  909000    253.51739   -4184.7663   -3750.2462   -4184.7663            0   -799.44904    18.287661    23.408489    22.375103      9578.48   -1424.0566   0.74771308   -975.03821   -383.71436    83.449441    124.77988   -3861.9231 
  910000    269.01757   -4174.6624   -3713.5755   -4174.6624            0    86.376869    18.428267    23.459039    22.019474     9519.226   -1499.7729    486.11382    1272.7896   -192.30784   -29.983608    629.08032   -3701.5839 
  911000    261.78828   -4225.5947   -3776.8985   -4225.5947            0    133.78681     18.09582    23.573879     22.09804    9426.7734    410.20127   -36.968288    28.127439   -253.47125   -394.41976    -452.1536   -3758.5055 
  912000    270.00291   -4225.7521   -3762.9763   -4225.7521            0   -1898.5287    18.051312     23.70361    22.323446    9551.7841   -2672.6947   -1955.0493   -1067.8421   -1387.3046    225.79367   -462.90581    -4027.447 
  913000    273.04273   -4212.0434   -3744.0576   -4212.0434            0    1091.8315    18.117395     23.70892    21.885558    9400.8072    1277.2503     222.7816    1775.4625   -467.70785    397.25954   -728.64753   -3594.3662 
  914000    260.21942   -4196.1464   -3750.1392   -4196.1464            0    457.00294    18.175573    23.412843    22.262074    9473.4442    900.34844    1592.8442   -1122.1838     50.53999   -72.603238   -42.453643   -3686.9994 
  915000    266.49146   -4202.9561   -3746.1989   -4202.9561            0   -438.78994     18.45914    23.242046    22.312994    9572.9035   -1406.6276    164.65696   -74.399231    445.96914    317.74121    -414.2235   -3807.4588 
  916000      265.094   -4185.2127   -3730.8507   -4185.2127            0    523.48719    18.191364    23.655846    22.115274    9516.9125    1627.8796     657.6967    -715.1147     265.9611   -48.438248   -705.18659   -3658.1936 
  917000    258.21403   -4219.8972   -3777.3272   -4219.8972            0    21.322056    17.888592    23.647432    22.314308     9439.382   -427.15951    -506.6125    997.73817    654.30132   -833.65956    468.86012   -3774.3919 
  918000    286.86879   -4191.7256   -3700.0423   -4191.7256            0    478.35914    18.226025    23.595648    22.080443    9495.8024    1041.2218   -477.90165    871.75723     723.8241    20.374855    210.69093    -3633.796 
  919000     278.3928   -4186.3148   -3709.1591   -4186.3148            0   -892.37727    18.456784    23.290344    22.307931     9589.395   -2089.1313    1209.2457   -1797.2463   -470.81178    42.750306   -345.65927   -3833.9593 
  920000    276.40257   -4206.1474   -3732.4029   -4206.1474            0   -331.73536    18.217402    23.516103    22.193587    9507.7838   -1075.1615   -586.14142    666.09682   -1041.5377   -432.40949    607.26149   -3778.4017 
  921000    272.41962   -4217.2879     -3750.37   -4217.2879            0   -899.77307    18.068685    23.817774    22.096098    9509.1852   -761.00389    112.96703   -2051.2823    -631.8347    427.74048   -218.42331   -3875.1521 
  922000     269.4385    -4209.953   -3748.1446    -4209.953            0      356.093    17.956919    23.665396     22.20608    9436.6424   -374.31514    396.80594    1045.7882    418.86618    419.46529    675.00922   -3699.1378 
  923000     259.8332   -4204.3516   -3759.0064   -4204.3516            0    -351.9021    18.204838    23.499768    22.352147      9562.46    686.59933   -1167.8742   -574.43139   -292.54778     616.2405   -100.35694   -3808.0822 
  924000      265.617   -4223.4652   -3768.2067   -4223.4652            0   -515.81147    18.411352    23.360113    22.139485    9521.9991   -1435.7148   -574.43991    462.72033    543.16667    288.21341     412.1503   -3839.8368 
  925000    276.79723   -4197.9069   -3723.4859   -4197.9069            0    814.45006    18.161878    23.594059    22.110101    9474.4528   -121.38574    607.73458    1957.0013   -293.73199   -921.15039   -185.11473   -3610.9491 
  926000    266.85343   -4209.0918   -3751.7142   -4209.0918            0   -662.37926    18.102178    23.725779    22.254533    9558.0611   -525.81944   -1285.5224   -175.79595   -139.33928   -725.93702    76.855494   -3844.0462 
  927000    280.12294   -4185.5223   -3705.4012   -4185.5223            0    87.672504    18.162789     23.94627    21.968268    9554.6817    -1149.365    730.05827    682.32425   -1561.2456   -179.57973    184.57106   -3693.1844 
  928000    268.72089   -4179.7537   -3719.1753   -4179.7537            0    286.85739    18.220915    23.353738     22.35693    9513.4654   -285.19093    993.00263    152.76046    729.69775     30.38436    115.91476   -3679.3755 
  929000    266.70892   -4201.4885   -3744.3586   -4201.4885            0   -1088.7412    18.184813    23.523815    22.358948    9564.6252   -677.52427   -177.71963   -2410.9798    588.85846   -538.94819    652.25422   -3896.2274 
  930000    269.54231    -4218.807   -3756.8207    -4218.807            0   -943.91887    18.136008    23.783674    22.109668    9536.8041   -504.40679   -2302.1082   -25.241608   -868.18312   -628.71757    552.68974   -3888.1052 
  931000     273.5592   -4202.4738   -3733.6027   -4202.4738            0   -1601.8134     18.08806    23.787935    22.315112    9601.6928   -31.194548   -2062.0174   -2712.2282    6.4268584    444.49832    96.811502    -3957.906 
  932000    275.13827   -4171.3723   -3699.7947   -4171.3723            0     2043.845    18.054667    23.484082    22.171997    9400.8665    2419.2659    3318.9974     393.2715   -1265.4007    309.93185     -510.324   -3419.5795 
  933000     262.7948   -4214.6434   -3764.2221   -4214.6434            0    78.590879    18.210564    23.502954     22.21201     9506.786   -45.112333    433.13751   -152.25254   -686.12338    253.72061    583.19955   -3753.3258 
  934000    269.43108    -4229.293   -3767.4973    -4229.293            0   -33.882671    18.295547     23.35134    22.212816    9489.8829   -518.94494   -747.00223    1164.2992   -694.23264    -747.9273   -478.94091   -3772.1867 
  935000    282.87158   -4203.8067   -3718.9744   -4203.8067            0    595.60685    18.083135    23.649114    22.292087    9533.2137    1570.5662   -497.75586    714.01017     242.1922    773.08591    381.54768   -3636.1659 
  936000     284.0576   -4208.9734   -3722.1084   -4208.9734            0    62.945972    18.094716     23.76401    22.087821    9497.8294    1509.9069   -486.60445   -834.46448   -437.53034    167.57326    57.715809   -3713.3894 
  937000    260.19008   -4201.4733   -3755.5164   -4201.4733            0    -862.0898    18.076019     23.65437    22.393612    9574.9898   -1755.7514    96.123945   -926.64193   -1301.5613    551.71222    363.01061   -3875.8998 
  938000    285.64607   -4198.3431   -3708.7555   -4198.3431            0   -88.914239    18.369022    23.458939    22.153394    9546.2913   -357.29425    369.33368   -278.78215    635.15249   -910.47689    184.56853   -3721.1344 
  939000    276.34355   -4239.2475   -3765.6041   -4239.2475            0   -872.84196    18.328695     23.48367    22.149269    9533.6002   -308.24552   -1222.1135   -1088.1669   -380.95053    562.87677   -76.018188   -3886.9622 
  940000    282.52844   -4182.2156   -3697.9716   -4182.2156            0    554.19006    17.991328    23.565702    22.378733    9488.0965     1910.294    781.03445   -1028.7582   -679.43314    829.43707    312.54863    -3621.286 
  941000    276.12982   -4204.3964   -3731.1193   -4204.3964            0   -897.92417    18.132874    23.778522    22.040094    9503.0919   -924.71844   -961.34247   -807.71161     747.3311    330.11234    302.43053   -3855.5652 
  942000    268.20958   -4194.5222   -3734.8201   -4194.5222            0   -758.05173    18.167264    23.609466     22.31408    9570.9418    248.07725   -816.06164   -1706.1708    -551.4793   -152.64811    68.753919   -3840.6308 
  943000    273.56758   -4197.3381   -3728.4526   -4197.3381            0   -634.15146     18.23778    23.604278    22.281245    9591.8447   -957.78418   -390.72722     -553.943   -607.38488    239.72563   -301.51947   -3817.1623 
  944000    277.28354   -4191.6204   -3716.3659   -4191.6204            0    1166.4952     18.21107    23.567604    22.088641    9480.2523    1824.4468    289.67228    1385.3665     -1292.15   -165.71927    731.74731   -3555.0866 
  945000    270.97765   -4211.9261   -3747.4797   -4211.9261            0    355.99098    17.882553    23.575094    22.472662    9474.0893    311.37772    1860.3764   -1103.7812   -47.230213   -383.36899   -888.53128   -3698.2925 
  946000    280.30301   -4217.1958   -3736.7661   -4217.1958            0     435.2916    18.167401    23.655905    21.924884    9422.5769   -993.21051    601.03423    1698.0511   -594.61995    6.7793554    380.68254   -3676.9489 
  947000     273.1419   -4206.0619    -3737.906   -4206.0619            0   -549.10606    18.292873    23.523995    22.182441    9545.5803   -53.771421   -242.51304   -1351.0337   -523.15895   -672.89736   -315.95806   -3814.3484 
  948000    275.19309   -4199.8718   -3728.2003   -4199.8718            0   -890.32867     18.25808    23.540295    22.338945    9601.2918   -531.41503   -1228.1419   -911.42908   -219.77532   -101.94793    17.498601   -3852.8685 
  949000    274.46592   -4191.3067   -3720.8815   -4191.3067            0    0.6119432    18.173578     23.78517    22.045632    9529.4815    468.41392   -611.29869    144.72061    -1228.485    152.72875    480.99248   -3720.7965 
  950000     269.9726   -4209.4773   -3746.7535   -4209.4773            0    405.37666    18.002958    23.608317    22.351594    9499.8639    433.85471     275.9378    506.33747    59.451256    208.02536    488.02905   -3690.5902 
  951000    286.59486   -4227.5173   -3736.3035   -4227.5173            0   -869.77974    18.258558    23.572911    22.205117    9557.2456   -716.88482   -1029.1331   -863.32127      -445.45    759.50414   -396.48493   -3857.5357 
  952000    268.38577   -4182.6114   -3722.6074   -4182.6114            0   -154.70036    18.359767    23.594255    22.125787    9584.5595   -155.46374    140.74546    -449.3828   -358.17076   -129.33692    450.39828   -3744.2315 
  953000    269.36056   -4227.7993   -3766.1245   -4227.7993            0    64.221479    18.096742    23.359745    22.482472    9504.1343    1824.7839    729.86511   -2361.9846   -1015.6644   -1165.7782   -669.97017   -3757.2229 
  954000    253.53626   -4203.6475    -3769.095   -4203.6475            0    317.79483    18.255084     23.63776    22.045046    9512.6423    -681.7829    569.14412    1066.0233    467.19249   -1.3331579    1037.9869   -3725.0067 
  955000     262.9458   -4222.7262   -3772.0461   -4222.7262            0    745.03973    17.993321    23.678727    22.190434    9454.4325    2402.1578    -403.9529     236.9143     658.0528   -541.82139   -205.47781   -3669.3176 
  956000    266.83087   -4227.6524   -3770.3134   -4227.6524            0    1054.9952    18.014903    23.641078     22.26868    9484.0464    42.431384   -42.021668     3164.576    512.45898    -399.1749    260.36983   -3624.3916 
  957000    268.72053   -4209.5194   -3748.9416   -4209.5194            0   -1123.1585    18.319959    23.717125    22.095948    9600.6176   -300.64448   -3211.9255    143.09448    771.38765    574.57866    464.18798   -3906.2008 
  958000    276.46029   -4197.2552   -3723.4118   -4197.2552            0   -487.23563    18.249257    23.325353      22.4515    9556.9385   -1208.4421    -497.1983    243.93348    69.469149   -220.42644   -61.190359   -3791.3218 
  959000    265.47563   -4204.7148   -3749.6987   -4204.7148            0    469.84457     18.19243     23.56927    22.082548    9468.6054    2195.1858   -524.61903   -261.03301    495.11327   -118.29303    368.84724   -3684.8179 
  960000    285.22308   -4202.1145   -3713.2519   -4202.1145            0   -914.23428    17.977603    23.845052    22.314454    9565.6904    755.02497   -1054.8509   -2442.8769   -791.15893    156.61692   -327.19958   -3840.7928 
  961000    269.16667   -4219.5002   -3758.1577   -4219.5002            0   -404.65238    18.042305     23.74628     22.21714    9518.6589   -197.02234   -386.48386   -630.45095   -222.82141    199.95804    889.42009   -3814.3315 
  962000     268.3741   -4200.9161    -3740.932   -4200.9161            0   -587.32256    18.157129    23.692646     22.16283    9534.2374   -1087.3057   -1904.5486    1229.8866   -344.14477    191.51432    819.84741   -3822.5975 
  963000    277.54423   -4199.6108   -3723.9095   -4199.6108            0    1088.4863    18.256131    23.367744    22.179327    9461.8026    329.02648    862.30076    2074.1318    386.64112   -369.27259    -41.33077   -3573.7085 
  964000    274.64895   -4220.7735   -3750.0346   -4220.7735            0   -1421.7533    18.322974    23.696489    22.056875    9576.8782   -1645.6833   -2101.8481   -517.72849   -312.98634   -576.00877      948.825   -3948.6094 
  965000    262.24845   -4251.8166   -3802.3317   -4251.8166            0    213.20354    18.049471    23.630489    22.273827    9500.1847    1764.8969   -195.40307   -929.88325   -597.50759    57.016025   -494.34141   -3772.7923 
  966000    258.79528   -4205.8962   -3762.3299   -4205.8962            0   -159.27372    18.170678    23.567381    22.206788    9509.7308   -805.91887   -356.38029    684.47801    887.43351    67.338412   -630.67496   -3784.4195 
  967000    259.51903   -4223.3821   -3778.5753   -4223.3821            0   -19.706485    18.223231    23.785617    21.898992    9492.1353   -650.07677   -375.12808    966.08539     418.7213   -922.47536   -62.119945   -3781.3033 
  968000    268.51317   -4197.5028   -3737.2804   -4197.5028            0   -139.63273    18.027208    23.558466    22.376542    9503.1693   -1182.6532    481.01148    282.74356    75.213053   -492.41873    225.94781   -3756.6327 
  969000    267.43081   -4185.0892   -3726.7219   -4185.0892            0   -709.92016    18.336924    23.684384    22.096858    9596.6378   -512.05357   -673.46418   -944.24273    138.05269    8.3753737     399.0019   -3826.0803 
  970000    268.51767   -4232.4996   -3772.2695   -4232.4996            0    680.79859    18.267359    23.376333    22.128885    9449.5622    685.95811   -63.124379     1419.562    1217.4472   -753.49222   -270.44107   -3678.4472 
  971000    270.94787   -4209.0675   -3744.6721   -4209.0675            0    52.142288    18.032128     23.59041    22.342317    9504.0931     1302.134   -599.05694   -546.65017   -47.379172   -509.83675    833.22359   -3737.4448 
  972000    277.05516   -4233.5281    -3758.665   -4233.5281            0    -1132.762    18.101947      24.0746    21.919306    9552.3709   -242.62749   -2468.8556   -686.80277    641.32127    -668.5528    388.61476   -3916.4718 
  973000    265.20228   -4206.9063   -3752.3587   -4206.9063            0    -438.7311    18.114245    23.529852    22.285567    9498.6773    -991.8986    282.29496   -606.58967   -70.958997    215.96474   -433.56773   -3813.1354 
  974000    277.89678   -4221.2372   -3744.9317   -4221.2372            0     43.94892    18.176435    23.360486    22.214725    9432.6027   -593.31172   -717.91076    1443.0692    335.82658    -184.1883   -344.95616   -3738.8858 
  975000     265.9834   -4220.2442   -3764.3578   -4220.2442            0    743.63829    18.338241    23.304097    21.989479    9397.3392     327.4899   -120.58066    2024.0056   -181.00252    48.128851    11.836485   -3662.4418 
  976000    273.94957   -4208.9465   -3739.4063   -4208.9465            0   -219.39341    18.220924    23.593603    22.221222    9552.8421   -1196.2778    170.92104    367.17648    4.7165243     314.4378     347.2675   -3769.9719 
  977000    292.53648    -4176.602   -3675.2044    -4176.602            0   -1999.2103    18.024773    24.000231    22.404385    9692.1082   -1691.8668   -2307.5358   -1998.2282    247.53607   -646.72498   -369.81047   -3957.7917 
  978000    269.16391   -4180.3906   -3719.0529   -4180.3906            0     196.8334    18.051867    23.750538    22.172858    9506.4259    462.86799   -1167.9838     1295.616    648.42869    488.41425    104.39664   -3691.7636 
  979000    271.37857   -4196.4496    -3731.316   -4196.4496            0    936.33467    18.183315    23.512267    22.096756    9447.0475    800.92787    67.030166     1941.046   -329.16068   -72.844413   -322.70881   -3602.3121 
  980000    284.73458   -4182.6267   -3694.6013   -4182.6267            0     439.3078    18.271551    23.309501     22.23706    9470.7805   -537.78135    -832.0214    2687.7261   -945.02011   -708.70749     155.5443   -3633.9234 
  981000    274.07597   -4196.4112   -3726.6543   -4196.4112            0    1073.9164    18.027979    23.688364    22.197615    9479.5654    1620.0352    668.73269    932.98129   -707.03259    -38.83556   -889.35319   -3578.1857 
  982000    274.18722   -4207.2196   -3737.2721   -4207.2196            0   -365.79157    18.058284    23.908008    22.087903    9536.1781    385.20508   -1142.8295   -339.75033     964.2227     542.8694    298.30013   -3788.1447 
  983000    269.78795   -4215.4646   -3753.0573   -4215.4646            0   -443.37046    18.035475    23.558633    22.493141    9557.1364      317.187   -244.19073   -1403.1077    -389.0096   -156.83108    19.817335   -3814.8548 
  984000    270.88773   -4183.0534   -3718.7611   -4183.0534            0    -730.2106     18.31603    23.611211    22.109813    9561.6906   -1767.2363   -281.56122   -141.83429   -631.80447   -228.96647     395.6946   -3820.5871 
  985000    252.48548   -4204.8021   -3772.0507   -4204.8021            0   -939.25278    18.285557     23.49538    22.309273    9584.6462   -2027.0663   -941.80105    151.10907    689.22379    1067.8516    753.05749   -3903.3415 
  986000    269.73882   -4209.4041    -3747.081   -4209.4041            0    -980.8412    18.063963    23.623594    22.399972    9558.8683    970.60522   -1443.0107   -2470.1181   -1305.4059    105.18004   -195.89849   -3883.8164 
  987000    271.05063   -4216.4252   -3751.8537   -4216.4252            0   -198.68751    18.123547    23.762208    22.072696    9505.7279   -86.371235    -1701.956    1192.2647    132.72448   -587.34014   -114.77433    -3779.398 
  988000    268.73895   -4184.3229   -3723.7135   -4184.3229            0   -161.14158    18.202835    23.664544    22.171017    9550.4269   -631.03802   -566.36626    713.97956   -282.51883   -88.885352    415.53865   -3746.1578 
  989000    265.64345   -4196.9102   -3741.6064   -4196.9102            0   -33.012172    18.355656     23.21921    22.148663    9439.8451    -1349.514    782.96331    467.51417   -7.6265298    -286.2086     411.0691   -3746.1512 
  990000    263.00003   -4189.5705   -3738.7974   -4189.5705            0   -983.66092    18.230713    23.477882    22.372135    9575.6883   -338.17096   -751.30585   -1861.5059     -365.065   -346.44619      -187.97   -3876.1672 
  991000    263.42163   -4219.9297    -3768.434   -4219.9297            0   -1484.9234    18.233518    23.728528    22.159885     9587.575   -1956.6282   -1209.9472   -1288.1948   -825.37658    605.76791      310.681   -3976.0633 
  992000    274.39636   -4208.9564   -3738.6505   -4208.9564            0    7.5438633    18.091169    23.940838    22.005968    9531.1753    1031.0328   -1397.5292    389.12793    -762.2426   -1.9011998    299.67467   -3737.6018 
  993000    268.38898   -4174.0503   -3714.0408   -4174.0503            0    947.33262    18.038183    23.717293    22.206621     9500.367    949.42918    1202.8969    689.67181    1768.9734     161.6193    112.15171   -3582.7849 
  994000    265.24932   -4187.9455   -3733.3172   -4187.9455            0    510.09928    18.181964    23.639682    22.118507     9506.885    175.33221    1684.0256      -329.06    49.527688    347.46125   -120.09941   -3662.5929 
  995000     277.4623   -4186.0509     -3710.49   -4186.0509            0    845.22489    18.288885      23.4112    22.102396    9463.4672    512.93746    860.19236    1162.5448   -205.29951   -590.07825   -996.16168   -3593.8363 
  996000    265.20558   -4196.8882   -3742.3349   -4196.8882            0   -1075.8651    18.344017    23.465173    22.215611    9562.6101   -1024.7384   -1506.0143   -696.84262   -382.05068    277.06474    36.905771    -3892.376 
  997000    262.90683   -4197.7108   -3747.0975   -4197.7108            0    127.83941    18.052848    23.913966    22.087141    9535.3544     750.8827    -637.9749    270.61042   -450.72441    951.70861   -178.88727   -3729.3197 
  998000    277.99002   -4186.1699   -3709.7046   -4186.1699            0   -873.64056    17.992961    23.895147    22.242671    9563.1124    640.33548   -1889.6693   -1371.5879    841.55376    221.81014    168.21933   -3831.5496 
  999000    264.81885   -4217.4566   -3763.5662   -4217.4566            0    136.43694    18.239626    23.319435    22.234894    9457.3403     425.2327    631.96824   -647.89013    393.10842   -866.52167     -517.582    -3744.748 
 1000000    270.88954   -4162.4835   -3698.1881   -4162.4835            0   -429.28578    18.359742    23.397517    22.034562     9465.439   -1562.3355   -1120.0097    1394.4878   -210.55057   -87.011377   -128.35903   -3757.4483 
Loop time of 352.818 on 64 procs for 250000 steps with 864 atoms

Performance: 122.443 ns/day, 0.196 hours/ns, 708.581 timesteps/s
373.9% CPU use with 16 MPI tasks x 4 OpenMP threads

MPI task timing breakdown:
Section |  min time  |  avg time  |  max time  |%varavg| %total
---------------------------------------------------------------
Pair    | 24.352     | 27.084     | 29.412     |  31.2 |  7.68
Bond    | 1.5906     | 1.8508     | 2.5226     |  17.1 |  0.52
Kspace  | 182.09     | 184.44     | 188.19     |  14.2 | 52.28
Neigh   | 1.5049     | 1.5966     | 1.7254     |   4.9 |  0.45
Comm    | 48.823     | 51.682     | 54.353     |  19.8 | 14.65
Output  | 0.7059     | 0.70622    | 0.7076     |   0.0 |  0.20
Modify  | 59.144     | 64.411     | 68.807     |  36.3 | 18.26
Other   |            | 21.04      |            |       |  5.96

Nlocal:        54.0000 ave          62 max          45 min
Histogram: 2 2 1 1 2 0 0 3 4 1
Nghost:        2496.25 ave        2532 max        2467 min
Histogram: 3 1 1 1 4 2 0 2 0 2
Neighs:        12884.0 ave       14876 max       10913 min
Histogram: 2 3 1 2 0 0 2 2 2 2

Total # of neighbors = 206144
Ave neighs/atom = 238.59259
Ave special neighs/atom = 2.0000000
Neighbor list builds = 6995
Dangerous builds = 0

unfix		3
unfix		2
unfix		1

write_data	data.final.${pid} nocoeff
write_data	data.final.0 nocoeff
System init for write_data ...
PPPM initialization ...
  extracting TIP4P info from pair style
  using 12-bit tables for long-range coulomb (../kspace.cpp:340)
  G vector (1/distance) = 0.37135418
  grid = 24 27 25
  stencil order = 5
  estimated absolute RMS force accuracy = 0.0031858624
  estimated relative force accuracy = 9.5941301e-06
  using double precision FFTW3
  3d grid and FFT values/proc = 6300 1296
Last active /omp style is kspace_style pppm/tip4p/omp

write_restart   restart.lmp.${pid}
write_restart   restart.lmp.0
System init for write_restart ...
PPPM initialization ...
  extracting TIP4P info from pair style
  using 12-bit tables for long-range coulomb (../kspace.cpp:340)
  G vector (1/distance) = 0.37135418
  grid = 24 27 25
  stencil order = 5
  estimated absolute RMS force accuracy = 0.0031858624
  estimated relative force accuracy = 9.5941301e-06
  using double precision FFTW3
  3d grid and FFT values/proc = 6300 1296
Last active /omp style is kspace_style pppm/tip4p/omp
Total wall time: 0:05:52
