LAMMPS (30 Jul 2021)
  using 1 OpenMP thread(s) per MPI task
package omp 0
using multi-threaded neighbor list subroutines
echo both

include		in.partitions
variable        pid world 0
include		in.temp
variable        temperature equal 228.12
variable	tempDamp equal 100.0
include		in.pressure
variable        pressure equal 2750.0
variable        pressureDamp equal 1000.0 # This is 1 ps
include		in.seed
variable        seed world 745823

units		real
atom_style	full
read_restart	restart.lmp.${pid}
read_restart	restart.lmp.0
Reading restart file ...
  restart file = 30 Jul 2021, LAMMPS = 30 Jul 2021
  restoring atom style full from restart
  orthogonal box = (0.32252293 1.4714207 0.39347722) to (17.885049 22.157757 21.819719)
  4 by 4 by 4 MPI processor grid
  restoring pair style lj/cut/tip4p/long/omp from restart
  restoring bond style harmonic/omp from restart
  restoring angle style harmonic/omp from restart
  864 atoms
  576 bonds
  288 angles
Finding 1-2 1-3 1-4 neighbors ...
  special bond factors lj:    0        0        0       
  special bond factors coul:  0        0        0       
     2 = max # of 1-2 neighbors
     1 = max # of 1-3 neighbors
     1 = max # of 1-4 neighbors
     2 = max # of special neighbors
  special bonds CPU = 2.097 seconds
  read_restart CPU = 2.568 seconds
include 	in.setup
variable	out_freq equal 1000
variable	out_freq2 equal 10000
variable	out_freq3 equal 1000

timestep	2.0

neigh_modify    delay 7 every 1

include		in.tip4p
# This is TIP4P/Ice

# create groups ###
group ox type 2
288 atoms in group ox
group hy type 1
576 atoms in group hy

# set charges - beside manually ###
set group ox charge -1.1794
Setting atom values ...
  288 settings made for charge
set group hy charge 0.5897
Setting atom values ...
  576 settings made for charge

# ### TIP3P Potential Parameters ###
pair_style lj/cut/tip4p/long/omp 2 1 1 1 0.1577 8.5
pair_coeff 1 1*2 0.000 0.000
pair_coeff 2 2 0.21084 3.1668
bond_style  harmonic
bond_coeff  1 450 0.9572
angle_style harmonic
angle_coeff 1 55 104.52
kspace_style pppm/tip4p/omp 1.0e-5
pair_modify tail yes

thermo          ${out_freq}
thermo          1000
thermo_style    custom step temp pe etotal epair emol press lx ly lz vol pxx pyy pzz pxy pxz pyz enthalpy

restart 	${out_freq3} restart.lmp.${pid} restart2.lmp.${pid}
restart 	1000 restart.lmp.${pid} restart2.lmp.${pid}
restart 	1000 restart.lmp.0 restart2.lmp.${pid}
restart 	1000 restart.lmp.0 restart2.lmp.0


include         in.dump
dump            myDump all atom ${out_freq2} dump.water.${pid}
dump            myDump all atom 10000 dump.water.${pid}
dump            myDump all atom 10000 dump.water.0
dump            myDump2 all dcd ${out_freq2} dump.dcd
dump            myDump2 all dcd 10000 dump.dcd
dump_modify     myDump append yes
dump_modify     myDump2 append yes


variable natoms 	equal  "count(all)"                        # NUMBER ATOMS
variable H      	equal  "enthalpy/v_natoms"                 # ENTHALPY-per-atom
variable Vol      	equal  "vol/v_natoms"                 # volume-per-atom
fix AVG all 		ave/time ${out_freq} 1 ${out_freq} v_Vol v_H file vol_enthalpy.dat
fix AVG all 		ave/time 1000 1 ${out_freq} v_Vol v_H file vol_enthalpy.dat
fix AVG all 		ave/time 1000 1 1000 v_Vol v_H file vol_enthalpy.dat


timer           timeout 23:50:00 every 1000
New timer settings: style=normal  mode=nosync  timeout=23:50:00

fix 		1 all shake 1e-6 200 0 b 1 a 1
       0 = # of size 2 clusters
       0 = # of size 3 clusters
       0 = # of size 4 clusters
     288 = # of frozen angles
  find clusters CPU = 0.260 seconds
fix             2 all nph iso ${pressure} ${pressure} ${pressureDamp}
fix             2 all nph iso 2750 ${pressure} ${pressureDamp}
fix             2 all nph iso 2750 2750 ${pressureDamp}
fix             2 all nph iso 2750 2750 1000
fix             3 all temp/csvr ${temperature} ${temperature} ${tempDamp} ${seed}
fix             3 all temp/csvr 228.12 ${temperature} ${tempDamp} ${seed}
fix             3 all temp/csvr 228.12 228.12 ${tempDamp} ${seed}
fix             3 all temp/csvr 228.12 228.12 100 ${seed}
fix             3 all temp/csvr 228.12 228.12 100 745823

run             250000
PPPM initialization ...
  extracting TIP4P info from pair style
  using 12-bit tables for long-range coulomb (../kspace.cpp:340)
  G vector (1/distance) = 0.37301667
  grid = 24 24 25
  stencil order = 5
  estimated absolute RMS force accuracy = 0.0032127974
  estimated relative force accuracy = 9.6752439e-06
  using double precision FFTW3
  3d grid and FFT values/proc = 2730 288
Last active /omp style is kspace_style pppm/tip4p/omp
Neighbor list info ...
  update every 1 steps, delay 7 steps, check yes
  max neighbors/atom: 2000, page size: 100000
  master list distance cutoff = 10.8154
  ghost atom cutoff = 10.8154
  binsize = 5.4077, bins = 4 4 4
  1 neighbor lists, perpetual/occasional/extra = 1 0 0
  (1) pair lj/cut/tip4p/long/omp, perpetual
      attributes: half, newton on, omp
      pair build: half/bin/newton/omp
      stencil: half/bin/3d
      bin: standard
Per MPI rank memory allocation (min/avg/max) = 9.235 | 9.240 | 9.247 Mbytes
Step Temp PotEng TotEng E_pair E_mol Press Lx Ly Lz Volume Pxx Pyy Pzz Pxy Pxz Pyz Enthalpy 
 5250000    249.58496   -4000.3346   -3572.5546   -4000.3346            0     2514.486    17.562527    20.686336    21.426241    7784.2463    1640.2239    3238.5007    2664.7333    -778.1389    490.43686    136.28574   -3287.0969 
 5251000     225.9816   -3983.3101   -3595.9854   -3983.3101            0    3465.5627    17.505857    20.619587    21.357105    7709.1362    2431.4294    3393.7128    4571.5459    562.24175    73.066812   -458.39562   -3206.3527 
 5252000    243.06944   -4013.9026   -3597.2899   -4013.9026            0    2277.7062    17.646283     20.78499    21.528424    7896.1481     2796.282    1625.2393    2411.5974    590.76193   -1707.2722    -699.4311   -3334.9955 
 5253000    229.39838    -4010.419   -3617.2381    -4010.419            0    888.16507     17.68171    20.826719    21.571645    7943.8019     426.9889    1942.7988    294.70752    381.53958   -1234.8958    355.48321   -3514.3422 
 5254000    207.81096   -3992.7478   -3636.5669   -3992.7478            0    1281.7996    17.628518    20.764065    21.506751    7872.3245    1331.6618    2391.7795    121.95737   -1210.8917   -299.00267   -562.25739   -3489.4038 
 5255000     227.2546   -3983.1574   -3593.6508   -3983.1574            0    4032.9197     17.58912     20.71766    21.458685    7819.6606    3523.6469    3735.8371    4839.2752   -144.02879    680.03022    1363.0046   -3133.7296 
 5256000    232.16033   -3987.3864   -3589.4716   -3987.3864            0     4046.834    17.606238    20.737823    21.479569    7842.5136    3982.2326    3803.9066    4354.3629   -327.92208   -913.23608    -457.2495   -3126.6149 
 5257000    235.86441   -4001.3913   -3597.1277   -4001.3913            0    2490.0286     17.61847     20.75223    21.494492    7858.8705    2398.1298    2272.3667    2799.5895   -548.47971    1284.9926    791.44407   -3311.7367 
 5258000    234.79603   -3991.2706   -3588.8382   -3991.2706            0    2061.3577    17.607086    20.738821    21.480603    7843.6467    2784.0203    1966.5988    1433.4541    -670.7044   -152.78726    76.046002   -3353.0363 
 5259000    230.94685   -3951.5942   -3555.7592   -3951.5942            0    3247.3728    17.594914    20.724485    21.465754    7827.3911    5146.2017     17.27269     4578.644    1395.8488    300.10252   -886.90893   -3185.0571 
 5260000    227.69524   -3984.2079   -3593.9461   -3984.2079            0    3308.8785    17.554183    20.676509    21.416062    7773.1569    3922.9762    2106.0132    3897.6462   -610.97039   -376.49561   -566.36468   -3218.8399 
 5261000    229.82217   -3988.5438   -3594.6365   -3988.5438            0    1798.8001    17.509371    20.623726    21.361392    7713.7796     1417.917    2585.9652    1392.5182    -176.7076   -660.90496   -847.94708   -3392.2758 
 5262000    241.79874   -3951.2942   -3536.8595   -3951.2942            0    1829.3285    17.612451    20.745141    21.487149    7850.8193    1369.3001    2071.0428    2047.6426   -2032.7731    15.670987    1436.0515   -3327.4084 
 5263000    232.19839   -3959.2261    -3561.246   -3959.2261            0    2009.9029    17.587415    20.715651    21.456605    7817.3866    2826.0049    1644.0987    1559.6051      1332.48     199.2447    64.885984   -3332.0998 
 5264000    224.66555   -3987.6656   -3602.5965   -3987.6656            0    3521.1099    17.479913    20.589028    21.325453    7674.9115    3824.2239    3987.6634    2751.4423    1093.4901   -1006.4264    241.05159   -3208.4762 
 5265000     222.8494   -3961.2447   -3579.2885   -3961.2447            0    4321.4604    17.545327    20.666077    21.405257    7761.3981    4141.3266    4386.8656    4436.1891    996.64964   -467.23499   -744.59016   -3090.1336 
 5266000    230.60914   -3985.7277   -3590.4716   -3985.7277            0    3488.2087    17.504691    20.618213    21.355682    7707.5953    5166.2324     2564.638    2733.7558   -409.91295   -1246.6044    628.69181   -3198.3712 
 5267000    224.79934   -3982.2885   -3596.9901   -3982.2885            0    4130.5963    17.504901    20.618461    21.355938     7707.873     3539.636    3793.9783    5058.1746    25.389662     236.0955   -290.95726   -3132.6639 
 5268000    208.94155   -3979.6679   -3621.5493   -3979.6679            0    3567.7885    17.520573     20.63692    21.375058    7728.5939    5013.3994    1742.0166    3947.9496    -87.31506    803.54374   -1216.7372   -3219.4109 
 5269000    233.81262   -4006.7248   -3605.9779   -4006.7248            0    3199.9404    17.559521    20.682797    21.422575    7780.2512    3664.6671    3991.0618    1944.0923   -1390.6936     515.3637   -150.44083   -3242.8903 
 5270000    216.19817   -3995.4611   -3624.9048   -3995.4611            0    1699.3332    17.546753    20.667757    21.406998    7763.2912    1271.6923    2227.9646    1598.3425   -761.18103     499.2222     414.2577   -3432.5069 
 5271000    238.49924   -4036.8359   -3628.0564   -4036.8359            0    2835.3477    17.494025     20.60565    21.342669    7693.5147     2301.274    3718.7422     2486.027   -237.12504    1033.7655   -819.99531   -3309.9247 
 5272000    236.53098   -3976.1897   -3570.7837   -3976.1897            0    3357.3937    17.461296      20.5671     21.30274    7650.4148     4678.497    4230.2303    1163.4537   -1140.2163    353.98155   -12.512029   -3196.1877 
 5273000    227.49895   -4021.6696   -3631.7442   -4021.6696            0     2649.287    17.512359    20.627246    21.365037    7717.7295    1103.9697    2424.1549    4419.7365    516.44977    1483.9637   -890.61844   -3333.5532 
 5274000    244.42383   -3973.9257   -3554.9916   -3973.9257            0    960.91523    17.591693     20.72069    21.461824    7823.0926    1709.0472    751.55178    422.14671    446.04022   -272.43435     920.0019    -3445.359 
 5275000    229.16577   -3997.1087   -3604.3264   -3997.1087            0    2151.8778    17.535716    20.654757    21.393533    7748.6511    2990.4877    1731.0739    1734.0718     563.1665    13.326126    255.91618    -3361.151 
 5276000    238.55012   -3988.4263   -3579.5595   -3988.4263            0    4249.4108    17.566905    20.691494    21.431583    7790.0698    2855.2033    6317.6245    3575.4047    111.61373   -409.15783   -80.119011   -3096.7832 
 5277000    232.14314   -3976.1887   -3578.3033   -3976.1887            0     1948.368     17.59002     20.71872    21.459783    7820.8607    2174.9446    3358.8195    311.33995     270.7144    59.293472   -541.59213   -3356.0739 
 5278000    226.04794   -4009.3867   -3621.9483   -4009.3867            0    2093.4625    17.486753    20.597085    21.333797    7683.9245    1074.7196    3727.0145    1478.6534   -726.82566    515.62037     252.2221   -3387.3504 
 5279000    225.28148   -4013.9256   -3627.8009   -4013.9256            0    2351.4569    17.529251    20.647142    21.385645    7740.0841    1268.3745    2680.8347    3105.1617    537.78213    739.14994   -1180.3764   -3362.3656 
 5280000    232.06371   -3970.2104   -3572.4611   -3970.2104            0    4155.1202    17.445936    20.549008    21.284001    7630.2437    4442.0109    5657.9338    2365.4159   -186.73131    1043.9351    483.10374   -3110.0824 
 5281000    234.35761   -3972.3337   -3570.6528   -3972.3337            0    3618.7537    17.472426     20.58021    21.316319    7665.0544    3914.4174    3303.7296    3638.1141    978.05474      256.957    92.600914   -3166.1234 
 5282000    231.94387    -3979.774   -3582.2302    -3979.774            0    3137.0329    17.496409    20.608459    21.345578    7696.6612    1668.4653    4795.3277    2947.3056   -1019.5171    937.01659   -1499.3153   -3230.1048 
 5283000    230.03204   -3979.5505   -3585.2835   -3979.5505            0    3309.6681    17.522625    20.639337    21.377561    7731.3097    4036.5037    4444.3551    1448.1456    -426.4178   -518.33014   -251.96274   -3212.1078 
 5284000    224.41095   -4014.2842   -3629.6515   -4014.2842            0     3796.561    17.430978     20.53139    21.265753    7610.6348    3728.8748    3190.8269    4469.9812     434.7955    148.15656   -490.81411   -3208.2587 
 5285000    219.20809   -4009.4113   -3633.6962   -4009.4113            0    3947.7857    17.486877    20.597232    21.333949    7684.0889    6038.8929    2872.1077    2932.3565     536.0785   -300.47466    232.73427   -3191.2893 
 5286000    220.09974   -4003.5023   -3626.2588   -4003.5023            0     1352.565    17.531486    20.649775    21.388372    7743.0446    789.23875    -143.1634    3411.6195    1701.5801   -883.82759    352.00341   -3473.5213 
 5287000    225.20972   -3978.3974   -3592.3956   -3978.3974            0    3561.0336    17.468865    20.576015    21.311974    7660.3681    5761.1406    2490.5733    2431.3869    560.34591   -1140.7316    209.90324   -3194.5619 
 5288000    227.37999   -3991.0705    -3601.349   -3991.0705            0    4305.9202    17.420936    20.519561    21.253501    7597.4879    4398.3532    4299.0584     4220.349    2398.1606   -299.62546   -86.292254   -3124.2463 
 5289000    226.84228   -4005.4705   -3616.6706   -4005.4705            0    2142.8474    17.527146    20.644663    21.383077    7737.2956    605.66412     3720.147     2102.731    902.26934    697.47504    161.19454   -3374.8706 
 5290000    230.35384   -4028.0543   -3633.2358   -4028.0543            0    4044.7377    17.456051    20.560923    21.296342    7643.5239    4530.2693     4825.845    2778.0986     1465.527   -71.555221    -422.8502   -3182.3569 
 5291000    222.02378   -4013.6442    -3633.103   -4013.6442            0    4184.9478    17.481479    20.590873    21.327363    7676.9742    4718.9461    3523.8584    4312.0388    487.49378   -1917.7552   -603.96368    -3164.553 
 5292000    223.65784   -4010.5309    -3627.189   -4010.5309            0     2871.912     17.47935    20.588365    21.324766      7674.17    2287.0391    2780.8811    3547.8157    677.14562    -1304.572   -55.093583   -3305.7649 
 5293000    237.99831   -4015.8984   -3607.9775   -4015.8984            0    2744.5065     17.47708    20.585691    21.321996    7671.1801    2223.6123    1847.0167    4162.8904    473.15017   -53.007443   -632.30623   -3300.9323 
 5294000    233.66911   -4021.9268    -3621.426   -4021.9268            0     1963.489     17.51414    20.629344     21.36721    7720.0847    1940.1797    1668.7624     2281.525     12.48703   -415.75584   -302.08351   -3400.3577 
 5295000    219.62016   -4056.1364    -3679.715   -4056.1364            0     1725.865    17.532734    20.651245    21.389895    7744.6987    955.77411    1192.0154    3029.8055    1138.9732   -903.35895   -531.40926   -3484.7812 
 5296000    235.05702   -4014.1949   -3611.3152   -4014.1949            0    2535.4606    17.499014    20.611527    21.348757    7700.0998    1566.8735    5094.6126    944.89565    1295.6218   -919.81238   -787.32716   -3326.5879 
 5297000    217.44053   -3996.7601   -3624.0745   -3996.7601            0    2713.8518    17.426169    20.525725    21.259885     7604.337    3929.4249    3106.9375    1105.1928   -655.88569   -290.24684    585.24567   -3323.1044 
 5298000    236.14525    -4005.038   -3600.2931    -4005.038            0      2781.66    17.370853    20.460571    21.192401    7532.1516    3423.7479    1909.8326    3011.3994    192.70497      223.937   -467.31359   -3294.7313 
 5299000    236.46595   -4002.9036    -3597.609   -4002.9036            0    3259.3133    17.428461    20.528426    21.262682    7607.3385    2117.3262    4153.2251    3507.3885    799.80629   -1042.1326    842.81989   -3236.0038 
 5300000    230.32392   -4016.7234   -3621.9561   -4016.7234            0    2714.6421    17.470656    20.578125     21.31416     7662.725    3468.5034    1545.4279     3129.995    820.07551    -1177.151    193.14554   -3318.5867 
 5301000    236.66889   -3989.4524     -3583.81   -3989.4524            0    3589.3597    17.464636    20.571034    21.306815     7654.806    2386.9024    4168.2046     4212.972    1167.6082     -75.9517   -1497.0041   -3183.1029 
 5302000    228.25645   -4018.5572   -3627.3335   -4018.5572            0    1125.7859    17.548397    20.669693    21.409003     7765.473     778.7279    1121.4111    1477.2187   -585.41249   -157.18196    277.38123   -3499.8366 
 5303000    224.38008   -4016.7041   -3632.1243   -4016.7041            0    2776.6586    17.541809    20.661934    21.400967    7756.7314    3569.7418    2516.9698    2243.2642   -1319.3742    255.57625   -1175.3124   -3318.0177 
 5304000    237.77792   -4007.5396   -3599.9963   -4007.5396            0    1477.8949    17.554922    20.677379    21.416964     7774.139     859.7748    1396.5485    2177.3613    885.11169    346.38578   -226.91457   -3432.4358 
 5305000    230.05173   -4021.4505   -3627.1497   -4021.4505            0    2435.5367    17.474163    20.582256    21.318438    7667.3404    1832.3371    1494.5888    3979.6844   -301.53136     514.4729   -161.25539   -3354.8073 
 5306000    232.71358   -3994.2978   -3595.4347   -3994.2978            0    3387.7735    17.454923    20.559593    21.294965    7642.0412    4422.2031    1675.0357    4066.0818   -214.18469   -820.83584   -52.773426   -3217.8628 
 5307000    235.25501   -4019.1079   -3615.8888   -4019.1079            0    3926.4519    17.458298    20.563569    21.299083    7646.4759    3266.1425    4142.3629    4370.8504    1061.7702   -38.407588   -421.00798   -3178.0266 
 5308000    229.72257   -4015.4739   -3621.7373   -4015.4739            0    3033.1343    17.524016    20.640976    21.379259    7733.1517    3630.1919    1992.0407    3477.1703   -192.53183     1530.925    160.36892   -3279.6601 
 5309000    241.41143   -4033.2845   -3619.5136   -4033.2845            0     2700.859     17.49834    20.610733    21.347934    7699.2099    3651.9465    2304.9875     2145.643     78.01767   -413.59373   -448.19807   -3316.2474 
 5310000    223.36712   -4039.8979   -3657.0543   -4039.8979            0    3502.5623    17.456161    20.561052    21.296476    7643.6683    1813.9772    4787.8396      3905.87   -466.50474    861.18522   -208.63955   -3266.6059 
 5311000    227.53824   -4014.0879   -3624.0951   -4014.0879            0    2224.0673     17.50633    20.620144    21.357682    7709.7609     726.1277     2797.874    3148.2003   -447.26957   -967.03843    1700.8776   -3374.0233 
 5312000    225.22223   -3978.6742    -3592.651   -3978.6742            0     864.2874    17.525032    20.642173    21.380498    7734.4968     32.33386    1335.3201    1225.2082   -189.30316   -305.16593    367.25288   -3495.1597 
 5313000    242.71406   -3992.1345   -3576.1309   -3992.1345            0    3597.5355    17.427702     20.52753    21.261755    7606.3434    3108.9401    3730.8443     3952.822     -741.332   -225.79532   -307.76769   -3177.0537 
 5314000    222.80788   -3980.8048   -3598.9197   -3980.8048            0     4009.865    17.418903    20.517167    21.251022    7594.8295    5868.6661    2824.9159     3336.013   -572.58251   -2265.1257    642.77048   -3154.7758 
 5315000    223.70735   -4025.7733   -3642.3466   -4025.7733            0    3249.2403    17.404375    20.500055    21.233297    7575.8416    3380.5072    3303.8497     3063.364   -51.453024   -442.59673    236.79398   -3283.3514 
 5316000    245.69024   -4001.0814   -3579.9767   -4001.0814            0    3880.6759    17.406845    20.502964     21.23631    7579.0671    4690.3841    2203.1373    4748.5064   -734.68784   -145.75938     430.2945   -3151.0342 
 5317000    223.42096   -4024.2142   -3641.2784   -4024.2142            0    2811.0863     17.47467    20.582853    21.319056    7668.0073    1823.4369    3920.4469    2689.3749   -765.08483    -243.8329    641.65621   -3326.9145 
 5318000    232.37937   -4005.7397   -3607.4495   -4005.7397            0    3952.1983    17.420554    20.519112    21.253036    7596.9893    5415.5545    2149.5296    4291.5107   -2.0215535    280.05235    202.94905   -3169.5684 
 5319000    216.50069   -4024.5573   -3653.4825   -4024.5573            0      3795.23    17.383643    20.475635    21.208003    7548.8005    4089.2965    3329.5022    3966.8913    531.28253   -1331.4868    181.72931   -3235.6599 
 5320000     220.4712   -3986.4696   -3608.5895   -3986.4696            0    2350.9692    17.435934    20.537227    21.271799    7617.1277    1523.1049    2602.7204    2927.0823   -283.33284    526.49124   -359.41291   -3347.4251 
 5321000    233.36669   -4004.4009   -3604.4184   -4004.4009            0    2243.8424    17.412747    20.509916    21.243511    7586.7801    2945.9041    1332.8133    2452.8098    289.90867   -342.22926   -537.53857   -3356.1475 
 5322000    239.34422   -3967.5363   -3557.3085   -3967.5363            0    2423.0812    17.532913    20.651455    21.390112    7744.9353    2550.2995    3460.3536    1258.5906    776.27991    378.73478   -435.83434   -3283.6168 
 5323000    219.09418   -4023.3009    -3647.781   -4023.3009            0      2610.99     17.44533    20.548295    21.283262    7629.4491    1491.6689    2553.2396    3788.0616   -84.872614    654.86964   -750.27784   -3357.2621 
 5324000     228.7895   -4027.9233   -3635.7859   -4027.9233            0    1718.8073    17.495551    20.607448    21.344531    7695.5289    1351.0079    1914.0423    1891.3717     179.2981   -335.73951    959.96138   -3442.8818 
 5325000    218.67235   -3993.5645   -3618.7676   -3993.5645            0    3393.0957    17.461503    20.567344    21.302993    7650.6878    2100.1969    4032.4511    4046.6392    314.41359   -1529.5753    402.07728   -3240.1747 
 5326000    228.88149   -4015.1093   -3622.8142   -4015.1093            0    2042.4275    17.523689    20.640591     21.37886    7732.7184    2898.6457    1518.6548    1709.9821   -1062.5857   -1314.7092     465.9402    -3392.482 
 5327000    228.98975   -4035.6525   -3643.1719   -4035.6525            0    2264.7518    17.476487    20.584993    21.321273    7670.3994    2393.4708    2050.7425    2350.0422   -88.476888   -530.59717   -433.95045   -3389.8257 
 5328000    237.90284    -3987.733   -3579.9756    -3987.733            0    2759.8685    17.511563    20.626308    21.364066    7716.6773    2455.6232    1976.3064    3847.6761   -630.64065   -320.36347   -1057.2466   -3269.3805 
 5329000    222.15548   -3990.2408   -3609.4739   -3990.2408            0    4392.5509    17.457175    20.562246    21.297712    7644.9995    5019.6266    4001.5938    4156.4323   -393.72358   -1644.9888    1085.6971   -3119.7287 
 5330000    242.14403   -3991.2595   -3576.2329   -3991.2595            0    2738.1502    17.459735    20.565261    21.300836    7648.3634    2545.3143    3880.1098    1789.0264   -223.61519    -250.0001   -1294.5452   -3270.8099 
 5331000    231.03113   -3998.8277   -3602.8483   -3998.8277            0    3592.4908    17.437355    20.538901    21.273533    7618.9905    4833.7236    1886.0503    4057.6984   -582.21427   -47.355166    1035.1714   -3203.6681 
 5332000    227.90626   -4023.9785   -3633.3549   -4023.9785            0    2183.1491    17.496081    20.608073    21.345178    7696.2285    1346.0374    2205.3112    2998.0989    151.63295   -544.50234    1999.6584   -3388.3148 
 5333000    212.23889   -3999.5905   -3635.8204   -3999.5905            0    2738.1425    17.452109     20.55628    21.291533    7638.3466    2045.2462    2419.4389    3749.7425    370.70802     14.37614   -304.32209   -3330.7983 
 5334000    231.81011   -3964.1886    -3566.874   -3964.1886            0    3861.4658    17.448949    20.552558    21.287678    7634.1984    4581.6934    3279.4803    3723.2238    313.83463    -178.0902    1685.3638   -3136.9502 
 5335000    235.39912    -4007.602   -3604.1359    -4007.602            0    2670.9479    17.443131    20.545704    21.280579    7626.5635    2025.5599    3534.9222    2452.3615    851.32541    68.511793    683.65332   -3307.0581 
 5336000    232.38123   -4013.5801   -3615.2867   -4013.5801            0    2818.1035    17.465246    20.571753     21.30756     7655.609    3369.7377    3205.5793    1878.9935    -27.59493   -1786.9467   -359.64842   -3300.6476 
 5337000     229.5068   -4024.7655   -3631.3987   -4024.7655            0    2311.4483     17.43556    20.536787    21.271343    7616.6377    2286.2045     1596.538    3051.6022    -77.24663    241.48393     -253.695   -3374.6411 
 5338000    239.62452    -3986.429   -3575.7208    -3986.429            0     3033.347    17.442952    20.545493    21.280361    7626.3291    2757.6516    1661.2494    4681.1401    -379.9693   -12.143242   -524.39288   -3238.3453 
 5339000    213.96098    -4015.842   -3649.1202    -4015.842            0    4008.5283     17.45768    20.562841    21.298328    7645.6629    3797.3981    3328.2219     4899.965   -422.29067   -340.67649   -819.67091   -3202.1526 
 5340000    226.33169   -4009.8342   -3621.9094   -4009.8342            0    4192.1827    17.372473    20.462478    21.194376    7534.2583    5505.3474    2897.5661    4173.6347    1055.8628   -674.89796   -61.954329   -3161.2748 
 5341000    221.19111   -4039.9246   -3660.8106   -4039.9246            0    3626.4277     17.42725    20.526999    21.261204    7605.7522    3784.2436    2611.0994    4483.9401   -600.42971   -185.44807   -430.25242   -3258.5597 
 5342000    235.58294   -4020.6307   -3616.8496   -4020.6307            0    1813.0495    17.479742    20.588827    21.325244     7674.686    1456.8742    1385.9265    2596.3476   -620.14677   -951.66823    259.74642   -3413.9197 
 5343000    219.18698   -4031.1388   -3655.4599   -4031.1388            0    3334.1551    17.514313    20.629547     21.36742    7720.3124    2296.3836    3197.0223    4509.0595    -75.21071   -1760.7082   -75.680277   -3280.0579 
 5344000    224.94101   -4021.7957   -3636.2545   -4021.7957            0    2856.8995    17.434764     20.53585    21.270372    7615.5951    2308.5636    3183.1778    3078.9571    1300.3127   -276.79999    498.69156   -3318.9511 
 5345000    226.24044   -4027.9573    -3640.189   -4027.9573            0    3263.5648     17.43701    20.538495    21.273111     7618.538    2901.9301    3388.6098    3500.1544    220.37728   -1202.6129    12.084471    -3277.579 
 5346000    227.12994   -4005.6472   -3616.3542   -4005.6472            0    2745.8467     17.46501    20.571475    21.307271    7655.2981    1284.2316    2669.2406    4284.0679    1487.2553    277.58174   -413.65971   -3309.7951 
 5347000    224.25633   -4020.6775   -3636.3098   -4020.6775            0    3916.6523    17.513284    20.628335    21.366165    7718.9522    2711.3342    4587.5454    4451.0773     1314.401   -176.11533    580.03065   -3195.4005 
 5348000    226.18578   -4053.1317    -3665.457   -4053.1317            0    3732.4376    17.495655     20.60757    21.344658    7695.6655    1310.4478    4397.9911    5488.8739    846.45192   -709.85092   -346.35424   -3246.5529 
 5349000    235.80463   -4028.4612   -3624.3002   -4028.4612            0    2503.1699    17.452302    20.556506    21.291767    7638.5991     1236.204    3066.1076    3207.1981   -482.12362    1079.9515   -297.22436   -3345.4442 
 5350000    227.56059   -4051.0116   -3660.9805   -4051.0116            0    2396.4953    17.505629    20.619319    21.356827    7708.8354    934.44593    2599.1885    3655.8515   -1478.9062   -676.09679   -1141.0667   -3391.5534 
 5351000    225.92087   -4057.0427   -3669.8221   -4057.0427            0    1379.6573    17.523055    20.639845    21.378087    7731.8797    915.73806    1878.4774    1344.7566    372.46979    787.13466    -731.0577   -3514.2498 
 5352000    224.47353   -4009.4574   -3624.7174   -4009.4574            0    3019.2131    17.542931    20.663255    21.402334    7758.2188    2679.1752    3719.6194    2658.8447     199.4923    95.573339    751.26821   -3283.1066 
 5353000    218.20561   -3991.8657   -3617.8688   -3991.8657            0    3041.3699    17.504312    20.617768     21.35522    7707.0958    2881.8566    3771.6587    2470.5945   0.75772686    1393.0162    953.35918   -3276.0185 
 5354000    228.46562   -4010.9268   -3619.3446   -4010.9268            0    2571.2217    17.497962    20.610288    21.347473    7698.7111    1188.3486     4032.633    2492.6833    1786.1807   -1326.0628    194.57149   -3330.6535 
 5355000    230.83414   -3993.7801   -3598.1383   -3993.7801            0    1115.2897     17.51247    20.627377    21.365173    7717.8766    294.24608    1479.1242    1572.4989   -356.35373   -640.42224   -1161.4619   -3472.6043 
 5356000    219.94225   -4031.0166   -3654.0431   -4031.0166            0    2131.8294    17.540862    20.660819    21.399811    7755.4753      1119.62    1706.0833    3569.7847    53.113019   -850.94642   -1135.5671   -3412.9211 
 5357000    224.26524   -4022.4619    -3638.079   -4022.4619            0    2319.7793    17.478659    20.587551    21.323923    7673.2596    2453.2301    3700.9828    805.12496    341.69876    1237.8899    1286.8454   -3378.4803 
 5358000    223.90974   -4002.9238   -3619.1502   -4002.9238            0    2066.6266      17.5119    20.626705    21.364477    7717.1228    2553.1939    2109.7727    1536.9131    1115.1451   -366.93273    527.68293    -3386.559 
 5359000    227.83404   -4016.8715   -3626.3718   -4016.8715            0    2441.4532    17.412832    20.510016    21.243614    7586.8904    1020.3594    2900.1291    3403.8711    543.25542    889.05371   -311.92095   -3356.2323 
 5360000    227.49436   -4001.4758   -3611.5582   -4001.4758            0    2809.3733    17.510023    20.624494    21.362187    7714.6416     3731.693     2246.515    2449.9119   -61.388057   -336.45001    298.05566   -3295.4752 
 5361000    229.03516   -3994.2241   -3601.6656   -3994.2241            0    1941.8008    17.488264    20.598865    21.335641    7685.9166    3958.3579    1340.7143    526.33024    17.983335    251.66808    681.46741   -3384.0068 
 5362000    236.35766   -4024.4383   -3619.3293   -4024.4383            0    2410.7296    17.398545    20.493187    21.226184    7568.2306     2119.806    2697.9525    2414.4303    803.67707    915.57838    436.28908   -3353.2453 
 5363000    230.57884      -4015.7   -3620.4958      -4015.7            0    2989.9522    17.364363    20.452925    21.184482    7523.7113     2161.218    4494.4893    2314.1493     -258.507    179.00893      419.213   -3292.4215 
 5364000    243.18167   -4000.9446   -3584.1395   -4000.9446            0    1117.4654    17.414923    20.512479    21.246165    7589.6239   -477.29979    2913.5857    916.11041    342.29926      382.899    1118.6454   -3460.4508 
 5365000    243.20895   -4002.8331   -3585.9812   -4002.8331            0    2959.0243    17.421101    20.519756    21.253703    7597.7047    3717.2831    3478.8731    1680.9166   -82.202259    1345.1979   -78.472459   -3258.1074 
 5366000     229.4228   -4012.0263   -3618.8034   -4012.0263            0    1615.0312    17.462522    20.568544    21.304236    7652.0264    1525.8781    1988.3582    1330.8574    864.43441    1380.5416    928.42103   -3438.5709 
 5367000    222.81859   -4028.8703   -3646.9668   -4028.8703            0    558.05384    17.451137    20.555134    21.290346    7637.0699    210.90286     1753.827    -290.5683   -33.775589   -522.47416   -594.16162   -3584.8114 
 5368000    232.27911   -4034.6307   -3636.5122   -4034.6307            0    2183.7189    17.403895    20.499489    21.232711    7575.2142    1362.4046    2098.5251    3090.2269   -646.04096    536.56653   -542.06209   -3395.2621 
 5369000    218.92759    -3981.971   -3606.7366    -3981.971            0    3166.7782     17.46478    20.571204    21.306991    7654.9957    3610.3744    4719.8442     1170.116    450.73325    -502.1478    840.33582   -3253.1966 
 5370000    211.87943   -3992.4197   -3629.2656   -3992.4197            0     3839.089    17.443505    20.546144    21.281035    7627.0539    3532.8448    3619.7179    4364.7044   -620.48334   -414.16071   -125.83559   -3202.2332 
 5371000    224.46609   -4022.4006   -3637.6734   -4022.4006            0    2567.3922    17.498464    20.610879    21.348085     7699.373    2693.0921    1619.6182    3389.4664   -297.49372     -363.277   -633.79553   -3349.3875 
 5372000    235.95279   -3994.6433   -3590.2283   -3994.6433            0    1949.6661    17.496057    20.608044    21.345148    7696.1962    841.65261    1840.2006     3167.145    341.26624    1185.8479    1514.6584   -3371.3956 
 5373000    225.98412   -4037.8608   -3650.5318   -4037.8608            0    1430.2619    17.474311     20.58243    21.318618    7667.5348    764.85812    1385.9099    2140.0177    1426.3556   -6.4694618   -198.43763   -3490.5954 
 5374000    233.33969   -3990.3878   -3590.4516   -3990.3878            0    3693.2497    17.505936     20.61968    21.357201    7709.2408    2763.8908     4244.677    4071.1812    387.19051   -111.30812    616.35584   -3175.2145 
 5375000    239.18702   -3987.4529   -3577.4946   -3987.4529            0    1976.2339    17.522161    20.638791    21.376995    7730.6953    2133.6055    2583.4699    1211.6265    362.19914   -159.36886     943.1405   -3354.6855 
 5376000    226.73332    -4000.087   -3611.4739    -4000.087            0    4706.6238    17.362512    20.450745    21.182224    7521.3055    5349.0419    5085.3673    3685.4623    265.75204     260.0901   -1050.4924   -3095.2018 
 5377000    233.22717   -4011.4555   -3611.7121   -4011.4555            0    1829.2545    17.522057    20.638668    21.376868    7730.5578    1213.3354    1939.7223    2334.7056    924.40883   -388.78056    1970.0139   -3405.4778 
 5378000    231.01122   -4000.9674   -3605.0221   -4000.9674            0    2697.8369     17.49566    20.607576    21.344664    7695.6721    3465.2624    1510.2022    3118.0461   -240.55929    1134.2367    133.58502   -3302.2345 
 5379000    229.32612   -3983.9659   -3590.9087   -3983.9659            0    453.23876     17.55265    20.674703    21.414192    7771.1207    1599.2186    174.71118   -414.21356    1586.1911   -724.61056     116.8154   -3539.5415 
 5380000    223.26196        -4022   -3639.3367        -4022            0    3555.0476    17.436598     20.53801    21.272609    7617.9983    3003.6637    3791.9401    3869.5391   -358.09805   -270.86273    1120.7649   -3244.3684 
 5381000    235.68423   -4036.2297    -3632.275   -4036.2297            0    2783.0668    17.510442    20.624987    21.362698    7715.1946    2920.7896    4371.0398     1057.371    1257.4279    316.65156    478.16128   -3319.1294 
 5382000    231.26266   -3971.6917   -3575.3154   -3971.6917            0    1586.9305     17.49582    20.607765    21.344859    7695.8835    2108.8637     189.7148    2462.2131    1592.8015   -95.149164    1404.1467   -3397.2038 
 5383000    227.11651   -3999.4421   -3610.1722   -3999.4421            0     3548.674    17.450331    20.554185    21.289363    7636.0119    2301.0453    3933.6904    4411.2864   -213.03062   -275.40799    458.30004   -3214.9798 
 5384000      225.771   -4005.5646   -3618.6008   -4005.5646            0    1741.9777    17.477793    20.586532    21.322867    7672.1201     2231.205    1543.7911     1450.937   -596.63674   -532.92767    1040.5273   -3423.6909 
 5385000    220.91209   -4006.3057   -3627.6699   -4006.3057            0    2763.8292    17.451153    20.555153    21.290366    7637.0906    2979.0399    1638.7241    3673.7235   -110.03015    -1152.178    1532.2804   -3319.8371 
 5386000     224.8012    -3975.864   -3590.5625    -3975.864            0    3534.8662    17.419458    20.517821    21.251698    7595.5551    4026.4883    3795.5312     2782.579   -919.27537   -1177.6194   -47.885227   -3198.9934 
 5387000    218.49007    -3979.197   -3604.7125    -3979.197            0    3346.2111    17.415804    20.513517    21.247241    7590.7766    3513.1589    1116.9783    5408.4962   -1255.8676    196.84048    101.96811   -3234.2746 
 5388000    221.34019   -3964.1456   -3584.7761   -3964.1456            0     4002.771    17.373937    20.464203    21.196163    7536.1636    3645.1253      4164.78    4198.4077   -238.36971   -223.93349   -333.61502   -3144.8427 
 5389000    218.15552   -4015.5772   -3641.6661   -4015.5772            0    3261.2121    17.486053     20.59626    21.332943    7683.0017    3294.3896    3425.9604    3063.2862    383.68259    173.47406    -1955.725   -3276.2516 
 5390000    228.65945   -3991.7091   -3599.7947   -3991.7091            0    3026.1097    17.502796    20.615981     21.35337    7705.0924    3310.9518     1993.508    3773.8694   -883.23288   -272.03203    526.51535   -3259.7481 
 5391000    220.49423   -3994.3022   -3616.3826   -3994.3022            0    2628.7208    17.481697     20.59113    21.327629    7677.2616    1557.7838    2557.1543    3771.2244    982.10922   -1500.8262    -671.5565    -3322.058 
 5392000    220.13811   -3973.0009   -3595.6917   -3973.0009            0    2718.2459    17.469452    20.576707    21.312691    7661.1409    2446.5714    3312.1233     2396.043    1107.6403   -605.61398    496.53801   -3291.9824 
 5393000    227.26258   -3999.4559   -3609.9356   -3999.4559            0    1808.8887    17.477656     20.58637      21.3227    7671.9394    922.81829    1688.6047    2815.2432   -1854.1265     1319.668    1288.4671   -3407.5438 
 5394000    242.45267   -4006.1667   -3590.6112   -4006.1667            0    3714.1591    17.383915    20.475955    21.208335    7549.1548     1778.515    4818.6374    4545.3248   -672.16838    139.43161    1034.6419   -3181.6946 
 5395000    234.43784   -3985.3591   -3583.5407   -3985.3591            0    3123.9749    17.508448    20.622639    21.360266    7712.5599    3682.3699    3294.7053    2394.8496   -700.86146   -445.19492   -858.36206   -3232.1567 
 5396000    228.18197   -4008.2339   -3617.1379   -4008.2339            0    3376.5071    17.468231    20.575268    21.311201    7659.5338    3269.4906    3662.3565    3197.6743    850.91528   -1214.8613   -83.074947   -3239.9603 
 5397000    224.99111   -4017.5455   -3631.9185   -4017.5455            0     3416.781    17.423808    20.522945    21.257005    7601.2469    2591.6923    4924.9658     2733.685    2040.5153   -714.67802    276.18464   -3253.1465 
 5398000    230.25012   -4032.9486   -3638.3077   -4032.9486            0    1970.6917    17.484957    20.594969    21.331606     7681.557    907.34494     2715.676    2289.0541    436.59266   -883.69927   -644.44945   -3417.5358 
 5399000     241.9252   -3991.8743   -3577.2227   -3991.8743            0    2662.2058    17.440779    20.542934     21.27771    7623.4798    2576.3697    1933.3739    3476.8739    278.00335    529.84373   -61.774416    -3281.237 
 5400000    216.77388   -3987.7338   -3616.1907   -3987.7338            0    4785.7564    17.416253    20.514045    21.247788    7591.3627    4155.5216    5942.6238    4259.1237    876.08501    990.60045    591.21371   -3086.3489 
 5401000    242.54975   -4000.9497   -3585.2278   -4000.9497            0     2999.198    17.472596    20.580411    21.316527    7665.2783    1548.4764    3753.3185     3695.799   -939.36602   -1702.8145    1480.1661   -3249.9468 
 5402000    221.65126    -4012.067   -3632.1644    -4012.067            0    1857.0149    17.434148    20.535123     21.26962    7614.7869    1688.9431    1580.4218    2301.6799    182.51479    197.41991    1111.7396   -3425.9357 
 5403000    220.88832   -3975.2773   -3596.6823   -3975.2773            0    2137.4361    17.469304    20.576533     21.31251    7660.9461    2491.6859    3140.3629    780.25949    285.93747    375.87492   -17.666856   -3357.8728 
 5404000    216.75183   -3996.6252     -3625.12   -3996.6252            0    1321.3233    17.445896    20.548961    21.283952    7630.1909    1886.4827   -59.739142    2137.2262    158.03802    784.59234   -415.88399   -3478.0851 
 5405000    221.67877    -3983.222   -3603.2722    -3983.222            0    2173.4906    17.456091    20.560969     21.29639    7643.5753    1973.0829     2788.009    1759.3799    878.82351   -668.18555    1364.5268   -3360.9852 
 5406000    211.97774   -4010.6778   -3647.3552   -4010.6778            0    1310.2972    17.514134    20.629337    21.367203     7720.077    2865.0487    498.96912    566.87379    627.68776    229.79236    1103.3563   -3499.8297 
 5407000    224.93675    -4008.905   -3623.3711    -4008.905            0    4497.3615     17.40478    20.500531     21.23379    7576.3699    4037.8422    3568.5777    5885.6645    686.91115    606.21421    574.55279   -3126.4415 
 5408000    224.11683   -4015.3897   -3631.2611   -4015.3897            0    2759.4136     17.48737    20.597812     21.33455    7684.7382    1958.6458    4207.9621     2111.633    24.705131   -676.27966    498.41412   -3322.0026 
 5409000    226.76355   -4001.6403   -3612.9754   -4001.6403            0    2073.8172    17.466548    20.573287    21.309148    7657.3211    671.75084    2499.7146    3049.9862    700.73752   -1059.9797    1610.1272   -3381.3835 
 5410000    235.44724   -3985.8484   -3582.2998   -3985.8484            0    512.09748    17.592354     20.72147    21.462631    7823.9756   -189.72612    1900.7978   -174.77924    443.83247   -911.92886    700.97613   -3523.8671 
 5411000    217.86124   -4021.4612   -3648.0545   -4021.4612            0    3034.6001    17.517593    20.633411    21.371423    7724.6518    2581.8975      3159.38    3362.5228     363.1559   -263.10586   -351.49005   -3306.1882 
 5412000    220.67931   -4002.8896   -3624.6528   -4002.8896            0    1198.8461    17.550754     20.67247    21.411879    7768.6028    1657.4337    235.55555    1703.5492    298.69352    11.374619    1303.9589    -3488.827 
 5413000    237.07713   -4001.7323   -3595.3902   -4001.7323            0    3901.1887    17.467386    20.574273     21.31017    7658.4222    4780.6688    4629.8404     2293.057     839.0694   -569.38077   -12.355862   -3159.6655 
 5414000    232.88415   -3992.4638   -3593.3083   -3992.4638            0    3675.9458    17.374367     20.46471    21.196687    7536.7235    5167.7296    3544.6007    2315.5073    844.90454    850.98676    707.32435   -3189.2653 
 5415000     233.9801    -4002.374   -3601.3401    -4002.374            0    4038.2447    17.399978    20.494876    21.227933    7570.1016     4220.143    4572.1746    3322.4164    100.35895    360.32072    354.45294   -3155.5092 
 5416000    222.52204   -3970.5027   -3589.1075   -3970.5027            0    2502.3697    17.555508     20.67807    21.417679     7774.918    3406.0352    3305.9281    795.14582    286.95318   -152.73183   -8.8349978   -3305.3658 
 5417000    217.88769   -4007.7565   -3634.3044   -4007.7565            0     1056.364    17.502347    20.615453    21.352823    7704.5001    2166.8559      -22.404    1024.6402   -951.00829    72.289441   -1413.6777    -3515.609 
 5418000    239.24149   -3989.8282   -3579.7765   -3989.8282            0    2384.4986     17.50101    20.613878    21.351191    7702.7342     3590.694    2144.8135    1417.9883    -37.53968   -933.35312   -606.24685   -3311.9103 
 5419000    230.81547   -3969.5056   -3573.8958   -3969.5056            0    2046.7901    17.459571    20.565069    21.300636    7648.1488    3074.6274    2925.4162    140.32667    261.25041    -280.9881   -82.881638    -3345.596 
 5420000    225.55282   -3993.8319   -3607.2421   -3993.8319            0    3426.5271    17.489217    20.599988    21.336804    7687.1742     3506.137    4276.2789    2497.1653   -99.172229    643.38028    490.78295   -3223.0957 
 5421000    236.30153   -4029.8088   -3624.7961   -4029.8088            0    2638.1904    17.505788    20.619506     21.35702    7709.0447    706.96224    3193.6139     4013.995   -191.42827   -234.47953   -503.13672   -3328.1882 
 5422000    235.57288   -4031.2377   -3627.4739   -4031.2377            0    4271.7804     17.47303    20.580921    21.317056    7665.8491    4118.2695    4343.0331    4354.0384   -161.88837    649.83877    149.25492    -3149.895 
 5423000    217.97442   -4015.2111   -3641.6104   -4015.2111            0    3417.4339     17.52312     20.63992    21.378165    7731.9648    1894.5304    4822.3505    3535.4208    463.43908   -306.04807   -329.78399    -3256.251 
 5424000    221.58374    -4014.188    -3634.401    -4014.188            0    3204.3726    17.529968    20.647987    21.386521    7741.0343    3731.1476    3562.1102      2319.86    439.48111    -1046.723    -156.8683   -3272.6432 
 5425000    229.77717   -3999.9321   -3606.1019   -3999.9321            0    2328.8008    17.533596     20.65226    21.390946    7745.8412    1881.3419    2756.6304      2348.43    1406.2806    1293.5639    224.74804   -3343.0286 
 5426000    234.59259   -4032.5968   -3630.5131   -4032.5968            0    3130.6004    17.453404    20.557805    21.293113    7640.0473    2996.6469    2520.1528    3875.0014    451.62685   -217.82073   -631.55492   -3281.6945 
 5427000    239.26562   -3995.4924   -3585.3993   -3995.4924            0    2444.0877    17.497385    20.609609    21.346769    7697.9494    3020.9177    1597.9458    2713.3997   -633.11876    660.88159   -662.86001   -3311.0097 
 5428000    230.39921   -3981.8131   -3586.9167   -3981.8131            0    3289.6336    17.449869    20.553641      21.2888    7635.4056    3726.1733    4140.0793    2002.6481   -979.95888   -668.32019    187.17105    -3220.601 
 5429000      228.948   -4003.1573   -3610.7483   -4003.1573            0    1837.6816    17.557642    20.680584    21.420283    7777.7537    1294.6116    1358.4611     2859.972    400.25531    264.65276   -308.53928    -3402.299 
 5430000    218.00419   -3986.3506   -3612.6989   -3986.3506            0     1857.282    17.474209     20.58231    21.318494    7667.4004    2029.4867    2396.5767    1145.7827   -722.22838   -453.38313    452.72158   -3405.0155 
 5431000    233.50727   -3997.9089   -3597.6854   -3997.9089            0    2721.1631    17.479903    20.589016     21.32544    7674.8982    3829.8325    2960.4402    1373.2167    2086.7589   -606.15249    305.18787   -3293.1042 
 5432000    230.82195   -3972.2254   -3576.6045   -3972.2254            0    1929.2033    17.546268    20.667186    21.406406     7762.648    2035.2639    2220.3519     1531.994   -223.63881    243.23268   -1019.0688   -3358.1989 
 5433000    216.86111    -3996.376   -3624.6835    -3996.376            0    2877.5818    17.505901     20.61964    21.357159    7709.1949    2720.0459    3324.1176    2588.5821   -462.77852   -353.62806    505.05102    -3301.155 
 5434000     222.5499   -4028.3716   -3646.9287   -4028.3716            0     2646.293    17.496416    20.608467    21.345586    7696.6698     2956.889    1784.3382    3197.6517    427.15678   -871.68727   -404.02677   -3349.8875 
 5435000     228.6228   -3995.5926   -3603.7409   -3995.5926            0    2035.7029    17.461542     20.56739     21.30304    7650.7385    744.41117    1908.7862    3453.9112    -476.7198   -972.98877    24.493684   -3376.6009 
 5436000    236.21784   -4018.1477   -3613.2784   -4018.1477            0    3135.0071    17.481453    20.590842    21.327331      7676.94    2793.3438    5434.5769    1177.1006   -54.069481   -54.352986    1247.1223   -3262.2821 
 5437000    223.64952    -4023.789   -3640.4614    -4023.789            0    966.08883    17.560212     20.68361    21.423418     7781.169    267.66644    1718.7237    911.87638    330.78196   -255.57065   -596.53676   -3530.8292 
 5438000     231.5872   -3987.2556    -3590.323   -3987.2556            0    2548.8168    17.500784    20.613612    21.350916    7702.4364    2108.1019    2533.8438    3004.5047   -815.26065   -382.41458    57.769667    -3304.009 
 5439000    215.88889   -4012.2815   -3642.2553   -4012.2815            0     3649.348    17.479507     20.58855    21.324958    7674.3768     4860.482    3292.8935    2794.6685   -199.79261   -585.00269   -162.93734   -3233.8097 
 5440000    239.47122   -3996.1113   -3585.6658   -3996.1113            0    1112.7103    17.572459    20.698036    21.438359    7797.4609    655.00455     1930.565    752.56136    -943.9638    25.729199   -26.070436   -3459.1307 
 5441000    228.21423   -3992.1803    -3601.029   -3992.1803            0    2512.5566    17.475377    20.583686     21.31992     7668.939    2787.6693    2167.0858    2582.9148    -554.8591   -514.78375    532.29647   -3320.0156 
 5442000    229.86058     -3979.73   -3585.7568     -3979.73            0    3684.2188    17.487456    20.597914    21.334656    7684.8521    4118.8192    3511.0119    3422.8253   -600.21717   -293.21117    1171.1075   -3172.8455 
 5443000    222.46059   -3990.1324   -3608.8425   -3990.1324            0    2432.3342    17.590818     20.71966    21.460757    7821.9263    1774.4771    1853.2473    3669.2782   -155.90123    184.12494   -866.56704   -3331.3746 
 5444000    238.19564   -4004.4402    -3596.181   -4004.4402            0    3152.5944    17.567281    20.691937    21.432042    7790.5701    3758.2704    2650.5257     3048.987   -306.10296   -1289.0452   -147.80866   -3237.9912 
 5445000    229.34402   -3991.3398    -3598.252   -3991.3398            0    3418.3098    17.562766    20.686618    21.426533    7784.5641    1814.4347    4404.2723    4036.2225   -235.24109    -238.5738    136.80717   -3210.1716 
 5446000     236.4375   -4011.1656   -3605.9198   -4011.1656            0    2383.3641    17.555878    20.678505     21.41813    7775.4091    1868.3986    1777.6036    3504.0901    3146.5841    744.58287   -564.79491   -3335.6549 
 5447000    224.28157   -3990.1279    -3605.717   -3990.1279            0    1433.7457    17.582847    20.710271    21.451033    7811.2978    222.79134    2682.4578    1395.9879    123.97093     117.6269   -767.05791    -3442.385 
 5448000    224.07037   -3983.8869    -3599.838   -3983.8869            0    3599.0923    17.510651    20.625234    21.362954     7715.472    3360.6231    4443.5204    2993.1335    -694.3734    379.72438   -1538.2804     -3194.86 
 5449000    237.23337    -3994.821   -3588.2111    -3994.821            0    3311.1973    17.500666    20.613473    21.350772    7702.2801    3283.0861    3625.8193    3024.6865   -356.45749    363.92432   -575.22249   -3216.2648 
 5450000     228.9843   -4004.4485   -3611.9773   -4004.4485            0    3446.7162    17.505081    20.618673    21.356158    7708.1109    3036.4723    4397.9416    2905.7346   -360.29901    -1811.784   -89.017087    -3224.515 
 5451000     222.8677   -3981.1743   -3599.1867   -3981.1743            0    2510.3672    17.588818    20.717304    21.458316    7819.2577     1395.612    2749.2622    3386.2274   -96.683425    195.64511    932.77557   -3312.9148 
 5452000     224.4224   -3968.7498   -3584.0975   -3968.7498            0    989.25066     17.56696    20.691559     21.43165    7790.1433     1370.302    987.83847    609.61146   -381.75092   -71.101731     260.1109   -3471.7075 
 5453000    236.04916   -4011.0412    -3606.461   -4011.0412            0    4304.3507    17.363157    20.451506    21.183011    7522.1447    4789.6203    4765.4915    3357.9403    108.33127   -462.59682    428.35111   -3134.2618 
 5454000    225.67579   -4017.6558   -3630.8553   -4017.6558            0    2481.4833    17.486539    20.596833    21.333536    7683.6426    2259.7951    2312.3784    2872.2766    32.008509    430.40116   -429.44989   -3352.7851 
 5455000    218.93327   -4009.5938   -3634.3496   -4009.5938            0    2345.9219    17.536891    20.656141    21.394966    7750.2086    1898.5851     3068.452    2070.7286      679.406    127.91757    1729.4492   -3369.1928 
 5456000    217.67781   -4000.5276   -3627.4353   -4000.5276            0     2296.633     17.39931    20.494089    21.227117    7569.2292     1779.696    1911.8944    3198.3084   -38.334614     1308.609    480.34743   -3373.9113 
 5457000    228.61301   -4009.3095   -3617.4746   -4009.3095            0    852.85636      17.4628    20.568872    21.304576    7652.3929    925.38988    448.83621     1184.343   -522.19245    873.86239    679.39209   -3522.2939 
 5458000    229.41535   -3980.6562   -3587.4462   -3980.6562            0    3167.4733    17.432786     20.53352    21.267959    7613.0031    3940.7171    1988.8635    3572.8394   -18.524517   -89.178134    285.37155   -3235.7685 
 5459000    221.44765   -3990.6961   -3611.1424   -3990.6961            0     1488.322    17.466743    20.573516    21.309385    7657.5766     910.2082    2246.3392    1308.4187    539.51602   -124.40314    339.92335   -3444.9297 
 5460000    240.86398   -3982.7038   -3569.8711   -3982.7038            0    3222.9939    17.466991    20.573809    21.309689     7657.904     2838.293    2390.3361    4440.3527   -569.68451    157.01323    153.34182   -3209.9186 
 5461000    231.01114   -3996.5819   -3600.6367   -3996.5819            0     1588.748     17.45284    20.557141    21.292425    7639.3067    2284.4839    519.83294    1961.9272    318.72817   -1742.8721      1054.92   -3423.6319 
 5462000     220.7616   -3959.7495   -3581.3717   -3959.7495            0    2138.0126    17.518906    20.634957    21.373024    7726.3884      2041.34    2203.5026    2169.1952    281.18335    1756.4621    482.62962   -3340.4573 
 5463000     241.2725   -3992.2163   -3578.6835   -3992.2163            0    3844.0221    17.489985    20.600892    21.337741     7688.186    2653.4359     4259.645    4618.9853   -1373.4956    406.08003    221.47455   -3147.6752 
 5464000     228.1151   -3997.0064   -3606.0249   -3997.0064            0    1724.4917    17.564004    20.688077    21.428044    7786.2112     294.6195    2224.4844    2654.3711   -678.71694    641.10153     561.4535   -3410.2021 
 5465000    212.07304   -4014.1164   -3650.6304   -4014.1164            0     4330.706    17.466909    20.573711    21.309588    7657.7948    4397.2879    5025.2873    3569.5428   -1049.9001   -732.21063    800.19736   -3166.9725 
 5466000    223.33262   -3996.2631   -3613.4786   -3996.2631            0    1750.5916    17.600907    20.731544    21.473066    7835.3922    2107.8673    945.02971    2198.8779   -376.51663    516.40912    500.86344   -3413.4365 
 5467000    224.72306   -4001.7068   -3616.5391   -4001.7068            0    1471.7906    17.526589    20.644007    21.382398    7736.5587    117.96019    1037.9638    3259.4478   -155.42111   -1055.4042    1132.1132   -3450.4773 
 5468000    221.54871   -3968.0966   -3588.3697   -3968.0966            0    3490.3925    17.494895    20.606675    21.343731     7694.663    3159.0193    5034.2334    2277.9247   -681.24868    125.80236    286.03053   -3196.6821 
 5469000    228.29108   -3983.5931     -3592.31   -3983.5931            0    3498.6805    17.544557    20.665171    21.404318    7760.3767    3098.2646    4083.0947    3314.6823   -1003.8745    529.98882    362.47869   -3196.3394 
 5470000    222.45101   -4018.6188   -3637.3454   -4018.6188            0    4073.3872    17.530707    20.648857    21.387422    7742.0129    4811.9664    3968.5884    3439.6067   -766.52094   -1164.1544    706.72658    -3177.422 
 5471000    228.51072   -3995.7069   -3604.0473   -3995.7069            0    2910.2304    17.595794    20.725521    21.466827    7828.5652     3417.617    2625.7994    2687.2748   -867.17746   -645.90528    750.07846   -3271.7817 
 5472000    228.16064   -4013.6157   -3622.5562   -4013.6157            0    1958.9469    17.595173    20.724789     21.46607    7827.7366    2700.8855    3102.6618     73.29345   -631.72557   -87.953116    51.706994   -3398.9237 
 5473000    217.77911   -3997.7554   -3624.4894   -3997.7554            0     3580.665    17.565458     20.68979    21.429818    7788.1454    2359.2517    4797.3908    3585.3524    134.28848   -937.54729   -339.53059   -3217.7899 
 5474000    234.36274   -4022.1547   -3620.4649   -4022.1547            0    2164.4494    17.603141    20.734175    21.475791    7838.3762    1366.7255    4220.0114    906.61133    1454.4671   -463.86484   -287.67507   -3373.0366 
 5475000    225.36878   -4019.6929   -3633.4185   -4019.6929            0    3616.8141    17.532866      20.6514    21.390055    7744.8731    2451.2615    5448.5629    2950.6178    853.48727    91.603745   -172.82886   -3224.8956 
 5476000     229.6466    -4016.018   -3622.4116    -4016.018            0    1862.7963    17.659587    20.800661    21.544655    7914.0213    465.17146    931.62255    4191.5949    696.49291   -1321.7436    396.96371   -3407.4116 
 5477000    246.01193   -3977.6186   -3555.9626   -3977.6186            0     3019.932    17.553651    20.675882    21.415413    7772.4508    2619.7531    4373.1367    2066.9061    846.08737   -192.58245   -400.58223   -3213.6436 
 5478000    223.39691    -3960.491   -3577.5964    -3960.491            0    3320.0548     17.59157    20.720546    21.461674    7822.9291    4628.4647    3621.1801    1710.5196   -871.60728   -31.728109    1256.9575   -3198.8133 
 5479000    227.13494   -3982.3108   -3593.0093   -3982.3108            0    3688.1426    17.552582    20.674624     21.41411    7771.0311    4375.0238     4698.584    1990.8201    621.50387   -946.12966   -117.32431   -3175.0228 
 5480000    241.79267   -3986.4253   -3572.0009   -3986.4253            0    2989.6428    17.486847    20.597196    21.333913    7684.0494    2996.3187    4036.8688     1935.741    145.24378    978.03501    1934.9857   -3236.9697 
 5481000    234.42594   -4003.0724   -3601.2743   -4003.0724            0    1646.7459    17.556311    20.679015    21.418658    7775.9845    1237.8565    1480.8377    2221.5435    1422.7752   -373.19117   -496.36862   -3414.5255 
 5482000    229.54661   -3997.7296   -3604.2946   -3997.7296            0    4338.1464    17.469943    20.577285     21.31329    7661.7865    4786.2219    6358.7484     1869.469   -528.76366    100.30287    389.89322   -3119.5531 
 5483000    226.02987   -4014.0522   -3626.6447   -4014.0522            0    3503.1369    17.525203    20.642375    21.380707    7734.7235    3191.8815    4456.1531    2861.3763    1183.0339    -23.87651   -256.45266   -3231.4803 
 5484000    228.32559   -3974.7975   -3583.4553   -3974.7975            0    3158.7515    17.494195    20.605851    21.342877    7693.7396    2993.6843    2792.5726    3689.9976    318.08818    578.46207   -287.92777   -3229.0266 
 5485000    221.02374   -4009.7814   -3630.9543   -4009.7814            0    1583.9772    17.550654    20.672352    21.411757    7768.4704    2812.1984    1034.8743    904.85883    349.58388    160.42814    709.77591   -3451.4973 
 5486000     221.2572   -3976.7146   -3597.4874   -3976.7146            0     2044.284    17.527675    20.645286    21.383723    7737.9968    1475.9084    3542.2177    1114.7259   -1038.1537    570.06616    156.84731   -3366.7884 
 5487000    229.98362   -3996.6128   -3602.4287   -3996.6128            0    2241.4419    17.583479    20.711015    21.451803    7812.1394    1732.9946    2240.5203    2750.8107    47.729443   -958.91436   -831.56736   -3347.0567 
 5488000    233.14967   -3981.6696   -3582.0591   -3981.6696            0    2348.0586    17.567011    20.691619    21.431712    7790.2107    3075.7068    1333.3772    2635.0919    916.09803   -153.86368    118.01829   -3315.2909 
 5489000    229.94063   -3998.2586   -3604.1482   -3998.2586            0    4491.8051    17.474944    20.583176    21.319391    7668.3681     5801.879    5210.8785    2462.6578   -792.56215     1741.701    894.86715   -3101.8059 
 5490000    219.41599   -3981.4702   -3605.3987   -3981.4702            0    2661.1566    17.558105    20.681129    21.420847    7778.3689    3753.6415    2451.0281    1778.8003   -1027.5464    298.83367    322.76142   -3303.5183 
 5491000    217.31345   -4003.0262   -3630.5584   -4003.0262            0    2897.7888    17.500785    20.613613    21.350916    7702.4369    2384.1149    3688.2134    2621.0381    608.23283    -982.8992    545.98722   -3305.0436 
 5492000    229.00488   -3993.4015   -3600.8949   -3993.4015            0    1962.5281     17.60861    20.740617    21.482464    7845.6845    1272.6991    2024.7795    2590.1057    -448.7643    837.72753    762.50177     -3376.34 
 5493000    249.61018   -4016.0546   -3588.2313   -4016.0546            0     1454.497     17.58395     20.71157    21.452378    7812.7673    506.85016    1435.0151    2421.6257    434.50822   -55.177935    573.05311   -3422.5042 
 5494000    220.70878   -3977.8606   -3599.5733   -3977.8606            0    2872.7589    17.523801    20.640723    21.378997    7732.8674    4503.6239    1848.6374    2266.0155    1516.2311    2326.0389    1405.8846   -3275.5952 
 5495000    239.72941   -3995.9105   -3585.0225   -3995.9105            0    2894.1843     17.55862    20.681735    21.421475    7779.0531    3111.1786    2353.0757    3218.2985    409.84303    242.50932   -935.85739   -3256.6787 
 5496000    225.20057   -4001.1916   -3615.2055   -4001.1916            0    2375.9582    17.564204    20.688312    21.428288    7786.4769    4333.5856    1784.9394    1009.3495     630.5753    1412.5409    174.52754    -3345.397 
 5497000    219.73873   -3997.9088   -3621.2842   -3997.9088            0    3424.9136    17.531015     20.64922    21.387798    7742.4211    3499.3454     2528.252    4247.1434   -368.58441   -748.02947    1461.8924   -3234.5591 
 5498000    233.78814   -3975.7319    -3575.027   -3975.7319            0    1893.2589    17.583134    20.710609    21.451382    7811.6797    851.84092    1622.4593    3205.4766    684.75333   -1417.4897    472.76396   -3359.3369 
 5499000    225.13705   -4013.9681   -3628.0908   -4013.9681            0    5011.3746    17.459437    20.564911    21.300472    7647.9722    6517.3267    3423.5033     5093.294    737.54964   -434.68063   -204.46789    -3069.133 
 5500000    228.51828   -3953.8325     -3562.16   -3953.8325            0    4054.3651    17.466822    20.573609    21.309482    7657.6809    4109.7836     2555.328    5497.9837   -765.08487    98.131939    428.42796   -3109.3709 
Loop time of 500.108 on 64 procs for 250000 steps with 864 atoms

Performance: 86.381 ns/day, 0.278 hours/ns, 499.892 timesteps/s
99.0% CPU use with 64 MPI tasks x 1 OpenMP threads

MPI task timing breakdown:
Section |  min time  |  avg time  |  max time  |%varavg| %total
---------------------------------------------------------------
Pair    | 19.406     | 24.939     | 29.363     |  49.4 |  4.99
Bond    | 0.27652    | 0.28889    | 0.29946    |   0.9 |  0.06
Kspace  | 230.22     | 240.67     | 252.29     |  33.5 | 48.12
Neigh   | 3.8055     | 4.5302     | 5.2718     |  18.1 |  0.91
Comm    | 96.182     | 107.22     | 117.52     |  47.2 | 21.44
Output  | 1.8116     | 1.8159     | 1.842      |   0.5 |  0.36
Modify  | 109.44     | 112.41     | 116.29     |  12.6 | 22.48
Other   |            | 8.238      |            |       |  1.65

Nlocal:        13.5000 ave          19 max          10 min
Histogram: 5 4 15 8 10 13 4 4 0 1
Nghost:        2095.78 ave        2150 max        2047 min
Histogram: 2 7 8 7 11 9 11 5 2 2
Neighs:        4031.48 ave        6548 max        2820 min
Histogram: 6 16 10 10 10 6 3 2 0 1

Total # of neighbors = 258015
Ave neighs/atom = 298.62847
Ave special neighs/atom = 2.0000000
Neighbor list builds = 9849
Dangerous builds = 0

unfix		3
unfix		2
unfix		1

write_data	data.final.${pid}
write_data	data.final.0
System init for write_data ...
PPPM initialization ...
  extracting TIP4P info from pair style
  using 12-bit tables for long-range coulomb (../kspace.cpp:340)
  G vector (1/distance) = 0.37346848
  grid = 24 24 25
  stencil order = 5
  estimated absolute RMS force accuracy = 0.0031609897
  estimated relative force accuracy = 9.5192265e-06
  using double precision FFTW3
  3d grid and FFT values/proc = 2730 288
Last active /omp style is kspace_style pppm/tip4p/omp
WARNING: Not all mixed pair coeffs generated from mixing. Use write_data with 'pair ij' option to store all pair coeffs. (../write_data.cpp:312)

write_restart   restart.lmp.${pid}
write_restart   restart.lmp.0
System init for write_restart ...
PPPM initialization ...
  extracting TIP4P info from pair style
  using 12-bit tables for long-range coulomb (../kspace.cpp:340)
  G vector (1/distance) = 0.37346848
  grid = 24 24 25
  stencil order = 5
  estimated absolute RMS force accuracy = 0.0031609897
  estimated relative force accuracy = 9.5192265e-06
  using double precision FFTW3
  3d grid and FFT values/proc = 2730 288
Last active /omp style is kspace_style pppm/tip4p/omp
Total wall time: 0:08:24
