LAMMPS (30 Jul 2021)
  using 1 OpenMP thread(s) per MPI task
package omp 0
using multi-threaded neighbor list subroutines
echo both

include		in.partitions
variable        pid world 0
include		in.temp
variable        temperature equal 245.86
variable	tempDamp equal 100.0
include		in.pressure
variable        pressure equal 3375.0
variable        pressureDamp equal 1000.0 # This is 1 ps
include		in.seed
variable        seed world 745823

units		real
atom_style	full
read_restart	restart.lmp.${pid}
read_restart	restart.lmp.0
Reading restart file ...
  restart file = 30 Jul 2021, LAMMPS = 30 Jul 2021
  restoring atom style full from restart
  orthogonal box = (0.36049043 1.5161414 0.43979748) to (17.847082 22.113036 21.773398)
  4 by 4 by 4 MPI processor grid
  restoring pair style lj/cut/tip4p/long/omp from restart
  restoring bond style harmonic/omp from restart
  restoring angle style harmonic/omp from restart
  864 atoms
  576 bonds
  288 angles
Finding 1-2 1-3 1-4 neighbors ...
  special bond factors lj:    0        0        0       
  special bond factors coul:  0        0        0       
     2 = max # of 1-2 neighbors
     1 = max # of 1-3 neighbors
     1 = max # of 1-4 neighbors
     2 = max # of special neighbors
  special bonds CPU = 0.011 seconds
  read_restart CPU = 0.081 seconds
include 	in.setup
variable	out_freq equal 1000
variable	out_freq2 equal 10000
variable	out_freq3 equal 1000

timestep	2.0

neigh_modify    delay 7 every 1

include		in.tip4p
# This is TIP4P/Ice

# create groups ###
group ox type 2
288 atoms in group ox
group hy type 1
576 atoms in group hy

# set charges - beside manually ###
set group ox charge -1.1794
Setting atom values ...
  288 settings made for charge
set group hy charge 0.5897
Setting atom values ...
  576 settings made for charge

# ### TIP3P Potential Parameters ###
pair_style lj/cut/tip4p/long/omp 2 1 1 1 0.1577 8.5
pair_coeff 1 1*2 0.000 0.000
pair_coeff 2 2 0.21084 3.1668
bond_style  harmonic
bond_coeff  1 450 0.9572
angle_style harmonic
angle_coeff 1 55 104.52
kspace_style pppm/tip4p/omp 1.0e-5
pair_modify tail yes

thermo          ${out_freq}
thermo          1000
thermo_style    custom step temp pe etotal epair emol press lx ly lz vol pxx pyy pzz pxy pxz pyz enthalpy

restart 	${out_freq3} restart.lmp.${pid} restart2.lmp.${pid}
restart 	1000 restart.lmp.${pid} restart2.lmp.${pid}
restart 	1000 restart.lmp.0 restart2.lmp.${pid}
restart 	1000 restart.lmp.0 restart2.lmp.0


include         in.dump
dump            myDump all atom ${out_freq2} dump.water.${pid}
dump            myDump all atom 10000 dump.water.${pid}
dump            myDump all atom 10000 dump.water.0
dump            myDump2 all dcd ${out_freq2} dump.dcd
dump            myDump2 all dcd 10000 dump.dcd
dump_modify     myDump append yes
dump_modify     myDump2 append yes


variable natoms 	equal  "count(all)"                        # NUMBER ATOMS
variable H      	equal  "enthalpy/v_natoms"                 # ENTHALPY-per-atom
variable Vol      	equal  "vol/v_natoms"                 # volume-per-atom
fix AVG all 		ave/time ${out_freq} 1 ${out_freq} v_Vol v_H file vol_enthalpy.dat
fix AVG all 		ave/time 1000 1 ${out_freq} v_Vol v_H file vol_enthalpy.dat
fix AVG all 		ave/time 1000 1 1000 v_Vol v_H file vol_enthalpy.dat


timer           timeout 23:50:00 every 1000
New timer settings: style=normal  mode=nosync  timeout=23:50:00

fix 		1 all shake 1e-6 200 0 b 1 a 1
       0 = # of size 2 clusters
       0 = # of size 3 clusters
       0 = # of size 4 clusters
     288 = # of frozen angles
  find clusters CPU = 0.001 seconds
fix             2 all nph iso ${pressure} ${pressure} ${pressureDamp}
fix             2 all nph iso 3375 ${pressure} ${pressureDamp}
fix             2 all nph iso 3375 3375 ${pressureDamp}
fix             2 all nph iso 3375 3375 1000
fix             3 all temp/csvr ${temperature} ${temperature} ${tempDamp} ${seed}
fix             3 all temp/csvr 245.86 ${temperature} ${tempDamp} ${seed}
fix             3 all temp/csvr 245.86 245.86 ${tempDamp} ${seed}
fix             3 all temp/csvr 245.86 245.86 100 ${seed}
fix             3 all temp/csvr 245.86 245.86 100 745823

run             250000
PPPM initialization ...
  extracting TIP4P info from pair style
  using 12-bit tables for long-range coulomb (../kspace.cpp:340)
  G vector (1/distance) = 0.37337503
  grid = 24 24 25
  stencil order = 5
  estimated absolute RMS force accuracy = 0.0031716427
  estimated relative force accuracy = 9.5513077e-06
  using double precision FFTW3
  3d grid and FFT values/proc = 2730 288
Last active /omp style is kspace_style pppm/tip4p/omp
Neighbor list info ...
  update every 1 steps, delay 7 steps, check yes
  max neighbors/atom: 2000, page size: 100000
  master list distance cutoff = 10.8154
  ghost atom cutoff = 10.8154
  binsize = 5.4077, bins = 4 4 4
  1 neighbor lists, perpetual/occasional/extra = 1 0 0
  (1) pair lj/cut/tip4p/long/omp, perpetual
      attributes: half, newton on, omp
      pair build: half/bin/newton/omp
      stencil: half/bin/3d
      bin: standard
Per MPI rank memory allocation (min/avg/max) = 9.236 | 9.241 | 9.248 Mbytes
Step Temp PotEng TotEng E_pair E_mol Press Lx Ly Lz Volume Pxx Pyy Pzz Pxy Pxz Pyz Enthalpy 
 9750000    245.29773   -3905.0346   -3484.6026   -3905.0346            0    2542.8726    17.486592    20.596895    21.333601    7683.7121    2607.1836     2759.667    2261.7673   -165.34044   -42.618856     81.28949   -3199.6507 
 9751000    248.79017   -3943.8667   -3517.4488   -3943.8667            0    2622.8943    17.532857     20.65139    21.390044    7744.8615    2473.7003    1169.0288    4225.9538    1231.4983   -370.11542   -323.53232   -3221.1907 
 9752000    242.21738   -3936.3424     -3521.19   -3936.3424            0    1932.2274     17.53081    20.648979    21.387548    7742.1496    515.45703    3101.5962    2179.6288   -531.62792   -271.27348    1073.8528   -3303.0197 
 9753000    249.93835   -3965.2086   -3536.8229   -3965.2086            0    3595.9058    17.528539    20.646304    21.384777    7739.1411    3932.6391    2833.2619    4021.8162    1074.2659   -810.99365    1392.5424   -3130.9622 
 9754000    230.51383   -3965.5989   -3570.5061   -3965.5989            0    3666.7447    17.459463    20.564941    21.300504    7648.0057    2364.9295    4626.8299    4008.4748    473.32997   -840.02992    1443.0216   -3161.5236 
 9755000    240.87925   -3931.9043   -3519.0455   -3931.9043            0    3515.6533    17.518354    20.634306     21.37235    7725.6575     3919.634    3605.3449    3021.9809   -197.27735    485.89561    1315.9275   -3122.9341 
 9756000    245.44072   -3950.3941   -3529.7171   -3950.3941            0    3738.6839    17.538768    20.658352    21.397256    7752.6978    4048.4826    3002.8448    4164.7245    1453.0145     1544.129    752.91251   -3107.0023 
 9757000    247.51446    -3954.959   -3530.7277    -3954.959            0    3096.2845     17.52606    20.643383    21.381752    7735.8573    3315.2356    1999.0175    3974.6003   -778.38427    625.36139     1329.338   -3181.4063 
 9758000    244.82982   -3918.0269    -3498.397   -3918.0269            0    4907.1753    17.469046    20.576228    21.312195     7660.606    5184.3212    5375.0858    4162.1188    557.60585    1046.0897   -156.01088   -2950.1572 
 9759000    261.55247   -3944.5905   -3496.2985   -3944.5905            0    3451.5208     17.51901    20.635079    21.373151    7726.5256    3227.5091    3305.1548    3821.8985    760.26562    344.21583     358.0887   -3107.3693 
 9760000    248.68787   -3922.7831   -3496.5406   -3922.7831            0    2553.7277    17.534071    20.652819    21.391526    7746.4703    913.70865    3662.0326    3085.4417   -135.51407    298.32648    121.64322   -3208.0349 
 9761000     248.0009   -3937.4382   -3512.3732   -3937.4382            0    2726.6622    17.434013    20.534965    21.269455    7614.6106    1645.0886    3499.5503    3035.3476    892.53047    821.40128   -1355.6344   -3209.5738 
 9762000    246.64817   -3872.1888   -3449.4423   -3872.1888            0    2721.5885     17.41665    20.514513    21.248272    7591.8816    2153.6718    2065.5827     3945.511   -307.65433   -2383.4722    521.97959   -3148.1085 
 9763000    253.37129   -3895.1208   -3460.8511   -3895.1208            0    2764.1168    17.454466    20.559055    21.294408    7641.4413    2298.7225    2791.2434    3202.3846    353.88326   -195.21105   -271.48601   -3152.8108 
 9764000    240.73171   -3905.6557   -3493.0498   -3905.6557            0    3474.9262    17.433357    20.534192    21.268655    7613.7506    5230.7246    2554.0104    2640.0434    1663.7098   -2523.2844    407.03914   -3107.1984 
 9765000    246.13093   -3920.1434   -3498.2834   -3920.1434            0    4263.3419    17.461818    20.567715    21.303377    7651.1018    5103.1638    2638.4208    5048.4411    389.61548     148.3815   -1604.7225   -3022.5649 
 9766000    244.49117    -3902.563   -3483.5136    -3902.563            0    2239.2893    17.404901    20.500675    21.233939    7576.5288    1019.0633     3000.819    2697.9856    255.35666    931.93623   -607.36517   -3236.0813 
 9767000    245.13052   -3931.4624   -3511.3171   -3931.4624            0    4312.2369    17.372272    20.462241    21.194131    7533.9965     4061.118    5062.5694    3813.0232    825.40479    543.40339     539.3956   -3037.5074 
 9768000    236.79172   -3937.1628   -3531.3099   -3937.1628            0    4352.7854     17.41582    20.513536     21.24726     7590.797    4625.6995    2492.5936    5940.0632    1034.0198   -383.51503    24.252449   -3049.4392 
 9769000    253.59974   -3934.2303    -3499.569   -3934.2303            0    3559.0949    17.423471    20.522547    21.256593     7600.805    3594.2131    1980.1113    5102.9602    38.246571    63.764649   -171.98396   -3105.0435 
 9770000     242.5917   -3924.2067   -3508.4128   -3924.2067            0    2506.9139    17.561746    20.685417    21.425289     7783.208    2258.7926    1618.2553    3643.6939   -377.13231   -848.34103    501.21697   -3223.8528 
 9771000    254.02439   -3917.1809   -3481.7918   -3917.1809            0    2581.1777    17.522372    20.639039    21.377253    7730.9749     2119.297    1804.8551    3819.3811     1073.205   -33.521621    799.51523   -3190.7683 
 9772000    257.41471   -3915.0642   -3473.8642   -3915.0642            0    2713.7807    17.540666    20.660588    21.399572    7755.2153    3833.5237     966.9491    3340.8695    426.62228   -1272.8245    1219.3955   -3166.9306 
 9773000    232.90315   -3911.6083   -3512.4203   -3911.6083            0     5876.437    17.426079     20.52562    21.259776    7604.2198    5424.0403    4735.2962    7469.9743   -367.17698   -779.98823   -1386.5065   -2860.7249 
 9774000    259.80147   -3882.8179   -3437.5271   -3882.8179            0    2583.6914    17.519773    20.635979    21.374082    7727.5357    2341.9932    1565.3969    3843.6842   -1116.5091    1058.3441   -825.47504   -3146.3498 
 9775000    240.05017   -3880.4667   -3469.0289   -3880.4667            0    3068.2477    17.479764    20.588853    21.325271    7674.7157    4769.4995    1521.8994    2913.3443   -857.87728    156.70395   -150.09519   -3125.6065 
 9776000    263.86955   -3900.9658   -3448.7024   -3900.9658            0    2616.2698    17.509551    20.623938    21.361611    7714.0173    2252.0489    3368.4756    2228.2849    1046.1794    -632.2049    924.79733   -3154.3693 
 9777000    253.62358   -3901.5306   -3466.8285   -3901.5306            0    3439.7346    17.473899    20.581945    21.318116    7666.9932    3618.6071    3830.5125    2870.0842   -403.17905    1048.5998    454.74901   -3082.2138 
 9778000    244.37975   -3938.6129   -3519.7544   -3938.6129            0    2832.1427    17.503967    20.617362    21.354799    7706.6402    3889.6216    2045.2602    2561.5463    503.13936      230.584   -1486.1714   -3201.4401 
 9779000    244.50665   -3951.5754   -3532.4994   -3951.5754            0    3915.5732    17.458086    20.563319    21.298824    7646.1962    2245.6035    5788.9003    3712.2157   -1649.2718    983.67067    1142.6666   -3095.8663 
 9780000    248.03384   -3888.5974   -3463.4759   -3888.5974            0    3424.0384    17.606208    20.737787    21.479532    7842.4734    2768.7998    5671.5411    1831.7744   -1121.2391   -164.62768    573.85952   -3071.8534 
 9781000     242.5167   -3877.0467   -3461.3814   -3877.0467            0    4464.8014    17.445093    20.548015    21.282973    7629.1379    4032.9941    5409.0095    3952.4006    1249.6648   -1010.8701   -459.17667   -2964.6135 
 9782000    239.16718   -3917.4231   -3507.4987   -3917.4231            0    3469.0769    17.428765    20.528783    21.263052    7607.7355    2626.6782    5035.2823    2745.2703    773.87404    429.87913     676.1435   -3122.6011 
 9783000    256.47815   -3943.8614   -3504.2666   -3943.8614            0    4808.6144    17.404033    20.499652    21.232879    7575.3947    5344.7875    3988.4822    5092.5734    1325.2862    781.26167    471.19019    -2973.014 
 9784000    241.77935   -3971.9097   -3557.5082   -3971.9097            0    3322.0304     17.44242    20.544867    21.279712    7625.6319    3773.1158    3421.4906    2771.4847   -847.61687    872.94292    1207.8121   -3188.0585 
 9785000     243.4203   -3981.1521    -3563.938   -3981.1521            0    2055.1445    17.529447    20.647374    21.385885     7740.344    603.34317    1417.2164    4144.8739   -242.79302    316.71516    898.97319   -3331.9431 
 9786000    239.38103   -3945.8728   -3535.5819   -3945.8728            0    5342.9387    17.371187    20.460963    21.192807     7532.585    6061.2106     5220.764    4746.8416   -240.74608    436.12033   -936.93492   -2948.6332 
 9787000    245.88007   -3944.1914   -3522.7613   -3944.1914            0    3403.2664    17.440726    20.542872    21.277646    7623.4105    3037.1407    4071.3669    3101.2917   -973.23307    -411.0638   -1408.6809   -3144.3874 
 9788000    253.19389    -3954.696   -3520.7304    -3954.696            0    2681.0302    17.485316    20.595393    21.332045    7682.0313    4402.7138    2519.8069      1120.57    270.26154   -790.01066    52.787534   -3220.3623 
 9789000    241.45687   -3931.0676   -3517.2188   -3931.0676            0     3630.188    17.411543    20.508497    21.242041    7585.2052    2760.3437    4106.2461    4023.9743    226.06663   -8.9128467    -55.45128   -3115.6385 
 9790000    240.02099   -3924.1517   -3512.7639   -3924.1517            0    5680.8075    17.340059    20.424299    21.154831     7492.164    6001.7797    5627.5492    5413.0935   -1242.3076    6.7289629    462.40976   -2892.0475 
 9791000    233.98068   -3904.6605   -3503.6257   -3904.6605            0    4198.5849    17.352892    20.439414    21.170487    7508.8109    4268.9775    3535.9132     4790.864   -805.84967    1576.1846    212.92101   -3043.8458 
 9792000    254.43163   -3957.3477   -3521.2606   -3957.3477            0    2260.4867    17.416771    20.514656     21.24842    7592.0407    3514.3516    2086.3802    1180.7282    860.48393    141.98718   -1130.7015   -3270.9747 
 9793000    251.28869    -3926.547   -3495.8468    -3926.547            0    1228.2625    17.526785    20.644238    21.382637     7736.818    2906.0191    707.97633    70.792131   -272.98413   -1893.9564    982.52046   -3357.2575 
 9794000     256.5923   -3947.4375   -3507.6471   -3947.4375            0    2971.1215    17.449288    20.552956     21.28809    7634.6425    2494.6941    4037.2613    2381.4089    706.60717    197.01886    927.62869   -3176.8323 
 9795000    231.76039   -3956.3384    -3559.109   -3956.3384            0    3610.6748    17.422091    20.520923    21.254911    7599.0003    4635.0148    963.51978    5233.4899   -833.10706    761.01396   -44.881989   -3158.9609 
 9796000     255.0431   -3925.6371    -3488.502   -3925.6371            0    4370.5719    17.423394    20.522456      21.2565    7600.7043    5998.7714     3625.211    3487.7333    204.71878    275.53048    1389.5545   -3004.0308 
 9797000    241.42535   -3909.7691   -3495.9743   -3909.7691            0    3230.9958    17.440265    20.542328    21.277082    7622.8049    3426.7237    3422.6146    2843.6491    949.25011    832.46579    964.68092   -3136.7819 
 9798000    240.41554   -3905.3623   -3493.2983   -3905.3623            0    4976.9167    17.540665    20.660587    21.399571    7755.2136    4999.8905    5492.3729    4438.4867   -109.74289    -934.8884    1036.7242   -2930.3999 
 9799000    245.72544   -3911.5171   -3490.3521   -3911.5171            0    4636.4675    17.562889    20.686764    21.426684    7784.7286      6007.47    4418.3532    3483.5794    -712.4756   -1296.9707    716.29676   -2963.9634 
 9800000    237.38581   -3932.4219   -3525.5508   -3932.4219            0    1821.3687    17.677781    20.822091    21.566851    7938.5067    2726.6916    2097.8957    639.51882   -821.99819    250.28499   -437.45197   -3314.6819 
 9801000    244.19978   -3898.6188   -3480.0687   -3898.6188            0    3821.5222    17.544806    20.665464    21.404622    7760.7068    5014.2343    4231.9679    2218.3645    -87.06173   -172.19872   -253.90773   -3047.5414 
 9802000    243.75991   -3927.0517   -3509.2556   -3927.0517            0      4570.04     17.51604    20.631582    21.369528    7722.5975    4643.6288    2991.3282    6075.1631    378.71649    764.08089    153.27743   -2994.5495 
 9803000    242.63451   -3943.9691   -3528.1018   -3943.9691            0    3824.9324    17.469037    20.576219    21.312185    7660.5951    3539.9367    4291.3215    3643.5389     -843.694   -344.55986   -425.70512    -3100.773 
 9804000    248.82135   -3910.2278   -3483.7565   -3910.2278            0    3749.1367    17.481107    20.590435    21.326909    7676.4843    3941.8162    4000.1979    3305.3961   -132.10325   -949.33492    884.14852    -3064.027 
 9805000    248.83795   -3919.1519   -3492.6522   -3919.1519            0    3444.8441    17.474043    20.582115    21.318292    7667.1824    2648.3323    3176.5351     4509.665    667.60973    148.95088    660.81226   -3107.4566 
 9806000    236.88447   -3876.4052   -3470.3933   -3876.4052            0    3321.7262     17.59381    20.723184    21.464407    7825.9176    3598.7653    2888.0284     3478.385   -946.62477    237.69882     557.1611   -3091.2748 
 9807000    257.45971   -3954.7029   -3513.4258   -3954.7029            0    2393.7599    17.515985    20.631517    21.369461    7722.5247    3277.1396    2582.4451    1321.6949    564.23563    1335.6831    361.54518   -3243.8284 
 9808000    240.06122   -3919.8552   -3508.3984   -3919.8552            0    4360.2723    17.443392    20.546012    21.280898    7626.9068    2343.5601    5893.2853    4843.9714    -448.8207    246.60975     1032.754   -3023.4027 
 9809000    252.83223   -3942.0066   -3508.6608   -3942.0066            0    2505.3711    17.500257    20.612991    21.350273    7701.7401    2195.9991    2280.7964     3039.318   -111.42654   -514.22669   -379.04647   -3227.2526 
 9810000    245.54598   -3966.8684    -3546.011   -3966.8684            0    4950.9668     17.43069     20.53105    21.265401     7610.257     2859.772    6222.9062    5770.2221    655.01531   -171.18841    -755.1055   -2996.5141 
 9811000    241.03386   -3904.0929   -3490.9691   -3904.0929            0    3101.3941    17.477479    20.586162    21.322484    7671.7064     1856.296    2853.8224     4594.064    1341.5124    416.64466    -518.5898   -3143.9728 
 9812000    241.14144   -3876.1504   -3462.8423   -3876.1504            0    2566.5544    17.458362    20.563645    21.299161    7646.5598    1498.6377    3813.4297    2387.5959    835.34223   -555.00222   -575.89848   -3176.6272 
 9813000    257.89223   -3898.8018   -3456.7833   -3898.8018            0    3435.4559    17.420151    20.518637    21.252543    7596.4612    4813.0981    3515.7572    1977.5123    1669.1489    1709.2507   -29.510268   -3076.1809 
 9814000     253.5048   -3943.0399   -3508.5413   -3943.0399            0    1762.2084    17.461278    20.567079    21.302719     7650.392    969.63456    3419.0213    897.96939    629.14135   -603.36067    1023.1141   -3311.9263 
 9815000    226.20131   -3917.9181   -3530.2168   -3917.9181            0    5120.1503    17.386854    20.479418    21.211922    7552.9853    5275.5888    6725.0531    3359.8092    1780.6551        912.8    274.05469   -2966.2192 
 9816000    254.57999     -3923.33   -3486.9886     -3923.33            0    1499.2327    17.563521    20.687507    21.427454    7785.5684    1192.4617    3036.8877    268.34877    150.37511    144.89114   -562.27527   -3316.7589 
 9817000    244.83327   -3947.0677   -3527.4319   -3947.0677            0    1473.4164    17.466195    20.572871    21.308717    7656.8567    740.71231    2871.6026    807.93426   -278.76207   -157.67844    1070.3832   -3362.8993 
 9818000    241.29141   -3910.1782   -3496.6129   -3910.1782            0    3634.9429    17.406211    20.502217    21.235536    7578.2388         4119    4499.1567    2286.6721    1092.2485    987.67067   -613.77483    -3094.876 
 9819000    231.92261   -3933.1396   -3535.6322   -3933.1396            0    4621.6919    17.413124     20.51036     21.24397    7587.2721    3264.9154    5839.6968    4760.4634    -1610.066    533.33388    1716.3131   -3024.2301 
 9820000    238.05779   -3927.0309    -3519.008   -3927.0309            0    2454.8891    17.524752    20.641843    21.380157    7734.1261    3016.3754    1754.1005    2594.1915    458.18071    462.84537    927.60463   -3242.1105 
 9821000    247.24553   -3929.7356   -3505.9652   -3929.7356            0     3276.701    17.399032    20.493762    21.226779     7568.867    3735.1289     2477.682    3617.2919   -286.86214   -330.85661   -1122.2787   -3144.2693 
 9822000     246.2607   -3862.8387   -3440.7563   -3862.8387            0    3902.3167    17.435611    20.536846    21.271404    7616.7042    2937.0915    4738.3441    4031.5144    359.11186    1102.7329     865.0944   -3007.2799 
 9823000    234.44768   -3939.7881   -3537.9528   -3939.7881            0    2509.7495    17.416368    20.514181    21.247928     7591.513    2561.2299    2880.4992    2087.5194    1353.2287     235.0071   -882.72384   -3260.0873 
 9824000    248.81985   -3928.8593   -3502.3906   -3928.8593            0    3522.4029    17.400441    20.495421    21.228497    7570.7049    3920.2119    4108.4104    2538.5865    713.45316    385.37515    625.61427   -3113.4787 
 9825000     245.9992   -3929.7834   -3508.1492   -3929.7834            0     4245.393     17.40093    20.495997    21.229094    7571.3438    5619.6354    1584.1946    5532.3488    1269.4461   -18.315145    290.29317   -3039.3717 
 9826000    250.66216   -3928.5399   -3498.9135   -3928.5399            0     2985.514    17.375491    20.466033    21.198058    7538.1853    5561.4363     570.4485    2824.6571    21.894969    33.840508    25.117547    -3170.696 
 9827000    230.91783   -3902.3284   -3506.5432   -3902.3284            0    3372.6362    17.414471    20.511946    21.245614     7589.033    3603.6341    2423.5652    4090.7095     54.25501   -739.02854   -168.46451   -3133.2657 
 9828000     258.8055   -3901.7224   -3458.1387   -3901.7224            0    2175.6657    17.503469    20.616774    21.354191    7705.9817    1728.7997    2322.1436    2476.0538    235.96123    46.637203    117.76211    -3213.629 
 9829000     255.8802   -3917.3902   -3478.8203   -3917.3902            0    3427.5835    17.408897    20.505382    21.238814    7581.7487    3800.5888    4287.6551    2194.5065    207.69267   -967.14135    718.64939   -3099.8255 
 9830000    259.36234   -3904.3351   -3459.7969   -3904.3351            0    2500.5015    17.501245    20.614154    21.351478    7703.0443     3097.629    2897.4185    1506.4572    147.09848    37.260053    564.57586   -3178.8881 
 9831000    242.92602   -3900.3061   -3483.9392   -3900.3061            0    1584.6724    17.526203    20.643552    21.381927     7736.047      485.698    1416.1049    2852.2144   -869.70464   -996.95495    972.08948   -3305.1528 
 9832000    237.17429   -3911.9691   -3505.4605   -3911.9691            0    3758.3295    17.467663    20.574599    21.310508    7658.7869    5303.5762    3600.5044     2370.908    169.43996   -795.18625    223.26694   -3085.6718 
 9833000    229.53377   -3900.5794   -3507.1664   -3900.5794            0    4001.3895    17.543329    20.663724     21.40282    7758.7472    3952.2085    3658.2439    4393.7161    951.31385    611.71814   -1081.8725   -3054.3957 
 9834000    258.72733    -3887.878   -3444.4282    -3887.878            0    5103.5087    17.414203    20.511631    21.245287    7588.6829    6187.3479    4260.0772    4863.1009   -204.56312    122.26099   -519.08807   -2879.6068 
 9835000    251.78114   -3944.4424   -3512.8982   -3944.4424            0    1297.9909    17.570612     20.69586    21.436105    7795.0023    1110.9892    1222.0366    1560.9469   -487.61041     147.0652   -846.52437   -3365.3398 
 9836000    250.80953   -3934.3125   -3504.4335   -3934.3125            0    2651.8133    17.526346    20.643721    21.382101    7736.2366    2516.1271    2244.2684    3195.0444    373.37506    1226.5803    -65.60451   -3205.2425 
 9837000     246.8885   -3960.6981   -3537.5397   -3960.6981            0    1152.4596    17.539802     20.65957    21.398518     7754.069    1786.5742    1386.5586     284.2461   -979.87845    201.00101   -725.14606   -3407.2136 
 9838000    265.37691   -3948.9296   -3494.0826   -3948.9296            0    4970.3823     17.55982    20.683149    21.422939    7780.6481    5708.0461    3607.7998     5595.301    317.64573   -417.95597      18.6319   -2930.0796 
 9839000    225.99399    -3941.741    -3554.395    -3941.741            0    3286.4366    17.490429    20.601415    21.338282    7688.7716     3261.848    4031.8137    2565.6481   -499.34192   -55.616363     188.9355   -3185.8775 
 9840000    251.99047   -3957.0048   -3525.1018   -3957.0048            0     3289.812     17.51277     20.62773    21.365539    7718.2732    2192.6804    4163.9272    3512.8285    315.34814   -1013.2106    452.62564   -3154.7904 
 9841000    234.59864    -3951.548    -3549.454    -3951.548            0    3023.9538    17.585751    20.713692    21.454575    7815.1689    1849.4482    3388.7968    3833.6164    454.04987   -240.84526    805.99438   -3204.7951 
 9842000    257.51422   -3947.4476   -3506.0771   -3947.4476            0    1627.6013    17.677433    20.821681    21.566427    7938.0381    1486.6564    1252.3622    2143.7852    8.1470452   -1526.5332   -1364.4304   -3317.6527 
 9843000    244.61676    -3959.607   -3540.3422    -3959.607            0    3507.0603     17.59863    20.728862    21.470288    7832.3516    3401.6437     2831.713    4287.8242   -877.05921    -846.7332    360.23308   -3139.7419 
 9844000    247.18706   -3956.1522    -3532.482   -3956.1522            0    5721.4891    17.517492    20.633292    21.371299    7724.5178    5151.3153    6901.5284    5111.6236       80.369    518.30682   -570.41912   -2887.9324 
 9845000    244.61415   -3969.7111   -3550.4508   -3969.7111            0    4175.7087    17.602393    20.733294    21.474879    7837.3771    3582.8871    3759.8154    5184.4235    686.27486    643.24531   -916.35712   -3073.1668 
 9846000    260.88634   -3975.8864   -3528.7361   -3975.8864            0    3056.8287    17.668715    20.811413    21.555791    7926.3001    2383.9275    2996.0215     3790.537   -533.65781   -1923.2206    292.45798    -3175.376 
 9847000    251.66381    -3973.367   -3542.0239    -3973.367            0    3341.2211    17.621126    20.755359    21.497733    7862.4261    2614.4195    4342.4909     3066.753    573.44593    234.51063   -1144.2232   -3158.9014 
 9848000    247.36995   -3980.9493   -3556.9657   -3980.9493            0    2093.4411    17.513226    20.628267    21.366095    7718.8756    3070.5848    2292.2058    917.53279   -850.25704    1745.3256    1652.2365    -3321.303 
 9849000     250.4625   -3974.0839   -3544.7998   -3974.0839            0    2492.6223    17.538213    20.657699    21.396579     7751.962    1135.0737    3928.2484    2414.5447   -100.26544    936.73452   -1095.5844   -3262.9978 
 9850000    243.22421   -3967.6773   -3550.7993   -3967.6773            0    2510.6985    17.529784     20.64777    21.386296      7740.79    1801.0806    2198.3901    3532.6247   -488.81116     979.7058   -1232.6538   -3267.3628 
 9851000    240.78889    -3973.743    -3561.039    -3973.743            0    2480.5434    17.476978    20.585571    21.321872    7671.0461    1952.3205    2092.5066     3396.803   -944.33282    1145.6538    381.86463   -3283.5299 
 9852000    265.62272    -3963.393   -3508.1247    -3963.393            0    2158.9266    17.536675    20.655887    21.394702    7749.9221    3316.0114    553.86898    2606.8993   -244.84182    413.43078   -356.09236   -3264.1128 
 9853000    246.20652   -3940.9813   -3518.9918   -3940.9813            0    2744.2834    17.435762    20.537024    21.271589    7616.9022    1858.3441    3022.5683    3351.9377   -194.51842   -261.48809   -6.8087376   -3214.1439 
 9854000    244.78761   -3945.6169   -3526.0593   -3945.6169            0    2299.0097    17.537021    20.656294    21.395124    7750.3808    2064.2052    460.69444    4372.1293    1116.6441   -1537.0428   -259.52065   -3266.1992 
 9855000    256.15162   -3948.0989   -3509.0638   -3948.0989            0    1764.8641    17.584495    20.712212    21.453042    7813.4937    1751.8217    1205.0976    2337.6731    753.09898    204.35884    250.08203   -3307.9543 
 9856000    234.85945   -3958.2202   -3555.6791   -3958.2202            0    2837.7022    17.501217    20.614122    21.351444    7703.0083    4146.7312    1798.8504    2567.5249   -772.33744    521.50331    14.039713   -3236.8903 
 9857000    251.06967   -3979.1989   -3548.8741   -3979.1989            0    4040.8006    17.440551    20.542665    21.277431    7623.1798    3313.5884    4266.7263     4542.087    1238.7241   -489.29937    66.426002    -3099.633 
 9858000    245.51254   -3948.7454   -3527.9453   -3948.7454            0    3850.4239    17.477848    20.586596    21.322934    7672.1918    3735.0324     2471.563    5344.6763    589.09927   -584.24055    678.48952   -3097.1173 
 9859000    250.71992    -3977.274   -3547.5486    -3977.274            0    3353.7311    17.481254    20.590608    21.327089    7676.6779    3347.1884    2705.5886    4008.4162   -313.50452   -1210.8809    142.33898   -3172.0767 
 9860000    246.42448   -3957.1483   -3534.7852   -3957.1483            0    3922.8641    17.441156    20.543378    21.278169    7623.9732     4334.281    3636.5892     3797.722   -616.75315    -247.0396   -732.04766   -3098.6104 
 9861000    243.12919   -3952.7977   -3536.0826   -3952.7977            0    2589.3058    17.622695    20.757207    21.499647    7864.5263    2162.6006     4017.746    1587.5708   -976.36323   -370.31385    663.15648   -3239.0995 
 9862000    236.33917   -3930.5878   -3525.5105   -3930.5878            0    3352.1166    17.530928    20.649118    21.387691    7742.3058    3376.9695    3355.1008    3324.2795    1777.7597    -68.11306   -926.84877    -3147.011 
 9863000    232.56338   -3936.8962   -3538.2905   -3936.8962            0    2570.4391     17.49855    20.610981     21.34819    7699.4871    2679.6528    2151.7442    2879.9203    7.8958236    -598.2707    43.191309   -3249.6582 
 9864000    251.45457   -3927.9003   -3496.9158   -3927.9003            0    3247.9822    17.503302    20.616578    21.353988    7705.7619    3131.4473    4765.6196    1846.8796    83.653423    32.310857   -377.03857   -3131.9055 
 9865000    252.26036   -3957.0659   -3524.7003   -3957.0659            0    3393.8604     17.51191    20.626717    21.364489    7717.1358    2110.1424    4969.1409    3102.2978   -536.94985    699.23118   -375.42784   -3142.7332 
 9866000    244.15162    -3985.135   -3566.6675    -3985.135            0    3083.5942    17.504555    20.618054    21.355516    7707.4165     2954.808    3581.6783    2714.2962       1862.6    -308.4914   -446.57795   -3220.0568 
 9867000    240.57955   -3995.6813   -3583.3362   -3995.6813            0    4350.3409    17.428068    20.527963    21.262203    7606.8238    5759.5931    3304.5209    3986.9086   -363.30974    306.58298   -761.51626   -3100.7193 
 9868000    231.04432   -3958.3635   -3562.3615   -3958.3635            0    3408.0952    17.560726    20.684215    21.424045    7781.8522    5044.2898    3129.3812    2050.6147    1074.8896    1486.3476   -1123.7359   -3175.5756 
 9869000    254.84301   -3959.8537   -3523.0615   -3959.8537            0    4967.0803    17.456329    20.561249     21.29668    7643.8881    6057.6681    4013.6259    4829.9469    274.46741    408.43772    1612.4541     -2969.34 
 9870000    242.91332   -3965.0035   -3548.6584   -3965.0035            0    3870.2273    17.479253    20.588252    21.324648    7674.0428    5201.6182    3112.9628     3296.101   -606.09755   -53.717362   -20.581524   -3115.5102 
 9871000    240.01607   -3956.3986   -3545.0193   -3956.3986            0    2957.2291    17.529104    20.646969    21.385465    7739.8886    4220.2018    1043.5091    3607.9764    736.05391    2360.5751   -592.37225   -3211.2122 
 9872000    254.03847   -3938.2408   -3502.8275   -3938.2408            0    2980.4287    17.484696    20.594662    21.331288    7681.2134    3065.4059    3425.8731    2450.0071   -1925.3912    -61.41794    59.722688   -3168.9521 
 9873000     241.4876   -3994.0306   -3580.1291   -3994.0306            0    3149.0337    17.537399    20.656739    21.395585    7750.8816     4712.269    3585.8402    1148.9918    788.72178    259.38019   -1397.9457   -3224.1666 
 9874000    260.80828    -3963.203   -3516.1865    -3963.203            0    4074.5142    17.443432    20.546059    21.280946    7626.9585    5463.4903    4406.4385    2353.6139    536.17357     1443.039   -507.57042   -3062.9727 
 9875000    254.97234   -3919.3109    -3482.297   -3919.3109            0    3494.9595    17.526689    20.644125     21.38252    7736.6912    1822.3678    4788.2296    3874.2813   -843.89651   -597.73606    757.88082   -3087.9548 
 9876000    252.94498   -3940.1488   -3506.6098   -3940.1488            0    3629.3411    17.389772    20.482855    21.215481    7556.7884    2174.6956    4994.2746    3719.0532    852.77934    1212.0204    270.23263   -3106.6273 
 9877000    244.45272   -3942.7519   -3523.7683   -3942.7519            0    3629.3506    17.423366    20.522424    21.256466    7600.6684    3517.3429    4748.6519     2622.057   -984.49628   -726.97264    246.14879   -3121.4622 
 9878000    256.66613    -3959.388    -3519.471    -3959.388            0      4725.72     17.41647    20.514301    21.248052    7591.6462    4104.1628     4343.677    5729.3203    1716.9026    123.31019    -929.7277   -2996.2565 
 9879000    245.72867   -3923.9103   -3502.7398   -3923.9103            0    3569.7502    17.448425     20.55194    21.287037    7633.5098    5127.2112    3557.8262     2024.213   -498.44081   -1190.8209    1655.7729   -3105.3306 
 9880000    238.55003    -3962.878   -3554.0114    -3962.878            0    1726.8022    17.531128    20.649354    21.387936    7742.5712    2017.4975     2465.765    697.14407    41.479296    427.56129   -489.74145   -3359.0253 
 9881000    233.72004   -3963.9971    -3563.409   -3963.9971            0    3094.2418    17.517549    20.633359    21.371369    7724.5937    543.89872    5269.3695    3469.4572    -346.5437    642.49194   -27.760353   -3214.8263 
 9882000     256.9547   -3945.2953   -3504.8838   -3945.2953            0    3069.9742    17.542541    20.662796    21.401859    7757.7022    3512.8321    2828.4081    2868.6823     31.44206    472.76881    211.64287   -3157.5526 
 9883000    242.43507   -3945.1298   -3529.6044   -3945.1298            0    3805.9137     17.51229    20.627164    21.364952    7717.6375    3065.7435    4419.0029    3932.9946    940.18965    335.53598    324.58853   -3101.2343 
 9884000    233.02597   -3951.9517   -3552.5532   -3951.9517            0     2168.937    17.537333    20.656661    21.395505    7750.7943    1383.7676    2061.8875    3061.1558   -186.78638   -1767.8101    298.50216   -3307.3822 
 9885000    244.72801   -3970.9888   -3551.5333   -3970.9888            0    4316.0785    17.458317    20.563592    21.299106    7646.5008    4096.1213    2924.9875    5927.1268    493.78388     672.6839   -745.36451   -3070.2199 
 9886000    236.24797   -3924.8269    -3519.906   -3924.8269            0    3229.7982    17.442094    20.544483    21.279314    7625.2035    4633.0904    3163.9631    1892.3412   -358.47044    597.83157    724.76779   -3160.7338 
 9887000    243.10356   -3942.5291   -3525.8579   -3942.5291            0    2286.9633    17.461615    20.567476     21.30313    7650.8352    1660.1351    2614.7016    2586.0531    445.90874    1556.7485    1240.3029   -3270.6795 
 9888000    251.37939   -3934.5041   -3503.6484   -3934.5041            0    4515.5562    17.376638    20.467384    21.199457    7539.6785    3809.1685    4851.9685    4885.5316   -1037.5718    961.06456   -1806.7169   -3007.1248 
 9889000      221.652   -3939.5041   -3559.6002   -3939.5041            0    3400.5693      17.3662     20.45509    21.186724    7526.1001    2861.0812     3207.465    4133.1617    259.92567    568.62363   -1173.8256   -3186.3522 
 9890000    248.22183   -3909.3093   -3483.8656   -3909.3093            0    2219.5613    17.434692    20.535764    21.270283    7615.4998    4487.5289    1683.0615     488.0936   -975.53228    -122.4682   -126.14111   -3237.3517 
 9891000    245.48213   -3945.1946   -3524.4466   -3945.1946            0    2814.2016    17.435374    20.536568    21.271116    7616.3942    4055.7898    1494.1525    2892.6625    1049.5617   -196.19555    629.46137   -3211.8527 
 9892000    244.91566   -3945.0688   -3525.2918   -3945.0688            0    5518.8814    17.308459    20.387078     21.11628    7451.2786    6132.9912     4685.538    5738.1149   -778.82591     991.1663   -603.96374    -2925.559 
 9893000    244.70498   -3929.9952   -3510.5792   -3929.9952            0    4252.3798    17.412837    20.510022     21.24362     7586.897    4917.0819    3213.9812    4626.0763   -1640.2572   -1796.3811   -386.89051   -3040.0657 
 9894000    238.06967   -3924.5658   -3516.5226   -3924.5658            0    3804.0413    17.396299    20.490542    21.223444    7565.3003    2871.9691    2840.1167     5700.038    -1232.511    980.55461    245.23768   -3096.8145 
 9895000    253.43762   -3923.3024    -3488.919   -3923.3024            0    3898.1381    17.415482    20.513138    21.246848    7590.3554    2505.0159    3941.8236    5247.5748    223.16015   -1083.8473   -501.50204   -3057.4046 
 9896000     235.6488   -3936.0701   -3532.1761   -3936.0701            0    3625.8715    17.404123    20.499759     21.23299    7575.5131    2457.2303    3621.2301    4799.1541   -689.19522    95.352147   -243.88958   -3131.5859 
 9897000    238.75648   -3937.7499   -3528.5294   -3937.7499            0    2665.3531    17.472545     20.58035    21.316464    7665.2103    3565.5785    3053.5311    1376.9496   -97.197579   -123.35328   -435.50267   -3230.5717 
 9898000    244.66933   -3957.5709   -3538.2161   -3957.5709            0    4199.3064    17.451012    20.554988    21.290194    7636.9065    4351.0695    1923.3066     6323.543   -599.19441    467.89179   -702.52157   -3070.5123 
 9899000    243.02176   -3899.2012   -3482.6702   -3899.2012            0    3551.0265    17.490904    20.601974    21.338862    7689.3981    2872.8203    3953.0189    3827.2403   -1579.4367    158.99054   -1119.0376   -3084.4511 
 9900000    242.48859   -3939.4161    -3523.799   -3939.4161            0    3513.9965    17.400203    20.495141    21.228207    7570.3947    3348.5458    2460.9885    4732.4551   -1867.9152    -1352.517   -853.29336   -3135.8311 
 9901000    257.69328   -3925.0892   -3483.4117   -3925.0892            0    2631.1275    17.518309    20.634254    21.372296    7725.5989    2561.0519    2003.5336    3328.7969   -142.90622   -2366.0617    1025.7487   -3186.9627 
 9902000    239.63399   -3941.6342   -3530.9097   -3941.6342            0    2242.1366    17.377179    20.468022    21.200118    7540.3838    1342.4271    2348.9511    3035.0317   -454.33904    588.11822    280.07073   -3284.3447 
 9903000    252.07014   -3945.7196     -3513.68   -3945.7196            0    2991.0298    17.424835    20.524154    21.258258     7602.591   -715.75231    4886.3251    4802.5166    167.48644    138.31726    53.304719   -3182.0466 
 9904000    226.10302   -3919.4069   -3531.8741   -3919.4069            0    2993.8181    17.411147    20.508031    21.241558     7584.688    2433.4689    4240.0098    2307.9757   -1184.9187    359.67991    349.70824   -3200.7132 
 9905000    238.98868   -3941.8286   -3532.2102   -3941.8286            0    3879.0054    17.410016    20.506699    21.240179    7583.2101    2725.7441    3645.3886    5265.8836   -133.62534    1108.2158    814.22331    -3103.218 
 9906000    234.24561   -3949.7976   -3548.3086   -3949.7976            0    4436.5039    17.444341    20.547129    21.282055    7628.1506     4059.199    4954.8142    4295.4984   -272.98987    421.23552    415.86293   -3054.7531 
 9907000    238.46358   -3942.1222   -3533.4037   -3942.1222            0    2788.0296    17.550792    20.672514    21.411925    7768.6532    2023.4203     3598.454    2742.2146    532.38979     745.5051    259.20413    -3217.526 
 9908000    232.71188   -3925.8899   -3527.0297   -3925.8899            0    3329.2318    17.456987    20.562025    21.297484    7644.7532    3707.0203    3525.0899    2755.5853   -226.57867   -1979.1724    1221.6516   -3155.8507 
 9909000     249.6854    -3932.802   -3504.8498    -3932.802            0    5265.6116    17.334065    20.417239    21.147519    7484.3977     5477.347    3786.0523    6533.4355    258.25217    9.9995008   -471.10889   -2930.0963 
 9910000    245.60259   -3893.8012   -3472.8467   -3893.8012            0    2327.8508     17.55263     20.67468    21.414168    7771.0945    2544.4089    2250.2229    2188.9205   -44.897163   -252.56359   -367.00037   -3209.0234 
 9911000    241.56385   -3943.2126   -3529.1804   -3943.2126            0    4134.5213    17.459128    20.564547    21.300095     7647.566    3789.9984     4325.477    4288.0885   -129.21746   -148.79002     246.0042   -3068.0494 
 9912000    245.28269   -3933.4057   -3512.9996   -3933.4057            0    3908.9394    17.535308    20.654277    21.393035    7748.1103     5547.998    2978.0279    3200.7923     669.0434    1180.7062    100.92592   -3071.2963 
 9913000    254.76233   -3937.3163   -3500.6624   -3937.3163            0      3391.29    17.397949    20.492486    21.225457    7567.4534    1725.7873     3278.613    5169.4697   -663.00828     -261.533   -423.38941   -3126.3876 
 9914000    247.56176   -3954.5939   -3530.2816   -3954.5939            0    5482.5808    17.370862    20.460581    21.192411     7532.163      4156.29    6114.7745     6176.678    921.75822   -776.78348   -507.51587   -2928.0262 
 9915000    248.24052   -3960.2675   -3534.7918   -3960.2675            0    3164.6139    17.437602    20.539192    21.273834    7619.3143    3636.7079    2989.4972    2867.6365    368.38752    546.66644   -331.87524   -3183.1403 
 9916000    251.61947   -3934.9345   -3503.6673   -3934.9345            0    2941.2896    17.425545     20.52499    21.259124    7603.5195    3162.0892    2832.9744    2828.8052    152.40895    60.024039   -815.76021   -3177.5091 
 9917000    237.12145   -3973.9547   -3567.5366   -3973.9547            0    2413.5854    17.418861    20.517118     21.25097    7594.7741     3673.056     1718.733    1848.9672   -559.48874   -598.76947    -222.1881   -3300.2031 
 9918000    262.05544   -3948.3496   -3499.1955   -3948.3496            0    5351.1082    17.442501    20.544963    21.279811    7625.7382    3410.4221    5717.8758    6925.0268   -25.079973   -902.27811   -185.93824   -2904.0797 
 9919000    251.30383   -3944.5782    -3513.852   -3944.5782            0    2932.8382    17.448948    20.552556    21.287676    7634.1969    2137.4934     3953.652    2707.3693    223.49066   -1903.2489     1384.155   -3187.3188 
 9920000    253.44774   -3956.9209   -3522.5202   -3956.9209            0    3694.3249    17.355274     20.44222    21.173393    7511.9032    3641.6437    4038.7375    3402.5934   -62.309492    1634.4538    616.17328   -3117.7943 
 9921000    247.08135   -3972.0991   -3548.6101   -3972.0991            0    1631.4057    17.458068    20.563298    21.298802    7646.1734    2538.2823    1811.5224    544.41247    2225.6524   -1058.7357   -1167.3065   -3366.6895 
 9922000    249.55259   -3973.5349   -3545.8103   -3973.5349            0    3046.4969     17.43023    20.530508     21.26484    7609.6544    4075.3776    1197.7767    3866.3366     124.7795   -43.362832   -207.44749   -3207.7131 
 9923000    255.66458   -3995.1902   -3556.9899   -3995.1902            0    3250.8395    17.387037    20.479632    21.212144    7553.2228    3527.5246    2328.9639    3896.0301   -363.83392   -1785.0596   -395.16255   -3198.8904 
 9924000    242.23903   -3962.3752   -3547.1858   -3962.3752            0    5938.6686    17.375056    20.465521    21.197528    7537.6196    6599.7369    4063.6692    7152.5996    934.91612     309.5619    533.33029   -2894.3572 
 9925000    254.48849   -3936.4181   -3500.2336   -3936.4181            0    4685.4993    17.330681    20.413253     21.14339    7480.0149    4324.5605    4811.3538    4920.5836    277.49689   -363.58219    689.87492   -2989.1002 
 9926000    249.79271   -3968.9171    -3540.781   -3968.9171            0     4696.535    17.332432    20.415316    21.145527    7482.2831    1791.8462    5901.0268    6396.7321    258.68947   -166.21643    -251.6055   -3028.2884 
 9927000    251.25341   -3929.5044   -3498.8646   -3929.5044            0    3388.1164    17.340353    20.424645     21.15519    7492.5452    2836.2649    4300.5648    3027.5194    888.42277   -204.97954    746.30478   -3128.6415 
 9928000    253.09668   -3967.4725   -3533.6735   -3967.4725            0    3940.3293    17.377664    20.468593    21.200709    7541.0145    3037.1495    2995.5001    5788.3383    740.51727    76.384457     2530.387   -3100.3241 
 9929000    237.20217   -3938.1121   -3531.5557   -3938.1121            0    4833.1377    17.389446    20.482471    21.215084    7556.3639    4530.7056    5187.3097    4781.3978    539.76625    535.58982    118.76528   -2998.9351 
 9930000      241.162    -3959.653   -3546.3096    -3959.653            0    4360.9296    17.386904    20.479477    21.211983    7553.0504     3772.728    5014.3775    4295.6832    87.874198    842.37527    1026.6378    -3065.938 
 9931000    249.54598   -3946.2058   -3518.4925   -3946.2058            0    4733.4421    17.351003     20.43719    21.168184    7506.3598    3957.9754    5164.4828    5077.8682    144.09673   -1078.6447    521.18618   -3000.3105 
 9932000    248.65811   -3934.8631   -3508.6716   -3934.8631            0    4252.9446     17.42501     20.52436    21.258471    7602.8194    4991.1982    4693.3549    3074.2808    1112.4142   -649.61414    60.167708    -3037.108 
 9933000     232.4352   -3960.9409   -3562.5549   -3960.9409            0     4437.145    17.459598      20.5651    21.300669     7648.184    4097.2057    4340.6829    4873.5462    -1211.742    69.355529   -26.018121   -3067.6317 
 9934000    251.64673   -3983.6798   -3552.3659   -3983.6798            0    3012.7885    17.508513    20.622716    21.360345    7712.6459    863.67913    2917.6313    5257.0551    -398.3945    385.57749    1509.8334   -3213.4844 
 9935000    236.91707   -3919.7213   -3513.6536   -3919.7213            0    5801.4353    17.382524    20.474317    21.206638     7547.343    5774.7589     6016.208     5613.339    483.45469     1939.103    1196.7974   -2875.0881 
 9936000    250.92802   -3914.0261   -3483.9441   -3914.0261            0    3594.4906    17.441334    20.543587    21.278387    7624.2069    3044.6601    4039.8868     3698.925   -835.27702   -849.46745     1359.234   -3084.2682 
 9937000    233.95168    -3934.935   -3533.9499    -3934.935            0    3214.0114    17.445932    20.549003    21.283996    7630.2384     4853.295    3533.8235    1254.9157    -827.9377    584.19753   -429.04532   -3176.2973 
 9938000    252.74461   -3922.9178   -3489.7222   -3922.9178            0    3170.9913    17.428597    20.528585    21.262848    7607.5159     3291.113    2301.2163    3920.6447    1104.2461     723.6265    147.17157   -3137.9077 
 9939000    247.52801   -3982.4148   -3558.1603   -3982.4148            0     3297.758    17.461834    20.567734    21.303397    7651.1228    2994.4599    4048.9366    2849.8774   -691.57138    1815.1473   -1066.7586    -3190.184 
 9940000    264.27767    -3924.773   -3471.8101    -3924.773            0    3591.7781    17.322074    20.403115    21.132889    7468.8758     5408.646    2887.9933    2478.6951    1096.0059    609.31263   -3.6230142   -3080.5725 
 9941000    242.61888    -3913.822   -3497.9815    -3913.822            0    1967.5418    17.473657     20.58166    21.317821    7666.6748    2599.2113    2032.0526    1271.3615   -205.85492    873.10334   -636.03623   -3277.9895 
 9942000    249.99471   -3908.5811   -3480.0987   -3908.5811            0    5737.9511    17.431384    20.531868    21.266248    7611.1667    7005.4311    5705.6265    4502.7959    215.73979    2099.0586    -700.9324     -2843.18 
 9943000    237.57871   -3900.6332   -3493.4315   -3900.6332            0    2870.5326    17.488356    20.598973    21.335753    7686.0383    2929.4975    4067.7015    1614.3989   -412.59962    1282.1138    1376.1635   -3171.6649 
 9944000     246.4319   -3905.6273   -3483.2515   -3905.6273            0    1661.5229    17.489609    20.600449    21.337282    7687.6902    849.48544     3130.428    1004.6552    201.03504    1182.8804    -481.3184   -3296.9664 
 9945000    236.71084   -3911.1705   -3505.4562   -3911.1705            0    3951.8726    17.464081     20.57038    21.306137    7654.0759     3684.132    5744.5753    2426.9105    998.17799    2127.0573    1359.7639   -3064.3211 
 9946000    245.81057    -3927.786   -3506.4751    -3927.786            0    540.59828    17.536937    20.656195    21.395022    7750.2693    1107.2186    155.79173    358.78448    -1656.597   -225.17164    780.36389   -3445.3714 
 9947000    238.15886   -3911.1151    -3502.919   -3911.1151            0    2155.8534    17.470212    20.577602    21.313618    7662.1409       2762.9     1496.027     2208.633   -1232.7275    732.67136   -548.07809   -3262.0143 
 9948000    246.40131   -3923.0805   -3500.7571   -3923.0805            0    2573.0167    17.470245     20.57764    21.313658    7662.1834    3118.8223    2664.7111    1935.5168   -677.55875    -196.4971     436.4828   -3213.2351 
 9949000     243.1682   -3907.6123   -3490.8303   -3907.6123            0    3525.9501    17.426172    20.525728    21.259889    7604.3403    3221.4083    4218.1555    3138.2865    713.76658    626.73163   -860.07975   -3099.7972 
 9950000    243.00493   -3927.7377   -3511.2356   -3927.7377            0    3175.0426    17.448267    20.551754    21.286845     7633.303    3475.3166    3092.3168    2957.4944    1394.0267    258.55169    1458.0926   -3157.7775 
 9951000    241.17678   -3920.0402   -3506.6715   -3920.0402            0    3045.8015    17.452496    20.556735    21.292004    7638.8538    3304.5073    2957.4138    2875.4833   -837.27501   -395.84785   -369.55746   -3167.3544 
 9952000    247.38895   -3929.2164   -3505.2002   -3929.2164            0    2743.9447    17.437133    20.538639    21.273261    7618.6992    4924.8269    1537.0867    1769.9205    408.97958    572.40396   -1291.6603    -3200.318 
 9953000    232.85064   -3921.8085   -3522.7104   -3921.8085            0    3290.1914    17.433558    20.534428      21.2689     7614.014      3769.68    2133.3579    3967.5364    437.43037   -263.53144     323.4917   -3157.3591 
 9954000    235.04781   -3914.1495   -3511.2856   -3914.1495            0    3357.2601    17.480776    20.590045    21.326505    7676.0479    3238.4737     2456.391    4376.9157   -311.20458    1292.7057   -990.08756   -3135.4494 
 9955000    245.57906   -3959.4082   -3538.4941   -3959.4082            0    2492.9205    17.474092    20.582173    21.318352    7667.2475    3515.7572    2350.2854    1612.7189    1030.1068    1134.2667    627.05521   -3259.7384 
 9956000    232.00397   -3934.1776   -3536.5307   -3934.1776            0    2871.2066    17.343673    20.428556    21.159241    7496.8503    2743.7743    2755.9411    3113.9045    777.91221    204.13114   -525.85745   -3222.6106 
 9957000    245.70687   -3960.2325   -3539.0993   -3960.2325            0    3421.5861    17.395684    20.489818    21.222694    7564.4985    2598.9126    2758.3398    4907.5058    277.82927    408.97856   -922.85987   -3161.6284 
 9958000    247.34804   -3919.6327   -3495.6866   -3919.6327            0    4499.8044    17.353679    20.440342    21.171448    7509.8333    3556.0964    6087.8793    3855.4374    214.89691   -753.08867   -1316.5825   -3002.8536 
 9959000    247.09447   -3940.7545    -3517.243   -3940.7545            0    2193.4192    17.469662    20.576954    21.312947    7661.4166    564.06166    955.74104    5060.4548   -2197.2463   -234.33712     232.1191   -3272.1637 
 9960000    251.11283   -3912.6013   -3482.2024   -3912.6013            0    2975.8987    17.522065    20.638678    21.376878    7730.5687    2457.5346    3599.5349    2870.6265   -1398.2348   -199.62988    738.72558   -3146.6924 
 9961000    225.02585   -3905.3847   -3519.6981   -3905.3847            0    3805.4103    17.492376    20.603708    21.340658      7691.34    3791.9984    4699.1534     2925.079    445.73628   -1597.0764    732.21106   -3092.8441 
 9962000    235.72136   -3917.3484     -3513.33   -3917.3484            0    2832.0987     17.53649    20.655669    21.394477    7749.6776    3118.3238    3024.0136    2353.9586    1705.3925   -1299.4473   -553.20443   -3193.2431 
 9963000    257.91944   -3939.8401    -3497.775   -3939.8401            0    2579.0183    17.493502    20.605035    21.342032    7692.8258    2480.4769    2772.7262    2483.8518   -240.20291    215.41352   -1402.2711   -3208.4298 
 9964000    238.76436   -3934.5301   -3525.2961   -3934.5301            0    3092.6863    17.513824    20.628972    21.366825    7719.6667    4094.8489    3058.6603    2124.5496    766.61127    10.625285    1051.7066   -3177.1109 
 9965000    235.25273   -3980.3399   -3577.1247   -3980.3399            0    2315.8343    17.564693    20.688888    21.428885    7787.1276    2117.8508    1491.7965    3337.8557    541.84316    267.63124    319.71479   -3314.1217 
 9966000    240.19493   -3952.7484   -3541.0625   -3952.7484            0    3958.0109    17.437245    20.538771    21.273398     7618.846    4662.2552    4290.4689    2921.3086     1143.441   -33.542648   -1947.2815   -3101.2758 
 9967000    241.45211   -3951.8714   -3538.0308   -3951.8714            0     2772.074    17.444283    20.547061    21.281985    7628.0751    2968.5514    2035.0253    3312.6452   -507.61505    695.38919    -612.1602   -3229.6441 
 9968000    250.13437   -3944.9724   -3516.2506   -3944.9724            0    2646.4458    17.591026    20.719905    21.461011    7822.2033    4134.2684    1485.3748    2319.6941   -484.95745    1277.2469   -186.99354   -3214.3472 
 9969000      237.416   -3897.3473   -3490.4244   -3897.3473            0    3888.6836    17.494264    20.605932    21.342961    7693.8305    4728.6516    2620.3761     4317.023    -564.8503   -533.88841    382.40807   -3054.0883 
 9970000    243.71818   -3964.6905   -3546.9659   -3964.6905            0    3984.5681    17.522752    20.639487    21.377716    7731.4779    4519.3094    3283.3641    4151.0307    194.19145   -410.85957   -369.03331   -3097.6832 
 9971000     251.2741   -3953.6381   -3522.9629   -3953.6381            0    2736.2758    17.530675     20.64882    21.387383    7741.9709    3156.1005     3291.411    1761.3158    597.67721   -1437.2812   -284.86181   -3214.0136 
 9972000    242.49628   -3967.2546   -3551.6243   -3967.2546            0    1149.7108     17.57043    20.695646    21.435884    7794.7606     1057.506    1292.1796    1099.4469   -190.41243    69.844478   -1562.8586   -3420.9268 
 9973000    245.07015   -3961.6968    -3541.655   -3961.6968            0    2148.6346    17.578384    20.705014    21.445587    7805.3503     3201.283    1647.1626    1597.4582   -1889.8116   -772.03132   -8.0109948   -3297.0694 
 9974000    251.40978   -3941.9293   -3511.0215   -3941.9293            0    3864.5863    17.440181    20.542229     21.27698    7622.6951    3682.7607    3830.8466    4080.1516   -1063.5867    1161.8225    1569.6598   -3081.3986 
 9975000    250.21196   -3933.0385   -3504.1838   -3933.0385            0      2360.96    17.517271    20.633031     21.37103    7724.2253    1195.2791    3555.8013    2331.7996    279.04825   -177.14734   -116.67709   -3238.2219 
 9976000     240.0982   -3900.8475   -3489.3274   -3900.8475            0    2024.4014    17.489902    20.600795     21.33764    7688.0771   -341.58681    3860.6606    2554.1304   -651.44204   -882.70797    282.04372    -3262.346 
 9977000    257.28587    -3880.756   -3439.7768    -3880.756            0     1025.778    17.586893    20.715037    21.455968     7816.691    571.05846    1537.9708    968.30479   -963.79163   -93.627961   -386.95068   -3322.8397 
 9978000    249.84336   -3883.6619   -3455.4389   -3883.6619            0    4489.1807    17.485353    20.595436     21.33209    7682.0797    4504.0243    4458.2642    4505.2538      1158.83   -1184.2973   -825.84035   -2952.4924 
 9979000     254.0469   -3924.6172   -3489.1895   -3924.6172            0    4487.4525    17.533157    20.651743    21.390411    7745.2595    4622.8326    4872.1093    3967.4155   -305.38203   -741.25056    844.17886   -2982.3018 
 9980000     252.6913   -3896.5682    -3463.464   -3896.5682            0    4861.0769    17.384573    20.476731    21.209139    7550.0129    4662.8393    5194.6284     4725.763   -609.76289    240.33329    840.92462   -2928.2147 
 9981000    246.03379   -3909.1602   -3487.4667   -3909.1602            0    3710.1677    17.446419    20.549577     21.28459     7630.877    2779.6971    3096.6673    5254.1388   -168.63796   -532.07635    188.54204   -3074.5676 
 9982000    241.22028   -3915.6654   -3502.2221   -3915.6654            0    3509.3537    17.490525    20.601529      21.3384     7688.899    3660.2199    3977.1363    2890.7049    1008.5834    213.21148   -8.3663434   -3108.7017 
 9983000    245.02467   -3942.2003   -3522.2364   -3942.2003            0     3188.696    17.489064    20.599808    21.336618    7686.9723    3742.3745    3076.1486    2747.5648    661.42995   -1176.7126   -175.91608   -3164.7625 
 9984000    249.78824   -3898.8614    -3470.733   -3898.8614            0    2874.5519    17.492734     20.60413    21.341095    7691.8125    1915.9059    3537.0982    3170.6516   -989.30242   -564.04851    480.93607   -3148.2738 
 9985000    229.49518   -3917.4062   -3524.0593   -3917.4062            0    2319.5129    17.582269    20.709591    21.450327    7810.5273    2988.8688    1889.7242    2079.9458   -529.47508   -56.810041    634.85666    -3259.847 
 9986000    242.30569    -3940.903   -3525.5993    -3940.903            0    1980.4531    17.539333    20.659017    21.397945    7753.4466    1767.6777    2654.9194    1518.7623     958.3037     565.4668   -536.03841   -3301.6575 
 9987000    248.03745   -3945.8897    -3520.762   -3945.8897            0    3184.9562    17.408795    20.505262     21.23869    7581.6156    2694.0548    4083.0365    2777.7773    246.58879    -565.6276   -977.84831   -3168.6011 
 9988000    254.37146   -3942.5313   -3506.5473   -3942.5313            0    3189.3602    17.509873    20.624318    21.362004    7714.4432    2122.8799    1391.0902    6054.1103   -27.961852     -57.6083   -298.90705   -3147.7212 
 9989000    240.23759    -3934.547    -3522.788    -3934.547            0    2261.9401    17.443715    20.546392    21.281291    7627.3294    1883.3232     3150.785     1751.712   -401.26377    -39.91912    1212.3629    -3271.177 
 9990000    239.72897   -3900.9479   -3490.0606   -3900.9479            0    2422.9191    17.496228    20.608245    21.345357    7696.4216    3315.0001    3645.8355    307.92152   -1739.2125    248.28336    1036.9785   -3218.1015 
 9991000    234.59005    -3932.534   -3530.4547    -3932.534            0    2897.6112    17.558603    20.681715    21.421455    7779.0304     2415.234    4329.7227    1947.8769    451.36118    166.87656     301.0002   -3201.7231 
 9992000    249.90131   -3937.4742   -3509.1519   -3937.4742            0    2520.0377    17.563944    20.688006    21.427971    7786.1314    1583.6635    3384.8126    2591.6372    142.42434    1403.5655    358.97196   -3222.9947 
 9993000    256.89408    -3937.922   -3497.6143    -3937.922            0    4001.2448    17.442195    20.544602    21.279438    7625.3368    4078.6181    5348.4808    2576.6355    765.77157    1432.7071   -67.014548    -3052.645 
 9994000    244.62677   -3929.5152   -3510.2333   -3929.5152            0    4789.1079    17.462032    20.567967    21.303638    7651.3827    6095.4528    6081.8831    2189.9879    497.51345     585.5562    1006.9549   -2975.8283 
 9995000    263.90906   -3935.9198   -3483.5887   -3935.9198            0    4465.8174    17.541232    20.661254    21.400262    7755.9654    5071.0644    4683.3908    3642.9969    668.66445    1218.1928   -1370.9333   -2978.4476 
 9996000    236.64409   -3918.9026   -3513.3028   -3918.9026            0    4660.6598    17.466743    20.573517    21.309386    7657.5778    4744.3529    3357.0808    5880.5458   -898.58587    253.16668    -186.8652     -2992.81 
 9997000    236.65932   -3929.0096   -3523.3837   -3929.0096            0    3286.9472    17.496624    20.608711     21.34584    7696.9441    3131.7386    5079.7722    1649.3309    29.981001   -1532.5722    928.01789   -3154.4171 
 9998000    263.87986   -3941.8566   -3489.5756   -3941.8566            0    2398.6227    17.481277    20.590636    21.327118    7676.7091    2080.6556    3808.9631    1306.2493    153.48135    609.90824    1283.7176   -3221.0332 
 9999000    229.76707   -3922.8855   -3529.0726   -3922.8855            0     2656.121    17.480426    20.589633    21.326079    7675.5873    2993.2315    2647.9432    2327.1885   -1725.8832   -333.12168    -482.2147   -3231.7449 
10000000    255.48261   -3902.6816   -3464.7932   -3902.6816            0    2644.3989    17.501512    20.614469    21.351804    7703.3975    1004.9972     4229.618    2698.5815   -1400.5038    58.683037   -1143.1139   -3167.7051 
Loop time of 472.293 on 64 procs for 250000 steps with 864 atoms

Performance: 91.469 ns/day, 0.262 hours/ns, 529.333 timesteps/s
99.1% CPU use with 64 MPI tasks x 1 OpenMP threads

MPI task timing breakdown:
Section |  min time  |  avg time  |  max time  |%varavg| %total
---------------------------------------------------------------
Pair    | 19.702     | 24.483     | 29.33      |  47.0 |  5.18
Bond    | 0.27125    | 0.28121    | 0.29435    |   0.9 |  0.06
Kspace  | 203.41     | 216.23     | 235.38     |  45.3 | 45.78
Neigh   | 4.2579     | 5.2259     | 7.1034     |  31.3 |  1.11
Comm    | 90.837     | 109.69     | 120.66     |  67.0 | 23.22
Output  | 1.2555     | 1.2587     | 1.2956     |   0.6 |  0.27
Modify  | 106.43     | 108.87     | 113.07     |  15.8 | 23.05
Other   |            | 6.256      |            |       |  1.32

Nlocal:        13.5000 ave          19 max           8 min
Histogram: 4 5 4 9 9 9 9 8 4 3
Nghost:        2097.36 ave        2169 max        2055 min
Histogram: 2 15 12 12 9 4 3 3 1 3
Neighs:        4006.62 ave        6301 max        2182 min
Histogram: 5 3 6 12 12 16 4 3 2 1

Total # of neighbors = 256424
Ave neighs/atom = 296.78704
Ave special neighs/atom = 2.0000000
Neighbor list builds = 12093
Dangerous builds = 0

unfix		3
unfix		2
unfix		1

write_data	data.final.${pid}
write_data	data.final.0
System init for write_data ...
PPPM initialization ...
  extracting TIP4P info from pair style
  using 12-bit tables for long-range coulomb (../kspace.cpp:340)
  G vector (1/distance) = 0.37330454
  grid = 24 24 25
  stencil order = 5
  estimated absolute RMS force accuracy = 0.0031796995
  estimated relative force accuracy = 9.5755707e-06
  using double precision FFTW3
  3d grid and FFT values/proc = 2730 288
Last active /omp style is kspace_style pppm/tip4p/omp
WARNING: Not all mixed pair coeffs generated from mixing. Use write_data with 'pair ij' option to store all pair coeffs. (../write_data.cpp:312)

write_restart   restart.lmp.${pid}
write_restart   restart.lmp.0
System init for write_restart ...
PPPM initialization ...
  extracting TIP4P info from pair style
  using 12-bit tables for long-range coulomb (../kspace.cpp:340)
  G vector (1/distance) = 0.37330454
  grid = 24 24 25
  stencil order = 5
  estimated absolute RMS force accuracy = 0.0031796995
  estimated relative force accuracy = 9.5755707e-06
  using double precision FFTW3
  3d grid and FFT values/proc = 2730 288
Last active /omp style is kspace_style pppm/tip4p/omp
Total wall time: 0:07:52
