#include		in.partitions
include		in.temp
variable        temperature equal 17.72
variable	tempDamp equal 100.0
include		in.pressure
variable        pressure equal 2194.9
variable        pressureDamp equal 1000.0 # This is 1 ps
include		in.seed
variable        seed equal 745823

units		real
atom_style	full
#include		in.box
read_restart	restart.lmp.${pid}
read_restart	restart.lmp.0
Reading restart file ...
  restart file = 30 Jul 2021, LAMMPS = 30 Jul 2021
  restoring atom style full from restart
  orthogonal box = (0.17445693 0.16201080 0.20324123) to (18.033115 23.467167 22.009955)
  2 by 4 by 4 MPI processor grid
  restoring pair style lj/cut/tip4p/long/omp from restart
  restoring bond style harmonic/omp from restart
  restoring angle style harmonic/omp from restart
  864 atoms
  576 bonds
  288 angles
Finding 1-2 1-3 1-4 neighbors ...
  special bond factors lj:    0        0        0       
  special bond factors coul:  0        0        0       
     2 = max # of 1-2 neighbors
     1 = max # of 1-3 neighbors
     1 = max # of 1-4 neighbors
     2 = max # of special neighbors
  special bonds CPU = 0.002 seconds
  read_restart CPU = 0.008 seconds
include 	in.setup
variable	out_freq equal 1000
variable	out_freq2 equal 10000
variable	out_freq3 equal 1000

timestep	2.0

neigh_modify    delay 7 every 1

include		in.tip4p
# This is TIP4P/Ice

# create groups ###
group ox type 2
288 atoms in group ox
group hy type 1
576 atoms in group hy

# set charges - beside manually ###
set group ox charge -1.1794
Setting atom values ...
  288 settings made for charge
set group hy charge 0.5897
Setting atom values ...
  576 settings made for charge

# ### TIP3P Potential Parameters ###
pair_style lj/cut/tip4p/long/omp 2 1 1 1 0.1577 8.5
pair_coeff 1 1*2 0.000 0.000
pair_coeff 2 2 0.21084 3.1668
bond_style  harmonic
bond_coeff  1 450 0.9572
angle_style harmonic
angle_coeff 1 55 104.52
kspace_style pppm/tip4p/omp 1.0e-5
pair_modify tail yes

thermo          ${out_freq}
thermo          1000
thermo_style    custom step temp pe etotal epair emol press lx ly lz vol pxx pyy pzz pxy pxz pyz enthalpy

restart 	${out_freq3} restart.lmp.${pid} restart2.lmp.${pid}
restart 	1000 restart.lmp.${pid} restart2.lmp.${pid}
restart 	1000 restart.lmp.0 restart2.lmp.${pid}
restart 	1000 restart.lmp.0 restart2.lmp.0


include         in.dump
dump            myDump all atom ${out_freq2} dump.water.${pid}
dump            myDump all atom 10000 dump.water.${pid}
dump            myDump all atom 10000 dump.water.0
dump            myDump2 all dcd ${out_freq2} dump.dcd
dump            myDump2 all dcd 10000 dump.dcd
dump_modify     myDump append yes
dump_modify     myDump2 append yes


variable natoms 	equal  "count(all)"                        # NUMBER ATOMS
variable H      	equal  "enthalpy/v_natoms"                 # ENTHALPY-per-atom
variable Vol      	equal  "vol/v_natoms"                 # volume-per-atom
fix AVG all 		ave/time ${out_freq} 1 ${out_freq} v_Vol v_H file vol_enthalpy.dat
fix AVG all 		ave/time 1000 1 ${out_freq} v_Vol v_H file vol_enthalpy.dat
fix AVG all 		ave/time 1000 1 1000 v_Vol v_H file vol_enthalpy.dat


timer           timeout 23:50:00 every 1000
New timer settings: style=normal  mode=nosync  timeout=23:50:00

fix 		1 all shake 1e-6 200 0 b 1 a 1
       0 = # of size 2 clusters
       0 = # of size 3 clusters
       0 = # of size 4 clusters
     288 = # of frozen angles
  find clusters CPU = 0.000 seconds
fix             2 all nph aniso ${pressure} ${pressure} ${pressureDamp}
fix             2 all nph aniso 2194.9 ${pressure} ${pressureDamp}
fix             2 all nph aniso 2194.9 2194.9 ${pressureDamp}
fix             2 all nph aniso 2194.9 2194.9 1000
fix             3 all temp/csvr ${temperature} ${temperature} ${tempDamp} ${seed}
fix             3 all temp/csvr 17.72 ${temperature} ${tempDamp} ${seed}
fix             3 all temp/csvr 17.72 17.72 ${tempDamp} ${seed}
fix             3 all temp/csvr 17.72 17.72 100 ${seed}
fix             3 all temp/csvr 17.72 17.72 100 745823


run             250000
PPPM initialization ...
  extracting TIP4P info from pair style
  using 12-bit tables for long-range coulomb (../kspace.cpp:340)
  G vector (1/distance) = 0.37230931
  grid = 24 27 25
  stencil order = 5
  estimated absolute RMS force accuracy = 0.003090199
  estimated relative force accuracy = 9.3060426e-06
  using double precision FFTW3
  3d grid and FFT values/proc = 4410 672
Last active /omp style is kspace_style pppm/tip4p/omp
Neighbor list info ...
  update every 1 steps, delay 7 steps, check yes
  max neighbors/atom: 2000, page size: 100000
  master list distance cutoff = 10.8154
  ghost atom cutoff = 10.8154
  binsize = 5.4077, bins = 4 5 5
  1 neighbor lists, perpetual/occasional/extra = 1 0 0
  (1) pair lj/cut/tip4p/long/omp, perpetual
      attributes: half, newton on, omp
      pair build: half/bin/newton/omp
      stencil: half/bin/3d
      bin: standard
Per MPI rank memory allocation (min/avg/max) = 10.21 | 10.22 | 10.23 Mbytes
Step Temp PotEng TotEng E_pair E_mol Press Lx Ly Lz Volume Pxx Pyy Pzz Pxy Pxz Pyz Enthalpy 
47250000     18.07133   -4706.8241   -4675.8505   -4706.8241            0    2294.9116    17.858659    23.305156    21.806713    9075.9285    2453.0664    2328.3632    2103.3052    229.45495    30.968807    301.72335   -4372.0888 
47251000    18.121528   -4709.0578   -4677.9982   -4709.0578            0    1865.5385    18.000951    23.098067    21.898307    9105.0356    1398.3144    2268.0543    1930.2467   -215.67326   -139.77727   -35.112733   -4430.2778 
47252000    18.339245   -4710.5561   -4679.1233   -4710.5561            0     2243.941    17.856825    23.329844    21.821143    9090.6214    2201.3356    2376.1988    2154.2887   -164.30895     139.3389    37.877954   -4381.6275 
47253000    17.878967   -4710.0039     -4679.36   -4710.0039            0     2305.867    17.929782    23.232001    21.810714    9085.1374    2246.0331     2368.663    2302.9051    63.975238   -115.08615    95.727582   -4373.8386 
47254000    16.784643   -4709.8576   -4681.0893   -4709.8576            0    2282.3663    17.851532    23.279771     21.87205    9089.5774     2381.778    2330.5863    2134.7346   -132.13556    226.52964    191.61875   -4378.5339 
47255000    17.626268    -4707.979   -4677.7682    -4707.979            0    2325.6508    17.923092    23.191464     21.86206    9087.2441    2343.7101     2402.566    2230.6764   -177.39702   -87.966608   -10.780957   -4369.5541 
47256000    17.609227   -4707.1824   -4677.0007   -4707.1824            0      2257.83    17.862147    23.262434    21.881979    9092.3345    2157.1336    2160.2687    2456.0877   -213.11033   -22.430813    178.42825   -4377.6071 
47257000    17.904404   -4709.6708   -4678.9833   -4709.6708            0    2122.6893     17.86385    23.295825    21.854595    9094.8584    2342.1206    2085.1906    1940.7567   -278.83976    106.77581   -79.192432   -4397.4315 
47258000    17.780132   -4707.4166   -4676.9421   -4707.4166            0     2277.416      17.9506      23.2195    21.800913    9086.7067    1917.4962    2418.4972    2496.2546    151.33691    68.375296     42.43025   -4375.1382 
47259000    18.257729   -4708.4126   -4677.1195   -4708.4126            0    1883.7568    17.907095    23.281121     21.84958    9109.0294    1734.6214    1715.4711    2201.1778   -157.18209   -156.03372    -54.06528   -4426.8702 
47260000    17.043786   -4706.4738   -4677.2613   -4706.4738            0    2436.1259    17.852222    23.271739     21.86713    9084.7484    2372.1363    2621.6521    2314.5893   -214.29629    189.68456    203.21292   -4354.4948 
47261000    18.405727   -4709.8157   -4678.2689   -4709.8157            0         2286    17.903475    23.192133    21.898963    9092.8825     2058.062    2438.9692    2360.9688   -15.971165   -32.248401   -17.520393   -4375.1217 
47262000    18.536215   -4706.5011   -4674.7307   -4706.5011            0    2200.5852    17.864873    23.261556    21.861365    9084.8127    2136.5538    2105.7479     2359.454   -148.50886    123.23894    63.223177   -4383.1693 
47263000    18.066929    -4708.003   -4677.0369    -4708.003            0    2224.1164    17.895816    23.228074    21.861882    9087.6635    2027.2421    2311.7207    2333.3864   -237.05983   -131.25892    124.53322   -4382.2653 
47264000    17.418939   -4709.9532   -4680.0977   -4709.9532            0    2277.5438    17.847878    23.273332    21.885349    9090.7273     2372.181    2265.4088    2195.0416    -346.3276   -77.890688    121.00022   -4378.1434 
47265000    17.875678   -4709.0769   -4678.4386   -4709.0769            0    2108.7501    17.872581    23.261394    21.886103    9098.9539    2207.3144    2094.2819     2024.654   -146.59227   -103.77102    150.32897   -4398.6098 
47266000    17.867728    -4708.692   -4678.0673    -4708.692            0    2257.8557    17.915754     23.29525    21.783247    9091.2811    2073.5679    2116.2077    2583.7916    187.68724    98.675894    72.748601   -4378.7049 
47267000    17.434835   -4707.5549   -4677.6722   -4707.5549            0    2127.2583    17.869446    23.290758    21.845076    9091.7668    2097.0186    1884.6468    2400.1094   0.33462006   -101.94237    2.1760375   -4395.6103 
47268000    17.966997   -4711.5212   -4680.7264   -4711.5212            0    2173.1413    17.913938    23.212368    21.873439    9095.5209    2173.2732    2350.9957     1995.155   -254.53872    120.90974    -67.19377   -4392.4617 
47269000    17.277475   -4707.5092   -4677.8962   -4707.5092            0    2179.4329    17.883156    23.251268    21.864627    9091.4443     2105.807     1998.043    2434.4486   -236.27381   -222.16791   -3.3582372   -4388.9266 
47270000    17.324151   -4709.0071   -4679.3141   -4709.0071            0    2039.4312    17.879385      23.1988    21.938813    9099.7869    1998.8787    2283.2777    1836.1372    230.62199     242.4275    5.4489092   -4408.6591 
47271000    17.314708   -4709.1969   -4679.5201   -4709.1969            0    2289.4751    17.888935     23.21485    21.861129    9078.6853    2125.3144    2616.6145    2126.4966   -253.49022   -174.06723    130.75886    -4376.386 
47272000    18.308797   -4708.4492   -4677.0686   -4708.4492            0    2200.4262    17.792725    23.284869    21.950973    9094.3159    2469.5911    2080.5435    2051.1439    316.71774   -152.66425     159.9762   -4385.2232 
47273000    17.679553   -4710.3276   -4680.0255   -4710.3276            0     2130.465    17.840966    23.276348    21.906601    9097.2095    2089.6478    2148.5803    2153.1668   -363.11791   -122.35565    39.911911   -4397.3693 
47274000    19.190319    -4708.041   -4675.1494    -4708.041            0    2307.8379     17.85546    23.249946    21.886694    9086.0089    2161.2057    2755.1482    2007.1598  -0.90735606   -134.04632    218.93019   -4369.3375 
47275000    17.675265   -4708.6227   -4678.3279   -4708.6227            0    2067.9672    17.929579    23.245875     21.82486     9096.356    1757.3634    2157.6188    2288.9196    216.12265     123.2393   -45.080915   -4403.9893 
47276000    18.067432   -4707.0095   -4676.0425   -4707.0095            0    2224.4595    17.918901    23.215239    21.842509    9086.2996    2071.3955    2417.3671     2184.616   -83.250162   -270.18155    173.76403   -4381.2697 
47277000    17.549936   -4707.0945   -4677.0146   -4707.0945            0    2380.8401    17.825516    23.258452    21.907858    9082.8649    2770.8615    2252.7135    2118.9454   -136.34825    115.43176    103.67946   -4361.6383 
47278000    16.990428   -4708.2751    -4679.154   -4708.2751            0    2242.7936    17.865939    23.271116     21.85762    9087.5315    2311.7982     1894.811    2521.7717    -25.32558   -64.807867   -23.580113   -4381.9114 
47279000    17.419504   -4710.8762   -4681.0197   -4710.8762            0    2311.2324    17.801298    23.310897    21.902183    9088.6223    2546.4264    2032.6329    2354.6379    32.272496   -10.919931    14.207995     -4374.67 
47280000    18.879963   -4709.8324   -4677.4728   -4709.8324            0    2096.8972    17.821168    23.302134    21.894842    9092.2983    2085.7089    1954.6783    2250.3045   -55.739531    43.043178    84.414712   -4399.4204 
47281000    18.663956   -4708.1844    -4676.195   -4708.1844            0    2238.1038    17.854871    23.309489    21.854065     9095.398    2220.9345    2316.3026    2177.0742   -71.725255   -320.38317    135.01644   -4379.3171 
47282000    17.638152   -4707.5626   -4677.3314   -4707.5626            0    2176.4766    17.791525    23.290727    21.935918    9089.7517    2617.2972    2145.8908    1766.2417    119.36023    40.456531    121.57898   -4388.8074 
47283000     18.41619   -4709.9371   -4678.3723   -4709.9371            0    2077.0892    17.947849    23.218701    21.820315    9093.0869    1870.2383    1803.7387    2557.2906   -189.70659   -178.86095    138.41969   -4402.9226 
47284000    17.407942   -4709.7272   -4679.8906   -4709.7272            0    2131.7461    17.868497    23.247531    21.907869    9100.4947    2290.8871    2136.2169    1968.1343   -12.404261   -31.418951     64.74894   -4396.9623 
47285000    16.969495    -4710.149   -4681.0639    -4710.149            0    2210.0922     17.89165    23.215278    21.887105    9091.0199    2192.7741    2384.7314    2052.7712   -18.094804   -47.986175   -65.553627   -4388.0428 
47286000    16.876955   -4708.8055    -4679.879   -4708.8055            0    2301.1511    17.913124    23.240182    21.842261     9093.026    2043.7305    2106.7763    2752.9466   -107.85206   -54.687989    139.75434   -4374.7177 
47287000    17.992597   -4708.3993   -4677.5606   -4708.3993            0    2175.4065    17.816574    23.279398    21.917842    9090.6248    2579.7093     2002.849    1943.6611    155.74485    333.31794   -73.018867   -4389.1508 
47288000    17.741595   -4709.0568   -4678.6484   -4709.0568            0    2238.7194    17.907248    23.235149    21.868339    9098.9255     2372.613    1925.7831    2417.7621   -53.943248   -304.25555     208.4815   -4381.5737 
47289000     18.90205   -4711.4873   -4679.0898   -4711.4873            0    2182.6015    17.895974     23.34995    21.764017    9094.5319    2259.6536    1939.5154    2348.6355   -37.175864    215.28568   -325.62226   -4389.6017 
47290000    17.232078   -4708.1236   -4678.5884   -4708.1236            0    2341.4411    17.903642     23.26598    21.812646    9085.9654    2220.3372    2372.7852    2431.2011   -139.27267    11.808471    117.25989   -4368.3253 
47291000    17.980913   -4710.5091   -4679.6904   -4710.5091            0    2240.5539    17.949696    23.114382    21.922079    9095.3852    1802.3848    2650.4002    2268.8768    76.492487    173.70345    63.335162    -4382.488 
47292000    18.269411    -4710.073   -4678.7598    -4710.073            0    2112.7905    17.926859    23.179578    21.890767     9096.424    1733.0817    2488.6428    2116.6471   -86.093961   -55.241368    303.41104   -4398.4728 
47293000    17.608726   -4708.0842   -4677.9034   -4708.0842            0    2252.8321    17.910062    23.293471    21.781816    9087.1015    2110.0747    2290.3726    2358.0489   -208.69998    27.696988    17.338989   -4379.3445 
47294000    17.643072   -4708.1274   -4677.8878   -4708.1274            0    2242.0174    17.887129    23.204091    21.898098    9088.9056    1976.9231    2542.6184    2206.5105    20.433097   -20.459434    209.50011   -4380.7031 
47295000    16.650502   -4710.9995   -4682.4611   -4710.9995            0    2082.0495     17.93073    23.301704    21.792908    9105.4378    1723.9961    2233.9034    2288.2489    259.94014    31.028053    1.3993579   -4405.9786 
47296000     18.26055   -4708.3197   -4677.0217   -4708.3197            0     2062.954    17.838425    23.296693    21.895725    9099.3449    1910.8327    2303.0962    1974.9331   -61.049646   -253.96731   -171.02697   -4403.2582 
47297000    17.826538   -4710.6552   -4680.1011   -4710.6552            0    2001.7614    17.876848    23.268469    21.872522    9098.2452    2157.5281    2053.3889    1794.3672    -247.0958    99.825939    121.41159   -4414.4903 
47298000    17.523128   -4707.8343   -4677.8002   -4707.8343            0    2366.9255    17.888434    23.288702    21.812422    9087.0206    2604.6653    2029.0637    2467.0474    124.75568    174.49403    -156.6292   -4364.1237 
47299000    18.110409   -4709.5484   -4678.5078   -4709.5484            0    2110.5113    17.941681    23.270334    21.779639    9093.1932    1892.1395     1911.825    2527.5694    42.551283   -111.22531    128.59824   -4398.6225 
47300000    18.474606   -4711.1748     -4679.51   -4711.1748            0    2211.8093    17.892299    23.195285    21.900112    9088.9184    2109.9466    2328.2833    2197.1981    -37.37987   -112.93623    150.56246    -4386.329 
47301000    18.310229   -4708.5553   -4677.1722   -4708.5553            0    2033.8371    17.814977     23.30103    21.904907    9092.8871    2160.5236    2028.4882    1912.4994   -283.08221    20.900972    33.379328   -4407.4642 
47302000     17.70137   -4709.4348   -4679.0953   -4709.4348            0    2205.2637    17.898745    23.253348    21.834003    9087.4378    2048.4221    2417.6706    2149.6985  -0.15808614    -16.54868    65.121756   -4386.8295 
47303000    17.876545   -4710.4134   -4679.7736   -4710.4134            0    2258.7637    17.866839    23.298189    21.837638    9090.2443    2288.3775    1950.8648    2537.0487   -469.41986   -56.825622    308.70054    -4380.325 
47304000    17.951645   -4707.5298   -4676.7613   -4707.5298            0    2183.8763    17.815792    23.268277    21.937517    9094.0389    2358.6241    2278.8816    1914.1231    43.215324   -79.311273  -0.59275259   -4387.1199 
47305000    18.045303   -4709.7439   -4678.8148   -4709.7439            0    2198.2635    17.827339    23.303846    21.894065    9095.7918     2274.981    2299.2123    2020.5972    -273.6155   -30.367027    155.61619    -4387.209 
47306000    17.994922   -4705.7919   -4674.9492   -4705.7919            0    2320.1661    17.822623    23.295116    21.891816    9089.0459    2288.3477    2292.7558    2379.3947    59.817212    18.806786   -25.502497    -4367.401 
47307000    17.698275   -4708.3764   -4678.0421   -4708.3764            0    2304.5088    17.839176    23.281577    21.884985    9089.3627    2291.1426    2265.9856    2356.3984   -11.638338   -46.547741     32.70549   -4372.5587 
47308000    17.691122   -4708.8777   -4678.5557   -4708.8777            0    2167.0968     17.89334     23.27871    21.829407     9092.688    2025.8835    2151.3202    2324.0866   -148.50462    159.42629      113.949   -4391.1823 
47309000    17.935437   -4709.3491   -4678.6084   -4709.3491            0    2101.8045    17.827942    23.263759    21.927614     9094.367    2327.5673    2063.4277    1914.4185    171.71024   -92.460871   -120.96563   -4399.8419 
47310000    16.997813   -4709.8634   -4680.7297   -4709.8634            0     2432.984     17.92854    23.221419    21.811247    9080.5922    2316.2783    2471.4188    2511.2548   -233.33002    53.069817    228.92081   -4358.5269 
47311000    17.685718   -4709.2116   -4678.8989   -4709.2116            0    2173.0235    17.860217    23.260684    21.887833    9093.1006    2327.3688    1908.4796    2283.2222   -32.802834   -159.48834   -183.36751   -4390.7265 
47312000    17.605593   -4707.6059   -4677.4305   -4707.6059            0    2409.0641    17.845581    23.252738    21.898344    9086.9065    2469.0854    2419.2516    2338.8554    166.91814    94.827665    159.21543   -4358.1736 
47313000    17.310868   -4705.7888   -4676.1186   -4705.7888            0    2171.3064    17.865572    23.278994    21.872926    9096.7869      2202.47    1940.8549    2370.5943    278.98982   -57.940138   -50.953683   -4388.0572 
47314000    17.611021   -4708.9848   -4678.8001   -4708.9848            0     2377.451    17.769541    23.275557    21.966438    9085.2302    2744.2854    2361.2876      2026.78   -84.944298   -99.900257     183.1524   -4363.7908 
47315000    17.672226   -4711.1391   -4680.8495   -4711.1391            0    2264.6059    17.875825    23.254478    21.869664    9091.0657    2299.4081     2127.944    2366.4655    50.056807   -236.09623    113.48207   -4380.5993 
47316000    18.502564   -4708.1808   -4676.4681   -4708.1808            0    2177.7267    17.812609    23.356533    21.862656     9095.757    2394.3548    1938.9402     2199.885    49.648954    49.021307    185.84585   -4387.5876 
47317000    16.895225   -4710.1469   -4681.1891   -4710.1469            0    2227.2919     17.92042    23.219635    21.844051    9089.4322    2076.0506    2321.7723     2284.053    -136.7338   -139.29607   -147.82239   -4385.9391 
47318000    16.778246   -4707.5425   -4678.7851   -4707.5425            0    2260.7521    17.882741    23.252008    21.858745    9089.0772    2089.9182    2355.2431    2337.0951    194.56407   -9.2067001    265.68801   -4379.1114 
47319000    16.650271   -4710.0279     -4681.49   -4710.0279            0    2087.1025    17.867784    23.203003    21.928657    9091.3195    2227.0314    2156.2003    1878.0757    -186.7688    52.448605   -2.3563205   -4404.7661 
47320000    17.861415   -4708.1941   -4677.5803   -4708.1941            0    2340.9426    17.853076    23.287272    21.849188    9083.7878    2304.0708    2427.1569    2291.6001    340.41983   -169.23617    195.41624   -4367.4575 
47321000    17.821913   -4709.5644   -4679.0183   -4709.5644            0    2124.7823    17.886693     23.24047    21.870587    9091.4971    2154.3867    2235.6523    1984.3078   -214.20353   -106.59138      128.328    -4397.293 
47322000    17.971029   -4705.0092   -4674.2075   -4705.0092            0    2368.6424    17.871279    23.265835    21.838994    9080.4399    2490.5247    2362.9752    2252.4274    14.086598   -115.26727    106.98966   -4360.5308 
47323000    17.232369   -4710.4754   -4680.9398   -4710.4754            0     2315.869    17.867362    23.304452    21.827478    9088.7235    2358.1276    2089.9497    2499.5296    167.70773    57.835845    100.22356    -4373.972 
47324000    17.410037   -4709.2794   -4679.4392   -4709.2794            0    2243.3773    17.850555    23.287131    21.872333    9092.0709    2404.4392    2134.8046    2190.8881    88.079444     -127.938   -25.444786   -4381.9707 
47325000    18.642009   -4710.6055   -4678.6537   -4710.6055            0    2154.6705    17.851297    23.298099    21.857276    9090.4694    2222.1883    2021.9415    2219.8817   -175.20173   -45.496959    209.37246   -4392.9979 
47326000    17.757522   -4710.0064   -4679.5706   -4710.0064            0    2201.4069     17.85461    23.348407    21.810851    9092.4357    2189.3296    1878.1911    2536.6999     10.89986   -95.760902   -85.443772   -4387.6556 
47327000    16.951215   -4708.9965   -4679.9427   -4708.9965            0    2147.0685    17.956063    23.172954    21.852657    9092.7818    1737.6171    2408.6264     2294.962    19.346935   -69.944855    186.33275   -4395.2223 
47328000     19.32437   -4708.6028   -4675.4815   -4708.6028            0    2111.4523    17.921703    23.220749    21.857598    9096.1564    2195.5593    2144.1259    1994.6716    45.269307   -24.435645   -158.54909   -4395.3802 
47329000    18.489107   -4710.3618   -4678.6721   -4710.3618            0    2309.4337      17.8625    23.226398    21.881342    9078.1647    2322.4417    2258.0792    2347.7802   -249.04284   -123.92039    79.476295    -4372.913 
47330000    18.718578   -4707.6484   -4675.5654   -4707.6484            0    2216.8644    17.961661    23.163082     21.85374    9092.1925     1970.372    2402.0842    2278.1371    -424.1312   -143.27349    68.270367   -4381.6085 
47331000    17.684265   -4708.5666   -4678.2563   -4708.5666            0    2253.8288    17.889344    23.192598    21.900374    9086.4732    2166.5039    2291.5317    2303.4507    25.925717    169.45506    128.76764   -4379.5859 
47332000    17.301208   -4709.9748   -4680.3211   -4709.9748            0    2134.1907    17.891846    23.257378    21.850276    9092.2802    2081.0314    2242.8288     2078.712    135.04509    8.8859223   -2.2492474   -4397.3241 
47333000    17.162012   -4709.6608   -4680.2457   -4709.6608            0    2201.2697    17.870601    23.281091     21.83794    9085.6111    2057.3168     2283.598    2262.8942   -226.67191   -193.90272    35.933401   -4388.5679 
47334000    18.629014   -4708.1617   -4676.2322   -4708.1617            0    2067.1771    17.864917    23.268036    21.886761    9097.9222    1923.8637    2120.8453    2156.8222    148.39656     61.87168    18.014419   -4401.9512 
47335000    17.961911   -4709.0981    -4678.312   -4709.0981            0    2102.5441    17.903177    23.193046    21.895535    9091.6658    1910.5602    2438.4079     1958.664   -160.24532   -84.442284   -41.252673   -4399.5302 
47336000    18.029663   -4709.5173    -4678.615   -4709.5173            0    2079.2066    17.875051    23.240477    21.895138    9095.7817    2176.9793    2205.5055     1855.135   -434.01677   -211.81813    200.44196   -4402.8028 
47337000      17.6349   -4709.8545   -4679.6289   -4709.8545            0    2151.5875    17.913505    23.213751    21.855014    9088.1815    2124.3259    2248.6835    2081.7531   -3.1166807   -7.8138567    29.991369   -4394.4536 
47338000    18.986883   -4709.8162   -4677.2733   -4709.8162            0    2262.2168    17.948547    23.237479    21.786213    9086.5719     2107.013    2206.0598    2473.5776   -436.52336   -167.98832    101.49041   -4377.4882 
47339000    16.936856   -4710.0942    -4681.065   -4710.0942            0    2187.8331    17.854862    23.296992    21.862924    9094.2019    2343.5917    2035.3682    2184.5394  -0.01271131    43.739939    56.221613   -4390.8936 
47340000    18.482469   -4709.9855   -4678.3072   -4709.9855            0    2163.7014    17.861855    23.289952    21.852927    9090.8555    2129.6898    1852.3044    2509.1101   -41.042605   -151.38808    153.83454   -4391.4419 
47341000    16.687522   -4709.5609   -4680.9591   -4709.5609            0    2288.5573    17.809219    23.359911    21.837946    9085.0608     2480.478    2161.5074    2223.6865   -120.26282    89.289766   -113.87146   -4377.7337 
47342000    18.972794   -4709.9643   -4677.4455   -4709.9643            0    1981.4649    17.849791    23.222074    21.962215    9103.5395     2042.449    2102.6434    1799.3023    203.24588    116.35857    34.742999   -4414.3748 
47343000    17.270175   -4709.3402   -4679.7397   -4709.3402            0    2180.7835    17.845234    23.282049    21.890269    9094.8286    2425.2444    2114.5795    2002.5267   -313.95725    104.41773    215.63663   -4390.4833 
47344000    16.684697   -4708.0755   -4679.4785   -4708.0755            0     2176.229    17.895225    23.254236    21.853312     9094.033    2201.4701    2277.0013    2050.2158   -171.86223   -72.039865    79.952846   -4390.8515 
47345000    17.294596   -4709.2638   -4679.6214   -4709.2638            0     2110.374    17.869528    23.276202    21.873518    9097.9558    2183.7938    2014.5301    2132.7979     144.2565   -90.099746     86.59408   -4399.6078 
47346000    17.728329   -4708.0308   -4677.6451   -4708.0308            0    2162.0649    17.848844    23.258317     21.91066    9095.8616    2216.6047     2242.848    2026.7419   -194.44166     105.0351    393.66387   -4390.8389 
47347000     17.70286   -4708.8825   -4678.5404   -4708.8825            0    2347.7865      17.9095    23.275565    21.801667    9088.1065     2097.248    2294.8906    2651.2211    178.19425   -76.636472   -52.119073   -4367.3631 
47348000    16.836994   -4709.5385   -4680.6804   -4709.5385            0    2276.6189    17.856968    23.273364    21.867167    9087.8133    2257.2687    2215.2834    2357.3047   -49.769004    52.273071    3.7659208   -4378.9455 
47349000    17.515487   -4708.7553   -4678.7344   -4708.7553            0    2112.1335    17.878134    23.287775    21.844055    9094.5969    1803.3424    2185.1516    2347.9065   -276.19931     -80.8393    76.826893   -4398.5908 
47350000    17.380233   -4710.5529   -4680.7638   -4710.5529            0    1997.9887    17.910779    23.225912    21.870041    9097.8096    1803.2363     2140.288    2050.4419    119.96768    41.151895    125.75186   -4415.6662 
47351000    17.552459   -4711.5641   -4681.4798   -4711.5641            0     2119.464    17.845985    23.328441    21.844417     9094.246    1933.7847    2144.0795    2280.5277   -55.499533    -313.3357    38.619616   -4400.3748 
47352000    18.587723   -4709.5256   -4677.6669   -4709.5256            0    2128.6536    17.852022     23.29571    21.868575    9094.6051    2201.0697    2292.0558    1892.8351    -312.2175    136.56156    128.65737   -4395.3319 
47353000    17.801494   -4708.1285   -4677.6174   -4708.1285            0    2214.4558    17.782454    23.390055    21.856677     9090.904    2398.9144    2181.0344    2063.4184   -214.24946    81.033768   -110.73498   -4384.0215 
47354000    18.063012   -4710.0917   -4679.1323   -4710.0917            0    2321.8779    17.870123    23.291047    21.829999     9085.949    2418.9267    2166.9045    2379.8026   -300.24364    -37.28661    -136.2041    -4371.462 
47355000     18.03846   -4708.5126   -4677.5953   -4708.5126            0    2185.8468    17.906155    23.185317    21.910431    9096.3322     2069.396    2326.5966    2161.5476   -26.009699   -10.392661    6.7320918   -4387.6194 
47356000     17.17143   -4709.9718   -4680.5406   -4709.9718            0    2291.8335    17.890097    23.168829    21.929018     9089.416    2455.3495     2359.692     2060.459    174.58607     34.94225    65.707084   -4376.7356 
47357000    16.928244   -4709.0325   -4680.0181   -4709.0325            0    2177.3374    17.913852    23.252757     21.83279    9094.3715    1994.6249     2213.355    2324.0324   -467.10475    3.8792913   -22.675322   -4391.2333 
47358000     18.00617   -4709.2759   -4678.4139   -4709.2759            0    2212.5237    17.912417    23.219538    21.857012    9090.7257    2143.0672      2359.92    2134.5837    403.23486   -29.525275    128.03896   -4385.0799 
47359000    17.750025   -4709.2025   -4678.7795   -4709.2025            0     2275.195    17.843473    23.273326    21.872084    9082.9728    2323.4218      1944.83    2557.3331     79.50112    -45.34807   -51.546277   -4377.3939 
47360000    17.451021   -4709.6018   -4679.6914   -4709.6018            0    2295.5241    17.855836    23.292535    21.846405    9086.0878    2367.1617    2170.4061    2349.0044    30.549062   -28.613678    42.064151   -4375.5085 
47361000    17.311123   -4707.3125   -4677.6418   -4707.3125            0    2322.5289    17.901221     23.21934    21.861237    9086.7227    2209.1621     2433.269    2325.1555   -182.00949   -52.942477    81.013572   -4369.8591 
47362000    18.197889   -4710.0411   -4678.8505   -4710.0411            0    2247.4243    17.899395    23.233828    21.853052     9088.061    2249.4235    2262.5544     2230.295    250.17885    40.135691    92.954144   -4380.9768 
47363000    17.418217   -4708.9976   -4679.1434   -4708.9976            0     2203.536    17.836499    23.257356    21.907644    9087.9436     2257.866    2387.2998    1965.4423   -89.839079   -77.087819    103.63901   -4387.0904 
47364000    18.942837    -4708.599   -4676.1316    -4708.599            0    2282.6778    17.948672    23.148985    21.887468    9094.1014    1893.7516    2557.4037    2396.8781    -71.29722      132.744   -176.03141   -4373.3843 
47365000    18.044253     -4708.01   -4677.0827     -4708.01            0    2217.8498    17.881774    23.308444    21.817477    9093.4445    2235.5297    1862.5304    2555.4894   -335.45923    25.425366    21.030921   -4382.9547 
47366000    17.272179   -4709.4567   -4679.8528   -4709.4567            0    2305.1048    17.844691    23.273606    21.888874    9090.6749     2511.198    2236.0979    2168.0186   -150.08664   -136.55034   -224.86356   -4374.2462 
47367000    17.350498   -4710.6486   -4680.9105   -4710.6486            0    2248.6112    17.872557    23.230675    21.893449    9089.9755    2337.1299    2496.3292    1912.3745   -169.60084    64.824191    39.096134   -4382.8167 
47368000    17.144349   -4709.4619    -4680.077   -4709.4619            0    2204.2448    17.844594    23.294961    21.862115    9087.8431    2287.1474    2148.9822    2176.6047    264.09712    120.35625   -10.280051   -4387.9333 
47369000     18.19928   -4708.9872   -4677.7942   -4708.9872            0    2263.0335     17.91943    23.230966    21.839299    9091.3869    1977.4398    2547.2206      2264.44    82.425678   -331.73286    76.422107   -4377.7419 
47370000    17.825897   -4710.7624   -4680.2095   -4710.7624            0    2138.1927    17.876793    23.306249    21.833238    9096.6219    2046.4725     2153.411    2214.6946    113.85179    237.20386    63.638354   -4396.5463 
47371000    17.059118   -4709.0516   -4679.8129   -4709.0516            0    2258.9252    17.814105    23.331583    21.880664     9094.288    2497.7769    2059.1909    2219.8077   -45.167665    126.49455   -52.799427   -4380.2097 
47372000    18.687078   -4708.9805   -4676.9515   -4708.9805            0    2042.4371    17.842667    23.281737    21.909019    9101.1875    2200.4877    2041.6944    1885.1291   -24.158323    38.163518   -121.16307   -4405.8558 
47373000    16.845887   -4709.3745   -4680.5012   -4709.3745            0    2275.9007    17.833548    23.253195    21.929409      9093.84    2313.2469    2247.6945    2266.7607    31.959684   -14.671826    208.77632   -4378.6614 
47374000    18.172362    -4708.365   -4677.2182    -4708.365            0    2289.8099    17.870031    23.259089    21.872408    9091.0613    2232.6963    2512.5886    2124.1449   -121.33374    118.65888   -85.239824   -4373.6265 
47375000    18.068351    -4707.517   -4676.5484    -4707.517            0    2210.7482    17.934971    23.185351    21.868259    9093.4477    1947.0147    2377.3921    2307.8376   -249.71229   -24.939415    35.397615   -4383.3621 
47376000    17.993905   -4709.6293   -4678.7884   -4709.6293            0    2130.9481    17.906786    23.258428    21.835685    9094.2068    2111.4477    2011.4179    2269.9787    156.02281    93.072034    58.921202   -4396.1614 
47377000    18.561317   -4710.1577   -4678.3442   -4710.1577            0    2290.8175    17.877764    23.207502    21.895517    9084.4116     2269.156     2079.963    2523.3335    26.366786   -77.641215    169.11707   -4374.8411 
47378000    18.003601   -4709.1691   -4678.3115   -4709.1691            0    2156.0721    17.810185    23.374835    21.832321    9089.0169    2333.4122    1993.7179    2141.0861   -338.33585    64.797171    127.30124   -4392.5155 
47379000    18.527406   -4708.8738   -4677.1185   -4708.8738            0    2208.7289    17.898814    23.216945    21.869258    9087.8962    2137.4463    2374.0921    2114.6485    292.33662   -154.29852    186.43059   -4384.3788 
47380000    17.603896   -4710.8905    -4680.718   -4710.8905            0    2110.7298     17.82718    23.394471     21.81132    9096.5736    2064.1865    1827.1853    2440.8177   -207.47177   -133.19564   -71.531773   -4400.6998 
47381000    17.429321   -4710.9004   -4681.0272   -4710.9004            0    2205.2128    17.848532    23.314173    21.856192    9094.8813    2522.7171     2168.539    1924.3823   -133.27608    115.61108    102.09601   -4388.5288 
47382000    17.663087   -4707.4634   -4677.1895   -4707.4634            0    2267.2996     17.82062    23.294132    21.908182    9094.4337    2661.7043    2186.1491    1954.0453     329.0855   -77.326107    81.478693   -4376.4707 
47383000    17.346868   -4710.0162   -4680.2843   -4710.0162            0    2222.2958    17.855063    23.281544    21.861667    9087.7514    2527.0548     1757.722    2382.1107   -185.29121   -216.58028    102.94443   -4385.7511 
47384000    17.654765    -4711.537   -4681.2773    -4711.537            0    2016.2287    17.902839    23.236236    21.895679    9108.4843    2152.3434    1797.2849    2099.0577   -3.5289841   -129.63158    59.113723   -4413.4458 
47385000    17.393273   -4710.9098   -4681.0983   -4710.9098            0    2183.0816    17.919448    23.229651     21.83728    9090.0416    2020.6822    2358.7861    2169.7765    -23.08694   -4.7743093    112.56808   -4391.6895 
47386000    17.423671   -4708.4654   -4678.6018   -4708.4654            0    2505.0679    17.849467    23.261622    21.860469    9076.6322     2582.588     2565.013    2367.6028    53.298128    80.863915    88.417626   -4346.9976 
47387000    17.274603   -4710.2564   -4680.6483   -4710.2564            0    2017.4319    17.871829    23.286392    21.851107    9093.7843    2116.1767     1789.415    2146.7039    80.112707   -173.34785    5.7235476   -4413.0894 
47388000    18.246896   -4708.8532   -4677.5787   -4708.8532            0    2330.1803    17.822655    23.247948    21.927905    9085.6118    2511.7593    2289.0512    2189.7303   -154.61851    -32.93773    22.958488   -4368.8197 
47389000    16.694556   -4710.4778   -4681.8639   -4710.4778            0    2158.8794    17.890104    23.221335    21.892077    9094.6717    2293.6807    2181.4077    2001.5497   -140.68635   -32.815606    22.968854   -4395.5178 
47390000    17.242259   -4709.5362   -4679.9835   -4709.5362            0    2231.7345    17.914333    23.285089     21.80556    9095.9018     1874.541    2072.4668    2748.1956   -268.31183    55.601467    127.65749   -4383.9341 
47391000    17.960975    -4712.029   -4681.2445    -4712.029            0    2253.7438    17.852333    23.288704    21.861748    9089.1899    2301.6836    2263.2474    2196.3003   -298.19124   -156.71011    -223.4728   -4382.4961 
47392000    16.815526   -4708.9698   -4680.1485   -4708.9698            0    2083.0265    17.865571    23.190638      21.9594    9098.0864     2154.777    2383.9295     1710.373   -90.064687    8.0314033    139.88143   -4403.7595 
47393000    16.792019   -4708.3702   -4679.5892   -4708.3702            0    2115.1769    17.856453    23.263399    21.899129    9096.9373    2319.8742    2017.3744    2008.2821   -427.31598   -212.95324   -23.184808   -4398.9698 
47394000    18.099773   -4710.5066   -4679.4842   -4710.5066            0    2189.4387    17.908993    23.228704     21.84871    9089.1226    2027.3399    2506.4385    2034.5376    271.57443    32.445809   -14.800918    -4389.262 
47395000    18.253644   -4708.3391    -4677.053   -4708.3391            0     2155.001    17.878125    23.294726     21.83738    9094.5268    2011.3455    1991.6856     2461.972   -235.10771   -26.967019    88.380724   -4391.2258 
47396000    17.666385   -4710.0798   -4679.8002   -4710.0798            0    2240.2609    17.856085    23.319444    21.824867    9087.7436    2406.3966    2030.8872    2283.4988   -35.021048   -296.02277    140.02928   -4382.8863 
47397000     17.07923   -4710.6206   -4681.3473   -4710.6206            0    2021.0128     17.92882    23.202223    21.879015    9101.4184    1718.1812    2362.2946    1982.5627    15.946335    99.627014    113.50458   -4413.0885 
47398000      16.7747   -4709.1813     -4680.43   -4709.1813            0    2475.5489    17.750805    23.311363    21.934616    9076.4441    2748.7889     2488.762    2189.0957   -221.16179    132.16156    272.69022   -4352.7401 
47399000    18.812117   -4708.8099   -4676.5666   -4708.8099            0    2218.6081     17.89176    23.227638    21.875528    9091.1042    2232.8266    2268.3454    2154.6524    25.492525   -109.19242   -14.622318   -4382.4137 
47400000    17.557048   -4709.7557   -4679.6635   -4709.7557            0    2305.8088    17.927269    23.251157    21.804819    9088.8975    1954.9652    2424.1157    2538.3457   -187.48606    88.177087    103.77197   -4374.0234 
47401000    17.869633    -4708.443   -4677.8151    -4708.443            0    2177.8156    17.854414    23.269168    21.899691    9098.3878    2436.7218    1835.4589    2261.2661    -51.65601   -22.836617    129.88431   -4388.8393 
47402000    16.337159   -4709.0748   -4681.0735   -4709.0748            0    2214.1428    17.851347    23.306982    21.860797    9095.4257    2476.3176     2170.798     1995.313    141.16529   -80.373925    98.981265   -4387.3731 
47403000    17.663586   -4709.1007   -4678.8259   -4709.1007            0    2174.8079    17.925087      23.2577    21.812354    9093.4898    2176.8934    2137.4075    2210.1228   -98.426274   -114.34544    197.31134   -4390.4046 
47404000    16.772081    -4709.438   -4680.6912    -4709.438            0    2072.0911      17.8663    23.242826    21.901454    9094.8702    1953.8633    2062.1219    2200.2881   -50.492201    127.65629    85.850205   -4405.8504 
47405000     17.71748    -4708.923   -4678.5558    -4708.923            0    2204.9442    17.876856    23.190146    21.938429    9094.9463    2140.8479    2577.8849       1896.1    -77.42118   -118.54845    43.388005    -4386.091 
47406000    16.574167   -4710.2134   -4681.8058   -4710.2134            0    2300.6412    17.913174    23.162733    21.917683    9094.0426    2186.9893     2397.411    2317.5232   -334.92746    12.172417    260.87421    -4376.678 
47407000    17.317158   -4709.4538   -4679.7727   -4709.4538            0    2049.4848     17.82603    23.289698    21.899441    9091.8348    2226.0253    2165.3096    1757.1195     150.4309   -80.118197     58.08324   -4408.0211 
47408000    18.078643   -4711.0334   -4680.0473   -4711.0334            0    2238.3458    17.884994    23.239401    21.874586    9091.8772    2129.7211    2217.8374     2367.479   -98.304865    23.327937     20.13565   -4383.2522 
47409000    17.500078   -4709.3822   -4679.3877   -4709.3822            0    2150.8382    17.873768    23.286143    21.850661    9094.4877    2271.6724    1877.7685    2303.0736     113.4334    15.220884   -90.578192   -4394.1139 
47410000    19.071747   -4710.2646   -4677.5763   -4710.2646            0    2157.3468    17.925774     23.28456     21.79899    9098.7624    2128.9608    1891.1063    2451.9734   -121.13945   -121.12539    210.28269   -4391.3047 
47411000      17.1126   -4710.7027   -4681.3722   -4710.7027            0    2178.9057    17.907035    23.212099    21.870446    9090.6669    2156.5069    2617.6877    1762.5224   -312.06557   -53.246407   -55.639658   -4392.4972 
47412000    17.471182    -4709.386    -4679.441    -4709.386            0    2132.9598     17.95404    23.200737    21.838611    9096.8067    2042.2989     2067.072    2289.5085    105.43638   -191.45377    144.49153   -4396.4663 
47413000    17.569781   -4708.0852   -4677.9712   -4708.0852            0    2337.8932    17.931742    23.134002    21.900759    9085.1566    2265.5652    2427.7235     2320.391   -57.557021     72.08715    141.97829   -4368.2057 
47414000    17.801076   -4710.7732   -4680.2627   -4710.7732            0    2164.7709     17.92389    23.221996    21.858223    9098.0156    2052.9111    2213.5538    2227.8477    -3.256875   -238.97184    112.38025   -4393.0296 
47415000    17.818504   -4709.6883    -4679.148   -4709.6883            0    2150.6357    17.925828    23.231263    21.833282    9092.2438    1930.8668    2322.7859    2198.2544   -180.77824    85.371696    199.28002   -4393.9714 
47416000    18.202481   -4709.2067   -4678.0083   -4709.2067            0    2217.5402    17.811686    23.335172    21.869714    9089.9003    2325.5907    1835.5805    2491.4493    48.769473   -79.603542    187.65517   -4384.0359 
47417000    15.961841    -4708.285    -4680.927    -4708.285            0    2342.6813    17.840795    23.340347    21.822244    9087.0082    2557.2991    2192.8485    2277.8964     271.9577    49.513301   -38.440218   -4370.4639 
47418000    19.054081   -4709.3323   -4676.6742   -4709.3323            0    2339.7048    17.930957    23.257594    21.790704    9087.3975    2103.3459    2196.3711    2719.3973    -156.6238   -3.5938023    136.35171   -4366.5923 
47419000    18.164536   -4708.4583   -4677.3249   -4708.4583            0    2003.8497    17.817389    23.281475    21.928463    9096.2575    1901.1273    1971.6478     2138.774   -250.85299   -97.994247   -148.97274   -4411.4951 
47420000    17.669475   -4710.1512   -4679.8663   -4710.1512            0     2257.394     17.91399    23.273284    21.819522    9096.9378    2059.7946    2568.4945    2143.8929   -210.94738   -6.2260198    283.44693    -4380.379 
47421000    17.118418   -4708.3723   -4679.0319   -4708.3723            0    2013.2039    17.941321    23.195987     21.86918    9101.2232    1677.0949    2380.7323    1981.7847    73.724765    -199.7192   -98.805629   -4411.8153 
47422000    17.343542   -4709.3393    -4679.613   -4709.3393            0    2135.5361    17.857833    23.277488    21.870705    9091.3347    1890.9376    2095.2842    2420.3864   -83.026937    277.91784    186.79785    -4396.467 
47423000    17.061807   -4708.8714   -4679.6281   -4708.8714            0    2230.8583    17.898232    23.183138    21.916802    9094.0957    2290.6362    2515.6464    1886.2923  0.012057225   -258.24982    6.6473678   -4383.7537 
47424000    16.998742   -4708.8078   -4679.6725   -4708.8078            0    2187.9824     17.84086    23.273296    21.904674    9095.1629    2397.2717     2014.016    2152.6597   -198.19995    116.47125    11.194513   -4389.4506 
47425000    18.556672    -4709.731   -4677.9255    -4709.731            0     2186.821    17.826165     23.25347    21.933025    9091.6821    2367.0949    2169.0922    2024.2761    361.60275   -24.027823   -138.65087   -4387.9686 
47426000    17.181387   -4708.7839   -4679.3356   -4708.7839            0    2141.7945    17.867635    23.317058    21.822196    9091.5779    2202.8859    1778.3613    2444.1364    129.02357     78.81951    124.88358   -4395.3522 
47427000     18.12218   -4708.1292   -4677.0684   -4708.1292            0    2160.4364    17.903527     23.16302    21.929805    9094.2843    1928.9035    2666.7077    1885.6979   -275.64281   -161.86873    201.87603    -4390.528 
47428000    18.238459   -4708.6695   -4677.4095   -4708.6695            0    2401.5569     17.86582    23.222994     21.89645    9084.7891    2368.9598    2663.8911    2171.8197    -77.40895    236.55584     26.34816   -4359.2216 
47429000    16.693999   -4707.6866   -4679.0737   -4707.6866            0    2187.9665    17.930446    23.201923    21.855033     9092.149    2072.9054     2283.513     2207.481   -181.03374   -73.210917   -103.71818   -4388.9501 
47430000    18.212405   -4710.5641   -4679.3487   -4710.5641            0    2133.3772      17.8177    23.304331    21.889925    9089.3442    2269.5694    2185.9999    1944.5624   -54.460784    46.489754   -108.39923   -4396.5508 
47431000    17.305294   -4708.2957    -4678.635   -4708.2957            0    1995.4478    17.914332    23.206349    21.899511    9104.2015    1852.5829    2272.4506    1861.3098    200.04979      -50.264    233.25871   -4413.6885 
47432000    18.552371   -4707.9975   -4676.1994   -4707.9975            0    2210.5217    17.849391      23.2936    21.878247    9096.4626    2405.1896    2196.6281    2029.7473   -160.76116    3.2630595    28.160555   -4382.9459 
47433000    17.393696   -4709.4274   -4679.6152   -4709.4274            0    2307.4629    17.856761    23.235606    21.893416    9083.8557    2358.5487    2476.2141     2087.626     75.59982    8.4588902   -66.922033   -4373.9254 
47434000    17.605613   -4710.4175   -4680.2421   -4710.4175            0    2369.6505    17.816758    23.302422     21.88194    9084.8042     2671.703    2338.0805     2099.168    125.16674    154.24504   -119.14803   -4366.2811 
47435000    18.130124   -4708.7266   -4677.6522   -4708.7266            0    2187.0266    17.883795     23.22583    21.899843    9096.4498    2267.9798    2488.9403    1804.1596   -267.84609    -3.834675    234.94679    -4387.516 
47436000    18.209031   -4708.2746    -4677.065   -4708.2746            0    2209.0368    17.859333    23.212132    21.924912    9089.0419    2273.7002    2441.4628    1911.9473   -177.94815   -48.188889    185.26479   -4384.2475 
47437000    17.222189    -4709.697   -4680.1787    -4709.697            0    2140.9776    17.903159    23.261854    21.831591     9091.999     1924.837    2126.7039     2371.392    51.393194   -268.09644    96.803931   -4396.2905 
47438000     18.54843   -4708.1534    -4676.362   -4708.1534            0    2258.6043    17.870395    23.230229    21.911232    9096.0837    2277.8839    2193.7244    2304.2045    170.48522    96.510857    154.02697   -4376.7422 
47439000    17.072574    -4710.526   -4681.2641    -4710.526            0    2241.1702    17.831901    23.292758    21.881084    9088.3988    2247.6303    1992.5599    2483.3203   -368.28718    20.626262   -156.87586   -4384.2083 
47440000    18.622296   -4707.4397   -4675.5218   -4707.4397            0    2244.7964     17.87723    23.283902    21.844334    9092.7404    2029.1999    2460.0394    2245.1498     61.00532    54.068504    119.52204   -4377.8431 
47441000    18.093462   -4709.7707   -4678.7592   -4709.7707            0    2120.7144     17.93189    23.204838    21.851031    9092.3584    1898.4866    2344.0152    2119.6413   -145.79867   -37.506194    106.84743   -4397.5467 
47442000    17.787547   -4708.3151   -4677.8279   -4708.3151            0     2201.789    17.899563    23.288641    21.818578    9095.2158    2203.9793    1968.1247    2433.2631    117.14079    86.453685    73.126142   -4385.7729 
47443000      17.7717   -4709.0551    -4678.595   -4709.0551            0    2178.1144    17.846674    23.255794    21.907319    9092.3821    2266.8581    2041.6408    2225.8443   -99.460936   -54.985764   0.77364608   -4389.7704 
47444000    17.908413   -4707.2899   -4676.5954   -4707.2899            0    2067.7804    17.911638    23.219483    21.869764    9095.6123    1812.2919    2348.7003     2042.349   -266.70675   -188.24167       147.39    -4402.304 
47445000    17.230518   -4708.3188   -4678.7863   -4708.3188            0    2206.4685    17.870448     23.23899    21.879534    9086.3769    2092.3584    2320.5455    2206.5016   -125.57264    43.462508   -89.355136    -4386.395 
47446000    17.778573   -4710.0033   -4679.5314   -4710.0033            0    2254.2916    17.863493     23.25069    21.884746    9089.5784    2374.8013    2492.2624    1895.8112    45.512303    160.25808    129.95218   -4380.6976 
47447000    17.109787   -4706.8398   -4677.5142   -4706.8398            0    2095.8031    17.880864    23.260323    21.871106     9096.514    2182.1751    1854.3426    2250.8916    176.84844   -287.94362    61.905897    -4399.478 
47448000    18.477551   -4710.4832   -4678.8133   -4710.4832            0    2109.6255       17.899    23.259689    21.827555    9087.3606     1910.114    2136.2841    2282.4785     -152.698    145.15854     82.06769    -4399.225 
47449000    18.565841   -4708.9975   -4677.1762   -4708.9975            0    2196.3597    17.803617    23.339824    21.880627     9092.129    2044.0362    2224.3639    2320.6789      118.443   -62.213377   -33.973369   -4385.9403 
47450000    18.129729   -4709.3828    -4678.309   -4709.3828            0    2196.7267    17.821687    23.331669    21.861472    9090.2121    2453.9891    1930.6645    2205.5266   -86.456527   -51.885552    72.265647   -4387.0859 
47451000     17.60543   -4708.6335   -4678.4584   -4708.6335            0    2292.3616    17.835818    23.287877    21.866115    9082.2732    2461.9305    2065.6727    2349.4816   -162.10674   -16.480416   -24.691118   -4374.8222 
47452000    18.002661   -4709.4906   -4678.6347   -4709.4906            0    2320.8711    17.900296    23.250582    21.823618    9082.8218    2269.0102    2481.4119    2212.1913   -108.68386   -97.335643    279.24219   -4371.2036 
47453000    17.484241    -4710.704   -4680.7366    -4710.704            0    2217.1622    17.927741    23.228606    21.845192    9097.1337    2042.0168    2299.2567     2310.213    65.713191    53.819555    3.2830992   -4386.5805 
47454000    17.102661   -4709.1509   -4679.8375   -4709.1509            0     2037.483    17.791952    23.320837     21.91636    9093.6068    2464.6824    2100.5759    1547.1908    19.812014   -142.76567    161.48556   -4409.6246 
47455000      17.1735   -4709.9356   -4680.5008   -4709.9356            0    2446.1302     17.85981    23.318354    21.805334    9081.0794    2663.4434    2470.3933    2204.5539    67.477275   -107.59048   -109.87425   -4356.5397 
47456000    16.478262   -4708.2244   -4679.9812   -4708.2244            0    2338.8119     17.90124     23.26397    21.801058    9079.1357    1969.2408    2454.6156    2592.5793   -282.56681   -41.554805    338.55624   -4370.2994 
47457000    16.899275   -4708.7085   -4679.7437   -4708.7085            0    2259.2023    17.909173    23.222069    21.841167    9083.4806    2040.9384    2425.4719    2311.1966   -140.17362   -62.219362   -133.42435   -4380.4599 
47458000    18.680579   -4709.6435   -4677.6256   -4709.6435            0    2080.3501    17.902663    23.221119     21.87738    9094.8616    2373.2116    1603.6167    2264.2222    222.91705    42.396599    209.00187   -4401.6896 
47459000     17.13001   -4708.8865   -4679.5263   -4708.8865            0    2123.3696    17.900305    23.279856     21.83104    9097.3553    2167.0129    2174.2401    2028.8559    105.30279    2.4581139    60.866471    -4397.807 
47460000    18.120004   -4707.4316   -4676.3746   -4707.4316            0    2193.3708    17.833295    23.273346    21.893871    9086.8418    2335.7238    2111.6205     2132.768   -138.05647    65.619935    151.24696   -4385.7041 
47461000     18.08393   -4710.0767   -4679.0814   -4710.0767            0    2250.3005     17.84535    23.292306    21.859922    9086.2807    2503.9885    2078.7002    2168.2129   -47.688713    11.849955    37.201032   -4380.8849 
47462000    18.850896   -4710.9773   -4678.6675   -4710.9773            0    2094.2121     17.91182    23.214645    21.882892    9099.2685    2090.5972    2157.3516    2034.6874    32.779727   -84.896181   -37.154076   -4400.7582 
47463000    17.961979   -4708.0614   -4677.2752   -4708.0614            0    2406.9761    17.831522    23.317617    21.840172    9080.8947    2398.7136    2183.8085     2638.406    242.66223   -21.757356    160.14389    -4358.506 
47464000    17.616144   -4710.1237   -4679.9302   -4710.1237            0    2194.0429    17.880542    23.260786    21.848806    9087.2559    2011.8037     2196.929    2373.3961   -227.53019    216.93226   -244.97974   -4389.1575 
47465000     16.76149   -4711.3435   -4682.6148   -4711.3435            0    2161.9207    17.913325     23.27269    21.801698    9088.9373    2107.4995    1908.1921    2470.0706   -183.08017     10.52272     426.5772   -4396.0461 
47466000    17.861924    -4710.494   -4679.8793    -4710.494            0    2275.4007    17.890204    23.223221    21.850564    9078.2131    1908.6875     2537.251    2380.2635   -63.363238    251.42053   -117.38499   -4378.6244 
47467000    17.020024   -4710.4424   -4681.2706   -4710.4424            0    2099.1716    17.877362    23.298543    21.830915    9092.9361    2046.2604     2282.908    1968.3464    190.78195   -173.68627    220.21196   -4402.8971 
47468000    17.278401   -4708.4942   -4678.8796   -4708.4942            0    2145.3797    17.924927    23.195317    21.874446    9094.8341      1739.82    2616.8432    2079.4759   -54.228577    60.808783    12.240729    -4394.319 
47469000    16.943072   -4706.0951   -4677.0552   -4706.0951            0    2061.0903    17.855565    23.263269    21.894532    9094.5246    2013.4473    2306.0296    1863.7941    6.7729964   -222.84949    97.102462   -4403.6839 
47470000    17.241981   -4710.1256   -4680.5735   -4710.1256            0    2346.4681    17.863545    23.281565    21.842651    9084.1682    2237.5272     2346.308     2455.569   -118.62893    67.021205    -33.89269   -4369.7057 
47471000    17.675244   -4709.1341   -4678.8393   -4709.1341            0    2292.1254    17.861707    23.278859    21.853833    9086.8272    2236.3016    2179.1964    2460.8783   -176.30866    6.8885771    45.065076   -4375.0822 
47472000    17.421477   -4710.2145   -4680.3547   -4710.2145            0    2148.3018    17.884824    23.259307    21.857808    9092.5991    2031.6779    2204.8178    2208.4098   -239.09725    101.43602   -19.727664   -4395.4765 
47473000    17.649157   -4709.3161    -4679.066   -4709.3161            0    2183.0436    17.931745    23.202235    21.855532    9093.1374    2102.7801    2338.1722    2108.1783   -278.34058   -20.968651   -77.979769   -4389.5637 
47474000    17.267993   -4709.0698   -4679.4731   -4709.0698            0     2245.956    17.976145    23.169326    21.820047     9087.944    2158.4571    2168.7472    2410.6637    263.38892   -1.7708321    71.307912   -4381.7978 
47475000    17.244464   -4710.2409   -4680.6845   -4710.2409            0    2172.1689    17.916585    23.224098    21.861188    9096.3641    2081.0853     2264.616    2170.8053    120.80105    7.2196331   -56.083367   -4392.5221 
47476000    17.617581   -4708.5237   -4678.3277   -4708.5237            0    2219.0483    17.919537    23.268173    21.797489    9088.5696    1781.6627    2345.5764    2529.9059   -148.45604   -63.284482   -11.755016   -4384.1985 
47477000    17.918512   -4705.5896   -4674.8779   -4705.5896            0    2260.5445    17.887394    23.238561    21.871886    9091.6466    2243.0017    2207.9526    2330.6792   -171.41935    32.474722   -79.759594    -4375.147 
47478000    18.294627   -4708.7543    -4677.398   -4708.7543            0    2100.7856    17.874765    23.272007    21.867789    9096.5994    2105.6472    1914.9131    2281.7964     216.1902    41.160274     25.34539   -4398.6981 
47479000    17.415965   -4707.8624   -4678.0121   -4707.8624            0    2287.5392    17.872646    23.205176    21.911455    9087.5109     2279.998    2495.5611    2087.0587   -181.35983   -124.00563    56.131525   -4374.8399 
47480000    18.383946   -4708.8903   -4677.3809   -4708.8903            0    2133.4967    17.841974    23.289389    21.883603    9093.2645    2009.4407      2201.41    2189.6393   -142.58652    165.23744   -130.10697   -4394.4452 
47481000    18.091136    -4708.895   -4677.8875    -4708.895            0    2298.9509    17.896712    23.240578    21.856843    9090.9154    2025.6499    2700.3156    2170.8872    -223.6679   -110.14018    107.46832   -4373.0887 
47482000    17.565228   -4708.4268   -4678.3206   -4708.4268            0    2266.8273    17.866558    23.265959    21.871788    9091.7216    2153.6625    2428.6377    2218.1819   -190.14369    124.72151    96.258044   -4377.7542 
47483000    17.229819    -4709.493   -4679.9616    -4709.493            0    2311.8406    17.869712    23.272699    21.846974    9085.6411    2626.2101    2201.4769    2107.8347    204.55642   -411.09847    212.19089   -4373.6318 
47484000    18.063171   -4708.6543   -4677.6947   -4708.6543            0     2152.551    17.915563    23.221676    21.860494     9094.608    2182.1486    2140.0488    2135.4557   -39.848433    90.253563     -126.442   -4392.1899 
47485000    17.167378   -4709.4005   -4679.9762   -4709.4005            0    2261.4688    17.892037    23.215835    21.876532    9087.0429    1958.4261    2320.0414     2505.939   -361.96136   -307.30572    229.57807   -4380.2746 
47486000    17.836175   -4709.8771   -4679.3065   -4709.8771            0     2196.438    17.855096    23.250377    21.898368    9090.8385    2328.0564    1960.9795    2300.2782    70.405275    -66.84484   -21.464951   -4388.1016 
47487000    17.611357   -4709.8432   -4679.6579   -4709.8432            0    2209.5267    17.874621    23.227081    21.902182    9093.2444    2623.1552    1969.7813    2035.6435   -56.668669    -181.9895    34.874546   -4386.6401 
47488000    17.842112   -4708.3448    -4677.764   -4708.3448            0    2291.7768    17.816643    23.341925    21.860242    9091.1228    2781.6282    1801.7549    2291.9473    109.53118   -44.128104   0.19244186   -4373.9095 
47489000    17.928142   -4710.2598   -4679.5316   -4710.2598            0    2031.3654    17.868977    23.325013    21.844298    9104.5748    2135.2486    1729.1167    2229.7309   -432.69041    51.349492    205.32317   -4409.8051 
47490000    18.455143   -4710.3516   -4678.7201   -4710.3516            0    2099.6844    17.821913    23.338058    21.873451    9097.7989    2411.8755    1917.0969    1970.0808   -100.08981   -40.382285    207.05576   -4400.1296 
47491000    17.847921   -4711.0487    -4680.458   -4711.0487            0    2203.7239    17.892014    23.255515    21.845535    9089.6649    1839.9328     2479.858    2291.3809    189.80771     197.0581    72.071968   -4388.3247 
47492000    17.843629   -4710.3791   -4679.7958   -4710.3791            0    2320.7359     17.85706    23.244716    21.895666    9088.5034    2407.8946    2471.4118    2082.9013   -21.254634   -40.514811   -78.043207   -4372.1903 
47493000    17.505561   -4706.7766   -4676.7727   -4706.7766            0    2115.9235    17.899541    23.235608    21.878791    9099.5365    2092.8148    2265.6714    1989.2844    193.70552   -102.57284    157.41253   -4395.9739 
47494000    17.289445   -4707.5041   -4677.8706   -4707.5041            0    2298.9641    17.857719    23.296157    21.839867    9085.7391    2443.5635    2204.1459     2249.183    111.73371    181.08428    89.529378   -4373.2437 
47495000    18.824477   -4709.7549   -4677.4904   -4709.7549            0    1852.9116     17.81223    23.402395    21.850054    9108.1697    2067.4209    1630.3495    1860.9643    12.069683    67.375301   -57.514902    -4431.362 
47496000     17.56956   -4709.4231   -4679.3095   -4709.4231            0    2257.7006    17.820922    23.317091    21.879265    9091.5359    2667.8025    2261.1601    1844.1391    -109.5437   -154.41037   -67.978214   -4379.9593 
47497000    17.437501   -4708.9407   -4679.0534   -4708.9407            0    2199.7168    17.807377    23.317319    21.900523    9093.5415    2394.8967    1906.2063    2298.0475   -199.71143    37.647177    241.21515    -4387.327 
47498000     18.14148   -4707.6351   -4676.5412   -4707.6351            0    2247.0636    17.887833    23.255933     21.83949    9085.1893    2356.5557    2132.8873    2251.7476   -33.156422   -188.20742    49.951798   -4378.8094 
47499000    16.910822   -4710.0368   -4681.0522   -4710.0368            0     1850.322    17.869357    23.243567    21.926407    9107.0806    1969.7499    1760.9288    1820.2872    225.71481    90.944046    81.775459   -4435.2972 
47500000    17.870673   -4706.1688   -4675.5391   -4706.1688            0    2358.8243    17.871074    23.235304    21.883232    9086.7898    2473.9044    2248.0028    2354.5656    36.892902   -13.984045   -107.31558   -4362.9442 
Loop time of 323.381 on 64 procs for 250000 steps with 864 atoms

Performance: 133.589 ns/day, 0.180 hours/ns, 773.082 timesteps/s
195.3% CPU use with 32 MPI tasks x 2 OpenMP threads

MPI task timing breakdown:
Section |  min time  |  avg time  |  max time  |%varavg| %total
---------------------------------------------------------------
Pair    | 17.485     | 24.349     | 33.94      | 115.9 |  7.53
Bond    | 1.019      | 1.1789     | 1.3598     |   7.7 |  0.36
Kspace  | 159.69     | 169.94     | 177.8      |  44.1 | 52.55
Neigh   | 0.061672   | 0.065718   | 0.068576   |   0.8 |  0.02
Comm    | 47.464     | 50.434     | 53.742     |  21.6 | 15.60
Output  | 0.47375    | 0.47399    | 0.47546    |   0.0 |  0.15
Modify  | 60.774     | 62.325     | 65.697     |  14.8 | 19.27
Other   |            | 14.61      |            |       |  4.52

Nlocal:        27.0000 ave          38 max          19 min
Histogram: 8 6 2 0 2 5 1 0 4 4
Nghost:        2174.00 ave        2293 max        2060 min
Histogram: 8 8 0 0 0 0 0 3 5 8
Neighs:        6687.25 ave        9710 max        4586 min
Histogram: 7 5 4 0 3 4 1 2 3 3

Total # of neighbors = 213992
Ave neighs/atom = 247.67593
Ave special neighs/atom = 2.0000000
Neighbor list builds = 250
Dangerous builds = 0

unfix		3
unfix		2
unfix		1

write_data	data.final.${pid} nocoeff
write_data	data.final.0 nocoeff
System init for write_data ...
PPPM initialization ...
  extracting TIP4P info from pair style
  using 12-bit tables for long-range coulomb (../kspace.cpp:340)
  G vector (1/distance) = 0.37225103
  grid = 24 27 25
  stencil order = 5
  estimated absolute RMS force accuracy = 0.0030981015
  estimated relative force accuracy = 9.3298407e-06
  using double precision FFTW3
  3d grid and FFT values/proc = 4410 672
Last active /omp style is kspace_style pppm/tip4p/omp

write_restart   restart.lmp.${pid}
write_restart   restart.lmp.0
System init for write_restart ...
PPPM initialization ...
  extracting TIP4P info from pair style
  using 12-bit tables for long-range coulomb (../kspace.cpp:340)
  G vector (1/distance) = 0.37225103
  grid = 24 27 25
  stencil order = 5
  estimated absolute RMS force accuracy = 0.0030981015
  estimated relative force accuracy = 9.3298407e-06
  using double precision FFTW3
  3d grid and FFT values/proc = 4410 672
Last active /omp style is kspace_style pppm/tip4p/omp
Total wall time: 0:05:23
