LAMMPS (30 Jul 2021)
  using 32 OpenMP thread(s) per MPI task
package omp 0
using multi-threaded neighbor list subroutines
echo both

include		in.partitions
variable        pid world 0
include		in.temp
variable	temperature equal 250.0
variable	tempDamp equal 100.0
include		in.pressure
variable        pressure equal 7000
variable        pressureDamp equal 1000.0 # This is 1 ps
include		in.seed
variable        seed world 745823

units		real
atom_style	full
include		in.box
read_data       iceV.data
Reading data file ...
  triclinic box = (-3.3947780 0.0048050000 -0.13785900) to (15.004777 22.575194 19.367857) with tilt (0.0000000 -6.7926110 0.0000000)
  1 by 1 by 1 MPI processor grid
  reading atoms ...
  1008 atoms
  scanning bonds ...
  2 = max bonds/atom
  scanning angles ...
  1 = max angles/atom
  reading bonds ...
  672 bonds
  reading angles ...
  336 angles
Finding 1-2 1-3 1-4 neighbors ...
  special bond factors lj:    0        0        0       
  special bond factors coul:  0        0        0       
     2 = max # of 1-2 neighbors
     1 = max # of 1-3 neighbors
     1 = max # of 1-4 neighbors
     2 = max # of special neighbors
  special bonds CPU = 0.000 seconds
  read_data CPU = 0.054 seconds
include 	in.setup
variable	out_freq equal 500
variable	out_freq2 equal 500

timestep	2.0

neigh_modify    delay 7 every 1

include		in.tip4p
# This is TIP4P/Ice

# create groups ###
group ox type 2
336 atoms in group ox
group hy type 1
672 atoms in group hy

# set charges - beside manually ###
set group ox charge -1.1794
Setting atom values ...
  336 settings made for charge
set group hy charge 0.5897
Setting atom values ...
  672 settings made for charge

# ### TIP3P Potential Parameters ###
pair_style lj/cut/tip4p/long 2 1 1 1 0.1577 8.5
pair_coeff 1 1*2 0.000 0.000
pair_coeff 2 2 0.21084 3.1668
bond_style  harmonic
bond_coeff  1 450 0.9572
angle_style harmonic
angle_coeff 1 55 104.52
kspace_style pppm/tip4p 1.0e-5
pair_modify tail yes

thermo          ${out_freq}
thermo          500
thermo_style 	custom step temp pe etotal epair emol press lx ly lz xy xz yz vol pxx pyy pzz pxy pxz pyz

restart 	${out_freq} restart.lmp.${pid} restart2.lmp.${pid}
restart 	500 restart.lmp.${pid} restart2.lmp.${pid}
restart 	500 restart.lmp.0 restart2.lmp.${pid}
restart 	500 restart.lmp.0 restart2.lmp.0


include         in.dump
dump            myDump all atom ${out_freq2} dump.water.${pid}
dump            myDump all atom 500 dump.water.${pid}
dump            myDump all atom 500 dump.water.0
dump            myDump2 all dcd ${out_freq2} dump.dcd
dump            myDump2 all dcd 500 dump.dcd
dump_modify     myDump append yes
dump_modify     myDump2 append yes


timer           timeout 00:55:00 every 1000
New timer settings: style=normal  mode=nosync  timeout=00:55:00

fix 		1 all shake 1e-6 200 0 b 1 a 1
       0 = # of size 2 clusters
       0 = # of size 3 clusters
       0 = # of size 4 clusters
     336 = # of frozen angles
  find clusters CPU = 0.000 seconds
fix             2 all nph tri ${pressure} ${pressure} ${pressureDamp}
fix             2 all nph tri 7000 ${pressure} ${pressureDamp}
fix             2 all nph tri 7000 7000 ${pressureDamp}
fix             2 all nph tri 7000 7000 1000
fix             3 all temp/csvr ${temperature} ${temperature} ${tempDamp} ${seed}
fix             3 all temp/csvr 250 ${temperature} ${tempDamp} ${seed}
fix             3 all temp/csvr 250 250 ${tempDamp} ${seed}
fix             3 all temp/csvr 250 250 100 ${seed}
fix             3 all temp/csvr 250 250 100 745823
velocity 	all create ${temperature} ${seed} dist gaussian
velocity 	all create 250 ${seed} dist gaussian
velocity 	all create 250 745823 dist gaussian

run             500000
PPPM initialization ...
  extracting TIP4P info from pair style
  using 12-bit tables for long-range coulomb (../kspace.cpp:340)
  G vector (1/distance) = 0.3786717
  grid = 24 27 36
  stencil order = 5
  estimated absolute RMS force accuracy = 0.0025036634
  estimated relative force accuracy = 7.5397079e-06
  using double precision FFTW3
  3d grid and FFT values/proc = 50490 23328
Last active /omp style is kspace_style pppm/tip4p/omp
Neighbor list info ...
  update every 1 steps, delay 7 steps, check yes
  max neighbors/atom: 2000, page size: 100000
  master list distance cutoff = 10.8154
  ghost atom cutoff = 10.8154
  binsize = 5.4077, bins = 5 5 4
  1 neighbor lists, perpetual/occasional/extra = 1 0 0
  (1) pair lj/cut/tip4p/long/omp, perpetual
      attributes: half, newton on, omp
      pair build: half/bin/newton/tri/omp
      stencil: half/bin/3d/tri
      bin: standard
Per MPI rank memory allocation (min/avg/max) = 41.61 | 41.61 | 41.61 Mbytes
Step Temp PotEng TotEng E_pair E_mol Press Lx Ly Lz Xy Xz Yz Volume Pxx Pyy Pzz Pxy Pxz Pyz 
       0          250   -5066.8341   -4566.8032   -5066.8341            0   -4117.8896    18.399555    22.570389    19.505716            0    -6.792611            0    8100.4335   -2807.1366    351.39328   -9897.9254   -707.22757    -1050.075   -3136.0424 
     500    243.67523   -4835.0106     -4347.63   -4835.0106            0    6923.4534    17.951314    23.112023    19.275569  -0.20003407   -6.5401456   0.19259001    7997.2635    7431.1761    7047.3015    6291.8827   -409.89556    391.03705    -1038.262 
    1000    255.78035   -4860.3855   -4348.7932   -4860.3855            0     7574.447    18.020799    22.633163    19.426548 -0.065737408   -6.3731618 -0.051118306    7923.4613    6684.8479     8788.068    7250.4252   -350.54572   -131.51737     1430.396 
    1500     245.0707   -4850.0352   -4359.8635   -4850.0352            0    7680.3487    17.850667    23.085734    19.234012 -0.059765086   -6.6295611   0.24004778    7926.2547    8015.8245    8276.9033    6748.3184    483.23206     1287.162   -761.86806 
    2000    252.69961   -4846.8697   -4341.4392   -4846.8697            0    6545.4563    18.192641    22.529526    19.513512  -0.07083611   -6.4047878  0.056911199    7998.0338    6298.4388    8025.7058    5312.2243    -2662.186    598.25952   -233.09517 
    2500    248.49952   -4820.3017    -4323.272   -4820.3017            0    6737.6907    17.820525    23.454243    19.110483  -0.48600115   -6.3410918  0.071077842      7987.55    7344.5933    5680.5305    7187.9481    1682.3134   -706.41014     2544.385 
    3000      243.824   -4843.5519   -4355.8737   -4843.5519            0    7579.1771    18.190409    22.522256    19.453787 -0.0092233513   -6.7438995  0.036057647    7970.0037     7684.418    9756.7395    5296.3738   -42.411828    564.51962    120.56908 
    3500    252.87589   -4866.9594   -4361.1764   -4866.9594            0    7398.3517    17.830841    23.181178    19.299376   -0.2493005   -6.2036132    0.1623163    7977.2021    10007.777    5753.7272    6433.5506    530.22983   -1280.2441   -894.45483 
    4000    244.23927   -4867.5487   -4379.0399   -4867.5487            0    5861.1292    18.217829    22.652685    19.368865 -0.050148929   -6.9161345   0.24846552    7993.1966    5203.6676    5787.8559    6591.8641   -793.13854   -313.35433    126.94401 
    4500      255.738   -4875.5366    -4364.029   -4875.5366            0    6641.2663    18.007634    23.047012     19.24557  -0.14848732   -6.3888414   0.11943868    7987.3378    6891.0933    6162.3015    6870.4042    688.37891   -598.17818   -1501.5401 
    5000    250.69765    -4839.741   -4338.3148    -4839.741            0    8604.5182    17.950526    22.911548    19.301688  -0.29239895    -6.513548 0.0015146072    7938.2887    6869.8292    9886.2908    9057.4348   -45.023422    1291.1744    373.85571 
    5500    239.00039   -4853.0885   -4375.0582   -4853.0885            0    6158.1475    17.903197    22.745591    19.634446  -0.05697797   -6.4687356   0.05493652    7995.5156    7392.2128    6821.0628    4261.1669    322.40648    326.36695    477.75128 
    6000    250.00506   -4835.3324   -4335.2914   -4835.3324            0    6302.1474    17.935454    23.067896    19.391945  -0.11497991   -6.3651124    0.1678838    8023.0914    7044.2284    5566.3163    6295.8976    1183.5743   -954.16887    -3.959916 
    6500    254.16144   -4873.0552   -4364.7009   -4873.0552            0    4673.5321    18.183589    22.791915    19.371644  -0.14615175   -6.6133848 -0.013486894    8028.3612    4615.5146    4942.9229    4462.1588    341.67481   -462.90939    965.56315 
    7000    249.18157   -4850.5477   -4352.1537   -4850.5477            0    5274.4504    18.025061    23.214903    19.129186  -0.37597642   -6.3303865 -0.030074606    8004.6085    5059.3031    4688.6291    6075.4188    1754.6686   -349.15713    941.41623 
    7500    246.57419   -4866.5359    -4373.357   -4866.5359            0    5285.6362    18.130006     22.74439    19.446255   0.12600969   -6.5910385  0.040787985    8018.7785    5103.5506    5386.1794    5367.1785   -1539.0521   -1576.0187   -31.024259 
    8000     243.9748    -4825.439   -4337.4593    -4825.439            0    7977.8528    17.853369    23.032267    19.349069  -0.24455738   -6.4246852   0.21880779    7956.4059    8918.0194    8250.8732    6764.6658    868.69392    172.91109   -1204.4894 
    8500    256.38208   -4854.0862   -4341.2903   -4854.0862            0    5806.1591    18.063734    22.591375     19.64436   0.17360591   -6.5884257 -0.087548958    8016.5602    5531.7884    6678.7523    5207.9365   -665.74346   -115.63781   -118.80363 
    9000    254.28451   -4819.9642   -4311.3638   -4819.9642            0    7178.9087    17.955599    23.201529    19.170928  -0.26134907   -6.3541163   0.22888082    7986.5577    7879.1586    6821.5381    6836.0294    735.60819    73.414031   -1257.0529 
    9500    255.35913   -4826.1801   -4315.4303   -4826.1801            0    7467.2731    18.214583    22.742315    19.355386   0.16933275   -6.5893272  0.029347754    8017.8097    7743.3796    7498.6658    7159.7739   -572.90222    493.60747    213.28903 
   10000    254.15043   -4835.3388   -4327.0066   -4835.3388            0    6383.2057    17.864436     23.21841    19.325436  -0.62367311   -6.6618345   0.33474628    8015.8777    5681.3894     5874.234    7593.9935     1694.999     1761.642    175.83488 
   10500    260.45264   -4822.7402   -4301.8027   -4822.7402            0    7271.0422    18.070644    22.780101    19.417424 0.0090562031   -6.4273695 -0.081809591    7993.2037    6971.2556    8200.5245    6641.3463    170.13531   -148.40523    214.65354 
   11000    242.04683   -4830.8209   -4346.6973   -4830.8209            0    8631.8461    17.968208    22.964453    19.258531  -0.35733657   -6.4853131   0.24223162    7946.6492    5790.4679    8952.4407     11152.63    1512.1198    758.53435    1768.5803 
   11500    245.58309   -4856.2183   -4365.0218   -4856.2183            0    7582.2735    18.123035    22.634744    19.380391   0.24793055   -6.5091446  0.095645272    7950.0354    7201.6986    7462.9682    8082.1538   -1730.4093    920.98951   -958.66565 
   12000    259.55303    -4811.598   -4292.4598    -4811.598            0    7121.2339    17.952668    23.069305    19.290739  -0.42099753   -6.5423698   0.48486637     7989.367    6808.5693    7170.0996    7385.0327   -710.14084     1778.668    39.933732 
   12500    251.37923   -4838.0703   -4335.2808   -4838.0703            0    8014.7519    18.023987     22.68753    19.503486   0.22596888   -6.4920889  -0.22614505    7975.3606    9764.5825     8174.613    6105.0603   -107.29075   -803.87244    1606.9457 
   13000    275.29053   -4860.4808   -4309.8658   -4860.4808            0    7467.9107    17.972013    22.939543    19.307858  -0.52396932   -6.4464572   0.28946714    7960.0461     6389.132    7705.7279    8308.8724    1217.2399    383.11537     -1441.21 
   13500    244.37218   -4862.7518   -4373.9772   -4862.7518            0    6192.4738    18.075559    22.834524    19.408808   0.36410167   -6.5105709 -0.064598417    8010.9232    6671.8356    6243.2399    5662.3458   -988.98679    -119.9289    396.23424 
   14000    253.86534   -4859.9264   -4352.1644   -4859.9264            0    5844.2245    17.990286     23.07142    19.328294  -0.44754595   -6.4130011    0.3558711    8022.4298    6485.1217    5191.5599    5855.9918    1010.9914    568.39004   -1701.3659 
   14500    245.25454   -4865.4689   -4374.9296   -4865.4689            0     6691.078    18.218416    22.723303    19.356303 -0.0060366081   -6.6578167  -0.11737198    8013.1719    6775.2342     6595.999    6702.0008     822.9963   -145.38292   -273.56525 
   15000    241.50121   -4825.0762   -4342.0439   -4825.0762            0    6827.0689     17.90673    23.169274    19.211398  -0.56587451   -6.5476369   0.17108938    7970.5389    8141.8828    5890.9877    6448.3363    1165.9463   -42.380265    477.72718 
   15500    248.92711   -4842.9399   -4345.0549   -4842.9399            0     6727.597    18.089959    22.801705    19.421394   0.11064172    -6.352388  0.020426031    8010.9737    6152.3926    6622.5899    7407.8085   -1371.7975   -1229.5615   -412.91424 
   16000    256.16725   -4848.2334   -4335.8672   -4848.2334            0    6178.5742    17.911124     23.08291    19.324969  -0.35324905   -6.9469061   0.41507985    7989.7316    6985.2474     5301.722    6248.7531   -496.71759   -327.14358   -708.63088 
   16500    250.03432   -4831.7466    -4331.647   -4831.7466            0    7218.0251    17.955674    22.763282    19.519535   0.15066368   -6.1304001 -0.040537788     7978.221    6839.7386    8523.3137    6291.0231    304.20439   -156.57024    1560.7959 
   17000    251.83069   -4847.9739   -4344.2814   -4847.9739            0    5821.5866    18.195672    22.816461    19.295926  -0.30904253   -6.8842889   0.12651674    8010.9129    5319.5904    6013.1596    6132.0097    99.892521     185.8383   -1102.8492 
   17500    251.43535   -4836.1312   -4333.2294   -4836.1312            0    5079.8462    18.119131    23.093063    19.225698 0.0078967774   -6.4421389 -0.031348122    8044.5363    5114.7385      4504.47      5620.33    34.640104    182.98117   -181.23357 
   18000    241.38107   -4853.0099    -4370.218   -4853.0099            0    6363.8745    18.103228    22.681471    19.511012   -0.1720954   -6.4387762   0.31008431    8011.3748    6755.9742    7955.5113    4380.1381   -125.72927    20.368445   -2255.2692 
   18500    243.48738   -4838.2241   -4351.2192   -4838.2241            0    8817.5629    17.721509    23.075079     19.31791 -0.023265747   -6.6319004  0.075040253    7899.5803    9843.2662    8314.7549    8294.6677      340.624   -101.51862   -469.22625 
   19000    252.42649   -4837.2986   -4332.4144   -4837.2986            0    8436.4451    18.114695    22.470494    19.489847   -0.2953341   -6.1212441   0.23840882    7933.2673    7186.6082    10655.271    7467.4561    300.59027   -155.77318    1393.4311 
   19500     265.7134   -4866.7535   -4335.2938   -4866.7535            0    7399.2609    17.932078    23.155675     19.18894  -0.03104021   -6.6593254 0.0014412176    7967.8118    7818.6115    6238.6599    8140.5112    455.56654    567.14925    180.57329 
   20000    243.93091   -4836.5154   -4348.6234   -4836.5154            0    6126.0069    18.200998    22.620027    19.457829  -0.19691925   -6.3351351   0.21278011    8010.9257    5121.7277    7109.7358    6146.5573    509.87395   -778.18631    708.23728 
   20500    259.32156   -4849.1483   -4330.4732   -4849.1483            0    6608.8529    17.739416    23.386956    19.292276   0.16447989   -6.6187842  -0.14849329    8003.8045    9024.7668    5937.1481    4864.6439   -1303.9554    645.28625    381.78819 
   21000    249.06219    -4868.847   -4370.6918    -4868.847            0    5807.4126     18.08178    22.666224    19.487373  -0.19426455   -6.6507181  0.092028743    7986.8155    6281.9994    6277.1581    4863.0803    96.928992    370.72945   -520.88005 
   21500    253.47831   -4881.8636   -4374.8756   -4881.8636            0    7260.4584    18.038734    23.102521    19.111866  0.022853576   -6.4141189   0.05299503    7964.6833    5965.0548    7061.4662    8754.8542   -41.629151    92.810988   -789.00281 
   22000    246.72917   -4838.5951   -4345.1063   -4838.5951            0    6428.9399    18.265381    22.750812    19.224677  -0.33127096   -6.6817478  0.082283794    7988.8578    5830.3458    6317.5208     7138.953     1219.606   -742.40547    233.13395 
   22500    244.63872   -4845.7388   -4356.4311   -4845.7388            0    6691.3464    17.933054    23.159173    19.215568  -0.13136984   -6.5252446  -0.10739463    7980.5079    6296.0173      6921.72     6856.302   -524.70087     968.2069    1612.7312 
   23000    245.28192   -4865.6556   -4375.0615   -4865.6556            0    5722.7831     18.06661    22.753537    19.496194  -0.17130855   -6.5280635   0.26671185    8014.4814    5428.9014    5909.8879      5829.56    283.39682    -515.0561   -448.38252 
   23500    253.18786    -4850.467     -4344.06    -4850.467            0    6452.0733    17.819171    23.165829    19.372295  0.053465379   -6.3813766  0.039058079    7996.8033    7319.5928    5558.2868    6478.3403     258.7579   -659.54205    328.09811 
   24000    266.18328   -4828.9959   -4296.5964   -4828.9959            0    6738.7451    18.079109    22.574292    19.563851  -0.54462925   -6.2842358   0.37658112    7984.4591    7423.0707    8093.9258    4699.2388    1053.9004    206.46657   -1802.6134 
   24500    249.81406   -4856.4898   -4356.8308   -4856.4898            0     6444.339    18.030372    22.952733    19.273153 -0.081985436    -6.614164 -0.047754039    7976.1233    7404.4024    6303.3748    5625.2397   -164.87644   -113.77905     275.5734 
   25000    261.25134   -4835.5622   -4313.0272   -4835.5622            0    7278.6422    18.115715    22.942744    19.141534  -0.24313743   -6.2966108   0.14157339    7955.6851    6754.6034    5994.0372    9087.2859   -356.32633   -302.58857   -3002.2106 
   25500    243.21549   -4830.4539   -4343.9928   -4830.4539            0    6487.3447    18.012195    22.894983     19.40966 -0.060703505    -6.495233   0.14481707    8004.3285    6539.1869    5744.1178    7178.7295    1142.4881   -1008.5887   -400.67861 
   26000    250.92945   -4832.1167   -4330.2268   -4832.1167            0    5227.7016    17.901423    23.112643    19.431257  -0.04180538   -6.5712543   0.21192807    8039.6671    4263.3128    4795.2128    6624.5792    56.939037     143.6357    435.99921 
   26500    246.54141   -4841.7607   -4348.6474   -4841.7607            0     7544.127    18.051802    22.528146    19.642718  -0.24993128   -6.1615152 -0.020102776    7988.1754    8654.0323    8869.4917     5108.857     1062.763    -200.0063   -2141.7212 
   27000     249.0189   -4810.6447   -4312.5762   -4810.6447            0    7691.4428    17.967727    23.119855    19.250421 -0.061278554   -6.6206353   0.18040771    7996.8411    6970.1532    7988.8412    8115.3339    222.70879    188.54743   -569.13349 
   27500    252.21287   -4827.4632   -4323.0063   -4827.4632            0    8406.8949    18.064743    22.632707    19.358696  -0.11862551   -6.2119503   0.17785616     7914.881    9602.2954    7999.9323     7618.457   -1380.9798   -548.64324    515.11662 
   28000    254.45302   -4857.4943   -4348.5568   -4857.4943            0    9290.3099    17.788543    23.188311    19.188754  -0.24461681   -6.3735668  0.068358341    7915.0976    9093.1739    8359.8889    10417.867   -425.19847    1046.9974      233.747 
   28500    263.24491    -4831.425   -4304.9027    -4831.425            0    7299.4252    18.148488    22.563517    19.475662  -0.12598298   -6.7024561   0.17394953    7975.1611    6536.4648    8439.4985    6922.3124    100.64332    743.68949   -1385.4102 
   29000    246.18535   -4823.8222   -4331.4211   -4823.8222            0    8698.5255    17.815096    23.012704    19.302518   0.09394783   -6.1232182   0.23865709    7913.5209    9027.2821    7774.1672    9294.1274   -2136.5835    248.33384   -1765.2113 
   29500    246.84097   -4846.1284   -4352.4159   -4846.1284            0    7739.8852    17.988464    22.810887     19.37699  -0.12890592   -6.7646607   0.13553999     7951.015    8122.7198    8121.9104    6975.0255    616.39572    616.64887   -471.11319 
   30000    256.24566   -4830.9506   -4318.4276   -4830.9506            0    4928.3929    17.946568    23.222067    19.254798  -0.30864531   -5.9368404  -0.25818055    8024.5605    4203.7105    4713.5673     5867.901    2152.6804   -1867.6025    2375.6528 
   30500    248.10101   -4838.9106    -4342.678   -4838.9106            0    6056.8974    18.093019    22.799765    19.433564  -0.25030542   -6.4505577   0.16777944    8016.6674    5398.8593    6957.0717    5814.7612    718.39359    1106.9423   -20.248946 
   31000    251.08166   -4811.7266   -4309.5323   -4811.7266            0    6823.4543    17.982599    22.997422    19.434583 -0.075996966   -6.4989198   0.15853783    8037.2381    7693.4763    6827.6212    5949.2655   -129.51617   -293.05587   -381.80708 
   31500     246.8348   -4825.3162   -4331.6161   -4825.3162            0    7621.4724    18.092691    22.652105    19.385361  -0.17015345   -6.3556872   0.24795511    7944.8486    8182.7729    8032.6568    6648.9876    117.74119    153.11979    897.56073 
   32000    261.01382   -4844.1943   -4322.1344   -4844.1943            0    9517.5517    17.949009    22.962656    19.156438  -0.15766471   -6.7170014  -0.17123812    7895.4586    9791.7125    9047.3974    9713.5451    147.74924    185.41763   -687.86876 
   32500    241.64979   -4839.9611   -4356.6317   -4839.9611            0    8584.4342    17.946891    22.833687    19.290551  -0.20533725   -6.3038438   0.25962121    7905.1463    9473.4455    8924.7975    7355.0596   -1672.5765   -978.65107   -1114.9499 
   33000    251.34319   -4838.3557   -4335.6383   -4838.3557            0    9881.5688    18.000686    22.946135    19.085346   0.18523769   -6.5214481   0.19580119    7883.1294    7874.5581    9383.3711    12386.777    502.25638   -642.57379    525.07134 
   33500    258.43557   -4851.2373   -4334.3342   -4851.2373            0    8524.2929    17.947817    22.842372    19.282244  -0.30515756   -6.4863832  0.099294649    7905.1553     7889.559    8485.2045    9198.1153    1342.1309    667.37067    742.75675 
   34000    237.49742   -4841.9328   -4366.9086   -4841.9328            0    8862.2608    17.929804    22.873372    19.275448  -0.16258125   -6.5638664 0.0067567906    7905.1518    9320.4031    9150.5818    8115.7975    466.83302    1133.9345   -1525.5548 
   34500    245.66614   -4859.1619   -4367.7993   -4859.1619            0      9736.53    17.975449     22.77955     19.23845  -0.13014795   -6.6273265    0.4292577    7877.6188    8310.3306    11195.871    9703.3889   -424.15277    454.87787   -1606.4884 
   35000     246.7383   -4869.7091   -4376.2021   -4869.7091            0    8522.1532    17.992345    22.902096    19.230583   0.15979136   -6.4733398   0.17141151    7924.2007    8858.2635    8084.5625    8623.6336    -1771.925   -1054.8616   -393.45467 
   35500    246.71739   -4854.9688   -4361.5035   -4854.9688            0    5359.5296    18.014712    22.826098    19.514384  -0.39291068   -6.5961052   0.23606976    8024.4237    5387.1389    5952.1513    4739.2986    855.28422   -8.5377821   -33.784389 
   36000      250.019   -4872.8434   -4372.7745   -4872.8434            0    5444.5097    17.978873    23.005746    19.382869 -0.093211425   -6.2941731  -0.21802521    8017.0915    4658.9998    5208.2232    6466.3061    655.64391   -796.83723     663.6536 
   36500    250.61936    -4829.904   -4328.6343    -4829.904            0    6770.0298    18.140924    22.914958    19.289291  -0.27562684   -6.9041176   0.37816901    8018.5296    6345.3537    7571.5374    6393.1983    637.02136    1015.8858   -950.20801 
   37000    254.85315   -4848.6273   -4338.8895   -4848.6273            0    6209.9981    17.981358    22.972206    19.281272  0.008901346   -6.2413291 0.0048947172    7964.5431    5319.1228    6158.3843    7152.4871   -498.42503   -87.471627    179.32379 
   37500    241.32216   -4833.7576   -4351.0834   -4833.7576            0    9300.5639    17.949669    22.773422    19.412464  -0.30718281   -6.5654724  0.073078186    7935.3374     10079.16    8834.0465    8988.4856   -185.38512    1507.6104    711.47487 
   38000     243.9835   -4835.6815   -4347.6843   -4835.6815            0    5114.5405    17.901611     23.04963    19.512517 -0.047243301   -6.3148683    0.1734588    8051.3624    4872.2897    5347.5287    5123.8032   -1281.2075   -552.90447   -918.07178 
   38500    252.48372   -4850.1083   -4345.1096   -4850.1083            0    6853.8354    18.056994    22.945587    19.244789   0.01106568   -6.3686304   0.12792521    7973.6613     7136.585    5740.2019    7684.7194     97.60635   -628.24957    -564.0164 
   39000    245.55048   -4845.6463    -4354.515   -4845.6463            0     5648.997    18.212203    22.655561    19.363786  -0.29540223   -6.8170876   0.18151809    7989.6467    6507.7718    5990.0104    4449.2088   -571.57758    1004.1605    523.62098 
   39500     250.2469   -4837.6375   -4337.1127   -4837.6375            0    6438.8813    17.847799    23.154482    19.356195  0.021443416   -6.1088558 -0.031397939    7999.0743    7254.3686    7360.9863    4701.2889     639.9103    132.69947    2204.4214 
   40000    245.84386   -4832.3593   -4340.6412   -4832.3593            0    6727.1502    18.086289     22.70798    19.485075  -0.28507632   -6.7794608   0.13349734    8002.5807    5736.1668    7949.7492    6495.5348    91.664034    66.367409   -754.76821 
   40500    252.84353    -4876.114   -4370.3957    -4876.114            0    7064.2126    17.880563    23.179672    19.186508   0.17174798   -6.3859061   0.30373663    7952.1473    6492.7852    6823.7768    7876.0758   -1823.6163   -95.519281   -875.45285 
   41000    253.30945   -4844.0938   -4337.4436   -4844.0938            0    8247.2089    18.101215    22.799876    19.266108 -0.039080458   -6.4216087   0.22719793     7951.228    7971.0223    8140.8955    8629.7088   -457.06741   -1037.2602    576.62197 
   41500    248.69554   -4838.6254   -4341.2036   -4838.6254            0    6340.9063    18.173133    22.942958    19.207089  -0.38771731   -6.8174299 -0.065245968    8008.3081    6186.3072     5504.638    7331.7737    1095.7434    262.99605     1580.005 
   42000    251.12988    -4845.481   -4343.1902    -4845.481            0    7277.1222    18.013401    22.828625    19.422445 -0.0097531205   -6.1949208    0.0954855    7986.9204    8275.9699    7140.7933    6414.6033    -678.7433    -568.2519     756.5796 
   42500    259.89608   -4869.3282   -4349.5039   -4869.3282            0    7650.7677    17.922828    22.861744    19.415433  -0.10263089   -6.6086017   0.21812568    7955.4175     8674.595    6195.3568    8082.3514   -903.86822   -789.11653   -1085.7802 
   43000    262.81273   -4846.0464   -4320.3885   -4846.0464            0     7789.149    17.923148    22.896484    19.349411  -0.13492423   -6.5292649  -0.15777672    7940.5547     8031.654    7830.7852    7505.0077   -306.04538   -152.52439    3020.7131 
   43500    243.80695   -4835.7777   -4348.1337   -4835.7777            0    8927.5696     18.11159    22.750828    19.329367  -0.33501235   -6.2628304   0.13994049    7964.7368    10311.382    8377.1975    8094.1294    816.12346   -902.33206    104.74248 
   44000    247.18591   -4869.6974   -4375.2951   -4869.6974            0     8168.216    17.914719    23.039983    19.205997   0.14924911   -6.8855546   0.26834756    7927.3681    7527.6036    8584.1615    8392.8827   -686.66525    977.47587    28.602456 
   44500    253.06911   -4847.4862   -4341.3167   -4847.4862            0    7085.7721    17.941806    22.657251    19.562518  -0.20750682     -6.10349   0.11119441    7952.3984    7708.9609    7644.8332     5903.522    719.44342    19.528073    625.33369 
   45000    243.25515   -4860.7477   -4374.2073   -4860.7477            0    5960.7358    17.988439    23.034485    19.314509  -0.18121872   -6.6450367  -0.10531114    8003.0523    5448.4874    6262.2888    6171.4313    696.09552    846.84149    1171.5988 
   45500    237.00649    -4863.748   -4389.7058    -4863.748            0    7267.8871    18.138114    22.709227    19.319109  -0.46580431   -6.2902955   0.21577192      7957.59    5894.7394    8021.1647    7887.7571    575.35815    561.94871   -794.90591 
   46000    246.88976   -4860.8102   -4367.0001   -4860.8102            0    5733.6347    17.937743    23.093332    19.310014   0.33307783   -6.4396505   0.16727608    7999.0236    6093.0708     5781.911    5325.9224   -2989.3817   -254.06378   -2739.4826 
   46500    249.18905   -4856.7795   -4358.3706   -4856.7795            0    8319.2241     18.03721    22.698836    19.427618  -0.23906328   -6.6927322   0.19778501    7954.1268    8041.3991    7774.1357    9142.1376    760.86628    355.85308    202.58145 
   47000    254.32193   -4855.2432   -4346.5679   -4855.2432            0    5313.0301     17.92301    23.225369    19.290275   -0.1928101   -6.1586305  -0.09078114    8029.9341    4992.9484     4964.261    5981.8808   -219.99233   -48.445635    128.89778 
   47500    256.82295   -4845.3872   -4331.7096   -4845.3872            0    7595.4497    18.297396    22.566863    19.341624  -0.33270264   -7.1066262   0.10183831    7986.4432    5284.9469    8390.6818    9110.7204    1120.3043    1107.3776    500.13607 
   48000    259.71466   -4882.3994    -4362.938   -4882.3994            0     7445.466    17.854792    23.161034    19.179582 -0.014368427   -6.3249666   0.15212784    7931.4365    7903.7481    6912.6433    7520.0065   -1497.5704    365.58315   -871.76957 
   48500    258.44692   -4841.9949   -4325.0692   -4841.9949            0    7501.3565    18.066918    22.672589    19.430042  -0.11833716   -6.4012769   0.18563594    7959.0077    6324.2422    8561.7838    7618.0435    1020.5916    170.84253   -105.59698 
   49000    257.01802   -4847.7547   -4333.6869   -4847.7547            0    6017.1391    17.933352    23.060197    19.361645  -0.21612853   -6.4923173  0.039988925    8006.9432    7168.4933    4591.4734    6291.4507    1038.8392    -843.5222    158.25363 
   49500    265.23155   -4821.9316   -4291.4357   -4821.9316            0    6050.1008    18.302233    22.471116    19.619549  0.052844466   -6.8974224   0.12323718    8068.9629     7355.182    6373.6375    4421.4828   -438.32499    364.83291   -942.66526 
   50000    248.82987   -4871.8372   -4374.1468   -4871.8372            0    6961.8496     17.94098    23.225912    19.125365  -0.15377557   -6.5448862   0.20982772    7969.4558    6006.0937    5832.4324    9047.0228   -109.26649    223.17529    1943.1117 
   50500    249.94254   -4842.9684   -4343.0524   -4842.9684            0    8303.4399    18.106668     22.60866    19.434252  -0.10106676   -6.3137069 -0.090864675    7955.7514    8053.6449    9047.9977    7808.6771    1124.8266    556.78076    316.47286 
   51000    265.29266   -4808.3061    -4277.688   -4808.3061            0    6672.0574    17.846049    23.278034    19.212777  -0.45804803   -6.4927451   0.38079743    7981.3899    6094.5492    6190.0266    7731.5964    1662.9016   -135.21219     -629.807 
   51500    247.40455   -4860.1856   -4365.3459   -4860.1856            0    7068.8238    18.252695     22.62471    19.389082   0.21518624    -6.664437   0.18439384    8006.9528    4288.1197    7982.7332    8935.6186   -746.35107    55.748425   -894.41903 
   52000    247.55575   -4860.1515   -4365.0094   -4860.1515            0     6870.451       18.033    23.148767    19.134561  -0.29123143   -6.3036138   0.11064953    7987.5636    7361.5271    5781.8358    7467.9902   -226.12599   -966.94295    765.97192 
   52500    259.50363   -4822.8599   -4303.8206   -4822.8599            0    8311.6877    18.031262    22.759631    19.395372  -0.19177411   -6.6611796  -0.23147477    7959.5669     8713.895    8335.2195    7885.9485   -539.39537   -364.64754    403.76162 
   53000    243.91055   -4873.3903   -4385.5391   -4873.3903            0    6344.2455    17.848237    22.961953    19.426309  -0.18966981   -6.3682369   0.22133271    7961.4915    7888.0277     5502.612    5642.0968   -922.90212   -427.03362   -1033.2973 
   53500    242.28277   -4844.8322   -4360.2368   -4844.8322            0    6188.6297    18.009192    22.949135    19.345629    0.1547069   -6.4871195    0.2237962    7995.4589    7704.4937    5180.5982    5680.7972   -347.83661    663.02042   -1138.3774 
   54000    256.89071   -4829.9559   -4316.1428   -4829.9559            0     5729.515    18.104008    22.896311    19.281088 -0.091031812   -6.5949882   0.26913123    7992.3001    5111.2349    5999.1776    6078.1324    197.36614    368.56928   -1147.3135 
   54500    248.61836   -4885.2246   -4387.9572   -4885.2246            0    7437.5104    18.007471    22.827783    19.311883  -0.40293437   -6.4763769 -0.062188436    7938.5482    7868.3715    6882.2586     7561.901    747.60318   -896.46617    436.07634 
   55000    253.13842   -4834.3504   -4328.0422   -4834.3504            0    7800.0737     17.94994    22.949761    19.362512  -0.11938945   -6.4266271  -0.11167901    7976.3253    8367.5239     7772.699    7259.9982    150.77636    924.38964   -261.20637 
   55500    238.20808   -4862.7008   -4386.2552   -4862.7008            0    5298.2157     18.06297    22.952876    19.417243  -0.15285229   -6.7249248   0.20061773    8050.3329    4393.1451    6111.5758    5389.9261     1148.338    523.30657    982.54976 
   56000    253.48192   -4812.4047   -4305.4096   -4812.4047            0    7136.9625    18.104726    23.005957    19.258741  0.091859565   -6.2595097   0.04789875    8021.5843     6232.797    6925.1363    8252.9542   -1338.6808    1371.5647    610.39703 
   56500    254.14939   -4819.6848   -4311.3546   -4819.6848            0    7983.4871    18.073952    22.898415    19.244232  -0.33699683    -6.945507   0.19649944    7964.5117    6681.8906    8425.3922    8843.1785    396.37674   -291.28406    1157.8507 
   57000    238.08563   -4859.6176   -4383.4169   -4859.6176            0    8051.4821    17.919841    22.909718    19.382734 -0.062641811   -6.4510763 -0.045940741    7957.3586    8512.5899    7430.8168    8211.0395   -754.27784    222.42989    494.43566 
   57500    253.36599   -4841.3855   -4334.6222   -4841.3855            0    7272.0354    17.885004     22.82979     19.47578  -0.38136227   -6.3256687   0.15160037    7952.1732     8739.317     7766.553     5310.236   -139.51044   -257.31599    -1120.814 
   58000    244.27652   -4829.6428   -4341.0596   -4829.6428            0     6049.304    17.905787    23.062487    19.427992  0.031271424   -6.5632778  -0.16639392    8022.8278    6751.9214    5901.6328    5494.3578   -1216.4106    563.82836    1568.9062 
   58500    227.88868   -4827.5846   -4371.7791   -4827.5846            0    6947.9592    18.120956    22.926026    19.284385 -0.052461055   -6.4693205   0.33120713    8011.5338    8259.2025    6186.7334    6397.9416    -1259.606   -684.06346   -1215.5781 
   59000    245.99066   -4835.7092   -4343.6975   -4835.7092            0    8542.9604    18.137279    22.726754    19.282474  0.019172973   -6.6468359   0.23564706    7948.2641     7537.576    9646.3395    8444.9656   -186.45442     46.92255   -1475.0303 
   59500    253.83538   -4830.4266   -4322.7245   -4830.4266            0     6958.041    17.929156     23.05059    19.279987  -0.46768639   -6.3683206   -0.1458796    7967.9874    5984.6529    6781.6556    8107.8146    2172.1816   -278.55364    775.80677 
   60000    242.27362   -4827.2077   -4342.6306   -4827.2077            0    8046.6515     17.89813    22.793692    19.454581 -0.046212688   -6.3390308 -0.031550049    7936.7777    8030.7284    9257.6692    6851.5569   -782.01509    674.63375    668.36835 
   60500    236.64337   -4848.6427   -4375.3267   -4848.6427            0    6942.8836     17.91521    22.879156    19.462117  -0.15034739   -6.6360225   0.37022251    7977.2277    7415.2308     7667.721     5745.699    -68.30225    1170.2068   -1886.4432 
   61000    263.17584   -4848.0685   -4321.6844   -4848.0685            0     5414.886    18.221948    22.803077    19.263409   0.03887801     -6.50321  0.020662534    8004.2638    3999.8038    5293.1412    6951.7129   -1458.1234   -489.82682    622.37354 
   61500    250.74423   -4869.1491   -4367.6296   -4869.1491            0     6729.579    17.981123    23.117453    19.222686  -0.34825118    -6.473198  0.042112393    7990.4429    8107.4197    6148.9462     5932.371   -301.98307   -334.88873   -945.68127 
   62000    275.10041    -4846.463   -4296.2282    -4846.463            0    5192.6319    18.231936     22.68638    19.484743 -0.024254785   -6.4002263  0.021280934    8059.2138    5524.3653    4879.8651    5173.6653    390.34725   -631.19348    1430.5249 
   62500    248.00547   -4824.2575   -4328.2159   -4824.2575            0    6369.9865    17.860154    23.249672    19.311719  -0.14044227   -6.5773869   0.28199108    8019.0507    6123.8168    6386.9582    6599.1847   -576.54415    1293.9503   -44.686687 
   63000    257.69328   -4832.8822   -4317.4638   -4832.8822            0    5863.1088     18.04549    22.755912    19.550113 -0.013298844   -6.3773276  0.090230755    8028.0894    5648.6008    6866.9891    5073.7364   -1085.6109    812.45895   -540.40784 
   63500    262.18358   -4884.5437   -4360.1442   -4884.5437            0     6674.463    17.961161    22.996453    19.323942  -0.17044985   -6.4988985  0.061370505    7981.6191    6524.3462    6775.6717     6723.371    537.10003    545.58989   -119.25402 
   64000    243.10588   -4842.1992   -4355.9574   -4842.1992            0    4668.4561    17.884127    22.964948    19.566605  -0.28450801   -6.2477856  0.015131036    8036.1621    5383.3582    5540.2334    3081.7766    1363.0609    814.48638   -122.09886 
   64500    257.48629   -4871.2086   -4356.2042   -4871.2086            0    8851.8097     17.94227    22.780132    19.355771 -0.034753697   -6.5715093  0.032155484    7911.2319    8423.5412    9127.1527    9004.7352   -424.05169    846.17292    1082.7366 
   65000    239.31317   -4853.2175   -4374.5616   -4853.2175            0    8439.7385    17.919418     23.08753    19.195522  -0.22288228   -6.4616244   0.22275049    7941.4772    10296.049    6936.7239    8086.4428   -1783.8336   -885.88193   -272.98015 
   65500    246.63679   -4844.6497   -4351.3456   -4844.6497            0    7301.2615    18.141363    22.620811    19.315635  0.037470162   -6.3465564  0.042656879    7926.6022    8074.2597    6917.9394    6911.5853   -105.19939   -549.08049    1454.5541 
   66000    263.12022   -4832.0162   -4305.7432   -4832.0162            0    6226.0921    17.912251    23.211407    19.208691  -0.16621031   -6.6683862   0.20430454    7986.3695    6862.3559    5073.2865    6742.6338   -846.88026    207.48558    173.23444 
   66500     256.3601   -4822.6784   -4309.9265   -4822.6784            0    7012.3517    18.153058     22.75453    19.420013  -0.12718031    -6.350582  0.031738935    8021.7139    7158.4762     7878.894    5999.6849   -113.22271    685.73109   -798.76991 
   67000    237.98472   -4833.9643   -4357.9655   -4833.9643            0    5039.0803    18.113887    23.212461    19.182891  -0.11534346   -6.6851956   0.07111186    8065.7897    4662.5344    5217.4614    5237.2452   -1588.9414    396.92267   -278.82436 
   67500    243.19388    -4863.678   -4377.2602    -4863.678            0    5807.7304    18.063089    22.716314     19.44368  -0.26844032    -6.756518  0.094897632    7978.2632    5614.7715    5998.5484    5809.8714   -234.56554   -104.42094    373.00655 
   68000    252.09562    -4843.552   -4339.3296    -4843.552            0    8352.8736    17.967644    22.832704    19.336227  -0.17027911   -6.3362897   0.17885116     7932.685    8829.1475    7530.0767    8699.3967    -206.5195   -858.91025    967.05043 
   68500     251.3774   -4852.7436   -4349.9578   -4852.7436            0    8205.2267    18.175185    22.831702    19.182199 -0.069608175   -6.9689372 -0.065386153    7960.0451    8510.2398    8309.4968    7795.9436     1080.601    560.23803    2328.3907 
   69000    243.27415   -4865.7999   -4379.2215   -4865.7999            0    7499.1737    17.934399    22.814245    19.369908  -0.20073425   -6.2687621   0.21822003    7925.3873    7223.0064    6789.5861    8484.9285    -703.6845    368.16383   -1210.2807 
   69500    244.83751   -4871.8896   -4382.1843   -4871.8896            0    7035.8022    17.932258     22.95608    19.301665 -0.048362558   -6.5801037  0.033860937    7945.6141     9060.377    5491.5427    6555.4869   -1159.4965   -699.56263   -873.85437 
   70000    247.71677   -4838.2562    -4342.792   -4838.2562            0    6065.7301    18.063059    22.728851     19.51333  -0.59066875    -6.797038   0.23138793    8011.2477    6086.0011    6459.8417    5651.3475    307.88553    1828.1692    700.45847 
   70500    252.07366   -4867.9335   -4363.7551   -4867.9335            0    4622.4187    17.924824    23.095118    19.338367    0.1120269   -6.1369543 -0.067128982    8005.6181    4158.3897    4098.9273    5609.9392    772.98764    -1697.629     287.8327 
   71000     246.6717   -4834.9906   -4341.6167   -4834.9906            0    7272.3592    18.203132    22.813956    19.257653  -0.25810079   -6.9935583   0.38130378    7997.4235    6119.0343     7294.717    8403.3262    527.31094    273.59967   -1177.1634 
   71500    245.33139   -4834.3683   -4343.6752   -4834.3683            0    6689.9841    17.954208    23.142027    19.206833   0.13414618   -6.1737441  -0.11429996    7980.3774    7746.4719    5168.3347    7155.1456   -739.04293   -161.46796     1253.687 
   72000    257.37405    -4806.321   -4291.5411    -4806.321            0    6206.3283    18.048554    22.806909    19.545053  -0.33059415   -6.4359287   0.06859644    8045.3643    7191.4123    6152.7626    5274.8101    577.03354    196.21344     642.9005 
   72500    250.57208   -4869.7195   -4368.5444   -4869.7195            0    7515.5963    17.879699    23.065587    19.316633   -0.1658511   -6.5265984 -0.060136237    7966.2906    10424.915    6155.0659    5966.8084   -290.00017   -284.95237   -5.5123391 
   73000    246.08113   -4875.1221   -4382.9295   -4875.1221            0    6811.6294    18.131503    22.609156    19.399022 -0.026389215   -6.0884141   0.43280093    7952.3957    7669.7803    6782.4773    5982.6306   -1042.3644    -1433.301    248.61836 
   73500    249.79053   -4846.6607   -4347.0488   -4846.6607            0    7544.2417    18.067239    22.930353    19.199943 -0.078120111   -6.8435217   0.11302199     7954.309    5102.1353    8629.3398    8901.2501    15.203731    726.48555   -143.18372 
   74000    245.36044        -4870   -4379.2488        -4870            0    6728.2681    18.142172     22.84291    19.246743  -0.29349763   -6.1593594   0.22388021    7976.2352    5569.0223     6375.191     8240.591   -35.541967    -959.2853  0.042721842 
   74500    266.57792   -4850.9498    -4317.761   -4850.9498            0    5792.8348    18.077244     22.97651    19.328589  0.052365811   -7.1545792 -0.057510228    8028.1672    5361.9805    6066.2313    5950.2925   -191.48475    405.79609    636.76979 
   75000    246.11355   -4846.1426   -4353.8851   -4846.1426            0    6411.8145    18.019211    22.808537     19.43818  -0.46476687   -6.2024484   0.36166348    7988.9332    6827.4653    5895.5127    6512.4654    140.71873   -274.65867   -107.18246 
   75500    240.34303   -4876.9093   -4396.1936   -4876.9093            0    6981.5253    17.869356    22.965191    19.406376   0.15124624   -6.4941129   0.04640185    7963.8558    7745.1861    7041.2137     6158.176    972.31301    1018.4717    1026.1848 
   76000    251.02433   -4842.9605   -4340.8809   -4842.9605            0    5823.8648    18.149943    22.823328    19.400394  -0.45541681   -6.6637539   0.35270852    8036.4598    7062.4124    5092.6355    5316.5466    790.64031    212.77563   -71.172692 
   76500    226.47715   -4868.2306   -4415.2483   -4868.2306            0    5590.8054    18.037458    23.049626    19.173047    0.2187337   -6.1314804 -0.055356276    7971.3217    4757.5739    4447.7323    7567.1099    10.892062   -1348.0468    893.11679 
   77000    235.23887    -4873.207   -4402.7002    -4873.207            0    4840.8596    18.092442    22.839677    19.473111  -0.30478571   -6.8671459   0.27582942    8046.7865     4805.623    5678.3862    4038.5696   -213.02132   -445.20938    856.77021 
   77500    249.04414   -4839.9486   -4341.8295   -4839.9486            0    6893.2981    17.902761    22.960898    19.459015   0.27810336   -5.9587571  -0.12076422    7998.8905    6803.3583    5749.3076    8127.2285   -1599.2214   -94.665886    413.71847 
   78000    264.35509   -4824.4152   -4295.6723   -4824.4152            0    7156.5411    18.048973    22.860659    19.278158  -0.22774085   -6.2158921   0.12792045    7954.3884    7402.1881    7059.9504    7007.4847   -887.87368   -471.25919    875.29653 
   78500    245.37722    -4870.229   -4379.4443    -4870.229            0    6458.9036    18.071219    22.832806     19.32353  0.015053687    -6.775918  0.083004892    7973.2102    6827.8182    5535.6591    7013.2335    1.3270215   -602.33594    566.01545 
   79000    251.42947   -4866.4971   -4363.6071   -4866.4971            0    5808.5724    17.926431    22.926468    19.433042 -0.086139706   -5.8447014   0.24716766    7986.7812    6576.4727    5222.8746    5626.3701    -757.9241    -1198.764   -791.93112 
   79500    258.42367   -4843.7892   -4326.9099   -4843.7892            0    6416.9302    18.010614    22.783967    19.511526    -0.180753   -6.7087462  0.062877266    8006.6179    6162.4439    6491.4144    6596.9322    979.02943    1281.5725    1138.0616 
   80000    259.59671      -4835.1   -4315.8745      -4835.1            0    7087.3376    17.998774    23.060723     19.23655  -0.15803433   -6.2978549   0.10471675    7984.4139    6756.0457    7537.3445    6968.6227   -584.68146    70.143313   -468.28511 
   80500    253.87723   -4854.0363   -4346.2505   -4854.0363            0     8618.808    18.162871    22.459064    19.419341  -0.21286137   -6.3609905   0.04394974    7921.5588    8082.3647    9077.0542    8697.0051    1037.3769   -691.16428    1546.5861 
   81000    253.64582   -4851.9643   -4344.6413   -4851.9643            0    8417.0776    17.991486    23.138083     19.12026  -0.27289983   -6.8759514   0.20817793    7959.5445    9126.7052    7675.6557    8448.8719    675.39182    814.80553    1209.2458 
   81500    261.97928   -4868.6962   -4344.7053   -4868.6962            0    7745.3387    18.064115     22.67996     19.39368   0.10296392   -6.0362077  0.061693183     7945.463    7559.8322    8530.0157    7146.1684   -1072.3253    -971.7919    1123.6397 
   82000    243.03812   -4862.9992    -4376.893   -4862.9992            0    6823.2344    17.999096    23.055764    19.218577  -0.30551983    -7.042223   0.20036507    7975.3812    6476.9817    6725.9817    7266.7398    971.78769   -363.63691   -613.30258 
   82500     258.6829   -4829.8703   -4312.4725   -4829.8703            0    5266.4586    18.204366    22.682075    19.517078  -0.11790895   -6.2304631  -0.13865764     8058.851    4423.9693    6493.7671    4881.6394    1625.8037    121.59735    199.44794 
   83000    255.37924   -4828.8155   -4318.0255   -4828.8155            0    9065.4342    17.901981    22.970357    19.213167  -0.22975436   -6.3291647   0.14060769    7900.7404     8924.513    8669.5286    9602.2611   -58.233326   -1650.7644    381.47922 
   83500     241.1628    -4854.728   -4372.3726    -4854.728            0    7367.4593     18.11748     22.75702    19.331507  -0.21125649   -6.5631468   0.18895455    7970.3779    6771.7516    7768.7602     7561.866   -17.653099     795.5713     491.0787 
   84000     259.3153   -4817.9722   -4299.3096   -4817.9722            0    8476.0866    18.034159    23.135696    19.132514   0.12902952   -6.1580475  0.049034436    7982.7125    7227.1537    8147.2851    10053.821    151.83852   -1456.5179    706.74887 
   84500    248.28792   -4847.7105    -4351.104   -4847.7105            0    5920.8807    18.111721    22.831421    19.420335  -0.29496923   -6.8082119   0.11177621    8030.6256     8514.697    4644.3865    4603.5584     620.7636   -520.26004    429.40737 
   85000    242.02824   -4845.9376   -4361.8512   -4845.9376            0    6735.2481    17.888704    23.093188    19.332351  -0.19669026   -5.9009244 -0.056826522    7986.3334    7712.3759    5962.5251    6530.8432    231.56936   -2000.9795    395.77946 
   85500    258.96844   -4833.5631   -4315.5942   -4833.5631            0    4726.6613       18.072    22.854762    19.549556  -0.10419119    -6.832328   0.19966009    8074.5777    4555.7599    4292.1523    5332.0716   -38.782865    511.15014   -624.19083 
   86000    248.59785   -4864.6808   -4367.4543   -4864.6808            0    6510.7154    18.001942    23.029919    19.323478  -0.13797008   -6.4290697    0.2081359    8011.1908    5454.2134    6397.1431    7680.7897   -1527.6528    658.22563    786.56997 
   86500    238.01088   -4837.6388   -4361.5877   -4837.6388            0    6312.9364    18.124615    23.018988    19.209825 -0.086822169   -6.4345523   0.13087598    8014.5365    6504.6818     5817.733    6616.3944   -76.501269   -372.35358   -1894.4848 
   87000    262.13423   -4886.2689   -4361.9681   -4886.2689            0    6305.5693    18.228634    23.000549    19.082032  -0.48429767   -6.9194705   -0.1220559    8000.4966    5109.0475    5278.8928    8528.7677    1575.0148    11.318414    836.54375 
   87500    251.14561   -4828.4381   -4326.1159   -4828.4381            0     5950.686    17.960088    22.936691    19.461522 -0.011959299    -6.254626   0.11694002    8017.0765    5605.4218    5952.1193    6294.5169   -239.76789   -501.17319    1171.7738 
   88000    250.12887   -4851.8298   -4351.5411   -4851.8298            0    6488.6529    17.924932     22.89253     19.51263   -0.2071167   -6.6602765   0.36568372    8006.9499    6167.4109     7213.924    6084.6238   -649.24738    1866.1873   -171.16174 
   88500    255.02831   -4864.6249   -4354.5368   -4864.6249            0    6005.0839    17.963494    23.075378    19.287006  -0.12300062   -6.5495785 -0.092131821     7994.742    4962.5996    5642.3432    7410.3089   -677.84318    -899.1367    57.728749 
   89000    236.66449   -4869.4938   -4396.1356   -4869.4938            0    7272.9571    18.166004    22.653702    19.377723  -0.48426797   -6.3774182   0.17547419     7974.461    7245.1034    6873.6094    7700.1584    626.76801   -844.34187   -782.89918 
   89500    241.90921   -4854.8725   -4371.0242   -4854.8725            0    7769.0407    17.994131    23.197951    19.069748   0.27457304   -6.8886013  0.060493546     7960.227     9637.779    5587.8477    8081.4954   -1331.2718   -345.45557   -175.65758 
   90000    248.48067   -4854.6959   -4357.7039   -4854.6959            0    7293.2122    18.044443     22.75603    19.378737  -0.24851216   -6.4184748    0.3086127    7957.2949    5446.5862    9024.6056    7408.4447    671.08673    600.88582   -1100.1377 
   90500    243.79876   -4850.7958   -4363.1681   -4850.7958            0    7260.9975    17.904069    22.994478    19.326258   0.14035601   -6.5958429  -0.21074553    7956.5184    7395.9558    7564.2355    6822.8012    398.67347    245.28009    1678.9342 
   91000    246.38282   -4846.7004   -4353.9043   -4846.7004            0    8047.0146    18.030902    22.832358     19.31061   -0.4441146   -6.5562199   0.10384834    7949.9467    8178.6306    8103.5296    7858.8836    1149.1574   -974.99213    239.93533 
   91500    246.10552   -4852.9376   -4360.6961   -4852.9376            0    6007.5586    18.010955    23.027555    19.254696   0.19599793   -6.2729564  0.065956326    7985.8516    7205.4002    6071.2116    4746.0638    -841.6164     420.6819     11.05114 
   92000    251.21589   -4856.7843   -4354.3215   -4856.7843            0     6569.784    17.985257    22.846999    19.444794  -0.24425889   -6.8730638   0.32918507    7990.0439    8271.3543    7076.0589    4361.9388    1433.2747     524.5501   -1649.6703 
   92500    246.26694   -4872.7091   -4380.1448   -4872.7091            0    6680.8126    17.894571    23.002544    19.378923  -0.10527973   -6.2283474 -0.056943379    7976.7652    8910.1088    5031.8326    6100.4964   -861.26482   -770.90747    1168.9949 
   93000    270.68896    -4872.065   -4330.6536    -4872.065            0    4280.0449    18.281212     22.83893    19.319229    -0.444935   -7.1192456   0.16939473    8066.2286    3251.0058    4850.1908     4738.938     -575.923     518.5865   -714.24515 
   93500    244.34342   -4859.1729   -4370.4559   -4859.1729            0    8490.2507    18.092907    22.889133    19.183721  0.011476947   -6.4012695 -0.026648963    7944.5728    8385.9352    8276.7129    8808.1041   -328.93299   -1383.0391   -433.44198 
   94000    250.35469   -4853.4966   -4352.7563   -4853.4966            0    7355.0283    18.000858    22.906426    19.297152  -0.36074573   -6.5605062    0.2294639    7956.8975    8969.6248    8018.4861    5076.9741    1318.8157   -698.98216    430.67681 
   94500    234.40577   -4858.8911   -4390.0506   -4858.8911            0    7938.2419    17.940546    22.884046    19.342599   0.23205236   -6.8642297 -0.043745135    7941.1478    8816.8164    7919.5865    7078.3229   -1521.4116    810.27919    178.17073 
   95000    240.99066   -4868.8508   -4386.8397   -4868.8508            0    6531.0837    17.905657    22.927787     19.37981   -0.1727533   -6.2152343    0.1704711    7956.1311    8571.3587    5988.0855    5033.8069   -1309.8217   -450.88758   -545.68091 
   95500    255.62306   -4824.0409   -4312.7631   -4824.0409            0    7189.2107    18.027136    22.920338    19.363052  0.008777284   -6.8263884 -0.047631535    8000.5814    7484.1221    7965.9825    6117.5273    126.53312    1005.1945     1200.244 
   96000    261.06321   -4854.8011   -4332.6425   -4854.8011            0     5315.066    17.997274    22.965935     19.42387  -0.45227071   -6.0347997   0.35128957    8028.3557    3929.7847    5320.8144    6694.5988    720.03383    -935.6756   -1001.7199 
   96500    253.33315   -4840.8263   -4334.1287   -4840.8263            0    5910.4769    18.095653    22.840321    19.355968   0.32295566   -6.6557479 -0.023130588    8000.0253    6303.8991    5572.8503    5854.6812   -2562.9087   -410.00247   -270.98529 
   97000    252.99652   -4853.3575   -4347.3332   -4853.3575            0    8726.5532    18.038105    22.931175    19.168524  -0.28685716   -6.6600957   0.27944501    7928.7715    7301.7117    8484.0493    10393.899   -1128.8277    551.38176   -1565.3156 
   97500    259.33886   -4854.0709   -4335.3612   -4854.0709            0    7220.6492    18.108193    22.769567    19.373584   0.30873135     -6.04698 -0.040637725    7988.0329    5374.8266     8745.236    7541.8849   -1682.8323    920.22221   -172.51395 
   98000    247.86817   -4850.3078   -4354.5409   -4850.3078            0    6917.5615    17.932895    23.015078    19.389567  -0.52558329   -6.9327206   0.38231719    8002.5972    6885.6202     6296.724    7570.3405    614.56442    737.33962   -352.16383 
   98500    247.37974    -4855.749    -4360.959    -4855.749            0     7811.043    17.906741    22.861349    19.373467   0.11116569   -6.1979414 -0.053848776    7930.9603    8636.9842    7157.9269     7638.218   -224.40338   -70.140493    1568.7983 
   99000    247.79517   -4852.4123   -4356.7913   -4852.4123            0    7670.5427    18.022547    22.901861    19.258967  -0.53642189   -6.5536597   0.15742002    7949.1366    9061.0319    6109.0093    7841.5869    1041.4751   -756.66976     360.0558 
   99500    258.45453    -4813.362    -4296.421    -4813.362            0    7736.4598    18.295945    22.807867     19.15062   0.16151957   -6.8291758  -0.30100332    7991.3909    6969.0098    7594.6763    8645.6935    371.34568    577.69145    754.38074 
  100000    235.26003   -4817.5001   -4346.9509   -4817.5001            0    7864.4795    18.033179     22.86508    19.300485  -0.24433572   -6.3935403   0.27345793    7958.1704    8301.9131    8881.3749    6410.1504   -97.521386    1482.5151    -1784.407 
  100500    250.68414   -4829.0921   -4327.6928   -4829.0921            0    7158.1176    17.906306    22.997748    19.381466   0.21163576   -6.5088436   0.21256146    7981.3788    8537.8811    7204.1507    5732.3211    -2077.428   -106.39383    1.1879988 
  101000    242.33388   -4880.2752   -4395.5775   -4880.2752            0    6996.2809    17.996253    22.917711    19.326454  -0.27447487    -6.666131   0.10621637    7970.8658    7289.9494    7077.6065    6621.2868    593.06037    375.49945   -240.60491 
  101500    256.91921   -4848.4952    -4334.625   -4848.4952            0    6232.1483     18.08621    22.981685    19.267457  -0.26037929   -6.3884764 -0.024122744    8008.5491    5503.0391    6978.9115    6214.4942    571.86376    868.47778   -308.34351 
  102000    223.94645   -4795.9098   -4347.9892   -4795.9098            0    4915.8223    18.190366    23.036802    19.291379 -0.018302092   -6.7157462   0.24308502    8084.0113    4930.0694    4574.1554    5243.2422   -746.61116    458.56866   -217.77618 
  102500    249.26112   -4891.7966   -4393.2435   -4891.7966            0    4892.5849    18.061584    22.899773    19.453102 -0.082863828   -6.4570398   0.26552252    8045.9233    5692.1217    4614.1098    4371.5232    865.91238   -852.28332    797.20276 
  103000    257.02989   -4846.5742   -4332.4827   -4846.5742            0    6768.1581    17.971927    22.980108    19.414917 -0.087611022   -6.5741606 -0.00028120484    8018.2991    6475.0767    6176.1376      7653.26   -827.52772   -263.58901   -871.58521 
  103500    257.79328   -4859.0021   -4343.3837   -4859.0021            0    6048.5536     18.11178    22.806079    19.427749  -0.28987462   -6.6177357 -0.0031553078    8024.8007    6635.8968    5763.5945    5746.1694    846.55133   -259.37104    930.78509 
  104000    247.97032   -4831.4114   -4335.4402   -4831.4114            0    7530.8592    18.020367    23.125936    19.148604 -0.032292697   -6.4260902  0.068822924    7979.9483    8054.1729    5578.8514    8959.5534   -1713.0772   -1492.7738   -774.44792 
  104500    252.51101   -4862.1489   -4357.0957   -4862.1489            0    6894.1852    18.171825    22.704233    19.326631  -0.16736038    -6.748499   0.14485904    7973.7304     6199.832    7347.7498    7134.9738    582.79505    1043.3047   -410.16774 
  105000    275.74521   -4841.1524   -4289.6279   -4841.1524            0    8879.1621    17.803504    23.208789      19.1512  0.061407997   -6.1799173 0.0075143034    7913.2334    7167.5318    8396.2612    11073.693    443.28057   -306.42873    689.01419 
  105500    267.19998   -4834.2303   -4299.7973   -4834.2303            0    8148.0444    18.123689     22.51807    19.518825  -0.33978674   -6.5477446   0.24789889    7965.8372    7807.1524    9405.0297    7231.9512      624.805   -374.38221   -431.43842 
  106000    249.22164   -4878.0604   -4379.5863   -4878.0604            0    6350.3817    17.881115    23.132557    19.342381  0.036492646   -6.5248754  0.026234424    8000.7037    7517.6596    5500.4761    6033.0095   -957.86422    506.53222    851.15437 
  106500    255.55329   -4848.5642   -4337.4261   -4848.5642            0     6553.592      18.4126      22.4451    19.414021  -0.55510389   -6.5592767   0.13953848    8023.2838    4337.0317    7530.8787    7792.8656    1593.0972   -767.98603    156.72798 
  107000    249.30006   -4847.7489    -4349.118   -4847.7489            0    5938.6547    17.968392      23.2644    19.170744  0.081392386   -6.5602792  0.060327327    8013.8284    6682.7788    4949.1813    6184.0041   -922.81271   -249.48582   -561.84764 
  107500    250.24459   -4819.9453   -4319.4252   -4819.9453            0    7169.2598    17.984132    22.619049    19.596353   -0.2231773   -6.4375204    0.2869742    7971.4825    6549.6213    7105.8222    7852.3359   -269.46372   -920.13794   -1042.3252 
  108000    242.61403   -4808.9743   -4323.7163   -4808.9743            0    6688.3625    17.850721    23.117208    19.434847 -0.044441943   -6.4984575 -0.027185101    8019.9613    7066.4582     6623.371    6375.2584    365.96512    500.30897    524.97462 
  108500    248.00097   -4842.6642   -4346.6316   -4842.6642            0    6306.9899    18.091366    22.902055    19.348517  -0.37839531   -6.5142953   0.14420213    8016.6607    6026.5145     6253.964    6640.4912   -931.90703    -1022.741   -356.19261 
  109000    247.18244   -4851.9025   -4357.5071   -4851.9025            0    5808.9265    18.072646    23.027221    19.175412   0.27744229   -6.4534658 0.0079787866    7980.0937    5663.2984    5853.6111    5909.8701   -61.394805   -1495.2622    834.29369 
  109500     252.6752    -4839.346   -4333.9644    -4839.346            0    7562.0081    18.011738    22.793906    19.403021  -0.28572741   -6.3396786   0.25364673    7966.0628    8224.1071    7382.8435    7079.0738    856.14858   -604.57647   -1154.6369 
  110000    251.25606   -4829.5552    -4327.012   -4829.5552            0     6535.669     17.87962    22.925537    19.481639  -0.14975886   -6.5145613 -0.088746232    7985.5219    7165.3714     5802.489    6639.1466    133.04059    276.65099    24.191617 
  110500    260.72892   -4874.6312   -4353.1411   -4874.6312            0    6555.0655    17.849174     22.95089    19.499705  -0.16814367    -6.382646  0.077929795     7988.141    7908.9575    6713.5646    5042.6745    669.37965    1250.1117    1007.8433 
  111000    270.79854   -4853.4863   -4311.8558   -4853.4863            0    5574.4704    18.052602    22.750778    19.549322  -0.11454046   -6.4580417  0.067791565    8029.1165    5224.4467    6921.3183    4577.6462    1283.3294   -81.249678    470.90835 
  111500    246.56807   -4832.8314   -4339.6648   -4832.8314            0    6828.8786    18.034347    23.250895    19.081289   -0.1608748    -6.597735   0.16234229    8001.0653    6933.0715    4408.3637    9145.2005    51.898144   -952.21139   -162.71451 
  112000    243.93105    -4819.658   -4331.7658    -4819.658            0     6026.657    18.218895    22.627911    19.426504 -0.051329624   -6.3709224  0.035786652    8008.6835    5651.3576    5919.6678    6508.9457     243.8233   -1618.1507    1371.8729 
  112500    240.50128   -4845.8996   -4364.8674   -4845.8996            0     8108.424    17.714663    23.219831    19.254997  -0.20198086   -6.5032666  0.083955328    7920.1863    9553.0356    7277.4362    7494.8003    850.49869   -172.27525    273.43623 
  113000    250.93587   -4865.9317    -4364.029   -4865.9317            0    8532.1852     18.06196    22.416002     19.58625  -0.28665181   -6.6597678   0.25042738    7930.0208    10586.183    8317.2577    6693.1151    1930.3032     824.7838   -16.369977 
  113500    250.46221   -4848.4223   -4347.4669   -4848.4223            0    9156.0043    17.758883    23.074478    19.243196  0.050501031   -6.1710698  0.026608461    7885.4181    9991.2005    8388.4675    9088.3447   -546.02068     521.0325    1416.7209 
  114000    240.68676   -4811.5335   -4330.1302   -4811.5335            0    7262.8018    18.173916    22.823879    19.284243  -0.32197241   -6.7165815   0.22983687    7999.0898    6759.2535    7067.1685    7961.9835   -278.11861   -184.50078   -420.30587 
  114500    261.06289   -4835.9009   -4313.7429   -4835.9009            0    7402.6641    17.984823    23.069672    19.146697   0.20758518   -6.0722998  -0.25211812    7944.0404    7110.6798    7075.2407    8022.0719   -253.65259   -760.55762    857.55279 
  115000    244.32376   -4836.2546   -4347.5769   -4836.2546            0    7128.1259    17.986847    22.738769    19.469239  -0.37887748   -6.5996251   0.19318666    7962.8943    8011.8144    8394.2067    4978.3565    1401.2218    767.64416   -1708.2105 
  115500     245.9636   -4847.7139   -4355.7563   -4847.7139            0    7751.4348    17.903247    22.893315    19.355563 -0.012462761   -6.5653251 -0.043390688    7933.1617    8752.1573    7330.8944    7171.2528   -470.41796    721.37702    103.31352 
  116000    251.83773   -4876.8379   -4373.1313   -4876.8379            0    6719.2649    17.933903    22.885344    19.376063  -0.33874381   -5.9481293   0.27672936    7952.3923    4300.4756    7305.5244    8551.7948    802.06296    411.27962    424.41981 
  116500    250.93929   -4855.0422   -4353.1326   -4855.0422            0    8147.9986    18.079654    22.882154    19.259402 -0.050689196   -6.7938102 -0.048463601     7967.642    10731.553     6799.243    6913.1998    597.85938    718.55253   -814.67743 
  117000    237.13064   -4852.2091   -4377.9185   -4852.2091            0    6992.5271     18.08156    22.929229     19.27532  -0.30442034   -6.3855826   0.19991046    7991.4752    7883.7272    6238.1472    6855.7069   -517.07074   -774.89751   -332.18983 
  117500    252.81042   -4851.2392   -4345.5872   -4851.2392            0    5925.8956    17.972664    23.005303    19.346037   0.13728554   -6.1908807 -0.065517172      7998.94    7931.8511    5362.8922    4482.9434   -478.76877   -843.03292   -677.73769 
  118000    236.12575   -4852.9843   -4380.7036   -4852.9843            0    7385.5071    17.993776    22.821792    19.413035  -0.33589228   -6.8085451   0.19043315    7971.9667    6022.9673    8154.2429    7979.3111    217.97178   -206.29182    806.58613 
  118500    254.98913   -4876.3445   -4366.3347   -4876.3445            0    7137.8915    18.023021     22.88107    19.294838 -0.067034709   -6.0915904  0.030900382    7956.9215    6624.8693    7935.4808    6853.3245   -150.23817   -342.29409   -458.21296 
  119000    250.05799   -4877.2304   -4377.0835   -4877.2304            0    6972.9929    18.042765    22.995855     19.22109 -0.056420891   -7.0043258   0.35479344    7974.9994    4992.1673    7002.0209    8924.7903   -1869.7951    1200.9974   -2362.8152 
  119500    229.95188   -4832.4364   -4372.5043   -4832.4364            0     6833.065    17.872171     22.85301    19.537023  -0.11604134    -6.236867   0.10513178    7979.5631    7066.5409    5602.7312    7829.9228    717.67471    99.670099   -1766.5976 
  120000    245.76415   -4837.0713   -4345.5126   -4837.0713            0    6720.2526    18.094525    22.800184    19.290732  -0.11539415   -6.4840596 -0.099251844    7958.5551    5864.3583     7241.096    7055.3034    951.88058   -706.73734    1938.0653 
  120500    260.52521   -4852.9258   -4331.8431   -4852.9258            0    7412.9328    18.119642    22.893525    19.194157  -0.25611523   -6.5939164   0.11069435    7962.1678    7244.1113    6842.7464    8151.9408   -17.586133   -703.54328    177.77347 
  121000    247.27369   -4868.1243   -4373.5464   -4868.1243            0    6232.4224    18.049718    22.918101    19.347539    0.1538309   -6.2489239   0.08967331    8003.4045    6064.4128    6046.1055     6586.749   -234.35726   -585.26016    287.17061 
  121500    245.84816   -4858.8545   -4367.1278   -4858.8545            0    6009.7634    17.897469    22.882584    19.553032  -0.21757618   -6.8744395  0.018768944    8007.7556    5850.1066     6967.218    5211.9655    1440.6043    2049.8847    1754.9057 
  122000    252.92862   -4821.9512   -4316.0627   -4821.9512            0    6779.9436    17.939158    22.897528    19.434617  -0.01838849     -6.01693  0.012495415    7983.0093    7136.0008    6914.9017    6288.9283    361.08424   -255.20545    791.01374 
  122500      267.097   -4827.3484   -4293.1214   -4827.3484            0    6422.7403    18.102303     22.97702    19.299816  -0.26217474   -6.8995239   0.36116735    8027.5068    6125.2613    5587.2999    7555.6595     15.25104   -450.20525   -775.27671 
  123000    258.69458   -4864.6386   -4347.2175   -4864.6386            0     9846.533    17.956101    22.690022    19.410423 -0.046788422   -6.2780921 -0.074172097    7908.2786    9934.5609    10793.103    8811.9349   -881.88964   -90.712764   -369.00549 
  123500    244.81601   -4832.8882    -4343.226   -4832.8882            0    7993.7105    17.899668    22.881591    19.377846  -0.22093668   -6.3648881    0.1892313      7936.64    11095.862    7743.3414     5141.928    579.88052    838.05442    589.88531 
  124000    259.00308   -4855.4585   -4337.4204   -4855.4585            0    7328.0904    18.053751    22.812651    19.329912  0.025215948   -6.7882648  0.077152866       7961.1    8092.0408    7646.9084    6245.3219   -1512.7346    188.83451   -1061.0221 
  124500     254.5078   -4833.0586   -4324.0116   -4833.0586            0    6909.7716    18.019764    23.000765    19.275087  -0.19160219   -5.9671055   0.18047804    7988.9136    6754.7001    7987.5515    5987.0631   -63.988907   -442.27748    1355.6194 
  125000    255.31033   -4827.0405   -4316.3883   -4827.0405            0    6489.2144     18.17752    22.763014    19.377797 -0.059595833   -6.9676977 -0.063386598    8018.0505    6410.9446    5885.7766    7170.9219    543.74178   -280.99511    -669.8874 
  125500    249.43732    -4846.368   -4347.4626    -4846.368            0     6743.521    17.871245    23.007363    19.465603  -0.30718718   -6.3439378   0.25498244    8003.6761    6572.8404    6465.1586    7192.5641    842.82907    26.529516   -1004.1422 
  126000    238.90454   -4845.4176    -4367.579   -4845.4176            0    4838.0129    18.055932    22.828793     19.50326   0.14012574   -6.6173747 -0.030455084    8039.1494    6543.1831    3194.4082    4776.4474    -1901.517   -821.44712   -1341.0202 
  126500    237.96569   -4866.7137   -4390.7529   -4866.7137            0    5415.4604    17.913832    23.237696    19.239704  -0.67543586   -6.6046441   0.19695421    8009.0307    4633.7112    4713.3697    6899.3002    250.49172   -50.071883     -894.279 
  127000    249.63546   -4858.0728   -4358.7711   -4858.0728            0    6462.8977    18.148621    22.765473    19.311113   0.20545978   -6.4222472 -0.045717401    7978.6171    6050.5191    6979.8139    6358.3602    181.25875   -472.95761   -342.89556 
  127500    244.88654   -4841.2911   -4351.4877   -4841.2911            0    7196.8456    18.066717    23.013693    19.176033  -0.45221613   -6.7722751   0.43249454     7973.047    5114.4537    7734.4165    8741.6666    1719.8158    1217.3095   -2274.4649 
  128000    243.90319   -4848.6603   -4360.8238   -4848.6603            0    6914.7674    18.024167    22.734824     19.45769   0.20273507   -6.0081795  -0.16095648    7973.2996     7583.759    7319.2002     5841.343   -1344.0911    512.57409   -480.94541 
  128500    245.01607   -4863.1786   -4373.1162   -4863.1786            0    6556.6636    17.968018    22.935057    19.371376  -0.23177117   -6.6190018     0.314076     7982.896    6326.6694    7295.4978    6047.8237    1517.0979    66.706325   -982.52324 
  129000    260.13639   -4820.5374   -4300.2325   -4820.5374            0     6681.073    18.165736    22.874672     19.29568   0.10357063   -6.4962888  -0.25958872    8018.0353    8689.4184    5961.3641    5392.4364    272.46484   -82.075028    736.01037 
  129500    249.89556   -4857.1319   -4357.3099   -4857.1319            0    7530.0959    18.023534    22.855559    19.359735  -0.35622981   -6.3298523  0.099085506    7975.0095    8954.9506    7340.3006    6295.0366   -219.88588   -364.45795    317.35633 
  130000    238.03908   -4862.9236    -4386.816   -4862.9236            0    6939.6418    17.968252    22.979341     19.35616  0.072397805   -6.9756708   0.11104357    7992.1311     7473.424    7130.5688    6214.9326    1379.2485   -325.48832    749.93303 
  130500    252.50981   -4821.3371   -4316.2863   -4821.3371            0    7032.1181    17.917493    22.931313    19.403571 -0.067782903    -5.918394   0.33632257    7972.3771    6724.2222     7009.782    7362.3499   -1919.8213   -1416.4572   -2005.4008 
  131000    235.39965   -4854.0187   -4383.1903   -4854.0187            0    7572.3846    17.988593    22.953134    19.285105  -0.12435619   -6.6315218 -0.097831981    7962.7156    7928.0212    8003.7015    6785.4311    1711.3938   -318.17291    1360.4748 
  131500     241.6999    -4857.302   -4373.8724    -4857.302            0    5975.9745    18.111999    22.762313    19.468978  -0.42850506   -6.4366941   0.11858613     8026.495    4181.7662    6453.4755    7292.6818   -213.77787    446.05192     163.3416 
  132000    257.72066   -4841.2486   -4325.7754   -4841.2486            0    4571.0549    18.091711    23.106903     19.23401   0.13427374   -6.3635906  0.028328129    8040.6514    5982.4997    4227.5984    3503.0667    -1545.828   -297.41655    2.0791246 
  132500    264.60742   -4846.1709   -4316.9234   -4846.1709            0    5889.7902    18.138399    22.819006    19.361074  -0.13764335   -6.7988528    0.3618989    8013.5529    5009.1274    6220.9601    6439.2831    -1900.914    505.31661    763.07783 
  133000    258.36567   -4838.5074   -4321.7441   -4838.5074            0    8194.8183    17.861472    22.965182    19.408707  -0.01157535   -6.1254978 -0.038612187    7961.2954    7475.1615    9248.8475    7860.4459   -1591.9309   -283.51548   -791.17245 
  133500    263.92462   -4849.3371   -4321.4552   -4849.3371            0    8186.3008    18.005307    22.696478    19.485025  -0.43947576   -6.8032199  0.054532366    7962.6928    9519.9498    8568.8416    6470.1111    1586.7903    518.98598    252.82682 
  134000    246.16439   -4864.4855   -4372.1263   -4864.4855            0    6611.2184    17.932807    23.174345    19.206914 -0.064739734   -6.4233218 -0.098572479    7982.0296    6295.3863    6877.4771    6660.7917   -555.62422   -45.901701    2042.1048 
  134500    264.10931   -4858.1604   -4329.9092   -4858.1604            0    6841.0724    18.193351    22.747842    19.259933  -0.11057445   -6.3232562   0.32504202    7970.9058    6727.6158    5877.9931    7917.6083   -382.98585   -902.19025   -614.06935 
  135000    243.64244   -4843.9547   -4356.6397   -4843.9547            0    8818.4591     17.96736    22.979075    19.113277   -0.1762422   -6.6390411  -0.02153275    7891.3619    7592.1981    10014.007    8849.1722   -872.69366     130.1996   -769.07368 
  135500    240.32599   -4828.1837    -4347.502   -4828.1837            0    7960.6854    17.965895    22.683066      19.4651  -0.31938843   -6.3648666  0.012592494    7932.4481    8629.0908    8100.5476    7152.4179    598.16248   -9.9655536     491.9197 
  136000    258.53519   -4838.6892   -4321.5868   -4838.6892            0    9194.0665    17.693836    23.122976    19.379436   0.20544863   -6.6734094   0.23663969    7928.7888    10540.201    9314.0733     7727.925   -1347.1719    980.02575   -99.165456 
  136500    255.65562   -4851.8773   -4340.5345   -4851.8773            0    7067.3249    18.060032    22.838971    19.408383 -0.062590342   -6.4894909   0.20549459    8005.4252      8210.54    6795.3614    6196.0734   -1281.2312   -20.603328   -452.40153 
  137000    244.69901   -4854.2969   -4364.8687   -4854.2969            0    8381.8279    17.990088      22.9563     19.27668  -0.22036086   -6.5388368  0.020078828    7960.9962    8426.8657    7827.2538     8891.364   -19.064219    535.10142    1350.2457 
  137500    255.39172   -4847.7373   -4336.9223   -4847.7373            0    8097.7825    18.064731    22.892382    19.201388  -0.42412912   -6.5858741 -0.082187375    7940.6328    5982.2723    7763.4033    10547.672     833.7207    154.42945     2001.385 
  138000     244.9844    -4840.431    -4350.432    -4840.431            0    7236.1272    18.147864    22.811601    19.289651 -0.030355473   -6.3094863  0.047110122    7985.5648    6722.7695    7778.7157    7206.8966   -1025.5725    38.385811    278.66054 
  138500    260.83517   -4855.1853   -4333.4827   -4855.1853            0    6746.4235    18.042842    22.925261    19.324848  -0.13313183   -6.8202283    0.4000179    7993.4695    9690.7907    5838.5284    4709.9515     157.4099    1110.8723   -1334.4231 
  139000    239.58739   -4858.4378   -4379.2334   -4858.4378            0    9110.9216     17.88609    22.837415    19.376386  0.078053102    -6.232578  0.090514157    7914.7124     7520.971    8960.3649    10851.429   -154.54483    379.14608   -1016.3657 
  139500    250.01264   -4862.9402    -4362.884   -4862.9402            0    8293.4331    17.955345    22.814183     19.36694  -0.31799461   -6.5724363   0.13275511    7933.4064    9533.3501    8834.8446    6512.1045     498.3094   -1098.5427   -1207.7309 
  140000    257.18645   -4852.6666   -4338.2619   -4852.6666            0    5307.4531    18.112096    22.895936    19.360413  -0.32048955   -6.8003235  -0.24008163    8028.6354    4508.8114    6145.4124    5268.1354    920.99233    321.58283    2341.6049 
  140500    256.77049   -4840.0224   -4326.4497   -4840.0224            0     5998.206    17.982862    22.894449       19.424  0.076039109   -6.1169181   0.22835771    7997.0107    5637.6555     6325.122    6031.8404   -386.76113   -116.22468   -1367.0621 
  141000     245.7929   -4843.5952    -4351.979   -4843.5952            0    7694.3856     17.90137    22.860985    19.443783 -0.00010214726   -6.7651197   0.28070971    7957.2311    8532.0149    6024.1991    8526.9427    913.94817   -488.87408   -2016.1947 
  141500    263.18586   -4836.4486   -4310.0443   -4836.4486            0    7754.2714    17.895517    22.917134    19.361249  -0.21405799    -6.061861 -0.039196803    7940.3185    7303.0748    8577.7377    7382.0017    551.80886   -688.99897     1355.388 
  142000    242.36917   -4831.9226   -4347.1543   -4831.9226            0    6894.3032    18.176187    22.802871    19.235347  -0.27962865   -6.7947949 -0.065407463    7972.4598    7164.9146    6917.9923    6600.0027    522.49341   -162.09458    2500.5734 
  142500    241.73664   -4832.9119   -4349.4088   -4832.9119            0    8130.6049    18.064178    22.885854    19.253869  0.029408666   -6.4838814   0.16195443    7959.8216    6464.4905    8033.3257    9893.9983   -530.04599    307.22403    250.65139 
  143000     244.2071   -4849.7014   -4361.2571   -4849.7014            0    7552.3219    18.092061     22.79305    19.268779  -0.13765372   -6.5357898   0.49506415    7945.9291    6419.1117    7435.3985    8802.4553    1143.8983    -733.9694   -1058.8434 
  143500    245.85697   -4856.8484   -4365.1041   -4856.8484            0    6594.7265    17.978292    22.960848    19.364286 -0.013485675   -6.7903303  0.032237862    7993.5161    5554.7981    6549.4274     7679.954   -378.76291    475.53287   -785.11182 
  144000    245.75529   -4831.0625   -4339.5216   -4831.0625            0    7198.5038    17.955813    22.843014    19.468094  -0.30189999   -6.2767857 -0.0085641905    7985.1286    9036.7653    6577.0654    5981.6808    476.50856   -822.30457     876.6788 
  144500    237.61381   -4844.9354   -4369.6784   -4844.9354            0    8081.1996    17.785236    23.162382    19.285527  -0.18519307   -6.6874768  -0.04289314    7944.6421    11844.335    6573.9238    5825.3398    643.31114    940.82105    1701.6253 
  145000    246.02074   -4846.6078   -4354.5359   -4846.6078            0    5663.3114    18.144409    22.743777    19.396824  -0.16838559   -6.4080189   0.20102102    8004.5337    6469.4524    4439.3128    6081.1689   -479.19576    82.395724    119.93281 
  145500    254.52984   -4844.9239   -4335.8327   -4844.9239            0    8557.1079    17.874565    23.046172    19.290118  -0.05056709   -6.5272421   0.29289457    7946.3772    9007.1169    8479.4947    8184.7123   -851.29038    667.26501    284.28956 
  146000     248.4214   -4852.0497   -4355.1762   -4852.0497            0     7332.705    18.206468    22.504335    19.460282  -0.03924168   -6.4785795  -0.10678217    7973.3537    7652.4563    8175.8611    6169.7977    778.30527   -390.25184     2083.118 
  146500    245.60606   -4841.5179   -4350.2754   -4841.5179            0    7664.0169    17.830854    23.225178    19.221425  -0.52223085   -6.2993094 -0.029859478    7960.0678    8635.4801     5944.258    8412.3126     1542.422   -1117.1694   -249.27701 
  147000     239.4557   -4859.1576   -4380.2166   -4859.1576            0    7123.5317    18.033871    22.691434    19.510419  -0.15544266   -6.6026644 -0.030822421    7983.9444    8228.1139    6985.0472    6157.4341    326.34532   -186.29368     105.5276 
  147500    250.41578   -4833.5396   -4332.6771   -4833.5396            0    7699.1181    17.813605    23.258595    19.181554  0.078442524   -6.2108441   0.43940073    7947.2905     7597.154    7381.7536    8118.4467    -292.3616   -65.419059   -968.56406 
  148000    248.20034   -4860.6251   -4364.1938   -4860.6251            0    7366.4906    18.176487    22.602479    19.411011 -0.092006325   -6.6945154    0.1123489    7974.6965     7871.917    6948.2193    7279.3356   -197.07222   -288.85105   -28.572873 
  148500    239.63809   -4840.5051   -4361.1993   -4840.5051            0    5844.2895    17.869608    23.305627     19.32079  -0.25920574   -6.4090702  0.057980749    8046.3829    6312.8314    5015.5116    6204.5254    436.61887   -110.87985    134.97555 
  149000    257.81741   -4839.0248   -4323.3581   -4839.0248            0    6989.2881    18.350134    22.470669    19.437689  -0.17582968   -6.7945478 -0.041622893    8014.9324    4280.6503    8561.9453    8125.2688    876.54641    1181.0717    174.71867 
  149500    250.79962   -4813.8907   -4312.2604   -4813.8907            0    6940.1539    17.870208    23.313269     19.12821  -0.25398506   -6.4465175   0.29475134    7969.0605    6118.5525    6664.5412    8037.3681    494.68914   -24.706853   -2606.4068 
  150000    249.41479   -4866.0255   -4367.1651   -4866.0255            0    7608.9374    18.151767     22.50308    19.473805   0.12009761   -6.5183662   0.11042919     7954.478    6620.2023    9019.4451    7187.1648   -1410.0717   -57.283897    48.456373 
  150500    243.64102   -4861.3816   -4374.0694   -4861.3816            0    8341.5288    17.802163    23.158939    19.215659  -0.37265263   -6.6528322   0.32923088    7922.2166    10120.799    6657.8524    8245.9345    1109.2855   -714.84068   -2070.9462 
  151000    252.13216   -4802.0001   -4297.7047   -4802.0001            0    7299.5748    18.118782    22.763814    19.421701 -0.088842834   -6.4809709   0.02449134    8010.5306    6245.9841    8357.2034    7295.5368   -420.18961   -1083.5996   -326.12601 
  151500    244.96222   -4847.1878   -4357.2331   -4847.1878            0    6674.8526    18.005823    23.163684    19.165384  -0.16578217   -6.7003532   0.19169541    7993.5213    6773.0471    7068.2806    6183.2301    664.80158    1120.4412    285.72961 
  152000      258.132   -4854.2883   -4337.9925   -4854.2883            0    6063.8381    18.224148    22.701816    19.406093 -0.0030557128   -6.4626345 -0.00020513397    8028.7128    5628.3682    6191.5397    6371.6064    465.26431     121.9187    1212.1352 
  152500    249.20267   -4866.7438   -4368.3077   -4866.7438            0    7067.2494    17.864809    23.105379    19.382726   -0.1478018   -6.4214912   0.30281345    8000.6696     8524.983    6654.3137    6022.4516    429.89311    587.19878   -622.40575 
  153000    254.70125   -4851.2874   -4341.8534   -4851.2874            0    6594.9066    18.081646    22.702983    19.531001  0.023783096   -6.8361684  0.095576659    8017.6185    6676.7068    7610.2662    5497.7466   -252.17984    950.82582   -178.42733 
  153500    251.94175    -4839.856   -4335.9413    -4839.856            0    6952.5424    17.993295    22.920652    19.337499  -0.35601657   -6.0950645  0.038129142    7975.1333    7767.4857    7386.4199    5703.7215    545.08314   -1383.8134    1098.6495 
  154000    239.41722    -4830.469    -4351.605    -4830.469            0    8341.2127    18.009337    22.854321    19.273333  0.033744304   -6.7490704   0.17659957    7932.7334    8647.5954    8565.9309    7810.1119    -1262.461    980.53361   -1285.5255 
  154500    248.89952   -4877.1316   -4379.3018   -4877.1316            0    8818.4043    17.878335    22.731413    19.430256  -0.37430388   -5.9278608   0.30187013    7896.4529    8144.9344    9768.0074    8542.2712   -1829.2421   -968.48274   -1379.1927 
  155000    242.77531   -4845.6248   -4360.0442   -4845.6248            0    8651.0675    18.092109    22.825609    19.259327  0.031437722   -6.6454413  -0.11700945    7953.3976    7524.7386    9305.7768     9122.687   -575.32815   -588.97599    352.99946 
  155500    246.33875   -4837.9038   -4345.1959   -4837.9038            0    7715.4718     17.96846    22.960442    19.316559  -0.30679804    -6.468644   0.19253164    7969.3127    9538.6895    7458.6192    6149.1066   -420.76692   -1072.6022    568.52516 
  156000    249.35363   -4875.7863   -4377.0482   -4875.7863            0    6299.0469    18.001078    22.869677    19.406102   0.59822421   -6.1596985  0.097584118    7989.0817    6446.2067    6405.8053    6045.1288   -2538.7202   -1104.6241   -124.09569 
  156500    241.31644   -4849.6327     -4366.97   -4849.6327            0    5574.0406    18.069002    22.883049    19.365861  -0.39625556   -6.6558392    0.1553709    8007.2772    5730.0456    5689.9726    5302.1034    1174.3681   -278.64896    543.53276 
  157000    249.32287    -4857.443   -4358.7665    -4857.443            0    6822.0537    17.978517    22.936605    19.347576   -0.1970567     -6.33429 -0.072050583    7978.2851    5174.2507    7357.1369    7934.7735    85.220662    126.65729    572.86161 
  157500    250.93002   -4856.2901    -4354.399   -4856.2901            0    6327.4771    18.062388     22.92902    19.309334    -0.220816   -6.7857058   0.18118385     7997.016    5619.1419     6697.046    6666.2435   -967.54534    864.76456   -1344.5461 
  158000    247.55801   -4873.7779   -4378.6313   -4873.7779            0    7438.1349    18.046229    22.689353    19.361081  0.092303024   -6.3517971    0.1836019     7927.535    8999.9521    7765.0029    5549.4498   -328.43522   -337.83278    920.87771 
  158500    246.30158   -4858.0727   -4365.4391   -4858.0727            0    9051.2826    17.920078    22.967582    19.222312  -0.28514966   -6.4861922  0.043068265    7911.5357    8236.5802    8305.2683    10611.999   -639.46018   -684.90429   -383.09304 
  159000    244.71382   -4857.3332   -4367.8754   -4857.3332            0    7590.4207     18.05025    22.885007    19.283081  -0.34005551    -6.509738  0.059595753    7965.4569    8234.3537    7139.8812    7397.0271    366.86809   -556.77295   -388.98505 
  159500    252.19961   -4828.1708   -4323.7404   -4828.1708            0    6827.6879    17.986913    23.010287    19.257189  0.097412949    -6.483922   0.31859937     7970.243    7717.1197    7313.2155    5452.7285    475.90212   -32.164972    796.09533 
  160000    258.40797   -4856.8339    -4339.986   -4856.8339            0    8457.5949     17.98921    22.756581     19.36931   -0.2802227   -6.4963004   0.16188751    7929.2707    8782.2768     8609.993    7980.5149    269.42403    1437.7503   -883.54376 
  160500    234.46059    -4830.329   -4361.3789    -4830.329            0    5320.1868     18.06168    22.872637    19.427693 -0.076975599   -6.4888405  -0.17615033    8025.9346    4666.1992     6652.554    4641.8073    1149.8905     1084.278    1754.0733 
  161000    253.94201   -4884.9868   -4377.0714   -4884.9868            0      5349.26    18.016997    23.080512    19.289653  -0.35417607   -6.4785789   0.13638443    8021.4385    4777.3975    5216.5071    6053.8752    265.27713   -1786.9061   -628.39364 
  161500    237.37388   -4829.4016   -4354.6245   -4829.4016            0    5769.3755    18.103837    22.962583     19.39539    0.2248304   -6.4813424  0.021888153    8062.8745    5378.1754    5721.8596    6208.0915   -823.18611   -56.438284   -615.89362 
  162000    238.52482    -4829.686   -4352.6069    -4829.686            0    5348.7253     17.95363    23.126228    19.418072  -0.46230374   -6.5416254   0.41854097    8062.3781    5306.7986    5098.5991    5640.7783    1375.0282    261.40702    352.52919 
  162500    254.89754   -4862.8299   -4353.0033   -4862.8299            0    6243.6791    18.074663    22.673594    19.481086 -0.079780405   -6.5964405  -0.10127025    7983.6912    7176.5733     5910.706     5643.758   -455.20187   -18.634976    2395.5735 
  163000    241.30616    -4833.863   -4351.2209    -4833.863            0    7275.8623    17.904428    23.164247    19.140932  -0.38153608   -6.3107218    0.1054819    7938.5595    7464.1779     6793.368    7570.0409    884.39573    935.11389   -657.96675 
  163500    249.82826   -4854.3559   -4354.6685   -4854.3559            0     6070.518    18.371666    22.558009    19.317021 -0.062543263   -7.0102148   0.11761849    8005.5184    6056.7324     7317.714    4837.1075    -351.7892    1306.3192    524.47577 
  164000    255.33162   -4875.3882   -4364.6934   -4875.3882            0     7266.382    17.871375    23.126589    19.254805 -0.087851511    -6.266969  0.098273671     7958.087    8728.5501    5571.8421    7498.7539   -758.41043   -735.32235    -963.8314 
  164500    255.51832   -4841.5049   -4330.4367   -4841.5049            0    7959.3548    17.988195    22.649556    19.505111  -0.21579812   -6.7795889   0.26555253    7946.8628    8863.4518    8070.3464    6944.2663   -302.64557     565.4184   -1680.9188 
  165000    253.24485   -4855.0414   -4348.5204   -4855.0414            0    7248.3314    17.913996    23.016691    19.283334 -0.042504401   -6.5344966 -0.054008405    7950.9219    5636.2145    8400.0557     7708.724    850.24607     2030.007    2475.1739 
  165500    247.79136   -4826.0134   -4330.4001   -4826.0134            0    8435.0587    18.069587    22.844765    19.286748  -0.16114986   -6.3110367  0.070067672    7961.4821    10326.599     8013.024    6965.5529    35.149614   -843.43316    2008.4785 
  166000    259.01375   -4831.7257   -4313.6662   -4831.7257            0    7280.6039    18.175946    22.932987    19.202901  -0.17678608   -7.0038166   0.13541427    8004.3208    4984.2894    8115.1409    8742.3815   -500.07698    1529.0884   -320.13095 
  166500    236.84141   -4844.5978   -4370.8857   -4844.5978            0    7546.1773     17.99678    22.850367    19.343675 -0.055143173   -6.0396733  0.047914538     7954.758    7468.3592    7519.8974    7650.2752    31.790188   -258.70987    1312.0402 
  167000    248.22615   -4861.2941   -4364.8112   -4861.2941            0    6448.4585    17.887087    23.042145    19.372718  -0.32609115   -6.6073802   0.14958374    7984.5986    7949.8514     5921.097    5474.4271   -703.09025    773.08285   -156.15606 
  167500    245.73054   -4858.1375    -4366.646   -4858.1375            0    7646.1529    17.971952    22.651021    19.582501 -0.079961537   -6.3800408 -0.067175907    7971.7046    8023.5019     7741.762    7173.1949    969.47532   -546.21687    1671.5391 
  168000     245.7798   -4823.4758   -4331.8858   -4823.4758            0    6981.2202    18.005729     23.10646    19.208062 -0.068484086   -6.4471228   0.17170936    7991.4882    6336.0501     6743.664    7863.9466   -501.34699   -793.51532    1359.1567 
  168500    241.93897   -4834.0583   -4350.1505   -4834.0583            0    7793.9188    18.111173    22.862469    19.270887    -0.148645   -6.5744173   0.20479595    7979.4215      9137.68    7868.3675    6375.7091    933.11675    118.22828   -1134.9917 
  169000    263.83201   -4849.0859   -4321.3893   -4849.0859            0    6149.3246    17.842101    22.994269    19.578369  -0.13106073   -6.2671691  -0.18026444    8032.3406    7802.6399    5552.8856    5092.4483    503.36837   -1013.0607    201.57466 
  169500    245.39632   -4857.6784   -4366.8554   -4857.6784            0    5591.0817    18.039419    22.873076    19.442767 -0.047856812   -6.6762801   0.25664125    8022.4162    6255.4073    6519.2738     3998.564   -1457.9438    807.61986   -705.86936 
  170000    251.28893   -4846.3149    -4343.706   -4846.3149            0    6298.5503    18.095358    22.811314    19.399866 -0.090029739   -6.3827951   0.28923126    8007.8552    6886.2015    6200.8546    5808.5947   -243.71936   -125.05915   -2090.4743 
  170500    241.00967   -4876.9402   -4394.8911   -4876.9402            0    7080.5966    18.026573    23.051055    19.104658  -0.19609456   -6.5254256  -0.16548541    7938.5874    7950.4002    5991.4545    7299.9352    547.49401    151.62413   -141.29304 
  171000    259.44393   -4858.8215   -4339.9016   -4858.8215            0    6624.4008    18.134948    22.689248    19.463629  -0.35730458   -6.5757279   0.10182814    8008.6667    8151.5387    6811.4217    4910.2421    1218.6534    17.584377   -259.08724 
  171500    242.93077   -4846.6055   -4360.7139   -4846.6055            0    7307.9489     17.81167    23.252535    19.224912 -0.082112427   -6.2765463 -0.006930617    7962.3141    6489.9751     6911.456    8522.4156   -459.95685    704.82323    1315.8281 
  172000    245.04143   -4855.0746   -4364.9614   -4855.0746            0    6585.5582    18.146592    22.508305    19.544328 -0.093456524   -6.8041421    0.4792579    7982.8617    6514.5789     7226.645    6015.4507   -1902.5418    621.08818   -2314.5074 
  172500    255.11293   -4857.6886   -4347.4312   -4857.6886            0     8186.573    17.954449    23.034373    19.270505 0.0028540993   -6.3684786  0.066395913    7969.6927     8039.697    8552.2061    7967.8161    289.95864   -1110.7591    1481.2722 
  173000    236.14005   -4852.8735   -4380.5643   -4852.8735            0    6268.3468    18.117519    22.607863    19.507791  -0.40473732   -6.8808988   0.23428757    7990.3595    5393.0082    6650.1951    6761.8373    805.15814    789.82885   -1083.7149 
  173500    257.32462   -4843.1525   -4328.4715   -4843.1525            0    7066.1284    17.868528    23.341498    19.122341 -0.035514564   -6.1114768  0.018991761    7975.5115    8560.8421    3634.6261     9002.917   -1596.6901   -1634.5028   -1113.4278 
  174000     251.3708   -4861.0944   -4358.3218   -4861.0944            0    6905.5338    18.143568     22.71416    19.355326  -0.24170251   -6.7042284   0.18569294    7976.6379    5990.0495    6011.9996    8714.5521   -1291.8652   -1648.8003   -823.99235 
  174500    251.18093   -4832.4411   -4330.0482   -4832.4411            0    6492.3539    17.944549    23.227148    19.118091   0.13557078   -6.4347899  0.010009652    7968.4334    6517.1982    5480.7899    7479.0737    634.98421    38.908231    1563.4938 
  175000    254.38768   -4866.4538    -4357.647   -4866.4538            0     6443.252    18.010571    22.787201     19.37694  -0.20534871   -6.4204539   0.22316732    7952.4998    6948.1332    6138.4717    6243.1511   -544.40408     -796.304   -810.28716 
  175500    237.88325   -4882.8117   -4407.0158   -4882.8117            0    6257.0558    18.003796    22.810669    19.456226  -0.15638551   -6.7818447 -0.034719772     7990.256    7419.5832    6312.0522    5039.5321   -154.36009    887.63564    247.56486 
  176000    245.94835   -4848.1093   -4356.1823   -4848.1093            0    7812.5147    17.996786    23.016649     19.22504  -0.32940128   -6.0446751  0.091876987    7963.5059    7466.1408    7575.6237    8395.7795    803.37789   -446.53193    472.79449 
  176500    243.82212   -4854.1733   -4366.4989   -4854.1733            0    6837.1188    18.191318    22.839306    19.243336 -0.089176652   -7.1907876   0.12663792    7995.1654    5287.1416    8264.0539    6960.1609    80.800807    1226.6664    1448.0819 
  177000    245.04629   -4819.8094   -4329.6865   -4819.8094            0    7219.5827    17.930021    23.038739    19.401262  -0.14559816   -6.0202179   0.10945528    8014.3718    7797.7604    6758.9107    7102.0769   -117.22773   -677.87735   -671.34487 
  177500    250.65456    -4860.712   -4359.3719    -4860.712            0    6534.8084    18.048754    22.900285     19.35189  -0.20330821   -6.6580003  0.032358358    7998.5541    7796.0934    6752.1582    5056.1736   -879.79697   -116.70413   -1833.6428 
  178000    257.14772   -4857.0201   -4342.6929   -4857.0201            0    7782.0606     18.12714    22.988212      19.0624  -0.21181181   -6.4346187   0.12725898    7943.5029    7095.5137    7321.5445    8929.1237    -1060.744    144.39648   -100.67295 
  178500    237.43343   -4871.2576   -4396.3614   -4871.2576            0    7486.7026    18.038621    22.796867     19.27336 -0.021738942   -6.2667527   0.21677535    7925.6689     8153.442     7620.992    6685.6737   -305.94752   -1725.3801    -2511.806 
  179000    256.47977   -4847.9923   -4335.0011   -4847.9923            0    7562.0074     17.89577    22.898457     19.46858  -0.15435595   -6.7642095   0.12168367    7977.9423    8334.5096    8320.7828    6030.7298    1015.1268    2647.1488   -890.38713 
  179500    238.65802    -4838.989   -4361.6435    -4838.989            0    7162.6383    17.909987    22.918198    19.485098  -0.34614109   -6.1690686  -0.13350944    7997.9433    7940.2398    7187.8683    6359.8067    943.25379   -686.61515    741.81011 
  180000    249.20717   -4842.6172    -4344.172   -4842.6172            0     6578.866    18.071901    22.952629    19.282995 -0.011896747    -6.531611  0.082953438    7998.5407    7407.5869    6449.1423    5879.8687   -923.25082   -290.80082   -1049.3351 
  180500    248.20096   -4854.7519   -4358.3193   -4854.7519            0    6853.4056    18.132608    22.825278    19.258251   -0.1597507   -6.6318398   0.25406997    7970.6399    5496.5636    7484.1458    7579.5073    205.85977    251.26581   -368.68608 
  181000     262.7073    -4878.196    -4352.749    -4878.196            0    7596.6218    17.956528    22.857936    19.283244   0.18870624   -6.2527861   0.38107041    7914.7916    7543.2258       7873.9    7372.7396    -1395.602   -302.81097   -1094.8195 
  181500    247.59916   -4853.1636   -4357.9347   -4853.1636            0    7365.5661    17.958307    22.761906    19.474462   -0.2505281   -6.5440455  0.065033066    7960.4839    8039.4456    8218.1617    5839.0908    1141.6811   -412.18744    800.31361 
  182000    249.55387   -4839.6534   -4340.5148   -4839.6534            0     6901.432    17.932528    22.934841    19.409535   -0.2567479   -6.3652357 -0.098250368    7982.7476    7676.8787    7076.2444     5951.173    1654.2743   -346.89157    1068.7636 
  182500    265.17005   -4853.5308    -4323.158   -4853.5308            0    8187.1821    18.048636    22.792913    19.287244   -0.1398264   -6.3431395   0.42543917    7934.4052      6445.94    8956.8805    9158.7258   -1214.5065   -1556.3617   -2660.9696 
  183000    243.66283   -4862.3825   -4375.0267   -4862.3825            0    6638.0153    18.074231    22.889438    19.311078  0.032567689   -6.7630897   0.18044165    7989.1663    6240.8987    7046.7241     6626.423   -1121.9352   -844.22663   -203.65978 
  183500    254.72018   -4845.8527   -4336.3809   -4845.8527            0    6628.5461    18.071489    22.942013    19.301297  -0.36539431   -6.0421239 -0.089351237    8002.2467    6514.9147    6334.1101    7036.6136    697.87131   -439.90733    1538.2644 
  184000    237.94703    -4859.269   -4383.3455    -4859.269            0    5086.2604    18.067517    22.960759    19.404339  -0.10418325   -6.6821094  0.032461768     8049.772    4773.6184    4611.7175    5873.4454    250.97645   -643.66275    1188.3621 
  184500    252.58392    -4823.956   -4318.7569    -4823.956            0    7442.7339    17.990886    22.814025     19.50879  -0.13341119   -6.4909058    0.1414389     8007.276    9122.9394    5841.0223      7364.24    636.20163    12.662658   -805.44691 
  185000    260.20504   -4842.4884   -4322.0462   -4842.4884            0    6162.6062     17.93443    23.119747    19.298625 -0.031571221   -6.0602416    0.2541077    8001.9718    8432.8317    3858.7265    6196.2606    526.13294   -900.22906    171.28979 
  185500    252.65806   -4861.0369   -4355.6895   -4861.0369            0    6374.5309    18.101915    22.816797    19.343178  -0.18992882   -6.7912917  0.032391923     7989.269    7520.9727    6456.9656    5145.6545    1571.9692    295.36563   -84.797199 
  186000    254.37633    -4835.359   -4326.5749    -4835.359            0    8709.9851     17.96683    22.829217    19.369638  -0.14057661   -6.1844086    0.2339871     7944.818    10107.147    8058.5651    7964.2431   -496.40783   -1340.5544   -1819.8493 
  186500     252.9777   -4868.3578   -4362.3712   -4868.3578            0    8164.4925    17.951401    22.897725    19.348612  0.059759725   -7.1533432  0.038332072    7953.1741    8224.5987    8563.3737    7705.5051   -1557.6412    1092.6773   -1517.3031 
  187000    253.72218   -4866.5773   -4359.1016   -4866.5773            0    7180.5498    17.940346    22.939912    19.345649  -0.28819756   -6.1590013 -0.034299038    7961.7011    8206.4528    6963.5192    6371.6773   -180.93468   -503.63003    1383.2626 
  187500    246.12694   -4845.8531   -4353.5688   -4845.8531            0    7997.2262    18.084524    22.916555    19.191316 -0.029761356   -6.7324965   0.16903172    7953.5532    8070.5463    6473.5679    9447.5643    672.50582   -901.22877   -401.73748 
  188000    257.15951   -4839.6093   -4325.2586   -4839.6093            0      10045.4    17.879358     22.87286    19.372381  0.039170066   -6.4537547   0.34467959     7922.375    10783.696    9228.3679    10124.137   -94.934821   -1173.7037   -2718.4681 
  188500    251.97273   -4846.2422   -4342.2656   -4846.2422            0     7721.402     17.93065    22.976027    19.303422  -0.11383207   -6.3456054   0.16186212    7952.5287    7550.0868    7904.5056    7709.6136   -1156.2883    770.87923   -740.22117 
  189000    240.48012   -4863.9737   -4382.9838   -4863.9737            0    7441.8109    18.267736    22.753526    19.194023  -0.23972943   -6.7296454  0.011590983    7978.0994    7025.6522    6625.7718    8674.0086   -635.91306    237.06579    504.04325 
  189500    242.44251   -4861.8394   -4376.9244   -4861.8394            0    5572.7185    17.932746    23.027819    19.390976 -0.046380358   -5.9922539  0.095627547    8007.5433    6496.9696    4266.5538    5954.6323   -416.68541    -1303.645    1451.6315 
  190000    255.21182   -4811.0841   -4300.6289   -4811.0841            0    7292.6105     18.02697    22.711304    19.486559  -0.14295919   -6.9767842    0.1730081    7978.1093    8368.5918    7174.3093    6334.9306    1386.4119    610.06985   -1703.4133 
  190500    261.73991   -4850.7261    -4327.214   -4850.7261            0    8117.2929    17.845118    23.026895    19.388322 -0.032301857   -6.0525733 -0.00098694382    7967.0037    6609.1465    8206.0903    9536.6418   -998.67534   -229.39237    220.05586 
  191000    250.27746    -4833.141   -4332.5552    -4833.141            0    6291.6577    18.070887    22.849128    19.355859  -0.24843789   -6.4203653  0.054049495    7992.1119    6786.6567    6707.6543    5380.6621    180.47442    -95.03441    256.20308 
  191500    245.45749   -4864.4927   -4373.5474   -4864.4927            0    7410.6956    18.003393    23.044934    19.227249  -0.25521583   -6.6509068  0.049906366    7977.1357    5650.3442    7946.0599    8635.6828   -159.53554     1222.672    1083.6996 
  192000    266.32003   -4867.2483   -4334.5753   -4867.2483            0    8213.1382    18.077792    22.768336    19.313286 0.0094808898   -5.7918402   0.24446648    7949.3724    7078.6447    8283.2309    9277.5389   -941.62633   -327.21717   -1796.2788 
  192500    263.61355   -4825.4601   -4298.2005   -4825.4601            0    7901.3762    17.992192     22.96615    19.237679  -0.15541584   -6.6559339  0.077333981     7949.228    8824.3626     7520.473    7359.2929   -412.01974    606.62033   -439.65974 
  193000    256.83473   -4865.5472    -4351.846   -4865.5472            0    8379.6616    17.792084    22.831235    19.515591   -0.1861625   -5.9876768  0.057152355    7927.5308    9821.4346     8626.028    6691.5221   -591.95552   -945.57166    195.81822 
  193500    250.77414    -4836.371   -4334.7917    -4836.371            0    7106.7167    17.941516    22.948472    19.408941   -0.1398687   -6.8158238   0.15095071    7991.2505     8244.786     6750.949    6324.4152   -584.64962    549.40421    163.44208 
  194000    244.87872   -4837.9358   -4348.1481   -4837.9358            0    7013.8196    18.047261    22.870042     19.35417 -0.0076820538   -6.3581155   0.10744081    7988.2715    7198.0074    6927.0182    6916.4334    -998.1638   -303.15805     334.1776 
  194500    259.06316   -4842.9577   -4324.7993   -4842.9577            0    9188.5186    17.919319    23.003887    19.231907  -0.13119926   -6.2643746   0.13190902    7927.6608    11657.971    6927.2579     8980.327    327.45214   -635.95064    -1643.752 
  195000    255.42634   -4850.1258   -4339.2415   -4850.1258            0    9024.8307    18.073158    22.769089    19.248008  -0.21170901   -7.0133358  0.027750879    7920.7352    9063.6312    8943.1912    9067.6699   -557.54579    437.00437    1401.7328 
  195500    257.56869   -4831.7324   -4316.5631   -4831.7324            0    7179.9421    17.925227    22.912059    19.369462 -0.0068382409   -5.9422203  0.082849209    7955.1128    8324.6786    6511.6325    6703.5153   -69.958571    -363.6713   -813.57645 
  196000    243.93721   -4851.7639   -4363.8594   -4851.7639            0    7381.3405    18.015988    22.875705     19.41151  -0.12379917    -7.163015   0.14665627    8000.0352    6065.4154    7674.5244    8404.0816    1128.2388    1303.5391   -233.91715 
  196500    255.20666   -4845.9933   -4335.5484   -4845.9933            0    6047.7727    17.996165    22.901154    19.406543  -0.16871676    -5.958409   0.10246777    7998.0754    6489.2672    5892.6762    5761.3746    552.61028   -259.77913    508.64776 
  197000    243.98132   -4840.7076   -4352.7148   -4840.7076            0    5073.5222    18.095798    23.066141    19.176574  -0.20136369   -6.7689845   0.21328623    8004.3065    6268.5111    4788.0146     4164.041   -292.07002    619.30651   -55.539676 
  197500    250.87358   -4851.2283   -4349.4502   -4851.2283            0    6860.7867     17.99707     22.75543    19.464344  0.071637451   -6.4633652   0.12085776    7971.2536    7328.3363    6808.9976    6445.0262   -533.09289   -519.73889    1595.3136 
  198000    253.40105   -4855.6552   -4348.8218   -4855.6552            0      7795.76    17.863117    22.978891    19.390236  -0.28624258   -6.3990706   0.16702622    7959.1999      8534.93    7922.2357    6930.1144    1006.0381    645.09604    750.67673 
  198500    238.86099   -4841.5231   -4363.7716   -4841.5231            0    8182.5815     17.94384    22.697161    19.521989 -0.041209003   -6.9123483  -0.26116053    7950.8028    9150.6847    8633.7354    6763.3245   -81.640402    1217.7793    253.70732 
  199000    250.02767   -4820.7056   -4320.6194   -4820.7056            0    8410.7996    17.935108     23.00546    19.284844  -0.22815992   -6.2395814   0.34081598     7957.031    9133.0235    8326.6973    7772.6781    635.66304    1239.5831   -84.753364 
  199500    261.36524   -4840.0888    -4317.326   -4840.0888            0    8109.5435    18.104626    22.842181     19.24856 -0.0036897923   -6.5845765   0.10570718    7960.2255    7769.1205    8158.6866    8400.8235   -401.59564   -1147.8529    1269.0767 
  200000    244.95407   -4831.3502   -4341.4118   -4831.3502            0    7538.9136    17.958364    22.993259    19.190706  -0.52389501   -6.3762276    0.2416912    7924.2517    6655.4966    7617.1741      8344.07    324.68816    125.86281   -242.32309 
  200500    242.07957   -4858.2044   -4374.0153   -4858.2044            0    6948.9848     18.02124    22.881998    19.372327  0.052217861   -6.4713569  -0.22231875     7988.411    6228.2668    6541.3564    8077.3313    539.34512    468.20333    1138.9525 
  201000    237.73543   -4825.0136   -4349.5134   -4825.0136            0    6574.1105    17.958665    22.981962     19.38821   -0.4965363   -6.4860921    0.2376648    8002.0059    5588.1935    6879.4112    7254.7268   -596.22277   -586.72306   -222.72186 
  201500    251.68328   -4839.3392   -4335.9415   -4839.3392            0    6925.0175    18.122768    22.776928    19.409455   0.21041712   -6.4640774   0.17680792    8011.8537    7640.1294      6310.42    6824.5032   -141.04618   -419.61012   -566.23873 
  202000    257.84097   -4877.7704   -4362.0566   -4877.7704            0    6118.7709    17.953929    22.945131    19.379092  -0.15677912   -6.5254341   0.12885558    7983.3187    6647.6041    6151.6954    5557.0133   -734.29134    1582.4487   -2512.9795 
  202500    242.89522   -4864.3087   -4378.4882   -4864.3087            0    6070.3359    18.127738    22.777071    19.293885 -0.090190145   -6.1627553  -0.16877076     7966.383    5037.9702    6318.7775    6854.2601    800.80912   -355.24521    339.17784 
  203000    244.77536   -4876.3069   -4386.7259   -4876.3069            0    6948.7686    18.041278    22.950038    19.233992  -0.24494129   -6.9344788   0.33082388    7963.7962    6396.4536    7703.7505    6746.1017   -86.227894     1140.298    617.22813 
  203500    255.21018   -4853.0638   -4342.6119   -4853.0638            0    6675.8665    17.874127    22.964075    19.495306 -0.0045381928    -5.970511  0.020718354    8002.0977    7849.2846    6343.8296    5834.4855   -552.41898   -1589.0521    718.07798 
  204000    242.76731   -4871.3687   -4385.8041   -4871.3687            0    6478.4485    17.978367    22.904011    19.416642  -0.21414699   -6.7672887  0.042604774    7995.3209    7951.4573    6060.1605    5423.7277    1030.3806   -90.521321    1074.4678 
  204500    242.79429   -4867.2685   -4381.6499   -4867.2685            0    6267.9044    18.021629    22.969025    19.313297 0.0043585363   -6.2871606 -0.061667807    7994.5316    6014.8053    6017.8675    6771.0403   -832.86965   -5.8348717    62.022388 
  205000    243.80118   -4864.7221   -4377.0896   -4864.7221            0    6807.5162    18.030125    22.870254    19.343166   -0.1304197   -6.2438354   0.30685385     7976.223    7414.8228    7080.0679    5927.6579    1113.8954   -143.16425   -1713.6436 
  205500    250.04311    -4823.745   -4323.6279    -4823.745            0    5316.9122    18.023467    22.996318     19.36487  0.032951626   -6.8005014  0.048366257    8026.2228    5316.7822    5288.6784    5345.2759   -38.264104   -1264.1708    21.316517 
  206000     245.2115   -4856.1579   -4365.7046   -4856.1579            0    5761.1472    17.972141    22.884354    19.462633  -0.32986517   -5.9080343  0.037717765    8004.6077    4586.5787    6569.6612    6127.2018    1597.9652    33.035505    309.04739 
  206500    246.43149   -4848.4189   -4355.5255   -4848.4189            0    7694.6551    18.085576    22.841647    19.323239 -0.059387043   -7.0330684    0.1178259    7982.5141    8103.9935    8148.8162    6831.1558   -215.28804    1692.4416   -960.74228 
  207000     252.3218   -4852.8862   -4348.2114   -4852.8862            0    6797.2928    17.933931    23.018117    19.340084 -0.075921181   -6.0754978   0.30332561    7983.6901    5672.6366    6935.8317      7783.41   -411.16568   -448.68102   -1141.7944 
  207500    245.52355   -4860.1296   -4369.0521   -4860.1296            0    6135.8422    18.139157    22.788754    19.351229  -0.17272011    -6.771509 -0.054665708    7999.1937    6130.2748    5766.3314    6510.9204   -437.56875   -377.88648    1153.8777 
  208000    253.46741   -4835.9982   -4329.0321   -4835.9982            0     6810.235    17.990446    23.053154    19.225754  -0.21487677   -6.3846308 -0.0032341927    7973.6221    6532.5533    6312.9962    7585.1556     209.3434    -294.3454    171.72402 
  208500    248.89421   -4863.3566   -4365.5374   -4863.3566            0    8164.0816    17.998882    22.538117     19.51007  -0.12198883   -6.3915963   0.15036808    7914.4728    8148.5787    8500.9597    7842.7064    313.57464    138.18274   -253.03221 
  209000    257.20322   -4864.4813   -4350.0431   -4864.4813            0    8705.8642    17.807638    23.074274    19.311225 -0.061282267   -6.6090742  0.024651091    7934.9501    11927.287    7714.7606    6475.5446    722.08794    -983.4018     852.2852 
  209500    246.98856   -4836.9546    -4342.947   -4836.9546            0    8085.3266    18.163034    22.535722    19.416215 -0.081053748   -6.2146922   0.15716331    7947.3882    5520.2513    10970.207     7765.522   -636.71389     893.8237   -1055.6122 
  210000    248.43415    -4825.108   -4328.2091    -4825.108            0    7402.3357    17.820924    23.336852    19.141728  -0.31638581   -6.9214848  0.042067231    7960.7436     7719.828    6797.7591    7689.4199    1301.3386   -701.87814    1217.5469 
  210500    262.54255   -4843.9496    -4318.832   -4843.9496            0    6918.1828    18.141611    22.652632    19.465963  -0.11434799   -6.2094615  0.022099641    7999.6391    7020.8977    7032.3608      6701.29    27.836934   -544.37836   -169.62358 
  211000    256.24612   -4853.4076   -4340.8838   -4853.4076            0    6503.1928    17.802335    23.488967     19.11004   0.08094805   -7.0755828   0.25664882    7991.0248    7419.7636    5432.2038    6657.6109   -278.17614    616.01383   -1225.9066 
  211500     254.3533   -4877.5017   -4368.7637   -4877.5017            0    6306.0375    18.088653    22.681056    19.441353  -0.28820463   -6.6816093   0.13648782    7976.1992    6592.3537     7375.388     4950.371   -324.91556   -1275.4163     2293.638 
  212000    255.09645   -4861.7109   -4351.4865   -4861.7109            0    5801.7893    17.877402    23.237968     19.34427  -0.14292517   -6.3930956  -0.13404623    8036.2774    8387.7308    4134.7541     4882.883    1657.9368   -1183.6827    358.34916 
  212500    254.46516   -4839.1655   -4330.2037   -4839.1655            0     5249.889    18.171095    22.682218    19.534202  -0.29978466   -6.7740237   0.14952521    8051.2309    5439.6517    5946.7293     4363.286   -1547.5911    479.64188   -32.514402 
  213000    241.46022   -4835.5988   -4352.6485   -4835.5988            0    6550.7529    17.963396    23.057076     19.31978   0.11966928    -6.298025   0.14624245    8001.9318    6427.1096    6524.7633    6700.3858   -1880.6289   -23.481565   -296.94889 
  213500    265.77151   -4871.5567   -4339.9808   -4871.5567            0    8621.0511    18.080124    22.760391    19.251096  -0.18818576   -6.7565705   0.28369728    7922.0319    8050.7673    7613.7808    10198.605     290.1628    397.32583   -1090.6367 
  214000    247.59335   -4838.6619   -4343.4446   -4838.6619            0    9262.2157    17.929585    22.847974    19.277884  -0.10721275   -6.3520109  -0.18431944    7897.2755    9941.4733    9232.0492    8613.1248    58.837969     209.7058    1260.3553 
  214500    243.11971   -4869.8578   -4383.5883   -4869.8578            0    7276.0018    18.028679    22.850786    19.337179  -0.23745017   -6.3055961  0.053604688    7966.3274    7051.0252    8151.6856    6625.2947    286.70641   0.93536187    1394.2287 
  215000    247.47851   -4890.7792   -4395.7916   -4890.7792            0    7840.0525    17.931993    22.831036    19.380386  0.091722264   -6.6819293    0.1397722    7934.4455     6526.441    8934.9663    8058.7503   -1124.7551    889.33859   -1186.5401 
  215500    257.96262    -4846.195   -4330.2379    -4846.195            0    7298.5302    17.957321    22.906056    19.436973  -0.27165132   -6.1916202   0.48550323    7995.0375    9145.2713    6238.0995    6512.2197   -174.37992   -622.33417    -1130.335 
  216000    248.73978   -4852.5608   -4355.0505   -4852.5608            0    7578.8947    18.087183    22.905894    19.237572 -0.057663774   -6.7286831 -0.085743535    7970.1857     6008.815    7306.9632    9420.9059   -715.81478   -925.62808    1359.6482 
  216500    237.01613   -4834.7473   -4360.6858   -4834.7473            0    5687.3975     18.08948    22.932323    19.299316  -0.23956203   -6.1490702    0.1873826    8006.0085     5774.188     5685.253    5602.7517   -292.65348   -473.03536    534.13977 
  217000    235.46654   -4858.8008   -4387.8386   -4858.8008            0    5513.4045     17.97614    23.003348    19.402242   0.15840494   -6.6156026   0.17276348    8023.0481    6347.9219    5288.2029    4904.0888   -956.33623   -744.95053   -179.10457 
  217500    262.37529    -4845.428    -4320.645    -4845.428            0    6769.8722    17.926617    22.974642     19.39277  -0.23191438   -6.6253053 -0.0050540955      7987.06    8468.1171    6971.9343    4869.5651   -191.47517     1121.388    322.09831 
  218000    240.82762   -4810.9463   -4329.2613   -4810.9463            0    7339.0405    18.154694    22.633394    19.500842  -0.22186173   -6.3116752    0.2343211    8012.9415    6205.5825    7566.5672    8244.9719    40.490887   -1423.6123   -1719.4173 
  218500    261.95695   -4867.3174   -4343.3711   -4867.3174            0    6188.0678    17.935866    23.244353    19.213787  0.070109374   -6.9727977  0.090070234    8010.3739    5445.1526    4766.1663    8352.8844    138.84505    227.67147    765.91137 
  219000    241.72943   -4832.0026   -4348.5139   -4832.0026            0     7265.987    18.092511     22.64773    19.471292  -0.24775843   -6.3351294   0.12248276    7978.4457    9931.0882    8040.1851    3826.6878    483.43708   -133.87879   -262.43061 
  219500    255.39404   -4842.6455   -4331.8259   -4842.6455            0    8139.9216    17.769761    23.358387    19.143845   0.13913637   -6.7395128   0.10811324    7946.0922    9701.4537    6813.6448    7904.6662    -1388.734    1135.3589   -2312.8668 
  220000     250.7405   -4888.1495   -4386.6375   -4888.1495            0    8045.0087     18.08148    22.425462    19.536053  -0.32218952   -6.4328135   0.14053224    7921.5867    10199.492    7965.3953    5970.1388    156.27703    305.02062   -767.36741 
  220500    234.58762   -4866.4321   -4397.2279   -4866.4321            0    5510.9712    18.001337    23.161006    19.126711  0.028954547   -6.5563929  -0.11977985    7974.4817    5673.1531    5240.2495    5619.5108    260.15858    359.35035    715.47275 
  221000    258.21649   -4881.2524   -4364.7875   -4881.2524            0    7873.6208    18.182732     22.59114    19.359151  -0.27286298   -6.3463639   0.21035955    7952.1324    7600.0405    7977.3889    8043.4329    1801.9263     -115.734   -744.52858 
  221500    235.77578   -4883.4418   -4411.8611   -4883.4418            0    6995.5103    17.875506    23.229065    19.144906  -0.01274089   -6.5101016 -0.060140798    7949.5639    8457.7926    5535.2551    6993.4834   -2125.8846   -716.25174     264.6785 
  222000    243.66535   -4883.6626   -4396.3018   -4883.6626            0    5960.9989    18.054686    22.839897    19.400769 -0.097077561   -6.6421256   0.20521109    8000.2403    4118.6208    6566.5936    7197.7823       496.18   -305.47063    444.43485 
  222500     263.4257   -4843.4716   -4316.5876   -4843.4716            0    6365.0095     18.07871    22.992739    19.246327 -0.092498238   -6.1182926    0.2266889    8000.2951     5138.994    6698.4304    7257.6042    -739.7249   -920.19663   -1332.8002 
  223000    230.18851   -4846.8591   -4386.4537   -4846.8591            0    6263.8879    18.116072    22.916313    19.258884  -0.19952632   -6.5672858   0.18683633    7995.3947    5735.0449     7265.461    5791.1578    1178.3308    915.86258    1450.3068 
  223500    251.90787   -4834.2853   -4330.4384   -4834.2853            0    6366.8855    18.093909    22.755893     19.47512 -0.086236553   -6.5087234  0.054778994    8018.7455    6878.1888    5712.0779    6510.3898   -124.22101   -1092.0187   0.17705344 
  224000    255.99829   -4851.7675   -4339.7393   -4851.7675            0     5807.286    17.653865    23.218586    19.460024  -0.31259734   -6.3843258   0.18642775    7976.6206    7494.8698    5000.1344     4926.854   -302.65718   -952.23145    24.285048 
  224500    249.44897   -4877.9684   -4379.0397   -4877.9684            0    5314.7522    18.095408    22.695198    19.561096  -0.14958929   -6.7269005 -0.039578682    8033.3288    4625.3964     5742.237    5576.6232   -292.41172    73.027242    365.08773 
  225000    247.72223   -4870.8152   -4375.3402   -4870.8152            0    5917.1009    17.873866    23.240554    19.196041    -0.111251   -6.2600001   0.26467416    7974.0073    6947.7272    3678.0342    7125.5412   -460.63812   -1198.0822   -263.91343 
  225500    260.89488   -4828.9768   -4307.1548   -4828.9768            0    6927.8789    18.250645     22.55591     19.46266  -0.17770619   -6.5901935   0.10646066    8011.9969    6020.9164    7490.0438    7272.6765     1176.201    267.24918    1890.9956 
  226000    249.56046   -4850.1344   -4350.9826   -4850.1344            0    7395.6465    17.730733    23.396279    19.231809  -0.25289636   -6.4312684  -0.10500428    7977.9923    10251.403    5403.2062    6532.3303    2022.7462   -6.4654585    3596.9258 
  226500    255.06065   -4835.0812   -4324.9284   -4835.0812            0    8265.1645    18.078217    22.515188    19.521038 -0.083181101   -6.3943959  0.054432605    7945.7353    7961.5141    10266.258    6567.7211   -1691.9922    263.37361   -545.37461 
  227000    259.86433   -4801.5834   -4281.8227   -4801.5834            0    7286.0428     17.90054    23.135966    19.278345 -0.088878768   -6.4713339  0.039851103    7984.0551    6012.5996    7267.2765    8578.2523    913.95177    8.4884263    1471.9589 
  227500    258.21726   -4845.3766   -4328.9102   -4845.3766            0     6368.873    18.183633    22.698005    19.447908  -0.40341119   -6.5123658   0.32712024    8026.7781    5198.6104    7524.2495    6383.7591    1579.2528    511.39189   -804.90932 
  228000    251.18815   -4825.3449   -4322.9376   -4825.3449            0    7468.0345    18.029993     22.95674    19.332813  0.079597582   -6.5785266 0.0083443653    8002.0415    8042.3961    6084.7675    8276.9399   -1147.5974   -13.137483     628.8009 
  228500    252.22396    -4849.161   -4344.6819    -4849.161            0    6792.8226    18.057979    22.925975    19.341761  -0.46850457   -6.5142722   0.12074387    8007.4267    6239.6066    6749.8206    7389.0405    616.43972   -121.29046     173.1069 
  229000    256.02455   -4845.1102   -4333.0294   -4845.1102            0    5685.6445    18.057989    22.858298    19.466454  0.013383723   -6.6232754  -0.17237839    8035.2637    8043.9244    4909.3054    4103.7036   -83.616474    -291.3098    -102.7742 
  229500      253.603   -4864.8225   -4357.5852   -4864.8225            0     6863.845    17.817147    23.028518    19.425036  -0.14815739    -6.257499    0.5702541    7970.1402    8226.6055    6652.8735    5712.0559   -1026.5345   -244.78512   -846.01581 
  230000    271.09946   -4851.0946   -4308.8622   -4851.0946            0    4898.1475    18.125872    22.871607    19.400078  0.032760808   -6.4870603 -0.025218646    8042.6481    5680.6686     3854.982    5158.7919   -1529.2914     415.7028   -266.74817 
  230500    257.08321   -4844.7603   -4330.5621   -4844.7603            0    6764.8519    18.092472    22.982703    19.278555  -0.70835757   -6.5733311   0.29323084     8016.291    5658.0489     7140.811    7495.6959    2064.5014    1629.5574    789.87464 
  231000    251.63821    -4830.848   -4327.5405    -4830.848            0    5220.1761    18.029988    23.014445    19.420958   0.11509622   -6.5819632  -0.11217183    8058.7298    6240.7381    4026.0348    5393.7554    404.50814    131.85464    306.31721 
  231500    258.61203   -4869.9208   -4352.6647   -4869.9208            0    7044.6977    18.152134    22.667091    19.360872  -0.39061851   -6.4887938   0.29100299    7966.1487    5935.7991    8108.0901    7090.2037   -1326.6968    288.17834   -276.89847 
  232000     243.3825   -4829.4514   -4342.6563   -4829.4514            0    8016.3237    18.034536    23.058077    19.127611   0.30547202   -6.6674235  -0.10201373    7954.0586    7029.2197    7779.6656    9240.0859   -2046.7665    453.50759    1512.9823 
  232500    265.07323   -4878.2952    -4348.116   -4878.2952            0    7804.8174    17.986842    22.762875     19.44572  -0.44352163    -6.426899   0.25126649    7961.7049    6925.2512    8558.5976    7930.6034   -496.22476   -73.494418   -675.28649 
  233000    247.30103   -4860.8493   -4366.2167   -4860.8493            0    6668.7518    17.964101    22.824631    19.459324   0.22459075   -6.6048467  -0.21382009    7978.7895    7259.8143    6524.5252    6221.9158   -849.88454     -738.984    1239.9687 
  233500    264.54629   -4867.4242    -4338.299   -4867.4242            0    7440.0436    18.030355    22.925187    19.279654  -0.58466242    -6.157015    0.2608119    7969.2308    8331.6382    7501.6664    6486.8262    1604.6242   -408.46147    839.37381 
  234000    263.07666   -4853.9894   -4327.8036   -4853.9894            0    6611.4253     18.02107    22.880837    19.293577   0.11615778   -6.7822524 -0.0058183547    7955.4584    4359.1043    8902.9005    6572.2711   -1051.4339    955.85821    126.37125 
  234500    249.23777   -4824.9674   -4326.4611   -4824.9674            0    8417.2138    17.946963    22.846317    19.378221  -0.47137991   -6.2844983   0.47100157    7945.4969    10615.245    7239.5202    7396.8766    540.12414   -1598.6904   -2074.5269 
  235000    243.72728   -4855.5292   -4368.0445   -4855.5292            0    7935.5318    17.939631    22.807248    19.404087  0.049307075   -6.3804881  -0.25008272    7939.2522    8517.5049    8613.1119    6675.9788    1390.9651    1452.3375    1397.7528 
  235500    246.53726     -4874.16   -4381.0551     -4874.16            0     6301.129    18.008998    23.008975     19.26076  -0.52256096   -6.5052892   0.12171089    7981.0541    7739.0256    5857.2467    5307.1146    1471.0762    206.60685    654.05126 
  236000    241.79785   -4843.9966    -4360.371   -4843.9966            0    6381.9908    18.179476    22.870654    19.255667   0.26719223   -6.4622834  -0.11441655    8006.0542    5765.4127    6991.6389    6388.9208   -638.48339    365.92502    1355.0323 
  236500    250.27727   -4886.9182   -4386.3327   -4886.9182            0     6305.154    17.904556    23.010369    19.299579  -0.43327043   -6.6639067   0.48980284    7951.2421    5604.7259    5993.8527    7316.8833   -556.66336    327.76473   -989.99289 
  237000    252.33458   -4863.5604   -4358.8601   -4863.5604            0    6009.7842    17.989468    22.688485       19.621   0.35452957   -6.5202699   -0.2124794     8008.385    7167.9216    5586.4624    5274.9687   -1738.6711   -821.10181    1048.1201 
  237500    238.11903   -4854.4007   -4378.1333   -4854.4007            0    8284.9005    17.942182    22.869113    19.314234  -0.46983812   -6.3864639   0.18447559    7925.0509    9695.9587     7713.587    7445.1559    1088.8482   -1215.1313    319.23098 
  238000    251.73184   -4826.2832   -4322.7884   -4826.2832            0    8178.4315    18.074405    22.851676    19.238449   0.29924278   -6.6472315  -0.11406961    7946.0648    9760.6336    7050.8578    7723.8032   -344.87484   -503.76507   -154.80937 
  238500    254.48983   -4861.1097   -4352.0986   -4861.1097            0    8762.3338    18.021192    22.851148    19.271694  -0.48655467   -6.3941094   0.43225034    7936.1785    10103.663    8585.4638    7597.8745    659.09263   -503.06588   -280.07175 
  239000    257.24789    -4863.237   -4348.7095    -4863.237            0    7330.7584    17.957993    22.896614    19.384714   0.14678696   -6.6924005 -0.083696926    7970.5531    6878.6162     8044.962     7068.697   -990.37544   -190.89989    551.01462 
  239500    252.36458   -4817.4645   -4312.7042   -4817.4645            0    6667.2221    17.859018    22.933393    19.472852  -0.65033556   -6.2963385   0.09489557    7975.4547    6052.2143    7214.1768    6735.2751    739.02823   -1282.1305    936.25715 
  240000    263.86117   -4856.5588   -4328.8038   -4856.5588            0    7704.4586     18.01824    22.846282    19.285547  0.056801543   -6.3980889 -0.037255524    7938.8916    8468.0038    7655.5152    6989.8569    416.93952   -1429.1594   -240.96951 
  240500     251.3519   -4842.1146   -4339.3797   -4842.1146            0     7357.556    18.175086    22.765733    19.231699  -0.15388895    -6.770386   0.32130406    7957.4835    7253.9184     6770.426    8048.3235    846.13127    508.17097   -276.95349 
  241000    246.09561   -4859.2982   -4367.0765   -4859.2982            0    6201.5288     18.04531     23.05018    19.157035 -0.044882549   -6.1025501   0.11294127    7968.3237    4761.5786    6011.1916    7831.8162   -94.790291   -997.04788   -847.34273 
  241500    259.53267   -4840.2615   -4321.1641   -4840.2615            0    6877.5263      18.0088    22.797663    19.479403  -0.23031976   -6.6489051    0.1182943    7997.4353    8444.9668    6168.4101    6019.2019     105.2875   -1210.4252    479.07087 
  242000    250.73497    -4865.437   -4363.9361    -4865.437            0    4931.0908    17.871771    23.042488    19.516199  -0.13721952   -6.3539223 -0.023019437    8036.9673    4768.1091    4737.6045    5287.5587    1214.9734   -89.016347   -70.862796 
  242500    262.24109   -4851.9238   -4327.4092   -4851.9238            0    5432.3209    18.088205    22.841549    19.499047  -0.19172157   -6.4816657   0.23989587    8056.2775    4567.9184    4980.1697    6748.8746   -127.31181   -828.48779    610.97487 
  243000     262.1046   -4849.7742   -4325.5327   -4849.7742            0    6278.2903    18.185275    23.003768    19.182091 -0.0074447541   -6.7332983  0.022081041    8024.4412     6050.581    6121.6733    6662.6167    -944.6412    -534.4414    166.68462 
  243500    245.25908   -4833.6459   -4343.0974   -4833.6459            0    6882.8049     18.16263    22.791979    19.356791  -0.41116351   -6.1990722  0.023843148    8012.9814    5120.6023    6668.7458    8859.0665    1853.5365   -902.97419    1057.3244 
  244000    253.62419   -4826.1196   -4318.8399   -4826.1196            0    9045.2195    17.824249    22.919902     19.37834   -0.1352314   -6.6693091  0.019926847    7916.6342    10314.415    8272.9632      8548.28   -407.59943    710.39175   -371.44609 
  244500     255.0432   -4828.6582   -4318.5403   -4828.6582            0     8166.517      17.9908    22.652679    19.511967  0.040048635   -6.4985869   0.25560261    7951.9035    9525.7843    8426.9307    6546.8362   -173.43324    113.44602   -493.75405 
  245000    255.69337   -4820.1337   -4308.7154   -4820.1337            0    7164.9452    17.822079    23.078161    19.416546   0.10727814   -6.2249776  0.074938432    7986.0409    8506.3927    6797.1021    6191.3408   -261.89002     132.1475    718.21354 
  245500    247.26111   -4849.6605   -4355.1077   -4849.6605            0    6667.8863     18.22236    22.763273    19.269095  -0.43592349   -6.7173814 -0.055618356    7992.8314    5736.4871    7037.9482    7229.2237   -123.65855   -291.96124    863.26058 
  246000    240.50431   -4834.1658   -4353.1275   -4834.1658            0    7488.0654    18.070538    22.989479    19.171828  0.060056217   -6.3377188 0.00047379259    7964.5953    6939.9934    7720.1928    7804.0102   -820.76572   -40.059958     867.7001 
  246500    247.92488   -4846.5063    -4350.626   -4846.5063            0     8445.165     17.93102    22.689635    19.526724  -0.29773469    -6.330557   0.28681317    7944.4144    9593.9743    8461.9859    7279.5347    504.79997   -219.49427    975.78197 
  247000    247.53998   -4847.2556    -4352.145   -4847.2556            0    6473.8494    17.863381    22.901875    19.435789  0.017614911   -6.6656463 -0.00055369922    7951.2765    7001.9837    6908.7684    5510.7962   -31.500024     802.0224   -111.31174 
  247500    261.05785   -4858.2216   -4336.0737   -4858.2216            0    6622.7365    18.104485    22.837266    19.299511  -0.34847419   -6.3988012   0.27494179    7979.5165    6521.4322    6519.4215    6827.3559   -68.764275   -559.94349   -738.09707 
  248000    249.44547   -4813.8747    -4314.953   -4813.8747            0    8732.9035    18.141394    22.995833    18.987958   0.18269812   -6.9443024 -0.0063638773    7921.3295    6205.2169     8481.792    11511.702    -476.9816    758.65834    1179.5795 
  248500    242.98812   -4863.6103    -4377.604   -4863.6103            0    6944.2832    17.967459    22.795491    19.321237  -0.47762509   -6.2005349   0.30077744    7913.5354    4982.3382    7387.5838    8462.9275    317.81055   -503.00604   -1592.5594 
  249000    236.07201   -4832.3964   -4360.2233   -4832.3964            0    6128.0439    18.031631    22.936802    19.368787 -0.022433474   -6.6455138  -0.12292013    8010.6969    6563.0658    6755.3827    5065.6832    647.69263    789.06452    1028.4754 
  249500    246.47162   -4852.1735   -4359.1999   -4852.1735            0    5721.2852    18.060704    22.806358    19.477472  -0.64418224   -6.4150572   0.30482345    8022.7488    6666.0934    5161.8964    5335.8659    1276.8134   -477.13808   -524.29238 
  250000    255.65863   -4826.4682   -4315.1194   -4826.4682            0    7613.1652    18.038371    22.899817    19.274288   0.26849586   -6.4948097  0.033373367    7961.7339    5760.4375    9292.3553    7786.7028   -550.02738    1087.4774    31.611444 
  250500    258.67906   -4845.2906   -4327.9005   -4845.2906            0    9251.1313    18.050118    22.734823    19.294771  -0.29264449   -6.4779292    0.3402054    7917.9223    8856.4531    9450.6385    9446.3023   -311.94438    706.58361   -1734.0558 
  251000    263.20662   -4827.0262   -4300.5805   -4827.0262            0    10350.315    17.799126     23.02461     19.25139 0.0097588819   -6.4904275 -0.042190584    7889.5647    10806.966    9688.9882    10554.991   -973.88631   -651.43845    1986.1588 
  251500     258.9353    -4869.318   -4351.4154    -4869.318            0    7217.0462    18.154571    22.645342    19.368457  -0.69195392   -6.4899303   0.23613919    7962.6914    6218.9597    7709.4081    7722.7707    827.78049   -39.596588   -809.41656 
  252000    246.91272   -4854.1459     -4360.29   -4854.1459            0    8348.2206    17.916256    23.149998    19.134093   0.30853849   -6.5400493  -0.14580846    7936.0809    8388.6646    7279.6795    9376.3176   -1130.1813    312.27794   -377.12769 
  252500    246.99095   -4830.4408   -4336.4284   -4830.4408            0    7165.2725    17.937541    22.938235    19.420422  -0.24202358   -6.3154511     0.330372    7990.6397      6821.91    8017.6048    6656.3028    143.74696   -1049.9916   -1267.2962 
  253000    255.26094   -4854.3234   -4343.7699   -4854.3234            0    4592.4527    17.927975    22.973343    19.466221 -0.027582141   -6.6063053  -0.12582067    8017.4648    5753.9524    5006.5457    3016.8599   -271.75996    666.42096   -751.82142 
  253500    254.93452   -4848.9202   -4339.0197   -4848.9202            0    7845.3007    18.045297    22.866463    19.314585  -0.57013532   -6.6578964  0.055851537    7969.8183    7589.7507    8213.7429    7732.4086    2051.5644    551.55223     237.0652 
  254000     260.9518   -4836.8609   -4314.9251   -4836.8609            0    7274.0383    18.051733    22.952077    19.295481 -0.049433429   -6.3801284  0.064985434    7994.5956    8077.9625    7169.0587    6575.0936    485.64182   -188.14536   -36.338515 
  254500    254.16152    -4843.857   -4335.5026    -4843.857            0    5527.6409    18.162716    22.804221    19.393655 -0.088665266   -7.0249515   0.47765799     8032.592    7154.6068    5485.8268    3942.4892   -2148.7656    135.24986   -2088.5292 
  255000    242.74035   -4866.7736   -4381.2629   -4866.7736            0    7609.1491    17.903554    22.846617    19.464146   0.13664157   -6.4155602 -0.062274005    7961.5294    9879.4244    7053.2034    5894.8195   -1969.2383   -144.19999    1761.2875 
  255500    245.65511   -4870.6992   -4379.3586   -4870.6992            0    7252.0164    17.926371    22.814413    19.452738  -0.42622994   -6.3855879 0.0034465461    7955.7733    8233.9194    6266.4548     7255.675    1254.7617    19.816429    185.56302 
  256000    260.72686   -4830.0575   -4308.5716   -4830.0575            0    7917.9923    18.048251    22.933085    19.208824  0.014551215   -6.7825318 -0.033765835    7950.5717    9319.4623    8167.7343    6266.7804    564.97512   -304.73347    1479.7622 
  256500    252.21309   -4809.6394    -4305.182   -4809.6394            0    6950.7231    18.041465     22.89031    19.314175  -0.12859084   -6.1985863   0.20844197    7976.2663    6821.8507     6570.682    7459.6365   -700.52923   -1969.9546     -848.489 
  257000    260.34761   -4846.3662   -4325.6389   -4846.3662            0    6796.7047    17.948367    22.913142    19.461539 -0.061570057   -7.3005508 0.0038680517    8003.6254    6824.0837    7597.8712    5968.1591    14.030493    1671.2162    2108.7364 
  257500     247.0654   -4840.2693    -4346.108   -4840.2693            0    7028.8858    17.998411    22.877241    19.435411  -0.20076265   -6.3028829  0.073725411    8002.6081    8368.2106    6160.5881    6557.8587     1178.885   -1582.1751    1642.4288 
  258000    256.34666    -4839.742    -4327.017    -4839.742            0    8822.9525    18.059044    22.810318    19.291896 -0.056986987   -6.7497664  0.080836246    7946.9596    8916.9154    8706.0058    8845.9363    329.37544     861.0045    400.23621 
  258500    256.05399   -4831.1595   -4319.0199   -4831.1595            0    7499.4144     18.18094    22.880253    19.201597   -0.3212786   -6.2490798   0.14455631    7987.5671    7465.9101    6191.8279    8840.5052    533.77337   -686.50167    711.92608 
  259000    239.63334   -4876.1977   -4396.9014   -4876.1977            0    5155.1875    18.160284    22.916817     19.29141  0.082127694   -6.5991897  0.018482834    8028.6203    4441.2646    5054.6432    5969.6546   -479.94772   -717.07528   -1595.0071 
  259500    239.67876   -4852.4372     -4373.05   -4852.4372            0     8084.682    17.892472    23.044781    19.257781  -0.39659011   -6.5657332   0.20228031    7940.5242    8683.7248    8373.2389    7197.0823    672.77602   -235.43561    -294.3199 
  260000    246.74364   -4863.4451   -4369.9273   -4863.4451            0    8367.4104    18.002015    22.561955    19.488976   0.20231234   -5.9110152  0.028487378     7915.655    9772.2344    8716.2291    6613.7679   -1585.2875   -1409.6866   -1909.8349 
  260500    262.25732   -4846.8086   -4322.2616   -4846.8086            0     7172.817    17.960252    23.101494    19.238918  -0.41583458   -6.9317062    0.2042395    7982.3932    8119.4242    7142.9514    6256.0755    792.72633    842.47131    242.09824 
  261000    251.43653   -4871.5923   -4368.6882   -4871.5923            0    6525.9416    17.956135    22.800751    19.425816  0.028369487   -6.0618234 -0.039100715    7953.1887    8207.7455    5799.9456    5570.1337   -992.89082   -1395.1955    163.74621 
  261500    251.30714   -4862.9655   -4360.3202   -4862.9655            0     6930.999    17.965222     22.95911    19.272441   -0.2718184    -7.092113    0.3245616    7949.2174    7783.6643    6424.7276     6584.605   -749.85247    1253.3543   -121.59434 
  262000    245.41279   -4861.4558   -4370.5999   -4861.4558            0    5784.9268    18.130939    22.790897        19.34   0.13979897   -6.2198336 -0.051444165    7991.6821    4719.0691    6207.5286    6428.1827   -308.53478   -100.94887    767.10489 
  262500    260.67875    -4862.011   -4340.6213    -4862.011            0    5353.2081    18.021613    22.941183    19.363576  -0.14662272   -6.5742189   0.16393376    8005.6209    5809.1341    5471.9578    4778.5325    295.43209   -241.65793   -841.86009 
  263000    259.17507    -4861.433   -4343.0509    -4861.433            0    4925.0445    18.204686    22.722612    19.383632  -0.28391218   -6.6803896     0.146879    8018.1946    3546.9609    5972.1222    5256.0503    691.32151    268.52132    250.76624 
  263500    257.73938   -4809.9213   -4294.4107   -4809.9213            0    7671.2879    17.916074    23.125404    19.233345   -0.2025713   -6.1738132 -0.013657649     7968.691    8021.0014    7156.9447    7835.9176    770.59143    285.91188   -619.42413 
  264000    255.87615    -4863.595   -4351.8111    -4863.595            0    7332.0372    18.082316     22.74978    19.392549  -0.17129414   -7.1148116   0.26219433    7977.4878    7240.4061    7905.0149    6850.6905   -101.99588    1233.2572     243.8742 
  264500    247.03752   -4874.4609   -4380.3553   -4874.4609            0    7150.1945    17.828256    23.060211    19.350231  0.078812439   -6.1369079    0.1010484    7955.3319    8874.6276    7026.3088    5549.6471    -1472.021   -1208.6616    10.691382 
  265000    245.27161   -4835.7137   -4345.1402   -4835.7137            0    7060.8836    18.092824    22.755385    19.417504  -0.19840316   -6.6433614  0.032894783    7994.3647    7129.4247    8262.9101    5790.3162   -231.76612    619.08018    445.99593 
  265500    247.88241   -4859.1066   -4363.3112   -4859.1066            0    6148.3569    17.665093    23.458459    19.245762  -0.19551146   -5.9698295  -0.12403942    7975.3637    6603.0515    5920.0873    5921.9318     589.8616    339.52326    666.71145 
  266000    237.10579   -4848.9932   -4374.7523   -4848.9932            0    8324.3284    18.170082     22.64251    19.295566  -0.19480606   -6.5961078   0.17782427    7938.5096    7507.3942     8281.903    9183.6882   -90.413982   -463.60714   -1069.2625 
  266500     255.0431   -4827.8252   -4317.7075   -4827.8252            0    5620.1323    17.966658     23.17143    19.281586   0.16308777   -6.6728947  0.087281179    8027.1781    7410.4805    4631.2794    4818.6371    560.45508    36.553347    804.66199 
  267000    253.63647   -4882.2904   -4374.9861   -4882.2904            0    7633.4214    18.023586    22.569446    19.553841  -0.21670189   -6.1338828    0.2544337    7954.1576    8600.0302    8296.9323    6003.3017    518.49543   -1013.2487    1003.2007 
  267500    242.32788   -4849.7806   -4365.0949   -4849.7806            0    6194.6952    17.969991    22.992981    19.371995  -0.23185595   -6.9156396  0.036866287    8004.1917    6784.9165    7496.3765    4302.7926    319.60357    1164.0829    1609.2325 
  268000     241.5839   -4832.9161   -4349.7184   -4832.9161            0    8765.3495    17.984009     22.89288    19.299825  -0.14601227   -6.0349184  0.077423663    7945.8493    8889.9546    8422.8418     8983.252    769.63735   -1152.8684    115.17172 
  268500    250.46117   -4862.0328   -4361.0795   -4862.0328            0    7698.1185    18.056503     22.93534    19.200762  -0.10452999    -6.734771   0.14243671    7951.6506    8025.2961    6439.1812    8629.8783   -1139.3108   -1284.7388    338.09193 
  269000    244.49795   -4841.6855   -4352.6594   -4841.6855            0    6346.0808     17.99425    23.060339     19.21943  -0.31643916   -6.2594125   0.20483026    7975.1695    6186.7892     6303.167    6548.2861    479.01301   -847.60323   -453.73082 
  269500    258.35405   -4830.6296   -4313.8896   -4830.6296            0    7034.5042    18.046577    22.577404    19.546405  0.064644387   -6.3406498 -0.072912413    7964.0823    7441.5087    7634.5126    6027.4913   -588.67834   -841.98681    -246.7536 
  270000    256.13528    -4843.149   -4330.8468    -4843.149            0    6986.7922    17.945246    23.153961    19.190693  -0.18404288    -6.700816   0.23055863    7973.8007    4852.8994     7764.348    8343.1294    419.41853    282.41352   -847.58648 
  270500    246.72079   -4820.1748   -4326.7028   -4820.1748            0    7571.3103    18.116542    22.482973    19.494758 -0.092608002   -6.0402148  0.081573483    7940.4829    7297.5297    7647.2583    7769.1428    288.15111   -2308.0521   -627.13771 
  271000    242.20813   -4838.6247   -4354.1785   -4838.6247            0     6892.768     17.90791    23.197828    19.147563  -0.15440942   -6.9005646   0.23598894    7954.3693    8083.7954    6001.7407    6592.7679   -791.73308    853.73593   -145.18172 
  271500    252.71463   -4843.0778   -4337.6173   -4843.0778            0    6463.7057    18.086622    22.687976    19.447486  -0.17776013   -6.1356218 -0.093472477    7980.2535    6642.0843     7451.326    5297.7069   -160.34326    483.98782    93.852366 
  272000    270.00293   -4857.6455   -4317.6063   -4857.6455            0    5884.6099    17.800295    23.293844    19.328793  -0.34119216   -6.9130936   0.05867871    8014.4385    6655.7932    5680.3861    5317.6506   -532.86874    1263.2835   -2067.0445 
  272500    256.83508   -4840.4039    -4326.702   -4840.4039            0    5856.1594     18.12015     22.77828     19.45388 -0.079649915   -6.5233026   0.14811767    8029.5082    6927.7098    5677.7903    4962.9783   -1589.5992   -412.84214   -2263.3801 
  273000    249.41601   -4848.7633   -4349.9005   -4848.7633            0    4594.4614    18.025131    23.093274    19.333363  -0.13062665   -6.6099196  0.033259844     8047.692    2331.8563    5214.1378    6237.3902    1493.1806    344.79357    1626.0767 
  273500    242.77533   -4869.0013   -4383.4206   -4869.0013            0    2976.6774    18.298871    22.704634    19.521311  -0.28830185   -6.6411028   0.10813493    8110.5029     2946.458    3163.3919    2820.1824    118.13908    367.68806    292.16379 
  274000    255.61771   -4837.4164   -4326.1494   -4837.4164            0    6613.8177    17.916262    23.151788    19.321512  -0.06284504   -6.3587406   0.10314714    8014.4376    5063.7718    6511.8966    8265.7847     349.7309    755.98541   -468.39488 
  274500    245.73996   -4824.5018   -4332.9915   -4824.5018            0    9323.6875     18.08401    22.550576    19.400544  -0.21875734   -6.6462087   0.13821757     7911.636    8691.9125    10045.688    9233.4623    1830.7336    103.88343   -865.68833 
  275000     246.9836   -4826.9729   -4332.9752   -4826.9729            0    7954.3689    17.746939    23.243848    19.188712  -0.11428368   -6.3056474 -0.033228525    7915.4811    10124.324    6763.0649    6975.7175    1090.3168   -0.8051695   -891.51344 
  275500    241.11384   -4861.8991   -4379.6416   -4861.8991            0    7517.4461    17.971103     22.65968    19.510637  -0.27501425   -6.5006346   0.22480396    7945.1109     6809.971    8324.0367    7418.3305   -972.60361     416.4482   -888.81581 
  276000    244.60276   -4804.3468    -4315.111   -4804.3468            0    6114.5814    18.070157     23.06696    19.279799  -0.13195105   -6.5607615   0.11875102     8036.275    5783.3463    5395.5062    7164.8917    1879.7085   -1482.2774     645.5475 
  276500    247.48725   -4831.3027   -4336.2977   -4831.3027            0    6371.5291    18.049597    22.997229    19.362412  -0.14941588   -6.4090923   0.13343778    8037.1575    6470.9652    6265.4032    6378.2188   -2.8361369    643.65801    254.06907 
  277000    254.56944   -4863.5691   -4354.3988   -4863.5691            0    5398.0672    18.135766    22.932104     19.29757   0.18929748   -6.5313532   0.11183196    8025.6909    4205.3261    5977.5355    6011.3399   -1318.2297    -565.8251   -15.200894 
  277500    250.65937   -4837.5357    -4336.186   -4837.5357            0    7262.9878    17.995234    22.943258    19.337531  -0.53662614    -6.564577   0.25667173     7983.873    5615.0572    6750.5068    9423.3996    1923.6874   -189.67122   -11.074322 
  278000    250.13463   -4826.5343   -4326.2342   -4826.5343            0    7684.9546    17.928935    22.849129    19.448867   0.35816034   -6.1994728  -0.31864706    7967.4337    9293.0849    7470.2146    6291.5642   -2553.9084   -125.89575    1600.2213 
  278500    247.08714   -4822.2431   -4328.0383   -4822.2431            0    7122.8115    18.047439    22.850461    19.336181  -0.40306409   -6.5781822   0.38505506    7974.0923    8384.9139    6166.4789    6817.0415   -796.18059   -186.63594   -312.26422 
  279000    240.88473   -4850.5179   -4368.7187   -4850.5179            0     7296.062    18.060031    22.879043    19.344989  0.059477465   -6.4297442 -0.097030309    7993.2765    6868.8221    6537.2699    8482.0942   -868.58528   -1223.4724    176.91184 
  279500    247.42023   -4848.3192   -4353.4482   -4848.3192            0    6269.0639    18.184076    22.892462    19.257996  -0.36526122   -6.4592544   0.34135176    8016.6852    8010.5785    5086.3722    5710.2411    949.97539   -686.10391   -277.80269 
  280000    245.52616   -4871.6844   -4380.6018   -4871.6844            0    4661.3685    18.115677    23.004026    19.277833   0.14630605   -6.5173719 -0.011451027    8033.7188    3678.1828    5080.1409    5225.7818   -983.59373    248.52682    660.73332 
  280500    242.83773   -4858.1927   -4372.4872   -4858.1927            0    5844.4687    17.926319    22.945342    19.479228  -0.31294583   -6.4241017   0.21924646    8012.3034      6333.75    6303.5667    4896.0895   -907.15637   -642.11611    -491.0646 
  281000    258.88198   -4847.6654   -4329.8695   -4847.6654            0    6413.7874    17.921783    22.835044    19.559787 -0.073166056    -6.557703 -0.042441259    8004.7391    5980.3521    6513.9497    6747.0603   -396.64021   -116.78187    2023.3512 
  281500     249.3221   -4826.5056   -4327.8306   -4826.5056            0    5999.5787    17.968975    23.073265    19.363388  -0.21723938   -6.3816782  0.026952873    8028.1172     6818.811    5271.6176    5908.3075   -519.95738   -948.36449   -1048.0399 
  282000    246.70338   -4848.6233    -4355.186   -4848.6233            0    6326.4475    18.325471    22.896586    19.172041   0.26051382   -6.8445139  -0.20485873    8044.4107    5613.2365    6183.1617    7182.9443    -1564.656   -470.61082    469.73701 
  282500    254.56692    -4851.584   -4342.4187    -4851.584            0    5929.6799    18.072456    23.066644    19.197429   -0.1538151   -6.4681829   0.37168797    8002.8498    5013.0023    4963.0833    7812.9541   -1172.5847   -627.58094   -2175.5875 
  283000     244.1139   -4885.2977   -4397.0397   -4885.2977            0    6225.6328    17.979534    22.765046    19.509955  -0.01066484   -6.5751379   -0.1063101    7985.5206    7562.2591    5839.4089    5275.2305   -679.16655    673.34487   -1666.6747 
  283500    233.61942   -4832.7122   -4365.4445   -4832.7122            0    7088.6978    17.779418    23.112616    19.417427  -0.50303343   -6.4025318  0.079785535     7979.181    8813.5977    7005.2843    5447.2115    1167.9089    271.52541   -637.51947 
  284000    241.51758   -4844.5499   -4361.4849   -4844.5499            0    6076.4422    18.098558    22.705277    19.487678   0.14540571   -6.5262402 -0.071891849    8008.1256    6206.5562    5827.9175    6194.8528   -943.12896    454.81587    452.45467 
  284500    264.73561   -4816.1478   -4286.6439   -4816.1478            0    5278.9795     18.08193    23.144418    19.191645  -0.22700108   -6.4731366   0.32027378    8031.6218    6001.5766     3882.184    5953.1778   -45.536113   -680.00077   -1339.0807 
  285000    252.00286   -4859.4243   -4355.3874   -4859.4243            0    6810.1213     18.13662    22.734636    19.337635  0.033558633   -6.6361576 0.0016229072     7973.476    7025.3225     8027.156    5377.8855    277.52704    -236.7642   -53.231093 
  285500    259.30978   -4809.5961   -4290.9444   -4809.5961            0    8484.5051    17.837969    23.111802    19.366793  -0.59314697    -6.544219  0.039764154    7984.3012    9288.0559    8339.3106    7826.1488    2029.5598      564.721    1129.1984 
  286000    246.31265   -4872.4338    -4379.778   -4872.4338            0     5528.412    18.063287    22.761296    19.498198  0.049422904   -6.4260734 -0.016483029    8016.5633    5925.7838    5838.5857    4820.8664   -340.28777   -970.80575   -986.11347 
  286500    254.40946   -4843.2365   -4334.3861   -4843.2365            0    6828.7835    17.857104    23.388679    19.160684  -0.17593054   -6.6737574   0.33426077    8002.5378    5259.4215    6676.8332     8550.096   -723.22832    872.17291    -1333.789 
  287000    251.26884   -4903.0071   -4400.4383   -4903.0071            0    5397.6946     18.25318    22.485491     19.53522  0.042085046   -6.4430809    -0.111444    8017.8743    5395.4878    5889.7906    4907.8053   -1377.1961   -72.218037    270.87312 
  287500     246.9943   -4851.2728   -4357.2537   -4851.2728            0     6843.157    17.898396    23.259558    19.158848  -0.35296197   -6.4867619    0.2342762    7975.9967    5707.5923    6413.5187    8408.3599    1031.8549    337.13798    59.489238 
  288000    238.83818   -4892.8322   -4415.1264   -4892.8322            0    7384.5476    18.201341    22.524181    19.362315  0.016626778   -6.4175431 -0.059577617    7937.9741    5765.5151    8022.7016    8365.4261   -826.21941    520.93784   -377.78517 
  288500    234.13235   -4874.6937   -4406.4001   -4874.6937            0    8028.7926    17.785343    23.239937    19.201654  -0.27644065   -6.7096724   0.13928862    7936.6244    8732.4594    7577.6404    7776.2778    351.26012    389.53639    253.03934 
  289000    253.94997   -4837.5593    -4329.628   -4837.5593            0    7416.4985    17.956674     22.77583    19.508999  0.030543078   -6.3279727  0.079905954    7978.7543    6927.6689    7403.5926    7918.2341   -1205.4558   -494.01565   -686.91336 
  289500    253.74993   -4863.3882    -4355.857   -4863.3882            0    6948.9243    18.004857    23.009021    19.300502  -0.13989862   -6.7269681   0.26776904    7995.6986    6326.8855    8330.7741    6189.1133   -809.86596    1250.3399   -3000.8999 
  290000    249.99707   -4830.9292   -4330.9042   -4830.9292            0    7441.5041      17.9591    22.979014    19.365995 -0.074533271   -6.3582721   0.13877507    7992.0057    7570.4248    7170.1258    7583.9619    141.26084    -446.7122     799.3483 
  290500    251.22865   -4852.8932   -4350.4049   -4852.8932            0    7179.6872    18.233743    22.692801    19.316445   -0.2415514   -6.6284079   0.15723455    7992.6562    7598.5084    7087.2908    6853.2623   -324.36303   -224.81681   -1452.8219 
  291000    246.85013   -4813.2958   -4319.5651   -4813.2958            0    6550.4704    18.035687    23.310399    19.065874  -0.12521552   -6.6433935    0.1184061    8015.6565    6693.1146    5930.3373    7027.9594   -2093.4984   -211.92227   -291.29915 
  291500    245.68741     -4822.05   -4330.6448     -4822.05            0    7115.3917    18.111242    22.605605    19.498905  -0.11767936   -6.1613056   0.17801847    7983.1557    6784.0175    7732.0501    6830.1077    177.74119   -1121.3542   -647.46908 
  292000    244.92127   -4861.8326   -4371.9598   -4861.8326            0    5746.7075     17.82578    23.129955     19.38882 -0.071725581   -6.5301379    0.2188714    7994.1944    7351.2228    6273.4902    3615.4095   -711.66716    310.62134   -1308.5671 
  292500    251.65415   -4880.1775   -4376.8381   -4880.1775            0    6279.6346    18.165979    22.486765    19.599603  -0.23578757   -6.4950192   0.10290297    8006.3222    7041.6003    6649.3229    5147.9807     445.8529   -630.28598   -1165.4311 
  293000    236.29132   -4852.9523   -4380.3405   -4852.9523            0    7639.3894    17.838135    23.331617    19.131568  0.053790412   -6.3494355   -0.1400425    7962.4159    7376.4292    7477.1988    8064.5404    719.17616     497.3224    1143.5868 
  293500    254.49924   -4835.0226   -4325.9927   -4835.0226            0    5736.1087     18.21324    22.581788     19.53227  -0.25443675   -6.5535935   0.22633907     8033.379    5706.7903    6293.2638    5208.2721    1589.1943    202.48219    12.981093 
  294000     247.5834   -4847.7772   -4352.5798   -4847.7772            0     7522.677    17.819423    23.145564    19.304303  0.089496561   -6.4798298  -0.10712394     7961.878    8527.6514    6502.2295      7538.15    911.29387    84.464716     309.3813 
  294500    253.14013   -4859.4087   -4353.0972   -4859.4087            0    7480.5599    17.936579    22.720685    19.500921  -0.26089196   -6.3881143   0.11197699    7947.2373    8326.6716    7868.0931    6246.9151    1183.7471   -83.459221    484.57514 
  295000    264.96561   -4859.5641   -4329.6001   -4859.5641            0    8810.0388    17.920469    22.969191    19.254609  -0.18452007   -6.5621764  0.059622545    7925.5562    9339.5832    7732.3725    9358.1606    1406.5007    420.38344   -257.81364 
  295500    247.46084   -4827.6862   -4332.7339   -4827.6862            0      7930.97    18.080019    22.887341    19.245842 -0.050822922   -6.4291167  0.079976015    7963.9979     6697.276    7570.0378    9525.5962    671.07267    877.80898    2344.1435 
  296000    249.15792   -4851.0272   -4352.6806   -4851.0272            0    6419.2834    18.078226     22.90052    19.341714  -0.12536312   -6.3661538   0.19813122    8007.4846     5539.147    6437.2979    7281.4052   -1165.1423   -975.71438   -1369.4425 
  296500    242.80679   -4872.2235   -4386.5799   -4872.2235            0    6364.3958    18.001984    23.068071    19.230655  0.067065708   -6.6396489 -0.061518499    7985.9344    6183.7284    5857.5221    7051.9369    178.39297   -560.07205    356.37497 
  297000    239.43489   -4849.5377   -4370.6383   -4849.5377            0    5158.5543    18.258682     22.65067    19.460363  -0.37419731   -6.2931738   0.23910122    8048.2492    3192.6101    7344.8716    4938.1813   -567.67849    791.55698   -387.46186 
  297500    262.80792   -4846.5161   -4320.8678   -4846.5161            0     6087.988    17.916532    23.182181    19.258057 0.0011586307   -6.7768521 0.0071431839    7998.7238    4772.5223    6590.1821    6901.2596    1040.5071   -161.98108   -160.90441 
  298000    247.03781   -4834.2957   -4340.1895   -4834.2957            0    6714.4506    18.089693    22.552253    19.541727   -0.1797553   -6.4114352   0.12846899    7972.3079    8217.7443     6943.892    4981.7153    1486.8539    285.35158   -14.573215 
  298500    245.36532   -4850.2566   -4359.4956   -4850.2566            0    5732.9151    18.000118    23.176821    19.215108  -0.11760467   -6.7992239   0.01753157    8016.2645    10153.958    3798.1151    3246.6723   -729.00152   -596.65172    267.96427 
  299000    247.64099    -4843.066   -4347.7535    -4843.066            0    5964.4381     18.31567    22.460437    19.437558  -0.30535011   -6.3222145   0.11864516    7996.1826    4480.9939    7659.6977    5752.6227    591.56342    391.54189   -195.02907 
  299500      267.143   -4865.6529   -4331.3339   -4865.6529            0    7348.2833     17.94495    23.078759     19.28438  -0.14437516   -6.3597335   0.13025103    7986.5716     8072.518    7965.1048     6007.227    378.90392   -402.04922    259.89429 
  300000    242.92779   -4882.2691   -4396.3835   -4882.2691            0    6742.7828    18.019113    22.808681    19.407051  -0.19315817   -6.7614782   0.18434236    7976.1466    5811.2118    6907.5601    7509.5764   -417.34908    292.99944   -570.24225 
  300500     252.8655    -4850.199   -4344.4367    -4850.199            0     5680.785    17.904288    22.980164     19.39239 -0.069423413   -5.9587314  -0.15301125    7978.8724    6013.0528    5723.2047    5306.0975    255.71344   -1382.1642    1174.5769 
  301000    248.16653   -4865.0088   -4368.6451   -4865.0088            0    6103.7475    18.165212    22.689512    19.382359  -0.22814052   -7.0312629   0.18877264     7988.629    4829.2504     7889.706    5592.2863    231.26606    827.23885    138.95841 
  301500    253.04353   -4856.8156   -4350.6972   -4856.8156            0     5668.267    17.894549    23.040875    19.411629  0.072688717   -6.1920003   0.14624664    8003.5324     7648.513    5087.2683    4269.0195    109.46652    211.54922    157.44788 
  302000    240.51469   -4842.8732   -4361.8141   -4842.8732            0    7641.5899    18.059208    22.802848    19.385801  -0.12919297   -6.7333143  0.060088546    7983.0996    8583.3356    7912.6811    6428.7531    1007.2959    599.90288    1690.6928 
  302500    256.78503   -4868.8662   -4355.2645   -4868.8662            0    7298.4019    17.963906    22.922538    19.304229  -0.27405453   -6.3836366   -0.1256816    7949.0628    7350.1948    6140.3979    8404.6129    1235.5745   -209.04334    265.12686 
  303000    259.67802   -4839.5464   -4320.1583   -4839.5464            0    7888.7685    17.969781    22.858235    19.357436  -0.11500491   -6.2394733  0.039658746    7951.2119    9163.1164    7020.3344    7482.8547    167.31651   -587.40348   -127.72178 
  303500    243.25658   -4843.4242    -4356.881   -4843.4242            0    6562.9427    18.075035    22.910639    19.344919  -0.16119981   -6.8446162   0.27349638    8010.9359    6289.5813    6834.4715    6564.7753    81.898977     232.4046   -333.23557 
  304000    241.20518    -4853.187   -4370.7469    -4853.187            0    6317.3179     17.99586    22.935733    19.359442  0.018857705   -5.8877206 0.0022671123    7990.5756    8126.1249    5170.4393    5655.3894   -601.02261   -982.27036     2037.145 
  304500    253.45264   -4833.6334   -4326.6968   -4833.6334            0    6470.0725     18.13216    22.956735    19.235557  -0.41792256   -7.0443489  0.076623064    8006.9004    6103.8459    6038.0486     7268.323    1254.1555    1364.6289    202.49046 
  305000    258.19143   -4876.1792   -4359.7644   -4876.1792            0    7263.6519    17.939209    22.922689    19.299968 -0.0097397315   -6.2343438   0.04255337    7936.4347    5649.9462    6831.0443    9309.9653    164.89405   -675.66322    209.66849 
  305500    258.41691   -4858.9541   -4342.0883   -4858.9541            0     9696.376    18.088493    22.623939    19.360228 -0.078265129   -6.4594786   0.30298005    7922.8432    8261.6569    10714.295    10113.176   -1592.0685    907.85458   -1324.7079 
  306000    245.79165   -4836.7898   -4345.1761   -4836.7898            0    6852.5792    17.894952    23.255752    19.183057 -0.095831239   -6.5702829  0.098891398    7983.2317    7324.9078    6406.3755    6826.4542    259.07939    198.62677    328.91277 
  306500    253.83844   -4837.6102    -4329.902   -4837.6102            0    6237.6279    18.143233    22.580116     19.52797  -0.29587512   -6.2901012  0.010721469    8000.1468    5824.8415     7091.673    5796.3693   -197.59068    89.207863    43.723867 
  307000     244.3403   -4811.3349   -4322.6241   -4811.3349            0    7582.0494    17.802845    23.150378    19.370614  -0.14226721    -7.012301  0.037581317    7983.4554    8381.2431    7668.4156    6696.4896    145.06574     1122.704     -694.582 
  307500    253.78538   -4849.5434   -4341.9413   -4849.5434            0    7213.1251    18.137024    22.693891    19.355235 -0.035284337   -6.1303043  0.097263191    7966.6081    7660.7104    7426.5027    6552.1621    34.974064   -83.786597   -772.91205 
  308000    241.79267   -4845.3868   -4361.7716   -4845.3868            0    8910.1181    17.936067    23.107711    19.200591  -0.22069411    -6.817909 -0.025865655    7957.9051    10167.787    8205.9674    8356.5997     1544.904    1646.6729     2073.075 
  308500    256.57159   -4847.2828   -4334.1079   -4847.2828            0    8114.4713    18.051187    22.623335    19.452664  -0.23803495   -6.4496293 -0.0082009771    7944.0408    7353.5853    8639.3362    8350.4924    668.64481    723.22256   -27.962093 
  309000    264.64043   -4841.5964   -4312.2829   -4841.5964            0    6742.8992    18.041863    22.986791    19.273583 -0.0082234712    -6.475097   0.19703996    7993.2276    6097.3243    5761.1016    8370.2718    259.29139   -1505.0765     767.7986 
  309500    263.50836    -4831.874   -4304.8248    -4831.874            0    6752.3635    18.239257    23.038659     19.11031  -0.26536455   -6.5083112   0.25511017    8030.3053    5446.4799    6735.8921    8074.7186    122.56502    176.49791    727.14389 
  310000    250.57382   -4848.9505   -4347.7719   -4848.9505            0    8444.6582    18.055664    22.854752    19.283719  -0.11359042   -6.4393077 -0.028776077    7957.5761     7918.774    9838.9899    7576.2107    499.14624    169.76385    2791.9836 
  310500     256.5652   -4818.0032   -4304.8411   -4818.0032            0    7830.5697    17.959589    23.001269    19.251584  -0.18404278   -6.6154477  0.086154663    7952.7009    7207.9796    6690.0384    9593.6912    405.06113   -55.818689   -1328.1604 
  311000    242.22533    -4837.839   -4353.3584    -4837.839            0    7158.8976    18.014977    22.592923     19.57606   0.23134352   -6.1715598   0.21583386    7967.6715    6338.7669    8181.7483    6956.1776   -665.50557   -941.27649   -240.28993 
  311500    248.60443   -4852.9102   -4355.6706   -4852.9102            0    6022.0546    18.050051    23.123902    19.235336  -0.28596422    -6.702108   0.25183274    8028.5909    5907.6841    5372.8021    6785.6777    493.24202   -145.35948   -870.25726 
  312000    252.71737   -4845.8473   -4340.3813   -4845.8473            0    6776.4191     18.17571    22.772633    19.345107  -0.11118155    -6.379264  -0.24440071    8007.1092    5231.4757    8231.8405    6865.9412   -46.594713    364.36722     2067.257 
  312500    243.26601   -4847.6376   -4361.0755   -4847.6376            0    5974.3149    17.872672    23.148537    19.344979   -0.4115735   -6.4924411   0.29662128    8003.5246     7030.037    5787.7402    5105.1676    1159.9124    556.29362   -1028.6262 
  313000    243.27243   -4838.3408   -4351.7659   -4838.3408            0    6422.3834    18.007745    22.800628     19.50179   0.12403356    -6.641488 -0.029439158     8007.199    6141.3144    6442.7032    6683.1325   -378.52815    718.11946   -558.96435 
  313500    240.93206   -4857.6945   -4375.8006   -4857.6945            0    6511.7016    18.029243    22.919224    19.299165  -0.20184236   -6.3227753   0.25362616    7974.7288    5303.5941    6438.8483    7792.6624    652.34029     933.1106   -892.15651 
  314000    257.54233   -4854.8017   -4339.6852   -4854.8017            0    6458.5892    18.171293    22.776481    19.371925   0.25679061   -6.7052298  -0.12995627    8017.6161    6855.4896    5587.9343    6932.3438   -650.82016   -761.31735    65.934947 
  314500    254.88425   -4848.0348   -4338.2349   -4848.0348            0    7331.1411    17.954437    23.058958    19.277839  -0.55689162   -6.3971593   0.20039925    7981.2297    6575.3577    8153.4717    7264.5939    1359.9565    107.21902   -260.13157 
  315000    247.83408   -4844.7447   -4349.0459   -4844.7447            0    8518.1115    18.053346    22.788362     19.29977    0.0961084   -6.4109204 -0.090047287    7940.0449    9135.2278    7471.2958     8947.811    -43.95574   -770.26323    1927.1317 
  315500    254.31843   -4815.0331   -4306.3648   -4815.0331            0    7929.8471    18.022336    22.859506    19.315938  -0.38602784   -6.6361316   0.32495809    7957.8131    8197.6547    7767.8881    7823.9986    26.790927     211.6409    135.72087 
  316000    252.88781   -4842.1973   -4336.3905   -4842.1973            0    6775.7075    18.067616      22.8286    19.292256  0.042161459   -6.5157729    0.1044262    7957.2524    4828.1892    8973.3614     6525.572   -923.74271    1204.5896    1408.5907 
  316500    259.15414   -4835.3026   -4316.9623   -4835.3026            0    8404.4921    18.047053    22.716621    19.357281 -0.062602245   -6.5800088   0.20100649    7935.8667    9236.5769    8491.5446     7485.355   -974.19301   -780.46426    -223.2843 
  317000    254.40052   -4877.2545    -4368.422   -4877.2545            0    8512.6522    17.937705     22.97243    19.223999  -0.22345001   -6.4585134  0.046330655     7921.685    7597.5455    7520.3962    10420.015    821.65942    529.36782    165.49775 
  317500     233.2944    -4865.494   -4398.8764    -4865.494            0     8426.933      18.0455    22.607043    19.427085 -0.056804209   -6.6346113  -0.13678041    7925.3841    10059.367    8993.6467    6227.7856   -202.49034    650.04442    1929.9064 
  318000    249.60064   -4854.3959   -4355.1638   -4854.3959            0    6783.8239    17.960936    23.133308    19.256825   -0.3513352   -6.6184096    0.2691246    8001.1314     6789.812    6140.4605    7421.1992    897.47302    63.854657   -915.60185 
  318500     242.6546   -4858.9354   -4373.5962   -4858.9354            0    6666.1033     18.08415    22.798714    19.373918   0.10737904   -6.3160845   0.11122499    7987.7766    5730.1537    6411.1532    7857.0029   -241.08649   -723.25087    312.65476 
  319000    259.31229   -4857.0025   -4338.3459   -4857.0025            0    7432.5392    18.001983    22.991945    19.203141  -0.26194773   -6.6232151    0.3718881    7948.1921    7816.5794    6739.8878    7741.1503   -615.55715   -150.57676   -2102.5784 
  319500    247.90271   -4843.3607   -4347.5246   -4843.3607            0    8316.5522    18.030994    22.734756    19.364775  0.088566407   -6.4214256  -0.11933001    7938.2071    8582.7156     8909.311      7457.63   -700.43069   -749.83032   -398.92915 
  320000    253.67331   -4856.9629   -4349.5849   -4856.9629            0    6917.7644    17.946917    22.903299    19.397269   -0.3689994   -6.4132471   0.30073033    7973.1236    7773.3567    7262.2085    5717.7279    156.51611    759.80722     323.1002 
  320500    258.72534   -4851.6758   -4334.1932   -4851.6758            0    7238.2796    17.916215    22.875876    19.419669   0.23370812    -6.526687 -0.026686582    7959.1343    7923.1582    6557.8977    7233.7829   -997.07414    1001.0166    -1531.817 
  321000    240.34141   -4840.5493   -4359.8368   -4840.5493            0    6411.6325    17.923167    23.083669    19.375092  -0.80119765   -6.4107557   0.44431342    8016.1044     6906.563    5685.2084     6643.126    294.84842   -1515.0523    465.45939 
  321500    241.20221   -4856.1431   -4373.7088   -4856.1431            0     7642.136    18.092754    22.865016    19.277194  0.031359741   -6.5382824 -0.045310831    7974.8041    7613.4051    7079.5583    8233.4445   -311.56236   -1207.9739   -600.80483 
  322000    255.88682   -4840.6386   -4328.8333   -4840.6386            0    7891.3704    17.914222    23.012933    19.303184  -0.43010773   -6.4255435   0.24677458    7957.9073    6918.2277    7966.1846    8789.6988    916.46974   -417.17701   -1647.2243 
  322500    252.40021   -4857.3409   -4352.5093   -4857.3409            0    8988.8289    17.954861    22.593714    19.528293   0.21070747   -6.6055647  -0.13078473    7921.9841    10259.241     8298.943    8408.3023   -1262.3456   -1107.1403   -458.91919 
  323000    268.36786   -4875.4095   -4338.6406   -4875.4095            0    7640.4298    17.883616    22.946623     19.35481  -0.44935623   -6.3240749   0.23364903    7942.6064    7889.1769     7232.934    7799.1786    553.02471   -1432.9515   -316.67579 
  323500    246.26786   -4823.4436   -4330.8774   -4823.4436            0    8213.8245    18.115325    22.819235    19.231748  0.062390402    -6.540114  0.089178325    7949.9787    6493.7536    8270.3829    9877.3371   -1102.8393    494.71353   -169.90478 
  324000    248.62216    -4871.071    -4373.796    -4871.071            0    7459.7537    18.094377    22.906965    19.198049 -0.072023973   -6.4962689   0.33948923    7957.3467    6465.8435    7238.9131    8674.5045    92.141484   -150.53058   -1884.9231 
  324500    247.76969   -4846.9436   -4351.3736   -4846.9436            0    6696.4725    17.912762    22.927514    19.514862  0.010519871   -6.1596842 -0.0026694115    8014.6581    7752.6081    6407.3341    5929.4754     638.8278    165.98255    11.421767 
  325000     246.8039   -4833.9105   -4340.2723   -4833.9105            0     7546.252    17.948648     22.90858     19.43961   -0.2878111   -6.6855353  0.019406734    7993.1407    8964.2275    7612.8914     6061.637   -484.34626    217.65538   -3127.3899 
  325500    262.88295   -4831.1035   -4305.3051   -4831.1035            0    8217.1989    18.059518     22.77623    19.337923  -0.15916492   -6.3462117   0.16082659     7954.224     8250.842    9005.1295    7395.6252    543.05555    885.75878   -366.52418 
  326000    256.63001    -4868.496   -4355.2043    -4868.496            0    7566.0211    18.004618    23.010946    19.203088 -0.0046572739    -6.814778   0.16032491    7955.9025    7504.1545     6045.359    9148.5499    10.875401     84.39223   -485.43021 
  326500    248.47702   -4844.0751   -4347.0904   -4844.0751            0    6919.0492    18.255825    22.737351    19.206574  -0.20617197   -6.6368913 -0.018292676    7972.4394    3344.3779    8706.2007    8706.5691    660.30333     311.3501   -10.956692 
  327000    261.95481   -4846.2616   -4322.3196   -4846.2616            0    6939.0083    17.848028    23.115324    19.364843 -0.074721028   -6.1227617  -0.12722804    7989.2168    8441.5606    5955.3388    6420.1253     232.4366   -333.76938   -137.73866 
  327500     242.0655   -4853.2114   -4369.0505   -4853.2114            0    6738.7597    18.166617    22.649459    19.514088  -0.23802852   -7.1200464   0.18517093    8029.3453    5205.6954    7949.1612    7061.4224     677.7205   -34.075096   -182.42644 
  328000    254.18907   -4861.9663   -4353.5568   -4861.9663            0    5133.5461    17.856505    23.236013    19.330266  0.069425069   -5.8966742  0.064253951    8020.3974    6076.7112     4712.382    4611.5451   -753.96829   -235.77224   -293.80613 
  328500    258.05001   -4834.4098   -4318.2779   -4834.4098            0    8972.7614    18.194468     22.64392     19.30188  -0.21902321   -6.8758706     0.114895    7952.2604    8422.1063    9032.0967    9464.0811    783.24682   -324.66091   -784.92895 
  329000    251.09399   -4849.3133   -4347.0943   -4849.3133            0    7646.0612    17.893966     23.03322    19.296086 -0.086396498   -6.2115268    0.1308133    7952.9908    8359.4336    7289.1717    7289.5784   -760.25072    166.51056   -1199.1181 
  329500     249.4074   -4849.0519   -4350.2063   -4849.0519            0    8394.1436     17.97041    22.467885    19.633548  0.068616117    -6.103023 -0.017748886    7927.1845    8984.6681    8979.3971    7218.3655    367.69395   -722.93214   -214.90525 
  330000    265.29612   -4854.0331   -4323.4081   -4854.0331            0    7874.8874    17.861789    23.101539    19.379759  -0.30735146   -6.8018356   0.11442565    7996.7635     9406.203    7601.1334    6617.3258   -497.43474    393.30889    143.17013 
  330500    234.85262   -4838.8012    -4369.067   -4838.8012            0     6551.276    18.016242    22.732013    19.507324  0.028895546   -6.1425542 -0.033620512    7989.1356    5895.5233    7237.5733    6520.7313    1694.8724   -288.13012   -1260.8858 
  331000    240.72821   -4861.3945   -4379.9083   -4861.3945            0    6408.3377    18.014477    23.217061    19.146716  -0.33610735   -6.8595063   0.29375206    8007.9837    5861.5344    5982.0918     7381.387   -365.93909    512.12428   -984.61487 
  331500      252.245   -4844.7069   -4340.1857   -4844.7069            0    6491.1565     18.17671     22.79696    19.356492 -0.026527761   -6.4667049 0.0049627093    8020.8216    6039.8249    6364.0165    7069.6282    853.41689   -201.40515    1714.6374 
  332000    248.87493   -4841.5808   -4343.8002   -4841.5808            0    9264.4333    18.077763      22.8669    19.206024  -0.50746212   -6.5135805 -0.014912177    7939.4326    8592.2937    9338.9241    9862.0821     1896.225     1145.463   -1039.3827 
  332500    257.31233   -4840.9202   -4326.2638   -4840.9202            0    7758.4107    17.981007    22.852261    19.386837   0.02412184   -6.6862806   0.17957917    7966.1806     8001.103    7484.0172    7790.1119   -683.98778   -309.74057   -1194.8463 
  333000    241.70695   -4853.2007   -4369.7569   -4853.2007            0    7357.7516    17.921724    22.950073    19.369472 -0.024304588    -6.386227   0.22649014    7966.7583    6424.9691    7940.5398    7707.7457   -1092.6611    551.34981   -227.93157 
  333500    244.65943   -4804.4723   -4315.1232   -4804.4723            0    8072.4438     18.21213    22.676089    19.290508  -0.22568549    -6.730666  -0.34325721    7966.5918    6532.2622    8834.0769    8850.9922    32.953511   -572.65321    1224.3058 
  334000    244.88849   -4852.6867   -4362.8795   -4852.6867            0    6607.7979    18.010095    23.040336    19.203488   -0.2966529   -6.3022766  0.003220269    7968.6532    6999.8399    6104.5039      6719.05    316.20341    -1425.337    842.12306 
  334500    251.27836   -4837.6771   -4335.0894   -4837.6771            0    6741.1888    18.117708    22.732663    19.387497   -0.1077753   -6.4132796   0.24377022    7985.0074    5818.2166    7591.3564    6813.9935   -31.807068    834.49441   -1679.5513 
  335000    242.14351   -4855.1432   -4370.8263   -4855.1432            0    7017.1085    17.853467    23.047445    19.354395 -0.082905318   -6.5504517   0.12621436    7963.8842    6883.7301    6893.7935    7273.8019    -152.9529    270.87288    1050.9823 
  335500    259.02337   -4829.3385   -4311.2597   -4829.3385            0    7005.9152    17.825906    22.947719    19.593646 0.0062447574   -6.2379367   0.16355633    8015.0527     8306.905    7996.2895    4714.5511   -1286.8549    270.46443    -1427.659 
  336000     268.5026   -4826.9546   -4289.9162   -4826.9546            0     6703.497    18.061811    22.780786    19.421795 -0.071334883   -6.6756357    0.1826905    7991.3356    8468.1843    6460.2633    5182.0436    326.92355   -252.24422   -113.52444 
  336500    246.77119   -4841.4473   -4347.8745   -4841.4473            0    8358.9208    17.987262    22.946004     19.23898  -0.23702771   -6.3966486  0.081701333    7940.6153    6869.9893     7880.939    10325.834    185.10388   -589.91506    675.43385 
  337000    259.68282   -4850.3709   -4330.9732   -4850.3709            0    9206.2888    18.106322    22.569994    19.315071  -0.19094863   -6.5666401  -0.15810939    7893.2887    8407.9107    9541.7401    9669.2156    1400.0315    145.64939    1485.1195 
  337500    249.50625   -4833.1659   -4334.1226   -4833.1659            0    8782.7775    17.898879    23.043887     19.24805 -0.099618942   -6.5147728   0.27167264    7939.0459    8215.3121    9948.3871    8184.6334   -1626.3266   -14.650612   -1200.9403 
  338000     245.5791   -4861.1661   -4369.9776   -4861.1661            0     8986.208    18.117946     22.61088    19.288808  0.074883704   -6.3173619  0.031901565    7901.9052    7587.8481    10569.735    8801.0408   -1218.8764   -758.23684    430.68116 
  338500    245.71965   -4844.5302   -4353.0605   -4844.5302            0    7315.7394    17.849676     23.21224    19.182872  -0.42159771    -6.551309  0.076603139    7948.0577    7381.8249    6522.1079    8043.2855   -888.25548     431.1844   -691.16554 
  339000    258.60699    -4845.038   -4327.7921    -4845.038            0    7874.0552    18.154301    22.469278    19.479806  0.030389955   -6.5090438 -0.031866431    7946.0861    8837.7725    8276.5612    6507.8318   -52.430925   -145.67966    154.16728 
  339500     253.6073   -4843.1614   -4335.9154   -4843.1614            0    7067.2109    17.720474     23.42622    19.242551  -0.33472957   -6.4976238   0.20895299    7988.0393    8919.3396    5148.7582     7133.535   0.75580929    140.11436    120.94497 
  340000    255.31207   -4862.1629   -4351.5072   -4862.1629            0    6501.4493    18.152702    22.576443    19.552477 -0.098444074    -6.536453 -0.029290003    8013.0633    5764.6241    6739.4275    7000.2964    -242.3837    523.75906    377.79573 
  340500    258.78983   -4817.7311   -4300.1194   -4817.7311            0    7932.0245    17.983202      23.0966    19.209264  -0.15733562   -6.4083115   0.21089994    7978.5838    8240.2268    6199.3942    9356.4525   -1186.5949   -427.50398    275.31282 
  341000    249.13976   -4844.0717   -4345.7614   -4844.0717            0    7569.9836    18.268532    22.664274    19.252214   0.23057447   -6.7716689  0.080917696     7971.245     6454.684    7493.4874    8761.7793   -1779.2207   -25.984596   -19.372706 
  341500    235.79342   -4864.8029   -4393.1869   -4864.8029            0    7253.7342    17.868438    22.976052    19.379288  -0.31830456   -6.3370072 -0.020777246    7956.0926    7812.8087    7086.9128    6861.4811    157.96858   -699.44714    1145.6265 
  342000    248.38255   -4847.6115   -4350.8157   -4847.6115            0    7439.2451    17.951555    22.824115    19.526279 -0.098458888   -6.3944012  0.035662651    8000.4705    7909.3189    6964.9848    7443.4317   -92.243951   -625.29321    926.48085 
  342500    244.21818   -4841.2776    -4352.811   -4841.2776            0    7252.0031    18.009849    23.160578    19.097208  -0.21337912   -6.5633832  0.028830956    7965.7989    6146.3608    7449.2211    8160.4274   -173.69883    162.09386    1299.1432 
  343000    251.51242   -4845.3574   -4342.3015   -4845.3574            0    7940.4067    18.260363    22.781832    19.097744  -0.12637034   -6.5124291  0.041949821    7944.7477    5584.3705    7902.2814    10334.568   -742.56841   -465.68187   -341.31994 
  343500    248.03369   -4865.4417   -4369.3436   -4865.4417            0     7962.508     18.02292    22.920282    19.197857 -0.086711759   -6.4666596   0.21877159    7930.4509    8550.5516    7136.8294     8200.143   -13.136619   -78.551326   -494.37267 
  344000    251.83703   -4862.0939   -4358.3888   -4862.0939            0    7159.4158    17.848128    22.854345    19.504516  0.014529994   -6.4740936  0.039212957    7956.0338    8050.0464    7577.9589    5850.2423    -1288.733    203.80476    -1505.592 
  344500    233.30363   -4844.4649   -4377.8288   -4844.4649            0    7517.8735    17.843825    22.850887    19.514378  -0.45476613   -6.2752487 -0.018097429    7956.9337    8043.0416    8249.7104    6260.8686    1223.4889    42.011416    980.61025 
  345000      248.807    -4851.409   -4353.7643    -4851.409            0    7175.5226    18.088396     22.84134    19.314244  -0.01224554     -6.56294  0.074941685    7979.9351    7415.3174    6730.8262    7380.4241   -527.76095    193.42011    1405.6104 
  345500    245.88499   -4854.7873    -4362.987   -4854.7873            0    6588.7623    18.196789    23.087642     19.12611  -0.15324033   -6.5254209   0.36472063    8035.2793    5248.4903    5550.8373    8966.9593    275.05423   -456.88514   -1056.4881 
  346000     247.4844   -4865.3002   -4370.3009   -4865.3002            0    4659.7878    18.239076    22.852686     19.30226   0.20395568   -6.5564481 -0.029239171    8045.4112    3665.6132    5119.9405    5193.8097   -106.00279   -1014.6298   -33.223289 
  346500    235.33894   -4868.7897   -4398.0827   -4868.7897            0    6831.5621    17.919651    22.924468    19.377337  -0.40157436   -6.5210765   0.13409589    7960.1805    8115.8368    6290.2736    6088.5759    1307.9211   -1118.6051    1983.8351 
  347000    249.27948   -4855.0421   -4356.4524   -4855.0421            0    7058.8493     17.83564    22.978132    19.428942  0.085586114   -6.3570802  -0.19988203    7962.5574    9298.8413    6753.1519    5124.5548   -6.5991977   -353.19986    856.07664 
  347500     254.8959   -4808.5297   -4298.7064   -4808.5297            0    7849.9878    17.907816    22.898095      19.4334  -0.33395441    -6.478242   0.53909615    7968.7604    8057.5774    8090.3608    7402.0251    468.30061    576.62319   -3444.4423 
  348000    244.84569   -4859.4204   -4369.6988   -4859.4204            0    6091.4509    18.085462    22.932882    19.314757    0.1610799   -6.6743166 -0.071213353    8010.8297    6599.0182     6135.167    5540.1676   -883.35378   -78.877243    760.18461 
  348500    257.63373    -4852.595   -4337.2957    -4852.595            0    6823.1681    18.071585    22.982447    19.249403  -0.60733008    -6.299849   0.20950728    7994.8398    5844.5735    6145.7923    8479.1386    1177.9145   -623.02138    1263.0484 
  349000    249.10709   -4887.5147   -4389.2698   -4887.5147            0    6558.0184    18.061616    22.792517     19.39005   0.35124477   -6.6197143  -0.10754933    7982.2957    6145.4398    6887.3666    6641.2488   -2007.5784   -107.17647    842.35688 
  349500    245.02747   -4833.7366   -4343.6514   -4833.7366            0    7372.5741    17.893942    23.030992    19.340985  -0.22798097   -6.4031722   0.29613947    7970.7146     7203.802    7269.1581    7644.7622   -1150.9859    44.636846   -1250.3964 
  350000    231.94184   -4807.7649   -4343.8526   -4807.7649            0     6583.313    17.957614     22.83126    19.555766   0.23347179   -6.4082409   0.05834212    8017.7655    8955.0682    6500.7666    4294.1044   -1223.2726   -328.44006   -1871.4434 
  350500     258.8801   -4849.8648   -4332.0726   -4849.8648            0    6233.0429    18.041889    22.828481    19.416901  -0.39260075   -6.4806445     0.157797    7997.2183    5407.4487    7159.5682    6132.1118    311.57234   -49.159407    123.50952 
  351000    251.52956   -4850.8499   -4347.7597   -4850.8499            0    5235.1298    18.072072    23.059979    19.332423  -0.13525529   -6.5716801  -0.27542845    8056.6246    4531.8379    4695.7406     6477.811    1242.7759   -625.46357    2347.2869 
  351500    241.23722    -4850.568   -4368.0637    -4850.568            0    7207.2602    17.936182    22.973243    19.340235   -0.2439234   -6.4785653   0.19796865    7969.1872     7760.666    6858.3368    7002.7778    134.33137    518.28238   -498.79181 
  352000    251.80877   -4831.2324   -4327.5837   -4831.2324            0    5169.9609    18.064084    22.889146    19.420323   0.11984564    -6.492604 -0.027185567     8029.749    4858.4475    5469.2371    5182.1982   -527.09352   -415.65603    2110.5507 
  352500    234.72108   -4856.2031   -4386.7319   -4856.2031            0    5546.4052    18.156227    22.913574    19.355722  -0.23619767   -6.8752652   0.48144396    8052.4459    5080.4472    5772.3941    5786.3744   -444.69208   -665.97345   -2085.5249 
  353000    248.89502   -4852.0271   -4354.2063   -4852.0271            0    4178.6587    17.981556    22.999879    19.436285 -0.038830589   -6.3397867  -0.06991538    8038.3347    4214.5984    4519.8702    3801.5075     813.4621   -677.83823    868.43016 
  353500     246.7648   -4900.4682   -4406.9081   -4900.4682            0     6319.828    18.040311    22.785196     19.35276  -0.46220537   -6.7476619  0.074375591    7954.9911    5446.3994    7104.8815     6408.203    1314.6387    165.48524    1856.6615 
  354000    248.61042   -4851.5611   -4354.3096   -4851.5611            0    7117.4368     17.99543    23.089069    19.135403  0.046482244   -6.3611823  -0.18506807    7950.7164    6751.7636    7491.4398    7109.1071   -289.29088   -250.05547    422.74403 
  354500    254.74741   -4827.9145   -4318.3882   -4827.9145            0    7150.1018    18.149106    22.811218    19.352859 -0.084929683   -6.5186013    0.2207635    8012.1455    5522.0421    7784.7442     8143.519    169.18832    244.54612   -1297.0538 
  355000    245.45356   -4826.4678   -4335.5303   -4826.4678            0    5829.7855    17.897111     23.08994    19.427577   0.13000991   -6.5102986   0.22970171    8028.3144    6195.5296     5528.992    5764.8351   -185.77078   -312.30857   -2593.4744 
  355500     245.2279   -4860.0793   -4369.5932   -4860.0793            0    5938.8315    18.072677    22.589271    19.649581  -0.27524983   -6.3811346   0.26338803    8021.9141    5826.3856     6664.446     5325.663    1985.3101   -433.13591    718.82377 
  356000    247.12639   -4844.0806   -4349.7972   -4844.0806            0    7106.3831    17.941751    23.304089    19.078329 -0.057089888   -6.7164189  0.014620303    7976.9576    7186.5302    6033.5053    8099.1139    -258.1028    977.89444    836.37875 
  356500    251.04678    -4878.952   -4376.8275    -4878.952            0     7702.805    18.224876    22.674946    19.257292  -0.31431046   -6.5071888   0.15780487     7958.039    7318.2543    8632.1534    7158.0072    649.81568   -784.97263   -169.89429 
  357000    244.10872   -4827.7292   -4339.4816   -4827.7292            0    8854.4735    17.871804    23.100773    19.229209 0.0029296207    -6.501415   0.24059624    7938.8267    10072.734    8341.4577    8149.2286   -204.86273     471.5035   -288.16574 
  357500    263.93888   -4808.0934   -4280.1831   -4808.0934            0    9268.3325    18.002665    22.560892    19.537704  -0.37490197   -6.5546221  0.018795655    7935.3593    9165.5193      10290.6    8348.8779    2053.9948   -265.22886    787.98399 
  358000    243.22009   -4833.5813    -4347.111   -4833.5813            0    7817.7437    17.934429    22.961581    19.336043  -0.19750797   -6.5115823  -0.11287184    7962.6372    8476.3783    7937.6751    7039.1778    237.71531    383.18704    1229.0127 
  358500    258.19087   -4839.8389   -4323.4253   -4839.8389            0    8596.1719    18.111205    22.817565    19.166471 -0.089347088   -6.8564501   0.39885184    7920.6131    9009.1836    8546.8027    8232.5293   -887.04796    763.94781   -1150.2168 
  359000    258.06637   -4868.2958   -4352.1312   -4868.2958            0     7361.479    18.056488    22.921136    19.171165   0.09211892   -6.2490483   0.10541843      7934.47    7166.9964    7129.3627     7788.078   -1185.9334   -104.41954   -10.974175 
  359500     255.8793   -4836.3074   -4324.5172   -4836.3074            0    6344.4937    18.040496    22.798849    19.424603   -0.2947157   -6.7193802  0.095719945    7989.3884    6259.3803    6019.4901    6754.6107    1084.9463   -538.45532     277.9187 
  360000     256.6081   -4865.2085   -4351.9605   -4865.2085            0    5066.1195    17.756455    23.137388    19.538107 -0.017540303   -6.4157495   0.13302561    8026.9968    6482.8305    4842.2574    3873.2706    456.93666    807.20826    1353.7245 
  360500    252.15807   -4843.6672   -4339.3199   -4843.6672            0    6275.8356    18.102363     22.73539    19.446812  -0.15640164    -6.582739   0.19384896     8003.613    4566.2577     7666.662    6594.5872    93.352112    12.030058   -681.45482 
  361000    258.15029   -4838.3772   -4322.0447   -4838.3772            0    8087.6963    17.957953    23.161422     19.09451 -0.043734339   -6.3539822 -0.017206757    7942.0124    7658.3889    8264.3443    8340.3559    835.82139    362.92885    1602.9728 
  361500    249.52397   -4836.6072   -4337.5284   -4836.6072            0     8426.828    18.145278    22.516032    19.429269  -0.34354698   -6.4498189 0.0040584975    7938.0152    7018.7134    9709.9082    8551.8625    329.00622   -156.20683    381.15186 
  362000    246.04835   -4857.4532   -4365.3261   -4857.4532            0    8123.3348     17.87242    22.940851    19.402932 -0.0093274278   -6.7138466   0.13388313    7955.3678    9892.8487    7136.9272    7340.2287    -1349.487    648.69384   -141.05242 
  362500    262.32703   -4829.2394   -4304.5529   -4829.2394            0    6484.8355    17.985012    22.876914    19.451341   -0.2761438   -6.2441411  -0.05785973    8003.0905    7377.6947    6132.9002    5943.9114   -1227.4834    584.94472    634.78093 
  363000    253.24893   -4838.8337   -4332.3046   -4838.8337            0    7013.3234     18.10968    22.897802     19.22192  -0.24173539    -6.783152   -0.0821738    7970.7895    5649.3229    7600.4264     7790.221    1766.1811    733.20116    2638.4765 
  363500    256.58604   -4823.3417   -4310.1379   -4823.3417            0     6952.952    18.098917    23.076282    19.184135 -0.071804108   -6.2603188  0.092641381    8012.3634    4710.5715    7049.2833    9099.0013   -599.54397   -994.74347   -481.22825 
  364000    238.71518   -4826.9418    -4349.482   -4826.9418            0    7124.1312    17.976256     22.73151    19.570639  -0.14300606   -6.0530493   0.30255262    7997.0999    7867.8352    7587.1326    5917.4258   -375.35714    -384.2373   -1102.6178 
  364500     255.8807   -4849.8879   -4338.0948   -4849.8879            0    8243.0652    17.874902    22.945115    19.452416  -0.14075321   -6.7813237   0.12407738    7978.2467    8404.6981    8574.9805     7749.517   -172.42438     851.8624   -1384.4143 
  365000    243.55154   -4833.3815   -4346.2484   -4833.3815            0    7765.0739    18.034046    22.732085    19.470194  -0.29148688   -6.2635557 -0.023459511    7981.8345    7880.1747    7721.3506    7693.6964    831.78611   -457.53315    784.29855 
  365500    260.94919     -4865.76   -4343.8294     -4865.76            0    6789.1733     18.03494    23.105853    19.138288  -0.15188814   -7.0600078   0.20570307    7975.1674    5712.5446    7326.5746    7328.4009    902.29085    1807.9348   -640.67139 
  366000    253.27306   -4812.8557   -4306.2783   -4812.8557            0    6860.4321    18.135828    22.812265    19.360344  0.075722438   -6.3928791   0.28486809    8009.7483    5289.2726    6722.4123    8569.6114     -767.472    452.53971    -912.2989 
  366500    255.19619   -4848.4293   -4338.0054   -4848.4293            0    7482.0114    17.845808    23.048729     19.34262  -0.11590192   -6.3434701  0.083632635    7956.0683    7319.1983    9176.8389    5949.9969   -177.63233    1325.3171   -149.11795 
  367000    245.66358   -4861.9439   -4370.5864   -4861.9439            0    6656.8273    18.086571    22.750813     19.48333  -0.30234362   -6.9514337 -0.0080031478    8017.0822    9669.0013    6306.2533    3995.2273    1292.6762    667.22343    103.11873 
  367500    252.44088   -4830.2653   -4325.3523   -4830.2653            0    7251.7332    17.915215    23.082781     19.30814  -0.17030076   -5.9176546   0.12606669    7984.5528    6126.4553    7131.4695    8497.2749    851.13868   -1185.4122   -379.24809 
  368000    257.57941   -4840.5907   -4325.4001   -4840.5907            0    7600.8462    18.177687    22.854962    19.121143 -0.037397072   -7.0013201   0.06038751    7943.8854    5564.5547    8617.6577    8620.3264   -467.01346    1953.1424    448.01125 
  368500    254.69333   -4850.6791    -4341.261   -4850.6791            0    7363.8792    17.956134    22.922871    19.346614  -0.16088426   -6.1133455   0.23227006    7963.1855    5727.4426    7988.6381    8375.5568   -3.4981436    14.378821     -213.702 
  369000    248.81779   -4846.0317   -4348.3654   -4846.0317            0     5633.714    17.955139     22.98361    19.461472 -0.087657221   -6.8378163 -0.0074777261    8031.2417    6772.2966    5874.6283    4254.2172    435.82765    1819.0312    1148.4971 
  369500    244.34277   -4853.5195   -4364.8038   -4853.5195            0    7584.2248    18.037356    22.726394    19.417622  -0.23387601   -6.6717937   0.19984952    7959.7504     7479.554    8026.7081    7246.4123    1262.3842    1049.2226   -1357.7491 
  370000    261.50422   -4833.8639   -4310.8231   -4833.8639            0     6241.908    18.036429    23.058893    19.336511  -0.11209635   -6.3101743   0.10093551    8042.0565    5924.0543    6553.7985    6247.8711    714.42918    373.36916    1004.2796 
  370500     245.2067   -4866.1227    -4375.679   -4866.1227            0    4386.2483    18.221327    22.798054    19.327167  -0.24081486   -7.3322497   0.12641343    8028.7137    4480.1279    4624.6605    4053.9564   -754.42356    657.97332     539.2275 
  371000    268.59756   -4866.2235   -4328.9952   -4866.2235            0    6927.8579    17.911488    22.976353    19.344812  -0.02979418   -6.1516048  0.080621736    7961.1769    7844.1271    6237.9314    6701.5154    569.44203   -830.21146    2106.1889 
  371500    251.86703   -4845.4613   -4341.6961   -4845.4613            0    6332.9692    18.000939    22.957523    19.409373  -0.19886382   -6.6387238  0.089122413    8021.0585     6291.825    6211.5523    6495.5302   -553.37196   -244.14306    192.06986 
  372000    242.01329   -4834.4819   -4350.4254   -4834.4819            0    5638.7127    18.119265    22.948698    19.335164  -0.23627806   -6.5472737   0.10656916    8039.8232    7152.9323     4331.823    5431.3828    1196.1354   -657.24828    859.52873 
  372500    232.58328   -4839.5897   -4374.3944   -4839.5897            0    6739.8922    18.125674    22.982959    19.225349  -0.06060247   -6.4521907   0.11749456     8008.927    4759.9406    6494.7515    8964.9846   -540.41441   -600.23745    16.885559 
  373000    242.37897   -4867.1928   -4382.4049   -4867.1928            0    9099.5533    18.143029    22.823707    19.158268  -0.12409561   -6.7758129   0.24098096    7933.2697    9352.2089    8062.8916    9883.5593   -1226.9901   -654.80489   -1304.5448 
  373500    256.85512   -4849.5049   -4335.7629   -4849.5049            0    7752.9359    17.946951    22.899597    19.324222  -0.11823273   -6.2463188  0.065123495    7941.8289    7908.3803    6574.9004    8775.5269    996.28723   -798.51048    583.69573 
  374000    268.72999   -4853.8568   -4316.3636   -4853.8568            0    7420.7169    17.904536    22.944239    19.404413  -0.47800075   -6.9119551    0.1051479    7971.4484    7667.9873    8242.7881    6351.3755    2205.2151    1506.8819    635.22639 
  374500    250.85068   -4824.1651   -4322.4327   -4824.1651            0    8004.1139    18.079883    22.848847    19.276777 0.0026225641   -6.2674231   0.21465305     7963.323    7419.0691    8477.9307    8115.3419     566.4743    426.38863    1120.5285 
  375000    259.28055   -4847.0434   -4328.4503   -4847.0434            0    9281.3487    18.061696    22.864309    19.141623  -0.14463343   -6.5479712  0.067801036    7904.8815    7240.8733    10023.782     10579.39    88.388783     1394.684    1087.4503 
  375500    255.78983   -4867.0131   -4355.4018   -4867.0131            0    7128.9813     17.98048    22.987041    19.358178  -0.23670157   -6.6257361  0.033826508    8001.0838    7957.8155    4954.3709    8474.7573   -739.64158   -629.80738   -387.78033 
  376000    249.68347   -4856.2114   -4356.8137   -4856.2114            0    5613.9916    18.058376    22.816349     19.49311  0.059289307   -6.4580508   0.25795205    8031.6722    4993.3564    6088.0251    5760.5932    76.395393   -647.15834    1021.6822 
  376500    249.12257   -4816.9884   -4318.7125   -4816.9884            0    6128.8958    18.046353      23.0175    19.355525  -0.19924375   -6.7237668    0.1722754    8039.9355    4564.3569    6562.8548    7259.4759   -472.54244    842.41995   -958.11443 
  377000    247.25728   -4896.5179   -4401.9728   -4896.5179            0    7551.1155    18.106005    22.729759    19.386218  -0.12883285    -6.241946 -0.091165503    7978.3035    6988.8289    8729.5796    6934.9381   -192.55433   -102.48439    -912.1526 
  377500    248.13797    -4853.007   -4356.7004    -4853.007            0    6148.8887    17.922877    23.274679    19.180205  -0.27476729   -6.8615132   0.30937303    8001.0072    7240.0485    5245.1665    5961.4511   -338.30598    113.88686   -180.10595 
  378000    252.96975   -4858.4334   -4352.4626   -4858.4334            0    6594.2957    18.134067    22.554726       19.426  0.034200537   -6.3849642   0.04470806    7945.4072    5347.7674    7730.2088    6704.9108    573.95561   -663.53668    1425.9697 
  378500    244.08754   -4863.1229   -4374.9177   -4863.1229            0    8994.5304    17.845693    23.044196    19.204609  -0.26100444   -6.4100868   0.30107961    7897.6967      9481.09    8390.9735    9111.5278   -1107.6717    291.96413    -965.1167 
  379000    246.37385   -4847.5505   -4354.7724   -4847.5505            0    5855.7466    18.161628     22.71679      19.3474  -0.11645578   -6.6823447 -0.031568045    7982.2322    4187.4777    5161.5082    8218.2537    1273.8406   -1485.4269   -677.12831 
  379500    239.80108   -4833.2742   -4353.6424   -4833.2742            0    6156.1548    17.850478    23.238399    19.281131  -0.33181299   -5.8775709   0.16344843    7998.1321    7419.4131    5498.3439    5550.7075   -776.24362   -432.61245   -450.54657 
  380000    243.46656   -4868.5115   -4381.5483   -4868.5115            0    5506.6668    18.141643    22.721253    19.502416  0.037442549   -6.9098843   0.11628713    8038.9125    5838.7362    5839.1631     4842.101   -144.62727    386.20791    153.07343 
  380500    254.52834    -4838.198   -4329.1098    -4838.198            0    7374.1624    17.817953     23.11766    19.349203  -0.23098413   -6.3948226   0.14681758    7970.1181    8318.7116    6126.6854    7677.0901   -702.13718    1061.7705   -1559.4765 
  381000    244.58955   -4849.1448   -4359.9354   -4849.1448            0    8136.9248    18.076142    22.637614    19.464754 -0.080303487   -6.1856352  0.050715955    7964.9916    7054.1753    9042.2813    8314.3178    187.15088   -1831.0917   -1157.6553 
  381500    256.16663   -4829.1748   -4316.8099   -4829.1748            0    5420.7743    18.008937    23.261847    19.213517  0.011401811   -6.8856641   0.10274767    8048.9488       4554.9    5401.1206    6306.3023   -384.30288    1016.6931    43.191372 
  382000    240.99477   -4861.0028   -4378.9835   -4861.0028            0    6347.4802    18.261204     22.62152    19.434798  -0.31045254   -6.1050647   0.13540907    8028.4412    5246.7446    8175.0241    5620.6718    614.58144   -216.37466    1207.3162 
  382500    276.56715     -4842.13   -4288.9616     -4842.13            0    6108.3519    18.012419    23.227243    19.160622 -0.028790033   -6.6970861  0.040590519    8016.3988    5845.7402    6007.1716    6472.1439   -311.98567       501.25     492.8707 
  383000    266.90091   -4845.7869   -4311.9521   -4845.7869            0    7767.6074    18.052734    22.644633    19.516531  -0.33248681   -6.4329756   0.22805656    7978.3097     6238.304    8556.4911    8508.0272    1372.2784   -322.06345   -905.22197 
  383500    260.91088   -4840.5207   -4318.6667   -4840.5207            0    6761.2056    17.998296    23.273111    19.143909   0.38626778   -6.6730757  0.084737432    8018.9307    5822.0209    6912.7476    7548.8484   -1696.3339    507.93711   -302.67897 
  384000    242.37606   -4859.4449   -4374.6628   -4859.4449            0    7464.2239     18.10252    22.725539    19.332395  -0.34258834   -6.6588609   0.31076126    7953.1446    7052.2177    8189.0283    7151.4257    111.50567   -237.22589   -1247.7019 
  384500    259.10054   -4858.1239   -4339.8908   -4858.1239            0    6167.1844    17.972446    22.903103    19.352065 -0.022086029   -6.3641429 -0.060226478    7965.7892     4627.966    6620.8144     7252.773    1384.3883     733.2354    1140.2316 
  385000     248.9331   -4864.7244   -4366.8274   -4864.7244            0    6134.1437    18.052283    22.944613    19.366768  -0.37126153    -6.991067 0.0015147475    8021.7667     5380.383    5437.1613    7584.8867    642.75021    759.31251   -1077.3708 
  385500    246.67595    -4872.974   -4379.5916    -4872.974            0    6547.4572    18.095339    22.861257     19.27277 -0.026343628   -6.0845166   0.14024585    7972.8018    3806.7051     7191.091    8644.5755   -2124.0965   -592.30984   -14.463137 
  386000    232.91311    -4847.664    -4381.809    -4847.664            0    7001.7836    18.066004    22.899981    19.212825  0.032809988    -6.762506   0.14913058    7948.5602    6913.9909    6413.3685    7677.9915   -1346.4578    589.70146     184.3073 
  386500    253.75484   -4841.2348   -4333.6937   -4841.2348            0    6985.1744    18.080967    22.764627    19.388379   -0.5036692   -6.2240701   0.15888493     7980.382    6765.3663    7974.7123    6215.4447    1792.9293    315.32053    782.15064 
  387000    257.32155   -4874.7635   -4360.0886   -4874.7635            0    6439.2165    17.883146    23.126249    19.302904  0.092954856   -6.4751246 -0.070220806    7983.1037    5662.7363    6381.0801    7273.8331    1511.5164    1861.9687    2556.1578 
  387500    245.72629   -4839.3706   -4347.8877   -4839.3706            0    7975.7269    18.040889    22.701709    19.399559  -0.33429223   -6.5372761    0.2034306    7945.2642    9967.0741    8121.9984    5838.1082   -935.49595    -36.21119   -1100.5478 
  388000    240.51571   -4862.2035   -4381.1423   -4862.2035            0     6716.485    18.071143     22.99503    19.214205   0.32382931   -6.3822375 -0.097184583    7984.3954    4851.0657    7292.1611    8006.2283   -1037.6516    391.21195    1262.2301 
  388500    249.18195   -4883.5855   -4385.1908   -4883.5855            0     5216.543    18.246201    22.821279     19.27098  -0.38156281   -6.7502901   0.40426518    8024.4675    4329.6541    3773.6334    7546.3417    870.53807   -1557.3725   -870.56467 
  389000    253.61297   -4863.8698   -4356.6126   -4863.8698            0    4899.2515     17.95812    22.996725    19.468887  0.091130401    -6.310097 -0.014885456    8040.2209    6092.5008    4604.3684    4000.8853   -712.90859    361.66814   -135.81399 
  389500    247.35706   -4851.8076   -4357.0629   -4851.8076            0    6450.1816    17.950722    22.840916    19.442297  -0.40303794   -6.4702101   0.13125554    7971.5542    6177.8652    6400.5468    6772.1326    680.51742    77.815657    1328.4723 
  390000    235.71736   -4837.7552   -4366.2914   -4837.7552            0    8837.1207    18.068659     22.73571    19.298071  0.013710949   -6.7222774 -0.043659158    7927.7205    8971.2051    9238.5347    8301.6222   -2423.6383   -661.73351    499.91933 
  390500    251.06816   -4823.9006   -4321.7333   -4823.9006            0    7550.6671     18.12424    22.847117    19.253116  -0.23263573   -6.3327355    0.2882831    7972.4578    6417.1418    7545.1723    8689.6871   -74.113743    6.8225595   -768.78499 
  391000    254.22929   -4837.1605   -4328.6705   -4837.1605            0    7458.7896    18.084847    22.772243    19.320646 -0.093301445   -6.6284747 -0.024659368    7956.8707    7992.6296    7685.0651    6698.6741     -2001.17   -1299.5249   -210.72848 
  391500    258.25299   -4831.5034   -4314.9655   -4831.5034            0    7506.6379     17.78425     22.88279    19.616423  -0.14638441   -6.4458329   0.27595451    7982.9672    9771.6195    6997.8685    5750.4257    -349.7764   -491.72526    687.41072 
  392000    233.01823   -4878.3383   -4412.2731   -4878.3383            0    5285.2168    17.856709    23.007184    19.452187  -0.12030203   -6.3803136   0.19933694    7991.5923    6322.6892    5567.5063    3965.4548   -840.52702    44.952674   -867.58633 
  392500     238.8993   -4859.9492    -4382.121   -4859.9492            0    5032.8676    18.174541    22.907716    19.305201 0.0072680239   -6.6013804  0.071082392    8037.4735    5995.0604    3313.8679    5789.6744   -1646.9765   -1153.3726   -906.76427 
  393000    232.41543   -4817.0155   -4352.1559   -4817.0155            0    6539.4671    18.109878    23.206983     19.10361  -0.35534844   -6.4586082 -0.084144462    8028.7818    7978.4221    5440.7644    6199.2148    1048.8877   -504.20409   -1561.1565 
  393500     263.4232   -4839.3452   -4312.4662   -4839.3452            0    7402.4668    18.062425    22.782056    19.376643 -0.099019476   -6.5637043   0.10721933    7973.4724    9319.6822    7172.2556    5715.4627    207.86638    434.62965   -932.73107 
  394000    247.99781   -4868.7418   -4372.7155   -4868.7418            0    5144.1987    17.870199    22.869842    19.560267 -0.020700064   -6.2697537   0.47140075    7994.0591    5964.2239    5251.1563     4217.216    144.68846     -1881.11   -942.51322 
  394500    248.93236   -4858.1291   -4360.2336   -4858.1291            0    7507.0654    17.957669     22.88279    19.374695  -0.11590375   -6.5316974 -0.061975237    7961.4796     7742.894    7904.6089    6873.6933      206.598    1374.6845    929.68977 
  395000    255.23646   -4854.9555   -4344.4511   -4854.9555            0    4987.1145    18.158764    22.941748    19.262107  -0.38911128   -6.5237483   -0.1022993    8024.4741    3390.0532      4512.55    7058.7402    1229.1689    368.39279    849.05781 
  395500    256.19159   -4879.5881   -4367.1733   -4879.5881            0    6591.4243    18.054254     22.94644    19.226416  0.013326744   -6.5074681  0.084761491    7965.1358    5945.7706    5808.0735    8020.4287    254.63972   -348.37562    1016.4985 
  396000    248.14347   -4860.4603   -4364.1427   -4860.4603            0    6941.2366    17.933639    22.835313    19.397507  0.064902276    -6.517841   0.31453631    7943.6719    6188.0136    8151.3518    6484.3445    395.62682    758.93406    -688.3234 
  396500    245.31729   -4857.9842   -4367.3193   -4857.9842            0    8858.1101    17.908807    22.749556     19.44327  -0.14689398   -6.4718903  -0.06399943    7921.5264    7765.5919    8781.1493    10027.589    412.32868    111.76329    1530.4928 
  397000    245.88882   -4839.7165   -4347.9085   -4839.7165            0    6974.0105    17.946966    23.033705    19.255329  -0.39010598   -6.3809059  -0.14721954    7959.8666    5902.1337    7374.1351    7645.7627    384.41785    731.86829     19.87302 
  397500    258.83868   -4844.0036   -4326.2943   -4844.0036            0    6825.6423    18.141195     22.90353    19.249035 -0.047188358   -6.6948377   0.25009454    7997.9242    7853.6116    6586.2269    6037.0884    73.027282    263.16608    34.239358 
  398000    238.96795   -4845.0149   -4367.0495   -4845.0149            0    7565.1663    18.067253    22.688179    19.416506   0.11500757   -6.4510801   0.30462169    7959.0799    9093.2053     6135.929    7466.3645   -919.51758   -1560.4497   -450.58861 
  398500    259.37959   -4832.0493   -4313.2581   -4832.0493            0    9984.8218    17.781497    22.965571    19.315058  -0.17019631   -6.4726825  0.062136365    7887.5404    10824.561    10585.586    8544.3181   -401.93464   -54.377115    1036.3591 
  399000    237.11574   -4868.2829   -4394.0222   -4868.2829            0    6737.0072    18.013368    22.755821    19.445518   -0.2055444   -6.5709396  0.018978593    7970.8923    5750.3089    6999.2027      7461.51   -438.12377   -142.07077    -654.7282 
  399500    237.47259   -4826.9139   -4351.9394   -4826.9139            0    5937.5477    17.895369    23.265244    19.162078 -0.038365103   -6.1390361  0.040041438    7977.9421     6906.021    4772.5613    6134.0609    460.01963   -1285.4727   -248.25221 
  400000    243.59301   -4864.9275   -4377.7114   -4864.9275            0    5336.8739    18.289722    22.642119     19.41542  -0.16078673   -6.8169718   0.24410051     8040.276    4720.2372      4956.96    6333.4245   -461.24475   -276.62277   -449.02863 
  400500    246.87082   -4859.5925   -4365.8203   -4859.5925            0    6076.3111    17.818031    23.183834    19.343539  -0.05340899   -6.4487306  0.099187303    7990.6276    6908.8868    5838.5781    5481.4682   -128.70143   -190.17214   -651.48979 
  401000    251.65753   -4853.4595   -4350.1134   -4853.4595            0    7468.1001    18.122732     22.52943    19.532222  -0.24483806   -6.2985873  -0.10823076    7974.9049    6460.2255    7963.6197     7980.455      522.829   -919.42179   -543.09786 
  401500    247.95312   -4843.5071   -4347.5703   -4843.5071            0    6358.2969    17.944852    23.196539    19.226161  -0.19321558   -7.0292394   0.20688437    8003.0522    7474.9112    5761.8868    5838.0927   -767.91015    295.12995   -816.17025 
  402000    251.07077   -4848.8873   -4346.7147   -4848.8873            0    8766.8472    18.092752    22.659673    19.325467 -0.088074219   -6.1531261   0.18338613    7922.9747    8570.9434    9600.5071    8129.0911   -528.50948    297.42743    -1832.513 
  402500    263.36468   -4846.6106   -4319.8487   -4846.6106            0    8379.4425    17.855785    23.044258    19.252976  -0.19526975   -6.6233902  0.059006188    7922.0858    6456.3449     10511.71    8170.2731   -136.07801    2123.4764   -39.314868 
  403000    245.21542   -4857.2158   -4366.7546   -4857.2158            0    7423.1714    17.898546    22.841979    19.450216 -0.071699843   -6.5248011   0.12289553    7951.9916    9029.8477     6711.279    6528.3875   -1045.9859   -1007.0072    931.33877 
  403500    251.85812   -4825.9771   -4322.2297   -4825.9771            0    6026.8411    17.961268    22.974399     19.40895  -0.14643526   -5.7317818   0.29512339    8009.0905    5844.3367    6114.9952    6121.1915    -286.8988   -249.19753   -638.88912 
  404000    244.25272   -4862.2887   -4373.7531   -4862.2887            0    7789.4143    18.137896    22.896716    19.193535  -0.10887734    -6.804454  0.040403248    7971.0415    6309.0012    7496.7445    9562.4973   -1304.8209    234.74106   -212.09339 
  404500    237.23169   -4851.4795   -4376.9868   -4851.4795            0    8870.5294     18.04814    22.847183    19.195361  -0.16172491   -6.1218192   0.20184186    7915.1911    9846.5498    7465.9429    9299.0956   -79.032145   -1392.9182   -1333.8033 
  405000    251.67077   -4848.2799   -4344.9073   -4848.2799            0    8682.4358    17.933121    22.732501    19.433195 -0.005813752   -6.6882653    0.1456686    7922.2273     7897.522    9383.0413     8766.744    -1448.809    348.87822   -2686.4237 
  405500    262.78151   -4848.5612   -4322.9657   -4848.5612            0    8178.9821    17.942512    22.756433    19.415471    -0.257027   -6.3264115   0.12563468     7927.484    8601.0535    8122.2772    7813.6154    502.01757    811.74927   -1046.5862 
  406000    251.86497   -4842.4977   -4338.7367   -4842.4977            0    6177.9642    17.916681    23.232519    19.218679  0.048290891   -6.3578116   -0.2660226     7999.768    6974.7536    4976.5415    6582.5975   -309.08796   -136.75883    2307.5208 
  406500    268.36117   -4864.1499   -4327.3944   -4864.1499            0    5734.2821     18.20047    22.742182    19.368771  -0.31036841   -7.0043845   0.20876171    8017.0909    6123.7581    5716.5106    5362.5776    1230.4976   -932.32383    719.71686 
  407000    257.60324   -4886.6836   -4371.4453   -4886.6836            0    8956.0946    17.836518    23.026214    19.224058  0.098885134   -6.1168139 -0.024033683    7895.4643    8928.2765    9222.1989    8717.8083    -1651.028    702.27399   -1427.2863 
  407500    250.34843   -4830.9587   -4330.2309   -4830.9587            0    6835.7745    18.134537    22.729965    19.392363  -0.20065649    -6.751308   0.35040666    7993.4815    6882.3461    7134.3907    6490.5865    -869.2308   -150.10518   -61.928323 
  408000    250.33058   -4848.3762   -4347.6841   -4848.3762            0    7667.5657    17.935907    23.164164    19.196635   0.28246119   -6.5069674  -0.06274783    7975.6313    7679.1958    6919.6321    8403.8692    69.966006   -360.49676    1183.8626 
  408500    247.91997   -4866.3251   -4370.4545   -4866.3251            0    6629.9777    18.026588    22.722656    19.512885  -0.51766738   -6.2132089   0.22656999    7992.7111    6295.3642    7250.5064    6344.0625    1948.6266    176.00951    1022.8444 
  409000    237.63115   -4809.9917      -4334.7   -4809.9917            0    9279.7621    17.905042    23.017699    19.247844   0.13761916   -6.8632164 0.0008435014    7932.6692    9875.1561    9186.5831    8777.5473   -915.56531    172.32533   -2029.6183 
  409500    257.17261   -4827.4177   -4313.0407   -4827.4177            0    7106.5242    18.072408    22.825168    19.445735   -0.2835822   -6.0483344   0.23820807    8021.4776    7003.5111    7047.5703    7268.4911   -787.57256   -72.553468    644.49096 
  410000    246.66097   -4849.8548   -4356.5024   -4849.8548            0    5594.8468    18.200123    23.074758     19.21169   0.13942753    -7.012427 -0.058828261    8068.2072    5112.6203    4877.5592     6794.361   -13.639758    927.11249    -565.8642 
  410500    249.54209   -4857.5195   -4358.4045   -4857.5195            0    7333.3253    18.003651    22.721573    19.416976  -0.28912775   -6.5217857   0.12316335    7942.9272    8838.6213    6973.6687    6187.6858      453.321    -280.0183   -1977.2479 
  411000       257.38   -4856.3104   -4341.5186   -4856.3104            0    8356.2232    17.804284    22.939916    19.449347 -0.022121124   -6.6684371 -0.078219371    7943.6732    10255.535    8532.3403    6280.7947   -416.48781    1427.7687   -72.792678 
  411500    251.56731   -4838.3941   -4335.2284   -4838.3941            0    8008.6648    18.107555    22.742231    19.354811 -0.064642202    -6.694762   0.32765261     7970.431    8233.0376    8072.0739     7720.883    -369.3767   -75.691194   -1159.4503 
  412000    252.61348    -4826.271   -4321.0129    -4826.271            0    7250.6416    18.046644    22.931823    19.287649   -0.2107716   -6.2017422  0.050582993    7982.0481    8930.5006    6987.5129    5833.9113    1895.2099   -602.73419    3287.4937 
  412500    255.98889   -4811.5247   -4299.5153   -4811.5247            0    7411.8086    18.244917    22.771157     19.28495   -0.3827338   -6.8303731  0.044958791    8012.0843    5490.9369    8418.2981    8326.1907    1239.2565    402.94426    508.85475 
  413000    239.74461   -4886.7304   -4407.2116   -4886.7304            0    5825.5569    17.929768    23.047318    19.362857 0.00077764268   -6.2375871   0.11024194    8001.3729    6839.7846    5495.1804    5141.7056   -1369.1347   -363.92894    1320.1081 
  413500    257.12257    -4858.359   -4344.0821    -4858.359            0    6547.4913    18.053497      22.6804    19.513024 -0.070741728   -6.7739811   0.30942779    7989.8133    6972.3294    7722.8053    4947.3391   -624.53198    1451.5577   -953.73447 
  414000     235.3505   -4847.5161    -4376.786   -4847.5161            0    6553.1193    17.847024    23.024722    19.379745  -0.02495438   -6.1161889   0.13767792    7963.5786    6624.9764    6988.4955     6045.886   -553.04838   -1968.7851     444.0057 
  414500    233.10595   -4844.8524   -4378.6117   -4844.8524            0    7633.2539    18.018748    22.844199    19.308377  -0.18358398   -6.3353628 -0.005703779    7947.7885    8538.3167    6770.3209     7591.124   -399.51054    9.5066285    1287.0921 
  415000    246.44907   -4839.0874   -4346.1588   -4839.0874            0    7615.6932    18.059995    22.855748    19.218794  -0.15921116    -6.917735 -0.015235183    7933.0318    7775.2177    8361.9233    6709.9386    1539.8232    993.50534    1758.0065 
  415500    244.07356   -4848.1554   -4359.9781   -4848.1554            0    5990.7669    18.061245    22.866888    19.318877  -0.23692421   -5.8639363  0.078327872    7978.7824    6523.7533    4906.0335    6542.5141    382.06989   -1496.1726    1326.7688 
  416000    248.84794    -4830.153   -4332.4264    -4830.153            0    7459.1982    18.038958    22.906105    19.302638 -0.079249331   -6.9380314   0.03026526    7975.8937    7862.8476     7220.107      7294.64   -1099.8719    612.13145   -1314.4493 
  416500     256.1523    -4833.039   -4320.7028    -4833.039            0    8207.2612    17.980905    22.884831     19.25778 -0.089627298   -6.0488966  0.089661574    7924.3835    5996.1691    8818.3682    9807.2464   -479.22749    140.00862    1243.8368 
  417000    254.85676   -4862.9441   -4353.1991   -4862.9441            0    7907.3912    17.878859     22.78202    19.464076  -0.24053545   -6.7454973    0.1562289    7928.0396    8512.1099    9536.5829    5673.4807   -227.62094    1260.5667    1277.0609 
  417500    262.99594   -4817.2125   -4291.1881   -4817.2125            0    8386.1988    17.997262    22.915354    19.295222  -0.16577578   -6.4421103   0.10763515    7957.6124    6321.8918     9177.114    9659.5906     398.3113    515.06618    64.030679 
  418000    258.92918   -4867.7388   -4349.8485   -4867.7388            0    6004.1262    18.193799    22.877018    19.321173 -0.064959528   -6.5388466 -0.00023648768    8041.8561    5306.3976    6171.4041    6534.5768    -2006.027    509.73205    510.21399 
  418500    250.19407   -4855.5332   -4355.1142   -4855.5332            0    6837.3699    18.142575    23.144574    19.068045  -0.27311087   -6.7845537   0.36851103    8006.7138    7370.3728    5192.8145    7948.9224   -862.34955   -243.44077    28.107162 
  419000    250.29891   -4838.4385   -4337.8098   -4838.4385            0    6168.7427    18.020159    22.753454    19.520099 -0.070295046   -6.2481509 -0.036170793    8003.6477    7203.3349    6856.2548    4446.6384   -166.92524   -194.50377    315.81814 
  419500    249.43451   -4864.4813   -4365.5814   -4864.4813            0     8624.598    17.890311    22.873857    19.391427  -0.38419464   -6.7781327  0.069548897    7935.3677    9585.2263    8248.3991    8040.1685    1996.3276    1084.1448    885.81467 
  420000    254.33265    -4857.199   -4348.5023    -4857.199            0    8283.1573     17.93437    22.821532    19.414195  -0.16494941   -6.4078018 -0.0022773215    7946.0323    7337.9012    8666.7981    8844.7727    49.196573    1289.4048    58.654495 
  420500    245.81504   -4843.1132   -4351.4527   -4843.1132            0    8329.6131    18.074953    22.913368    19.164377 0.0039435317   -6.2188861    0.3426067    7937.0808    6669.9299    8735.1137    9583.7958   -2087.9105   -862.91658   -2219.5588 
  421000    256.52598   -4822.9783   -4309.8946   -4822.9783            0    8569.5284    18.024567    22.912174     19.27321  -0.06168256   -6.7956498   0.22711344    7959.4891    8078.8663    9330.2531    8299.4657   -934.52532   -52.436686    120.95306 
  421500    254.02033   -4840.9438   -4332.8717   -4840.9438            0    6719.5538    17.854049    22.872491    19.535494  -0.16164213   -6.3245776 -0.067031773    7977.6428    7588.5556     7035.413    5534.6928    288.85286    342.50242    1512.5946 
  422000    253.95387   -4836.4299   -4328.4908   -4836.4299            0    6595.1026    17.907437    23.008686    19.415668  -0.24374251   -6.7576593  0.012910171    7999.7714    5037.6183    6340.3236     8407.366    41.821046    205.79352    1552.3581 
  422500    245.58501   -4854.4087   -4363.2084   -4854.4087            0     6181.509    18.103011    22.745514    19.429175   0.04964692   -6.6067795   0.20348138    8000.2018    5816.4959    6757.0157    5971.0152   -495.15817     1167.395   -699.32761 
  423000    262.43965   -4834.3057    -4309.394   -4834.3057            0    6522.2341    18.135929    23.000151    19.160732  -0.10436744   -6.2602596   0.18522196    7992.4986    5051.5814    5928.0231    8587.0978   -44.421265    -698.2635    684.44469 
  423500    252.83622   -4836.1804   -4330.4768   -4836.1804            0    8337.1432    18.113135    22.856239    19.176736  -0.25262834   -6.7463407  0.033869736    7939.1333    7565.2524    7661.4435    9784.7338   -480.20514   -1430.0564    1106.6515 
  424000    239.51804   -4836.4386   -4357.3729   -4836.4386            0    7951.8197    17.971192    22.926666     19.27103 -0.077352177   -6.2425002  0.095787394    7940.0406    7537.7185    8144.6077    8173.1327   -550.10858   -84.374904   -2.5496272 
  424500    250.69542   -4836.6611   -4335.2392   -4836.6611            0    4845.9222    17.900404    22.854739    19.622393  0.028403216   -6.4704296   0.40276465    8027.6984    6257.3325    4150.6174    4129.8167   -447.02169   -255.65117   -1498.3406 
  425000    238.15193      -4823.1   -4346.7667      -4823.1            0     6142.149    18.094163    22.909185    19.339964  -0.22353139   -6.5952864 -0.051803431    8016.8505    6073.3439    6417.8557    5935.2473    1196.1485   -327.14165    1240.0211 
  425500     248.0882   -4848.9805   -4352.7734   -4848.9805            0    6679.2234    18.180777    22.882877    19.268685  -0.37453847   -6.3032466  0.081327494    8016.3218    7376.2936    5992.9362    6668.4404   -230.48204   -594.89097    1405.5635 
  426000     246.4375    -4869.015   -4376.1095    -4869.015            0    6705.6656    18.040778      22.8784    19.346497  0.020461376   -6.8092461   0.20854001    7985.1535    6668.4018    5701.3466    7747.2485   -1431.2203    7.8131026   -508.82834 
  426500    246.86923   -4835.9245   -4342.1555   -4835.9245            0    7107.3906    17.972424     22.79377    19.461896  -0.14258604   -6.2018956   0.29296831    7972.7467    6551.9937    8384.0968    6386.0814   -105.78047    -479.7486     345.7026 
  427000    249.96249   -4877.2566   -4377.3008   -4877.2566            0    4337.3334    18.039538    23.088895    19.300203 -0.077211594     -6.97324  -0.10367222    8038.7855    4981.5303    3037.5982    4992.8716   -878.61421   -371.82314    1265.2966 
  427500    252.00052   -4846.0718   -4342.0396   -4846.0718            0    5686.1578    18.130644    22.828227    19.407186  -0.37738611   -6.3113504   0.20039458    8032.4488    5040.2977    6101.9288    5916.2468    285.34306    785.07853    107.70865 
  428000      256.239   -4859.0695   -4346.5598   -4859.0695            0    4811.9782    18.046022    23.112248    19.317826  0.087995376   -6.4781704  0.001771757    8057.1588    6279.4384    3577.8966    4578.5997    212.09082   -968.10229    293.20496 
  428500    254.44915   -4862.7149   -4353.7851   -4862.7149            0    6022.1111    18.128655     22.75267    19.424135   -0.5183668   -6.6631013   0.11066955    8011.9761    6081.8551    6382.0384      5602.44   -766.66089    1329.3538    -51.19082 
  429000    245.22522   -4853.3787    -4362.898   -4853.3787            0     5338.566    17.825833    23.116207    19.408816 -0.0011033477    -5.985815 -0.065189161     7997.706    5816.5596     5106.165    5092.9735     489.9687   -456.17339    582.22237 
  429500    240.65203   -4849.4428    -4368.109   -4849.4428            0    6206.0528    18.039809    22.952931    19.356188  -0.15440897   -6.6352356   0.24265696    8014.7492    7981.4206    5529.6709    5107.0669   -684.30608   -706.34646    -1725.004 
  430000    245.61245   -4858.3854   -4367.1302   -4858.3854            0    7267.0176    18.170542    22.873047    19.218128  -0.10626285   -6.3565843  -0.10104719    7987.3545    6653.5002    6259.9111    8887.6416     254.6124    -834.1138   -340.88803 
  430500    239.46672   -4831.2133   -4352.2503   -4831.2133            0    7289.3164    18.059282    22.999801    19.186246  -0.18648629   -6.4930233   0.23548029    7969.1972    6700.3049    7292.9074    7874.7369    929.49465   -139.77117   -1095.7684 
  431000    257.44506   -4840.9941   -4326.0722   -4840.9941            0    5777.5827    18.019211    22.793922    19.485767 -0.010763404    -6.700573  0.096715177    8003.3597    6213.0588    6546.5542    4573.1351   -262.91934    713.44093   -35.842136 
  431500    252.55136   -4850.2437   -4345.1098   -4850.2437            0    7948.8821    17.722569    23.075705    19.432659  -0.37500224   -6.2711421  0.085421472    7947.1952    10126.089    5969.6292    7750.9282    1193.8999   -1336.2823   -215.70058 
  432000    245.36046   -4832.0611   -4341.3099   -4832.0611            0    8477.4101    18.124817    22.688237    19.266406  0.051242458   -6.8197817 -0.087260892    7922.7343    7208.5623    9656.6739    8566.9942   -1573.7942    1144.9947    1151.8028 
  432500     259.4104   -4885.9392   -4367.0864   -4885.9392            0    7591.6557    18.012348    22.967523    19.193967    -0.203999   -6.2708985  0.055139821    7940.5251    7733.5401    7224.1498    7817.2772   -167.21151    -1208.631    919.62921 
  433000    255.16635   -4847.3784   -4337.0141   -4847.3784            0     8823.208    18.040864    22.675687    19.338024 -0.066368072   -6.7203973  -0.04021283    7910.9729    8069.7587     8983.245    9416.6202     605.9369    53.175307    645.23489 
  433500    246.61062   -4853.3699   -4360.1182   -4853.3699            0     7256.136    17.891029    22.903123    19.473787  -0.13745981    -6.694769   0.29655647    7979.5878    6404.7712    7694.7697    7668.8672    827.50403    297.68428   -1229.2482 
  434000    262.30049   -4867.0537   -4342.4203   -4867.0537            0    6263.1313     17.97299    22.927008    19.355206  -0.14761449   -6.2191152  0.014156859    7975.6392    5438.2664    6504.9511    6846.1763    728.29256    551.92001    2360.0666 
  434500    262.72234   -4825.2072     -4299.73   -4825.2072            0    8295.5143    18.137435    22.705072    19.290072  -0.23266484   -6.7799916 -0.017518256    7943.8785    7933.8993    8546.5897    8406.0539   -62.270432    447.78425   -153.30041 
  435000    246.22413   -4851.2465   -4358.7678   -4851.2465            0    7675.5738    17.962953    22.970576    19.170152  -0.16670267   -6.2473822  0.049075658    7909.9761    7915.7532    6844.2331    8266.7351    728.70253   -1773.1711   -1306.6096 
  435500    250.61118   -4873.0441   -4371.7908   -4873.0441            0    5865.9805    17.970072    22.865333    19.418351 -0.053255742   -6.4395433   0.12543251    7978.8386    5758.7489    5982.3809    5856.8117    -753.7794    240.78766   -1677.0415 
  436000    256.41168   -4868.2915   -4355.4365   -4868.2915            0    6792.3083      17.9688    22.869318    19.453725  -0.33543541   -6.6125737   0.15401733    7994.2007    8403.2791    5286.2439     6687.402    901.67941    83.321241     18.25649 
  436500    245.32307   -4818.2607   -4327.5842   -4818.2607            0    6691.4098    18.185159     22.89843    19.229232 -0.0028911043   -6.1978988 -0.091766027    8007.2753    7204.4578    5980.7505    6889.0211   -271.29706   -339.00135    404.08048 
  437000    254.46919   -4873.4691   -4364.4993   -4873.4691            0    6795.6371    18.029062    23.027898    19.220374  -0.20809271   -6.7105882   0.23404587    7979.7497    7343.2449    5606.9678    7436.6986    452.15792   -248.49836   -102.78005 
  437500    253.88972   -4843.7317   -4335.9209   -4843.7317            0    5129.0806    18.015776    22.755347    19.614035   0.28770793   -6.2901438    0.1236093    8040.8763    5970.0342    5691.9688    3725.2388   -1405.1266   -300.95288    461.52523 
  438000    234.98301   -4876.1184   -4406.1234   -4876.1184            0    8037.8368    17.935628    22.922988    19.317582  -0.40819692   -6.5660218  0.053418851    7942.1954    9339.6795    7357.6364    7416.1944   -248.38909    119.73215    1468.6564 
  438500    254.50854   -4844.9311   -4335.8825   -4844.9311            0    7562.3804    18.125206    22.780713    19.353363    0.1533343   -6.7967875  -0.14702603    7991.1023    6638.6041    9209.3908    6839.1464    193.42239    1329.5505     2365.645 
  439000    264.59362   -4849.6246   -4320.4047   -4849.6246            0    7414.6472    17.915764    23.078888    19.273634  -0.23450361   -5.9295582   0.28955153    7969.1834     6722.159    6914.1754    8607.6071    360.48095   -196.10563    1297.2166 
  439500    239.12839   -4819.5104   -4341.2241   -4819.5104            0    8063.3266    18.182535    22.747518    19.233632  -0.10546843   -7.0055804 -0.023584404    7955.1753    6380.3052    9029.4637     8780.211    255.17451    927.48134    638.38664 
  440000    246.82074   -4847.9174   -4354.2454   -4847.9174            0    7517.3371    17.996609    22.974495    19.221976  -0.32943488   -6.0461977   0.22052497     7947.576    7216.3025    7571.3709    7764.3378    513.13856   -860.46209    1201.5706 
  440500    233.21107   -4840.3714   -4373.9205   -4840.3714            0    7459.1226    17.903602    22.944913     19.43417   0.10812939   -7.0496315  -0.16625256    7983.4908    7870.1905    8109.5417    6397.6358   -477.90886     1976.921    1917.7415 
  441000    237.31294   -4839.1554   -4364.5002   -4839.1554            0    6918.0567    18.040431    22.899451    19.326911  -0.40398882   -6.3703261   0.33251422     7984.255    6435.1467    6111.8284    8207.1949    748.41675    281.85403   -3562.9668 
  441500    244.32247    -4894.871   -4406.1958    -4894.871            0    7217.7657    18.002295    22.969921      19.2458  0.050203209   -6.6182343   0.13835765    7958.3555    6777.6488    6953.0299    7922.6184   -995.22389     389.2687   -344.82027 
  442000    251.67853   -4848.2617   -4344.8736   -4848.2617            0    4999.8447    18.102826    22.756396    19.540479  -0.25174243   -6.2853333   0.23173005    8049.7996    3563.0719     6000.827    5435.6352      402.668    84.274993   -970.00755 
  442500    248.88204   -4829.6616   -4331.8668   -4829.6616            0     6914.551    17.855879    23.143853    19.355919 -0.092676775    -6.329717   -0.1218131    7998.9082    8935.6769     6068.359    5739.6171   -1160.0932    -342.1669    2953.4975 
  443000    253.63929   -4866.6998   -4359.3899   -4866.6998            0    6240.0609    18.111547    22.714499    19.428677  -0.23495693   -6.6587945   0.23878443     7992.855    6795.7531    5593.5943    6330.8353   -547.37863    24.361234   -2273.1607 
  443500    262.24975   -4837.8209    -4313.289   -4837.8209            0    7477.5383    17.835658    23.367553    19.134324 -0.004907696   -5.9952027   0.15251538    7974.7208    7926.2011    5444.1777    9062.2361    156.67598    37.732288    -2227.823 
  444000    257.89188   -4870.4358   -4354.6202   -4870.4358            0    7680.4076    18.180297    22.596113    19.437636  -0.29926122   -7.0458406   0.14053201    7985.0593    7734.4558     7647.212    7659.5551    1540.9639    687.77909   -291.67979 
  444500    239.26452   -4861.7559   -4383.1973   -4861.7559            0    8867.0221    17.852718    22.983809    19.281332  -0.13982563   -6.2392355 -0.033760499    7911.5826    9987.7349    8361.2915      8252.04    540.13912   -646.56299    443.06647 
  445000    239.87315   -4839.0441   -4359.2681   -4839.0441            0    8906.9539    18.096108     22.65242     19.33746  -0.18610712   -6.7934398   0.18080564    7926.8238    8834.0582    9027.6704     8859.133   -858.42552    1024.5974   -1272.3414 
  445500    261.00534    -4866.379   -4344.3361    -4866.379            0    7205.6663    17.976242    22.903599    19.349828  0.012050984    -6.445509   0.29511219    7966.7234     8303.934     6475.286     6837.779   -2837.3235    294.92055   -918.26749 
  446000    248.03176   -4817.6334   -4321.5393   -4817.6334            0    8379.8476    17.854452    22.836447    19.510417 -0.055940523   -6.2050018 -0.002171102    7955.0261    8082.8251    9376.8503    7679.8673   -20.955347     622.0895    520.07237 
  446500    241.85101   -4833.1466   -4349.4147   -4833.1466            0    7865.3274    18.077328    22.729255    19.416601    -0.453693   -6.9355216  0.022463438    7977.9747    7220.8683    9550.9985    6824.1154    536.84415    903.06688     594.2484 
  447000    257.60541   -4840.6354   -4325.3928   -4840.6354            0    5317.8831     18.12527    23.019721    19.258611   0.16170203   -6.1828457  0.064372056    8035.4372    5170.0827    4416.3077     6367.259   -751.69558   -1086.6596    2254.9848 
  447500    248.85524   -4836.1703   -4338.4291   -4836.1703            0    6856.6917    18.071948    22.925989    19.292981  -0.29108168   -6.7794286   0.42524646    7993.4154    6660.4283    5935.7928    7973.8541   -178.79281    904.03545   -1055.1617 
  448000    238.02971   -4830.2737   -4354.1849   -4830.2737            0       6772.6    17.930709    22.829884      19.4635   0.07028921   -6.2836421 -0.078750563    7967.5008    7659.4278    7559.6095    5098.7627    182.23823   -475.66578    1602.1923 
  448500    247.33576   -4876.7248   -4382.0227   -4876.7248            0    7917.6387    17.897023    22.950591    19.313178  -0.55800253   -6.5378204   0.18788406    7932.8346    9640.3132    7380.7276    6731.8753    1092.6724   -1209.2544    130.73906 
  449000    242.52809   -4839.0809   -4353.9947   -4839.0809            0    6532.6856    18.047696    22.894505    19.356246  0.052904714   -6.5708654  0.029248872    7997.8669    5778.2355    7182.5208    6637.3004   -1031.3094    837.07048   -325.12704 
  449500    254.71646   -4842.2534    -4332.789   -4842.2534            0    8964.5546    17.806426    22.958076    19.383075  -0.40440577   -6.0803317   0.50550835    7923.8255    7779.3384    8732.2845    10382.041    714.86875      -194.92   -907.58074 
  450000     266.8557   -4886.3334   -4352.5891   -4886.3334            0    8121.8971    18.024289    22.810166    19.296316 0.0015804914   -6.8381451  -0.12645148      7933.43    8501.7816    8444.1073    7419.8023   -44.812897   -121.66266    1607.3333 
  450500    259.27258   -4863.8079   -4345.2307   -4863.8079            0    6284.5534     17.99941    23.091384    19.156974  -0.50370429   -6.2091459   0.13462959    7962.2375    6938.0695    5982.2067     5933.384     1114.532    -952.3907    27.129277 
  451000    244.12944   -4832.0084   -4343.7194   -4832.0084            0     5508.253    18.183954    22.769412    19.368427    0.1703593    -6.501445  -0.25206611    8019.2637    6315.6223    5519.1703    4689.9665   -1345.3244    406.89741    2371.8827 
  451500    249.63163   -4846.9931    -4347.699   -4846.9931            0    5260.2622     17.99469    23.111669    19.293821  -0.27852237   -6.6836562   0.32490216    8024.0556    4925.0844     4284.515    6571.1873      1271.96   -280.00333      1422.72 
  452000     252.6512   -4840.1979   -4334.8643   -4840.1979            0    8358.8174    17.900683    22.871946    19.426599 -0.0073644802   -6.3144466    0.1106123    7953.7055    8141.3406    9181.4434    7753.6682    179.06619     403.0179   -118.72073 
  452500    262.96426    -4838.163    -4312.202    -4838.163            0    11201.666     18.03215    22.657244    19.302363  -0.30655048   -6.7293146  0.097381934    7886.1505     13039.59    10250.638     10314.77   -1453.8092    326.98924    -851.7259 
  453000     243.6677   -4875.6725    -4388.307   -4875.6725            0    6862.6661     18.01221    22.975139    19.243434  -0.20294826   -6.3247117  0.087521663    7963.5688    7175.0556    6463.8039    6949.1387    673.83459   -674.27887    384.82666 
  453500    255.33475   -4850.7476   -4340.0465   -4850.7476            0    8556.7654    18.152232    22.694769    19.276869 0.0098721107   -6.7076662   0.24474591    7941.3126    7824.7458    9249.7372    8595.8131   -1655.2426    1271.6459    1138.0765 
  454000    254.27632    -4825.865   -4317.2809    -4825.865            0    6933.2998    17.867358    22.999306    19.510842 -0.060505234   -6.4586847   0.17614015    8017.7239    6322.3283    7510.5558    6967.0154   -2024.4759    623.19948   -689.04555 
  454500     251.3324   -4851.0782   -4348.3823   -4851.0782            0    7399.4011    17.947555    22.725366    19.628724  -0.18515424   -6.4881245 -0.0032789642    8005.8648    9820.1106    7326.9385    5051.1543   -1513.8681   -236.70718   -126.44208 
  455000    247.58263   -4878.0864   -4382.8906   -4878.0864            0    6424.6799    17.848609    23.219417    19.250293  -0.21799667   -6.6620198   0.28307461    7977.9813    7577.9116    5184.5561    6511.5719    482.35709    201.50586   -1452.4533 
  455500    246.43545   -4860.2972   -4367.3959   -4860.2972            0    6589.9236    18.133217    22.701429     19.34895 -0.022116707   -6.2198452   0.21198209    7964.9938    5585.4282    6162.5114    8021.8312   -113.76616   -1768.7747     1627.266 
  456000    238.78112   -4852.2543   -4374.6625   -4852.2543            0    6369.5844    18.087724    23.091235      19.1977  -0.25459571   -6.8790754  0.053909077    8018.2628    5395.6525    6286.0124    7427.0882    684.58263    452.10161     1399.448 
  456500    255.69869   -4874.6164   -4363.1874   -4874.6164            0    6336.9078    18.104301    22.779406    19.425753  -0.20290494   -6.5936335  -0.10177605     8011.282    6030.4473    6251.4928    6728.7833    397.05056   -791.13781    1539.6143 
  457000    248.60588   -4866.6121   -4369.3696   -4866.6121            0    6663.6316    17.878658    22.938441    19.426121  -0.26401167   -6.3039348    0.1053434    7966.8178    7736.2921    6602.4151    5652.1875    630.12238   -618.12033    759.01815 
  457500    252.52407    -4859.702   -4354.6226    -4859.702            0    6960.4197    18.098395    22.690862    19.439889    0.1915924   -6.9997448   0.13420458    7983.3437    6570.3935    7334.6723    6976.1932   -1501.0087    1835.7869   -1372.6724 
  458000    249.21068   -4884.9763   -4386.5242   -4884.9763            0    6376.5534    17.935834     22.99359    19.266775  -0.24418951   -5.9619938   0.19543601    7945.7956     6856.944    5724.4967    6548.2194   -1480.8833    -239.5269   -382.78075 
  458500    258.51079    -4863.848   -4346.7945    -4863.848            0    5767.8667    18.203802    22.714157    19.350854  -0.22061815   -7.2830178  0.066016035    8001.2686    5482.2904    6905.5594    4915.7504    900.95818    1550.8091    561.02476 
  459000    240.14523   -4831.7866   -4351.4665   -4831.7866            0    8257.6195    17.902245    22.957406    19.340252  -0.21059702   -6.1273703  0.040588787    7948.6327    8839.5667    7464.6183    8468.6735     934.8636    32.804229    1840.0711 
  459500    244.47523   -4866.0947   -4377.1141   -4866.0947            0    6853.7104    18.113207    22.776362    19.379512 -0.029322124   -6.7702146   0.11472837     7995.075    6618.1295    6460.8519    7482.1497   -172.89518    -671.9914   -753.59104 
  460000    246.22607   -4802.2759   -4309.7933   -4802.2759            0     7325.454    17.960895    22.996098    19.351501  -0.08886601    -6.499638   0.28218211    7992.7598    7431.7968    7711.9697    6832.5956    1461.0594    465.33159    715.00751 
  460500    257.68247   -4835.6382   -4320.2414   -4835.6382            0    7175.0602    18.017565    22.942601    19.323735 -0.074497454   -6.2628746  0.095649084    7987.8488    7454.9198    5871.2543    8199.0064   -367.32036   -746.05189   -2482.9969 
  461000    244.20686   -4834.5599   -4346.1161   -4834.5599            0    7510.1006     18.12283    22.784273    19.322189  -0.33698026   -7.0203317   0.12154157    7978.4316    7272.6708    6996.8764    8260.7546   -453.69943   -28.443965   -999.68831 
  461500    247.14542    -4838.958   -4344.6366    -4838.958            0    5486.8957    18.022621    22.977192    19.441399  -0.12428281   -5.8831497 -0.067656514     8050.863    5699.3587    4582.9826    6178.3457   -1171.1863   -568.68022   -55.753455 
  462000    253.94066   -4844.7528   -4336.8401   -4844.7528            0    6146.5745     18.03499    22.985036    19.335682  -0.14138724   -6.8971416   0.25092478    8015.3148    5713.4797    6779.3221    5946.9216   -149.82008   -210.53705   -2278.2638 
  462500    251.26079   -4831.2564   -4328.7037   -4831.2564            0    6534.5228    18.149316    22.880951    19.228967 -0.043609412   -6.3604274   0.11504446    7985.2828    5829.7846    6436.2556    7337.5282    39.603825    178.14698   -252.19003 
  463000     247.3664   -4860.4138   -4365.6504   -4860.4138            0    7412.1349    17.873248     23.08612    19.261812  -0.21918154    -6.293235   0.21141577    7947.8851    10079.985    6461.9307    5694.4889     411.7002   -783.55764   -940.32371 
  463500    257.83187   -4840.7892   -4325.0936   -4840.7892            0    6372.4062    17.997416    22.779715    19.545383  -0.12848978   -6.8806777  -0.01982122    8013.1384    4650.2363    7122.7653    7344.2169   -17.126466    601.82917   -496.81522 
  464000      264.409   -4869.9296    -4341.079   -4869.9296            0    5263.3055    17.972602     23.04365    19.348882 -0.044191671    -6.216787  0.034614109    8013.4235    6009.7838    4459.8795    5320.2532   -78.477948   -881.66682     440.0415 
  464500    242.36207   -4882.2932   -4397.5391   -4882.2932            0    7763.3556    18.160472    22.850754    19.180511 -0.094639387   -7.1693773   0.28389304    7959.5374    6378.4583    7711.1838    9200.4247   -1214.8674    676.08171   -2098.9431 
  465000    247.82653   -4850.7406   -4355.0569   -4850.7406            0    6592.4059    17.867144    22.950308    19.419929  -0.16838643   -6.1061389  0.087215561    7963.2673    6142.0326    6661.6953    6973.4897    419.81731    483.98117   -1300.7004 
  465500    248.02351   -4850.3553   -4354.2776   -4850.3553            0    6065.8297    18.068365     22.91382    19.434361  -0.21407797   -6.7671366  0.081811796     8046.122    6045.2023      5813.82    6338.4668   -78.403129    243.43455  -0.64624625 
  466000    228.96825   -4848.1991   -4390.2343   -4848.1991            0    6736.0466    18.178205    22.825647    19.227069   0.23463375   -6.3567318   0.13465464     7977.874    5964.5244    6738.7675    7504.8481   -1219.1968    -1266.326   -1753.4407 
  466500    243.54844    -4866.573    -4379.446    -4866.573            0    6541.5936    17.993126    22.984676     19.33055  -0.33523793   -6.4434412   0.32645347    7994.4618    6791.5992    5271.1404    7562.0411   -107.69634   -577.84059    -529.7779 
  467000    246.97096   -4802.9866   -4309.0142   -4802.9866            0    7907.6117    17.982211    22.759725    19.526762   0.19572928   -6.7277634 0.0070456192    7991.7218    9470.3042    7714.5473    6537.9837    -2058.893    826.42909   -332.47294 
  467500     249.2767   -4860.1308   -4361.5466   -4860.1308            0    5508.1506    17.919289    22.952751    19.443564  -0.40687299   -5.9921059   0.16292751     7997.079    5760.0311    6444.1583    4320.2623   -222.03905   -734.65642    1043.2486 
  468000    257.27014   -4842.9676   -4328.3955   -4842.9676            0    8260.4493    18.109071    22.932409    19.172567  0.019079784   -6.8705513   0.14361046    7962.0724     7690.443    8065.6727    9025.2324   -766.59438    560.99515    684.04114 
  468500    251.36437   -4881.1168    -4378.357   -4881.1168            0    7109.8058    18.006759    22.833179    19.339954  0.080501859   -6.1371926   0.16761059    7951.6526    6233.7475    7645.6911    7449.9786   -1685.1769   -1344.8243   -2478.6983 
  469000     252.3666   -4844.1296   -4339.3653   -4844.1296            0    7710.2734    17.818886    22.916788    19.467589  -0.43498368   -6.5323391 0.0077297714    7949.6217    8869.6897    7457.8948    6803.2357    944.03566     635.0049     1108.708 
  469500    248.05807   -4840.8072   -4344.6604   -4840.8072            0    8078.0481    17.968828    22.848881    19.379463  -0.35920239   -6.5329145  -0.13481525    7956.5799    8622.1696    8287.5109     7324.464    1373.8317    828.17904    1898.4978 
  470000    245.66721    -4826.528   -4335.1632    -4826.528            0    7694.1141    18.097123    22.779382    19.319114  0.043401989   -6.3988473  0.056168723    7964.1364    8419.1131      6423.18    8240.0493   -494.50396   -1549.7071   -2435.5934 
  470500    259.71996   -4882.5076   -4363.0356   -4882.5076            0    6481.2999    18.097288    23.017316    19.117273  -0.22396486   -6.8076633   0.57513247    7963.3195    5057.5566    7377.4971    7008.8458   -52.385256     645.7127   -3198.3313 
  471000    260.67253   -4846.0513    -4324.674   -4846.0513            0    7061.8705    18.035824    22.797589    19.420279 0.0068630841    -6.247692 0.0031184891    7985.1004    6754.1217    7142.6933    7288.7966   -1346.2559    454.07555    435.30006 
  471500    249.49203    -4835.417   -4336.4021    -4835.417            0    6358.8085    17.961676    22.944156    19.431256  -0.51847224   -6.8511991   0.11158879    8007.9217    7227.9456    5811.4934    6036.9866    1006.6152   -24.880193    -1176.347 
  472000    263.80154   -4810.8605   -4283.2248   -4810.8605            0    6329.8242    18.078574    22.938412    19.383283   0.39812843   -5.9064101  -0.13952046    8038.1267    6670.1226    6794.3657    5524.9845   -2613.7591   -139.29291    1971.6854 
  472500    250.31797   -4826.9934   -4326.3265   -4826.9934            0    8117.2803    17.902812    23.032071    19.305914   -0.2777643   -6.5024789   0.37490951    7960.5782    9122.8513    7701.2014    7527.7883   -367.32828    540.95054   -1193.7928 
  473000    262.09268   -4868.0218   -4343.8041   -4868.0218            0    4750.3084    18.023731    22.826487    19.536372    0.1029182   -6.5887556   0.11617954    8037.6242    4876.3074    4978.6273    4395.9904   -502.13834   -342.37755    1295.8341 
  473500    248.25951   -4838.6537    -4342.104   -4838.6537            0    6179.8278    17.849391    23.118153    19.415609  -0.45107018   -6.3036634   0.30506559     8011.753    4674.4146    6370.7655    7494.3032    508.80684    333.42831     -856.482 
  474000    250.08394   -4870.2585   -4370.0597   -4870.2585            0    7095.7714    18.194907    22.774742    19.248928  0.054055034   -6.7481026  -0.24532259    7976.4538    5688.0445    7471.3197    8127.9499   -672.86688    272.08965   -671.52233 
  474500    253.27904   -4836.2959   -4329.7065   -4836.2959            0    8130.1872    18.086002    22.881589    19.247864  -0.27322043   -6.5589252    0.2011414    7965.4678    7873.1184    9020.5756    7496.8677    243.41058   -132.61482   -1581.5134 
  475000    256.03729   -4828.2994   -4316.1932   -4828.2994            0    7048.1285    18.033158    22.592392    19.632555   0.20022901   -6.5061879  0.034447832    7998.5419    5696.6027    8443.3757    7004.4072   -1605.1105    293.44899   -452.63603 
  475500    241.12344   -4871.9617    -4389.685   -4871.9617            0     8628.328    17.749478    23.060609    19.284113   -0.4116719     -6.24648    0.2368219    7893.2529    8092.1663    9947.0353    7845.7823    503.80782    401.14772    921.03669 
  476000    255.16721   -4826.6261   -4316.2602   -4826.6261            0    8267.8766    18.157034    22.600388    19.339522 -0.072514492   -6.6991724 -0.044981893     7936.089    7269.5373     9801.055    7733.0374   -726.15379    409.15619   -295.14172 
  476500    244.47377     -4874.65   -4385.6723     -4874.65            0    7960.8457    17.760595    23.198497    19.128642  -0.17577877    -6.111222   0.35346486    7881.3662     6951.963    8176.9604    8753.6137    703.48044    95.772077   -957.32767 
  477000    252.94299    -4817.331   -4311.4138    -4817.331            0    6954.5049    18.136821    22.572872    19.562101 -0.082948759    -6.729545  0.040003275    8008.7268    7352.2561    6996.7309    6514.5277    848.52709    853.81288   -362.63613 
  477500    260.38695   -4849.4302   -4328.6242   -4849.4302            0    4709.6012    18.048039    23.077271    19.280151  -0.24018534   -6.4609096   0.22783111    8030.1726    4070.6674    4129.7169    5928.4194   -786.53388   -821.20283   -456.20693 
  478000    247.93683   -4852.3993    -4356.495   -4852.3993            0    5441.1869    18.282517    22.707523     19.41142  0.066513153   -6.4731995  -0.18677575    8058.6641    5056.6471    5901.2707    5365.6429    1045.2656   -178.82447     798.7175 
  478500    246.31589   -4846.0513   -4353.3891   -4846.0513            0    4451.3608     18.05904    23.079676    19.300549  -0.14436984   -6.7431262   0.14283484    8044.4071    5204.3484    4398.6616    3751.0723    1396.6866    380.20539    66.692108 
  479000    234.21919   -4844.6631   -4376.1958   -4844.6631            0    6472.3022    18.037143    22.871546    19.382424 -0.030868867   -6.2378169   0.17450813    7995.9738    6392.3961    7401.0165    5623.4941   -154.81768    159.70928    1209.0901 
  479500    230.83582   -4881.4604   -4419.7603   -4881.4604            0    8189.4256    17.997219    22.912177    19.241259  -0.18290301   -7.0588892   0.12034367    7934.2385    8213.9301    8349.9859    8004.3609   -1168.2776    694.49012    1360.4412 
  480000     239.4732   -4847.2842   -4368.3082   -4847.2842            0    7125.1585    17.968698     22.83358    19.427724  -0.28222228   -6.0250648 -0.0041867278    7970.9949    7844.3091    7264.1462    6267.0202    130.82414   -851.70562   -727.95795 
  480500    268.91358   -4848.3599   -4310.4995   -4848.3599            0    6089.3663    18.108207    22.900096    19.400695  -0.13426993   -6.7493432  0.041375052     8045.074    6997.5692    6357.7099    4912.8197    383.06608    726.63885   -270.97299 
  481000    238.15519   -4858.9415   -4382.6017   -4858.9415            0    6325.4744    17.974231    23.083063    19.268551  -0.11438079   -6.3806288   0.32015915    7994.5278    5187.5297    5570.9888    8217.9046   -247.12654   -1159.2155   -495.68094 
  481500    241.59616   -4853.9727   -4370.7505   -4853.9727            0    8048.7681    18.055389    22.630662    19.432895  -0.14566824   -6.0233008  -0.14987516    7940.3861    8463.1762    7970.2587    7712.8693    904.86971   -1338.5463    2121.5202 
  482000    233.66592   -4862.9677    -4395.607   -4862.9677            0    7074.2017    17.920271    22.950287    19.412027  -0.21875557   -6.7437898   0.10598112    7983.6885    8816.0759    7371.5683    5034.9609   -89.921986   -508.95144   -1006.6587 
  482500     275.7368   -4854.6997    -4303.192   -4854.6997            0    6342.6908    17.896262    22.851164    19.504969  0.075273499     -6.24256   0.28592448    7976.5653    7105.6434     7049.655    4872.7742   -1718.3685   -463.49567    701.58267 
  483000    242.74951    -4873.379     -4387.85    -4873.379            0    7343.1992    18.003234    22.879093    19.264441 -0.068585345   -6.8320117    0.1252087    7934.9783    6600.1632    7476.0255    7953.4089   -868.71635    821.18297   -965.76841 
  483500    243.06803   -4863.4764   -4377.3103   -4863.4764            0    5743.3873    18.043459    22.964688    19.297209  -0.25597577   -6.4867795 -0.011326272    7996.0374     5486.496    5395.4185    6348.2475     420.3616    511.52757    778.83641 
  484000     250.0285   -4864.6343   -4364.5464   -4864.6343            0    6148.5504    18.000767    22.889057    19.428878 -0.081200927   -6.4582392   0.21159507    8005.0973    7694.0059    6148.4956    4603.1498   -29.133326    176.87283    33.455729 
  484500    249.96276   -4834.3228   -4334.3664   -4834.3228            0    6711.4905    17.987427     23.03102    19.318895  0.090926768   -6.8659813   0.25949483     8003.215    8355.4894    5846.5356    5932.4467   -853.50707    187.50235   -1262.9656 
  485000    254.50581   -4851.6168   -4342.5737   -4851.6168            0    7521.1681    17.924858    22.700471    19.493583  -0.23958441   -6.0655105 -0.059328077    7931.9917    6453.4382    8122.5823    7987.4839    303.34363   -1477.9631   -545.15081 
  485500    243.46122   -4815.2836   -4328.3311   -4815.2836            0    8152.5826    18.004665    23.026726    19.232267  -0.13808164    -6.849958 -0.055426111    7973.4766    7469.9423    8149.3742    8838.4314   -533.41215    1494.3878    35.582887 
  486000    246.14146   -4826.2768   -4333.9635   -4826.2768            0    6492.3972    18.195047    22.759992    19.387668 -0.090680196   -6.2570552   0.42232493    8028.8043    4964.2838    7597.9543    6914.9537   -60.760252    79.341779   -2024.2262 
  486500    234.70471   -4832.5265    -4363.088   -4832.5265            0    7009.2783    17.973295    23.088097     19.26545 -0.072487511   -6.4568751   0.12960079     7994.568    6895.5045    7916.8653    6215.4652   -238.28063    149.76951   -623.69461 
  487000    249.62446   -4849.3565   -4350.0767   -4849.3565            0    7914.2952    18.072208    22.691085     19.36695  -0.32271365   -6.6159961  0.050020796    7941.9603    10508.556    7472.7006    5761.6295     978.0046    -179.5235    539.78085 
  487500    248.24096    -4856.118   -4359.6054    -4856.118            0    8453.9442    17.843189    23.065869    19.266619  -0.09494583   -6.1146023 -0.053832992    7929.5366      9129.71    7970.5817    8261.5411    1223.2899   -163.57243    2715.6132 
  488000    257.61108   -4839.7649    -4324.511   -4839.7649            0    9087.3303    18.036796    22.708089    19.391363  -0.15729273   -6.8707965   0.20948547    7942.3371    9510.3746    8845.4864    8906.1299   -135.81518    459.96136   -434.23221 
  488500    254.03487   -4846.8161    -4338.715   -4846.8161            0    8027.2807    18.031838    22.842694    19.228507   -0.1729056   -6.2797676 -0.067924894    7920.1406    6100.7576    7762.3452    10218.739   -706.24272   -599.83059    569.54027 
  489000    246.75728   -4830.2722   -4336.7271   -4830.2722            0    7947.0005    17.882415    23.014185    19.289839  -0.28505068   -6.5421132   0.09810815    7938.7177     6512.096    7331.3896    9997.5159    1861.7278   -862.31682    843.18107 
WARNING: Wall time limit reached (../timer.cpp:235)
Loop time of 3299.93 on 32 procs for 489000 steps with 1008 atoms

Performance: 25.606 ns/day, 0.937 hours/ns, 148.185 timesteps/s
3184.4% CPU use with 1 MPI tasks x 32 OpenMP threads

MPI task timing breakdown:
Section |  min time  |  avg time  |  max time  |%varavg| %total
---------------------------------------------------------------
Pair    | 214.97     | 214.97     | 214.97     |   0.0 |  6.51
Bond    | 25.235     | 25.235     | 25.235     |   0.0 |  0.76
Kspace  | 1291       | 1291       | 1291       |   0.0 | 39.12
Neigh   | 12.363     | 12.363     | 12.363     |   0.0 |  0.37
Comm    | 79.806     | 79.806     | 79.806     |   0.0 |  2.42
Output  | 2.7769     | 2.7769     | 2.7769     |   0.0 |  0.08
Modify  | 1671.7     | 1671.7     | 1671.7     |   0.0 | 50.66
Other   |            | 2.155      |            |       |  0.07

Nlocal:        1008.00 ave        1008 max        1008 min
Histogram: 1 0 0 0 0 0 0 0 0 0
Nghost:        8517.00 ave        8517 max        8517 min
Histogram: 1 0 0 0 0 0 0 0 0 0
Neighs:        336884.0 ave      336884 max      336884 min
Histogram: 1 0 0 0 0 0 0 0 0 0

Total # of neighbors = 336884
Ave neighs/atom = 334.21032
Ave special neighs/atom = 2.0000000
Neighbor list builds = 17258
Dangerous builds = 0

unfix		3
unfix		2
unfix		1

write_data	data.final.${pid}
write_data	data.final.0
System init for write_data ...
PPPM initialization ...
  extracting TIP4P info from pair style
  using 12-bit tables for long-range coulomb (../kspace.cpp:340)
  G vector (1/distance) = 0.38374245
  grid = 24 30 32
  stencil order = 5
  estimated absolute RMS force accuracy = 0.0019127772
  estimated relative force accuracy = 5.7602717e-06
  using double precision FFTW3
  3d grid and FFT values/proc = 52767 23040
Last active /omp style is kspace_style pppm/tip4p/omp
WARNING: Not all mixed pair coeffs generated from mixing. Use write_data with 'pair ij' option to store all pair coeffs. (../write_data.cpp:312)

write_restart   restart.lmp.${pid}
write_restart   restart.lmp.0
System init for write_restart ...
PPPM initialization ...
  extracting TIP4P info from pair style
  using 12-bit tables for long-range coulomb (../kspace.cpp:340)
  G vector (1/distance) = 0.38374245
  grid = 24 30 32
  stencil order = 5
  estimated absolute RMS force accuracy = 0.0019127772
  estimated relative force accuracy = 5.7602717e-06
  using double precision FFTW3
  3d grid and FFT values/proc = 52767 23040
Last active /omp style is kspace_style pppm/tip4p/omp
Total wall time: 0:55:00
