#include		in.partitions
include		in.temp
variable        temperature equal 278.63
variable	tempDamp equal 100.0
include		in.pressure
variable        pressure equal -2250.0
variable        pressureDamp equal 1000.0 # This is 1 ps
include		in.seed
variable        seed equal 745823

units		real
atom_style	full
read_restart	restart.lmp.${pid}
read_restart	restart.lmp.1
Reading restart file ...
  restart file = 30 Jul 2021, LAMMPS = 30 Jul 2021
  restoring atom style full from restart
  orthogonal box = (-0.37785010 0.64647377 -0.46097624) to (18.585422 22.982704 22.674172)
  2 by 2 by 4 MPI processor grid
  restoring pair style lj/cut/tip4p/long/omp from restart
  restoring bond style harmonic/omp from restart
  restoring angle style harmonic/omp from restart
  864 atoms
  576 bonds
  288 angles
Finding 1-2 1-3 1-4 neighbors ...
  special bond factors lj:    0        0        0       
  special bond factors coul:  0        0        0       
     2 = max # of 1-2 neighbors
     1 = max # of 1-3 neighbors
     1 = max # of 1-4 neighbors
     2 = max # of special neighbors
  special bonds CPU = 0.001 seconds
  read_restart CPU = 0.005 seconds
include 	in.setup
variable	out_freq equal 1000
variable	out_freq2 equal 10000
variable	out_freq3 equal 1000

timestep	2.0

neigh_modify    delay 7 every 1

include		in.tip4p
# This is TIP4P/Ice

# create groups ###
group ox type 2
288 atoms in group ox
group hy type 1
576 atoms in group hy

# set charges - beside manually ###
set group ox charge -1.1794
Setting atom values ...
  288 settings made for charge
set group hy charge 0.5897
Setting atom values ...
  576 settings made for charge

# ### TIP3P Potential Parameters ###
pair_style lj/cut/tip4p/long/omp 2 1 1 1 0.1577 8.5
pair_coeff 1 1*2 0.000 0.000
pair_coeff 2 2 0.21084 3.1668
bond_style  harmonic
bond_coeff  1 450 0.9572
angle_style harmonic
angle_coeff 1 55 104.52
kspace_style pppm/tip4p/omp 1.0e-5
pair_modify tail yes

thermo          ${out_freq}
thermo          1000
thermo_style    custom step temp pe etotal epair emol press lx ly lz vol pxx pyy pzz pxy pxz pyz enthalpy

restart 	${out_freq3} restart.lmp.${pid} restart2.lmp.${pid}
restart 	1000 restart.lmp.${pid} restart2.lmp.${pid}
restart 	1000 restart.lmp.1 restart2.lmp.${pid}
restart 	1000 restart.lmp.1 restart2.lmp.1


include         in.dump
dump            myDump all atom ${out_freq2} dump.water.${pid}
dump            myDump all atom 10000 dump.water.${pid}
dump            myDump all atom 10000 dump.water.1
dump            myDump2 all dcd ${out_freq2} dump.dcd
dump            myDump2 all dcd 10000 dump.dcd
dump_modify     myDump append yes
dump_modify     myDump2 append yes


variable natoms 	equal  "count(all)"                        # NUMBER ATOMS
variable H      	equal  "enthalpy/v_natoms"                 # ENTHALPY-per-atom
variable Vol      	equal  "vol/v_natoms"                 # volume-per-atom
fix AVG all 		ave/time ${out_freq} 1 ${out_freq} v_Vol v_H file vol_enthalpy.dat
fix AVG all 		ave/time 1000 1 ${out_freq} v_Vol v_H file vol_enthalpy.dat
fix AVG all 		ave/time 1000 1 1000 v_Vol v_H file vol_enthalpy.dat


timer           timeout 23:50:00 every 1000
New timer settings: style=normal  mode=nosync  timeout=23:50:00

fix 		1 all shake 1e-6 200 0 b 1 a 1
       0 = # of size 2 clusters
       0 = # of size 3 clusters
       0 = # of size 4 clusters
     288 = # of frozen angles
  find clusters CPU = 0.000 seconds
fix             2 all nph iso ${pressure} ${pressure} ${pressureDamp}
fix             2 all nph iso -2250 ${pressure} ${pressureDamp}
fix             2 all nph iso -2250 -2250 ${pressureDamp}
fix             2 all nph iso -2250 -2250 1000
fix             3 all temp/csvr ${temperature} ${temperature} ${tempDamp} ${seed}
fix             3 all temp/csvr 278.63 ${temperature} ${tempDamp} ${seed}
fix             3 all temp/csvr 278.63 278.63 ${tempDamp} ${seed}
fix             3 all temp/csvr 278.63 278.63 100 ${seed}
fix             3 all temp/csvr 278.63 278.63 100 745823

run             250000
PPPM initialization ...
  extracting TIP4P info from pair style
  using 12-bit tables for long-range coulomb (../kspace.cpp:340)
  G vector (1/distance) = 0.37054273
  grid = 24 25 27
  stencil order = 5
  estimated absolute RMS force accuracy = 0.0032707169
  estimated relative force accuracy = 9.8496669e-06
  using double precision FFTW3
  3d grid and FFT values/proc = 5700 1200
Last active /omp style is kspace_style pppm/tip4p/omp
Neighbor list info ...
  update every 1 steps, delay 7 steps, check yes
  max neighbors/atom: 2000, page size: 100000
  master list distance cutoff = 10.8154
  ghost atom cutoff = 10.8154
  binsize = 5.4077, bins = 4 5 5
  1 neighbor lists, perpetual/occasional/extra = 1 0 0
  (1) pair lj/cut/tip4p/long/omp, perpetual
      attributes: half, newton on, omp
      pair build: half/bin/newton/omp
      stencil: half/bin/3d
      bin: standard
Per MPI rank memory allocation (min/avg/max) = 12.19 | 12.21 | 12.23 Mbytes
Step Temp PotEng TotEng E_pair E_mol Press Lx Ly Lz Volume Pxx Pyy Pzz Pxy Pxz Pyz Enthalpy 
 9250000    298.22708   -3802.4941   -3291.3431   -3802.4941            0   -1954.2056    18.963273     22.33623    23.135148     9799.309   -1804.6121    -1855.955   -2202.0497    155.50965    711.33545   -137.62432   -3570.6242 
 9251000    282.41331    -3800.117   -3316.0703    -3800.117            0   -2072.7931    18.976871    22.352247    23.151738    9820.4051   -2202.8016   -2429.0123   -1586.5655   -461.17115    1256.2009    1032.6119   -3612.9368 
 9252000    268.07319   -3785.1652    -3325.697   -3785.1652            0   -2395.5831     18.99541    22.374084    23.174356    9849.2145   -2722.2049   -2635.3278   -1829.2166    1322.6061    340.34498   -714.44173   -3669.8002 
 9253000    282.45514   -3842.4525   -3358.3341   -3842.4525            0   -2332.6492    18.975219    22.350302    23.149723    9817.8408   -2257.1751   -3501.5628   -1239.2098    47.249142   -723.96905   -1277.4482   -3692.3301 
 9254000    266.35132   -3869.9601   -3413.4431   -3869.9601            0   -2789.3151    18.899958    22.261654    23.057905     9701.483   -3603.5288   -2150.8479   -2613.5686   -150.52196    189.56279    1093.0403   -3808.0926 
 9255000    286.56498   -3810.6538   -3319.4913   -3810.6538            0   -3313.8759     19.12186    22.523025    23.328624    10047.221   -4078.1923   -3014.8749   -2848.5605   -802.32107   -684.61865    245.14424   -3805.0683 
 9256000    289.10101   -3850.4146   -3354.9053   -3850.4146            0   -2353.8719    18.924178    22.290182    23.087453    9738.8273   -3378.1742   -2053.5712   -1629.8703   -213.06136    345.86301   -292.07102   -3689.2276 
 9257000    287.87776    -3834.101   -3340.6884    -3834.101            0   -1789.8562    18.860188     22.21481    23.009385    9640.3679   -872.00575   -2516.6292   -1980.9337   -27.391702    132.26347   -412.90526    -3592.333 
 9258000    275.08481   -3784.7655   -3313.2795   -3784.7655            0   -2458.9209    18.970006    22.344162    23.143363    9809.7516   -1778.3873   -2189.8989   -3408.4766    -435.1959    124.11061    -516.7153   -3665.0655 
 9259000    286.20159   -3761.7334   -3271.1937   -3761.7334            0   -1803.7053    18.966462    22.339986    23.139039    9804.2535    -2141.852   -1797.8177    -1471.446   -197.28034     736.6188   -85.118148   -3529.0964 
 9260000    273.87471   -3763.3618   -3293.9499   -3763.3618            0   -3523.4547    19.060613    22.450884    23.253903    9950.9874   -2274.3312   -4711.3116   -3584.7212   -487.67066    623.47526   -225.74134   -3805.2911 
 9261000    267.24133   -3732.8053   -3274.7628   -3732.8053            0   -1754.9654    19.021427    22.404728    23.206096    9889.7399   -2004.6877   -2449.8083   -810.40022   -478.64779   -535.94679   -42.597493   -3527.8845 
 9262000    291.86875   -3744.8755   -3244.6225   -3744.8755            0    -4143.858    19.007579    22.388417    23.189202    9868.1556   -4611.6282    -3517.695   -4302.2507   -773.06294    871.23114    263.33363   -3840.9938 
 9263000    276.70806   -3734.6471   -3260.3789   -3734.6471            0   -1666.7104    18.953625    22.324866    23.123378    9784.3596   -659.54183    -1884.351   -2456.2384   -239.25857   -296.28168     128.5571   -3498.2099 
 9264000    266.35073   -3784.4299   -3327.9139   -3784.4299            0   -2456.2569    18.851485     22.20456    22.998768    9627.0299   -1781.4829   -4089.4233   -1497.8646    579.67852    589.60933     288.4491   -3672.7733 
 9265000    281.54326   -3794.0518   -3311.4962   -3794.0518            0   -1949.1337    18.870334     22.22676    23.021763    9655.9348   -2541.9225   -1272.0998   -2033.3788   -114.57511    1616.2466    1216.8899    -3585.977 
 9266000    276.29906    -3795.779   -3322.2119    -3795.779            0    -2561.413    18.993714    22.372086    23.172286     9846.576   -3610.3175   -1281.9538   -2791.9676   -249.66013    1402.0608    9.2199629   -3690.0365 
 9267000    286.93669   -3839.1136   -3347.3139   -3839.1136            0   -578.95057    18.769596    22.108105    22.898864    9502.1174   -644.13868   -422.67204   -670.04098    1829.5591    777.29717    592.17894   -3427.5441 
 9268000    267.81932   -3841.3112    -3382.278   -3841.3112            0   -2639.0637    18.950371    22.321034    23.119408    9779.3216   -1447.1631   -2653.0361   -3816.9918    355.66657   -318.21484    887.82268   -3758.6649 
 9269000    273.19819   -3800.2751   -3332.0228   -3800.2751            0   -2714.6313    18.915897    22.280428    23.077351    9726.0486   -1348.5617   -3247.9736   -3547.3586   -986.73521    1080.7028   -182.05429   -3717.0781 
 9270000    270.63423    -3835.893   -3372.0352    -3835.893            0   -1276.7085    18.876092    22.233543    23.028788    9664.7765   -553.95191   -1104.3903   -2171.7833    95.233017   -619.93462   -1294.8524   -3551.9884 
 9271000    283.10493   -3835.2767   -3350.0446   -3835.2767            0   -2991.9094    18.951329    22.322163    23.120578    9780.8056   -2119.7353   -2921.3808    -3934.612   -346.16941   -77.763232    212.24723   -3776.8196 
 9272000    279.23475   -3790.8043   -3312.2055   -3790.8043            0   -2308.6443    18.940134    22.308976    23.106919    9763.4817   -1421.8246   -2877.4533   -2626.6551    571.77126   -325.96586    211.05727   -3640.9342 
 9273000    268.67746   -3849.4153   -3388.9113   -3849.4153            0   -2811.7543    18.864755    22.220189    23.014957    9647.3729   -3057.4837   -2205.1042   -3172.6749   -330.20345   -462.39373   -186.51893   -3784.5168 
 9274000    296.59846   -3793.2516    -3284.892   -3793.2516            0   -2356.0382    18.869664    22.225972    23.020947    9654.9075   -2981.4414   -2661.7893   -1424.8841    999.02778   -270.76975    198.29558   -3616.6385 
 9275000    279.49547   -3807.0802   -3328.0345   -3807.0802            0   -1884.1429    18.885524    22.244653    23.040296    9679.2728   -2621.8143   -918.41315   -2112.2011   -138.50477   -686.12803   -332.93815   -3594.0044 
 9276000    276.82355   -3781.0581    -3306.592   -3781.0581            0   -3388.2062    18.919087    22.284185    23.081242    9730.9692   -2773.8227   -2662.1442   -4728.6518    109.58063   -848.05317    281.71327   -3787.4334 
 9277000    291.13706   -3782.0366   -3283.0376   -3782.0366            0    -2668.406    18.968524    22.342416    23.141555    9807.4525   -2832.1506   -3099.1366   -2073.9308   -314.41794    484.16188   -1197.1049   -3664.7041 
 9278000    268.55029   -3821.6677   -3361.3817   -3821.6677            0   -1092.2591    18.825304    22.173721    22.966827    9586.9746   -1295.9353   -1091.9485   -888.89366   -907.01699    81.610953    581.95538   -3514.0972 
 9279000    280.36907   -3857.3784   -3376.8354   -3857.3784            0   -2353.8777    18.956893    22.328716    23.127365    9789.4219   -2506.4673    -1142.433   -3412.7329   -250.43477   -353.41777    51.465654   -3712.8954 
 9280000    283.44956   -3794.1985   -3308.3757   -3794.1985            0   -2688.7996    19.025663    22.409718    23.211264    9896.3483   -3356.2371   -2186.6301   -2523.5315    535.20616    -167.4231    496.54151    -3696.445 
 9281000     289.2798   -3776.0536    -3280.238   -3776.0536            0   -3734.5904    19.031347    22.416413    23.218199    9905.2217   -3369.3959   -5584.6224   -2249.7529    310.69073   -324.24264    786.92129   -3819.7276 
 9282000    291.10579   -3800.4577   -3301.5123   -3800.4577            0   -1081.3576    18.887214    22.246643    23.042357    9681.8707   -1705.8468   -445.90163   -1092.3245   -796.95241    961.06839     257.6412   -3454.2002 
 9283000    293.07936   -3796.6216   -3294.2936   -3796.6216            0   -3228.1645     18.97678     22.35214    23.151627    9820.2639    -3600.277   -2586.6063   -3497.6103   -102.62996   -175.40378    195.69245   -3756.6264 
 9284000    267.41264    -3795.482   -3337.1459    -3795.482            0   -3019.9427    19.001583    22.381355    23.181887    9858.8196   -2237.1527   -3648.0615   -3174.6138   -290.78267   -310.64909    659.95434   -3771.3556 
 9285000    271.38921    -3844.421   -3379.2692    -3844.421            0   -3311.8799    19.008217    22.389169     23.18998    9869.1493   -2640.1168   -3970.2599    -3325.263    47.962239    665.37508    912.41063   -3855.9528 
 9286000    264.91015   -3811.8893   -3357.8424   -3811.8893            0   -2752.1477    19.079064    22.472617    23.276413    9979.9131   -2574.3108   -3181.0712   -2501.0611    146.72116   -166.88442    1121.2397   -3758.4087 
 9287000    278.74934   -3821.8801   -3344.1133   -3821.8801            0   -804.05217    18.912192    22.276065    23.072831    9720.3348   -588.58596   -1011.5362   -812.03435   -157.69442    597.46622   -631.45226   -3458.0966 
 9288000    274.49979   -3815.2662   -3344.7829   -3815.2662            0   -2553.1028    18.988314    22.365726    23.165699    9838.1812    -2513.245   -2916.5701   -2229.4932   -813.79382   -132.95737    608.55851   -3711.1015 
 9289000    285.41389   -3824.9198   -3335.7302   -3824.9198            0   -1799.6745    18.987434    22.364689    23.164625    9836.8127   -2373.4187   -1420.7425   -1604.8623    86.820862   -804.59151   -407.63709   -3593.9111 
 9290000    279.24014    -3830.895   -3352.2869    -3830.895            0   -2395.1103    18.974603    22.349576    23.148972    9816.8849    -2139.842   -2262.1761   -2783.3129    418.77194    453.16288   -531.06946    -3695.193 
 9291000    275.57474   -3815.7418   -3343.4161   -3815.7418            0   -2322.4145    19.001533    22.381296    23.181826    9858.7421    -3382.143   -2196.3735    -1388.727    -689.8016   -304.30108   -461.66221    -3677.332 
 9292000    295.83135    -3859.695   -3352.6502    -3859.695            0   -1215.5166      18.8233    22.171361    22.964382    9583.9138   -1078.0091   -1219.4388    -1349.102    755.10757   -115.41271   -404.45257   -3522.5449 
 9293000    275.86512   -3800.6794    -3327.856   -3800.6794            0    -2659.585    19.042274    22.429283    23.231529    9922.2917   -2395.5893   -2593.0535   -2990.1121   -158.36118   -33.168705   -705.55896   -3712.7151 
 9294000    269.71756   -3766.9574   -3304.6707   -3766.9574            0   -3049.4801    18.929464    22.296408    23.093902    9746.9907   -2365.4094    -3154.692   -3628.3388    312.75852   -73.949861   -287.30711   -3738.1539 
 9295000    270.50371    -3862.418   -3398.7839    -3862.418            0   -1932.8116    18.684442    22.007804    22.794975    9373.3742   -2252.9734   -1808.7457   -1736.7158   -580.29687     231.9326    434.87358   -3663.0012 
 9296000    282.96792   -3819.1227   -3334.1254   -3819.1227            0   -1456.6035    18.797933    22.141482    22.933434    9545.2185   -881.63947   -1854.1037   -1634.0675    484.87595   -103.01652   -579.67858   -3536.8951 
 9297000    266.53511   -3828.7187   -3371.8867   -3828.7187            0   -1798.7575      18.9533    22.324484    23.122981    9783.8567   -1016.7558   -2089.0633   -2290.4532   -332.66135   -93.370443    907.32322   -3628.5469 
 9298000    285.73632   -3822.3267   -3332.5844   -3822.3267            0   -1460.1734    18.838044    22.188728     22.98237    9606.4523   -739.87033   -2384.4802   -1256.1696   -286.82436    1024.3152   -442.47399   -3537.1551 
 9299000    273.91917   -3776.8852   -3307.3971   -3776.8852            0   -4078.6708    19.107531    22.506147    23.311143    10024.651   -4766.7544   -4225.5963   -3243.6617    559.60956    -195.2574    338.18488   -3903.6958 
 9300000    271.92769   -3821.4915   -3355.4167   -3821.4915            0     -2479.29    18.869309    22.225554    23.020513    9654.3624   -1909.5275   -3690.1598   -1838.1827   -1409.8755   -599.48342    229.49326   -3704.4982 
 9301000    280.61768   -3779.8208   -3298.8517   -3779.8208            0   -2241.3802    18.965689    22.339076    23.138096    9803.0554   -2844.0486   -2147.6878   -1732.4043   -465.94935    518.09854    337.68463   -3619.2963 
 9302000    281.59228   -3828.5728   -3345.9332   -3828.5728            0   -2935.0594     18.91955    22.284731    23.081807     9731.684   -3772.5635   -2336.5369   -2696.0777   -12.389543    320.26334   -190.26412   -3762.4963 
 9303000    278.58115   -3854.2253   -3376.7467   -3854.2253            0   -2029.3057    18.976455    22.351757    23.151231    9819.7593    -2722.429   -2435.8007   -929.68741   -267.78506    -1150.116    903.56432   -3667.3659 
 9304000    266.36177    -3794.634    -3338.099    -3794.634            0   -1028.5963    19.021402    22.404699    23.206066    9889.7005   -395.95718   -850.11577    -1839.716    499.05598    94.717738   -274.89452   -3486.4546 
 9305000    266.66043   -3819.2478   -3362.2009   -3819.2478            0   -2608.1513    19.044949    22.432434    23.234793    9926.4741   -3632.8122   -1989.0627    -2202.579   -9.0734622    830.49564   -418.56856   -3739.7763 
 9306000    278.20179   -3787.4175   -3310.5891   -3787.4175            0   -2841.2999     19.05453     22.44372    23.246482    9941.4634   -3194.5012   -2838.2623   -2491.1361   -402.97937    -1107.845    570.19162    -3722.538 
 9307000    280.67757   -3851.8373   -3370.7656   -3851.8373            0    -3317.128     18.94472    22.314378    23.112514     9770.576   -2972.9869   -4927.6273   -2050.7699   -317.61971    277.30021   -385.49082   -3843.4358 
 9308000     274.1819   -3814.7114    -3344.773   -3814.7114            0   -2408.1362    19.051468    22.440112    23.242746    9936.6708   -3945.4587   -2235.7752   -1043.1746    343.78399   -213.01987    -1121.251   -3693.7508 
 9309000    274.37288   -3792.7524   -3322.4867   -3792.7524            0   -3110.1866    18.991251    22.369185    23.169282    9842.7464   -2775.2719   -3394.0108    -3161.277   -582.45553    456.84745   -805.62723   -3768.9426 
 9310000    276.39561   -3836.2879   -3362.5553   -3836.2879            0   -3113.0195    18.998077    22.377225     23.17761    9853.3641   -3591.2334   -2323.8209   -3424.0041    674.05335   -409.47831    1107.9558      -3809.9 
 9311000    280.70649    -3821.646   -3340.5246    -3821.646            0   -2736.9594    19.046592     22.43437    23.236798    9929.0439   -1820.1149   -3000.4273    -3390.336    952.68795    267.28095    1065.3502   -3736.8498 
 9312000    271.46686   -3779.0244   -3313.7395   -3779.0244            0   -3833.9249    19.211208    22.628265    23.437628    10188.719   -4263.0523   -3785.0765   -3453.6458    1301.3569   -146.37833    1254.4337   -3883.4301 
 9313000    286.58031   -3736.0862   -3244.8974   -3736.0862            0   -3171.8808     19.14014    22.544556    23.350926    10076.064    -4004.255   -2167.0606   -3344.3269    783.24092    131.01945    58.436296   -3711.0023 
 9314000    275.62245   -3768.1963   -3295.7888   -3768.1963            0   -2671.4404    19.145443    22.550803    23.357396    10084.442   -3082.7481   -2743.8863   -2187.6868    904.80757    10.431486     638.5045   -3688.6809 
 9315000    279.91465   -3835.7059   -3355.9417   -3835.7059            0   -2247.7737    18.965817    22.339227    23.138253    9803.2541   -1773.7006   -2063.4586   -2906.1619    180.67051   -344.47014    229.28865   -3677.3069 
 9316000    286.29999    -3786.336   -3295.6276    -3786.336            0   -2242.0236    18.964348    22.337497    23.136461    9800.9768   -2919.4367   -1534.4881   -2272.1461   -20.084206    184.06499    125.93815   -3616.0962 
 9317000    255.01869   -3806.9044   -3369.8111   -3806.9044            0   -1933.7678    18.928779    22.295601    23.093066     9745.932   -2258.1177   -1765.2194   -1777.9662     494.6631   -824.13874   -1069.0313    -3644.666 
 9318000    277.02018   -3781.0854   -3306.2823   -3781.0854            0   -2922.5104    19.023354    22.406998    23.208448    9892.7463   -3218.0641   -1713.2258   -3836.2412   -372.59561   -414.31061   -485.20422   -3727.9291 
 9319000     276.9028   -3827.7948   -3353.1929   -3827.7948            0   -2174.6481    19.042913    22.430036    23.232309    9923.2914   -1643.1043   -2759.1294   -2121.7106    243.75405   -1300.8257    1478.0853   -3667.9102 
 9320000    268.62418   -3764.2327     -3303.82   -3764.2327            0   -2542.5869    19.191034    22.604503    23.413016    10156.655    -3406.053   -1399.7767   -2821.9309    583.01574   -255.46765    323.86474   -3680.4392 
 9321000    272.39538   -3783.6921   -3316.8158   -3783.6921            0   -1208.0167    19.072651    22.465063     23.26859    9969.8533   -1618.5431   -452.15893   -1553.3481   -361.28662   -667.19112    521.30543   -3492.4615 
 9322000    293.97631   -3758.4522   -3254.5869   -3758.4522            0   -1454.7481    19.064326    22.455257    23.258433    9956.8034   -396.51233   -1191.4141   -2776.3178   -514.09929    194.55524    1016.6842   -3465.8305 
 9323000    265.87359   -3800.1751   -3344.4769   -3800.1751            0   -3213.2874     19.12416    22.525734     23.33143    10050.847   -4232.5642   -3176.9171   -2230.3808    384.80386    382.28873     549.3065   -3815.4847 
 9324000    278.16096   -3804.7905   -3328.0322   -3804.7905            0   -2716.4258    19.040519    22.427216    23.229389    9919.5491   -1868.5736   -2156.9031   -4123.8006    -109.7085   -15.597852    130.98524   -3721.0078 
 9325000    280.35157   -3786.9058   -3306.3929   -3786.9058            0   -2444.8263    18.988102    22.365476     23.16544    9837.8513   -2465.6389   -2271.0457   -2597.7943    1171.2004    -397.3082    -222.0474   -3657.1642 
 9326000    283.59923   -3805.3009   -3319.2215   -3805.3009            0   -2445.8121    19.116239    22.516404    23.321767    10038.364   -1558.1014   -2681.6265   -3097.7084    610.98472    407.48102    100.55632   -3677.2865 
 9327000    278.25368   -3835.5035   -3358.5862   -3835.5035            0   -2478.3324    18.982032    22.358327    23.158035    9828.4202   -4094.5336   -817.48857    -2522.975    203.33943    534.64769     84.21593    -3713.824 
 9328000    294.40896   -3778.6961   -3274.0893   -3778.6961            0   -2011.4222    19.145246    22.550571    23.357155     10084.13   -1225.1936   -2260.0298   -2549.0432   -193.04083   -628.54638   -619.75022   -3569.9025 
 9329000    274.62501   -3827.1351   -3356.4373   -3827.1351            0   -1949.8878    19.173702    22.584089    23.391872    10129.162   -2694.8916   -1976.2725   -1178.4994     464.9689   -795.80685    351.95398   -3644.4814 
 9330000    296.16981   -3778.1124   -3270.4874   -3778.1124            0   -2382.1402    19.184616    22.596944    23.405187    10146.469   -1332.6964   -2721.9001   -3091.8242   -1245.8776    603.74873    133.55961   -3622.9866 
 9331000     275.9934   -3780.9484   -3307.9052   -3780.9484            0   -2643.9661    19.182499     22.59445    23.402604    10143.111   -1422.6164   -3005.5061   -3503.7757   -455.64237   -40.700161   -508.32284   -3699.0188 
 9332000     275.5931   -3794.3388   -3321.9816   -3794.3388            0    -1857.917     19.17204     22.58213    23.389844    10126.527   -1577.5044   -2754.7042   -1241.5425    -301.6972    1399.6419    660.45733   -3596.3682 
 9333000    259.08523   -3744.7609   -3300.6977   -3744.7609            0   -2661.9688    19.015532    22.397785    23.198905    9880.5478   -4172.6005   -1302.1457   -2511.1602   -1266.4757   -66.405605    377.88625   -3684.2811 
 9334000    286.80652   -3758.2553   -3266.6787   -3758.2553            0   -2578.8586    19.115708    22.515779    23.321119    10037.527    -2813.739   -1949.1373   -2973.6994   -1064.6046   -589.25062    729.92635   -3644.1902 
 9335000    285.55088   -3834.1913   -3344.7669   -3834.1913            0   -2909.1776    19.108494    22.507282    23.312318    10026.168   -2100.3897   -3105.6492   -3521.4938    315.19693    299.89825   -374.31538   -3770.1508 
 9336000    274.86131   -3806.3361   -3335.2332   -3806.3361            0   -1568.4367    19.142261    22.547054    23.353513    10079.413   -1895.0127    -1399.801   -1410.4965   -1740.5425   -372.47252   -1159.3606   -3565.7901 
 9337000    269.17202   -3830.1812   -3368.8296   -3830.1812            0   -2515.8542     19.19996    22.615017    23.423907    10170.834   -2241.3896   -3907.9233   -1398.2496   -88.032938    553.66875    725.49508   -3742.0092 
 9338000    280.08726   -3797.8733   -3317.8133   -3797.8733            0   -1706.7891    19.131496    22.534375    23.340381    10062.419   -1132.1572   -2415.0278   -1573.1821    608.30551    27.177506   -313.31548   -3568.2847 
 9339000    267.50041   -3869.2089   -3410.7223   -3869.2089            0   -1880.3513    19.015719    22.398005    23.199133    9880.8396   -1040.7915   -3174.9332   -1425.3292   -926.42846    635.90771    543.31129   -3681.6845 
 9340000    279.13939   -3824.3555   -3345.9202   -3824.3555            0   -2849.0248      19.1787    22.589975    23.397969    10137.085   -1527.1443   -4225.0255   -2794.9045    1203.9957     602.6136    652.88214   -3767.1171 
 9341000    261.77882   -3857.9111   -3409.2311   -3857.9111            0   -973.14617     19.03616    22.422082     23.22407    9912.7376   -505.74108   -867.70848    -1545.989   -747.01684    464.68514   -299.20611   -3549.9161 
 9342000    287.69687   -3829.8235   -3336.7209   -3829.8235            0   -1310.6342    18.955101    22.326605    23.125179    9786.6464   -1641.2236   -25.119003   -2265.5601   -289.80011   -263.39834   -45.288704   -3523.7853 
 9343000    272.93037   -3837.0242   -3369.2309   -3837.0242            0   -2714.0967    19.061147    22.451513    23.254555    9951.8235   -2068.9669   -5115.3545   -957.96874     161.2638    360.67985     511.0094   -3763.1471 
 9344000    281.28175   -3854.7311   -3372.6238   -3854.7311            0   -1116.1982    19.009742    22.390965    23.191841     9871.525     -1561.99   -802.05723    -984.5472    194.66563    1659.3015    695.31766   -3533.3184 
 9345000    278.68542   -3861.3819   -3383.7246   -3861.3819            0   -2518.9372    19.097086    22.493845      23.2984    10008.221   -2417.8979   -3756.0019   -1382.9117   -185.65565    -377.0464    219.82006   -3751.3878 
 9346000    276.85591   -3812.1636    -3337.642   -3812.1636            0   -2216.0515    19.083325    22.477636    23.281612    9986.6017   -1371.2393   -2939.9614   -2336.9537   0.72933752   0.36036575   -224.98536   -3660.3974 
 9347000     280.9479   -3830.9836   -3349.4485   -3830.9836            0   -2652.1765    19.053713    22.442757    23.245485    9940.1846   -2786.1195   -2654.4825   -2515.9275    834.98924   -6.2542411    450.71393   -3733.9277 
 9348000    267.69304   -3823.0422   -3364.2254   -3823.0422            0   -2990.2174    19.085588    22.480302    23.284373    9990.1556   -3278.6387   -3475.7226   -2216.2909    583.05672    354.32582    197.53789   -3799.8887 
 9349000    284.38686    -3816.596   -3329.1667    -3816.596            0   -3541.2162    19.045925    22.433584    23.235984    9928.0002   -3559.5789   -4255.1885   -2808.8812   -172.73535    261.30565    254.25824   -3841.8983 
 9350000    276.78622   -3800.6364   -3326.2343   -3800.6364            0   -2398.9894    19.182091    22.593969    23.402106    10142.463   -2014.0104   -2390.6165   -2792.3414    -793.7533   -296.93319   -45.866159   -3681.0866 
 9351000     287.3721   -3849.7908   -3357.2449   -3849.7908            0   -2500.1956    19.141649    22.546334    23.352767    10078.447   -1705.6518   -2073.9683   -3720.9667     341.3209    374.33669    425.43101   -3724.7332 
 9352000     277.2121   -3773.0735   -3297.9414   -3773.0735            0   -3198.7265    19.274867    22.703247    23.515293    10290.341   -3498.8848   -2781.4996   -3315.7949    628.86151   -75.711643   -254.09048   -3777.9873 
 9353000    271.33673   -3757.8937   -3292.8318   -3757.8937            0     -2004.43    19.085734    22.480473     23.28455    9990.3836   -1203.5042   -2317.0281   -2492.7575    153.74573   -72.789298   -1163.0611   -3584.8762 
 9354000     274.3672   -3796.7492   -3326.4932   -3796.7492            0    -1273.658     19.05357    22.442589    23.245311    9939.9607    188.90674    -2581.531   -1428.3497    759.55307    294.13435    155.63984   -3511.1279 
 9355000    288.21016   -3797.4721   -3303.4898   -3797.4721            0   -2389.3699    19.126366    22.528332    23.334121    10054.326    -3775.053   -873.02953   -2520.0271    751.68095   -517.55014    373.17371   -3653.8479 
 9356000    275.88289   -3811.8895   -3339.0357   -3811.8895            0   -2936.6734    19.064607    22.455589    23.258776    9957.2443   -2691.7177   -2444.8515    -3673.451    612.14536   -1070.6617   -365.25545   -3765.4882 
 9357000    265.25023   -3790.8043   -3336.1745   -3790.8043            0    -2282.337    18.962853    22.335736    23.134636    9798.6585   -2240.0718   -1980.1208   -2626.8184   -206.92588   -107.36685    1483.3055   -3662.3282 
 9358000    266.45222   -3759.5239   -3302.8339   -3759.5239            0   -2159.2525    19.079424    22.473041    23.276852    9980.4778   -1459.9771   -3078.2346   -1939.5456   -245.05809   -922.34627    397.97569    -3617.124 
 9359000    283.81989   -3818.3728   -3331.9152   -3818.3728            0   -2183.7185    18.949417    22.319911    23.118245    9777.8455   -2883.8431   -1794.4788   -1872.8337   -1161.7921    1162.1037    421.98324   -3643.3132 
 9360000    284.92188   -3820.3515   -3332.0051   -3820.3515            0   -2191.6006    18.961524     22.33417    23.133015    9796.5981   -1561.1261   -2957.1316   -2056.5441    -51.39475     595.9831   -99.924548   -3645.1264 
 9361000    290.80946   -3809.8191   -3311.3816   -3809.8191            0    -3886.011    19.057041    22.446678    23.249546    9945.3947   -3410.9508   -4569.7474   -3677.3348   -167.04575   -261.58972   -216.07686   -3875.0218 
 9362000    268.61747   -3754.8609   -3294.4598   -3754.8609            0    -2091.472    19.055316    22.444646    23.247441    9942.6941   -3031.7213   -2437.9162   -804.77861   -190.14312    161.52163   -567.51104   -3597.7316 
 9363000    275.78418   -3764.1223   -3291.4377   -3764.1223            0   -2357.5792    19.104761    22.502885    23.307764    10020.293   -3114.6739   -2557.5996   -1400.4642    636.33281    972.69682    -1049.451   -3635.9642 
 9364000    283.03146   -3762.3196   -3277.2133   -3762.3196            0   -1180.6734    18.943536    22.312983     23.11107    9768.7439   -1891.0649    -2052.886    401.93084   -660.60945   -623.27835     313.9832   -3445.4204 
 9365000    284.15208   -3771.1243   -3284.0974   -3771.1243            0   -1624.3883     19.00082    22.380457    23.180957    9857.6332   -1048.3189   -2524.6153   -1300.2308    1009.3846   -169.66483    280.68298   -3517.6251 
 9366000    274.89246   -3778.2846   -3307.1284   -3778.2846            0   -1758.2626     18.89514    22.255979    23.052027     9694.065   -520.29308   -2174.7225   -2579.7722   -257.51177     104.6701   -609.53559    -3555.708 
 9367000    277.47002   -3848.4445   -3372.8704   -3848.4445            0     -2178.17    18.987923    22.365265    23.165222    9837.5735   -4073.1463   -493.63873   -1967.7251   -613.11922     52.06492    245.22333   -3685.3744 
 9368000     284.3185   -3854.7229   -3367.4107   -3854.7229            0   -2426.6705    18.907109    22.270077    23.066628    9712.4981   -3339.0982   -1958.1369   -1982.7763   -958.06067   -206.75881   -359.82904   -3711.1409 
 9369000    276.27152   -3817.9861   -3344.4662   -3817.9861            0   -1895.1698    18.943368    22.312785    23.110864    9768.4837    -3019.408   -1674.4431   -991.65822   -1052.8428    341.79724     588.5451   -3614.4584 
 9370000    276.81875   -3831.8825   -3357.4246   -3831.8825            0   -2191.3108    18.903343    22.265641    23.062034    9706.6963   -3037.9225   -2125.3056   -1410.7043    988.31763    999.43068    23.323896   -3667.6314 
 9371000    273.01752   -3816.0689   -3348.1262   -3816.0689            0   -3289.3366     19.03547    22.421269    23.223229    9911.6601   -4377.3944   -2657.1156   -2833.4999   -748.22254    105.80563   -1306.1021   -3823.6044 
 9372000    284.93987   -3784.5353   -3296.1581   -3784.5353            0    -2532.873    19.056511    22.446052    23.248898    9944.5637   -2185.4482   -3679.1899    -1733.981   -333.89825    367.17214   -895.84572   -3663.5038 
 9373000    264.61433   -3820.5489    -3367.009   -3820.5489            0   -2482.5085    18.903913    22.266313     23.06273    9707.5744   -1926.5565   -2736.0023   -2784.9668   -1074.3751     316.0294   -390.60221   -3718.4702 
 9374000    288.75549   -3783.5053   -3288.5883   -3783.5053            0   -2765.5368    18.945157    22.314893    23.113047    9771.2523   -3112.1367   -2129.3288    -3055.145   -470.06252   -888.52412   -137.79252   -3682.6875 
 9375000    305.38313   -3801.3728   -3277.9565   -3801.3728            0   -1948.5069    18.842992    22.194555    22.988406     9614.023   -1067.4143   -2563.3415   -2214.7651   -424.32197    366.78393    475.42249    -3551.158 
 9376000    284.94012   -3803.8446    -3315.467   -3803.8446            0   -2868.8873    18.895448    22.256342    23.052402    9694.5389    -3839.562   -2434.7968   -2332.3031   -52.748012   -139.75382    73.080538   -3721.0844 
 9377000    273.80081   -3767.4742    -3298.189   -3767.4742            0   -1397.1462    18.933649    22.301338    23.099008    9753.4569   -1665.0194   -1226.0323   -1300.3869      1229.09    43.457392   -1361.4366   -3496.9249 
 9378000    288.62174   -3824.0618    -3329.374   -3824.0618            0   -2001.8611     18.84981    22.202586    22.996724    9624.4627   -2442.5655   -2731.2409   -831.77685   -838.17012    -548.0932   -1291.4043   -3610.3611 
 9379000    297.20447    -3814.893   -3305.4947    -3814.893            0   -2224.1609    18.927941    22.294615    23.092044    9744.6385   -1941.9857   -1403.2738   -3327.2231    258.53393     297.6271   -165.51274   -3621.5825 
 9380000     276.9686   -3834.4931   -3359.7784   -3834.4931            0   -1260.6287    18.819653    22.167065    22.959933    9578.3438   -1857.3392   -1011.1187   -913.42826    227.44554   -1285.5005   -106.70955   -3535.8761 
 9381000     278.0498   -3828.6048   -3352.0369   -3828.6048            0   -2251.4378    18.867394    22.223297    23.018176    9651.4223   -1998.2532   -1806.5858   -2949.4743   -146.50178   -889.35807    39.635098   -3668.9405 
 9382000    296.54405   -3820.0834   -3311.8171   -3820.0834            0   -2089.4028    19.018426    22.401194    23.202436    9885.0606   -1432.8822   -1713.8991    -3121.427   -710.26186   -180.98872    1187.0394   -3613.0326 
 9383000    269.35485   -3796.0178   -3334.3528   -3796.0178            0   -3380.2183    19.049442    22.437726    23.240274    9933.5011   -2755.1345    -3491.693   -3893.8274    453.60888   -225.73413   -634.50688   -3824.0448 
 9384000    266.96347   -3838.7161   -3381.1499   -3838.7161            0   -2595.4822    19.021471     22.40478     23.20615    9889.8081   -3851.8184    -996.1409   -2938.4874   -350.74495     -109.464    304.76288   -3755.5033 
 9385000    265.96457   -3850.9744   -3395.1203   -3850.9744            0    -2672.633     18.81054    22.156331    22.948815    9564.4362   -2213.9102   -1847.4414   -3956.5473    252.48674   -332.77552   -187.48415   -3767.9191 
 9386000    266.41806   -3807.5843   -3350.9529   -3807.5843            0   -1376.3706    18.849613    22.202354    22.996484    9624.1618    -1209.438   -1206.3008   -1713.3729   -1101.5964    941.47295    1372.3404   -3544.1382 
 9387000    272.31705    -3831.718   -3364.9759    -3831.718            0   -2745.5547    18.828921    22.177981    22.971239    9592.5012   -2501.9152   -3713.9152   -2020.8336    7.0036116    388.59581    322.69441   -3749.0702 
 9388000    284.61116   -3807.5466   -3319.7328   -3807.5466            0   -3473.5689    19.004181    22.384415    23.185057    9862.8649   -3840.2234   -3102.7868   -3477.6963   -430.67764    769.19243   -1186.4606   -3819.3702 
 9389000    262.73814   -3854.2928   -3403.9686   -3854.2928            0   -2649.2794    18.940458    22.309357    23.107314    9763.9827   -2855.3684   -2855.6613   -2236.8086   -145.78594   -288.24451      917.238   -3781.2199 
 9390000    266.93221   -3819.3792   -3361.8665   -3819.3792            0   -1710.4581    18.933401    22.301046    23.098705    9753.0734   -1454.9135   -1583.7907   -2092.6702    140.76204    -144.2122    163.13062   -3605.1596 
 9391000    270.46863   -3837.6894   -3374.1154   -3837.6894            0   -2772.0243    19.006875    22.387588    23.188343    9867.0594   -1903.3059   -3513.4276   -2899.3393    850.39875   -419.72965    141.49433   -3773.0123 
 9392000    272.70458   -3818.5886   -3351.1823   -3818.5886            0   -2802.6154     18.98051    22.356533    23.156177     9826.055   -1474.6217   -2808.6273   -4124.5973    1313.5672   -411.34308    407.53327   -3752.8053 
 9393000     269.8184   -3819.5158   -3357.0563   -3819.5158            0   -2512.3205    18.915257    22.279675     23.07657    9725.0613   -2052.6742   -2466.1336   -3018.1537   -248.86397   -79.665652   -949.36935   -3713.3788 
 9394000    293.61953   -3836.8706   -3333.6168   -3836.8706            0   -2172.9787    18.938457    22.307001    23.104874    9760.8894   -1418.6151   -3430.6816   -1669.6395    241.82632   -724.18249    204.41475   -3642.9459 
 9395000    292.22289   -3786.9729   -3286.1129   -3786.9729            0   -2391.3224    18.798865    22.142579    22.934571    9546.6378   -3107.7909   -2249.0521   -1817.1243   -211.79321   -94.371975   -1209.1558   -3619.0517 
 9396000     265.9586   -3813.9765   -3358.1325   -3813.9765            0   -2856.3091     18.89259    22.252975    23.048915    9690.1405     -2596.55     -4265.96   -1706.4174    23.299692    1065.2945    191.64912   -3761.7883 
 9397000    261.59777   -3830.6638   -3382.2942   -3830.6638            0   -1117.9671    18.843426    22.195067    22.988936     9614.688   -1733.9337    423.84464   -2043.8122   -289.55312   -878.32029    1082.9182    -3539.056 
 9398000    261.78846   -3816.6245    -3367.928   -3816.6245            0   -1694.4834    18.927047    22.293562    23.090953    9743.2576   -2409.6079   -1583.5909   -1090.2515    323.33836    1315.4086     482.1787   -3608.7063 
 9399000    316.00276   -3804.6436   -3263.0257   -3804.6436            0   -2739.9965    19.031759    22.416898    23.218701    9905.8642   -3065.2516   -1608.7515   -3545.9864   -872.12963   -1159.6149   -1376.8429   -3658.8644 
 9400000    272.00609   -3786.7796   -3320.5705   -3786.7796            0   -3173.5201    19.009506    22.390688    23.191553    9871.1581   -3106.6428   -2978.9303   -3434.9871   -561.90083    220.83791   -394.40277   -3777.4327 
 9401000    293.87318   -3797.8715   -3294.1829   -3797.8715            0   -341.39323    18.860867    22.215611    23.010214    9641.4107   -1783.0658    115.10068    643.78542   -176.13857    742.84554   -279.75398   -3342.1862 
 9402000    257.42996   -3779.2176   -3337.9914   -3779.2176            0   -2042.2582     19.01514    22.397323    23.198426    9879.9363   -2146.4189   -1397.0233   -2583.3322    -226.3235   -309.29149   -328.38938   -3632.2578 
 9403000    287.44957    -3790.371   -3297.6923    -3790.371            0   -2047.6305    19.009804    22.391038    23.191916    9871.6215   -2088.3303     -2728.45   -1326.1111   -188.65167    -254.4811    131.18134   -3592.4845 
 9404000    273.52785   -3811.7011   -3342.8837   -3811.7011            0   -3570.6588    19.061864    22.452358     23.25543    9952.9474   -3169.6751   -4430.4007   -3111.9006   -270.45489   -630.00568    -94.37838   -3861.1775 
 9405000    265.98404   -3793.3202   -3337.4327   -3793.3202            0   -2888.8692    19.072416    22.464787    23.268303    9969.4854    -5969.914   -1817.6856   -879.00795   -225.82927   -654.39826   -913.65247    -3757.459 
 9406000    266.79153   -3833.3722   -3376.1007   -3833.3722            0   -2535.1033    19.039247    22.425718    23.227836    9917.5608   -3894.1702   -1649.2631   -2061.8766    283.60797    844.41523   -405.81189   -3742.7715 
 9407000     260.6728   -3795.9056   -3349.1214   -3795.9056            0   -1474.2039    18.918321    22.283283    23.080308    9729.7877   -608.12927   -2095.0731   -1719.4094    -315.0881   -1133.9033   -1061.3437   -3558.3094 
 9408000    272.93153   -3802.3987   -3334.6034   -3802.3987            0   -2365.4779    19.095743    22.492262    23.296761    10006.109   -3405.1865   -3137.9076   -553.33962    312.94317   -183.55957   -791.23398   -3679.7949 
 9409000     274.8999   -3820.5873   -3349.4183   -3820.5873            0   -1351.8393    18.940667    22.309603    23.107569    9764.3058   -2068.9442   -944.30625   -1042.2673    501.15461    609.94197   -808.99643   -3541.9234 
 9410000    284.94887   -3789.7729   -3301.3802   -3789.7729            0   -1931.5502    19.011716     22.39329    23.194249    9874.6008   -2743.8839   -665.30905   -2385.4575    606.34968   -1152.9783   -447.89447   -3579.5446 
 9411000    257.10224    -3804.972   -3364.3076    -3804.972            0   -1800.1475    18.910207    22.273725    23.070408    9717.2731   -3028.0423   -1517.0959   -855.30421   -295.48449    387.18116    -304.0538   -3619.4181 
 9412000    275.83019   -3811.7471   -3338.9836   -3811.7471            0   -2295.0982    19.087447    22.482491     23.28664    9993.0736   -3253.3662   -1952.5167   -1679.4116    409.74674    221.29483   -262.05408   -3673.4683 
 9413000    280.65128   -3802.7392   -3321.7125   -3802.7392            0   -2283.1159    19.028682    22.413273    23.214947    9901.0597   -2712.7282   -2447.8181   -1688.8014    758.41166   -1495.4926   -321.68449   -3651.3872 
 9414000    290.47491   -3840.8382   -3342.9741   -3840.8382            0   -1288.9238    18.925512    22.291754    23.089081    9740.8875   -2331.4703   -883.56535   -651.73571    471.16808    334.52732    593.22299   -3526.0798 
 9415000    277.56875   -3800.6589   -3324.9156   -3800.6589            0   -2884.5115    18.932184    22.299612     23.09722    9751.1928    -2746.577    -4001.125   -1905.8325    382.36776    198.59187   -605.72575   -3735.1253 
 9416000    292.63738   -3798.1692   -3296.5988   -3798.1692            0   -2837.6372    18.967049    22.340679    23.139756    9805.1653   -2994.7885   -3616.6968   -1901.4263    323.73114   -125.63024    213.87504    -3702.376 
 9417000    268.29882   -3835.9881   -3376.1331   -3835.9881            0   -3396.3829    18.845158    22.197106    22.991048    9617.3387   -2096.4716   -3413.5193   -4679.1579   -357.07838    585.10884   -291.42276   -3852.5065 
 9418000    303.96564   -3827.9237    -3306.937   -3827.9237            0   -2410.7864    18.873492    22.230481    23.025617    9660.7846   -3554.9511   -1037.6196   -2639.7885     814.3336    253.74492   -402.18243    -3646.599 
 9419000    277.42193   -3775.3105   -3299.8188   -3775.3105            0   -2626.7931    19.031401    22.416477    23.218265    9905.3057    -3094.724   -2539.1544   -2246.5008   -479.02523   -1239.0022     358.7296    -3679.282 
 9420000     280.4329   -3822.1719   -3341.5195   -3822.1719            0   -2888.7279    19.000478    22.380054    23.180539    9857.1008   -4276.8925   -2615.8893   -1773.4018     67.32637    -462.0638    -234.4256   -3756.7906 
 9421000    268.76645   -3820.6177   -3359.9612   -3820.6177            0   -2145.3422    19.008598    22.389618    23.190445    9869.7434   -3015.4924   -1940.6365   -1479.8976    425.00576    187.23063   -1245.5399    -3668.762 
 9422000    274.86788   -3837.7595   -3366.6454   -3837.7595            0   -946.98342    18.849537    22.202265    22.996391    9624.0453   -1370.0208   -1736.0623    265.13286    784.06536   -312.50329   -44.303306    -3499.561 
 9423000    282.08843   -3843.7874   -3360.2975   -3843.7874            0   -3339.5443    19.049031    22.437242    23.239773     9932.858   -2402.2496   -4359.7615   -3256.6217   -150.52441   -728.40855    698.29552   -3844.0657 
 9424000    264.35685   -3831.4814   -3378.3828   -3831.4814            0   -3135.3157    18.986573    22.363675    23.163575    9835.4752   -2653.5429   -3428.8472   -3323.5572   -35.990955   -647.21164    399.65882   -3828.1135 
 9425000    285.56867   -3816.1523   -3326.6973   -3816.1523            0    -1486.975     18.90745    22.270478    23.067045     9713.024    -865.9388   -1103.4563     -2491.53     693.5188   -28.740526    561.25747    -3537.334 
 9426000    281.41975   -3867.5947   -3385.2508   -3867.5947            0   -1523.8421    18.852799    22.206107    23.000371    9629.0424     -2226.05   -1067.7601   -1277.7161    912.27474    1173.9706    831.85647   -3599.2435 
 9427000    282.41041   -3827.2563   -3343.2145   -3827.2563            0   -1945.5245    18.958843    22.331013    23.129744    9792.4433   -2258.6477   -1961.7762   -1616.1495    325.76113    410.74754    620.93495   -3621.0602 
 9428000    288.97478   -3831.5066   -3336.2137   -3831.5066            0   -1970.2831    18.961945    22.334667    23.133529    9797.2514   -3843.0239   -1896.9091   -170.91613     325.3398   -691.02953   -905.34353   -3617.7334 
 9429000    270.51821   -3805.6002   -3341.9412   -3805.6002            0   -2583.7472    19.010618    22.391997     23.19291    9872.8905   -3985.4559   -1953.4358   -1812.3499    95.531287    802.22732    1823.9955   -3713.9646 
 9430000    287.14751   -3841.9897   -3349.8287   -3841.9897            0   -2777.3199    18.951062    22.321848    23.120252     9780.392   -2293.5033   -2857.7348   -3180.7215    716.30697   -159.89983    799.64435   -3745.9772 
 9431000    280.50903   -3836.7545   -3355.9716   -3836.7545            0   -1663.8237    18.833225    22.183051     22.97649    9599.0807   -2095.7754   -1933.6936   -962.00221   -1060.1554    582.60365   -531.93013   -3588.8948 
 9432000    278.78931   -3790.2462   -3312.4109   -3790.2462            0   -1925.0829     18.94854    22.318877    23.117174    9776.4874   -852.34156   -1863.4213    -3059.486    -982.6175    446.48752    456.20402   -3586.8893 
 9433000    273.68428   -3839.6049   -3370.5194   -3839.6049            0   -2895.4888    18.988113    22.365489    23.165453    9837.8684   -2138.9498   -2598.1684   -3949.3482   -184.75181    428.05409    1602.9446   -3785.9503 
 9434000    277.90145    -3874.919   -3398.6054    -3874.919            0   -1666.7029     18.79448    22.137415    22.929221    9539.9592   -2015.2277   -1624.8897   -1359.9912      244.018   -195.90657     707.0494   -3630.4946 
 9435000    284.21036   -3810.7438    -3323.617   -3810.7438            0   -1792.4523    18.981974    22.358259    23.157965    9828.3304   -1522.3953   -1752.3857    -2102.576    1168.3363     186.2334    450.65741   -3580.5402 
 9436000    296.25149   -3834.3935   -3326.6286   -3834.3935            0    -2191.416    19.037133    22.423228    23.225258    9914.2583   -2452.2797   -2692.9774    -1428.991    587.06929    280.69805   -494.21526   -3643.4839 
 9437000    275.98771    -3861.417   -3388.3835    -3861.417            0   -2241.2385    18.929782    22.296783     23.09429    9747.4818   -1947.8708   -2822.7123   -1953.1323    1007.1894    48.323067    515.92662   -3706.9913 
 9438000    287.92044   -3826.6128    -3333.127   -3826.6128            0    -2080.167    18.970448    22.344682    23.143903    9810.4376   -3375.3308   -1264.5695   -1600.6006   -382.94141    667.20002   -1238.6898   -3630.7473 
 9439000    266.88508    -3831.004   -3373.5721    -3831.004            0   -3057.6774    19.098637    22.495671    23.300292    10010.659   -2574.0714   -3812.9461   -2786.0146    345.71856    214.65403    84.500865   -3819.9783 
 9440000    282.64344   -3789.5934   -3305.1522   -3789.5934            0   -2429.6991    18.947587    22.317754    23.116012    9775.0121    -3364.895   -3561.4197   -362.78252   -200.84475   -58.595989    204.90739   -3651.5265 
 9441000    276.13243   -3804.3132   -3331.0317   -3804.3132            0   -2271.6791    18.929984     22.29702    23.094536    9747.7934   -1492.9931   -3020.2896   -2301.7548    313.33089     34.54434    519.46721   -3653.9772 
 9442000    297.97207   -3837.9267   -3327.2128   -3837.9267            0   -2360.9246    19.029022    22.413674    23.215362    9901.5913   -3327.2154   -1805.4915   -1950.0669   -831.13222   -220.12681   -909.44421   -3668.1411 
 9443000    279.65241   -3793.7598   -3314.4452   -3793.7598            0   -3350.1145    19.052687    22.441548    23.244233    9938.5785   -3952.0257   -3680.4955   -2417.8224    398.44028    342.02286   -1034.2803   -3800.0241 
 9444000    285.19036   -3803.4672   -3314.6607   -3803.4672            0    -2740.867    19.016726    22.399191    23.200361    9882.4089   -2653.9189   -3502.9715   -2065.7105    165.38259      1070.36    196.42949   -3709.6875 
 9445000    275.52591   -3833.6827   -3361.4408   -3833.6827            0   -2210.7108    18.960005    22.332382    23.131162    9794.2446    -1338.605   -2372.3015   -2921.2258   -736.81426    349.06314    -437.6444   -3677.2165 
 9446000    285.49726   -3793.8017   -3304.4692   -3793.8017            0   -1906.3417    18.941367    22.310428    23.108423    9765.3888   -2015.8116   -1058.6818   -2644.5316    278.52004   -210.17464    37.557538   -3575.9669 
 9447000    272.89034   -3817.1566   -3349.4319   -3817.1566            0   -1153.6162     18.93326    22.300879    23.098532    9752.8547   -400.42518   -2492.5571   -567.86624    123.89427    290.32744   -39.836157   -3513.5169 
 9448000    275.08945   -3796.7561   -3325.2622   -3796.7561            0   -1971.0406    18.950591    22.321293    23.119677    9779.6622   -2404.7881   -2746.8839   -761.44968   -83.263634    804.70621   -293.60255   -3606.3845 
 9449000    288.84123    -3780.607    -3285.543    -3780.607            0   -2324.8472      18.9774     22.35287    23.152384    9821.2264   -2038.4678    -2338.668   -2597.4059    738.83718   -21.898329    251.10282   -3618.5367 
 9450000    269.42991   -3765.9108   -3304.1172   -3765.9108            0     -2227.45    19.128052    22.530319    23.336179    10056.986   -2137.8965   -2486.3814   -2058.0722    73.201644    332.33903    273.93474   -3630.8191 
 9451000    278.19192   -3773.3894   -3296.5779   -3773.3894            0   -2859.1098    19.067207    22.458652    23.261948    9961.3191   -2621.6025   -3820.3329   -2135.3941    662.91606    533.30072   -1233.0852   -3711.9369 
 9452000    280.85979   -3781.2567   -3299.8726   -3781.2567            0   -2899.0276    19.106101    22.504464    23.309399    10022.402   -4270.5944   -2636.1927   -1790.2958   -286.89066   -614.72569    7.6096597   -3723.6132 
 9453000    267.83523   -3844.4259   -3385.3655   -3844.4259            0   -2567.4473        19.02    22.403047    23.204355    9887.5138   -1988.0222   -3252.7012   -2461.6186    1837.3622   -621.21658   -259.09874   -3755.5895 
 9454000    264.84331   -3810.1999   -3356.2676   -3810.1999            0   -1739.5224    19.012491    22.394204    23.195195    9875.8091   -1914.7423    -3162.352   -141.47302    75.033834   -271.02306   -331.65316   -3606.8085 
 9455000    275.22013   -3848.9528   -3377.2349   -3848.9528            0   -3085.4641    18.993829    22.372221    23.172427    9846.7553   -2702.9396   -3243.5893   -3309.8633     423.4716    469.74724    279.55479   -3820.3224 
 9456000    285.31991   -3872.4689   -3383.4404   -3872.4689            0   -1500.4349    18.964299     22.33744    23.136401     9800.901   -1725.6595   -1845.5399   -930.10536    832.96515    174.02407     562.4921   -3597.9067 
 9457000    278.65301   -3833.8608    -3356.259   -3833.8608            0   -2606.6258     18.99476    22.373318    23.173563    9848.2035   -1876.9537   -3834.8386    -2108.085    321.30588   -435.09034   -352.58455   -3730.6381 
 9458000    270.96899    -3765.315   -3300.8834    -3765.315            0   -3163.3348     19.12453     22.52617    23.331882    10051.431   -2750.2321   -3298.3703    -3441.402    429.17671    722.92371    16.358013   -3764.5961 
 9459000    273.83296   -3827.8382   -3358.4979   -3827.8382            0    -1729.567    18.952773    22.323863    23.122339     9783.041   -786.34065   -2848.3976   -1553.9626   -683.83232     193.2157   -405.90272   -3605.2649 
 9460000    291.77067   -3795.5433   -3295.4584   -3795.5433            0   -2042.6905     18.84322    22.194825    22.988685    9614.3731   -1408.0857   -1818.1435   -2901.8423    106.80415    281.46559    1045.1909   -3581.8758 
 9461000    277.10703   -3837.3747   -3362.4228   -3837.3747            0   -1597.4417    18.952662    22.323732    23.122203    9782.8689    -2351.263   -1597.5594    -843.5027   -216.62273     248.5652   -675.60616   -3590.3347 
 9462000     274.0649   -3808.7642   -3339.0263   -3808.7642            0   -1460.8074    18.892598    22.252985    23.048925    9690.1527   -766.84846   -1755.4393   -1860.1344   -595.95429     1051.344   -640.24714    -3545.469 
 9463000    293.01395   -3763.9746   -3261.7587   -3763.9746            0   -2031.6153     19.07474    22.467524    23.271138     9973.129   -2239.0015   -1186.2186   -2669.6258   -105.25655     710.0228   -675.57038   -3557.2528 
 9464000    281.54546    -3795.924   -3313.3647    -3795.924            0   -2787.1605    19.045931    22.433591    23.235992    9928.0104   -2930.6534   -1828.4328   -3602.3953   -450.80671    1181.4751   -492.58927   -3716.9172 
 9465000    254.04803     -3814.43   -3379.0004     -3814.43            0   -2621.5234    19.076784    22.469931    23.273632    9976.3357   -2634.1193   -1827.2158   -3403.2352    189.04607    1397.6546   -500.54874   -3760.4179 
 9466000    281.71557   -3830.6786   -3347.8277   -3830.6786            0   -2245.5774     18.97592    22.351128    23.150579    9818.9296   -2358.2618   -1972.1945   -2406.2758    811.37003   -283.18564    402.55965   -3669.3922 
 9467000    267.33102   -3842.0333   -3383.8371   -3842.0333            0    -2249.621    18.863267    22.218437    23.013142    9645.0907    -2006.826   -2254.3679    -2487.669   -629.22175    933.77907   -606.05523   -3700.2773 
 9468000    275.78105   -3822.7477   -3350.0684   -3822.7477            0   -2716.1746    18.922288    22.287956    23.085147    9735.9097   -2436.6785   -1726.0416   -3985.8037    52.942684    76.785744    1232.7802   -3735.7333 
 9469000    275.72748   -3793.1304   -3320.5429   -3793.1304            0   -2853.7823    18.930369    22.297475    23.095006    9748.3891   -4007.8852   -1860.9619   -2692.4997    181.26732   -447.52485    259.82437   -3726.2659 
 9470000    265.60266    -3830.368   -3375.1342    -3830.368            0   -2558.9639    18.854021    22.207546    23.001861    9630.9144   -2557.4433   -3777.1055   -1342.3428    2.9549713    658.74705    1263.2329   -3734.5586 
 9471000    277.60346   -3820.0968    -3344.294   -3820.0968            0   -3081.6611    18.948498    22.318828    23.117123    9776.4224   -3278.5757   -3096.9044   -2869.5031   -647.07498   -164.07613    339.32846   -3783.6744 
 9472000    286.34637   -3856.5734   -3365.7855   -3856.5734            0   -177.28088    18.914528    22.278815     23.07568    9723.9361   -216.57249    565.01233   -880.28247   -51.580461    177.04506   -459.43998   -3390.9264 
 9473000    279.40963   -3830.0246   -3351.1261   -3830.0246            0   -2553.7155    19.029002    22.413651    23.215338    9901.5598   -3791.3471    -1841.516   -2028.2833    694.76174    944.61106    210.93856    -3719.893 
 9474000     279.0908   -3814.8572   -3336.5051   -3814.8572            0   -796.04093    18.962934    22.335832    23.134736    9798.7848   -1709.1793   -351.62055    -327.3229     538.6939   -398.08641   -148.99675   -3450.2635 
 9475000    271.05849   -3844.8355   -3380.2505   -3844.8355            0   -1002.9976    18.909224    22.272568    23.069209    9715.7589    562.92449   -1660.3142   -1911.6032   -423.23639    734.87999    305.07197   -3522.3696 
 9476000    276.41042   -3832.0497   -3358.2917   -3832.0497            0   -1125.5078    18.920851    22.286263    23.083393     9733.691    235.22947   -1981.1923   -1630.5607   -325.32145    193.16353    83.103693   -3518.0642 
 9477000    293.68636   -3769.7285   -3266.3601   -3769.7285            0   -1204.8223    19.073113    22.465608    23.269154    9970.5785   -437.24603   -1329.7175   -1847.5033   -1124.6337    336.61279    359.66652   -3441.5541 
 9478000    273.80795   -3775.9551   -3306.6577   -3775.9551            0   -1920.8646    18.998499    22.377722    23.178124      9854.02   -1519.2403   -2514.2239   -1729.1297    614.54894    268.24468    1132.7348   -3582.7066 
 9479000    279.51976   -3806.6723    -3327.585   -3806.6723            0    -981.9081      18.8498    22.202575    22.996712    9624.4479   -118.97471   -1664.9009   -1161.8487   -221.07514    1109.3281    48.644769   -3465.4082 
 9480000    282.32663   -3762.9119   -3279.0137   -3762.9119            0    -2249.708    18.963852    22.336913    23.135855    9800.2075   -2980.0514   -1805.9437    -1963.129   -931.24143   -965.11917    84.242585   -3600.5554 
 9481000    273.80193   -3792.1884   -3322.9012   -3792.1884            0   -2114.1385    19.001193    22.380895    23.181411    9858.2123   -1868.1902   -1623.4952   -2850.7301    411.34106   -697.67049   -1436.8468    -3626.855 
 9482000    270.55363   -3810.3917   -3346.6721   -3810.3917            0   -1054.9537    18.951983    22.322933    23.121375    9781.8178    735.69113   -2155.4799   -1745.0724     61.78094   -591.54387   -227.58385   -3497.1694 
 9483000      281.979   -3818.2127   -3334.9104   -3818.2127            0    -1796.649     18.95759    22.329537    23.128216    9790.5022   -1355.4152   -2030.3003   -2004.2316   -347.21706    231.84146    439.98264   -3591.4439 
 9484000    292.07273   -3817.7864   -3317.1838   -3817.7864            0    -1911.384    18.885417    22.244527    23.040165    9679.1082   -937.86206   -1493.6867   -3302.6031    120.37988   -753.12842    537.78088   -3586.9945 
 9485000    270.75395   -3841.5449   -3377.4819   -3841.5449            0   -3160.0745    18.995869    22.374624    23.174915    9849.9281   -3859.2376   -2947.2447   -2673.7412    -1034.041    386.28419    371.39587   -3831.4301 
 9486000     291.6475   -3856.5621   -3356.6883   -3856.5621            0   -1965.5961     18.94813    22.318394    23.116674    9775.8523   -2128.6925   -1397.5146   -2370.5811   -49.509026    309.93547   -139.81842   -3636.9248 
 9487000    279.67638   -3832.2542   -3352.8984   -3832.2542            0    -3030.237    18.961895    22.334608    23.133468    9797.1737   -2705.1642   -3706.6619   -2678.8849   -112.44174    822.45695    192.09954   -3785.8639 
 9488000    281.06422    -3786.295   -3304.5606    -3786.295            0   -1890.5867    18.993832    22.372226    23.172431    9846.7607   -725.53229   -2619.4695   -2326.7584   -100.47601    252.49826   -545.29452   -3576.0581 
 9489000     278.9016   -3808.6226   -3330.5948   -3808.6226            0    -2329.946    18.973919     22.34877    23.148137    9815.8228    -1863.145   -2762.1539   -2364.5391   -55.696256    745.39816   -103.38935   -3664.1352 
 9490000    272.64652   -3791.7301   -3324.4233   -3791.7301            0   -2760.4909    18.993558    22.371903    23.172097    9846.3346   -3134.7454   -2254.5243   -2892.2031    587.87065    201.21908    642.33578   -3720.8261 
 9491000    263.43508   -3813.7299   -3362.2112   -3813.7299            0   -2945.3541    18.989372    22.366972    23.166989    9839.8253   -2686.0436   -2208.2762   -3941.7427   -58.239446   -119.69277   -416.02637   -3784.8806 
 9492000    284.57129   -3796.4464    -3308.701   -3796.4464            0   -1584.0299    19.041792    22.428715    23.230941    9921.5383   -1752.8438   -2034.6495   -964.59648    406.80255   -752.64055   -250.55781   -3537.9029 
 9493000    287.54856   -3792.1315   -3299.2831   -3792.1315            0   -2069.3603    18.988558    22.366013    23.165997    9838.5606   -1981.9502   -834.70365   -3391.4269    270.92593   -187.42091    675.13082   -3596.2059 
 9494000    277.29634   -3815.4692   -3340.1927   -3815.4692            0   -1718.9879    18.795524    22.138645    22.930495    9541.5494   -1050.9433   -1077.6575    -3028.363    728.92608    -761.3098   -826.61184   -3579.3963 
 9495000    288.94595   -3769.9252   -3274.6817   -3769.9252            0    -4001.242    18.949409      22.3199    23.118234    9777.8322   -3360.8958   -4545.7738   -4097.0563   -406.74015   -112.60074   -386.70856   -3845.2574 
 9496000    267.45289    -3745.203   -3286.7979    -3745.203            0   -3238.2463    18.983631     22.36021    23.159986    9830.9038   -3917.0635   -2501.3413   -3296.3341    425.07951   -461.94841    414.40904   -3751.0771 
 9497000    268.16792   -3763.0641   -3303.4335   -3763.0641            0   -2063.8794    18.907793    22.270882    23.067463    9713.5523   -2065.1543   -2923.5943   -1202.8896   -381.52011    903.80961   -137.70843   -3595.8072 
 9498000    291.99466   -3771.7686   -3271.2998   -3771.7686            0    -1441.083    18.835406    22.185621    22.979152    9602.4173   -891.14221   -2377.9241   -1054.1829    1166.3587    78.283785    -731.1333   -3473.1111 
 9499000    276.91937   -3824.4935   -3349.8632   -3824.4935            0   -1454.8472    18.889134    22.248904    23.044699    9684.8233    202.91487   -2687.0277   -1880.4287    133.97524    204.90991    147.90867   -3555.3505 
 9500000    278.57804   -3763.9612    -3286.488   -3763.9612            0    -1802.024    18.937554    22.305937    23.103772    9759.4927    -1507.344   -2610.4649   -1288.2632    1014.5798   -1031.5275   -1641.9023    -3542.974 
Loop time of 466.967 on 64 procs for 250000 steps with 864 atoms

Performance: 92.512 ns/day, 0.259 hours/ns, 535.369 timesteps/s
354.7% CPU use with 16 MPI tasks x 4 OpenMP threads

MPI task timing breakdown:
Section |  min time  |  avg time  |  max time  |%varavg| %total
---------------------------------------------------------------
Pair    | 25.063     | 26.7       | 31.605     |  35.8 |  5.72
Bond    | 1.7502     | 1.9509     | 2.6397     |  16.9 |  0.42
Kspace  | 233.71     | 239.79     | 244.17     |  18.8 | 51.35
Neigh   | 3.997      | 4.0847     | 4.2039     |   2.7 |  0.87
Comm    | 68.696     | 80.381     | 89.339     |  59.8 | 17.21
Output  | 0.60343    | 0.60368    | 0.60486    |   0.0 |  0.13
Modify  | 78.109     | 89.77      | 100.86     |  58.7 | 19.22
Other   |            | 23.69      |            |       |  5.07

Nlocal:        54.0000 ave          62 max          46 min
Histogram: 2 1 1 2 0 5 2 0 1 2
Nghost:        2417.25 ave        2470 max        2351 min
Histogram: 2 0 1 1 3 2 1 2 3 1
Neighs:        12661.4 ave       15806 max        9964 min
Histogram: 1 2 1 1 5 3 0 1 1 1

Total # of neighbors = 202583
Ave neighs/atom = 234.47106
Ave special neighs/atom = 2.0000000
Neighbor list builds = 14889
Dangerous builds = 0

unfix		3
unfix		2
unfix		1

write_data	data.final.${pid}
write_data	data.final.1
System init for write_data ...
PPPM initialization ...
  extracting TIP4P info from pair style
  using 12-bit tables for long-range coulomb (../kspace.cpp:340)
  G vector (1/distance) = 0.37065582
  grid = 24 25 27
  stencil order = 5
  estimated absolute RMS force accuracy = 0.0032575385
  estimated relative force accuracy = 9.8099805e-06
  using double precision FFTW3
  3d grid and FFT values/proc = 5700 1200
Last active /omp style is kspace_style pppm/tip4p/omp
WARNING: Not all mixed pair coeffs generated from mixing. Use write_data with 'pair ij' option to store all pair coeffs. (../write_data.cpp:312)

write_restart   restart.lmp.${pid}
write_restart   restart.lmp.1
System init for write_restart ...
PPPM initialization ...
  extracting TIP4P info from pair style
  using 12-bit tables for long-range coulomb (../kspace.cpp:340)
  G vector (1/distance) = 0.37065582
  grid = 24 25 27
  stencil order = 5
  estimated absolute RMS force accuracy = 0.0032575385
  estimated relative force accuracy = 9.8099805e-06
  using double precision FFTW3
  3d grid and FFT values/proc = 5700 1200
Last active /omp style is kspace_style pppm/tip4p/omp
Total wall time: 0:07:47
