LAMMPS (30 Jul 2021)
Processor partition = 0
  using 2 OpenMP thread(s) per MPI task
using multi-threaded neighbor list subroutines
variable        pid world 0 1
variable        phase world IceII IceIh

shell cd ${phase}
shell cd IceII
include Restart.lmp
echo both
log log.lammps
#include		in.partitions
include		in.temp
variable        temperature equal 190.10
variable	tempDamp equal 100.0
include		in.pressure
variable        pressure equal 2091.6
variable        pressureDamp equal 1000.0 # This is 1 ps
include		in.seed
variable        seed equal 745823

units		real
atom_style	full
box tilt large
read_restart	restart.lmp.${pid}
read_restart	restart.lmp.0
Reading restart file ...
  restart file = 30 Jul 2021, LAMMPS = 30 Jul 2021
  restoring atom style full from restart
  triclinic box = (-10.739788 -9.2086991 -0.017433829) to (12.719788 12.198697 21.877433) with tilt (-9.2639480 2.0000832 2.8817119)
  4 by 2 by 4 MPI processor grid
  restoring pair style lj/cut/tip4p/long/omp from restart
  restoring bond style harmonic/omp from restart
  restoring angle style harmonic/omp from restart
  1296 atoms
  864 bonds
  432 angles
Finding 1-2 1-3 1-4 neighbors ...
  special bond factors lj:    0        0        0       
  special bond factors coul:  0        0        0       
     2 = max # of 1-2 neighbors
     1 = max # of 1-3 neighbors
     1 = max # of 1-4 neighbors
     2 = max # of special neighbors
  special bonds CPU = 0.002 seconds
  read_restart CPU = 0.009 seconds
include 	in.setup
variable	out_freq equal 1000
variable	out_freq2 equal 10000
variable	out_freq3 equal 1000

timestep	2.0

neigh_modify    delay 7 every 1

include		in.tip4p
# This is TIP4P/Ice

# create groups ###
group ox type 2
432 atoms in group ox
group hy type 1
864 atoms in group hy

# set charges - beside manually ###
set group ox charge -1.1794
Setting atom values ...
  432 settings made for charge
set group hy charge 0.5897
Setting atom values ...
  864 settings made for charge

# ### TIP3P Potential Parameters ###
pair_style lj/cut/tip4p/long/omp 2 1 1 1 0.1577 8.5
pair_coeff 1 1*2 0.000 0.000
pair_coeff 2 2 0.21084 3.1668
bond_style  harmonic
bond_coeff  1 450 0.9572
angle_style harmonic
angle_coeff 1 55 104.52
kspace_style pppm/tip4p/omp 1.0e-5
pair_modify tail yes

thermo          ${out_freq}
thermo          1000
thermo_style    custom step temp pe etotal epair emol press lx ly lz vol pxx pyy pzz pxy pxz pyz enthalpy

restart 	${out_freq3} restart.lmp.${pid} restart2.lmp.${pid}
restart 	1000 restart.lmp.${pid} restart2.lmp.${pid}
restart 	1000 restart.lmp.0 restart2.lmp.${pid}
restart 	1000 restart.lmp.0 restart2.lmp.0


include         in.dump
dump            myDump all atom ${out_freq2} dump.water.${pid}
dump            myDump all atom 10000 dump.water.${pid}
dump            myDump all atom 10000 dump.water.0
dump            myDump2 all dcd ${out_freq2} dump.dcd
dump            myDump2 all dcd 10000 dump.dcd
dump_modify     myDump append yes
dump_modify     myDump2 append yes


variable natoms 	equal  "count(all)"                        # NUMBER ATOMS
variable H      	equal  "enthalpy/v_natoms"                 # ENTHALPY-per-atom
variable Vol      	equal  "vol/v_natoms"                 # volume-per-atom
fix AVG all 		ave/time ${out_freq} 1 ${out_freq} v_Vol v_H file vol_enthalpy.dat
fix AVG all 		ave/time 1000 1 ${out_freq} v_Vol v_H file vol_enthalpy.dat
fix AVG all 		ave/time 1000 1 1000 v_Vol v_H file vol_enthalpy.dat


timer           timeout 10:00:00 every 1000
New timer settings: style=normal  mode=nosync  timeout=10:00:00

fix 		1 all shake 1e-6 200 0 b 1 a 1
Finding SHAKE clusters ...
       0 = # of size 2 clusters
       0 = # of size 3 clusters
       0 = # of size 4 clusters
     432 = # of frozen angles
  find clusters CPU = 0.002 seconds
fix             2 all nph tri ${pressure} ${pressure} ${pressureDamp}
fix             2 all nph tri 2091.6 ${pressure} ${pressureDamp}
fix             2 all nph tri 2091.6 2091.6 ${pressureDamp}
fix             2 all nph tri 2091.6 2091.6 1000
fix             3 all temp/csvr ${temperature} ${temperature} ${tempDamp} ${seed}
fix             3 all temp/csvr 190.1 ${temperature} ${tempDamp} ${seed}
fix             3 all temp/csvr 190.1 190.1 ${tempDamp} ${seed}
fix             3 all temp/csvr 190.1 190.1 100 ${seed}
fix             3 all temp/csvr 190.1 190.1 100 745823


run             250000
PPPM initialization ...
  extracting TIP4P info from pair style
  using 12-bit tables for long-range coulomb (../kspace.cpp:340)
  G vector (1/distance) = 0.36651027
  grid = 27 40 32
  stencil order = 5
  estimated absolute RMS force accuracy = 0.0046891194
  estimated relative force accuracy = 1.4121144e-05
  using double precision FFTW3
  3d grid and FFT values/proc = 7395 1120
Last active /omp style is kspace_style pppm/tip4p/omp
Neighbor list info ...
  update every 1 steps, delay 7 steps, check yes
  max neighbors/atom: 2000, page size: 100000
  master list distance cutoff = 10.8154
  ghost atom cutoff = 10.8154
  binsize = 5.4077, bins = 7 5 5
  1 neighbor lists, perpetual/occasional/extra = 1 0 0
  (1) pair lj/cut/tip4p/long/omp, perpetual
      attributes: half, newton on, omp
      pair build: half/bin/newton/tri/omp
      stencil: half/bin/3d/tri
      bin: standard
Setting up Verlet run ...
  Unit style    : real
  Current step  : 10250000
  Time step     : 2
  Walltime left : 9:59:59.92
Per MPI rank memory allocation (min/avg/max) = 10.59 | 10.61 | 10.63 Mbytes
Step Temp PotEng TotEng E_pair E_mol Press Lx Ly Lz Volume Pxx Pyy Pzz Pxy Pxz Pyz Enthalpy 
10250000    197.39966   -6479.8623   -5972.0637   -6479.8623            0    1698.9556    23.459577    21.407396    21.894867    10995.787    2230.0891    1266.5896    1600.1882    -144.7012   -296.79911   -451.60485   -5699.6153 
10251000    192.85957   -6505.5613   -6009.4418   -6505.5613            0    1097.6241    23.179459    21.604399    21.979885    11007.049    2811.8506    929.11879   -448.09699   -206.70311   -1427.4019    369.94122    -5833.244 
10252000    199.61754     -6518.85   -6005.3461     -6518.85            0    1431.0509    23.254934     21.49146    21.973037    10981.739    2565.5579    1309.6057    417.98904   -29.015852   -454.62167   -148.31457   -5776.1527 
10253000    185.82011   -6487.4395   -6009.4286   -6487.4395            0    2192.6428    23.355083    21.413427    21.908533    10956.728    2797.9693    1983.7399    1796.2191    262.01828    683.96581   -1131.1781   -5659.0604 
10254000    177.93926   -6496.7618   -6039.0238   -6496.7618            0     2829.191    23.316468    21.490808    21.783556    10915.517    2960.0494    3410.4415    2117.0821   -1026.8965   -64.353989    336.37081   -5588.6404 
10255000    188.74073   -6496.5527   -6011.0287   -6496.5527            0    1306.3222    23.396469    21.499591    21.871901    11001.884     1585.493    1647.1587    686.31493    155.40488   -961.91396    798.83254   -5801.4277 
10256000    195.10555   -6492.3319   -5990.4348   -6492.3319            0    2856.7573    23.444205    21.545317    21.640809     10931.05    2530.6434    2697.4518    3342.1768    -688.9737   -872.53617   -175.45644   -5535.0158 
10257000      182.645   -6484.5588   -6014.7157   -6484.5588            0    2191.4506    23.405795    21.307479     21.97033     10957.01    2194.7489    3193.4887    1186.1142   -556.87407     299.6725    152.79939    -5664.529 
10258000    196.25902   -6509.3037   -6004.4393   -6509.3037            0    2804.7922    23.248669    21.542815    21.847593    10942.187    3210.6536    2592.4406    2611.2824   -813.15742    849.25719   -299.02026   -5556.8489 
10259000    197.98226   -6483.2529   -5973.9556   -6483.2529            0    2325.7854    23.348924     21.51923    21.851762    10979.437    2320.5716    1665.2409    2991.5438    232.08257    998.55023     679.9272   -5601.5419 
10260000    197.08857   -6506.4926   -5999.4942   -6506.4926            0    1468.6729    23.453706    21.446538    21.798345    10964.585    555.03315    1922.9144    1928.0711     150.8183   -119.69865    232.70358   -5764.6428 
10261000    195.69564   -6511.1884   -6007.7733   -6511.1884            0    1808.3737    23.306425    21.624435    21.746616     10960.04    2161.5907    1244.5479    2018.9824   -831.72593   -365.65286    626.56781   -5718.7212 
10262000    197.17101   -6484.2351   -5977.0247   -6484.2351            0    1610.5602    23.376515    21.475617    21.874557    10981.577    1345.6411    1529.2031    1956.8364    445.28628    641.31173    1122.7938   -5719.0853 
10263000    190.76536   -6479.3294   -5988.5972   -6479.3294            0    1401.5889    23.558509     21.46092     21.77022    11006.747  -0.86113858    2904.5581    1301.0698   -344.78873   -24.290661   -616.22374   -5763.6112 
10264000    190.15344   -6514.3744   -6025.2163   -6514.3744            0    2023.3168    23.311315    21.567029    21.751412    10935.649    2326.5029    372.04237    3371.4052     178.5352    312.53187    1588.1722   -5702.5272 
10265000    195.46696   -6506.0232   -6003.1963   -6506.0232            0    2228.5707    23.491012    21.481782      21.7033     10952.11    1719.9778    2077.9847    2887.7495   -78.381234   -1041.4445   -255.86881   -5647.2373 
10266000    187.00386   -6494.0648   -6013.0088   -6494.0648            0    352.18045    23.554152    21.462332    21.864516    11053.104   -230.23136    831.54545    455.22725   -66.437586   -60.668513    625.35079   -5956.2379 
10267000    194.34404   -6502.1384   -6002.2002   -6502.1384            0    2153.1801    23.218607    21.639442    21.779869    10943.027    3073.1993    1308.8492    2077.4918   -1082.6553     225.3106   -511.17929   -5658.5681 
10268000     189.0617   -6521.3617    -6035.012   -6521.3617            0    2306.8129    23.483421    21.502023      21.7031    10958.787    527.48717    2516.8844    3876.0671   -355.92696    812.68324    493.45233    -5666.331 
10269000    188.15033   -6496.4775   -6012.4722   -6496.4775            0    2425.3394    23.456806     21.33475    21.853823    10936.638    1355.0704    3948.7537    1972.1942   -755.32414    -118.0752    490.21874   -5625.6314 
10270000    177.10327   -6478.0256   -6022.4382   -6478.0256            0    1682.3129    23.354157    21.626317    21.735175    10977.663    1110.7406    1672.9666    2263.2317    23.724272    545.40524    -149.5322   -5753.1034 
10271000    186.61045   -6513.5092   -6033.4652   -6513.5092            0    1795.7257    23.482394    21.432804    21.784792    10964.145    681.05026    2744.1272    1961.9996    582.40332   -285.56067    132.58474   -5746.3272 
10272000    191.35277   -6492.7412   -6000.4978   -6492.7412            0    3354.2562    23.364512    21.412378    21.812267    10912.454    3127.7855    4355.5856    2579.3976    117.61872   -153.71352    905.51732   -5466.6782 
10273000    189.35344   -6504.7758   -6017.6756   -6504.7758            0    2867.9973     23.20466    21.673276    21.669661    10898.128    2682.3757      2032.56    3889.0561    385.58532   -127.24765   -2.9417248   -5561.8418 
10274000    208.20065   -6489.1778   -5953.5943   -6489.1778            0    1257.1133    23.463204    21.433543    21.902356    11014.686   -226.09218    3005.7083    991.72363    1333.8948   -291.76427    -32.34378   -5751.6543 
10275000    191.87102   -6468.9717   -5975.3952   -6468.9717            0    1663.6897    23.477024     21.46418    21.831063    11001.001    1103.6705     2110.881    1776.5176    437.44667    82.327804   -245.89154   -5708.4756 
10276000    197.57007   -6485.8224   -5977.5854   -6485.8224            0    2906.1156    23.174625    21.571124    21.811715    10903.736    3016.3603    3137.4235    2564.5629    441.50491   -12.864395   -363.54156   -5515.4555 
10277000    187.25854    -6477.603   -5995.8918    -6477.603            0    1867.7118    23.373925    21.382095      21.9734    10981.943    2277.0433    2113.1216    1212.9704   -444.14795    430.30795   -535.42841   -5696.7584 
10278000     189.7056   -6516.9619   -6028.9558   -6516.9619            0     1985.081    23.507056    21.363656    21.814721     10955.28    1399.6723    3561.9159     993.6547    149.73619   -832.22917   -1427.3801   -5711.7964 
10279000    184.75539    -6497.319    -6022.047    -6497.319            0    2306.0921    23.356589    21.551497    21.750413    10948.494    1974.2063     1297.255    3646.8149   -254.05744   -286.35747    255.25586   -5653.8274 
10280000    200.54588   -6494.2113   -5978.3193   -6494.2113            0    1963.6491    23.446464    21.520859     21.74846    10974.013    2505.3274    1168.1054    2217.5146    352.78207   -596.97474   -352.49811   -5664.0476 
10281000    201.79652   -6498.4033    -5979.294   -6498.4033            0    1370.8297    23.607669     21.45928    21.673987    10980.119   -526.10863    2264.0125    2374.5853    952.26303   -12.567083   -442.66153   -5759.7779 
10282000    197.79592   -6500.6048   -5991.7869   -6500.6048            0    2767.2283    23.361998    21.574259     21.65207    10913.029    2764.4949    2139.2472    3397.9429    -206.9586   -77.932443    618.13868   -5551.3677 
10283000    186.76128    -6489.937    -6009.505    -6489.937            0    1091.8369    23.436447    21.629114    21.696213    10998.019    695.71622    1802.5851     777.2095    602.02621    134.39259   -267.16452     -5834.38 
10284000    189.06264   -6503.9256   -6017.5735   -6503.9256            0    2500.1969    23.510373     21.38716    21.742409     10932.52    1944.9472    2999.8645     2555.779    704.96389    551.63869    101.36239   -5618.9431 
10285000     184.0119   -6502.9131   -6029.5537   -6502.9131            0    902.27762    23.344507    21.682026    21.772898    11020.488    1658.2901    275.75318    772.78958   -26.153988    32.655178    771.41034   -5884.5374 
10286000      189.666    -6512.417   -6024.5128    -6512.417            0    1871.1851    23.283385    21.662653    21.764029    10977.338    1448.8876    2086.0735    2078.5941     737.6633    -333.9624   -344.80747   -5724.9487 
10287000    193.83646   -6497.0322   -5998.3997   -6497.0322            0    2699.0251    23.520409    21.277039    21.845206    10932.317    1687.2672    3862.6857    2547.1223    792.88816    178.95755   -855.18102   -5568.0763 
10288000    194.40899    -6511.317   -6011.2117    -6511.317            0    2166.2393     23.30027    21.544611    21.793368    10940.167    2285.4313     2493.463    1719.8237    1044.6036    401.24214   -279.75976   -5665.5858 
10289000    187.46788    -6485.263   -6003.0133    -6485.263            0    1703.3919     23.27385    21.633223    21.817457    10984.836    2365.9048    1321.6664    1422.6046    457.54148   -654.65098   -702.27624   -5730.1255 
10290000    189.42707   -6501.7077   -6014.4181   -6501.7077            0    3517.8815    23.490152    21.275697    21.758582    10874.272    3939.4978    3463.0771    3151.0696   -14.790177    488.38221   -1272.1745   -5456.5169 
10291000    190.70082   -6514.3329   -6023.7667   -6514.3329            0    2105.0993    23.336259    21.465438    21.847095    10943.713    2422.5085    2145.2627    1747.5267   -667.08028    34.137808   -423.93707   -5687.7869 
10292000     189.1855   -6497.7446   -6011.0764   -6497.7446            0    2637.6153    23.269851    21.562647    21.799816    10938.267    3877.0353    702.85882    3332.9518    732.40938   -363.37194   -105.94405    -5590.315 
10293000    188.90191   -6482.2361   -5996.2974   -6482.2361            0    2504.9344    23.512713    21.335912    21.858482    10965.639    1366.7063    3488.7799    2659.3171    46.964789    163.53146   -174.05608   -5595.7018 
10294000    191.06394    -6491.632   -6000.1316    -6491.632            0    3070.4734    23.322275    21.438266     21.79067    10895.098    2375.6327    3944.5884     2891.199    1349.8263    162.45778   -13.353441   -5512.2524 
10295000    181.03028   -6526.8445   -6061.1552   -6526.8445            0     452.5567    23.266163    21.647805    21.842308    11001.127    708.79973    886.00133   -237.13095   -263.77674    1029.2191   -452.68969   -5988.5469 
10296000    190.16798   -6486.8137   -5997.6182   -6486.8137            0    2815.3139    23.443341    21.373619    21.816937    10931.792    1076.8212     3950.304    3418.8164    370.87941    300.07883    701.72602   -5548.7756 
10297000    186.85409   -6507.2613   -6026.5905   -6507.2613            0    3258.7244    23.257732    21.476599    21.828527    10903.284    4439.6883    3045.2465    2291.2385   -317.23617   -1387.1863   -407.31706   -5508.4103 
10298000    193.08877   -6489.9067   -5993.1976   -6489.9067            0    1210.2021    23.285594    21.632381    21.897238    11030.139    1016.0761    876.25093    1738.2794    794.33106    819.82386   -117.59305   -5798.5206 
10299000    195.85624   -6494.6781   -5990.8499   -6494.6781            0    1396.3559    23.448663    21.457246    21.924731    11031.291    1862.6715    1342.5845    983.81164   -1106.7672   -417.09525   -147.00152   -5766.2041 
10300000    189.63349   -6491.4207   -6003.6001   -6491.4207            0    3311.1324    23.211115    21.569933    21.773689    10901.263    4069.1328    2407.6193    3456.6451   -92.001024   -363.75525    1044.1146   -5477.1839 
10301000    195.85332   -6488.3093   -5984.4885   -6488.3093            0    1528.9962    23.457996    21.425346    21.859511    10986.496    2139.8793    2491.7872   -44.677975    206.77179    591.86234   -1448.8086   -5739.5024 
10302000    189.69972   -6513.5741   -6025.5831   -6513.5741            0    2318.2714    23.324691    21.512112    21.834547    10955.776    2133.0206    2324.8828    2496.9107   -350.46666   -237.54588    414.17654   -5655.1726 
10303000    185.54974    -6505.633   -6028.3176    -6505.633            0    2494.3997    23.361452    21.508378    21.800238    10953.899     2351.415    3070.1122    2061.6718    230.69023    560.07666    854.60146   -5629.8338 
10304000    190.70942   -6487.8024   -5997.2141   -6487.8024            0    501.35411    23.559671    21.554022    21.717134    11028.084   -454.37125   -124.01771    2082.4513    419.54433    834.73719     796.2585   -5916.5796 
10305000    198.69785     -6507.88   -5996.7419     -6507.88            0    3485.6413    23.342202    21.516744     21.69502    10896.285    3246.5013    2893.2656     4317.157    465.33885    801.40622    1305.5381   -5442.8347 
10306000    193.57198   -6479.5579   -5981.6058   -6479.5579            0    2183.7737      23.4727    21.502338    21.685983    10945.305    1064.5997    2383.3397    3103.3816    374.10198    -534.7586   -28.387353   -5633.0186 
10307000    189.30777   -6489.7766   -6002.7939   -6489.7766            0    1647.5691    23.490677    21.586228     21.68994    10998.429    1389.4272    1315.3714    2237.9087   -1126.4971   -442.44985    511.70699   -5738.5225 
10308000    195.30108   -6511.4829   -6009.0828   -6511.4829            0    3216.5149    23.387187    21.460211    21.694733    10888.456    3174.6209    3091.5295    3383.3943    1301.5104    245.28259    291.52349     -5498.31 
10309000    190.95839   -6499.9142   -6008.6854   -6499.9142            0    2365.7458    23.402039    21.478358    21.749438     10932.08    2552.2081    2292.3439    2252.6854    972.69431   -145.20272   -4.1439269   -5631.5071 
10310000    183.39091      -6510.1   -6038.3381      -6510.1            0    1619.1004    23.292373    21.665777    21.785107    10993.797    1650.7263    1560.9963    1645.5787    997.76271    68.935626   -199.93721   -5778.7424 
10311000    190.84662   -6500.5654   -6009.6241   -6500.5654            0    2802.7509    23.407282    21.292422    21.945269    10937.473    3217.3305    3684.1501    1506.7721   -272.06873    699.79934    626.45852   -5562.5522 
10312000    187.75065   -6480.3446   -5997.3675   -6480.3446            0    2196.3086    23.344353    21.520106    21.805993    10954.741    2025.1985    2449.1663    2114.5611   -481.64935   -83.048372    109.11812   -5646.4772 
10313000    202.47699   -6495.4369   -5974.5772   -6495.4369            0    2484.4942    23.274763    21.598103    21.776312     10946.75    3425.8466    1726.4097    2301.2264    1094.4814    -1108.452   -274.65769   -5577.9348 
10314000    182.84601     -6484.42   -6014.0598     -6484.42            0    2665.1621    23.540355    21.351471    21.779762     10946.97     2627.453    3149.8166    2218.2168    -207.9625   -1612.8971   -178.70214   -5588.5658 
10315000    182.91668   -6515.2548   -6044.7128   -6515.2548            0    1430.7716    23.433124    21.499661     21.81408    10990.025    1201.6564    1748.7382    1341.9202   -358.79599    324.40041    17.702078   -5815.3912 
10316000    191.69083   -6475.2225   -5982.1095   -6475.2225            0    1078.8882    23.354424    21.574366    21.865793     11017.23    1768.3643    1022.9988     445.3015     701.9424   -323.09275   -590.86935   -5808.7591 
10317000    186.14204   -6514.9173   -6036.0783   -6514.9173            0     2287.617     23.30577    21.399885    21.913598    10929.205    1995.2723     3021.737    1845.8418   -1321.6564    1662.6991    1188.7571   -5671.4522 
10318000    185.57523   -6508.2236   -6030.8427   -6508.2236            0    2371.6999    23.411136    21.348048    21.870197    10930.332     1498.457    2440.5631    3176.0797      165.504    223.37405    837.81469   -5652.7755 
10319000    185.63228   -6527.1739   -6049.6462   -6527.1739            0    1905.4415    23.302224    21.600179    21.753868    10949.422    1833.3271     1714.583    2168.4144    1164.0988   -987.75289    45.761726   -5745.3737 
10320000    191.07011   -6508.5688   -6017.0526   -6508.5688            0    1863.1324    23.402671    21.433656    21.859882    10965.022    1471.5408    2333.5202    1784.3363   -908.30839     -453.084    800.53846   -5719.1124 
10321000    182.83125   -6473.7032   -6003.3809   -6473.7032            0    2429.6848     23.46455    21.426694    21.821461    10971.126    2053.4663    2181.8834    3053.7047   -474.04648     302.1841     873.6657    -5614.625 
10322000    201.30581   -6479.6413   -5961.7944   -6479.6413            0    2977.3903    23.233684    21.700965    21.678555    10930.184    3271.3665    2002.5079    3658.2965    655.03913   -250.47167   -560.00137    -5487.182 
10323000    184.01162   -6502.5088   -6029.1501   -6502.5088            0    2353.6517     23.37402    21.409853    21.842949    10930.961    1986.9134    3487.6069    1586.4349    1491.9396   -283.46659    148.19551   -5653.9384 
10324000    187.06091   -6498.2333   -6017.0305   -6498.2333            0     2368.106    23.451284    21.431145    21.808888    10960.883     2671.167    1505.8301    2927.3209   -287.84241   -973.52405    246.97571   -5638.4811 
10325000     185.3964   -6485.6401   -6008.7191   -6485.6401            0    2684.9552    23.212179     21.69328     21.73982    10947.049     2950.979     2302.991    2800.8955   -309.29307    675.64469   -1532.7207   -5580.0621 
10326000    194.45218   -6508.0544   -6007.8381   -6508.0544            0    2074.9091    23.496218    21.278342    21.925922    10962.096    2256.2755    2138.6517    1829.8002   -272.08542    85.280969    288.05396   -5676.1204 
10327000    182.67732   -6496.2007   -6026.2744   -6496.2007            0    2462.3022    23.381674    21.502756    21.778979    10949.826    1812.7472    2837.0591    2737.1001    151.24624   -418.90686   -263.27947   -5633.0645 
10328000    195.63986   -6487.4679   -5984.1963   -6487.4679            0    2676.0376    23.263866    21.559154    21.794349     10930.94    2960.4499    3174.3396    1893.3233    886.95328   -295.94059    195.62577   -5557.5916 
10329000    184.84685   -6511.4061   -6035.8989   -6511.4061            0    1752.5723    23.416448    21.425171    21.886951    10980.714    2620.8568    1596.1702    1040.6899   -277.97759    63.559933   -607.93985   -5755.2376 
10330000    199.45465    -6491.683   -5978.5981    -6491.683            0    1001.5564    23.419199    21.499292    21.884516    11018.771    1798.4564    341.03826    865.17441   -807.50824    161.22163    276.29322   -5817.6505 
10331000    185.96418   -6500.7892   -6022.4076   -6500.7892            0    2874.6821     23.31774    21.446098    21.830755    10917.005    2932.3993    2866.3582    2825.2888     1281.899    597.58191    155.39032     -5564.72 
10332000    195.02665   -6524.0156   -6022.3214   -6524.0156            0    1112.3471    23.344785    21.599265    21.844489    11014.651    2439.9762     50.67027    846.39486    550.43154   -840.09662   -437.46364   -5843.6369 
10333000    189.89796    -6501.079   -6012.5781    -6501.079            0    2576.4092    23.323486     21.45132    21.843147    10928.554    3805.8901    2029.4314     1893.906   -329.06758   -1149.6102    396.29783   -5601.9454 
10334000    194.24816   -6469.7437   -5970.0522   -6469.7437            0    1111.0478    23.266722    21.405588    22.145639    11029.367    3111.5798    1547.7529   -1326.1892    -57.34146   -134.89064    24.655886   -5791.3379 
10335000    186.31371   -6498.3738   -6019.0932   -6498.3738            0    1777.6146    23.333728    21.530864    21.912336    11008.655    2068.3589    2187.2772    1077.2076     59.43802   -110.90645   -447.43321   -5733.6973 
10336000    189.02006   -6505.7297   -6019.4871   -6505.7297            0    2055.2215    23.399211    21.457521    21.841377    10966.316    2478.9307    2102.1441    1584.5896    24.729107   -803.33797    265.34572   -5690.7905 
10337000    182.10468    -6503.159   -6034.7058    -6503.159            0    2790.0756    23.274103    21.496498    21.835837    10924.725    3612.3077     2310.691     2447.228   -407.58614   -1392.8418    379.07069   -5590.1745 
10338000    188.75873   -6490.4374    -6004.867   -6490.4374            0    1982.3404     23.36958    21.451597    21.922062    10989.854    1586.1593    2510.2527    1850.6092    -712.3941    554.50677    99.082288    -5687.146 
10339000    180.35583    -6513.895   -6049.9407    -6513.895            0     3260.133    23.233529    21.375817    21.953528    10902.905    3981.9843     2442.855    3355.5598   -500.63091    764.28577   -252.53368   -5531.5545 
10340000    190.15633   -6516.1827   -6027.0171   -6516.1827            0    1893.2095    23.323053    21.573183     21.78531    10961.333    1284.6715    1825.4265    2569.5304   -484.27537   -742.28551    585.48498    -5724.369 
10341000      184.098   -6505.5415   -6031.9606   -6505.5415            0    2925.8714    23.437594     21.44904    21.725091    10921.505    3411.1772    1837.9216    3528.5154    355.00011   -140.36258    119.62121   -5565.9309 
10342000    194.06431   -6508.7728   -6009.5542   -6508.7728            0      2288.18    23.429437    21.478008    21.740315     10940.11    2263.2805    2596.3714    2004.8882    227.53752    92.128298   -1191.0754   -5644.4744 
10343000    188.23821    -6492.591   -6008.3597    -6492.591            0    1854.2152    23.295143    21.615836    21.747051    10950.597    1604.7751    1697.1278    2260.7426   -503.53038    -253.2346    430.69035   -5712.2355 
10344000    187.45159   -6483.0082   -6000.8004   -6483.0082            0    2142.4964    23.400058     21.41402    21.883814    10965.746    1942.5687    2127.2094    2357.7111   -40.705497    685.95233    709.29245   -5658.1634 
10345000    186.15001   -6528.2295   -6049.3699   -6528.2295            0    2366.2695    23.346655      21.4545    21.817685    10928.278    2260.2195    2776.2572    2062.3316    8.2425655    972.45008   -340.38809   -5672.2393 
10346000    186.84723    -6464.659   -5984.0059    -6464.659            0    2074.5632    23.380301    21.528561    21.824144    10985.057    2700.4328    1670.6817    1852.5752   -300.34296   -777.14211   -489.20038   -5651.6489 
10347000    187.81701   -6494.7598    -6011.612   -6494.7598            0    3719.0138    23.302321    21.363725    21.851664    10878.291    4100.3804    3516.0025    3540.6585   -1311.9085   -598.87773    654.41686   -5421.5952 
10348000       182.18   -6514.2101   -6045.5631   -6514.2101            0    2130.1285    23.350716    21.489857    21.850571    10964.694     2363.371    1913.2615    2113.7529   -832.56111    1051.9876   -145.88028   -5704.9368 
10349000     188.9729   -6493.8812   -6007.7599   -6493.8812            0    1943.5336    23.412379    21.522606    21.834192    11002.149    2179.4444    2521.1394    1130.0171    322.54909    -571.3187   -948.01347   -5695.9101 
10350000    190.78773   -6519.0672   -6028.2774   -6519.0672            0    2942.1667    23.362876    21.358807     21.87152    10913.958    3626.2678    3002.7171    2197.5153   -104.49311    -89.13889    742.25223    -5559.976 
10351000    183.71994   -6506.2025   -6033.5941   -6506.2025            0    3776.2942     23.32781    21.517416    21.689766    10887.269     2992.165    3521.2927     4815.425    1430.3958    204.89158   -211.33461   -5433.9954 
10352000    190.17846    -6504.367   -6015.1445    -6504.367            0    1239.4448    23.428502    21.518612    21.803177    10992.046    1525.4475    378.33858    1814.5485   -488.41931   -174.35816    517.12761   -5816.4519 
10353000    183.17318    -6459.908   -5988.7062    -6459.908            0    1799.4224    23.447232    21.484786    21.771779    10967.724    2778.8153    1273.8187    1345.6333   -74.160758   -78.559987    790.85233   -5700.8832 
10354000    194.35219   -6505.3265   -6005.3673   -6505.3265            0    1716.9264    23.349111    21.689179    21.667271    10972.806    2486.9592    82.742689    2581.0773   -999.49287    1162.5543   -201.23049   -5730.6126 
10355000    192.85552   -6490.1979   -5994.0888   -6490.1979            0    1490.8689    23.523068    21.434252    21.784199     10983.58    899.77987    1663.9509    1908.8759    432.89512   -403.79739     18.16711   -5755.2751 
10356000    186.60025   -6504.6821   -6024.6643   -6504.6821            0    2994.0575    23.387837      21.4715    21.746364    10920.413    3757.3282     3201.663    2023.1812   -362.26393   -1170.5564   -396.41323   -5547.8216 
10357000    185.91048   -6497.7343    -6019.491   -6497.7343            0     1722.031    23.228901    21.699544      21.7526    10964.541     2544.701     617.6285    2003.7635   -1026.9913   -253.75078   -60.924192   -5744.1269 
10358000    189.79766   -6503.2805   -6015.0375   -6503.2805            0    2686.7427    23.540047    21.241234    21.835236    10918.047    1908.7048    3015.9446    3135.5786    122.21853    546.95703    322.27494   -5587.2315 
10359000    192.10146   -6520.5745   -6026.4052   -6520.5745            0    1856.1116    23.375065    21.562773    21.750517     10962.94    2100.8033    1910.1115      1557.42   -470.46506    336.77427   -301.64541   -5729.6441 
10360000    181.47801   -6491.6272   -6024.7861   -6491.6272            0    1221.5825    23.322025    21.769685     21.67575    11005.063    1105.8196    540.58366    2018.3443   -766.17958   -44.200325    467.90533   -5828.7251 
10361000     184.6693   -6475.8946   -6000.8441   -6475.8946            0    2593.4536    23.643337    21.226234    21.812192    10946.645    823.38839    3496.5344    3460.4379    125.57745    205.40935    544.25062   -5586.8107 
10362000    191.54028   -6500.0934   -6007.3677   -6500.0934            0    1515.1755    23.371654    21.588514    21.753863    10976.114    1750.9135    1369.9208    1424.6923    690.34978   -41.328339    351.09246   -5764.8254 
10363000    190.35988   -6496.3125   -6006.6233   -6496.3125            0    2439.4188    23.287346    21.572644    21.799722    10951.518    3469.4308    895.49568    2953.3297   -75.815831   -830.00451    697.07239   -5617.0075 
10364000    197.03091   -6502.3777   -5995.5277   -6502.3777            0    2094.7405    23.561283    21.328221    21.797624    10953.747      1204.81    2786.1877    2293.2236   -235.10842   -313.26694   -30.823715   -5660.8946 
10365000    190.14801    -6490.217   -6001.0729    -6490.217            0    1581.9552    23.280117    21.569895    21.867475    10980.745    1804.4751    1737.7121    1203.6783   -358.98848   -308.72607    416.50374    -5747.734 
10366000    186.05797   -6521.2725   -6042.6497   -6521.2725            0    3129.3444    23.263899    21.595678    21.675604    10889.816    3524.9843    2484.4394    3378.6096     710.2095   -506.36226   -337.43096   -5545.6573 
10367000    180.01424    -6527.817   -6064.7413    -6527.817            0    1812.2476    23.486728    21.430798    21.738776    10941.981     1023.195    1559.1227    2854.4251   -388.82745    422.30845    338.95622   -5775.5473 
10368000    184.03886    -6502.918   -6029.4892    -6502.918            0    1577.4521    23.360131    21.512739    21.836179    10973.562   -95.190841    2362.7457    2464.8015    1212.8771    990.46161    1119.4164   -5777.0367 
10369000    190.43693   -6507.5237   -6017.6363   -6507.5237            0    2328.1729      23.3054    21.559858     21.75386    10930.469    3003.0656    1595.0464    2386.4068   -36.664335   -663.24924   -793.41339   -5646.5031 
10370000    188.95731   -6504.2784   -6018.1973   -6504.2784            0    1712.5088    23.438832    21.491649    21.768593    10965.693    1552.4724    1335.3313    2249.7226    792.76706   -124.50426    170.16094   -5744.3271 
10371000    180.73442   -6480.5534   -6015.6251   -6480.5534            0    1508.9233    23.348379    21.615757    21.779883    10992.152    1581.4311    968.05541    1977.2833    502.41923     -824.623    908.97485   -5773.7307 
10372000    197.64049   -6479.7295   -5971.3114   -6479.7295            0    2910.2871    23.548109     21.37611    21.704958    10925.559    1760.7725     3985.833    2984.2557   -290.66567   -805.92351    -969.9967   -5507.5919 
10373000    188.42954   -6505.4118   -6020.6883   -6505.4118            0    1472.6634    23.318563    21.573396    21.792395    10962.895    1126.5098    1533.4342    1758.0463    22.925055    869.85223    312.81488   -5785.2351 
10374000     191.2243   -6499.1807   -6007.2678   -6499.1807            0    1911.4829    23.414762    21.560456    21.745267    10977.727    1675.6474    1863.7406    2195.0607    144.37648    271.09849   -378.18316   -5701.2415 
10375000    197.64192    -6499.975   -5991.5532    -6499.975            0    1877.1501    23.505209    21.471817    21.731095    10967.673    557.29873    2490.9387    2583.2129   -146.99088   -180.63357    735.81623   -5691.2988 
10376000    186.97906   -6496.3076   -6015.3153   -6496.3076            0    1099.6285    23.239135    21.662827    21.823084    10986.294    1210.0782   -60.862224    2149.6696    1113.5679   -596.72824    713.27751   -5839.1287 
10377000    188.77666   -6503.3627   -6017.7462   -6503.3627            0     1706.065    23.519586    21.434013    21.821503    11000.637    2065.1272    2029.6827    1023.3851    219.56766   -1208.9206   -1237.9462   -5744.0371 
10378000    193.29207   -6507.1314   -6009.8994   -6507.1314            0    3049.9497    23.421552    21.392472    21.842666    10944.156    2744.7486    4193.2992    2211.8014    828.60115    127.49116    -138.2032    -5523.099 
10379000    193.47453   -6477.6568   -5979.9553   -6477.6568            0    3152.1659    23.161191    21.583414    21.878496    10937.007    2669.5573    3362.8168    3424.1237    940.65408     525.6722     278.9417    -5477.169 
10380000    187.45359   -6532.5703   -6050.3573   -6532.5703            0    2345.9781    23.316411    21.358989    21.984338    10948.529    2987.4524    2657.9344    1392.5474   -944.81522    215.44546   -889.79539   -5675.7678 
10381000    182.05979   -6516.2535   -6047.9158   -6516.2535            0    2184.1545    23.363803    21.360213    21.931403    10944.994    2041.4495    3156.4366    1354.5773   -576.86875   -817.64642    318.11015   -5699.2777 
10382000     190.4535   -6476.4349   -5986.5048   -6476.4349            0    452.71279    23.258549     21.64703    21.945806    11049.241    1949.3995   -386.69392   -204.56723   -215.49558    136.14874    193.29618   -5913.5539 
10383000    190.29891   -6488.2643   -5998.7319   -6488.2643            0    1680.0585    23.383844    21.445384    21.915567     10990.12    1919.0347    1453.4597    1667.6811    22.899176    75.114888   -170.05171   -5729.4528 
10384000    186.18318   -6518.5228   -6039.5779   -6518.5228            0    2833.4394    23.402704    21.299331    21.924983     10928.77    2614.5316    3019.9935     2865.793    108.43359   -134.02881    683.79126   -5587.9705 
10385000    177.88029   -6501.5629   -6043.9767   -6501.5629            0    2953.7639    23.237097    21.594608    21.776838    10927.531    3314.8799    2860.9073    2685.5047    208.19474   -229.33802    20.523418   -5573.2447 
10386000    194.83836   -6489.6376   -5988.4278   -6489.6376            0     2599.095    23.421679    21.473597    21.826169    10977.421    2050.7037    2889.1711    2857.4103    230.92692   -6.1855107    787.74364   -5572.3271 
10387000    190.67482    -6508.705   -6018.2057    -6508.705            0    3039.3917    23.604157    21.319574    21.734432     10937.43    2542.8717    2464.7526    4110.5508    503.74208   -799.40024   -177.80353   -5533.3886 
10388000    185.16377   -6512.0102   -6035.6877   -6512.0102            0    2181.1358    23.358853    21.592551    21.735937    10963.112    1832.4598    2737.8346    1973.1129   -562.13807    61.252439   -238.43661   -5686.9552 
10389000    188.04226   -6510.9389   -6027.2117   -6510.9389            0    2253.2823    23.274347    21.581456    21.784891    10942.426    2991.7692    1412.9883    2355.0894   -938.96705    398.34152    791.78522   -5667.6237 
10390000    187.15643   -6491.9106   -6010.4621   -6491.9106            0     2243.702    23.609567    21.354007    21.706856    10943.704    1444.7401    2016.8115    3269.5545   -66.019922    324.08399    313.08875   -5652.3612 
10391000    188.36723   -6510.7846   -6026.2213   -6510.7846            0    744.64318    23.337926    21.586336    21.860348    11012.813    1093.1674    1120.7908    19.971355   -818.38293   -118.90716    163.83104   -5906.6238 
10392000    190.44384   -6502.6929   -6012.7877   -6502.6929            0    1246.9257    23.315108    21.618689     21.78003    10978.052    1274.8671    953.00859    1512.9014    723.66275    35.339122     397.5958   -5813.1504 
10393000     193.2021   -6502.1054   -6005.1048   -6502.1054            0    1237.8887       23.649    21.311424    21.760571    10967.194    857.80495    855.85465    2000.0066   -6.7397071    390.73467   -630.11146   -5807.1103 
10394000    197.88209   -6529.3166    -6020.277   -6529.3166            0    2423.4691     23.22734    21.505644    21.792659    10885.845    2812.8398    2360.0262    2097.5412   -1085.9736    588.09534    -241.8628   -5635.5298 
10395000    199.83427   -6498.2838   -5984.2223   -6498.2838            0    1389.7696      23.3431    21.614209    21.798175    10998.109    1660.6577    805.80689    1702.8444    -618.4303   -221.26583   -261.24454   -5761.3086 
10396000    188.68987   -6512.1831   -6026.7899   -6512.1831            0    1479.0482     23.55356    21.379212     21.84734    11001.371    841.98166    2349.7733    1245.3898    372.27012   -163.08956    374.66825   -5789.4859 
10397000    190.82076   -6522.7739   -6031.8991   -6522.7739            0    2278.5798    23.153813    21.634258    21.836337    10938.161    3341.9293    1723.7919    1770.0183   -43.237223   -54.271188   -342.62575   -5668.4158 
10398000    193.46261   -6529.5056   -6031.8348   -6529.5056            0    2894.7585    23.339213    21.462754    21.777672    10908.954    3109.6114    3080.9635    2493.7006    535.35012   -579.88958   -789.42505   -5571.2906 
10399000    195.90936   -6489.0535   -5985.0886   -6489.0535            0    2007.0519    23.346305    21.395517    21.960867     10969.59    2214.3091    2269.1788    1537.6678   -227.29609    514.94527    665.69924        -5664 
10400000     188.7558   -6509.7207   -6024.1579   -6509.7207            0    1175.8452    23.310672    21.539947    21.880688    10986.526    2039.5003    1333.9014    154.13404   -1373.5547   -58.028737   -1149.3757   -5835.7555 
10401000    196.57682   -6504.0359    -5998.354   -6504.0359            0    2146.1199    23.301745    21.499047    21.840645    10941.406    2706.7218    2115.9627    1615.6752   -234.64882   -57.618199   -466.29039   -5655.8994 
10402000    185.77151    -6517.046   -6039.1601    -6517.046            0    1191.0683     23.36703    21.488229    21.899442    10996.062    2189.3695    577.31664    806.51878    1382.9215   -1215.7875   -111.42159   -5848.1529 
10403000      186.675   -6469.7685   -5989.5584   -6469.7685            0    1210.3225    23.386937    21.491489    21.932631    11023.781    1329.7518    2208.7613    92.454414   -351.71262   -1235.2061   -873.20393   -5794.9742 
10404000    187.90225   -6493.2813   -6009.9142   -6493.2813            0    3278.2378    23.283717    21.369508    21.960658     10926.78    3857.7986    3401.7816    2575.1332    -894.4363    -35.17232    440.42279   -5487.5077 
10405000     186.5293   -6515.7909   -6035.9556   -6515.7909            0      1637.24      23.3302    21.527795    21.828329    10963.229    1747.0903    2119.9855    1044.6442   -525.45928    73.804906    -1017.949   -5774.1814 
10406000    183.48082   -6531.5525   -6059.5592   -6531.5525            0    1491.0795    23.396952    21.527342    21.824938    10992.658    2152.5579    1142.6899    1177.9908    540.78689   -42.149523    -283.8115   -5820.5144 
10407000     188.7378   -6509.4803   -6023.9639   -6509.4803            0    2421.2325    23.358269    21.456417    21.841385    10946.569    2520.4015    3112.7324    1630.5635    793.34499    -795.5199   -425.12165   -5637.4274 
10408000    189.50274    -6517.542   -6030.0577    -6517.542            0    3183.7235    23.274866    21.452502    21.830804     10900.21    4393.2533    2661.2618    2496.6553   -440.02445   -1036.0183   -1229.1132   -5523.9464 
10409000    186.80763    -6494.741   -6014.1898    -6494.741            0    1632.7496    23.327071    21.495283    21.940072    11001.235     1958.003    1472.0659      1468.18   -714.92472    205.89104    777.83771   -5752.2286 
10410000    189.35039   -6506.2723     -6019.18   -6506.2723            0     1768.661    23.291216    21.498114    21.864381    10947.872    2017.5437    1831.1442     1457.295    360.31526      -780.47    404.87646   -5736.7894 
10411000    183.79793   -6514.2167   -6041.4077   -6514.2167            0    3808.3128    23.327673    21.416838    21.723287    10853.063     3198.369    3725.8064    4500.7629    544.99833   -70.798638    366.14743    -5438.625 
10412000    187.14032   -6493.6274   -6012.2203   -6493.6274            0      1257.57    23.497536    21.562393     21.71581    11002.599    263.78822    1828.4599    1680.4619   -465.17385    654.86573    250.14593   -5810.4286 
10413000     187.4557   -6499.3656   -6017.1472   -6499.3656            0    1646.9891    23.483066    21.520749    21.705953    10969.607    929.59539    2221.8159    1789.5561   -992.15205   -615.21141   -659.06969   -5753.6612 
10414000    185.47376   -6507.6033   -6030.4833   -6507.6033            0    1538.9079    23.289189    21.584345    21.797905    10957.412    1599.2696    1627.2707    1390.1834    45.381455     394.1856   -346.61611   -5784.5618 
10415000    194.87175   -6515.3463   -6014.0506   -6515.3463            0    2546.8144    23.356229    21.396507    21.809384    10899.059    2303.3127    3263.1749    2073.9557   -266.97813    914.65958   -551.71206   -5609.2304 
10416000    198.94245   -6501.5489   -5989.7816   -6501.5489            0    495.42789    23.457361    21.523741    21.863709    11038.772    364.19187    363.82046    758.27134    113.87029   -1092.7825    144.56038   -5910.0231 
10417000    187.81768   -6499.8356    -6016.686   -6499.8356            0    1264.6626    23.337893    21.560307    21.812731    10975.559    1054.4964     2289.203    450.28844    1138.5688   -982.77345    223.63032   -5814.2549 
10418000    192.21524   -6480.2255   -5985.7635   -6480.2255            0    3173.0528    23.321265    21.483723    21.827955    10936.408    3372.0641    3557.2623    2589.8319    41.670651   -447.71976   -341.58478   -5479.6733 
10419000    198.19921    -6482.828   -5972.9727    -6482.828            0    2468.8331    23.374568    21.389572    21.937364    10968.068    2399.8876    2683.0733    2323.5383   -889.76477   -529.24929    560.31223    -5578.063 
10420000    195.16185    -6513.736   -6011.6941    -6513.736            0    2821.0113    23.194819    21.451801    21.933234    10913.334    4972.3481    2856.0483    634.63755   -779.27751   -639.55861   -380.65402   -5562.7025 
10421000    189.25137   -6505.7048   -6018.8672   -6505.7048            0    2814.8875    23.348437    21.483498    21.836507    10953.325    3042.7844    2232.0617    3169.8164    406.07904   -1194.1102    10.687893   -5569.2086 
10422000     189.0149   -6490.2642   -6004.0349   -6490.2642            0    2493.7946    23.400661    21.437549    21.815752    10943.933    2199.9697    2813.1573    2468.2567    969.23484    191.43456    1591.4773   -5606.0102 
10423000    181.19962   -6495.5728   -6029.4478   -6495.5728            0    3312.1326    23.324701     21.55109    21.730328    10923.244    3086.5542    2423.4849    4426.3587    392.36383   -355.74256    113.53904   -5501.8109 
10424000    184.14988   -6504.9411   -6031.2267   -6504.9411            0     2869.538    23.433909    21.432858    21.761429      10929.8    1076.4381    3963.1295    3569.0465     378.7985    162.85305   -229.69184   -5573.8226 
10425000    188.61089   -6496.1834   -6010.9934   -6496.1834            0    2288.7947    23.405355    21.515188    21.733437     10944.32    1709.4635    1659.7469    3497.1738   -558.91635    361.49845    308.93482    -5645.675 
10426000    179.96585   -6499.9666   -6037.0154   -6499.9666            0    1378.7764    23.528391    21.527581    21.665596    10973.826   -327.91504    1624.7819    2839.4622    -50.66117   -21.899741    143.59837   -5816.3532 
10427000    197.00866   -6483.5058   -5976.7131   -6483.5058            0    1832.7433    23.428497    21.538567    21.723353    10961.957    1991.0821    1390.8196    2116.3282    182.07327   -103.64144   -19.978601   -5683.7144 
10428000    191.61009   -6492.9531   -6000.0478   -6492.9531            0    2505.7675    23.464004    21.500702    21.711009    10953.043    1966.3371    2877.3138    2673.6515     1155.701   -619.59398   -426.30497   -5599.7793 
10429000    189.68114   -6499.6718   -6011.7286   -6499.6718            0    1736.4156    23.392794    21.447535    21.864201    10969.658    1863.7953    1639.9845    1705.4671   -2146.0305   -29.167446    1123.3976   -5733.9348 
10430000    191.72794   -6501.6183   -6008.4099   -6501.6183            0    1791.0173    23.337782    21.594215    21.793831    10983.243     2408.898     206.5811    2757.5728   -588.13558    682.53228   -429.99597   -5721.5259 
10431000    185.97759   -6495.0764   -6016.6604   -6495.0764            0    3599.7321    23.407606    21.416454    21.752338    10904.619    3596.0382    4034.7567    3168.4013    276.90869    92.867722   -50.937626   -5444.1854 
10432000    193.86903   -6497.9347   -5999.2185   -6497.9347            0     1386.556    23.264612    21.609884    21.884406    11002.288    2415.8675     1077.857     665.9434    -496.8561   -588.75356    426.51251   -5776.7357 
10433000    187.10553     -6512.34   -6031.0224     -6512.34            0    1267.4014    23.433093     21.44699    21.880361    10996.398    1058.3103    1281.7024    1462.1916   -357.37396    325.32776   -462.02995   -5827.7677 
10434000    189.47727   -6508.6142   -6021.1954   -6508.6142            0    3939.0098    23.360293    21.353853    21.771779    10860.466     4493.229    4625.2222    2698.5783   -207.15945    84.165189   -1062.4196   -5397.3006 
10435000    187.82791   -6482.3417   -5999.1659   -6482.3417            0    2475.2034    23.322444    21.563655    21.762738    10944.854     2585.523    2743.8892    2096.1981   -487.33056    -57.52094    125.59132   -5604.0752 
10436000    189.28371   -6478.1343   -5991.2135   -6478.1343            0    1070.5127    23.399747     21.47307    21.962633    11035.441    1440.2587    997.87796    773.40154   -226.96636   -558.89048    177.61676   -5818.9245 
10437000    189.27566    -6519.646   -6032.7459    -6519.646            0     2315.627     23.28613    21.493882    21.871625    10946.952    2663.5689    2555.6193    1727.6928    889.63152   -956.75065   -1745.9127   -5663.0559 
10438000    192.87704    -6479.979   -5983.8145    -6479.979            0    3704.5542    23.284153    21.419599    21.831686    10888.274    3400.1527    4915.4355    2798.0744      1049.74   -350.69905   -95.814842   -5395.5524 
10439000    179.52857   -6507.6313    -6045.805   -6507.6313            0    1088.7018    23.346485    21.463753    21.968428    11008.449    1329.6039    1140.4739    796.02779     622.3627   -251.84168   -40.461423   -5871.0173 
10440000    196.65422   -6469.7108   -5963.8298   -6469.7108            0    2367.0891    23.378899     21.49638    21.820349    10966.072    2862.2451    1831.4612    2407.5609    546.96727   -1307.9243   -799.67244   -5585.2639 
10441000    198.32274   -6504.6108   -5994.4377   -6504.6108            0    2503.7127     23.20382    21.575867    21.897507    10962.823     2461.527    2813.5623    2236.0488   -93.273377   -26.314855   -491.98912   -5594.1403 
10442000    193.64014   -6498.9015   -6000.7741   -6498.9015            0    3010.7177    23.336675     21.36476    21.896956    10917.438     3438.843    2707.6453    2885.6647   -1106.8367   -595.11952    704.60774   -5521.4087 
10443000    184.12543   -6499.6694   -6026.0179   -6499.6694            0    2355.0624    23.367459    21.441227    21.874551    10959.741    3117.9087    2923.1984    1024.0803    -654.5989   -212.84094   -1025.3655   -5649.5928 
10444000    192.74156    -6508.603   -6012.7871    -6508.603            0    1196.7737    23.241599    21.644045      21.8451    10989.008    1456.5037    123.81018    2010.0071    193.89539    689.63505    637.43675    -5820.988 
10445000    197.64187   -6499.6117   -5991.1901   -6499.6117            0    2531.6715    23.394255    21.303635    21.973413    10951.168     2209.369    4057.1877    1328.4579    404.53087   -808.81011    148.13441   -5586.8529 
10446000    193.51153   -6514.4588   -6016.6621   -6514.4588            0    2321.7993    23.397046     21.32742    21.929588    10942.835    2104.7857    3332.5465    1528.0657    598.85553    231.45374   -1543.8638   -5646.1261 
10447000    191.25837   -6501.9834   -6009.9829   -6501.9834            0    2023.3088    23.302881    21.580597    21.830954    10978.571    1983.1069    1325.0669    2761.7525   -157.85531   -212.56271   -306.97552   -5686.0285 
10448000    195.44382   -6498.8152   -5996.0479   -6498.8152            0    1773.7299    23.363899    21.476796    21.899758    10988.897    1449.2023    1868.5622    2003.4253   -107.59643    210.36138    325.61557   -5711.7867 
10449000    187.22504   -6478.5596   -5996.9346   -6478.5596            0     2967.373    23.466091    21.352148    21.797586    10921.712     1859.719    4308.3761    2734.0239    200.95482    2.4924245   -333.56429   -5524.2856 
10450000    184.95029    -6506.611   -6030.8376    -6506.611            0    2370.9695    23.346492      21.6161    21.718935     10960.68    1909.9245    2566.5513    2636.4328    1204.7259    277.40657    47.931766   -5651.8375 
10451000     195.0671   -6510.0197   -6008.2215   -6510.0197            0    1249.1736    23.531274    21.459908    21.766145    10991.446    1212.8045     465.0989    2069.6175   -359.70164     454.4946     956.7224   -5807.9803 
10452000    188.18046   -6495.1585   -6011.0757   -6495.1585            0    1856.4282    23.525758    21.510596    21.670778    10966.564    1859.9451    725.24432    2984.0953   -2376.3295     753.5067   -147.06995   -5714.1658 
10453000    183.50098   -6527.0381    -6054.993   -6527.0381            0    2325.6331    23.273259    21.539433    21.780497    10918.406    2983.0273    1167.4558    2826.4161   -190.26368   -186.31657    27.448293   -5684.6737 
10454000    189.39593   -6513.4781   -6026.2687   -6513.4781            0    1810.0292    23.403707    21.442207    21.827453    10953.608    1411.5259    1685.4955    2333.0663    1637.2251     185.6061    701.45852   -5737.1217 
10455000    190.93429   -6522.6541   -6031.4873   -6522.6541            0    1926.6434    23.430331    21.538483    21.700285    10951.131    1130.2358    2044.3856    2605.3088   -1205.8243   -413.57122    67.382371   -5723.7812 
10456000    187.13614   -6522.3183    -6040.922   -6522.3183            0    1863.9359    23.396282    21.475672    21.783359    10945.068    1809.9638    1240.2696    2541.5743    279.89108    1348.3818     24.96364   -5743.3957 
10457000    184.49789   -6512.7636    -6038.154   -6512.7636            0    2430.1481    23.431714    21.376218    21.799325    10918.877    748.51667    3449.2773    3092.6503     1591.068   -837.56545    959.05729   -5651.1757 
10458000    180.76719   -6474.6643   -6009.6517   -6474.6643            0    1240.0938    23.393461    21.572329    21.840749    11021.966    792.80342    1389.1895    1538.2884     71.84732   -401.12262    571.29718    -5810.314 
10459000    188.02509   -6479.8933   -5996.2102   -6479.8933            0    2286.7774    23.504178    21.526239    21.703508    10981.032    1726.2405    2776.3108    2357.7811     57.10057   -198.97298   -1664.9153   -5629.9895 
10460000     189.3955   -6505.3382   -6018.1299   -6505.3382            0    1957.0657    23.338803    21.544871    21.774801    10949.055    1315.4574    2082.0099    2473.7298    460.27369    317.42151    751.34476   -5705.6242 
10461000    190.74513   -6493.1417   -6002.4615   -6493.1417            0    2018.5301    23.372853    21.566937    21.709743    10943.465    1640.2506     1969.525    2445.8146   -545.51331     88.75748   -1566.7908   -5680.3057 
10462000    181.30067   -6498.6398   -6032.2548   -6498.6398            0    1806.6722    23.460416    21.399356     21.80956    10949.223    1484.9565    2308.1242    1626.9358   -103.48443    472.52126   -625.00301   -5743.7597 
10463000    195.57755   -6523.7859   -6020.6745   -6523.7859            0    1029.5079    23.423804    21.560949    21.793165    11006.408    1075.2062    343.90142    1669.4161   -84.157873     151.0219   -251.18304   -5855.4208 
10464000    186.65896   -6491.5907   -6011.4219   -6491.5907            0    3592.1076    23.342402    21.512034    21.686147    10889.537    3347.4805    3347.2034    4081.6388   -1612.9444    468.81561   -220.10341   -5440.9495 
10465000    184.02344   -6524.0767   -6050.6876   -6524.0767            0     2569.032    23.412807    21.379911    21.815655    10920.125    1947.9896    4069.9765      1689.13    188.48762    629.87538   -628.22418   -5641.5466 
10466000    184.71018   -6497.4112   -6022.2555   -6497.4112            0     1622.103    23.391905    21.631095    21.751617    11006.155    1753.5275    994.15632    2118.6252    196.63203    205.53217   -546.66242   -5761.8861 
10467000    193.25011   -6512.6262   -6015.5021   -6512.6262            0    2965.3262    23.383064    21.425874    21.789153    10916.422    2775.9546    3026.1258    3093.8981    1144.7992   -642.79298    164.35609   -5543.4079 
10468000    198.11224   -6513.0334   -6003.4018   -6513.0334            0    3015.2239    23.401775    21.504804     21.70201    10921.549    3302.2927    1815.3927    3927.9861    -25.25169   -233.62717    156.34161   -5523.1382 
10469000    186.93493   -6503.8603   -6022.9816   -6503.8603            0    1948.8852    23.382555    21.599291    21.679987    10949.404    2404.5131    1647.9835    1794.1591   -336.54538     257.5442   -309.26822   -5711.7723 
10470000    180.34968   -6508.9529   -6045.0143   -6508.9529            0    2003.1442    23.473068    21.394373    21.800323    10947.938    2014.5139    2113.6617    1881.2572   -116.48722    431.74465    145.84003   -5725.1834 
10471000     185.5323   -6501.5146    -6024.244   -6501.5146            0    3274.6062    23.199705     21.64556    21.673471     10883.78    3299.7305    2459.7298    4064.3584   -574.59878   -338.45153   -127.41618   -5504.4698 
10472000    188.84975    -6516.056   -6030.2516    -6516.056            0    2850.6936    23.424856    21.497324    21.648879    10901.763    2465.4097    2299.3613    3787.3097    991.98024   -505.49494    219.31533   -5577.0169 
10473000    188.70139   -6516.0978    -6030.675   -6516.0978            0    1473.3153    23.602413    21.421414    21.693791    10968.317   -525.46583    2737.9966    2207.4153    16.805984    686.89146   -751.62509    -5795.001 
10474000    201.39618   -6505.2755   -5987.1961   -6505.2755            0    3393.6524    23.297579    21.557333    21.696315     10896.62    2641.6565    3237.2162    4302.0844   -3.7601643    1023.2628    337.79447   -5447.8904 
10475000    190.86662   -6518.3235   -6027.3307   -6518.3235            0    2247.2188    23.413329    21.445031    21.804069    10947.814    1519.6208    1960.0733    3261.9623   -328.39689   -592.52507   -182.84386   -5668.5339 
10476000    187.84438   -6498.1257   -6014.9074   -6498.1257            0    2615.5944    23.360341     21.39969    21.875856    10935.829    2159.1262    4547.4963    1140.1605    1402.8921   -516.31231    -583.5122   -5597.7519 
10477000    203.54626   -6493.8862   -5970.2758   -6493.8862            0    1842.3481    23.301214    21.519934    21.908092    10985.607    1298.3954    2517.4858    1711.1629   -323.24843     300.1653     414.7462   -5675.1062 
10478000    192.64659   -6479.1654   -5983.5938   -6479.1654            0    897.68142    23.512086    21.465953    21.845773    11025.766   -76.044791    1816.7729    952.31615     23.92529   -5.6689829   -1128.7945   -5839.2471 
10479000    193.73673   -6490.8783   -5992.5024   -6490.8783            0    2383.9963    23.102664    21.515204    22.018964    10944.714    4443.1019    2186.0064    522.88067    50.189728    810.76566    500.02719    -5611.975 
10480000     196.9368   -6495.8374   -5989.2294   -6495.8374            0    2877.9474      23.3128    21.480754    21.843995     10938.96    4084.8183    1931.4071    2617.6167    442.68616    -660.1515    769.71443   -5530.1004 
10481000    193.71313   -6493.6964   -5995.3812   -6493.6964            0    1421.7451    23.441152    21.465232    21.845836    10992.164    1458.5919    1168.8451    1637.7983   -40.629344   -1036.8112    -94.23185    -5767.462 
10482000    188.81378   -6491.3323   -6005.6204   -6491.3323            0    1999.1014    23.167466    21.666636    21.848569    10967.131    3497.0621    1071.2811    1428.9609     1449.149   -1399.0839    219.03243   -5685.8754 
10483000     182.3034   -6501.9171   -6032.9527   -6501.9171            0    2534.2775    23.354745    21.469693    21.802008    10931.945     2765.885     2551.561    2285.3865   -429.28633   -184.74689   -662.93762   -5628.9098 
10484000    186.53699   -6493.3918   -6013.5368   -6493.3918            0    2236.9731    23.430585    21.385749    21.864864     10956.06    2386.6082    2542.2081     1782.103   -530.44834   -395.19707    720.00693   -5656.1068 
10485000    187.02606   -6500.4665   -6019.3534   -6500.4665            0    2721.4935    23.186568    21.616325     21.83593    10944.351    3917.2889    2005.4901    2241.7015   -185.95281   -602.14811    508.95675     -5584.97 
10486000    190.38035   -6508.8726   -6019.1307   -6508.8726            0    2439.3199    23.399043    21.361035    21.876094    10934.279    2316.2789    3259.9141    1741.7667    1283.4309   -212.56744   -432.03321    -5630.144 
10487000     186.8103   -6512.3715   -6031.8134   -6512.3715            0    1733.0817    23.390663    21.378711    21.985107    10993.921    1707.3268    1971.7337    1520.1845   -23.083135   -1244.1693    219.66506   -5753.9397 
10488000    190.63307    -6478.857    -5988.465    -6478.857            0    2073.0962    23.250941    21.585518    21.888467    10985.463     3196.541    1649.5414    1373.2061   -213.78252   -1425.4762   -454.78208   -5656.3308 
10489000    179.97205     -6484.26   -6021.2928     -6484.26            0    1878.2009    23.386722    21.388082    21.982155    10995.411    2524.6621    2410.5811    699.35948    635.45485    32.078295   -745.37938   -5720.1106 
10490000    196.24271   -6507.3743   -6002.5519   -6507.3743            0    1015.3328    23.348503    21.545273    21.920577    11027.144    447.44819    1524.1544    1074.3958   -516.25854    858.14239    158.68205   -5839.2665 
10491000    191.14586   -6514.8911     -6023.18   -6514.8911            0    2046.2227    23.251845    21.570266    21.835088    10951.355    2468.2192    2204.3605    1466.0884   -830.34891    780.20389   -331.17242    -5696.369 
10492000    191.04828   -6512.2595   -6020.7995   -6512.2595            0    1070.8922    23.439632    21.480443     21.84943     11001.05    565.66195    1153.3464    1493.6683   -521.91324    853.05689   -322.36679   -5848.9866 
10493000    186.83354   -6482.8024   -6002.1845   -6482.8024            0    2776.4067    23.405535    21.502882    21.719529    10931.144    3197.3048     2653.175    2478.7404    68.894973    171.67217    480.10643    -5559.571 
10494000    188.20585   -6502.7121   -6018.5641   -6502.7121            0    1157.5327      23.4784    21.562569    21.736213    11004.058    1106.1541     915.6642    1450.7796   -1091.3714    1733.0272   -730.90602   -5832.7999 
10495000    199.11339   -6487.2231   -5975.0161   -6487.2231            0    1424.5241    23.444109    21.505716    21.830416     11006.51    1511.6502    1268.5849    1493.3373   -693.73788    1039.2177    545.49573   -5746.3534 
10496000    186.33837   -6504.1042   -6024.7601   -6504.1042            0    1807.1473     23.46145    21.530842    21.739442    10981.566    899.93996    2924.4999     1597.002   -210.42296    228.58013   -1707.8491   -5735.3367 
10497000    190.22452   -6500.5765   -6011.2355   -6500.5765            0    3353.8454    23.414129    21.373189    21.711057    10864.964    3294.9495    3393.7878    3372.7989   -164.07187   -175.90698    -517.3195   -5479.8041 
10498000    191.00737   -6499.8267   -6008.4718   -6499.8267            0    1169.6725    23.469605    21.533758    21.782854    11008.811     1515.706    493.42031    1499.8914    -112.9221   -756.35595    -24.60104   -5820.6783 
10499000    197.98847   -6530.6941   -6021.3808   -6530.6941            0    1149.9688    23.362975    21.564543    21.802175    10984.195    1116.1996    699.24868    1634.4581   -518.26703    1269.1649   -329.52258   -5837.1636 
10500000    197.18688   -6479.1719   -5971.9207   -6479.1719            0    1850.0983    23.343675    21.455266    21.868892     10952.92    1483.3498    3277.8983    789.04687   -163.67535    565.55982    201.91277   -5676.3913 
Loop time of 531.744 on 64 procs for 250000 steps with 1296 atoms

Performance: 81.242 ns/day, 0.295 hours/ns, 470.151 timesteps/s
195.9% CPU use with 32 MPI tasks x 2 OpenMP threads

MPI task timing breakdown:
Section |  min time  |  avg time  |  max time  |%varavg| %total
---------------------------------------------------------------
Pair    | 37.542     | 48.002     | 63.73      | 104.7 |  9.03
Bond    | 0.66049    | 1.0127     | 1.8242     |  18.5 |  0.19
Kspace  | 265.77     | 285.96     | 297.6      |  45.3 | 53.78
Neigh   | 2.5183     | 2.8621     | 3.165      |   8.7 |  0.54
Comm    | 72.626     | 77.072     | 81.896     |  28.1 | 14.49
Output  | 0.52856    | 0.52895    | 0.53081    |   0.1 |  0.10
Modify  | 100.92     | 102.62     | 104.32     |   9.5 | 19.30
Other   |            | 13.69      |            |       |  2.57

Nlocal:        40.5000 ave          52 max          31 min
Histogram: 6 1 5 4 0 2 8 3 2 1
Nghost:        3038.59 ave        3076 max        3004 min
Histogram: 1 3 4 3 3 8 8 0 0 2
Neighs:        12750.3 ave       16243 max        9842 min
Histogram: 5 2 5 4 0 2 8 3 2 1

Total # of neighbors = 408009
Ave neighs/atom = 314.82176
Ave special neighs/atom = 2.0000000
Neighbor list builds = 5744
Dangerous builds = 0

unfix		3
unfix		2
unfix		1

write_data	data.final.${pid}
write_data	data.final.0
System init for write_data ...
PPPM initialization ...
  extracting TIP4P info from pair style
  using 12-bit tables for long-range coulomb (../kspace.cpp:340)
  G vector (1/distance) = 0.36957196
  grid = 30 40 32
  stencil order = 5
  estimated absolute RMS force accuracy = 0.0039923353
  estimated relative force accuracy = 1.2022799e-05
  using double precision FFTW3
  3d grid and FFT values/proc = 7888 1280
Last active /omp style is kspace_style pppm/tip4p/omp
WARNING: Not all mixed pair coeffs generated from mixing. Use write_data with 'pair ij' option to store all pair coeffs. (../write_data.cpp:312)

write_restart   restart.lmp.${pid}
write_restart   restart.lmp.0
System init for write_restart ...
PPPM initialization ...
  extracting TIP4P info from pair style
  using 12-bit tables for long-range coulomb (../kspace.cpp:340)
  G vector (1/distance) = 0.36957196
  grid = 30 40 32
  stencil order = 5
  estimated absolute RMS force accuracy = 0.0039923353
  estimated relative force accuracy = 1.2022799e-05
  using double precision FFTW3
  3d grid and FFT values/proc = 7888 1280
Last active /omp style is kspace_style pppm/tip4p/omp
Total wall time: 0:08:51
