LAMMPS (30 Jul 2021)
  using 1 OpenMP thread(s) per MPI task
package omp 0
using multi-threaded neighbor list subroutines
echo both

include		in.partitions
variable        pid world 0
include		in.temp
variable        temperature equal 263.63
variable	tempDamp equal 100.0
include		in.pressure
variable        pressure equal 6125.0
variable        pressureDamp equal 1000.0 # This is 1 ps
include		in.seed
variable        seed world 745823

units		real
atom_style	full

read_restart	restart.lmp.${pid}
read_restart	restart.lmp.0
Reading restart file ...
  restart file = 30 Jul 2021, LAMMPS = 30 Jul 2021
  restoring atom style full from restart
  orthogonal box = (-0.054273634 0.093242431 -0.058987325) to (20.054275 19.906759 20.758985)
  4 by 4 by 4 MPI processor grid
  restoring pair style lj/cut/tip4p/long/omp from restart
  restoring bond style harmonic/omp from restart
  restoring angle style harmonic/omp from restart
  972 atoms
  648 bonds
  324 angles
Finding 1-2 1-3 1-4 neighbors ...
  special bond factors lj:    0        0        0       
  special bond factors coul:  0        0        0       
     2 = max # of 1-2 neighbors
     1 = max # of 1-3 neighbors
     1 = max # of 1-4 neighbors
     2 = max # of special neighbors
  special bonds CPU = 1.314 seconds
  read_restart CPU = 1.546 seconds
include 	in.setup
variable	out_freq equal 1000
variable	out_freq2 equal 10000
variable	out_freq3 equal 1000

timestep	2.0

neigh_modify    delay 7 every 1

include		in.tip4p
# This is TIP4P/Ice

# create groups ###
group ox type 2
324 atoms in group ox
group hy type 1
648 atoms in group hy

# set charges - beside manually ###
set group ox charge -1.1794
Setting atom values ...
  324 settings made for charge
set group hy charge 0.5897
Setting atom values ...
  648 settings made for charge

# ### TIP3P Potential Parameters ###
pair_style lj/cut/tip4p/long/omp 2 1 1 1 0.1577 8.5
pair_coeff 1 1*2 0.000 0.000
pair_coeff 2 2 0.21084 3.1668
bond_style  harmonic
bond_coeff  1 450 0.9572
angle_style harmonic
angle_coeff 1 55 104.52
kspace_style pppm/tip4p/omp 1.0e-5
pair_modify tail yes

thermo          ${out_freq}
thermo          1000
thermo_style    custom step temp pe etotal epair emol press lx ly lz vol pxx pyy pzz pxy pxz pyz enthalpy

restart 	${out_freq3} restart.lmp.${pid} restart2.lmp.${pid}
restart 	1000 restart.lmp.${pid} restart2.lmp.${pid}
restart 	1000 restart.lmp.0 restart2.lmp.${pid}
restart 	1000 restart.lmp.0 restart2.lmp.0


include         in.dump
dump            myDump all atom ${out_freq2} dump.water.${pid}
dump            myDump all atom 10000 dump.water.${pid}
dump            myDump all atom 10000 dump.water.0
dump            myDump2 all dcd ${out_freq2} dump.dcd
dump            myDump2 all dcd 10000 dump.dcd
dump_modify     myDump append yes
dump_modify     myDump2 append yes


variable natoms 	equal  "count(all)"                        # NUMBER ATOMS
variable H      	equal  "enthalpy/v_natoms"                 # ENTHALPY-per-atom
variable Vol      	equal  "vol/v_natoms"                 # volume-per-atom
fix AVG all 		ave/time ${out_freq} 1 ${out_freq} v_Vol v_H file vol_enthalpy.dat
fix AVG all 		ave/time 1000 1 ${out_freq} v_Vol v_H file vol_enthalpy.dat
fix AVG all 		ave/time 1000 1 1000 v_Vol v_H file vol_enthalpy.dat


timer           timeout 02:55:00 every 1000
New timer settings: style=normal  mode=nosync  timeout=02:55:00

fix 		1 all shake 1e-6 200 0 b 1 a 1
       0 = # of size 2 clusters
       0 = # of size 3 clusters
       0 = # of size 4 clusters
     324 = # of frozen angles
  find clusters CPU = 0.315 seconds
fix             2 all nph aniso ${pressure} ${pressure} ${pressureDamp}
fix             2 all nph aniso 6125 ${pressure} ${pressureDamp}
fix             2 all nph aniso 6125 6125 ${pressureDamp}
fix             2 all nph aniso 6125 6125 1000
fix             3 all temp/csvr ${temperature} ${temperature} ${tempDamp} ${seed}
fix             3 all temp/csvr 263.63 ${temperature} ${tempDamp} ${seed}
fix             3 all temp/csvr 263.63 263.63 ${tempDamp} ${seed}
fix             3 all temp/csvr 263.63 263.63 100 ${seed}
fix             3 all temp/csvr 263.63 263.63 100 745823


run             250000
PPPM initialization ...
  extracting TIP4P info from pair style
  using 12-bit tables for long-range coulomb (../kspace.cpp:340)
  G vector (1/distance) = 0.37247303
  grid = 24 24 25
  stencil order = 5
  estimated absolute RMS force accuracy = 0.0034001022
  estimated relative force accuracy = 1.0239307e-05
  using double precision FFTW3
  3d grid and FFT values/proc = 2366 288
Last active /omp style is kspace_style pppm/tip4p/omp
Neighbor list info ...
  update every 1 steps, delay 7 steps, check yes
  max neighbors/atom: 2000, page size: 100000
  master list distance cutoff = 10.8154
  ghost atom cutoff = 10.8154
  binsize = 5.4077, bins = 4 4 4
  1 neighbor lists, perpetual/occasional/extra = 1 0 0
  (1) pair lj/cut/tip4p/long/omp, perpetual
      attributes: half, newton on, omp
      pair build: half/bin/newton/omp
      stencil: half/bin/3d
      bin: standard
Per MPI rank memory allocation (min/avg/max) = 9.227 | 9.231 | 9.238 Mbytes
Step Temp PotEng TotEng E_pair E_mol Press Lx Ly Lz Volume Pxx Pyy Pzz Pxy Pxz Pyz Enthalpy 
 8750000    265.51149   -4647.5825   -4135.5213   -4647.5825            0     4569.822    20.108548    19.813516    20.817973    8294.3184    2430.9439    7554.9511     3723.571   -519.22253    396.89495   -513.66713   -3582.7368 
 8751000    260.35734   -4695.0558   -4192.9347   -4695.0558            0    6028.1635    19.969338    20.000106    20.546884    8206.1972    6978.5404     5611.999     5493.951    401.96316   -70.475226    472.18763   -3471.4904 
 8752000    256.67714   -4673.8789   -4178.8555   -4673.8789            0    5691.0219     19.75353    20.129572    20.769925    8258.7475    4722.3889    7480.1346    4870.5423   -476.25469   -928.27671    1574.1932   -3493.3983 
 8753000    264.15712   -4696.5472    -4187.098   -4696.5472            0    5512.7745    19.912332    20.023293    20.716414    8259.8514    6281.3107    5027.6068    5229.4059    101.96684    53.682713   -1919.0675   -3523.0211 
 8754000    255.78467    -4721.813   -4228.5108    -4721.813            0    5304.2304    19.952543    20.109325    20.635947    8279.8059    5481.2739    3553.4291    6877.9881    157.14023    591.99054    1774.1641   -3588.0119 
 8755000    266.04096   -4690.6073    -4177.525   -4690.6073            0    6199.4445    19.960588    19.876512    20.747208    8231.3895    7228.6788    5861.3154    5508.3392    -86.64099    950.04026    -1725.963   -3433.3042 
 8756000    272.52101   -4693.0873   -4167.5077   -4693.0873            0    5406.4505    19.915182    19.896608     20.74719    8220.9611    5907.4808    5493.5307    4818.3401   -731.72225   -60.194922    607.07933   -3519.3051 
 8757000    281.26119    -4716.899   -4174.4632    -4716.899            0    6247.1553    19.974533    19.892333    20.686351    8219.5161    7358.1502    4652.8918    6730.4239    371.87814   -163.06482    196.57964   -3425.5966 
 8758000     263.4287    -4694.349   -4186.3046    -4694.349            0      5257.36    20.031238     20.18109    20.415101    8252.8503    3997.9356    7790.9687    3983.1758    17.410848    1583.4423    568.69299   -3553.5321 
 8759000    277.73029   -4678.1555   -4142.5293   -4678.1555            0    7885.0794    20.002064    20.007418    20.408197    8167.1494    7926.2674    8116.6548     7612.316   -544.18762    1379.7731    475.05803   -3203.3415 
 8760000    277.37129    -4695.836   -4160.9021    -4695.836            0    6585.7181    19.823819    20.011566    20.684536    8205.6729    7112.8281     6004.911    6639.4151    304.78296    731.60446   -10.689633   -3372.7806 
 8761000    277.13898   -4722.5938    -4188.108   -4722.5938            0    6976.6873    20.040847    20.008083    20.450114    8200.0646    6114.2821    6957.1296    7858.6503    45.934435    678.09779   -1929.4185   -3353.7692 
 8762000    292.28106   -4700.7046    -4137.016   -4700.7046            0     6928.655     19.89662    19.955433     20.61219    8183.9806    7555.1131    6126.3557    7104.4963    360.33539     1137.231   -636.20311   -3310.0466 
 8763000    291.33494   -4696.2052   -4134.3412   -4696.2052            0    5395.7574    19.834298    19.981269    20.752456     8224.498    6597.6436    5196.7342    4392.8943     13.50333   -296.52774    -14.78821   -3487.1425 
 8764000    256.41886   -4682.2442   -4187.7189   -4682.2442            0    5963.2339    20.106207    20.077675     20.28432    8188.4941     5063.276    6102.8119    6723.6137    104.56434    1410.6818    117.92362   -3475.5848 
 8765000    259.72942   -4681.6381   -4180.7281   -4681.6381            0    8545.0893    20.002661    19.974028    20.557661    8213.4787    8931.4254    7510.8319    9193.0105    876.65722    1457.8583    -168.3403   -3157.1532 
 8766000    257.16265   -4674.7535   -4178.7938   -4674.7535            0    3978.5251    19.933837    19.915254    20.834814    8271.1593    3275.7457    5040.4967    3619.3329   -81.041721   -778.22477   -652.36163   -3698.8787 
 8767000    265.52557   -4696.5423   -4184.4539   -4696.5423            0    5480.2821    19.817375    20.149247    20.743129    8282.8387    6802.7282    5234.9539    4403.1641   -765.95075   -514.47986   -1804.5156   -3522.4538 
 8768000    266.95813   -4727.4286   -4212.5774   -4727.4286            0    4802.8788    20.050432    19.988711    20.719694    8304.0864    5490.2625    4303.0181    4615.3558    -129.7269   -677.64687    1106.3651   -3630.9171 
 8769000    262.22513   -4691.0895   -4185.3663   -4691.0895            0    6062.6609    19.893648    19.930326     20.62908    8179.1595    6018.5621    7278.8191    4890.6015    591.11561   -1154.5656    1049.0309   -3462.1839 
 8770000    263.05196   -4695.3626   -4188.0447   -4695.3626            0    6814.4135     19.77201    20.339937    20.499392    8244.0649    8848.6729    4358.7991    7235.7686    345.48014   -379.21357    2.2468153   -3368.7394 
 8771000    263.32361   -4711.4357   -4203.5939   -4711.4357            0    5783.2098    20.269901    19.915848    20.336077    8209.5166    5237.7177    6302.1976    5809.7141    563.32577   -105.94514    637.31389   -3511.1854 
 8772000    267.52107   -4702.2109    -4186.274   -4702.2109            0    5984.7406    20.019775    20.024945    20.663307    8283.8141    5307.8948    6974.8058    5671.5213     818.3667     929.9138    1582.1036   -3463.2519 
 8773000    255.04533   -4693.7721   -4201.8957   -4693.7721            0    5251.0782    19.730449    20.273287    20.525386    8210.1762    7659.3584    2409.5774    5684.2987   -243.93819     105.3418    608.94455   -3573.1474 
 8774000    281.02744   -4678.6753   -4136.6903   -4678.6753            0    6083.0763    19.994765    19.922724    20.750307    8265.8887    6700.3522    5988.0038    5560.8728     946.3326    1280.5115   -754.85348   -3403.3784 
 8775000    264.49844   -4658.3642   -4148.2567   -4658.3642            0    4728.5586    20.011843    19.852202    20.917695    8310.1645    4723.7461    4783.2145    4678.7153    254.20322   -530.56188   -485.78328    -3575.178 
 8776000     279.9001   -4686.0168    -4146.206   -4686.0168            0    6144.4289    19.880332    19.978411    20.865807    8287.4276     6857.385    5855.4416    5720.4601    524.07284   -110.41716    1171.5619    -3403.568 
 8777000    281.19275   -4689.0455   -4146.7416   -4689.0455            0    6090.9475    20.032648    19.955021    20.642973    8252.0683    8207.4683    4218.0012     5847.373    563.17004   -845.69834   -731.59351   -3413.7086 
 8778000     262.1777   -4691.4257   -4185.7939   -4691.4257            0    8205.9067    19.806548    20.169422    20.324653    8119.4266    9381.4549    6850.4107    8385.8545    457.14614    1248.0624   -473.78693   -3214.1037 
 8779000    258.81283    -4667.245   -4168.1027    -4667.245            0    7867.9298    20.086561    19.723829     20.62714    8172.1406     5351.582    10498.504     7753.703    400.01369   -1883.6508    674.25137   -3230.3849 
 8780000    264.06709   -4663.5348   -4154.2592   -4663.5348            0    5378.0829    19.782149    19.991121    20.886579    8259.9599     5761.265    4705.6668    5667.3169    344.71192    -1948.948    367.84758    -3506.399 
 8781000    266.09842   -4657.9538   -4144.7606   -4657.9538            0    6472.2611    19.805864    20.200169      20.5907     8237.964    6177.0996    5760.3241    7479.3596   -900.24749    1788.9137   -381.87944   -3367.1686 
 8782000    263.94246   -4677.5661   -4168.5309   -4677.5661            0    7209.6143    20.182345    20.022897    20.284663    8197.2149    6120.0149    6557.0667    8951.7614   -508.45787    801.68613    542.11268   -3306.6361 
 8783000    265.89671   -4682.6577   -4169.8535   -4682.6577            0    7794.1492     19.96162    19.846397    20.609516    8164.7941    8409.6673    8016.6349    6956.1454   -922.06783    147.66534   -1742.9676   -3241.7641 
 8784000    262.64896   -4701.7382   -4195.1975   -4701.7382            0      7178.92    20.015599     19.70699    20.692364    8162.0455    6524.8335    8422.5549    6589.3716    -564.6605   -129.03798     1576.034   -3340.6544 
 8785000    255.04746   -4709.8302   -4217.9497   -4709.8302            0    7434.1374    19.698884    20.029524    20.699099    8167.0215    7025.5196    7990.1128    7286.7798   -36.519336    1022.9013     1161.924   -3332.4872 
 8786000     255.6702   -4693.8859   -4200.8044   -4693.8859            0    6820.0915    19.920562    19.909511    20.572915    8159.3964    8620.0193    5081.4632    6758.7921     -231.992   -186.96922   -94.479423   -3389.2379 
 8787000     271.4766   -4710.0093   -4186.4438   -4710.0093            0    4559.9808    19.745091    20.104106    20.684883     8211.017     3279.099     5449.283    4951.5603   -60.366597    991.13638    620.59428   -3640.3895 
 8788000    261.74788    -4669.356   -4164.5532    -4669.356            0    4626.6653    20.112428    19.997046    20.544749    8262.8751    4424.7857    5614.9738    3840.2363   -204.47898   -1259.3499   -132.09561   -3607.0144 
 8789000    262.48002   -4709.4822   -4203.2674   -4709.4822            0    6888.9329    19.681169    20.202669    20.581162    8183.3198    7931.4296     5868.232    6867.1371    121.73526    77.169385    355.42716   -3381.1054 
 8790000    254.31229   -4676.4175   -4185.9549   -4676.4175            0     6959.276    19.860109     19.84135    20.812278     8201.107    5936.0879    9133.9744    5807.7659    361.42357    450.95595    356.44847   -3353.5925 
 8791000    266.64611   -4697.0883   -4182.8388   -4697.0883            0    5708.4264    19.978235    20.081181    20.569474    8252.1965    5691.6012    4105.7652    7327.9127    -781.0994   -471.83604     842.9582   -3495.8307 
 8792000    268.00958    -4720.287    -4203.408    -4720.287            0    4719.4457    19.856253    20.222667    20.641227    8288.4105     5884.233    2565.5683    5708.5357    533.44435    835.77251   -519.80833    -3632.931 
 8793000    274.74803   -4696.8423   -4166.9676   -4696.8423            0    4812.0097    19.956013    19.951007    20.823475    8290.7113    4793.1426    6526.1553    3116.7313    451.36875   -394.07456   -517.53385   -3585.1402 
 8794000    244.00106    -4681.733   -4211.1564    -4681.733            0    7451.9151    19.889653    20.029358    20.617095    8213.3762    7116.8318    7067.3927    8171.5208   -37.850994   -565.55238    671.69688   -3318.5387 
 8795000    257.37104   -4718.4049   -4222.0433   -4718.4049            0    6963.2628    20.108842    20.124094    20.366695    8241.8357    6673.8566    6997.2441    7218.6876   -195.59912   -154.69187    753.77373    -3385.068 
 8796000    252.28431   -4693.2486   -4206.6971   -4693.2486            0    4434.0776    19.942549    20.067761    20.682234    8277.0777    4105.2144    4572.0034    4625.0149    -975.1292    -1377.429    31.246802   -3671.4477 
 8797000    267.32615   -4696.6719    -4181.111   -4696.6719            0    5837.7043    19.726234    20.002528    20.846867    8225.6432    4360.4361    6917.2041    6235.4728   -616.58853   -595.50928    605.43381    -3480.805 
 8798000    268.63942   -4730.3055   -4212.2117   -4730.3055            0    6031.0539     20.10136    19.901313    20.582707    8233.9774    6004.6687    5860.3869    6228.1062   -234.94543   -98.176669    873.68146    -3487.978 
 8799000    267.99985   -4672.6114   -4155.7512   -4672.6114            0    6353.2686     20.15406    20.070459    20.404416    8253.6118    3865.4776    8491.6334    6702.6949   -377.48227    282.02514   -781.80693   -3391.0053 
 8800000     246.7015    -4667.792   -4192.0074    -4667.792            0    6541.0816    20.063607    20.111926    20.464476    8257.7801    7609.9074     5268.213    6745.1244     183.3234    -772.3596    254.25319   -3404.2568 
 8801000    284.25569   -4657.0054   -4108.7944   -4657.0054            0    6536.0514    20.015007    20.034697    20.701996    8301.3886    6055.8869    6579.9441    6972.3232   -238.38242   -665.48769   -415.47183   -3317.4927 
 8802000    267.06234   -4706.6188   -4191.5666   -4706.6188            0    6693.8507    19.886021    19.979714    20.791079    8260.6495    5594.5097    8031.6848    6455.3574    227.67767    1427.1215   -390.92385   -3385.1377 
 8803000    256.10115   -4714.1335   -4220.2209   -4714.1335            0    6733.0678    19.900256    20.133686     20.46674    8200.3169    6497.0389      7114.84    6587.3244    416.14207    1335.7089   -348.30599   -3414.9917 
 8804000    272.96261   -4692.7113   -4166.2799   -4692.7113            0    6711.9593    19.959431    20.096839    20.585297     8257.205    9329.7346    4021.5331    6784.6102   -992.91643    484.93447    751.49088   -3358.0066 
 8805000    262.78074   -4687.9624   -4181.1677   -4687.9624            0    7367.7873     19.76441    19.893265    20.945062    8235.1512    9011.2512    8823.0743    4269.0363    752.61434    390.23047    147.02636   -3296.2873 
 8806000    271.00612   -4655.3622   -4132.7041   -4655.3622            0    6331.0798    20.085927     19.91201    20.631787    8251.7073    5441.1945    7280.8358    6271.2093    355.01846    1457.3191    623.76033   -3370.8049 
 8807000    259.11636   -4714.7621   -4215.0344   -4714.7621            0    6222.7444    19.867934    20.146722    20.441318    8182.1225    6849.1221       5126.2    6692.9111    119.84073    945.72574     573.9766   -3472.4876 
 8808000    256.14189   -4677.3142    -4183.323   -4677.3142            0    4839.6953    20.140913    19.891635    20.616648    8259.7648    3943.5509    4509.0202    6066.5148    456.90841    280.93245   -597.17125   -3600.3323 
 8809000    267.14217   -4699.9146   -4184.7084   -4699.9146            0    5914.0587    19.820164    19.950557    20.820496    8232.9096    7008.7345    6051.0919    4682.3496    634.92823    616.41007    1561.4933    -3474.616 
 8810000     264.5245   -4686.6115   -4176.4538   -4686.6115            0    7132.6625    19.836111    19.975707     20.55559    8144.9538    7798.8644    6827.1822    6771.9411    86.683865    595.07616    656.94267   -3329.1948 
 8811000    255.60453   -4670.7184   -4177.7636   -4670.7184            0    6532.2224     20.15827    19.916077    20.539011    8245.8716    4540.7066    8575.9566    6480.0038    -17.17957   -1475.5146     511.0413   -3392.2143 
 8812000    272.30481   -4666.6716   -4141.5089   -4666.6716            0    5480.1784    19.965619    20.163636    20.725203    8343.5414    5130.3455    6196.0675    5114.1222    96.246769    2763.9888    -193.3999   -3474.6698 
 8813000    265.32387   -4658.3776   -4146.6782   -4658.3776            0    6762.4338    20.103296    19.829678    20.601449    8212.6006    4506.9079    8454.8995    7325.4939   -328.76994   -717.73379    1122.0556   -3336.7256 
 8814000    269.05674   -4701.8804   -4182.9819   -4701.8804            0    6079.4442    19.838445    20.063056    20.616313    8205.7017    8947.9495    3227.3469    6063.0362    -375.6682   -814.71659    418.73748   -3455.4442 
 8815000    260.11557   -4683.4537   -4181.7989   -4683.4537            0    7849.7959    19.839713    19.778268    20.731815    8135.0639    7586.0438    8585.3486    7377.9953   -396.95781   -1150.4793   -413.28953   -3250.4869 
 8816000     277.6656   -4678.0044   -4142.5029   -4678.0044            0    7121.9321    19.767898    20.047084    20.751273    8223.4953    10183.817     4324.351    6857.6287   -75.397016    463.49297     53.01854   -3288.3607 
 8817000    268.49057   -4727.3667     -4209.56   -4727.3667            0    5582.6988    20.045082    20.016256    20.569174    8252.9179    6760.5463    3758.6926    6228.8574   -24.573315    764.14778   -32.951062   -3537.6245 
 8818000    265.32508   -4698.0404   -4186.3387   -4698.0404            0    5287.4778    19.865403    20.275487    20.510307    8261.1561    5771.9363    3580.7899    6509.7072    808.60196    1309.8755    106.66084   -3549.3008 
 8819000    259.97559   -4724.1531   -4222.7683   -4724.1531            0      6340.29    20.017285    19.983645    20.552856    8221.5192      6716.49    6135.7643    6168.6157    607.24692    1196.0237    882.93854   -3462.5522 
 8820000    269.28047   -4681.1153   -4161.7853   -4681.1153            0     6011.205    19.915766    19.811674    20.771035     8195.516    6139.2276    6491.7281    5402.6592    784.01179    293.43851    -1360.821   -3443.3069 
 8821000    264.36426   -4670.4835   -4160.6348   -4670.4835            0    7220.5118    19.748625    20.121914     20.57589    8176.4496    9413.9902    4338.7678    7908.7775    617.25421    -774.5826    323.47913   -3299.6239 
 8822000    280.67696   -4653.9389   -4112.6298   -4653.9389            0    7284.5246    20.152706    19.887571     20.46428    8201.8452    5623.2333     8669.386    7560.9545    240.78187    195.15995   -1305.6758   -3241.2877 
 8823000    245.72657   -4705.5239   -4231.6195   -4705.5239            0    5129.0401    20.079753    20.073455    20.607645    8306.3239    5052.2156    6318.6179    4016.2869   -100.84988   -480.59985    278.05842   -3610.2916 
 8824000     257.3917   -4716.5293   -4220.1278   -4716.5293            0    5383.9614    19.873936     20.10115    20.809002    8312.9666    6164.6703    6365.1058     3622.108   -785.34847    694.84999    -472.2078   -3567.3974 
 8825000    260.30429   -4703.2971   -4201.2784   -4703.2971            0    5828.7065    19.963628     20.18064    20.561194    8283.6692    4256.1089    5554.2677    7675.7428    138.73481    -491.0115    -82.22559   -3497.1192 
 8826000    264.85245   -4690.8671   -4180.0769   -4690.8671            0    6324.7912    19.780782    20.097506    20.538092     8164.803    5462.6187    5262.9406    8248.8141     -321.861   -65.291623   -1611.9302   -3426.9507 
 8827000    244.71529   -4698.9133   -4226.9593   -4698.9133            0    7583.2431    19.886046      19.9346    20.693305    8203.2475    8617.9738    6113.8149    8017.9408     182.7033   -608.19022    -63.03635   -3319.7308 
 8828000     278.8911   -4681.4906   -4143.6256   -4681.4906            0    7831.9393    19.751905    19.999674    20.848935    8235.9895    9320.3679    7914.0434    6261.4066   -1128.7947    409.98586   -453.30187   -3202.9043 
 8829000    256.54254   -4697.8816   -4203.1178   -4697.8816            0    5361.6797    19.868783     20.02705    20.649517    8216.7135    8110.0609    3627.7609    4347.2172    551.62957    2086.1688   -736.18134   -3560.6152 
 8830000    261.31376    -4648.599   -4144.6334    -4648.599            0    6104.6043    19.661321    20.183634    20.663201    8199.9211    6928.1474    5483.2907    5902.3749   -46.044145   -112.61711   -156.71212   -3414.5994 
 8831000     259.6263   -4667.5915   -4166.8803   -4667.5915            0    5518.4534    20.090617    19.822695    20.599023    8203.5645     5042.995    6160.5092    5351.8561     303.3773   -473.62274   -461.44177   -3506.6494 
 8832000    263.98027   -4716.1565   -4207.0483   -4716.1565            0     6408.671     20.07899    20.068681    20.403989     8221.968    6494.5793    6330.2195    6401.2144   -162.16147    1124.9801   -110.56629   -3438.5912 
 8833000    257.51864   -4670.0997   -4173.4534   -4670.0997            0    5531.4732    20.062109    20.092553    20.688083     8339.345    4343.2139    7716.6896    4534.5162    104.03707   -224.96519   -1826.7587   -3500.7112 
 8834000    276.64182   -4682.4325   -4148.9055   -4682.4325            0    3984.9633    19.976947    19.855564    21.008492    8333.0926    4126.1473    4849.0754    2979.6672   -160.87766   -758.41093   -489.28605   -3664.6145 
 8835000    260.11706   -4705.5561   -4203.8985   -4705.5561            0      5677.39    19.962495    19.996357    20.657545    8246.0207     4182.656    7889.3098    4960.2043   -264.71307    880.34462   -382.47383   -3521.1369 
 8836000    260.33178   -4699.4203   -4197.3486   -4699.4203            0     6074.411    19.878028     20.15974    20.539406    8230.8765    4814.1356    7315.4132    6093.6843   -324.20525    353.83594    -344.7333    -3468.183 
 8837000      263.202   -4704.2895   -4196.6823   -4704.2895            0    6371.7804     19.94854    19.909815    20.666307    8208.0729      7678.83    5014.3998    6422.1115    389.94116   -1378.1339    1280.1404   -3433.9398 
 8838000    261.86245   -4672.7739   -4167.7502   -4672.7739            0    8547.6608    19.843744    19.979391    20.553554    8148.7838    9694.4457     7693.936    8254.6007   -702.71418   -573.01105    362.10594    -3151.932 
 8839000    249.68441   -4717.3273   -4235.7899   -4717.3273            0    6519.2503    19.789747    20.009922    20.847286    8255.3438    6764.4898    6224.9251    6568.3361    -468.1412   -724.17658     644.1116   -3450.9001 
 8840000     267.5757   -4711.1018   -4195.0596   -4711.1018            0    7423.9585    19.897753     19.95278    20.542611    8155.7346     8609.136     6484.838    7177.9014   -268.04878    399.90472   -1467.3432   -3312.0315 
 8841000    251.92726   -4703.4382   -4217.5753   -4703.4382            0     4826.524    20.136019    20.184398    20.546096    8350.6201    4364.6581    5089.7597    5025.1542   -572.36258    88.490137    246.14522    -3629.776 
 8842000    271.71778   -4719.5591   -4195.5285   -4719.5591            0    5811.8063    19.856543    20.012594    20.657064    8208.7235    5153.6067    7314.7873    4967.0248    518.22471    1047.8163    578.94757   -3499.7634 
 8843000    266.34999   -4682.9822   -4169.3039   -4682.9822            0    4716.1238    19.862072    20.238811    20.714431    8326.8848    6090.3793    3218.2991    4839.6929   -491.82386   -244.71313     1293.334   -3596.5822 
 8844000    259.69945   -4683.4199   -4182.5677   -4683.4199            0    7796.2126    20.001261    19.884554    20.573739    8182.5083    6297.6187     9544.326    7546.6931     70.06478    866.78513    375.53061   -3252.2184 
 8845000    255.19144   -4712.4116   -4220.2534   -4712.4116            0    6559.6332    19.880293     20.18279    20.454337    8207.0937    5436.5289    6718.2848     7524.086   -350.40167   -410.38609    -774.5217   -3435.1175 
 8846000    259.78366   -4682.9817   -4181.9671   -4682.9817            0    4241.1386    20.086365     20.04071    20.723317    8342.0681     4831.241    4637.7596    3254.4151    465.10354   -341.75898   -1594.8234    -3665.988 
 8847000    253.83278   -4678.1817   -4188.6438   -4678.1817            0    5095.7593    19.994003     19.95502    20.692253      8255.81    5836.5091    4927.2995    4523.4694    278.98993   -200.45874   -1027.9595   -3575.1015 
 8848000    276.14825   -4710.6949   -4178.1197   -4710.6949            0    8743.2806    19.965724    19.740604    20.667869    8145.9396    8620.8109    9744.7093    7864.3218   -315.76316   -172.70742     896.0802   -3139.4165 
 8849000    268.09169   -4719.6834    -4202.646   -4719.6834            0    4268.8516    20.036631      20.1123    20.613753    8306.9866    4621.0745    3554.9848    4630.4956   -457.94807    762.59291   -348.20598   -3685.4794 
 8850000    273.53898   -4705.6054   -4178.0625   -4705.6054            0    6130.5548    19.871743    19.854524    20.847632    8225.3079    3409.6065    7866.3309    7115.7269     53.20038   -679.88454    2144.9416   -3442.6553 
 8851000    250.30683   -4710.1772   -4227.4394   -4710.1772            0    5588.4502    20.082304     19.89315    20.708469    8273.0394    4590.5661    6972.1267    5202.6578    860.77117   -585.11781   -64.207556   -3553.1717 
 8852000    253.38603   -4671.9925   -4183.3163   -4671.9925            0    3867.6107    19.928003    20.263933    20.522047    8287.2071    3147.6334    3622.5172    4832.6815    678.61141   -729.08241     859.7102   -3715.8752 
 8853000     257.9834   -4660.4653   -4162.9227   -4660.4653            0    7139.1583    20.114537    19.836779    20.570298    8207.7061    5144.5167    9063.3399    7209.6183   -156.20246   -185.58992     498.0039   -3308.3585 
 8854000    268.40751   -4685.0248   -4167.3784   -4685.0248            0    6529.3523    20.033215    19.896881    20.593535    8208.5516    7631.6786    4198.7712    7757.6069    411.07247    228.31098    802.26197    -3385.728 
 8855000    272.71672   -4661.4938   -4135.5367   -4661.4938            0     5872.564    19.806352    19.909856    20.798846    8201.8504    5960.1089    5846.1657    5811.4175    456.16357   -189.17233   -351.51778   -3433.0866 
 8856000    260.70374   -4718.7944   -4216.0053   -4718.7944            0    5912.6023    19.982523     19.97713    20.724605    8273.1265    5922.1247      5261.42    6554.2621   -200.34821   -17.937224   -395.70594   -3502.6199 
 8857000    261.57576   -4674.2759    -4169.805   -4674.2759            0    8586.0745    19.835504    20.079269     20.32638      8095.64    9214.2063    7432.4342    9111.5831    447.91095    422.65103    1345.2326   -3156.0763 
 8858000    260.95955   -4652.9169   -4149.6345   -4652.9169            0    6802.5481    19.834918    20.026124    20.694013    8220.0038    7528.2551    6011.7493    6867.6401    337.53263    1905.1193    380.49958   -3334.1428 
 8859000    252.23658   -4681.1825    -4194.723   -4681.1825            0    4365.8306    20.203529     19.93295    20.730896    8348.6621    2661.3418    6010.1303    4426.0198    739.34677    1254.2426    100.21139    -3663.154 
 8860000    277.72936   -4695.3502   -4159.7258   -4695.3502            0    7366.6279    19.893773    19.942003    20.665679    8198.5228    7199.5065    7185.4113    7714.9659    436.02249   -157.15193   -550.53841   -3278.9198 
 8861000    270.15906   -4671.6332   -4150.6087   -4671.6332            0    6914.0224    20.218216    20.017475    20.451897     8277.243    6221.5775    6906.7193    7613.7705    119.93433   -122.86145    652.21642   -3315.9818 
 8862000    271.12104   -4691.9263   -4169.0466   -4691.9263            0    6430.0681    20.019929    20.010577     20.55994    8236.5246    7529.9812    4001.8706    7758.3524   -372.26482    634.14795   -1149.9743   -3396.6587 
 8863000    258.75305   -4707.9587   -4208.9317   -4707.9587            0    6495.2757    19.789314    19.918033    20.778356    8190.0842    6515.9397    5741.0987    7228.7886   -63.780639    732.85013   -653.38197   -3433.1101 
 8864000    268.03053   -4685.9916   -4169.0722   -4685.9916            0    6486.0626    19.956351    20.204752    20.479135    8257.4562    5136.4236    6722.2083    7599.5559     107.6704    349.83051    562.44064   -3387.9782 
 8865000    250.88909   -4670.6221   -4186.7614   -4670.6221            0    7041.7698    19.837949    20.077185    20.699674    8244.4764    6865.2513    7873.8182    6386.2398    639.41663    909.38939    175.57651   -3340.0785 
 8866000    248.55244   -4692.3041   -4212.9498   -4692.3041            0    5715.6308    20.093441    19.820135    20.711915    8248.6179    4118.0575     7998.652     5030.183   -117.74319   -182.37675   -155.06833   -3525.3729 
 8867000    240.61308   -4676.2418   -4212.1993   -4676.2418            0    7957.8737    19.985929    20.125432    20.348547    8184.7035    8028.3463    8282.1153    7563.1595    349.94615    212.76809    1534.1955   -3262.3037 
 8868000    257.60618   -4696.8787   -4200.0635   -4696.8787            0    5187.7159    20.014179    19.914018    20.681186    8242.7497    4778.5246    5717.9836    5066.6394    242.96743    1005.6862    508.92167   -3576.4375 
 8869000    261.12852   -4715.7765   -4212.1682   -4715.7765            0    5737.2643    19.850102    19.932913    20.726142    8200.7199    5927.3222    5622.2288    5662.2419     7.356975    978.34317   -1133.4372   -3525.9966 
 8870000     265.3565   -4689.4288   -4177.6665   -4689.4288            0    5304.2367     20.00193    19.954566     20.71752    8268.9804    5131.9781    6807.8462     3972.886   -205.65309     -871.054    444.62877   -3538.0042 
 8871000    248.15412   -4699.8002   -4221.2141   -4699.8002            0    4515.6767    20.181042    20.052442    20.454149    8277.3679    2552.0581    4231.5433    6763.4288   -48.198548   -253.08482    337.49142   -3676.0955 
 8872000    270.80938   -4671.9911   -4149.7124   -4671.9911            0    7266.6936    19.908626    20.190745    20.429941    8212.2233    6994.7596    6949.5802     7855.741   -1032.5531    214.55382   -228.78195   -3279.4034 
 8873000    262.06999   -4682.3889   -4176.9648   -4682.3889            0    5749.0601     20.13355    19.786423    20.578465    8197.8621    4798.5631    7179.8078    5268.8094    706.27912   -265.35643   -1234.2446   -3489.6221 
 8874000    268.47745   -4710.8682   -4193.0869   -4710.8682            0     4186.041    20.012566    20.026321    20.781119    8328.6167    5590.3533    2700.7356    4267.0339   -699.13933    762.94739    218.16675   -3684.6322 
 8875000    264.23107   -4666.8576   -4157.2658   -4666.8576            0    6748.8617    20.165823    20.113267    20.380517    8266.3496    6560.0607    6641.7372    7044.7873    306.08183   -47.501238   -573.93552   -3343.6485 
 8876000    252.44858   -4713.3019   -4226.4336   -4713.3019            0    4406.9518    20.021499     20.03248    20.684987    8296.3403    4378.6516    5080.3502    3761.8536    692.25274    1077.0215    265.54949   -3693.2206 
 8877000    267.23853    -4700.191    -4184.799    -4700.191            0    7582.4624    20.064199    19.861911     20.57698    8200.2008    9366.4523      5311.61     8069.325    920.55534   -319.74782   -139.88392   -3278.0008 
 8878000    268.73608   -4718.4884   -4200.2083   -4718.4884            0     6159.581    20.078847    20.050965    20.345679    8191.1759    5590.7683    5547.1912    7340.7834    736.51694    935.19143    754.49575   -3464.3853 
 8879000     276.8547   -4673.6568   -4139.7192   -4673.6568            0    4823.1236    20.070476    19.986027    20.644824     8281.239    4628.6905    4195.2016    5645.4789   -729.49396    658.58238    960.04124   -3557.2143 
 8880000    250.16311   -4705.3059   -4222.8453   -4705.3059            0      6340.04    19.877634    19.883273    20.811192    8225.2578     7262.901    7395.5868    4361.6321   -81.269595    214.79836    482.12668   -3462.3135 
 8881000    250.32174   -4714.3464   -4231.5799   -4714.3464            0    5408.1235    20.015484    20.101839    20.542721    8265.3235    4412.5252     5664.758    6147.0872    224.25434   -467.73073   -119.23246   -3579.6779 
 8882000    279.28337   -4681.9607   -4143.3392   -4681.9607            0    5804.9289    20.068353    20.064064    20.365134    8200.0765     6221.846    4548.4277    6644.5129   -332.29233    505.98034    741.80768   -3449.1295 
 8883000    274.28446   -4686.6267   -4157.6461   -4686.6267            0    3638.9476    20.192671    20.014636     20.65181    8346.4078    485.13308    5564.3554    4867.3543   -232.06466   -680.33769    20.386911   -3714.6996 
 8884000    260.14708    -4712.974   -4211.2585    -4712.974            0    6222.9888    19.837901    20.016014    20.764773    8245.1865    6197.0219    5505.5186    6966.4259    320.85558   -1233.8134   -878.46895   -3462.9591 
 8885000     266.1163   -4697.5709   -4184.3432   -4697.5709            0    6372.8015    19.827098    19.787179    20.886178     8194.114     7340.766    6731.9345    5045.7039   -421.19074    120.41019   -141.70332   -3422.7759 
 8886000    267.07772   -4688.0494   -4172.9675   -4688.0494            0    6784.1103    19.894095    19.963682    20.608891    8185.0147    8393.9627    5683.0351     6275.333     197.2833    797.61582    353.55063    -3363.148 
 8887000    261.17234   -4710.2176   -4206.5248   -4710.2176            0    6672.0966    19.990011    19.987358    20.617955    8237.8524    6976.8585    7389.8443    5649.5871   -89.489814   -366.11002   -238.31154   -3404.9349 
 8888000    257.15269   -4688.1229   -4192.1824   -4688.1229            0    7251.9586    20.063913    19.863105    20.563442    8195.1818    7821.8563    6770.3679    7163.6516   -184.42487   -625.62636    826.48791   -3325.4404 
 8889000    254.42416   -4719.1353   -4228.4569   -4719.1353            0    7767.5527    20.025263    20.085716     20.27612    8155.4965    8332.6155    6844.1979    8125.8448    744.27259    -99.08837    1575.3179   -3304.5876 
 8890000    268.24061   -4685.5805   -4168.2559   -4685.5805            0    3919.4114    19.990323    19.987992    20.799459    8310.7655    4771.8896    3447.5942    3538.7503   -274.16032   -44.054227    589.87129   -3693.2077 
 8891000    258.48975    -4690.293   -4191.7738    -4690.293            0    5025.7364    19.766637     19.92689    20.876987    8223.1862    5610.9283    4493.5643    4972.7167    161.88688   -54.516149   -484.70617   -3589.0536 
 8892000    249.42456   -4653.3967   -4172.3604   -4653.3967            0    7473.5776    19.840805    20.118735    20.487627    8178.0852    9415.9403    5469.4199    7535.3728   -731.42407    724.70092    96.554403   -3280.9944 
 8893000    255.42863   -4696.9112   -4204.2956   -4696.9112            0     4432.196    20.087825    20.211622    20.470429    8311.1481    5167.2917    3793.0476    4336.2487   -388.52561   -265.61597   -1142.1499    -3667.071 
 8894000    266.85357   -4697.0801   -4182.4306   -4697.0801            0    5772.3661    19.926213    20.046413    20.689295    8264.3202    5890.9292    5894.6266    5531.5424   -393.55452    797.04875   -730.31995   -3486.7067 
 8895000     263.5261    -4694.571   -4186.3388    -4694.571            0    3309.2104    20.153429    19.954159     20.69891    8323.9575    4107.3806    1976.5132    3843.7373    34.593521   -1682.8372   -986.88651   -3784.6126 
 8896000    259.53431   -4688.1629   -4187.6292   -4688.1629            0    8465.3037    19.923842    20.078301    20.284004    8114.3498    8344.6506     6827.097    10224.163    -271.9313     492.1939   -1126.4557   -3185.8496 
 8897000    257.51437   -4723.8913   -4227.2532   -4723.8913            0    6033.3916    19.901757    20.007436    20.720858    8250.6959    7241.5191    6208.0165    4650.6392   -61.847013    310.93486    860.95579   -3501.2676 
 8898000    263.41462   -4718.1234   -4210.1062   -4718.1234            0    6000.1816    19.862291    20.083526    20.699873    8257.2793     4877.585    8176.4957     4946.464   -120.31122   -1091.4436    632.78553   -3487.5406 
 8899000    274.35788   -4687.8623     -4158.74   -4687.8623            0    7937.9894    19.968333     19.87607    20.554029    8157.7292    6718.3402    8230.1044    8865.5235   -280.50379    319.58307    1446.6266   -3214.3407 
 8900000    250.91808   -4676.3353   -4192.4187   -4676.3353            0    7344.7714    19.663021    20.184455    20.621465    8184.3987    7965.6082    6817.9984    7250.7077     114.0024    196.09612    2488.8431    -3315.739 
 8901000    260.65573   -4647.1045    -4144.408   -4647.1045            0    6866.1556    19.969952    20.121708    20.500012    8237.5105    7731.8436    4457.9718    8408.6515    56.985187     886.9525    782.11242    -3319.538 
 8902000     272.4077   -4692.2756   -4166.9144   -4692.2756            0    6067.1881    19.939166     20.10571    20.595965    8256.7392    8819.4161    4111.1761     5270.972     158.5982   -294.27957    712.16072   -3436.3275 
 8903000    270.66272    -4710.847   -4188.8512    -4710.847            0    6485.6066    19.882668    19.753952    20.992357    8244.9847    7935.2053    7095.1466    4426.4679   -103.26357    466.13375    1103.5701   -3408.9917 
 8904000    269.08229   -4704.5181   -4185.5703   -4704.5181            0     6611.907    19.937466    19.864374     20.73574    8212.2923    8268.5639    5553.2375    6013.9197   -360.80346   -840.27967     597.0894   -3393.6763 
 8905000    262.44123   -4699.1028   -4192.9628   -4699.1028            0    5162.0199    20.174827    19.954129    20.582048    8285.7377    4545.0471    4907.6378    6033.3747   -426.37929   -533.17442    54.003774   -3569.1895 
 8906000     261.7158    -4701.235   -4196.4941    -4701.235            0    8447.6425    20.091088    20.000437    20.315689    8163.4644    7845.4565    8173.9881    9323.4829   -71.565236   -160.39177   -1887.9218   -3190.7536 
 8907000    270.98083   -4700.5045   -4177.8951   -4700.5045            0    5333.0042    20.008048    20.014082    20.716809    8295.8953    5248.9227    5895.3535    4854.7363   -45.310795   -751.35095   -1313.3714   -3532.6703 
 8908000     252.9396   -4706.8644   -4219.0491   -4706.8644            0    5516.4493    19.795244    20.096472    20.708795    8238.2603    4304.3642    6903.2423    5341.7415   -884.91716    318.56379   -1019.7765   -3556.2666 
 8909000    255.69659   -4704.0848   -4210.9524   -4704.0848            0    5564.2896     20.19985    20.037435    20.340315    8232.8073    3099.9685    6415.8671    7177.0334    815.47233    1434.5479    700.44212   -3542.8645 
 8910000    267.31738   -4705.8486   -4190.3046   -4705.8486            0    5349.2624    20.018425    20.045777    20.685236    8300.6724    6627.7858    4106.6625    5313.3391    135.30725    1210.5178    538.68783     -3542.74 
 8911000    262.96663   -4706.9817   -4199.8284   -4706.9817            0    7019.1714    20.070444    19.951836    20.512247    8213.9695    5224.5145     8607.667    7225.3328    172.74125   -217.03188   -743.96883   -3358.9856 
 8912000    268.91979   -4708.5291   -4189.8946   -4708.5291            0    4854.2774    19.854042    20.149505    20.672045    8269.8334    8113.4723    1761.3787    4687.9812    1030.1023    -2042.845   -1147.6437   -3604.4346 
 8913000    273.24967   -4701.4819   -4174.4969   -4701.4819            0    7701.8822    19.765638     20.14389    20.609677    8205.8837    10554.987    5709.0304     6841.629   -649.29544    906.10713    -463.3125   -3252.7788 
 8914000    251.80255    -4680.016   -4194.3936    -4680.016            0    6001.4745    19.880875    19.812585    20.773935    8182.6771    5829.8129    5647.6605    6526.9501    464.81346    538.16452   -1012.3148    -3478.202 
 8915000     262.7418   -4696.3586   -4189.6389   -4696.3586            0    7509.1373    19.846415    19.895896    20.804506    8214.9132    10546.163    6043.6504    5937.5986    241.88362   -1258.4814   -52.020366   -3289.9986 
 8916000    261.29726   -4667.1643   -4163.2306   -4667.1643            0    8369.9608    19.908823    20.060293    20.422733    8156.3663    7128.2151    8604.8465    9376.8208    201.44204    1277.9694    728.24111    -3167.605 
 8917000    270.15672   -4706.7797   -4185.7597   -4706.7797            0    4845.8709    19.882814    20.009094    20.719753    8243.0864    4499.7895    5532.8457    4504.9774    257.17073   -36.484468    253.99814   -3603.2039 
 8918000     267.2637   -4647.4143   -4131.9738   -4647.4143            0    8842.3235     19.80867    19.784359    20.714818    8118.1752     9153.305    9568.5821    7805.0835   -946.01407   -351.90014   -271.61227   -3085.0846 
 8919000    273.05203   -4678.3559   -4151.7521   -4678.3559            0    5559.9178    20.128885    20.051218    20.467036    8260.6733    3954.3694    6177.0559    6548.3282    667.86161    -331.0397   -793.80107   -3481.9296 
 8920000    274.35737   -4708.0748   -4178.9536   -4708.0748            0    5922.1954    20.027012    20.113299    20.591376    8294.3971     6304.435    4460.6561    7001.4952    226.50959    672.44725    688.02243   -3462.5736 
 8921000    265.96671   -4677.8403   -4164.9011   -4677.8403            0     5730.107     19.98578    19.885091    20.774925     8256.351    5489.4744    7054.2156    4646.6311   -275.93347    -822.0588   -1293.2862   -3474.9365 
 8922000    252.17998   -4686.8916   -4200.5413   -4686.8916            0    7014.8777    20.007347    20.042452    20.507202     8223.312    5787.9849    6937.5545    8319.0937   -684.22318   -1102.4318    -693.3757   -3359.2571 
 8923000    261.32262   -4711.9782   -4207.9956   -4711.9782            0    7665.8927     19.94027    19.829758    20.584698    8139.4101    6896.5246    8460.8435    7640.3101    185.64109   -157.03163   -775.59492   -3298.0162 
 8924000    254.50512   -4672.2103   -4181.3758   -4672.2103            0     5605.947    19.990514    19.912416    20.765638    8265.9579    5348.6515    5892.1676    5577.0219    -304.5695    1170.7957    1062.9083    -3505.576 
 8925000    263.92115   -4704.9559   -4195.9618   -4704.9559            0     8215.787     19.86641    20.108994    20.534018    8203.2073    9905.5711    7520.5347    7221.2552    443.78396   -476.17713   -368.97989   -3213.0631 
 8926000    249.51294   -4693.4908   -4212.2841   -4693.4908            0    6074.3414    20.208597    20.061892    20.188761    8184.9818    4744.6816    6659.8228    6818.5197    425.02322    1153.3884     -235.236   -3487.1926 
 8927000    272.29894   -4702.8607   -4177.7093   -4702.8607            0    5836.3673    19.901486    20.026844    20.639535    8226.1745    7383.0129     5995.991     4130.098    -400.8328    362.85574   -467.10472   -3477.5184 
 8928000    250.09983   -4668.7011   -4186.3626   -4668.7011            0    4803.7289    19.880725    19.935502    20.967491     8310.093    5442.4534    5006.9273     3961.806    53.056689    357.35033    382.85385   -3604.1786 
 8929000    268.75942   -4685.4884   -4167.1632   -4685.4884            0    4332.4468    19.979336    20.042415    20.785027    8323.0343    4040.6148    4365.6836     4591.042   -103.40286    358.33536    453.19199   -3641.2782 
 8930000    260.27811   -4665.5189   -4163.5507   -4665.5189            0    5917.7826    19.996285    19.916338    20.714569    8249.6344    5577.6818    7458.1448    4717.5212    3.8993254    855.46405    1050.9357   -3451.5678 
 8931000    260.55164   -4698.6753   -4196.1795   -4698.6753            0    4881.9528    20.109898    20.100208    20.540214    8302.6241    4263.9249    4732.4773    5649.4561     374.6252   -1347.9462   -615.56012    -3605.047 
 8932000    271.71552   -4707.9169   -4183.8907   -4707.9169            0    7931.7994     19.86661    19.956879    20.621233    8175.8141     6214.344    10325.142    7255.9126    153.25035    1138.5136   -1492.2037   -3238.1357 
 8933000    260.17531   -4710.3699      -4208.6   -4710.3699            0    6897.7218    19.922742    19.862561    20.615511    8157.9016    5319.4711    8925.2061     6448.488    853.90599   -1020.7931   -1180.6153   -3387.9461 
 8934000    257.44217   -4694.3633   -4197.8645   -4694.3633            0    5542.2536    20.189641    19.950154    20.537069    8272.0532    6743.0917    5592.6922     4290.977   -1145.3313   -909.59941   -84.381213   -3529.2503 
 8935000    277.08141   -4688.3245   -4153.9497   -4688.3245            0     7527.378    19.773732    20.167921    20.466745    8162.0371    8209.5979    5974.6682    8397.8679    78.130699   -607.88333    1243.6002   -3257.9287 
 8936000    265.53905   -4663.8353   -4151.7209   -4663.8353            0    8267.3778    20.031837    19.705345    20.746542    8189.3708    7453.3501    10003.124    7345.6591    -107.3265    2881.0418   -616.15431   -3164.3184 
 8937000    263.41453   -4704.6903   -4196.6733   -4704.6903            0    6588.7588    19.774323    19.992548    20.753079    8204.5037    5445.0067    8684.5586    5636.7111    -478.7918   -760.97837   -1059.5425   -3408.3001 
 8938000    260.80769   -4670.3469   -4167.3573   -4670.3469            0    6645.7933    20.181948    19.858932    20.623134    8265.5856    7370.5206    5478.1982    7088.6612    336.66507    982.39475    607.26852   -3366.2396 
 8939000    244.43482   -4689.9248   -4218.5117   -4689.9248            0     5242.047    19.942385    20.047194    20.710558    8279.8502     4467.626    5562.0648    5696.4503   -81.052211    471.59331   -1617.5582   -3585.5181 
 8940000    266.98786   -4670.9505   -4156.0419   -4670.9505            0    4625.3201     19.97816    20.009338    20.819606    8322.6323    5014.0584    4377.8047    4484.0973   -1130.1815    217.33795   -774.27051   -3594.6342 
 8941000    260.51207   -4672.6953   -4170.2759   -4672.6953            0     7961.492    19.964058    19.972714    20.562032    8198.8314     7822.336    8410.5209    7651.6189   -82.332008    1258.2654   -1803.3066    -3218.308 
 8942000    265.81471   -4683.6297   -4170.9837   -4683.6297            0    8289.5425     19.83893    19.935375    20.649219    8166.6942    9250.0916    7870.1617    7748.3741    284.90485    448.13286    449.03527   -3183.6755 
 8943000    268.85479   -4706.3256   -4187.8166   -4706.3256            0    6183.4887    19.876353    20.015043    20.823585    8284.1646    7582.0146    5039.3686    5929.0828    330.28413    7.8224623   -40.759454   -3440.7519 
 8944000    271.04565   -4682.3722   -4159.6378   -4682.3722            0    4735.7269    19.920075    19.890674    20.870775    8269.4959    3760.1562    6896.3545      3550.67   -908.35712    458.53792   -177.02936   -3588.4991 
 8945000    272.42511   -4711.2086   -4185.8139   -4711.2086            0    6202.5685    19.858241    20.133347    20.597825    8235.2751    5632.7281    5975.5163    6999.4612   -175.41864    1263.6887   -36.015385   -3440.8665 
 8946000    265.61702    -4706.531   -4194.2662    -4706.531            0    5637.9318    20.151563    19.931798    20.533354    8247.3629    4061.9593    6830.0857    6021.7505   -716.50603    2.8085907    129.43484   -3516.1396 
 8947000    261.84856   -4689.6879   -4184.6909   -4689.6879            0    7076.9923    19.993073    20.001519    20.559676    8221.6461    5508.9745    8698.5876    7023.4148    398.42539    2251.9393   -1684.3638   -3336.1292 
 8948000     269.1841   -4708.0213   -4188.8772   -4708.0213            0    5993.8259    19.645246    20.171183    20.926765    8292.6041      5821.79    7150.0698    5009.6178     -4.08807    433.06467   -470.33696   -3463.9891 
 8949000    288.68912   -4711.6021   -4154.8409   -4711.6021            0    5796.4961    20.178255    19.819198    20.585125    8232.3381    4011.3901    6985.9977    6392.1005   -1132.1352   -822.70712   -896.45147   -3458.9124 
 8950000    251.81922   -4682.4752   -4196.8207   -4682.4752            0    5548.3688    20.018578    20.188973    20.511857    8289.9598     4190.634    5573.9306    6880.5419    349.71906    877.24503   -1663.8458   -3526.0198 
 8951000    260.33619   -4691.0697   -4188.9895   -4691.0697            0    6231.6823    19.749857    19.879421    20.907244    8208.5122    7101.7163    6241.2663    5352.0645    77.012257    896.58667   -304.64977   -3442.9778 
 8952000    263.95421   -4687.4231   -4178.3652   -4687.4231            0    3974.1066    19.903217    20.084265    20.688218    8269.9389    4471.5339    3817.4035    3633.3824    215.07221    -705.4499    1011.2406   -3699.0539 
 8953000     263.6328   -4723.3156   -4214.8775   -4723.3156            0    8765.8018    20.026758    19.778918    20.595063    8157.8611    8109.5254    9555.4828    8632.3973   -434.15903    197.12089   -541.89036   -3171.9747 
 8954000    260.50134   -4705.9107    -4203.512   -4705.9107            0    6579.8006    19.780883    20.198639     20.49583    8189.0454    5639.0097    6485.8716    7614.5205   -176.64389    531.15136   -751.87393   -3417.6941 
 8955000    259.56164   -4726.3291   -4225.7426   -4726.3291            0    6458.7936    19.974062    19.917184    20.620975    8203.5822    4892.7012    6742.8251    7740.8546    318.01932   -1200.4309    551.42926   -3453.0072 
 8956000    252.04922   -4698.0337   -4211.9356   -4698.0337            0    7001.6153    19.893431    19.874766    20.770957    8212.3642    5897.1762    8196.0114    6911.6582   -1224.5205   -1339.4167    338.64371   -3373.3598 
 8957000    261.02845   -4693.9742   -4190.5589   -4693.9742            0    5319.4191    19.941794    20.091902    20.683138    8287.0832    2903.8657    6866.7836    6187.6079   -654.47278   -1396.8178   -640.86984   -3547.6614 
 8958000     265.0397   -4684.6881   -4173.5367   -4684.6881            0    7625.4433    19.952757    20.001346    20.517923    8188.3339     7537.002    7576.0145    7763.3134   -111.08683   -146.34429    503.93924   -3262.9181 
 8959000    254.92713   -4679.2175   -4187.5691   -4679.2175            0    6805.8132    19.830761    20.219572    20.523825     8229.428    6694.2013    7280.8796    6442.3588   -294.07921   -95.804099    228.46007   -3370.7506 
 8960000    274.04904   -4677.3784   -4148.8518   -4677.3784            0    7944.7733    19.956162    20.006239    20.551803    8205.2613    8267.9709    7569.2235    7997.1255   -992.54157    247.24983   -1343.2042    -3198.138 
 8961000    265.34903   -4695.1946   -4183.4466   -4695.1946            0    5892.6839    19.915277    20.032913    20.702189    8259.3665    5784.7614    5493.4242    6399.8662   -319.42335    803.23738    -1185.215    -3473.647 
 8962000    264.01353   -4695.3892   -4186.2169   -4695.3892            0    4784.2578    20.045775    19.929012    20.723897    8279.0412    5756.0371    5102.0732    3494.6631     107.9721    1455.8956    201.48213   -3608.5593 
 8963000    269.11598    -4664.374   -4145.3612    -4664.374            0    6575.3626    20.215413    19.995079     20.22117    8173.5743    5333.6744    5675.8234    8716.5901   -609.36289   -965.99371    6.2340806   -3361.5569 
 8964000    260.57603   -4673.5217   -4170.9789   -4673.5217            0    7602.0882    19.940196    20.032966    20.462253    8173.8773    6607.6299    8596.2388     7602.396   -309.21362    64.938265   -1064.6117   -3264.7521 
 8965000     247.6559    -4714.683   -4237.0577    -4714.683            0    4889.0156    20.070971    20.159965     20.43351    8268.0127    4942.9749    4393.6512    5330.4206   -511.06648    1050.4443    378.93114   -3647.5379 
 8966000     268.3735    -4713.551   -4195.9702    -4713.551            0    7311.9829    19.942026    19.773002    20.715055    8168.2308    6976.2912     8413.402    6546.2556    642.12708   -321.09784      514.973   -3324.9282 
 8967000    256.20656   -4718.8997   -4224.7838   -4718.8997            0    6198.5446    19.966568    20.085153    20.488461    8216.5199    6993.8178    4896.3138    6705.5021    -310.4754   -220.31233    672.21581   -3482.0152 
 8968000    270.16651   -4683.8812   -4162.8423   -4683.8812            0    5704.0421    19.998254     19.89522    20.676605    8226.5937    5516.8069    5399.5252    6195.7942    719.72333    666.08926   -972.53055   -3478.4917 
 8969000    260.56687   -4673.5535   -4171.0283   -4673.5535            0    6401.2984    19.604653    20.161858    20.882876    8254.2956    7790.4098    4577.8172    6835.6682   -797.79975   -1062.3257    -1204.724   -3400.4372 
 8970000    254.39558   -4701.9472   -4211.3239   -4701.9472            0     8230.147    19.817105    19.961766    20.544624     8127.133    9384.2614    7772.9723    7533.2073   -537.00944    4.8835184     -785.029   -3235.8383 
 8971000    263.50329   -4709.1269   -4200.9386   -4709.1269            0     5237.219    20.107872    20.019045    20.531306    8264.6805    4320.5929    5366.7182    6024.3459    326.22363    656.78495    460.23295   -3569.6867 
 8972000    267.92065   -4722.5846   -4205.8771   -4722.5846            0    6179.8071    19.837972    19.919798    20.738856    8195.3405    7691.9077     5944.393    4903.1207    251.06622    231.61755    677.07805   -3467.2627 
 8973000    267.24639   -4718.0177   -4202.6105   -4718.0177            0    5990.7754    19.658167    20.016346     20.86314    8209.3258    7825.5861    4519.1619    5627.5782    79.367172    40.714924    -342.4617   -3485.3674 
 8974000    278.88022   -4729.8058   -4191.9619   -4729.8058            0     5292.912    20.119521    19.936459    20.623652    8272.3946    5551.8396    5574.0876    4752.8089   -58.043928     705.4435     1190.986   -3553.4017 
 8975000    258.14257   -4699.8713   -4202.0217   -4699.8713            0    8343.3227    20.118875    19.626266    20.588162    8129.4088    8693.0697    9683.0691    6653.8291   -770.58996    1611.7462     240.8726   -3212.8449 
 8976000    257.22271   -4683.2092   -4187.1335   -4683.2092            0    6091.7367    19.775039    19.999019    20.860071    8249.7699    6741.4386    6733.8237    4799.9478   -484.42747     1640.629    325.26567   -3454.2097 
 8977000    279.39768   -4654.3685   -4115.5265   -4654.3685            0    6064.0082    20.169629    19.964723    20.447979    8234.0138    6535.8947    7267.9372    4388.1925   -415.92535   -1260.7579    57.985334   -3387.3323 
 8978000    275.49299   -4688.6838   -4157.3724   -4688.6838            0    6077.2258    20.150661    20.093029    20.409912    8263.7251    6023.1691    6660.5803    5547.9281   -1140.2036   -166.98993    1674.0542   -3424.9575 
 8979000    275.17359   -4709.8378   -4179.1424   -4709.8378            0     5699.804    19.873868    20.014279    20.895624     8311.467    6283.4454    5464.3522    5351.6144    232.20232   -24.868451    1237.5026   -3488.2451 
 8980000    280.19048   -4688.6519    -4148.281   -4688.6519            0    6046.4073    20.129454    19.974166    20.576084     8273.007     7341.667    4274.2542    6523.3005    1122.8748     -790.807    159.77308   -3418.7619 
 8981000    267.53438   -4669.5606    -4153.598   -4669.5606            0    6358.8392    19.802365    20.213391     20.51748    8212.5925    8215.8775    3484.9832    7375.6571    465.46734    278.52178    6.1059202   -3391.9856 
 8982000    279.55715   -4713.0882   -4173.9388   -4713.0882            0    6729.8285    19.745756    20.024671    20.648024    8164.2758    8329.1467     5109.034    6751.3048   -845.00152   -876.00762    497.42833   -3372.6343 
 8983000    265.59729   -4719.4147    -4207.188   -4719.4147            0    4358.5495    20.034746    19.921205      20.8675    8328.5592    3582.5297    4669.3389    4823.7799    684.47944    227.19821     419.7278   -3677.7833 
 8984000    275.20402   -4698.4912   -4167.7371   -4698.4912            0    6144.1691    20.027108    20.138707    20.445289    8245.9949    5274.5173    5892.9707    7265.0194   -225.76584   -143.13734    465.50025   -3428.8432 
 8985000    252.13675   -4699.0465   -4212.7796   -4699.0465            0    5328.2985    20.130124    19.911485    20.621629    8265.5751    6765.9719    4042.2379    5176.6856    558.04415   -970.71927   -534.54667   -3570.4802 
 8986000    268.93008   -4716.2553    -4197.601   -4716.2553            0    6487.8474    20.049591    19.751418    20.731634    8209.8899    5757.3353    7402.5985    6303.6085    177.71199   -1474.0219   -1331.4065   -3420.7927 
 8987000    261.70684   -4677.6092   -4172.8855   -4677.6092            0    8031.2016    19.969737    19.953061    20.453105    8149.6909    6611.1478    9417.9833    8064.4737   -274.12614    219.77681    92.318922    -3218.338 
 8988000    273.96175   -4700.8297   -4172.4715   -4700.8297            0    7002.2544    19.927876    20.088488    20.549438    8226.3692    7347.5931    6834.7236    6824.4465   -446.78627    315.27671   -451.48515   -3332.3889 
 8989000    268.66877   -4712.8344   -4194.6841   -4712.8344            0    6485.1841    20.035322     19.82086     20.69319    8217.6236    8747.9623    5649.8246    5057.7654    76.459978    270.00151    1035.1061   -3417.4633 
 8990000    272.83023   -4689.3795   -4163.2034   -4689.3795            0    7077.8999    19.915989    20.234355     20.28942    8176.3767    7026.6765    5596.4142    8610.6089   -331.28931    720.15798    133.99767   -3319.2058 
 8991000    262.04731   -4714.6713    -4209.291   -4714.6713            0    4934.1985    19.957414    20.085123    20.607667    8260.5239    5616.5665    3310.9898    5875.0394    240.67602    926.17957   -1323.1384   -3614.8618 
 8992000    261.59402   -4701.5192   -4197.0131   -4701.5192            0    5992.7614    19.931907     20.00952    20.792047    8292.4486    6625.8576    5554.7946    5797.6321    463.74332    173.71376    1239.7379   -3472.2674 
 8993000    257.83766   -4662.6798   -4165.4182   -4662.6798            0    6322.5226    20.120268    20.044117    20.358615     8210.487     7416.099    5570.6302    5980.8387    271.48792   -2366.0641    210.09934   -3408.3497 
 8994000    275.95579   -4705.2647   -4173.0608   -4705.2647            0    5300.4776    19.909171    20.215628    20.589381    8286.7397     6918.393    3089.3117     5893.728    547.81953    290.35763   -1.0826649    -3532.479 
 8995000    285.69359   -4686.1796   -4135.1955   -4686.1796            0    5892.5867    20.012295    19.779048    20.926261    8283.1193    7376.6264    5218.6023    5082.5313    157.65857   -284.94438    1189.3859   -3423.3663 
 8996000    275.13578   -4695.1291   -4164.5066   -4695.1291            0    4542.7791    19.975765    19.956242    20.789782    8287.6637    6435.9803     4520.135    2672.2221    609.14554   -1067.2155   -1502.5361   -3615.4342 
 8997000    264.97297   -4694.7484   -4183.7258   -4694.7484            0    7776.3122    19.947386    20.152522    20.369166     8188.204    8806.4475    7695.1862     6827.303    1014.6902   -720.66433   -1202.4937   -3255.1054 
 8998000    270.23662   -4680.4373   -4159.2633   -4680.4373            0    7046.2861    19.964061    19.985871    20.522767    8188.5663    8803.6909    6431.9941    5903.1734   -185.94789   -368.21448   -361.79165   -3317.7828 
 8999000    248.61329   -4679.2212   -4199.7496   -4679.2212            0    6499.7525    19.814766    19.829342    20.764778    8158.7671    4473.0764    8968.4666    6057.7146    270.75154    1032.4759    1282.6511   -3426.3619 
 9000000    272.72427   -4653.5773   -4127.6056   -4653.5773            0     7918.766    19.974072    20.068028    20.530364    8229.3955    8289.8268    7658.5538    7807.9174   -588.14252    355.48384    367.58093   -3177.2168 
Loop time of 475.029 on 64 procs for 250000 steps with 972 atoms

Performance: 90.942 ns/day, 0.264 hours/ns, 526.284 timesteps/s
99.1% CPU use with 64 MPI tasks x 1 OpenMP threads

MPI task timing breakdown:
Section |  min time  |  avg time  |  max time  |%varavg| %total
---------------------------------------------------------------
Pair    | 20.532     | 28.668     | 37.206     |  78.9 |  6.03
Bond    | 0.27311    | 0.28091    | 0.29059    |   0.8 |  0.06
Kspace  | 194.36     | 207.55     | 227.13     |  50.8 | 43.69
Neigh   | 3.3242     | 3.9149     | 4.7782     |  21.7 |  0.82
Comm    | 95.329     | 107.85     | 117.76     |  59.6 | 22.70
Output  | 1.3865     | 1.3879     | 1.4003     |   0.2 |  0.29
Modify  | 115.76     | 117.5      | 121.33     |  11.7 | 24.73
Other   |            | 7.882      |            |       |  1.66

Nlocal:        15.1875 ave          19 max          10 min
Histogram: 1 1 3 8 11 12 11 7 8 2
Nghost:        2234.45 ave        2259 max        2207 min
Histogram: 3 5 5 9 6 10 6 9 7 4
Neighs:        4776.81 ave        6829 max        2995 min
Histogram: 2 3 5 10 20 11 7 4 1 1

Total # of neighbors = 305716
Ave neighs/atom = 314.52263
Ave special neighs/atom = 2.0000000
Neighbor list builds = 8226
Dangerous builds = 0

unfix		3
unfix		2
unfix		1

write_data	data.final.${pid}
write_data	data.final.0
System init for write_data ...
PPPM initialization ...
  extracting TIP4P info from pair style
  using 12-bit tables for long-range coulomb (../kspace.cpp:340)
  G vector (1/distance) = 0.37154197
  grid = 24 24 24
  stencil order = 5
  estimated absolute RMS force accuracy = 0.0035891227
  estimated relative force accuracy = 1.0808536e-05
  using double precision FFTW3
  3d grid and FFT values/proc = 2197 216
Last active /omp style is kspace_style pppm/tip4p/omp
WARNING: Not all mixed pair coeffs generated from mixing. Use write_data with 'pair ij' option to store all pair coeffs. (../write_data.cpp:312)

write_restart   restart.lmp.${pid}
write_restart   restart.lmp.0
System init for write_restart ...
PPPM initialization ...
  extracting TIP4P info from pair style
  using 12-bit tables for long-range coulomb (../kspace.cpp:340)
  G vector (1/distance) = 0.37154197
  grid = 24 24 24
  stencil order = 5
  estimated absolute RMS force accuracy = 0.0035891227
  estimated relative force accuracy = 1.0808536e-05
  using double precision FFTW3
  3d grid and FFT values/proc = 2197 216
Last active /omp style is kspace_style pppm/tip4p/omp
Total wall time: 0:07:57
