LAMMPS (30 Jul 2021)
  using 1 OpenMP thread(s) per MPI task
package omp 0
using multi-threaded neighbor list subroutines
echo both

include		in.partitions
variable        pid world 0
include		in.temp
variable        temperature equal 245.41
variable	tempDamp equal 100.0
include		in.pressure
variable        pressure equal 3250.0
variable        pressureDamp equal 1000.0 # This is 1 ps
include		in.seed
variable        seed world 745823

units		real
atom_style	full
read_restart	restart.lmp.${pid}
read_restart	restart.lmp.0
Reading restart file ...
  restart file = 30 Jul 2021, LAMMPS = 30 Jul 2021
  restoring atom style full from restart
  orthogonal box = (0.33625505 1.4875953 0.41023037) to (17.871317 22.141582 21.802965)
  4 by 4 by 4 MPI processor grid
  restoring pair style lj/cut/tip4p/long/omp from restart
  restoring bond style harmonic/omp from restart
  restoring angle style harmonic/omp from restart
  864 atoms
  576 bonds
  288 angles
Finding 1-2 1-3 1-4 neighbors ...
  special bond factors lj:    0        0        0       
  special bond factors coul:  0        0        0       
     2 = max # of 1-2 neighbors
     1 = max # of 1-3 neighbors
     1 = max # of 1-4 neighbors
     2 = max # of special neighbors
  special bonds CPU = 1.583 seconds
  read_restart CPU = 1.878 seconds
include 	in.setup
variable	out_freq equal 1000
variable	out_freq2 equal 10000
variable	out_freq3 equal 1000

timestep	2.0

neigh_modify    delay 7 every 1

include		in.tip4p
# This is TIP4P/Ice

# create groups ###
group ox type 2
288 atoms in group ox
group hy type 1
576 atoms in group hy

# set charges - beside manually ###
set group ox charge -1.1794
Setting atom values ...
  288 settings made for charge
set group hy charge 0.5897
Setting atom values ...
  576 settings made for charge

# ### TIP3P Potential Parameters ###
pair_style lj/cut/tip4p/long/omp 2 1 1 1 0.1577 8.5
pair_coeff 1 1*2 0.000 0.000
pair_coeff 2 2 0.21084 3.1668
bond_style  harmonic
bond_coeff  1 450 0.9572
angle_style harmonic
angle_coeff 1 55 104.52
kspace_style pppm/tip4p/omp 1.0e-5
pair_modify tail yes

thermo          ${out_freq}
thermo          1000
thermo_style    custom step temp pe etotal epair emol press lx ly lz vol pxx pyy pzz pxy pxz pyz enthalpy

restart 	${out_freq3} restart.lmp.${pid} restart2.lmp.${pid}
restart 	1000 restart.lmp.${pid} restart2.lmp.${pid}
restart 	1000 restart.lmp.0 restart2.lmp.${pid}
restart 	1000 restart.lmp.0 restart2.lmp.0


include         in.dump
dump            myDump all atom ${out_freq2} dump.water.${pid}
dump            myDump all atom 10000 dump.water.${pid}
dump            myDump all atom 10000 dump.water.0
dump            myDump2 all dcd ${out_freq2} dump.dcd
dump            myDump2 all dcd 10000 dump.dcd
dump_modify     myDump append yes
dump_modify     myDump2 append yes


variable natoms 	equal  "count(all)"                        # NUMBER ATOMS
variable H      	equal  "enthalpy/v_natoms"                 # ENTHALPY-per-atom
variable Vol      	equal  "vol/v_natoms"                 # volume-per-atom
fix AVG all 		ave/time ${out_freq} 1 ${out_freq} v_Vol v_H file vol_enthalpy.dat
fix AVG all 		ave/time 1000 1 ${out_freq} v_Vol v_H file vol_enthalpy.dat
fix AVG all 		ave/time 1000 1 1000 v_Vol v_H file vol_enthalpy.dat


timer           timeout 23:50:00 every 1000
New timer settings: style=normal  mode=nosync  timeout=23:50:00

fix 		1 all shake 1e-6 200 0 b 1 a 1
       0 = # of size 2 clusters
       0 = # of size 3 clusters
       0 = # of size 4 clusters
     288 = # of frozen angles
  find clusters CPU = 0.100 seconds
fix             2 all nph iso ${pressure} ${pressure} ${pressureDamp}
fix             2 all nph iso 3250 ${pressure} ${pressureDamp}
fix             2 all nph iso 3250 3250 ${pressureDamp}
fix             2 all nph iso 3250 3250 1000
fix             3 all temp/csvr ${temperature} ${temperature} ${tempDamp} ${seed}
fix             3 all temp/csvr 245.41 ${temperature} ${tempDamp} ${seed}
fix             3 all temp/csvr 245.41 245.41 ${tempDamp} ${seed}
fix             3 all temp/csvr 245.41 245.41 100 ${seed}
fix             3 all temp/csvr 245.41 245.41 100 745823

run             250000
PPPM initialization ...
  extracting TIP4P info from pair style
  using 12-bit tables for long-range coulomb (../kspace.cpp:340)
  G vector (1/distance) = 0.37314617
  grid = 24 24 25
  stencil order = 5
  estimated absolute RMS force accuracy = 0.0031978691
  estimated relative force accuracy = 9.6302878e-06
  using double precision FFTW3
  3d grid and FFT values/proc = 2730 288
Last active /omp style is kspace_style pppm/tip4p/omp
Neighbor list info ...
  update every 1 steps, delay 7 steps, check yes
  max neighbors/atom: 2000, page size: 100000
  master list distance cutoff = 10.8154
  ghost atom cutoff = 10.8154
  binsize = 5.4077, bins = 4 4 4
  1 neighbor lists, perpetual/occasional/extra = 1 0 0
  (1) pair lj/cut/tip4p/long/omp, perpetual
      attributes: half, newton on, omp
      pair build: half/bin/newton/omp
      stencil: half/bin/3d
      bin: standard
Per MPI rank memory allocation (min/avg/max) = 9.236 | 9.241 | 9.247 Mbytes
Step Temp PotEng TotEng E_pair E_mol Press Lx Ly Lz Volume Pxx Pyy Pzz Pxy Pxz Pyz Enthalpy 
 9250000    257.53526   -3932.7923   -3491.3857   -3932.7923            0    2250.8786    17.535062    20.653987    21.392735    7747.7844    3046.6289    2575.0185    1130.9883   -521.69085   -1078.6398    241.97822    -3237.051 
 9251000    253.98596   -3941.5783    -3506.255   -3941.5783            0    1070.7156    17.517949     20.63383    21.371857    7725.1226    544.04893    2372.6976    295.40038   -1019.8368    1601.2792   -398.04983    -3385.625 
 9252000    247.46843   -3944.9744   -3520.8219   -3944.9744            0    2456.5641     17.54156     20.66164    21.400662       7756.4    3221.1069     1062.263    3086.3225    263.45848    1143.0802    738.41458   -3242.9375 
 9253000    245.17363    -3950.504   -3530.2848    -3950.504            0    2617.0415     17.57487    20.700875      21.4413    7800.6705    4080.8288    794.14483    2976.1509   -581.56012   -1490.9498    258.41711   -3232.5577 
 9254000     236.3807    -3973.456   -3568.3076    -3973.456            0     2492.282    17.559961    20.683315    21.423112    7780.8358    1863.7818    3900.7653    1712.2988     323.1983    -97.82275    391.95073   -3285.4946 
 9255000    246.82652   -3931.8735   -3508.8212   -3931.8735            0    2801.2735     17.53414    20.652901     21.39161    7746.5625     3739.489    2478.4609    2185.8706   -802.81716   -771.04943    1163.6986   -3192.3455 
 9256000    243.88818   -3915.9826   -3497.9667   -3915.9826            0    3340.6823    17.562926    20.686807    21.426728    7784.7773    2742.1521    4465.8872    2814.0075    199.22884   -136.09431    1191.7478    -3118.689 
 9257000    248.02807   -3946.9765   -3521.8649   -3946.9765            0    5584.3425    17.354096    20.440833    21.171957    7510.3744    4919.7141    5285.2096    6548.1037   -2475.6093    943.21373   -1002.5373   -2910.2057 
 9258000    252.45659   -3940.1218   -3507.4198   -3940.1218            0    4225.1211    17.423447    20.522519    21.256565    7600.7741    4327.7194    1802.3409     6545.303    -324.4703   -515.24019   -181.03541   -3039.0673 
 9259000    251.72545   -3951.2654   -3519.8166   -3951.2654            0    1692.4952    17.536091    20.655199    21.393991    7749.1487    2726.4905    835.42792    1515.5673    1052.2331    1055.9189   -802.41261    -3328.542 
 9260000    241.76277   -3935.7133   -3521.3402   -3935.7133            0    2811.4729    17.531967    20.650341    21.388959    7743.6822    1471.1524    3202.4971    3760.7694   -760.19421   -803.44564   -808.44702   -3203.8303 
 9261000    251.91164   -3971.8138   -3540.0459   -3971.8138            0    2642.7051    17.536608    20.655808    21.394621    7749.8336    1091.0082    4686.4311    2150.6761    162.16167    -1652.473     108.0674   -3241.3584 
 9262000     262.9059   -3943.8305   -3493.2188   -3943.8305            0    4372.1027    17.495359    20.607222    21.344297     7695.275    3036.5587    5888.3776    4191.3716   -1213.6971   -1471.8566    17.044194   -3002.5478 
 9263000    258.13919   -3940.0979   -3497.6562   -3940.0979            0    3240.7142    17.498442    20.610853    21.348058    7699.3439    2945.8677    3393.3611    3382.9136   -20.406922   -669.62394   -231.39082    -3133.766 
 9264000    239.86112   -3948.0397   -3536.9259   -3948.0397            0    3133.5912    17.618618    20.752405    21.494673    7859.0696    2582.8171    4868.7124    1949.2439   -802.99327   -604.36629   -881.34608   -3177.7648 
 9265000    252.68191   -3928.4475   -3495.3594   -3928.4475            0    3234.2526    17.510176    20.624675    21.362374    7714.8441    1574.9598    3965.2687    4162.5293   -503.57457    397.60497    1299.9153   -3131.4636 
 9266000    255.93333   -3943.0049   -3504.3439   -3943.0049            0    4660.8545    17.470992    20.578521     21.31457    7663.1674    4403.4068    4920.3875    4658.7692   -367.29073   -268.91031    3.7360241   -2983.4494 
 9267000    247.45524     -3910.17   -3486.0402     -3910.17            0    4507.8735    17.459667    20.565182    21.300753    7648.2746    5539.9692    4380.2649    3603.3863   -101.66569    660.09854    1195.9527   -2983.2219 
 9268000     237.9688   -3923.6794   -3515.8091   -3923.6794            0    3430.4893    17.469615    20.576899     21.31289    7661.3557    2380.5174    5110.6595    2800.2911    -517.9209    452.94275    623.11323   -3132.5102 
 9269000    236.57566   -3918.1047   -3512.6221   -3918.1047            0    4206.2889    17.524423    20.641456    21.379755    7733.6904    4119.1932     4448.753    4050.9206    398.83076   -1427.5811   -797.91636   -3038.2034 
 9270000    248.97806   -3967.9449    -3541.205   -3967.9449            0    2813.2589    17.465167    20.571659    21.307463    7655.5042    4104.9122    853.24779    3481.6168     839.6332    37.307107    1027.6921   -3227.1112 
 9271000    254.38772   -3970.9449   -3534.9331   -3970.9449            0    3308.7299    17.473099    20.581003    21.317141    7665.9404    4772.9638    2343.6811    2809.5447    164.22102   -848.99402    1030.4348   -3165.0175 
 9272000    242.00781   -3902.6491    -3487.856   -3902.6491            0    2101.7906    17.520257    20.636549    21.374673    7728.1767    3018.0937    1088.0211    2199.2572    40.744807   -87.954706    871.21367   -3250.9683 
 9273000     247.9305   -3951.9489   -3527.0045   -3951.9489            0    4019.7109    17.378799     20.46993    21.202095    7542.4926    4557.1479    4978.2286    2523.7563   -575.69786    116.63788    -422.4508   -3084.8383 
 9274000    257.57389   -3899.7734   -3458.3006   -3899.7734            0    3512.1108     17.47761    20.586316    21.322643    7671.8784    1273.1705    4980.8351    4282.3266   -496.49944   -32.259349   -1040.7393   -3065.3429 
 9275000    251.69903    -3921.158   -3489.7545    -3921.158            0    2240.2202     17.44059    20.542711    21.277479    7623.2316    1595.7493    2553.1904    2571.7208   -429.77768    1176.3878   -381.93483   -3240.6935 
 9276000    262.50462   -3923.8806   -3473.9567   -3923.8806            0    2873.0915    17.375633    20.466201    21.198232     7538.371    1550.7276    3270.0853    3798.4618     802.0877   -1387.0907   -1361.4695   -3158.0907 
 9277000    257.30892   -3925.3964   -3484.3777   -3925.3964            0    2420.7729    17.447822     20.55123    21.286303    7632.7192    4220.9435    2153.7371    887.63801    -663.1696     395.7027    472.21277   -3214.9084 
 9278000    245.60415   -3955.4401    -3534.483   -3955.4401            0    2171.5625    17.453614    20.558052    21.293368    7640.3226    2871.5493    1717.1951     1925.943    1176.5751    146.75052   -627.96158   -3292.5139 
 9279000    235.37511   -3951.2552   -3547.8304   -3951.2552            0    1407.2326    17.424399     20.52364    21.257726    7602.0199    1106.3598     2392.686    722.65205    494.56494    1.0808653   -240.00238   -3391.8138 
 9280000     260.3542   -3931.4534   -3485.2152   -3931.4534            0    3083.5309    17.432559    20.533251    21.267681    7612.7048    3329.0703    2201.6267    3719.8957   -870.01447   -595.43605   -195.88861   -3142.8709 
 9281000    254.92042   -3906.5503   -3469.6254   -3906.5503            0    2053.3473    17.487208    20.597622    21.334353    7684.5254    1933.4311    2148.7482    2077.8628     493.5851    1576.9868   -1115.0919   -3239.5049 
 9282000    247.04713   -3909.7906   -3486.3603   -3909.7906            0    4479.7162    17.384703    20.476884    21.209297     7550.182    4331.0985    4445.2718    4662.7783    -116.3419    145.36989   -357.40083   -2993.0913 
 9283000     241.9509   -3913.2972   -3498.6017   -3913.2972            0    2999.9397    17.428747    20.528761     21.26303     7607.712    3474.1941    4012.0573    1513.5676    351.32261    351.61972   -607.85934   -3165.7563 
 9284000     235.8816   -3940.5003   -3536.2073   -3940.5003            0    4050.7937    17.454459    20.559047    21.294399    7641.4323    4479.8279    5869.4927    1803.0604    691.79555    762.01682   -548.82788   -3084.7769 
 9285000    227.08142   -3933.1518    -3543.942   -3933.1518            0    3567.6362    17.546749    20.667753    21.406993     7763.286    2147.7341    2946.1131    5609.0615   -68.221151    941.16878     553.1905   -3140.0158 
 9286000    245.16843   -3971.1685   -3550.9582   -3971.1685            0    3707.4381    17.569845    20.694957     21.43517    7793.9821    4226.1935    3434.2232    3461.8974   -635.42715   -683.77045   -921.71134    -3129.544 
 9287000    250.70334   -3928.9742   -3499.2773   -3928.9742            0    3480.0275    17.511092    20.625753    21.363491    7716.0544    2825.0524    4413.5851    3201.4451   -853.56031    567.04966   -1389.0517   -3107.6672 
 9288000    248.34374   -3938.8512   -3513.1985   -3938.8512            0    2301.9467     17.49805    20.610392     21.34758    7698.8269    2269.1274    2242.3162    2394.3965   -803.65231     736.5725   -93.432408   -3254.7371 
 9289000    252.51457   -3953.9161   -3521.1148   -3953.9161            0    4750.2685    17.489067    20.599811    21.336621    7686.9761    4794.3588    5756.4763    3699.9703    1791.8572    289.83727    1577.9048   -2988.5781 
 9290000    242.45224   -3959.5545   -3543.9996   -3959.5545            0    3107.8326     17.54288    20.663195    21.402272    7758.1512     3649.225    2150.0714    3524.2015   -57.850569    462.61841   -561.76444   -3192.3649 
 9291000    237.82973   -3949.8969   -3542.2649   -3949.8969            0    3773.6551    17.534796    20.653673     21.39241    7747.4311    3794.4336    2906.8165    4619.7152    404.10514   -187.92641   -166.46675   -3115.8859 
 9292000    242.63845    -3962.077    -3546.203    -3962.077            0     2047.214    17.549481    20.670971    21.410326    7766.9132    2211.6924    1888.5947     2041.355    302.61404   -416.30919    1326.0714     -3314.31 
 9293000    247.94212   -3950.6859   -3525.7216   -3950.6859            0    2852.7573    17.525614    20.642858    21.381208    7735.2666    1674.1362    4624.3331    2259.8026   -1138.7281    391.39418   -192.18608   -3203.8994 
 9294000    246.15119    -3943.836   -3521.9412    -3943.836            0    2607.3182    17.512117    20.626961    21.364742    7717.4095    3220.9455    4028.6233    572.38583   -261.93531   -1209.5954    -69.52871   -3228.4863 
 9295000    227.32757   -3955.0285   -3565.3968   -3955.0285            0    2298.6619    17.475216    20.583496    21.319723    7668.7263    1421.5713    2596.2109    2878.2035   -1606.3012   -630.86107    812.46738   -3308.3133 
 9296000    255.60739   -3942.6291   -3504.5268   -3942.6291            0    3995.9454    17.417288    20.515264     21.24905    7592.7161    4054.7564    3263.0966    4669.9833    581.65707   -803.78292   -238.36287   -3062.0478 
 9297000    226.85542   -3932.2469   -3543.4244   -3932.2469            0    2284.5321    17.509757    20.624181    21.361863    7714.2902    3107.3562    782.03831    2964.2018    996.55696    240.43798   -469.04486   -3286.4031 
 9298000    250.27257   -3949.9135   -3520.9549   -3949.9135            0    2618.3175    17.498446    20.610858    21.348064    7699.3499    2492.8059    749.90429    4612.2423    433.08985    455.29446   -285.43797   -3226.9515 
 9299000    249.33813   -3916.6574   -3489.3004   -3916.6574            0    2527.3635    17.527107    20.644617     21.38303    7737.2443    3519.3794    3162.6924     900.0188   -311.31544   -311.60945    342.60179   -3204.1133 
 9300000    245.12846   -3936.3175   -3516.1757   -3936.3175            0    4000.9802    17.412073    20.509122    21.242688    7585.8985    1891.7602    4913.6744     5197.506    -458.0107   -302.84882    234.61712    -3073.537 
 9301000    249.13165   -3914.0389   -3487.0358   -3914.0389            0    4039.7955    17.450415    20.554283    21.289465    7636.1216    3858.3149    3313.6123    4947.4593    310.22777   -555.46104    157.73953   -3037.1439 
 9302000    246.17829   -3954.3734   -3532.4323   -3954.3734            0    1860.5529    17.472985    20.580869    21.317001    7665.7899    2079.2456    1222.8799    2279.5331   -233.31165   -536.36609   -1609.6103   -3324.4268 
 9303000    230.79225   -3921.3532   -3525.7831   -3921.3532            0    488.94465     17.55293    20.675033    21.414534     7771.493    1479.3637   -592.56333    580.03356    1254.1976    500.84857    710.89236   -3470.3665 
 9304000    256.25875   -3930.3131   -3491.0944   -3930.3131            0    3582.4815    17.535609    20.654631    21.393402    7748.5086     3647.111    3894.8449    3205.4887    819.52524    1290.2038    411.25049   -3086.2595 
 9305000    249.12583   -3947.4463   -3520.4531   -3947.4463            0    2949.6338    17.496446    20.608502    21.345623    7696.7098    3439.3212     1818.968    3590.6122   -1079.5202   -622.02559   -359.94371   -3189.3608 
 9306000    263.13535   -3928.9788   -3477.9738   -3928.9788            0    4131.0838     17.55427    20.676611    21.416168    7773.2726     4401.507     3586.482    4405.2624    1983.3191    553.65079    1199.1512   -3009.6526 
 9307000    243.44069   -3926.5654   -3509.3163   -3926.5654            0    5277.7835    17.423651    20.522759    21.256813     7601.041    4786.0312    3178.4748    7868.8445    686.04167   -212.79951   -66.596311   -2924.2562 
 9308000    251.34196   -3947.2939   -3516.5024   -3947.2939            0    3859.1233    17.436748    20.538186    21.272792    7618.1943    4011.1771    4773.2629    2792.9298    377.94031    1896.6212    742.33665   -3087.7401 
 9309000     255.1983   -3947.0456   -3509.6444   -3947.0456            0    2785.5999    17.543713    20.664176    21.403288    7759.2564    2779.5459    2777.7814    2799.4725   -1537.4322    126.41072   -882.11301   -3194.4237 
 9310000    232.55933   -3946.9552   -3548.3565   -3946.9552            0     1685.893    17.460797    20.566513    21.302132      7649.76    2408.8727    1621.3584    1027.4479    373.46022   -481.99026     369.9302   -3360.2717 
 9311000    238.79481     -3909.35   -3500.0639     -3909.35            0    2779.9909    17.424765    20.524072    21.258173    7602.4997     3378.331    1594.2033    3367.4383    955.39731    452.05836   -657.87785   -3191.8334 
 9312000    246.44085   -3922.2708   -3499.8796   -3922.2708            0    3089.6329    17.480511    20.589733    21.326183    7675.6998     4922.812    2936.2079    1409.8789    845.65119   -566.32986    1473.9091   -3154.0193 
 9313000     257.1319   -3933.2117   -3492.4964   -3933.2117            0    3505.7816    17.455869    20.560708     21.29612    7643.2847    4233.3789    3363.0963    2920.8697    329.09929   -1758.5698    1792.1486   -3101.7088 
 9314000      253.961   -3950.4061   -3515.1257   -3950.4061            0    2608.2533    17.442851    20.545375    21.280238    7626.1972     2838.841    2207.5171    2778.4017   -73.957567   -266.47169    131.92616    -3225.035 
 9315000    238.85765   -3966.2998    -3556.906   -3966.2998            0    3596.9685     17.45107    20.555056    21.290265    7636.9826    2546.1717    3158.9143    5085.8194    36.973998   -750.25995    1633.5057   -3156.2844 
 9316000    253.40057     -3921.84   -3487.5201     -3921.84            0    3319.1636    17.443585    20.546239    21.281133    7627.1594    2657.7288    4022.6518    3277.1102    -844.3832   -169.14878    1212.6681   -3118.3153 
 9317000    231.04691   -3945.8357   -3549.8292   -3945.8357            0    1669.2616    17.481684    20.591115    21.327614    7677.2449   -29.356292     2284.928    2752.2132    101.16159    159.94739    613.48108   -3362.9308 
 9318000    250.99728    -3936.838   -3506.6373    -3936.838            0    3685.6942     17.41855    20.516751     21.25059    7594.3667    2091.5113    4651.5138    4314.0577   -394.49121   -387.02897   -284.06291   -3098.4244 
 9319000    243.89268   -3953.0584   -3535.0346   -3953.0584            0    3391.8034     17.39004     20.48317    21.215809     7557.138    3346.2308    2312.2809    4516.8985    110.82946    783.05439   -503.54591   -3161.2135 
 9320000    244.53562   -3913.9323   -3494.8066   -3913.9323            0    2068.2665    17.504205    20.617642    21.355089    7706.9542    2061.3009    2433.9025     1709.596   -1288.7188   -1009.1841    378.76706   -3262.3376 
 9321000    243.81521   -3925.5541   -3507.6631   -3925.5541            0    3201.1908    17.453959    20.558458    21.293789    7640.7755    2687.8523    2251.3758    4664.3442    -1414.625      949.166    634.98125   -3150.9453 
 9322000    259.80373   -3904.2095   -3458.9148   -3904.2095            0     2306.802    17.459345    20.564802     21.30036     7647.851    2704.2532    1361.0574    2855.0956     1251.425    701.26021   -699.88117   -3201.6232 
 9323000    231.28249   -3922.2577   -3525.8475   -3922.2577            0    3609.6054    17.489491     20.60031    21.337138    7687.5347    3636.0403    2720.8431    4471.9329     195.8228    1023.2182    200.88649   -3121.1572 
 9324000    253.15277   -3944.0543   -3510.1591   -3944.0543            0    3387.4635    17.450194    20.554023    21.289196    7635.8319    3459.7729    3814.3393    2888.2784    -814.5739    97.451174    67.250737   -3132.9286 
 9325000    239.14581   -3947.6755   -3537.7878   -3947.6755            0    2452.6313    17.589983    20.718676    21.459738    7820.8114    2908.7362    1884.1842    2564.9735    1603.9343    315.38432   -957.51936   -3258.0443 
 9326000    233.19555   -3931.6429   -3531.9537   -3931.6429            0     1992.834     17.56042    20.683855    21.423671    7781.4454    2060.9592    2022.8256    1894.7173   -1024.6998    390.48601   -896.63633   -3305.7982 
 9327000    245.31548   -3961.1359   -3540.6735   -3961.1359            0    2941.6031    17.448496    20.552024    21.287125    7633.6035    1696.9055    3671.8891    3456.0148   -505.53959    184.31402   -773.96616   -3213.1899 
 9328000    259.54067   -3908.7486   -3463.9047   -3908.7486            0    2322.3823    17.547942    20.669158    21.408449    7764.8701    2970.4338    1100.9203    2895.7927    483.74112    175.44205   -306.98499    -3200.912 
 9329000     226.9646    -3902.469   -3513.4594    -3902.469            0    3010.6022    17.414492    20.511971     21.24564    7589.0607    1807.6892     3989.733    3234.3844     912.2416   -1050.8815   -359.98986     -3180.25 
 9330000    255.41718   -3900.5446   -3462.7683   -3900.5446            0    4452.8885    17.353913    20.440618    21.171734    7510.1369    5476.8535    2889.4153    4992.3966    383.53323    1097.3013   -145.61288   -2975.0539 
 9331000    245.00395   -3933.1985   -3513.2701   -3933.1985            0    3479.8639    17.479923     20.58904    21.325465    7674.9246    3809.8143    3419.3841    3210.3933   -50.139825    354.93137    123.91331   -3123.7658 
 9332000    229.20752   -3927.3941   -3534.5403   -3927.3941            0    3752.2908    17.378732     20.46985    21.202012    7542.4045    2765.4904    4002.2365    4489.1456    421.89037   -333.51456    952.35535   -3121.7949 
 9333000    231.30695   -3918.8525   -3522.4003   -3918.8525            0    3248.8114     17.50272    20.615892    21.353277    7704.9924    4579.4127    2675.0271    2491.9942   -1133.9678   -1502.8259   -289.68704   -3157.3333 
 9334000    249.79103   -3877.2247   -3449.0914   -3877.2247            0    3370.9067    17.432329    20.532981      21.2674    7612.4036    5150.3864    2024.5212    2937.8125    73.348411    1570.1129    712.59112   -3074.8564 
 9335000    239.88033   -3924.1049   -3512.9582   -3924.1049            0     2119.396     17.47994     20.58906    21.325486    7674.9471    1686.1283     3151.138    1520.9218   -1654.4117   -188.35259   -1470.8676   -3275.7316 
 9336000    239.49227   -3919.4736   -3508.9921   -3919.4736            0    2253.3544    17.526003    20.643316    21.381682    7735.7819     1122.639    2701.9589    2935.4653    -394.7607   -1103.8159    -569.8839   -3254.7721 
 9337000    240.27759   -3936.9098   -3525.0823   -3936.9098            0    2532.7139    17.462877    20.568963     21.30467    7652.4942    2957.6614      2898.29    1742.1902    363.00064   -932.34669    241.54485   -3242.4218 
 9338000    249.32892   -3884.4453   -3457.1041   -3884.4453            0    3237.1911    17.493477    20.605005    21.342001    7692.7918    4631.8849    2271.6026    2808.0857    314.37657    910.56328    601.24269   -3093.9188 
 9339000    232.86679   -3917.9001   -3518.7744   -3917.9001            0    4378.4085    17.396217    20.490446    21.223344    7565.1938    3514.5138    4114.6215    5506.0901   -1366.9296    1181.0639   -748.45279    -3035.702 
 9340000    242.61478   -3901.5786   -3485.7451   -3901.5786            0    4443.2817     17.36198     20.45012    21.181575    7520.6153    4732.2963     4627.188    3970.3608   -612.26186    258.03803    921.24456    -2998.404 
 9341000    235.92054   -3931.2887    -3526.929   -3931.2887            0     3285.921    17.390548    20.483768    21.216428       7557.8    4646.6933    3823.4266    1387.6431   -1505.2013    304.72682   -1726.9436   -3164.7457 
 9342000    248.81537   -3904.0559   -3477.5948   -3904.0559            0    4526.9362    17.380204    20.471585    21.203809    7544.3222    4754.5082     3817.733    5008.5675    956.41393   -1203.9795    55.011063   -2979.5132 
 9343000    251.50291   -3965.1753   -3534.1079   -3965.1753            0    3600.2687    17.441314    20.543564    21.278363    7624.1811    3242.7766    3744.5964     3813.433    935.98598    979.72126   -158.81176    -3133.791 
 9344000    247.79574   -3945.8333   -3521.1199   -3945.8333            0    3529.5342    17.412112    20.509168    21.242736    7585.9492    3364.5875    4216.7734    3007.2418    980.33337   -1335.3263   -418.87933   -3130.6359 
 9345000    244.04764   -3951.0401   -3532.7508   -3951.0401            0    3125.0123    17.431174    20.531621    21.265992    7610.8913    2532.7955    3337.1964    3505.0449   -448.65767   -559.60802   -1919.3123   -3185.8836 
 9346000    242.43064   -3913.0547   -3497.5369   -3913.0547            0    3507.2058    17.542537    20.662792    21.401854    7757.6969    3773.3973    2256.7558    4491.4644    864.80694    254.08436   -229.47812   -3100.7385 
 9347000    254.59179   -3960.4645   -3524.1028   -3960.4645            0    3397.9379    17.488673    20.599346     21.33614    7686.4558    4058.0413    3573.5141    2562.2582   -314.07551    1536.0411       533.84   -3143.1972 
 9348000     234.1792   -3960.4942    -3559.119   -3960.4942            0    3512.4589    17.448976    20.552588    21.287709    7634.2327    3601.3662    3571.0436    3364.9671    288.64157    358.12018    804.09458   -3168.0508 
 9349000    253.54132   -3947.9111   -3513.3499   -3947.9111            0    2591.7353    17.493755    20.605333     21.34234    7693.1591    2600.8181    4107.9124    1066.4755   -78.452804   -22.191009    1476.7548   -3222.5654 
 9350000    242.75975   -3936.2251   -3520.1432   -3936.2251            0    2572.0957    17.431871    20.532442    21.266842    7611.8041    2654.8776    3929.7583    1131.6511    105.20605    670.24111   -248.03953   -3234.6139 
 9351000    235.07579   -3950.1433   -3547.2315   -3950.1433            0    3351.9672    17.541423     20.66148    21.400495    7756.2193    4086.1619    1339.1741    4630.5656    679.23162    185.28575    160.94682   -3168.0687 
 9352000    255.95685   -3938.5639   -3499.8626   -3938.5639            0    3434.8203    17.417287    20.515264     21.24905    7592.7157      4673.19    3922.3162    1708.9546   -983.07021   -425.99671   -671.04369   -3119.5182 
 9353000    249.10654   -3935.3961    -3508.436   -3935.3961            0    3520.4258    17.411076    20.507948    21.241472    7584.5955    3635.6038    3956.7923    2968.8814    104.71324   -206.41156   -690.19879   -3119.0292 
 9354000    242.08801   -3906.0786    -3491.148   -3906.0786            0    2707.0834    17.452574    20.556827    21.292099    7638.9567    1549.8395    1940.7405    4630.6701    312.34392    610.24633    442.89847   -3189.5618 
 9355000      262.019   -3913.2892   -3464.1976   -3913.2892            0    2527.0659    17.391369    20.484736     21.21743     7558.871    2240.4696    2159.8132    3180.9149     82.66404   -286.82223    779.98329   -3185.6179 
 9356000    239.33324    -3934.115    -3523.906    -3934.115            0    3014.4181     17.43223    20.532864     21.26728    7612.2743    1212.6105    3982.7386    3847.9053    376.65771    475.97324    222.20599   -3189.2537 
 9357000    245.31019   -3949.5346   -3529.0813   -3949.5346            0     2109.178    17.532131    20.650534    21.389158     7743.899    3329.6727    1877.9806    1119.8807   -45.497946    1202.6668   -16.335035   -3290.8774 
 9358000     243.8226   -3925.7948   -3507.8912   -3925.7948            0     1513.194    17.520446    20.636771    21.374903     7728.426    1272.4681    614.46203     2652.652    746.66894   -11.226923    1604.3135   -3337.3373 
 9359000    248.89827   -3944.9052   -3518.3021   -3944.9052            0    2738.7933    17.476487    20.584993    21.321273    7670.3997    2671.3971    2088.1511    3456.8319    462.17933     -758.278    953.98392   -3211.9272 
 9360000    236.81405   -3915.6654   -3509.7742   -3915.6654            0    2253.1104    17.469264    20.576486    21.312462    7660.8937    521.77564    3737.3474     2500.208   -806.06998    630.46522   -592.76168   -3258.0426 
 9361000    251.58498   -3937.3251   -3506.1171   -3937.3251            0    1860.0153    17.488986    20.599715    21.336522     7686.869     982.3737    3740.2609    857.41147    795.30852   -496.50593    1355.6289   -3297.5999 
 9362000    248.55747   -3937.4573   -3511.4383   -3937.4573            0    2307.2321    17.392155    20.485661    21.218389    7559.8954    2677.8873    1481.9454    2761.8637   -53.512529    268.91391    25.268452   -3257.0583 
 9363000    240.11439   -3925.1451   -3513.5972   -3925.1451            0     4967.612    17.385432    20.477743    21.210187    7551.1319    5035.3718    4170.6313    5696.8328   -1137.0531    625.47684    168.72214   -2966.5364 
 9364000    249.15331   -3892.9661   -3465.9259   -3892.9661            0    1656.8615    17.474631    20.582807    21.319009    7667.9559    1930.3292    2261.6368    778.61853    503.19834    96.555338    481.16277   -3280.6403 
 9365000    241.66581   -3884.5867   -3470.3798   -3884.5867            0    2005.6853    17.561773    20.685449    21.425323    7783.2449    1815.9534    1760.7058    2440.3966   -1287.8836   -1927.6546    108.10626   -3242.7132 
 9366000    237.01544   -3915.2679   -3509.0315   -3915.2679            0    4010.5894    17.467602    20.574528    21.310433    7658.7066    4100.2301    3836.7431    4094.7951    669.68746    522.77656    519.80674   -3061.0712 
 9367000    231.46861   -3932.5992     -3535.87   -3932.5992            0    3483.9054    17.531276    20.649527    21.388116    7742.7665     3483.352    4050.2092    2918.1549    495.61116   -1004.2986    172.48626   -3142.4663 
 9368000    244.05082   -3953.1618    -3534.867   -3953.1618            0     3046.574    17.486353    20.596614     21.33331    7683.3981    2529.4521    2595.2176    4015.0525   -275.15631   -851.46398   -825.66469   -3193.4848 
 9369000    245.96641   -3931.3952   -3509.8172   -3931.3952            0    3581.1505    17.465843    20.572457    21.308288    7656.3941     3056.749    4469.1868    3217.5157   -792.21493   -416.98613    311.62425   -3109.9436 
 9370000    240.96283   -3921.6761   -3508.6741   -3921.6761            0    2083.9021     17.43527    20.536445    21.270988     7616.257    3728.5095    757.38298    1765.8137    353.40972    107.78389     319.4049    -3277.204 
 9371000    247.99867   -3947.9189   -3522.8576   -3947.9189            0    3034.4985    17.434991    20.536117    21.270648     7615.892    2464.0552    3384.8674     3254.573   -652.92465   -899.56619     1002.927    -3185.816 
 9372000    246.60705   -3896.5307   -3473.8547   -3896.5307            0     3201.127    17.353638    20.440293    21.171398    7509.7797    1211.0522     4486.822    3905.5069    1463.9918    -710.8133    330.38566   -3123.2594 
 9373000    236.30609   -3929.9818   -3524.9612   -3929.9818            0    3600.4435    17.468043    20.575048    21.310972    7659.2876    3539.4383    4557.6122    2704.2801   -625.28964   -970.07129    105.48301   -3122.7814 
 9374000    248.53873   -3912.3987   -3486.4118   -3912.3987            0    1669.1857    17.463072    20.569193    21.304908    7652.7506    1576.6111    1946.0622    1484.8837    909.81322    -642.1828   -396.79611   -3300.1181 
 9375000    256.46457   -3908.1307   -3468.5592   -3908.1307            0    2613.0935    17.490492    20.601489    21.338359    7688.8549    3847.3825     2640.225    1351.6729   -507.53195   -442.75916   -1233.9879   -3175.5424 
 9376000     244.6281   -3924.3492   -3505.0651   -3924.3492            0    3460.0209    17.393062     20.48673    21.219495    7561.0783    978.61414    5430.7065    3970.7419    137.26517    806.56444   -290.64981   -3123.5266 
 9377000    247.94608   -3922.2366   -3497.2655   -3922.2366            0    3041.3816    17.496218    20.608234    21.345345    7696.4092    3629.3181    2554.7891    2940.0377   -589.37692   -45.531856    1237.5186    -3155.888 
 9378000    249.14139   -3923.1782   -3496.1584   -3923.1782            0    3833.6449    17.460781    20.566493    21.302112    7649.7379     2912.059    3518.1056    5070.7703   -18.809602    86.479314    332.13188   -3068.4632 
 9379000    266.62859   -3913.9282   -3456.9359   -3913.9282            0    5441.4141    17.330497    20.413037    21.143166    7479.7773    5412.3845    6261.7042    4650.1535    1377.8614   -740.44938    819.89022   -2863.3599 
 9380000    249.67046   -3971.5623   -3543.6356   -3971.5623            0    4517.0765    17.356871    20.444102    21.175342     7513.978    4832.4039    3215.7907    5503.0348    202.10036    826.46402    467.56868   -3048.6379 
 9381000    226.97752   -3953.6905   -3564.6588   -3953.6905            0    3874.4863    17.358121    20.445573    21.176867    7515.6007    3347.5954     2134.733    6141.1305   -835.39886   -65.491837   -280.90332   -3139.9867 
 9382000    254.47852   -3930.5236   -3494.3561   -3930.5236            0    3072.3252    17.440883    20.543057    21.277837    7623.6162    3830.3937    3170.5968     2215.985   -478.24585    1462.8299   -630.22084   -3152.7669 
 9383000    240.50488   -3950.5758   -3538.3587   -3950.5758            0    2905.8201    17.432706    20.533425    21.267861    7612.8982    1950.6324    4648.4444    2118.3835   -1619.6769   -842.55701   -249.26611   -3215.7362 
 9384000    241.11659   -3970.1487   -3556.8831   -3970.1487            0    2071.7489    17.417621    20.515657    21.249457    7593.1522    3071.9234    318.60124     2824.722    249.19218    240.04002   -1057.7884   -3327.4611 
 9385000    234.44206    -3972.386   -3570.5604    -3972.386            0    4142.5226    17.357789    20.445183    21.176462      7515.17     4360.765    3911.4937    4155.3091   -287.39923   -208.44781    1101.7251   -3116.5356 
 9386000     243.3002   -3946.7676   -3529.7593   -3946.7676            0    4093.8975     17.40286    20.498271    21.231449    7573.8638    4691.3789    3566.3037    4024.0098     348.8231    855.93234   -846.53314   -3077.5596 
 9387000    238.31182   -3951.3058   -3542.8475   -3951.3058            0    1833.8543    17.405496    20.501375    21.234664    7577.3053    1515.1984    2481.1992    1505.1653   -179.04521    1185.7786   -1250.4462   -3340.1934 
 9388000    254.01947   -3955.0346   -3519.6539   -3955.0346            0    3875.0451    17.399659      20.4945    21.227544    7569.6854     4728.473    4977.3465    1919.3159    -1205.736    1214.8509    344.74839   -3091.8641 
 9389000    228.37397   -3963.9881    -3572.563   -3963.9881            0    3711.4235     17.39879    20.493476    21.226483    7568.5508    2055.5722    5143.5441    3935.1541    112.61106    176.32455    394.29141   -3162.8977 
 9390000     247.5679   -3963.1106   -3538.7877   -3963.1106            0    2445.9071    17.440383    20.542467    21.277226    7622.9597    2387.8156    1399.9629    3549.9428   -115.72486   -211.97844   -652.87742   -3266.8687 
 9391000    229.30877   -3965.6965   -3572.6691   -3965.6965            0    3928.8378    17.380045    20.471397    21.203614    7544.1146     5562.703    1827.4158    4396.3946    -640.7051   -883.61758    974.07269   -3140.4059 
 9392000    237.78783   -3959.3481   -3551.7879   -3959.3481            0    2573.3489    17.437672    20.539274    21.273919    7619.4056    2783.9169     2128.291    2807.8389    1315.6313    -258.4502   -117.06329   -3265.8342 
 9393000    242.74605   -3959.0626   -3543.0042   -3959.0626            0    3650.1954    17.367553    20.456683    21.188374    7527.8593    1543.5853    4052.0526    5354.9482    -888.7341    578.84828   -65.352445   -3142.2634 
 9394000    241.42582   -3951.6859   -3537.8903   -3951.6859            0    3620.0953    17.323301    20.404561    21.134387     7470.464    3104.3716    4753.8596    3002.0547   -454.60479   -1450.1396   -186.34433   -3143.4843 
 9395000    267.93293   -3960.6301   -3501.4022   -3960.6301            0    3567.7656    17.373155    20.463282    21.195209    7535.1461    3690.2533    3242.9148    3770.1286    1400.0789   -419.46336    801.23405    -3109.332 
 9396000    243.25686   -3958.1539     -3541.22   -3958.1539            0     2418.353    17.358784    20.446354    21.177675    7516.4618    2530.4858    3449.2852    1275.2879    276.79561   -607.73959     1625.033   -3276.1204 
 9397000    237.79351   -3948.1657   -3540.5958   -3948.1657            0    3689.0647    17.329998    20.412449    21.142557    7479.1312    3721.2727    4798.4157    2547.5058    226.45166   -57.223671   -722.98495   -3138.2094 
 9398000    246.75424   -3989.1554   -3566.2271   -3989.1554            0    3836.0792     17.38933    20.482334    21.214942    7556.2124    2803.9543    5911.4569    2792.8264    2126.6096    173.29852   -908.22763   -3143.4927 
 9399000    249.48142   -3932.8637   -3505.2611   -3932.8637            0    2088.4307    17.447299    20.550614    21.285664    7632.0327   -231.17719    2837.4156    3659.0536   -670.14899    1604.6898   -365.98635   -3272.8075 
 9400000    248.67954   -3989.3286   -3563.1004   -3989.3286            0    3049.3983    17.410142    20.506848    21.240333    7583.3749    2357.2452    2547.8859    4243.0639     615.2752   -90.629724   -799.17802   -3225.8499 
 9401000    245.84175   -3943.6541   -3522.2898   -3943.6541            0    2911.5855    17.501794    20.614801    21.352147    7703.7692    3670.9366    2788.0391    2275.7808   -471.99377    710.43563    132.51612   -3195.1686 
 9402000    233.10323   -3982.3464   -3582.8154   -3982.3464            0    1958.7039    17.460974    20.566721    21.302348    7649.9927    2316.0138     1967.079     1593.019   -1816.3975    1504.7677   -271.27658   -3364.2881 
 9403000    239.07548   -3949.1089   -3539.3417   -3949.1089            0    3033.3588    17.457688    20.562851    21.298339    7645.6739     3355.504     2448.717    3295.8554    216.63938   -171.14076    153.52054   -3201.1091 
 9404000    237.43818   -3973.4232   -3566.4623   -3973.4232            0    3464.2567    17.452663    20.556931    21.292208    7639.0734     4680.813      3081.31     2630.647    517.76471   -910.91215    72.917265   -3180.5162 
 9405000    239.87653   -3966.7856   -3555.6455   -3966.7856            0    2759.7578    17.434815    20.535909    21.270434    7615.6616    1144.6754    2424.2568    4710.3411    956.30269   -829.77666   -835.11951   -3249.1285 
 9406000    241.51628   -3999.7772   -3585.8266   -3999.7772            0    4277.4035     17.37926    20.470472    21.202656    7543.0919    3628.4866     4539.283    4664.4411   -2370.0512   -460.18313   -792.47502   -3115.2768 
 9407000    240.88309   -3966.4333   -3553.5679   -3966.4333            0    1916.1339    17.487944    20.598489    21.335251    7685.4957     2061.305    2863.2006    823.89596   -430.34704   -634.23224    1261.0562   -3338.7979 
 9408000    252.54069   -3978.7147   -3545.8686   -3978.7147            0    4683.0906    17.302353    20.379886     21.10883    7443.3955    4217.1907    4314.7984    5517.2826   -188.74469   -719.63995    484.81952    -3037.499 
 9409000    242.64563   -3952.6969   -3536.8106   -3952.6969            0    1835.1183     17.52456    20.641616    21.379922    7733.8711    1290.8438     2433.696     1780.815   -682.44504    673.41309   -273.31673   -3329.8266 
 9410000    243.68171    -3934.568   -3516.9059    -3934.568            0    2849.4187    17.515606     20.63107    21.368999    7722.0232    3800.3572    2708.2158    2039.6831    1079.6114   -657.78552   -1207.2977   -3196.0107 
 9411000    244.89395   -3986.6054   -3566.8655   -3986.6054            0    2176.9079    17.504133    20.617557    21.355002    7706.8593    1994.9617    1445.7982    3089.9637     173.1377   -1279.5681   -989.93167   -3322.1884 
 9412000    243.22373   -3965.5726   -3548.6954   -3965.5726            0    2658.3736    17.507949    20.622051    21.359656    7711.8997    3604.0063    3064.7494    1306.3652    -10.03447   -873.87336    546.36475   -3249.7078 
 9413000      240.145   -3937.7002   -3526.0998   -3937.7002            0    2426.6156    17.492865    20.604284    21.341254    7691.9845    1903.7294    2044.4123    3331.7052    1221.0019   -300.70594   -174.92598   -3253.8828 
 9414000    246.97181   -3961.0713   -3537.7701   -3961.0713            0    3458.7787    17.494489    20.606197    21.343236    7694.1276     3889.357    2967.2333    3519.7458    616.62305   -1155.9527    54.712373   -3149.6572 
 9415000    239.95704   -3914.0944   -3502.8163   -3914.0944            0    3956.1439    17.471552    20.579181    21.315253    7663.9044    2198.7069    4746.9617    4922.7633    1037.9411   -924.13951    1194.7447   -3060.6374 
 9416000    244.30264   -3907.3569   -3488.6305   -3907.3569            0    2494.1157    17.539434    20.659137    21.398069    7753.5808    2983.6547    1001.1297    3497.5626   -363.22328   -559.03993     1091.906   -3206.6009 
 9417000    232.14942    -3931.925   -3534.0289    -3931.925            0    4050.6932    17.393293    20.487001    21.219776    7561.3787    2604.4427    3963.2344    5584.4025   -2511.6235   -390.48025   -479.08354   -3087.3389 
 9418000    253.82605   -3886.8605   -3451.8114   -3886.8605            0    4423.5361    17.489993    20.600901     21.33775    7688.1967    3923.9901    2963.7875    6382.8305   -1512.6184   -760.99521   -1049.1311   -2955.8248 
 9419000    251.20041   -3905.5326   -3474.9837   -3905.5326            0    3351.8116    17.428235    20.528158    21.262406    7607.0415    3353.7783    2774.1407    3927.5157   -989.94696     371.1701   -78.236828   -3103.1307 
 9420000    254.08249   -3935.2135   -3499.7249   -3935.2135            0    3372.2963    17.510222    20.624729     21.36243    7714.9045     3533.058    3009.8143    3574.0166    868.79404     744.7511    1273.8849   -3120.2944 
 9421000     249.8025   -3956.7906   -3528.6377   -3956.7906            0    3781.2998    17.429014    20.529076    21.263356    7608.0614    3685.1325    3743.9775    3914.7896   -170.33456   -607.76968   -243.57488   -3109.0806 
 9422000    238.94859   -3956.0128   -3546.4631   -3956.0128            0     3550.805    17.471294    20.578877    21.314938    7663.5648    3096.1872    2488.4481    5067.7797    1542.4477   -937.59301    1653.0336   -3149.6066 
 9423000    237.99679   -3964.0602   -3556.1419   -3964.0602            0    2653.0831    17.453289     20.55767    21.292972    7639.8963    1882.5407    3607.2132    2469.4955    154.52438    1191.0674   -8.0760663   -3260.5352 
 9424000    239.82161   -3974.9155   -3563.8694   -3974.9155            0     3493.672    17.392904    20.486544    21.219303    7560.8725    3600.9786    2947.6341    3932.4035   -387.13111    875.60949    1402.5683   -3178.6307 
 9425000    257.43976    -3954.812    -3513.569    -3954.812            0    4650.4867     17.35602    20.443099    21.174304    7512.8729    4724.3379    5059.1051    4168.0173   -1501.4639    762.73052   -1064.0957   -3004.0266 
 9426000    242.19153   -3944.2729   -3529.1649   -3944.2729            0    4371.1432    17.398503    20.493139    21.226133    7568.1764    5457.2915    2967.1987    4688.9393    423.03987      -739.77    364.12443    -3046.704 
 9427000     244.2511   -3911.9242   -3493.2862   -3911.9242            0    1077.2009    17.464981     20.57144    21.307236    7655.2596    511.89105    1327.5271    1392.1847    682.57411    136.10712    692.33398    -3373.023 
 9428000    240.80961   -3925.4129   -3512.6735   -3925.4129            0    1750.1603     17.43788    20.539519    21.274173    7619.6783    668.21811    2389.3838     2192.879   -294.49465    394.47399    99.850876   -3318.1866 
 9429000    240.84222   -3931.2502   -3518.4549   -3931.2502            0    1053.7447    17.367383    20.456483    21.188167    7527.6381    1197.8889    1748.5804    214.76483   -852.41303   -502.00383     751.6124   -3402.7718 
 9430000    241.12853   -3950.6833   -3537.3973   -3950.6833            0    2843.8567    17.387911    20.480662     21.21321    7554.3618     4194.693    3162.6946    1174.1826   -583.97377   -1442.8033    531.20761   -3224.0821 
 9431000    262.27813   -3953.3927   -3503.8569   -3953.3927            0    3362.3438     17.40549    20.501368    21.234657     7577.298     3749.264    5132.9102    1204.8573   -8.7014114   -389.19329    432.38624    -3132.294 
 9432000    261.30624   -3946.0104   -3498.1404   -3946.0104            0    1820.4652    17.430694    20.531055    21.265406     7610.262      530.852    1768.6717    3161.8719    447.19164   -871.49053     1329.789   -3296.0909 
 9433000     243.0993   -3952.6229    -3535.959   -3952.6229            0    3747.1494    17.454418    20.558999    21.294349    7641.3781    4122.2376    4401.2656    2717.9449   -35.983011    505.84022     370.8917   -3118.3705 
 9434000    244.27069   -3946.0899   -3527.4183   -3946.0899            0    3905.9824     17.48295    20.592606    21.329159    7678.9133    3400.3146    2712.1097    5605.5227    62.832981    1499.6836    66.770382   -3089.9909 
 9435000    253.31138   -3908.6982   -3474.5312   -3908.6982            0    5373.3771    17.367949     20.45715    21.188857    7528.3744    7349.1396    3834.2953    4936.6964    -846.4317    428.67202    190.47569   -2884.5687 
 9436000    254.57698   -3916.3889   -3480.0527   -3916.3889            0    4425.9152    17.405152     20.50097    21.234245    7576.8561     3125.968    4084.2908    6067.4867    47.802475   -381.08809     791.7929   -2990.9861 
 9437000    243.24227   -3943.6983   -3526.7894   -3943.6983            0    1529.7881    17.512742    20.627696    21.365504    7718.2353    2478.3005    922.16013    1188.9037   -1639.0472    344.58817   -20.853863   -3354.5925 
 9438000    240.22826   -3889.9851   -3478.2421   -3889.9851            0    4434.5382    17.449469    20.553169    21.288311      7634.88    5204.0723    3773.6416    4325.9008    1915.5103    161.76937    680.70738   -2984.4701 
 9439000    246.83539    -3960.846   -3537.7786    -3960.846            0    4299.6693    17.439389    20.541297    21.276014     7621.657    4079.6647    3933.1223    4886.2209    1112.0801    -55.95116    -618.0723   -3059.8529 
 9440000    251.66737   -3899.0191   -3467.6698   -3899.0191            0    4679.2393    17.435101    20.536245    21.270782    7616.0355    4304.2526    3983.7856    5749.6798    308.38303     -450.027   -880.60787   -2947.9371 
 9441000    255.59871   -3940.7474     -3502.66   -3940.7474            0    4402.8882    17.473032    20.580924    21.317058    7665.8516    2893.0601    4936.3541    5379.2505    1023.6511    737.87051    1737.0587   -3010.4233 
 9442000    246.20643    -3914.432   -3492.4426    -3914.432            0    2391.0123    17.469838    20.577162    21.313162     7661.649    1547.3299    3564.3163    2061.3907    348.54027    497.05855    454.86334   -3225.2774 
 9443000    234.39727   -3887.5003   -3485.7514   -3887.5003            0    3588.0407    17.507539    20.621569    21.359157    7711.3591    3645.3401    4754.2553    2364.5267   -364.23421    621.94872   -69.466275   -3082.2322 
 9444000    244.73233   -3896.0741   -3476.6113   -3896.0741            0    2923.3652    17.505262    20.618887    21.356379    7708.3506    2761.4122     3337.172    2671.5113   -225.00708    152.95238    1119.1015   -3147.9713 
 9445000    251.82002    -3945.044   -3513.4331    -3945.044            0    4243.8185    17.397095     20.49148    21.224415    7566.3386    5410.4408    5045.6951    2275.3197    1348.2078   -192.35377    424.40517   -3045.1392 
 9446000    239.30601   -3919.9195   -3509.7572   -3919.9195            0    3137.0815    17.419763     20.51818     21.25207    7595.9538    2610.5944     3132.757    3667.8931   -620.88782    838.19854   -277.37299   -3162.2338 
 9447000     245.0244   -3927.1865   -3507.2231   -3927.1865            0     2977.285    17.439079    20.540931    21.275635    7621.2499    2586.7753     3508.551    2836.5288   -1776.8959   -1869.4025   -314.60401   -3176.3035 
 9448000    245.63895   -3926.5939   -3505.5772   -3926.5939            0    2679.8218    17.442549    20.545019    21.279869    7625.8009    1340.9997    4566.0731    2132.3927    194.64727   -452.36869    1685.8051   -3207.5422 
 9449000    242.33374   -3915.0289   -3499.6771   -3915.0289            0    1551.6094    17.624126    20.758892    21.501393    7866.4422    1052.9904     692.1847     2909.653    160.05476   -742.02693   -887.87573   -3321.6703 
 9450000    248.08136   -3942.0807   -3516.8777   -3942.0807            0    4425.8861    17.522779     20.63952     21.37775    7731.5145    3906.3057    4466.9755    4904.3771   -196.53124   -1506.7353   -627.70255   -3017.8315 
 9451000    245.11416   -3932.1477   -3512.0304   -3932.1477            0    2780.2348    17.584449    20.712158    21.452987    7813.4331     3211.929    2546.5091    2582.2664   -245.80495    212.82576   -1423.5154   -3195.2201 
 9452000    258.47193   -3956.1728   -3513.1607   -3956.1728            0    4021.1625    17.609384    20.741528    21.483407     7846.718     4777.563    3143.1317    4142.7929   -552.80564    211.16798    514.02777   -3052.9936 
 9453000    246.07403   -3978.4267   -3556.6642   -3978.4267            0    2353.4465    17.583941     20.71156    21.452368    7812.7563    1812.2889     3993.179    1254.8717   -1149.5671   -342.62735    592.28878   -3288.5101 
 9454000    238.51869   -3957.2077   -3548.3948   -3957.2077            0    4007.0949    17.530288    20.648364    21.386911    7741.4581    2824.0541    4762.3123    4434.9182    334.37649    -171.7243    460.28753   -3095.9889 
 9455000    236.44601   -3961.4312   -3556.1709   -3961.4312            0    1563.2927    17.627702    20.763104    21.505755    7871.2313    2148.4003    1112.7526    1428.7251    1098.3567    24.298121   -884.00216   -3376.7145 
 9456000    247.41825   -3969.1405   -3545.0741   -3969.1405            0    4401.1393    17.486073    20.596285    21.332969    7683.0291    5619.1616    3362.2164    4222.0399   -101.30531   -477.08189   -840.99153   -3051.9304 
 9457000    230.89086   -3905.3382   -3509.5992   -3905.3382            0    4354.9649    17.469115     20.57631     21.31228    7660.6973    2749.4007    4824.8714    5490.6225   -282.61401    82.189412   -477.72818   -3023.0476 
 9458000    241.30492   -3910.4535   -3496.8652   -3910.4535            0    3100.6826    17.556044    20.678701    21.418333    7775.6301    3353.5389    2631.6717    3316.8372    307.86842    -1346.836   -972.37651    -3145.249 
 9459000    240.31941    -3938.666   -3526.7668    -3938.666            0    2513.1986     17.56057    20.684032    21.423854    7781.6447    2201.0066    3106.3089    2232.2803   -494.93054     806.4815    22.158814   -3241.5506 
 9460000    236.72977   -3900.1514   -3494.4047   -3900.1514            0    4600.7382    17.575541    20.701666    21.442119    7801.5641    2807.5469    5580.7174    5413.9503     -1057.75     742.2417    593.20053   -2970.9427 
 9461000    232.92502   -3927.6526   -3528.4271   -3927.6526            0    3272.4827    17.547872    20.669076    21.408363    7764.7771    4578.1396    1082.5322    4156.7764    361.62631    1618.1641   -1267.8568   -3157.8469 
 9462000    245.95478   -3946.8899   -3525.3318   -3946.8899            0    1644.5351    17.623241    20.757849    21.500312    7865.2566    2578.7461    1318.6328    1036.2265     184.4591    926.43746    530.20618   -3336.6926 
 9463000     251.8171   -3911.7408   -3480.1349   -3911.7408            0    4220.7026    17.518128    20.634041    21.372076    7725.3595    5708.2582     2834.256    4119.5937   -1407.0188    174.18392    915.22448   -3004.6033 
 9464000    251.15298   -3937.8697   -3507.4021   -3937.8697            0    1777.7992    17.481994    20.591479    21.327991    7677.6527    3125.5397    1322.8569    885.00087   -1543.4365    391.13611    207.95639   -3308.3407 
 9465000    227.57391   -3960.1559    -3570.102   -3960.1559            0    2945.0451    17.457265    20.562352    21.297822    7645.1176    2806.5999    2821.1251    3207.4105    442.90249    -152.9316    236.02243   -3241.7406 
 9466000    245.58624    -3949.005   -3528.0786    -3949.005            0    4102.0516    17.412201    20.509272    21.242844    7586.0654    3237.4527    4590.0816    4478.6205   -95.962891    196.46421   -445.56895   -3074.2482 
 9467000    240.00441   -3952.2901   -3540.9308   -3952.2901            0     3845.128    17.430398    20.530706    21.265045    7609.8745    3402.5509    2975.5952    5157.2378   -678.73944    620.51642    250.82635   -3114.1899 
 9468000    245.38189   -3932.9404   -3512.3642   -3932.9404            0    2552.6895    17.506726    20.620611    21.358165    7710.2843    2918.9649    2772.3377    1966.7658    774.80296   -230.28638    32.954006    -3225.323 
 9469000    247.37128   -3936.4627   -3512.4768   -3936.4627            0    3486.9685    17.596703    20.726592    21.467936    7829.7788    3355.3097    4016.5722    3089.0235   -1364.9642   -252.43156    -269.2672   -3114.3024 
 9470000    229.76588   -3937.3684   -3543.5576   -3937.3684            0    2411.9084    17.531608    20.649918     21.38852    7743.2059    2307.6145    1930.6442    2997.4665    615.69088   -739.70438   -142.45143   -3271.1887 
 9471000    247.62119   -3937.0222    -3512.608   -3937.0222            0    4176.5145    17.521745    20.638301    21.376488    7730.1449     2196.772    5217.9412    5114.8304   -329.89334    28.417247   -257.94936   -3041.7635 
 9472000    242.18297    -3938.152   -3523.0587    -3938.152            0    3081.6746    17.571566    20.696984     21.43727    7796.2724    2656.7461    3642.9025    2945.3751    1415.5917   -695.80133   -204.48527   -3172.6704 
 9473000    239.80827   -3944.2528   -3533.2297   -3944.2528            0    2957.9179    17.542804    20.663106     21.40218    7758.0508    3240.3205    1677.6195    3955.8137    962.81404     -1356.73    1145.9764   -3198.5613 
 9474000    242.13829    -3934.022   -3519.0053    -3934.022            0    3392.0231    17.494136    20.605781    21.342805    7693.6616    1616.7565     5857.717    2701.5958   -1147.7278    681.88374   -1377.8134   -3138.4061 
 9475000    233.98902   -3940.9097   -3539.8605   -3940.9097            0    3909.1194    17.464192    20.570511    21.306273    7654.2219    5017.7621     3520.993     3188.603    819.28398    790.05605    1069.3687   -3103.4895 
 9476000    238.42704   -3921.7509   -3513.0951   -3921.7509            0    2753.8348    17.505066    20.618655    21.356139    7708.0908    2830.2434    3718.2302    1713.0308   -124.31889   -606.89807   -758.22852   -3203.5239 
 9477000    267.28195   -3911.4742   -3453.3621   -3911.4742            0     2554.184    17.484625    20.594579    21.331202    7681.1202     2189.919    2358.9954    3113.6375   -479.28428   -412.08088   -1000.2687   -3167.2392 
 9478000    253.93657    -3917.884   -3482.6454    -3917.884            0    2338.5495    17.468597      20.5757    21.311648     7660.016    2433.4491    1979.7819    2602.4174    79.946237    45.968823   -1267.8925   -3221.3979 
 9479000    237.43976   -3900.8933   -3493.9297   -3900.8933            0     5277.111    17.397841    20.492359    21.225325    7567.3125    5324.0698    3796.2975    6710.9655    1038.9145    654.24332   -531.61086   -2911.5399 
 9480000    248.16369   -3900.2411   -3474.8971   -3900.2411            0    2518.3632    17.486528     20.59682    21.333524    7683.6286    3220.6124     2552.185    1782.2922    994.59613    -214.8088    211.65209   -3192.6947 
 9481000    263.09529   -3943.8213   -3492.8849   -3943.8213            0    2633.6429    17.455364    20.560113    21.295503     7642.621    2698.2188    1713.3649     3489.345   -683.46126    313.86757   -1288.6631   -3199.3397 
 9482000    242.20121   -3908.9474   -3493.8228   -3908.9474            0    3033.9111    17.427832    20.527684    21.261914     7606.514    709.21367    2481.7004    5910.8191    554.82387    125.52815   -405.56309   -3157.2613 
 9483000    243.25109   -3961.8254   -3544.9014   -3961.8254            0    4003.6672    17.432461    20.533136    21.267561    7612.5766     4084.555    2433.7807    5492.6661    -657.0483   -657.44231   -219.18134   -3100.4077 
 9484000    254.03081   -3948.6499   -3513.2498   -3948.6499            0    2315.2818    17.555102    20.677591    21.417183    7774.3775    2481.9886    1238.0225    3225.8344    1201.6086    461.12489    98.455425   -3250.7401 
 9485000     235.8927   -3944.9278   -3540.6158   -3944.9278            0     2087.184      17.4835    20.593254     21.32983     7679.638    1023.9695    2935.5752    2302.0073    294.26098   -356.45023   -628.56157   -3306.8519 
 9486000     240.3478    -3931.827   -3519.8791    -3931.827            0    2466.2009    17.582986    20.710435    21.451202    7811.4829    2930.4992    2778.1624    1689.9411    889.25347   -585.03456   -554.33903   -3238.9234 
 9487000    253.32947   -3962.0431   -3527.8451   -3962.0431            0    4419.9184    17.533244    20.651846    21.390517    7745.3749    4186.3568     3474.857    5598.5414   -471.91931   -779.19932   -355.32726   -3028.5784 
 9488000     249.4061   -3935.8407   -3508.3672   -3935.8407            0    4033.7288    17.545484    20.666262    21.405449    7761.6063    4743.6792    4211.6068    3145.9005    718.01487   -693.02886   -723.43258    -3051.769 
 9489000     239.8021   -3953.6134   -3542.6008   -3953.6134            0    2104.6497    17.597167    20.727138    21.468502    7830.3977    2121.8745    1337.5419    2854.5327   -344.75886    843.07324   -492.89809   -3302.2534 
 9490000    249.46592   -3939.4984   -3511.9224   -3939.4984            0    2311.9596     17.61359    20.746482    21.488539    7852.3424    2916.0242    2598.4465    1421.4082   -1670.1177   -723.49153    458.53418   -3247.1605 
 9491000    222.13192   -3922.0008   -3541.2743   -3922.0008            0    2248.5606     17.58879    20.717271    21.458282    7819.2206    1933.8217    3673.7431     1138.117     104.5195     -68.3298   -357.09428    -3284.859 
 9492000    239.19983   -3920.5591   -3510.5788   -3920.5591            0     3082.518    17.508945    20.623225    21.360872     7713.217    2356.2964    2236.0197    4655.2379   -589.62444   -828.54961    460.93348   -3163.8283 
 9493000    248.52541   -3920.4413   -3494.4773   -3920.4413            0    3590.8806    17.567151    20.691784    21.431884    7790.3977    4529.7554    4275.1746    1967.7119    -275.2633   -268.06652    392.90722   -3086.4995 
 9494000    242.71074   -3919.5203   -3503.5224   -3919.5203            0    3294.5605     17.54869    20.670039    21.409361    7765.8622    1844.4794    4046.8487    3992.3533    898.97863    -1603.036    294.49523   -3130.3899 
 9495000     252.3678   -3918.8844   -3486.3346   -3918.8844            0    3074.7136    17.516494    20.632116    21.370082    7723.1978    2419.7357    3537.5428    3266.8623   -1040.0571    208.37398    363.61614   -3140.0145 
 9496000    247.01511   -3931.7325   -3508.3571   -3931.7325            0    2857.1204    17.454025    20.558536     21.29387    7640.8625    2040.1336    3079.3124    3451.9153    599.23438   -900.31362     535.2002   -3189.9763 
 9497000    246.64254    -3928.283   -3505.5461    -3928.283            0    1911.7049     17.50661    20.620474    21.358023    7710.1309    3791.2648    933.92349    1009.9263    99.291137   -266.65945   -139.94479   -3290.5857 
 9498000    253.22677    -3908.818    -3474.796    -3908.818            0    2998.8751    17.562128    20.685867    21.425755    7783.7164     2540.573    1587.6535    4868.3989   -1059.5173   -106.40275    578.26366   -3134.3711 
 9499000    238.77143   -3950.8093   -3541.5632   -3950.8093            0    2563.5477     17.50678    20.620674    21.358231    7710.3557    2144.2972    2320.6713    3225.6747    317.64745   -596.25528    457.16704   -3253.2983 
 9500000    257.69328   -3911.3456   -3469.6682   -3911.3456            0    3451.2191    17.433781    20.534692    21.269173    7614.3068    4152.4375    4281.4944    1919.7253    -1365.468   -1229.1975   -41.409223   -3086.4212 
Loop time of 434.131 on 64 procs for 250000 steps with 864 atoms

Performance: 99.509 ns/day, 0.241 hours/ns, 575.863 timesteps/s
99.2% CPU use with 64 MPI tasks x 1 OpenMP threads

MPI task timing breakdown:
Section |  min time  |  avg time  |  max time  |%varavg| %total
---------------------------------------------------------------
Pair    | 19.401     | 24.637     | 29.642     |  49.0 |  5.68
Bond    | 0.27355    | 0.28079    | 0.29232    |   0.8 |  0.06
Kspace  | 188.62     | 198.87     | 205.72     |  24.8 | 45.81
Neigh   | 4.1524     | 4.8522     | 5.331      |  13.8 |  1.12
Comm    | 94.749     | 100.4      | 107.18     |  30.5 | 23.13
Output  | 0.82078    | 0.82195    | 0.82352    |   0.0 |  0.19
Modify  | 95.751     | 97.917     | 102.17     |  12.4 | 22.55
Other   |            | 6.343      |            |       |  1.46

Nlocal:        13.5000 ave          18 max           8 min
Histogram: 1 3 1 7 6 14 14 7 4 7
Nghost:        2114.09 ave        2162 max        2062 min
Histogram: 3 2 4 5 14 12 10 10 2 2
Neighs:        4057.52 ave        5732 max        2125 min
Histogram: 3 3 2 6 13 14 10 3 6 4

Total # of neighbors = 259681
Ave neighs/atom = 300.55671
Ave special neighs/atom = 2.0000000
Neighbor list builds = 12073
Dangerous builds = 0

unfix		3
unfix		2
unfix		1

write_data	data.final.${pid}
write_data	data.final.0
System init for write_data ...
PPPM initialization ...
  extracting TIP4P info from pair style
  using 12-bit tables for long-range coulomb (../kspace.cpp:340)
  G vector (1/distance) = 0.37362481
  grid = 24 24 25
  stencil order = 5
  estimated absolute RMS force accuracy = 0.0031432422
  estimated relative force accuracy = 9.4657807e-06
  using double precision FFTW3
  3d grid and FFT values/proc = 2730 288
Last active /omp style is kspace_style pppm/tip4p/omp
WARNING: Not all mixed pair coeffs generated from mixing. Use write_data with 'pair ij' option to store all pair coeffs. (../write_data.cpp:312)

write_restart   restart.lmp.${pid}
write_restart   restart.lmp.0
System init for write_restart ...
PPPM initialization ...
  extracting TIP4P info from pair style
  using 12-bit tables for long-range coulomb (../kspace.cpp:340)
  G vector (1/distance) = 0.37362481
  grid = 24 24 25
  stencil order = 5
  estimated absolute RMS force accuracy = 0.0031432422
  estimated relative force accuracy = 9.4657807e-06
  using double precision FFTW3
  3d grid and FFT values/proc = 2730 288
Last active /omp style is kspace_style pppm/tip4p/omp
Total wall time: 0:07:17
