LAMMPS (30 Jul 2021)
  using 1 OpenMP thread(s) per MPI task
package omp 0
using multi-threaded neighbor list subroutines
echo both

include		in.partitions
variable        pid world 0
include		in.temp
variable        temperature equal 238.94
variable	tempDamp equal 100.0
include		in.pressure
variable        pressure equal 3750.0
variable        pressureDamp equal 1000.0 # This is 1 ps
include		in.seed
variable        seed world 745823

units		real
atom_style	full
read_restart    restart.lmp.${pid}
read_restart    restart.lmp.0
Reading restart file ...
  restart file = 30 Jul 2021, LAMMPS = 30 Jul 2021
  restoring atom style full from restart
  triclinic box = (-3.2357004 -0.13676299 -0.24925535) to (14.845699 22.716762 19.479253) with tilt (0.062694691 -6.4249014 -0.054377166)
  4 by 4 by 4 MPI processor grid
  restoring pair style lj/cut/tip4p/long/omp from restart
  restoring bond style harmonic/omp from restart
  restoring angle style harmonic/omp from restart
  1008 atoms
  672 bonds
  336 angles
Finding 1-2 1-3 1-4 neighbors ...
  special bond factors lj:    0        0        0       
  special bond factors coul:  0        0        0       
     2 = max # of 1-2 neighbors
     1 = max # of 1-3 neighbors
     1 = max # of 1-4 neighbors
     2 = max # of special neighbors
  special bonds CPU = 1.873 seconds
  read_restart CPU = 2.186 seconds

include 	in.setup
variable	out_freq equal 1000
variable	out_freq2 equal 10000
variable	out_freq3 equal 1000

timestep	2.0

neigh_modify    delay 7 every 1

include		in.tip4p
# This is TIP4P/Ice

# create groups ###
group ox type 2
336 atoms in group ox
group hy type 1
672 atoms in group hy

# set charges - beside manually ###
set group ox charge -1.1794
Setting atom values ...
  336 settings made for charge
set group hy charge 0.5897
Setting atom values ...
  672 settings made for charge

# ### TIP3P Potential Parameters ###
pair_style lj/cut/tip4p/long/omp 2 1 1 1 0.1577 8.5
pair_coeff 1 1*2 0.000 0.000
pair_coeff 2 2 0.21084 3.1668
bond_style  harmonic
bond_coeff  1 450 0.9572
angle_style harmonic
angle_coeff 1 55 104.52
kspace_style pppm/tip4p/omp 1.0e-5
pair_modify tail yes

thermo          ${out_freq}
thermo          1000
thermo_style    custom step temp pe etotal epair emol press lx ly lz vol pxx pyy pzz pxy pxz pyz enthalpy

restart 	${out_freq3} restart.lmp.${pid} restart2.lmp.${pid}
restart 	1000 restart.lmp.${pid} restart2.lmp.${pid}
restart 	1000 restart.lmp.0 restart2.lmp.${pid}
restart 	1000 restart.lmp.0 restart2.lmp.0


include         in.dump
dump            myDump all atom ${out_freq2} dump.water.${pid}
dump            myDump all atom 10000 dump.water.${pid}
dump            myDump all atom 10000 dump.water.0
dump            myDump2 all dcd ${out_freq2} dump.dcd
dump            myDump2 all dcd 10000 dump.dcd
dump_modify     myDump append yes
dump_modify     myDump2 append yes


variable natoms 	equal  "count(all)"                        # NUMBER ATOMS
variable H      	equal  "enthalpy/v_natoms"                 # ENTHALPY-per-atom
variable Vol      	equal  "vol/v_natoms"                 # volume-per-atom
fix AVG all 		ave/time ${out_freq} 1 ${out_freq} v_Vol v_H file vol_enthalpy.dat
fix AVG all 		ave/time 1000 1 ${out_freq} v_Vol v_H file vol_enthalpy.dat
fix AVG all 		ave/time 1000 1 1000 v_Vol v_H file vol_enthalpy.dat



fix 		1 all shake 1e-6 200 0 b 1 a 1
       0 = # of size 2 clusters
       0 = # of size 3 clusters
       0 = # of size 4 clusters
     336 = # of frozen angles
  find clusters CPU = 0.350 seconds
fix             2 all nph tri ${pressure} ${pressure} ${pressureDamp}
fix             2 all nph tri 3750 ${pressure} ${pressureDamp}
fix             2 all nph tri 3750 3750 ${pressureDamp}
fix             2 all nph tri 3750 3750 1000
fix             3 all temp/csvr ${temperature} ${temperature} ${tempDamp} ${seed}
fix             3 all temp/csvr 238.94 ${temperature} ${tempDamp} ${seed}
fix             3 all temp/csvr 238.94 238.94 ${tempDamp} ${seed}
fix             3 all temp/csvr 238.94 238.94 100 ${seed}
fix             3 all temp/csvr 238.94 238.94 100 745823


run             250000
PPPM initialization ...
  extracting TIP4P info from pair style
  using 12-bit tables for long-range coulomb (../kspace.cpp:340)
  G vector (1/distance) = 0.37834925
  grid = 24 27 32
  stencil order = 5
  estimated absolute RMS force accuracy = 0.0025400805
  estimated relative force accuracy = 7.6493769e-06
  using double precision FFTW3
  3d grid and FFT values/proc = 3825 384
Last active /omp style is kspace_style pppm/tip4p/omp
Neighbor list info ...
  update every 1 steps, delay 7 steps, check yes
  max neighbors/atom: 2000, page size: 100000
  master list distance cutoff = 10.8154
  ghost atom cutoff = 10.8154
  binsize = 5.4077, bins = 5 5 4
  1 neighbor lists, perpetual/occasional/extra = 1 0 0
  (1) pair lj/cut/tip4p/long/omp, perpetual
      attributes: half, newton on, omp
      pair build: half/bin/newton/tri/omp
      stencil: half/bin/3d/tri
      bin: standard
Per MPI rank memory allocation (min/avg/max) = 9.312 | 9.326 | 9.336 Mbytes
Step Temp PotEng TotEng E_pair E_mol Press Lx Ly Lz Volume Pxx Pyy Pzz Pxy Pxz Pyz Enthalpy 
 1250000    248.54957   -4861.6381   -4364.5083   -4861.6381            0    2773.1537      18.0814    22.853525    19.728509    8152.2878    2942.8842    3211.5204    2165.0565   -877.62079    349.41532   -826.85031   -4034.8004 
 1251000     226.7962   -4848.7763   -4395.1559   -4848.7763            0    4509.7187    18.151306    22.883689    19.415357    8064.5345    3209.5042    4415.6774    5903.9744   -1420.2336   -365.13342    266.22853   -3864.7545 
 1252000    233.47575   -4853.8109   -4386.8305   -4853.8109            0    2042.5781    18.203192    23.012105    19.515557    8174.9452    1726.6268    1849.5327    2551.5749   -888.04623    621.40862    284.39104   -4143.3078 
 1253000      234.292   -4866.7558   -4398.1429   -4866.7558            0    3712.6873    18.292744    22.841115    19.381083    8097.9333    2417.0134     4496.779    4224.2695   -479.58281    34.308852   -193.31696   -3959.6743 
 1254000    237.30176   -4900.0859   -4425.4531   -4900.0859            0    3361.5918    18.133514    22.794443    19.536704    8075.3667    2005.3301    4852.5755    3226.8698    683.47707    348.87837    250.92741   -4029.5552 
 1255000    239.75672   -4862.8515   -4383.3085   -4862.8515            0    3987.0173    18.336652    22.722218     19.42853    8094.8852    3017.0465    4570.8103     4373.195    251.73665   -215.32975    176.18331   -3912.6188 
 1256000    240.33663   -4850.2991   -4369.5962   -4850.2991            0    4566.2915    18.191578     22.67238     19.59669    8082.5838    4516.4423    5363.2058    3819.2265    705.32861   -259.64867   -512.21973   -3831.3391 
 1257000    233.64473   -4855.7218   -4388.4035   -4855.7218            0    2330.5387    18.179538    22.831721    19.583185    8128.3952    1599.0201    2223.5333    3169.0628    1079.8441   -1576.1429   -518.51534   -4112.1314 
 1258000    252.11104   -4883.6935   -4379.4402   -4883.6935            0    2310.6171    18.271475     22.95688    19.445055    8156.3463    2748.9986    2931.6319    1251.2207    739.25487    370.63543    889.45506   -4104.5878 
 1259000    252.81068   -4860.2071   -4354.5545   -4860.2071            0    3457.6839    18.206627    23.031768     19.42403    8145.0943    1745.8474    3786.0693    4841.1351    1031.9857    1289.9601   -2552.1657   -3943.8237 
 1260000     241.7838   -4852.1709   -4368.5734   -4852.1709            0    3185.7496    18.054108    23.109816    19.427931    8105.8597    3544.5526    3031.9605    2980.7358    362.40699    103.61955   -1769.9248   -3991.9679 
 1261000    238.10906   -4869.6399   -4393.3924   -4869.6399            0     4422.625     18.02202     23.19054    19.292901    8063.2821    4716.0431    3934.2079    4617.6241   -21.029114    -905.0924   -1458.2334   -3873.3151 
 1262000    247.68195   -4838.1889   -4342.7944   -4838.1889            0    2752.3789    18.092922    23.174367    19.376962    8124.6059    1857.7861    1935.0859    4464.2646    1522.3041   -655.28733    426.25668   -4016.6677 
 1263000    254.43114   -4852.6745   -4343.7808   -4852.6745            0    2969.3701    18.050254    23.149878    19.389176     8101.984    4575.3124    1773.7259    2559.0719    231.33602   -637.25755   -883.46704   -3992.9226 
 1264000    235.99937   -4859.3589    -4387.331   -4859.3589            0    3240.2844    17.929917    23.199264    19.470234    8098.8551    2721.9289    3161.2888    3837.6356     1098.326   -436.82634    -453.3708   -4004.6096 
 1265000     243.3423   -4870.4123   -4383.6976   -4870.4123            0    4602.4441    18.154836    22.973315    19.386279     8085.567    4629.0533    4075.4681    5102.8107    405.69888   -8.4083968    564.53271   -3840.9788 
 1266000     241.2307   -4858.4367   -4375.9456   -4858.4367            0    4806.9413    18.174367    22.907959     19.44411    8095.3151    4683.5455     4769.322    4967.9563    248.50672   -987.86515    502.89757   -3808.4291 
 1267000    235.91754   -4843.3938   -4371.5296   -4843.3938            0    6700.9633    17.957006    22.829558    19.496862    7992.7483    7531.7035    6875.3336    5695.8529   -737.98691    60.283831   -1100.8427   -3590.4248 
 1268000    231.73198   -4871.6149   -4408.1223   -4871.6149            0    3383.9153    18.362286    22.868906    19.402507    8147.6051    2631.0614    2588.6571    4932.0275    929.09558    763.34832    952.23532   -4006.0303 
 1269000    234.67537   -4854.1774   -4384.7977   -4854.1774            0    4143.6167    18.115953    22.777959    19.577549    8078.5666    3118.4074      5304.02    4008.4227   -921.68194    965.88226    667.48109   -3896.6067 
 1270000    239.69811   -4863.8183   -4384.3924   -4863.8183            0    4103.4603    18.359705    22.656252    19.472149    8099.6759    4742.1395    4140.8018    3427.4397   -487.10948    663.25389   -310.99282   -3899.6693 
 1271000    238.63074   -4881.4536   -4404.1627   -4881.4536            0    4090.4168     18.22764    22.645027    19.652154    8111.7293    3693.2203    4812.9247    3765.1053    34.018618    1035.6062    248.89423   -3920.2613 
 1272000    243.32555   -4873.8147   -4387.1335   -4873.8147            0    3941.0699     18.28446    22.899683     19.36072    8106.4949    2687.6107    4640.4239    4495.1752    910.18603    -702.0024   -1043.9063   -3921.2009 
 1273000    230.19478   -4878.1493   -4417.7313   -4878.1493            0    3656.5201    18.138266    22.914057    19.500863    8104.9733    3890.6789    3890.5089    3188.3725     645.1203    214.59618    1207.7024   -3985.5207 
 1274000    249.64763   -4841.5916   -4342.2655   -4841.5916            0    1696.4825    18.222038    23.240426    19.425525    8226.4753    3937.3969   -290.49235     1442.543    626.84172    449.27599   -956.65454   -4138.7305 
 1275000    242.24148   -4845.9944   -4361.4816   -4845.9944            0    5828.8953    18.074309    23.049824    19.314848    8046.7519    6297.4451    5395.9102    5793.3306    146.83759    33.465112    3058.0863   -3677.4396 
 1276000    240.78784   -4845.7061   -4364.1007   -4845.7061            0    4045.6368     18.06685    23.201696    19.343948     8108.626    2909.6179    4712.6464    4514.6461   -202.79332    221.31088    232.03148   -3885.6799 
 1277000    243.35732   -4834.3714   -4347.6267   -4834.3714            0    2815.9014    18.071313    23.145894    19.376619    8104.7879    4874.3837    1159.1516    2414.1689    710.39564   -1382.8005    437.72717   -4014.7871 
 1278000    230.39187   -4853.1009   -4392.2887   -4853.1009            0    2597.8938    18.144664    23.077999    19.431118    8136.6355    4564.5782    1267.0152    1962.0881    -218.8958   -1132.4241    771.38364    -4084.011 
 1279000    233.40557   -4848.5255   -4381.6855   -4848.5255            0     4117.958     18.16514    22.742333    19.636339    8112.1185     5098.245    3674.2002    3581.4289   -2478.7816   -90.602769   -589.38333   -3894.5026 
 1280000     238.4004   -4838.0707   -4361.2405   -4838.0707            0    3336.9145    18.189645      22.7376    19.596101    8104.7289    3470.3092    3884.9558    2655.4785    -1208.845     295.5863   -676.78712     -3966.82 
 1281000    250.34942   -4860.5684   -4359.8386   -4860.5684            0    2154.3888    18.301225    22.887597    19.457738    8150.2834     489.7289    3220.9885    2752.4492   -145.06919    158.54489   -6.0729732   -4103.7603 
 1282000     239.3927   -4851.0118   -4372.1968   -4851.0118            0     4220.843    18.113061    22.858089    19.538683    8089.6001    3532.5996     5782.455    3347.4744   -347.63665    866.09829    506.17778    -3874.228 
 1283000    240.01829   -4861.8708   -4381.8046   -4861.8708            0    2457.8818    18.100601    23.034676    19.505103    8132.4868    2728.3322    2441.9295    2203.3838   -33.604978   -663.95514    336.91138     -4090.29 
 1284000    225.87135   -4859.8632   -4408.0926   -4859.8632            0    5677.0748    17.964573    23.078339    19.393241    8040.2926    5986.3054     5212.794    5832.1251    -460.4418   -1175.6675    73.275293   -3742.4021 
 1285000    242.54966   -4901.9153   -4416.7861   -4901.9153            0    4181.6031    18.042045     23.06648    19.366504    8059.6897    3841.5803    4142.4942    4560.7349    199.86027   -73.502934   -473.59412   -3925.2708 
 1286000    234.42155   -4880.0214   -4411.1493   -4880.0214            0    4377.5765    18.076953    23.140073    19.309456    8077.1841    6583.1245    3235.2843    3314.3207    286.79091    495.02963    1120.8457    -3895.482 
 1287000    240.09527   -4858.7541   -4378.5339   -4858.7541            0    4930.5197    18.023746     23.01096    19.418046    8053.5121    5774.4036    4335.6063    4681.5492    -1222.795    568.54501   -1226.5227   -3799.4334 
 1288000    233.35047   -4861.0166   -4394.2869   -4861.0166            0    2757.6712    18.269702    22.894894    19.507343     8159.588    2846.4708    2312.6472    3113.8957    1619.8796   -465.93371    770.10199   -4066.1261 
 1289000    231.44029   -4855.0708   -4392.1617   -4855.0708            0    3494.0198    18.080505    22.776391    19.637724    8086.9846    4704.4008     4153.812    1623.8466   -481.73639   -874.82894   -267.11605   -3980.0757 
 1290000    243.44425   -4867.7074   -4380.7888   -4867.7074            0    2578.7027    18.265855    22.809266     19.55034     8145.273    3699.6985    2035.4227     2000.987    1014.1614    87.771453    1311.9634   -4074.4635 
 1291000    245.40257   -4874.9187   -4384.0832   -4874.9187            0    1580.6238    18.179751    22.987348    19.514431    8155.1638    2216.3073    774.72095    1750.8432   -231.67402   -1400.1037   -1664.0145   -4196.0922 
 1292000    246.91673   -4880.1549   -4386.2909   -4880.1549            0    5609.2548    18.053428      22.9286    19.406932    8033.3019    6278.8797    5632.8257    4916.0591   -75.637364    -63.17676    140.40223   -3729.1248 
 1293000    238.73021    -4843.457    -4365.967    -4843.457            0    3345.2232     18.13921     22.99406    19.452546    8113.5416    3487.1631    2988.1828    3560.3236   -16.234513   -170.76839    595.00812   -3970.1345 
 1294000    235.18832   -4877.9631   -4407.5574   -4877.9631            0    5810.2273    18.082382    22.944767     19.25497    7988.8105    5490.1013    5357.9367    6582.6438    471.90906    403.63327   -1031.5189   -3730.6159 
 1295000     232.6459   -4881.2963   -4415.9757   -4881.2963            0    3409.7247    18.120998    23.130954    19.309064    8093.5093    3633.5402     1628.881    4966.7529    255.03813    554.79871    -1552.203   -4013.5071 
 1296000    241.11175   -4886.6105   -4404.3573   -4886.6105            0    3382.3899    18.038488    23.050638    19.433483    8080.4162    3152.6507    3572.1191    3422.3998      67.2087    726.28907    -412.2829   -4005.7609 
 1297000    234.33617   -4858.3377   -4389.6364   -4858.3377            0    3637.8678    18.036601    23.138291    19.464881    8123.3979    3155.4605    3435.7517    4322.3911    1248.1349   -1197.1485   -1369.6171    -3958.653 
 1298000    227.69913   -4858.6326   -4403.2062   -4858.6326            0    4138.8097    18.005789    22.983092    19.408542    8031.8122     3520.565    4147.1654    4748.6988    686.17132   -1377.2885    474.66492   -3918.4037 
 1299000    246.18653   -4853.9543   -4361.5508   -4853.9543            0    3932.2843    18.105619    22.883705    19.576589    8111.0439    3103.1779    4036.6045    4657.0706   -1396.9473    26.927848    602.09293    -3896.396 
 1300000     231.1033   -4872.6344   -4410.3993   -4872.6344            0      3670.77    18.393389    22.694386    19.443935     8116.417    1141.7885    5043.5891    4826.9322    58.739283   -412.84352    125.24771   -3975.8916 
 1301000    249.67058   -4827.2477   -4327.8757   -4827.2477            0    3901.1932    18.148492     22.80846    19.687107    8149.2644     4284.271     4066.904    3352.4046   -427.99183    1030.4322     951.3635   -3864.2241 
 1302000     231.6953   -4870.3963   -4406.9771   -4870.3963            0    5106.0086    18.250131    22.747918    19.392551    8050.8657    5682.3775    4239.8273     5395.821    121.93186   -187.27282   -661.84908   -3807.4621 
 1303000    228.97645   -4874.7976   -4416.8164   -4874.7976            0    4784.2454    18.077659     22.73454    19.589754    8051.1392    5056.7916    5969.3063    3326.6382    1052.7922   -434.25623    759.71047   -3855.0618 
 1304000    252.39194    -4854.321   -4349.5059    -4854.321            0    2555.7465    18.164752     22.97475    19.466242    8123.8592    3003.3623    2229.7514    2434.1258   -108.81076   -861.61612    -478.4936   -4046.7058 
 1305000    243.45127   -4861.8633   -4374.9307   -4861.8633            0    1751.8828    18.104748     23.16118    19.449932    8155.8884    1807.5297     2105.694    1342.4246    358.06099   -23.258288    160.76209   -4166.5525 
 1306000    257.49534   -4857.6603   -4342.6379   -4857.6603            0    5002.7732    18.127865    22.998021    19.386767    8082.4404    4296.6286    5396.0796    5315.6113    1006.8149    901.28003   -407.04935   -3752.9404 
 1307000    227.59437   -4870.9034   -4415.6865   -4870.9034            0    3901.2141    18.301508    22.970885     19.31023    8118.0559    3143.8674    3222.3949    5337.3799   -37.400736   -294.70033    1130.5912   -3953.8081 
 1308000    244.43326   -4874.6352   -4385.7385   -4874.6352            0    4587.3439    18.124197    22.973929     19.37487     8067.386    4968.2433    4061.9192    4731.8693    1022.3094    1868.9744     1234.606   -3846.0166 
 1309000    239.60088   -4871.7273   -4392.4959   -4871.7273            0    3269.7761    18.162527    23.018573    19.447273    8130.4273    1482.6599    3949.3044     4377.364   -1606.0674     470.2759    663.22247   -4004.7857 
 1310000    231.53133   -4844.9496   -4381.8584   -4844.9496            0    4247.4769    18.064766     23.02586    19.396965    8068.2987    4413.6985    4265.8954    4062.8369    460.64554   -339.69187    1785.7174   -3882.0668 
 1311000    240.35655   -4835.6612   -4354.9184   -4835.6612            0     4997.489    18.114455    22.872812    19.470447    8067.1617    5325.2727    4841.5078    4825.6864   -1024.9076   -207.76599   -427.38048   -3766.9574 
 1312000    246.24467   -4823.7011   -4331.1813   -4823.7011            0    2756.0061    18.335194     22.84764     19.51798    8176.3921    1468.7663    3269.8755    3529.3764    1121.5512     33.45349    757.09876   -4002.5433 
 1313000    251.27744   -4863.4538   -4360.8679   -4863.4538            0    2924.2311    18.180155    22.799405    19.610098    8128.3216    2141.9446    3122.7982    3507.9505    394.21147   -47.079031    309.96637     -4014.22 
 1314000    238.90024   -4865.8932   -4388.0632   -4865.8932            0    5323.2291      18.0309    22.962322    19.471525    8061.8217    4810.1713    6016.1833    5143.3327    1492.3268    304.35764    260.17583   -3762.1931 
 1315000    228.91216   -4862.7601   -4404.9075   -4862.7601            0    4148.9598    18.137647     23.03604    19.303621    8065.4304    3997.4414    5077.3129    3372.1253    122.93282    334.75237   -1567.0152   -3916.8818 
 1316000    240.23848   -4834.1882   -4353.6816   -4834.1882            0    2146.5641    17.958321    23.381363    19.465111    8173.2061    4357.3891    1068.1299    1014.1732     -545.323   -228.99912    1835.3096   -4097.8158 
 1317000    238.22864   -4875.2659   -4398.7792   -4875.2659            0    1927.3315    18.069067    23.240915    19.384615    8140.4075    1308.9492    1424.4027    3048.6425    1232.0619   -300.28613   -57.674195   -4169.9674 
 1318000     245.9804   -4879.3528   -4387.3616   -4879.3528            0    3719.9063    18.113584    23.114937    19.329918    8093.3277    3734.1709    3510.6505    3914.8974    149.78556   -298.10626   -1485.0666   -3948.2903 
 1319000    227.28815   -4877.4503    -4422.846   -4877.4503            0    2846.6195    17.871698    23.167999    19.616994    8122.4458    5363.8769    1525.0994    1650.8822    1053.2816    100.99773    131.07597   -4085.6424 
 1320000    233.80903    -4841.671    -4374.024    -4841.671            0    4375.0762    18.217579    23.052929    19.289298    8100.8989    4416.4451    3593.6774    5115.1062    1323.9751   -565.26327    459.96053   -3857.1381 
 1321000    237.85027   -4852.4134   -4376.6835   -4852.4134            0     5773.454    17.944593    22.880842     19.61043    8051.7953    8250.3314    5359.9344    3710.0962   -908.94763   -322.46751   -519.66353   -3698.7231 
 1322000    249.95972   -4833.7188   -4333.7685   -4833.7188            0    2426.5508    18.276538    22.901211    19.503962    8163.4778    2568.8547    2547.6775      2163.12   -624.45613    422.20564    39.171397   -4044.8732 
 1323000    223.78163    -4868.507   -4420.9161    -4868.507            0    3872.9255    18.150466    22.841476    19.473711    8073.4778    5066.6519    2994.1378    3557.9868   -526.50407    385.76501    553.87658   -3964.9047 
 1324000    239.26687   -4902.0091   -4423.4457   -4902.0091            0    3181.3014    18.051698    22.993768    19.507405    8097.0664     3224.473    3400.1187    2919.3126   -739.17248    127.78785   -201.64379   -4047.7741 
 1325000    238.35122    -4874.521   -4397.7891    -4874.521            0    2795.9035    18.220687    23.002901    19.355741    8112.5458    842.63989    3651.6005      3893.47    611.67018    555.85838    2323.3043    -4066.997 
 1326000    239.93831   -4866.2485   -4386.3422   -4866.2485            0    3388.5474    18.052495    22.978799    19.604725    8132.5238    4932.4396     3093.278    2139.9246   -121.58331     338.4654    331.49113   -3984.4452 
 1327000    229.21309   -4889.6343   -4431.1798   -4889.6343            0    3522.3631    18.259457    22.971687    19.247535    8073.3886     1495.421    3933.0932    5138.5752   -280.34666    587.70331    1021.6753   -4016.4494 
 1328000    249.23719   -4841.3867   -4342.8816   -4841.3867            0    4834.1446    18.213582    22.699252    19.578185     8094.301     4585.299    4899.2733    5017.8615    295.10761    -847.4084    593.80234   -3772.2249 
 1329000    234.53759   -4881.1706   -4412.0664   -4881.1706            0    2817.2984     18.35338    22.649822    19.589441    8143.3461    3248.1095    3641.7501    1562.0356   -218.06795    803.57093   -549.80396   -4077.4774 
 1330000    246.96337   -4840.7871   -4346.8299   -4840.7871            0    1955.6623    18.383899    22.960107    19.325316    8157.1443    101.70481    2919.4932    2845.7888   -836.39521    502.13505   -962.91837   -4114.1773 
 1331000     249.3624    -4880.859   -4382.1033    -4880.859            0    2434.7069    18.001317    23.151029    19.544808    8145.2793    4587.3764    1005.2756    1711.4688    206.47753     -371.061     1602.814   -4092.8832 
 1332000    228.73256   -4867.8883    -4410.395   -4867.8883            0    3386.0791    18.114736    23.182716    19.251689    8084.7233    4760.3034    2381.0577    3016.8762   -517.84734   -290.02232    2063.8815   -4011.1512 
 1333000    242.73796   -4851.6167   -4366.1108   -4851.6167            0    4911.9936    18.021305    22.990965    19.465352    8065.0251      5612.98    4318.3491    4804.6518    -517.0905    632.95025    238.31851   -3788.3615 
 1334000    248.02637    -4854.647   -4358.5636    -4854.647            0    3645.6762     18.26274    23.038752    19.388546    8157.7449    2073.4064    4375.0736    4488.5486    455.16032     773.8377   -1116.8925    -3924.829 
 1335000    244.11508   -4885.0375   -4396.7771   -4885.0375            0    6652.7463    18.242331    22.671436    19.363444    8008.3303    5665.1588    6561.4143    7731.6657   -654.42313    43.479166   -439.41024   -3619.7811 
 1336000      237.651   -4866.2837   -4390.9523   -4866.2837            0    3945.3486    18.074696    22.906896    19.540918    8090.6276    5561.4193    2388.2159    3886.4106   -988.35453   -1582.2622    -2523.666   -3925.4268 
 1337000    238.51185   -4869.8694   -4392.8163   -4869.8694            0    2783.8218    18.216957    22.912664    19.523789    8149.2102    3593.6669    2283.7142    2474.0843   -84.665296   -1864.0474    349.49176    -4061.965 
 1338000    232.92106   -4850.4444   -4384.5735   -4850.4444            0    3638.6822    18.094003    22.818104    19.568415    8079.2282    3358.7148    4380.2809    3177.0509    1458.9688   -868.65229   -215.97219   -3955.8376 
 1339000     230.9096   -4897.5686   -4435.7209   -4897.5686            0    3624.1339    18.120704    23.004694    19.451749    8108.6802    5071.2461    3541.8663    2259.2895    -1365.372   -567.68628   -814.23134   -4007.1425 
 1340000    227.76762    -4857.366   -4401.8026    -4857.366            0    4535.3233     18.15795    23.024688    19.393855    8108.2048    5236.0995    4458.8688    3911.0017    432.33735    727.69268   -441.36592   -3865.5013 
 1341000    236.91614   -4878.0718   -4404.2103   -4878.0718            0    4939.0929    18.075759    22.940354     19.44316    8062.3842    5936.9877    4628.7343    4251.5566    886.12384    1926.7357   -607.48786   -3823.4638 
 1342000    242.57722    -4882.574   -4397.3896    -4882.574            0    5027.4859    18.161805    22.903548    19.296997    8026.9676    3420.7659    5279.5686    6382.1231   -397.75963   -114.18421   -1538.4429   -3808.8465 
 1343000    247.00211   -4858.6215   -4364.5868   -4858.6215            0    3404.6795    18.165965    22.876227    19.588799    8140.4923    3000.6356    3328.1401    3885.2628    1167.1362    195.00846    221.23688   -3960.3807 
 1344000    239.63602   -4865.9791   -4386.6775   -4865.9791            0    4920.0375    18.142573    22.923904    19.354982    8049.7101    4007.8325    4335.9238    6416.3563   -350.21698   -346.37147   -407.20914    -3809.081 
 1345000    226.30695   -4879.6693   -4427.0275   -4879.6693            0    2053.6686    17.998521    23.101412    19.568699    8136.4937    3533.7125    2077.3735    549.91965    190.60446   -463.28025    50.700265   -4183.3342 
 1346000    242.61531    -4862.733   -4377.4724    -4862.733            0    3733.2291    18.358875    22.810884    19.376987    8114.7365    1742.7695     4646.341     4810.577   -831.59027   -494.65252    923.20327    -3935.663 
 1347000    232.57803    -4849.372   -4384.1873    -4849.372            0    5420.9216    18.046753    22.721591    19.734346    8092.0871    4657.5935    6952.9821    4652.1892    1133.6172    1150.6162    1038.7553   -3744.4383 
 1348000    232.95735   -4859.1295    -4393.186   -4859.1295            0    4178.1299    18.298775     22.88027    19.350533    8101.6991      3669.63    4617.6142    4247.1455   -293.08718    47.059199   -499.64522   -3899.5192 
 1349000    228.40388   -4842.2536   -4385.4177   -4842.2536            0    5903.7744    18.056862    22.879106    19.481688    8048.3696    5604.8516    6502.9143    5603.5572    594.55886    -168.2957    906.13134   -3692.4491 
 1350000    235.30372   -4855.4985    -4384.862   -4855.4985            0    5021.5242     18.02018    22.926133    19.561474    8081.4911    4353.6662    5170.3818    5540.5248   -635.64822    -644.9446   -381.02693   -3793.0239 
 1351000    234.92098   -4900.0631   -4430.1921   -4900.0631            0    3275.6715    18.213395    23.082355    19.280974    8105.8763     2057.317    2862.6357    4907.0616   -1081.4843   -537.36471    820.72215   -4042.9557 
 1352000    231.59368   -4841.8199   -4378.6039   -4841.8199            0     2790.841    17.961248    23.126219    19.500552    8100.0566    3058.6406     2359.839    2954.0434    20.447781    343.55468    1417.3826   -4048.9191 
 1353000    244.68622    -4861.586   -4372.1833    -4861.586            0    2751.8738    18.212048    23.121747    19.321597    8136.2157    1281.6233    2804.1215    4169.8767    748.99253    1191.9853    42.765788   -4045.6505 
 1354000    242.99504   -4856.1488   -4370.1287   -4856.1488            0    4642.6791    18.054039    22.959885    19.424204    8051.6949     4522.035    5690.7842     3715.218     365.7974    811.04454   -1508.9766   -3824.9588 
 1355000    249.20287   -4839.0364   -4340.5999   -4839.0364            0    2260.9751    18.183149    23.020053    19.518025    8169.7973    2660.2814    2841.0934    1281.5505   -41.147433    571.98962   -622.33921    -4071.209 
 1356000    234.72259   -4885.4985   -4416.0243   -4885.4985            0    2539.9807    18.179428    23.020154    19.450179    8139.7682    3026.2399    2256.0423    2337.6601   -460.89349   -689.81863   -1157.0295   -4114.5028 
 1357000    240.60856   -4861.2483   -4380.0014   -4861.2483            0    2736.1732     18.06132    23.036873    19.491366    8109.8962    2923.1437    2131.3362    3154.0395    -388.8196   -78.165972    262.38902   -4056.3819 
 1358000    252.24197   -4863.8843   -4359.3692   -4863.8843            0     2911.458     17.93799    23.279113    19.479944    8134.4446    2838.4934    3460.0783    2435.8025    532.64213   -59.966681   -476.33024   -4013.9756 
 1359000    238.05752   -4867.3835   -4391.2391   -4867.3835            0    3057.1505    18.279803    22.976322    19.384368    8141.4855    2213.2407    3417.1563    3541.0544   -672.95994    -956.2162    1184.0911   -4028.2476 
 1360000    239.16211   -4843.4323   -4365.0785   -4843.4323            0    3328.1851     18.11429    23.048204    19.527509    8152.7714    2464.6763    4380.7951    3139.0838     -153.405    751.33979   -133.81519   -3969.3579 
 1361000    249.69583   -4850.8483   -4351.4258   -4850.8483            0    3708.3417    18.293868    22.940123    19.342585    8117.3786    3935.0963    3115.2695    4074.6593   -695.62661    1278.8944    493.39849   -3912.4188 
 1362000    244.16987   -4871.9186   -4383.5487   -4871.9186            0    4113.7314    18.179722     22.76527       19.521    8079.0837    5407.2022    4605.7455    2328.2464    833.84483    1902.3819    132.24175   -3898.8477 
 1363000    235.73989    -4873.447   -4401.9381    -4873.447            0    3955.8055    18.104041    22.770067     19.57826    8070.7505    3525.0241     4141.189    4201.2035   -13.250222    194.61814   -451.85106   -3936.3255 
 1364000    236.95422   -4848.7501   -4374.8124   -4848.7501            0    2485.1527    18.366491    22.950481    19.385515    8171.3785    1970.9593    2460.5147     3023.984   -567.96679   -271.47628   -69.714056   -4078.6538 
 1365000    240.40623   -4862.9126   -4382.0704   -4862.9126            0    3585.3236    17.971762    22.991583     19.60072    8099.0027    4585.9825    3342.0206    2827.9676    191.47054   -301.15823    647.45815   -3958.5876 
 1366000    222.92653   -4858.0669   -4412.1863   -4858.0669            0    3575.8386    18.110661     22.96957    19.463196    8096.5745    4616.4054    3361.1156    2749.9949    928.01796    343.65755    2157.7969   -3989.9505 
 1367000    232.47552   -4888.8797      -4423.9   -4888.8797            0    3516.1569    18.220817     22.95259    19.318709    8079.3726    1369.0362    4085.3832    5094.0514    226.08741   -1.3367063    830.43735   -4009.5934 
 1368000    227.35871   -4867.8445    -4413.099   -4867.8445            0    5283.7947    18.104289    22.720098    19.616013    8068.6786    4424.1238    6836.4187    4590.8417   -1192.9642    1098.9297   -2090.4866   -3791.3369 
 1369000    240.28111   -4891.0288   -4410.4369   -4891.0288            0    3375.9816    18.400832     22.77662    19.359075    8113.5576    2400.2113    3583.7112    4144.0224    511.00768   -40.002354    1428.4796   -4010.9641 
 1370000    239.48187    -4878.856   -4399.8627    -4878.856            0    3154.6887    18.241206    22.860601    19.429484    8102.1906    2560.8354    3401.7454    3501.4851   -1551.8521   -808.51221   -827.68076   -4027.0979 
 1371000    244.19667   -4896.0911   -4407.6675   -4896.0911            0    3553.0353    17.978887    22.954102    19.561889    8072.9805    4963.7679    3253.5593    2441.7789   -447.12319   -377.78182   -929.79966   -3989.3469 
 1372000    258.52115   -4879.5689   -4362.4946   -4879.5689            0    2476.9904    18.133448    23.178545    19.345303    8130.9654    2817.3199    1528.4778    3085.1735    422.30028   -969.37115    720.78485   -4068.7687 
 1373000    235.10402   -4855.8659   -4385.6289   -4855.8659            0    5398.0573    17.867993     23.16698    19.419765    8038.7618    5705.5007     5337.838    5150.8331    450.91355    79.750359    1859.9013   -3752.7763 
 1374000    252.84764   -4880.5988   -4374.8723   -4880.5988            0    3741.3584    18.090524    23.140874    19.297967    8078.7181    3568.0911    4078.2232    3577.7608   -111.11517    243.05891    -1534.678   -3934.0662 
 1375000    246.32555   -4855.1106   -4362.4291   -4855.1106            0    2371.6311    18.143678     22.97507     19.48089    8120.6534    1372.2562    3001.8461    2740.7911    741.91241   -53.445284    613.00821   -4081.5535 
 1376000    239.10261    -4879.565   -4401.3302    -4879.565            0    4048.0991    18.239305    22.837083    19.471361    8110.4548    3171.3934    4706.7502    4266.1537    1098.9499    1625.5361   -652.76009   -3922.5103 
 1377000     234.6677   -4872.4376   -4403.0732   -4872.4376            0    4827.2282    18.246704    22.679322    19.522187    8078.7276    4069.9569     5507.097    4904.6307   -207.98295    299.45478   -98.015426   -3834.3294 
 1378000    234.35688   -4867.4766   -4398.7339   -4867.4766            0    5586.1662     18.14708    22.583871     19.54866     8011.653    5203.2459    6455.2708    5099.9818   -616.36173   -1688.9383    102.40644   -3746.0365 
 1379000     248.7144   -4837.5548   -4340.0953   -4837.5548            0    1671.9972    18.277483    22.965638    19.469544    8172.4201    383.53054    1906.0044    2726.4566     821.3894    336.85672    855.12377    -4140.816 
 1380000      232.007   -4890.1509   -4426.1083   -4890.1509            0    4803.3519    18.223208    22.693698    19.417696    8030.2271    3765.0964    4504.6227    6140.3366    -1234.901   -76.145026   -118.09076   -3863.5751 
 1381000    231.40319   -4887.6939   -4424.8589   -4887.6939            0    3722.4423    18.024924    23.031094     19.50904    8098.8604    5447.8536    3641.6259    2077.8473     1858.676    636.30736    1080.5499    -3985.188 
 1382000    240.21325   -4845.2507   -4364.7945   -4845.2507            0    3561.1982    18.071314    23.196666    19.395743    8130.5837    4089.3815    2092.9945    4501.2187    1149.3496   -305.29543    966.50783   -3942.5211 
 1383000    245.73882   -4853.7934   -4362.2854   -4853.7934            0    4776.8556    17.946271    23.360964    19.363576     8118.028    4621.7199    4890.8668    4817.9801   -198.57762    1184.6119    325.64937   -3796.7386 
 1384000    224.45948   -4856.5254   -4407.5788   -4856.5254            0    3226.4776    18.052563     23.01545    19.417216    8067.6174    2960.1461    3219.0211    3500.2656   -411.33164   -12.273383   -232.42989   -4027.9581 
 1385000    231.87682   -4867.6701   -4403.8878   -4867.6701            0    4761.5701    18.284976    22.835305    19.321226    8067.4431    5273.1278    3559.3993    5452.1833    797.16184    397.16836    1058.2532   -3843.6634 
 1386000    256.49889     -4883.66   -4370.6305     -4883.66            0    4298.5057    18.048057    22.730041    19.702031    8082.4249    4998.2172    4777.8295    3119.4704   -993.41582   -257.20166   -167.05062    -3863.949 
 1387000    237.21796   -4871.8264   -4397.3612   -4871.8264            0    3910.3665    18.209054    22.833625    19.523921    8117.6305    3426.2768    4242.7126      4062.11   -94.325064    412.08643   -280.14115   -3934.4234 
 1388000    247.13691   -4887.8148   -4393.5105   -4887.8148            0    3458.8655    18.263739    23.000338    19.187542    8060.1524    1542.6743    4167.9373    4665.9851   -847.02815   -30.979366    1506.4853   -3986.9241 
 1389000     227.0123   -4864.1336    -4410.081   -4864.1336            0    4871.7091    17.753302    23.155934    19.541245    8033.2942    6504.1064    4435.9498     3675.071    642.05688   -117.12459    2540.9392   -3839.3244 
 1390000    248.36523   -4867.1395   -4370.3784   -4867.1395            0    4043.2046    18.178356    23.121315    19.255244    8093.1235     2459.998    3536.2184    6133.3973    160.53029    182.05176    2124.1519   -3893.1593 
 1391000    240.07226   -4879.0598   -4398.8856   -4879.0598            0     3338.184    18.021114     23.02972    19.507591    8096.0641    5824.6868    2197.8506    1992.0147   -121.91061   -670.88928    -121.1961   -4004.7369 
 1392000    246.59712   -4883.7656   -4390.5409   -4883.7656            0    5931.0812    18.098143    22.999112    19.283251    8026.4837    5253.4546    5875.3232     6664.466    141.06561    287.84522    778.73345   -3696.2602 
 1393000    243.54904   -4884.0542    -4396.926   -4884.0542            0    3896.4625    18.276643    22.537408    19.633226     8087.086    3388.6825    4628.2422    3672.4627   -1962.5697   -190.10122   -1676.5456     -3937.37 
 1394000    237.51329   -4853.5047   -4378.4487   -4853.5047            0    3772.1401    18.198547    22.642466    19.629583    8088.5657    4695.7902    3633.1403    2987.4898   -193.26528     -109.074   -405.03627   -3933.4741 
 1395000    243.07579   -4875.1753   -4388.9937   -4875.1753            0    3796.9059    18.280192    22.720224    19.539668    8115.4115    2155.1843    4924.6434      4310.89   -348.78418   -200.23495   -193.24995    -3939.611 
 1396000    239.75742   -4880.2138   -4400.6693   -4880.2138            0    3112.0424     18.06475    22.850257    19.634232    8104.7005    4164.2193    2946.6935    2225.2146    1451.0038    -704.9168    605.33226   -4032.8298 
 1397000     235.2764   -4891.1746   -4420.5927   -4891.1746            0    3341.7083    18.286062     22.94783     19.32678    8110.0089    3082.6689    3095.5662    3846.8898   -100.46737   -752.90363     640.7492   -4025.3483 
 1398000    240.05203   -4878.1757    -4398.042   -4878.1757            0      3460.78    18.044589    22.968111    19.523962    8091.7081    2170.9524    4090.4808    4120.9067      295.105    1098.5869    94.218649   -3989.6379 
 1399000    244.96008   -4851.7982   -4361.8477   -4851.7982            0    3029.9062    18.084813    23.098613    19.509998    8149.9912    2710.6136    2756.8484    3622.2566    155.34683    527.42437   -932.00215   -4001.7153 
 1400000    228.26654   -4866.3858   -4409.8245   -4866.3858            0    3587.8577    18.079671    23.106595    19.354845    8085.6731    3417.8459    3768.7981    3576.9292    925.46882    804.48346    1172.3779   -3986.7398 
 1401000    251.62345    -4847.821   -4344.5431    -4847.821            0    3018.9849    18.101511    23.103065    19.512749    8160.2387    2412.5404    3095.7082     3548.706    229.07018   -423.21493   -1885.2787   -3985.2576 
 1402000    248.05097    -4873.772   -4377.6395    -4873.772            0    4706.9023    18.183783    23.021143    19.236879    8052.7785    4762.7666    4755.2711    4602.6691    159.56875    421.21578   -1090.8779   -3824.8537 
 1403000    243.22868   -4854.7611   -4368.2737   -4854.7611            0    4282.5235    17.973364    23.091871    19.456149    8075.0526    5953.3635    3868.8987    3025.3082   -491.19424    11.435665    100.13045   -3863.9365 
 1404000    244.00565   -4881.1776   -4393.1361   -4881.1776            0    3297.5662    18.243193    23.101152    19.249566    8112.5138    2407.2895    3732.7786    3752.6305    2531.1503   -292.82091    897.02189   -4002.9922 
 1405000    236.22864   -4875.3452   -4402.8587   -4875.3452            0    3488.0308    17.932201    23.168759    19.499907    8101.5646    4852.7451    2512.8918    3098.4556   -488.30824   -601.01489    -1726.437   -3990.7374 
 1406000    228.95941    -4879.623   -4421.6759    -4879.623            0    2923.9018    18.110502    22.907964    19.501211    8090.5594    1945.8463    4373.8441    2452.0152   -553.20022    818.66287     319.3871   -4076.6774 
 1407000    244.99187    -4890.833    -4400.819    -4890.833            0    2875.6584    18.313468    22.845375    19.452246    8138.3923    2052.3695    3345.0918    3229.5139    352.78603    -238.3621   -54.328792   -4059.5068 
 1408000    228.46058    -4872.429   -4415.4796    -4872.429            0     4249.324    18.212395    22.532179    19.616254    8049.8229    5429.0145    4781.9783    2536.9792   -979.57622   -128.91821   -207.03227   -3916.6157 
 1409000    230.60262   -4869.7904   -4408.5566   -4869.7904            0    2832.6225    18.211281    22.769119    19.568427    8114.1429    2878.0819    3441.2423    2178.5433    -584.3212    61.852752   -1145.5008   -4073.3541 
 1410000    241.11546   -4858.8572   -4376.5965   -4858.8572            0    3618.2396    18.156138    22.805135    19.561655    8099.5656    2452.9604    4706.6731    3695.0853    1290.0417    489.65253    980.74852   -3949.1961 
 1411000    226.67541   -4868.2133   -4414.8345   -4868.2133            0    3220.7373    18.249109    23.000413      19.4016    8143.5702    2907.8976    3380.0239    3374.2905   -815.42212    507.10551   -561.87051   -4032.3216 
 1412000    245.69382   -4878.5215   -4387.1035   -4878.5215            0    3876.9796    17.993313    22.983141    19.557909    8088.0334    5383.4041    4188.2601    2059.2745      433.896   -44.343036     212.2029   -3929.7918 
 1413000    239.82155   -4876.0206   -4396.3479   -4876.0206            0    6193.9872    18.044923    22.926623    19.342637    8002.2257    7953.4642    5263.9971    5364.5001    498.18235   -374.40629    725.82723   -3673.4833 
 1414000    239.35708   -4883.5779   -4404.8342   -4883.5779            0    3369.0486    18.175417     22.89934    19.469981    8103.5045    2207.4331    4335.3289    3564.3838    1057.8444    45.682166   -389.94975   -4006.6757 
 1415000    228.54886   -4862.9182   -4405.7923   -4862.9182            0    771.23123    18.235184    23.035429    19.472196    8179.3988    1398.9533   -147.92647    1062.6669      733.339    769.62964   -454.39843   -4313.7935 
 1416000    246.11764   -4849.0312   -4356.7655   -4849.0312            0    3181.4893    18.204876    23.012339    19.437968    8143.2793    3693.0577    2448.4575    3402.9526    -1056.256   -306.10377   -1498.0872   -3978.9274 
 1417000    233.21957   -4865.2882   -4398.8203   -4865.2882            0    5896.6003    17.985859    22.866581    19.482302    8012.5857    6920.7383    5533.2966    5235.7661    497.49477   -746.05341    129.75283    -3709.771 
 1418000    235.56129   -4843.7986   -4372.6469   -4843.7986            0    2505.2094    18.271946    23.047852    19.458779    8194.6583    325.47653    1629.3273    5560.8244   -859.69093   -1661.9296    -111.0973   -4073.2476 
 1419000    244.97144    -4841.496   -4351.5228    -4841.496            0    4537.5574    18.114257    22.703941    19.658268    8084.7582    3717.8334    5612.4159    4282.4228   -407.74774    246.15408    1647.9794    -3816.509 
 1420000    236.12461   -4854.6633   -4382.3849   -4854.6633            0    1883.8457    18.150168     23.15301    19.446019    8171.8206    2509.9449    536.61826    2604.9739   -254.16695   -422.19314    772.93121   -4157.8726 
 1421000    239.92262   -4854.3904   -4374.5155   -4854.3904            0    3527.8533    18.142117    23.202732    19.199502    8081.9669    4069.7498    2182.7151    4331.0951    1054.6263    148.86438    1252.5915   -3958.6973 
 1422000    233.88787   -4861.9917   -4394.1871   -4861.9917            0    5398.1162    17.734805     23.20431    19.486636    8019.2164    8832.5375      4132.61    3229.2011   -767.12151   -177.92008    162.46474   -3762.8664 
 1423000    242.57405   -4898.0047   -4412.8266   -4898.0047            0    3757.7222    18.001662    23.145003    19.366674    8069.0963    4238.3693    3185.6114    3849.1858    537.77348   -292.15341    901.41837   -3970.6198 
 1424000    241.27095   -4886.0604   -4403.4887   -4886.0604            0    2857.3552    18.082297    22.976257    19.515833    8108.1162    3311.4715     3194.359    2066.2351   -707.42395    110.10918    1388.2019   -4065.6106 
 1425000    232.69194    -4858.008   -4392.5954    -4858.008            0    5204.9586    18.181997    22.681622    19.499487    8041.5336    6127.6262    5637.9873    3849.2623   -1451.0356    -1155.647    292.32539   -3782.1707 
 1426000    240.33799    -4876.847   -4396.1413    -4876.847            0    4451.9407    18.195099     22.63395    19.671581    8101.2874    3981.6307    5370.6932    4003.4981   -15.797031   -816.99503   -848.91219   -3870.1491 
 1427000    243.29396   -4858.6938   -4372.0758   -4858.6938            0    2711.8415    18.253105    22.888538    19.431628    8118.2795    2037.8139    3463.7653    2633.9454   -697.87699   -480.98862   -231.26614   -4051.0025 
 1428000    241.52424   -4861.9574   -4378.8791   -4861.9574            0    3028.4157    18.048453    23.113106    19.474923     8124.077     3707.287    2644.8102    2733.1499   -827.66942    202.52121    69.751654   -4020.0684 
 1429000    238.94669   -4845.0546   -4367.1317   -4845.0546            0     3025.367    18.141761    23.189161    19.318366    8127.0861    3616.9664    1721.3932    3737.7414   -165.09314   -906.73914   -348.11752   -4008.5494 
 1430000    240.65672   -4862.0927   -4380.7495   -4862.0927            0    4177.8942     18.03253    23.090311    19.444396    8096.1935    4646.2996    3615.3348    4272.0483   -12.058292   -251.06546   -304.51189    -3887.446 
 1431000    243.51501   -4892.3176   -4405.2575   -4892.3176            0    5201.4499    18.211084    22.868601    19.420469    8087.8878     4683.577    5553.9623    5366.8103     1244.268    833.52458    587.06604    -3791.728 
 1432000    249.71845   -4880.4591   -4380.9913   -4880.4591            0    3649.0835    18.240103    22.786793    19.477976    8095.6984    3156.9531    4123.3484    3666.9489    386.29847    938.81628    -858.4954   -3950.1533 
 1433000    233.42976   -4875.3723    -4408.484   -4875.3723            0    4947.5115    18.130819    22.715028    19.555243    8053.6714     3699.855    5704.8919    5437.7875    344.84453    193.45726      -422.92   -3827.3763 
 1434000     235.2605   -4891.4751   -4420.9251   -4891.4751            0    3075.4387    18.153036    22.985906    19.492374    8133.4655    2623.6703    2358.2115    4244.4344   -714.72442   -1146.6646     -1696.47   -4056.1219 
 1435000    246.04683   -4853.9503   -4361.8262   -4853.9503            0    3641.3755     18.05216    23.007085    19.445435    8076.2256    2550.4027    4745.1128    3628.6109    550.98073    857.25455     479.0131   -3932.9324 
 1436000    239.46892   -4855.6237   -4376.6563   -4855.6237            0    3543.9742     18.14168    23.108861    19.287456    8085.9489     3410.771     2819.238    4401.9138   -502.82545   -1244.3063   -8.4306093   -3958.7321 
 1437000    256.57656   -4912.7075   -4399.5227   -4912.7075            0     3091.304    18.019949    23.146021    19.440121    8108.2822    4063.3573    2853.5507     2357.004    -308.9909     244.4238    -859.0676    -4033.973 
 1438000     244.8438   -4855.9361   -4366.2182   -4855.9361            0    3521.5263    18.214564    23.016312    19.345359    8110.1952    2348.2012    3536.1396     4680.238     906.6779   -745.31831    1412.5914    -3949.696 
 1439000    235.25644   -4884.4094   -4413.8674   -4884.4094            0    3351.7939    18.090141    22.940441     19.53291    8106.0758     3883.537    2590.9341    3580.9105    -257.3966   -627.62438    957.44875   -4017.6223 
 1440000    254.10929   -4858.1172   -4349.8672   -4858.1172            0    2324.6511    18.346111    22.922894    19.471958     8188.853    2249.2569    2046.2036    2678.4928   -215.13059   -307.92186   -53.464826   -4072.2434 
 1441000    239.03822   -4857.0841   -4378.9782   -4857.0841            0    3052.8479    18.177337    22.863144    19.527856    8115.6027    3036.9073    3060.6916    3060.9449   -1069.1279   -361.33249   -329.71696     -4017.65 
 1442000    242.56476   -4859.0653   -4373.9058   -4859.0653            0    3663.5003    18.247821    22.719681    19.536095    8099.3659    3834.3098    4107.2233    3048.9678   -307.72705    535.06559    466.79464   -3941.1697 
 1443000    244.35676   -4878.0545   -4389.3107   -4878.0545            0    3446.0978    18.237252    22.735818    19.536464    8100.5769    4677.6282    3657.3331     2003.332   -1336.0031    1369.6621     675.5873   -3982.1936 
 1444000      240.067   -4860.6784   -4380.5147   -4860.6784            0    3374.5479    18.261835    22.952625    19.394518     8129.349    2629.7892    4069.5062    3424.3482   -1693.9639    886.39175    866.67261   -3980.4343 
 1445000    248.05582   -4881.2227   -4385.0804   -4881.2227            0    4781.4256      18.0365    23.042874    19.358016    8045.4394    4435.3567    4755.8244    5153.0957   -1324.2691   -562.82973   -844.41846   -3824.0543 
 1446000     235.0048   -4868.8581   -4398.8195   -4868.8581            0    3217.5182    18.028862    23.143405    19.462374    8120.6606    3940.6179    3681.9128     2030.024    861.93875    209.15015    2748.6221    -4017.764 
 1447000    230.91194   -4864.1204    -4402.268   -4864.1204            0      2722.08     18.06346    23.224788    19.407165    8141.6946    3150.3985     2209.457    2806.3844   -843.00695    1372.7927   -887.56566   -4079.0529 
 1448000    237.42046   -4859.6442    -4384.774   -4859.6442            0     6685.623    17.919936    23.131076    19.323023     8009.536    5888.3641    7373.3917    6795.1133    826.33766    1209.7451    1859.8779   -3603.8205 
 1449000     239.3524   -4843.5161   -4364.7818   -4843.5161            0    4161.8312    18.111319    23.201989    19.232481    8081.8469    4528.8662    3026.1665    4930.4609   -245.11507    704.09609   -913.62271   -3874.2457 
 1450000    237.26679   -4872.9743   -4398.4114   -4872.9743            0    2755.2542    18.207999    22.972223    19.405517     8116.905    3859.7444    2756.8285    1649.1897     915.6777   -54.674793      821.504   -4072.2534 
 1451000    237.77826   -4866.6281   -4391.0422   -4866.6281            0    2456.5517    18.166202    23.075529    19.359845    8115.5447    1933.9571    2909.0076    2526.6904   -449.21332   -587.80737   -1472.0686   -4100.2924 
 1452000    236.15051   -4856.1584   -4383.8282   -4856.1584            0    2667.0172    18.014445     23.04847    19.594786    8135.8606    4836.5965    1664.9281    1499.5271   -255.15955    -1703.339   -244.25849   -4067.3781 
 1453000    233.42176   -4883.6235   -4416.7511   -4883.6235            0    3745.9948    18.060077    23.026619    19.340081    8042.8149    1713.8247    4148.0892    5376.0704    886.25205   -687.77068    1752.7608   -3977.3602 
 1454000    238.22064   -4893.0038   -4416.5331   -4893.0038            0    4124.7678    18.035396    23.055785    19.368401    8053.7728    5150.2424    3917.8578    3306.2032    -593.8959     -203.713     588.9555   -3932.0543 
 1455000    241.31829   -4901.6208   -4418.9544   -4901.6208            0    2778.7575    18.074113    23.147226    19.377536     8106.894    900.95398     3019.048    4416.2706   -53.422554    862.33369    1472.8589   -4090.4198 
 1456000    227.41889   -4859.1548    -4404.289   -4859.1548            0     4225.984    18.149071    22.916284    19.506851    8113.0804    3729.7017    3319.7524    5628.4981    548.86228   -473.85862    467.41761   -3904.2665 
 1457000     225.9244   -4841.7266   -4389.8499   -4841.7266            0    5344.6232    18.149495    22.954185    19.433833    8096.2683    5924.4793    4452.0136    5657.3768   -219.63254    1518.2315     364.1321   -3758.7794 
 1458000    245.23922   -4861.8095   -4371.3008   -4861.8095            0    6052.2054    18.122351    22.845283      19.4105    8036.1454    5378.7835     6613.139    6164.6937   -849.57994    156.48108   -1823.8507   -3661.9887 
 1459000    234.55803   -4857.6941   -4388.5491   -4857.6941            0    4343.5524    18.310677    22.844853    19.402151    8116.0113    3448.3143    3825.2905    5757.0526   -1127.4338   -1259.8588    835.73282   -3874.4301 
 1460000    239.99747   -4849.6573   -4369.6327   -4849.6573            0    3713.1683    18.082685    22.961905    19.442265    8072.6793    3818.5443    3864.7719    3456.1888    -802.5879   -296.68463     1635.189   -3932.4749 
 1461000    242.93869   -4868.5346   -4382.6272   -4868.5346            0    5079.5796    18.060847    22.892384     19.46951    8049.7829     4565.212    5508.1563    5165.3704   -483.69857     28.62086   -757.09822   -3786.2956 
 1462000    238.16916   -4863.9335   -4387.5657   -4863.9335            0    4935.8595    18.261938    22.917046    19.331821    8090.5543    3523.0422    4636.8159    6647.7203   -594.75544    488.40268    2451.1524   -3805.1716 
 1463000    229.82705   -4852.4497   -4392.7672   -4852.4497            0    3758.8581    18.054375     22.87262     19.72064    8143.6551    4597.9583    4248.6827    2429.9332    807.30744    75.524073    2200.8846   -3946.3394 
 1464000    236.90994   -4876.5998   -4402.7506   -4876.5998            0    2584.0844    18.290584    22.809972    19.479385    8126.9493    1831.8566    3939.3938    1981.0029    598.12666    534.06691    426.41875   -4096.4766 
 1465000    237.37744   -4905.5465   -4430.7623   -4905.5465            0    5621.2368    17.929513    22.899058    19.432903    7978.5467    6569.3038    5932.6321    4361.7746   -438.05822    613.42078   -334.03746   -3776.6812 
 1466000    241.33677   -4872.9813   -4390.2779   -4872.9813            0    4267.5731    18.086918    22.940671    19.438265    8065.4423    3931.4816    4569.8441    4301.3936   -50.289767   -863.62199   -2307.9729   -3888.2995 
 1467000      227.542   -4884.1354   -4429.0233   -4884.1354            0    2648.0649    18.240694    22.988205    19.479092    8167.9886      3460.33    2324.9652    2158.8995    1222.7062    581.23985    1812.8913   -4113.5812 
 1468000    242.96841   -4857.1601   -4371.1933   -4857.1601            0    5254.9227    18.063744    22.961739    19.467064    8074.4505     4953.728    4402.9505    6408.0896   -1099.4318    832.14705   -1530.7754   -3752.3863 
 1469000    243.06768   -4878.6468   -4392.4815   -4878.6468            0     2679.626    18.170306    23.028389    19.410712    8122.0796    434.98852    2798.6578    4805.2318    356.23628   -445.38491   -331.42841   -4075.0739 
 1470000    227.36592   -4882.7265   -4427.9666   -4882.7265            0    4649.8478    18.096231    23.007412    19.409119    8080.9367    4666.5118    4992.2035     4290.828    1340.9472    223.93528     2160.638   -3879.9719 
 1471000    236.59555   -4868.2117   -4394.9914   -4868.2117            0    4884.9508    18.172283    22.857669    19.490197     8095.761    4689.4005    4342.4054    5623.0464   -730.46907   -526.14488   -1366.1518   -3818.2332 
 1472000    226.88087   -4879.3237    -4425.534   -4879.3237            0    4425.5188    18.085913    22.882885    19.452734    8050.6669    3584.2999    3739.9378    5952.3188   -433.49991   -1084.0332   -806.80891   -3905.9306 
 1473000    232.28633   -4887.3916   -4422.7902   -4887.3916            0    2749.5033    18.104332    22.922771    19.508912    8096.2269    3141.8365    3021.9542    2084.7192   -334.79915      -701.35   -1002.9895   -4098.1422 
 1474000    229.88371   -4849.7259     -4389.93   -4849.7259            0     2285.928    18.250953    23.148663     19.30873    8157.6518    2205.7818     1799.422    2852.5802    26.556792    899.89827    452.96833   -4117.9709 
 1475000    227.72177   -4869.1982   -4413.7266   -4869.1982            0      5027.01    17.949527    23.102737    19.413451    8050.4319    5947.5511    3902.1923    5231.2866    209.29814   -399.86182   -830.05947   -3823.5189 
 1476000    245.03583   -4880.5811   -4390.4791   -4880.5811            0    3660.1653    18.129264    22.961762    19.402698    8076.9521    4427.2666    3067.1143    3486.1149   -536.83243    -208.2041   -828.12198   -3959.3334 
 1477000    248.42457   -4832.3159   -4335.4361   -4832.3159            0     4895.079    18.164449    22.848878    19.519938    8101.5018    4119.4618    4990.8578    5574.9175    829.22015    271.92859    719.01659   -3757.0723 
 1478000    244.74151   -4857.7429   -4368.2296   -4857.7429            0    4053.8009    18.258952    22.623034    19.656638    8119.6244    3829.6118    5609.6428    2722.1482    136.04488   -207.17431   -594.93515   -3888.1932 
 1479000      253.005   -4877.3269   -4371.2856   -4877.3269            0    3314.5046    18.363623    22.572857    19.574825    8114.1454    3240.6292    4093.9516     2608.933    987.42733   -873.93898    26.191269   -3979.0588 
 1480000    246.30532    -4843.362   -4350.7209    -4843.362            0    3535.8165    18.191374    22.601601    19.719894    8107.9164     2947.788    3660.7223    3998.9391   -599.57099   -282.59747   -883.31993    -3932.626 
 1481000    247.91819   -4859.7948   -4363.9278   -4859.7948            0    4797.9284    18.177094     23.04938    19.278086    8076.9541    3389.7407    5379.5834    5624.4611    25.477648    429.38116    552.15249   -3798.7602 
 1482000    234.75147   -4854.5209   -4384.9889   -4854.5209            0    4424.5179    18.039452    23.056496      19.4355    8083.7403    6066.1718    3635.6322    3571.7496    274.72274    270.81245     441.4382    -3863.369 
 1483000    234.26381   -4867.1914   -4398.6348   -4867.1914            0    5606.3578    17.918586    23.200837    19.357813    8047.5496    7444.7376    4547.2463    4827.0895   -291.33225    495.99449    285.42731   -3740.6432 
 1484000    249.29172     -4864.72   -4366.1058     -4864.72            0     3112.149    18.060774    23.234498    19.308879    8102.6431    2217.4723     3111.307    4007.6676    186.36977   -67.058904   -643.06549   -3998.3471 
 1485000    237.67189   -4889.1271   -4413.7539   -4889.1271            0    4592.5095    17.967186    22.934491    19.580213    8068.3847    4916.9163     5218.702    3641.9103    -1408.689     515.0673   -588.88785   -3873.3574 
 1486000    232.59892   -4864.2754   -4399.0488   -4864.2754            0      2390.67    18.299227    23.055051    19.304215    8144.2478    2342.8665    1464.6037    3364.5398    619.51445    1197.6585    1038.8518   -4115.0958 
 1487000    229.65852   -4853.4553   -4394.1099   -4853.4553            0    4091.0006    18.145949    22.922525    19.472993    8099.8105    1945.9135    5003.5659    5323.5223   -834.83664    408.47612    686.99538   -3910.8506 
 1488000    245.27281   -4865.2204   -4374.6445   -4865.2204            0    2590.9381    18.223828      22.9055    19.432344    8111.5636    1959.6111    2452.2531    3360.9502    130.14427   -504.23529   -204.61461   -4068.1395 
 1489000    241.19556   -4870.2073   -4387.7864   -4870.2073            0    3233.5495     18.16812    22.865376     19.53094    8113.5605     2762.852    3377.0362    3560.7603   -522.33663   -439.93792    507.94982   -4005.1671 
 1490000    238.43863   -4853.4101   -4376.5033   -4853.4101            0    3205.3444    18.218529    22.850439    19.553565    8140.1765    2507.4398    3121.0253     3987.568    937.18162    112.80511    1907.7831   -3995.9773 
 1491000    226.40456   -4863.4089   -4410.5718   -4863.4089            0    4537.8599     18.13226    22.873708    19.461324    8071.6235    3627.8791    4078.4596    5907.2409   -992.75605    -165.8409    948.94105   -3876.3915 
 1492000    241.35331   -4880.5296   -4397.7932   -4880.5296            0    3518.2004    18.205348    22.949519    19.455125    8128.4288     3694.745    3236.0535    3623.8027    288.82158   -271.91825     1431.079   -3980.7289 
 1493000    249.54023   -4862.4979   -4363.3866   -4862.4979            0    4254.1154    18.038872    23.128253    19.470985    8123.4427    4680.7542    2841.7633    5239.8287    665.77985    916.43815   -1060.0363   -3859.3927 
 1494000    251.18699   -4860.0986   -4357.6936   -4860.0986            0     4907.971    18.146395    23.113647    19.160102    8036.3093    4240.2925    5026.8982    5456.7224    1358.2466    -139.2697     399.3586   -3782.4729 
 1495000    244.30342   -4834.9145   -4346.2775   -4834.9145            0    6477.6665    17.951054    23.037383    19.495601    8062.3144     9063.322    5409.9751    4959.7023    1575.0383   -477.70424    1398.2961   -3584.6297 
 1496000    234.08368   -4867.4656   -4399.2693   -4867.4656            0    2943.5478    18.158899    22.912943    19.486273    8107.7278     2693.744    3959.8539    2177.0454    -1084.506   -206.85774    564.15307   -4051.2157 
 1497000    245.23893   -4890.4914   -4399.9833   -4890.4914            0    3091.2799    18.289394    22.714581    19.491678    8097.5432     589.0714    5018.5387    3666.2297    416.07916    119.02174   -1260.8974   -4034.9206 
 1498000    231.19441   -4831.4662   -4369.0488   -4831.4662            0    3651.1153    18.197577    22.642494    19.734904    8131.5408    3616.3718     4247.976    3088.9982    564.23196    602.19567    237.58533   -3936.0623 
 1499000    230.43794    -4862.985   -4402.0807    -4862.985            0    2580.5601    18.291483    22.804882    19.517415    8141.3988     4213.379    2260.4736    1267.8278    29.213101   -650.19909    1358.5715   -4095.6806 
 1500000    241.57709   -4843.5413   -4360.3573   -4843.5413            0    4257.9077    18.121557    22.863745    19.540878    8096.3063    4085.2697    4603.5255    4084.9279   -5.5357689    886.41356   -991.74826   -3857.5992 
Loop time of 516.608 on 64 procs for 250000 steps with 1008 atoms

Performance: 83.622 ns/day, 0.287 hours/ns, 483.926 timesteps/s
99.1% CPU use with 64 MPI tasks x 1 OpenMP threads

MPI task timing breakdown:
Section |  min time  |  avg time  |  max time  |%varavg| %total
---------------------------------------------------------------
Pair    | 28.241     | 31.83      | 35.959     |  32.8 |  6.16
Bond    | 0.2693     | 0.28313    | 0.29268    |   0.9 |  0.05
Kspace  | 234.15     | 243.48     | 254        |  24.2 | 47.13
Neigh   | 3.7391     | 4.2675     | 5.0307     |  13.0 |  0.83
Comm    | 97.914     | 109.54     | 117.14     |  37.4 | 21.20
Output  | 1.7498     | 1.7587     | 1.7696     |   0.6 |  0.34
Modify  | 114.04     | 117.14     | 120.91     |  18.1 | 22.68
Other   |            | 8.305      |            |       |  1.61

Nlocal:        15.7500 ave          19 max          11 min
Histogram: 1 4 0 8 0 14 15 10 11 1
Nghost:        2495.92 ave        2521 max        2475 min
Histogram: 1 3 9 11 14 15 7 2 1 1
Neighs:        5171.22 ave        6260 max        3621 min
Histogram: 1 4 0 8 12 5 12 10 10 2

Total # of neighbors = 330958
Ave neighs/atom = 328.33135
Ave special neighs/atom = 2.0000000
Neighbor list builds = 8248
Dangerous builds = 0

unfix		3
unfix		2
unfix		1

write_data	data.final.${pid}
write_data	data.final.0
System init for write_data ...
PPPM initialization ...
  extracting TIP4P info from pair style
  using 12-bit tables for long-range coulomb (../kspace.cpp:340)
  G vector (1/distance) = 0.37860199
  grid = 24 27 36
  stencil order = 5
  estimated absolute RMS force accuracy = 0.0025138693
  estimated relative force accuracy = 7.5704429e-06
  using double precision FFTW3
  3d grid and FFT values/proc = 4050 480
Last active /omp style is kspace_style pppm/tip4p/omp
WARNING: Not all mixed pair coeffs generated from mixing. Use write_data with 'pair ij' option to store all pair coeffs. (../write_data.cpp:312)

write_restart   restart.lmp.${pid}
write_restart   restart.lmp.0
System init for write_restart ...
PPPM initialization ...
  extracting TIP4P info from pair style
  using 12-bit tables for long-range coulomb (../kspace.cpp:340)
  G vector (1/distance) = 0.37860199
  grid = 24 27 36
  stencil order = 5
  estimated absolute RMS force accuracy = 0.0025138693
  estimated relative force accuracy = 7.5704429e-06
  using double precision FFTW3
  3d grid and FFT values/proc = 4050 480
Last active /omp style is kspace_style pppm/tip4p/omp
Total wall time: 0:08:41
