#include		in.partitions
include		in.temp
variable        temperature equal 22.60
variable	tempDamp equal 100.0
include		in.pressure
variable        pressure equal 1998.3
variable        pressureDamp equal 1000.0 # This is 1 ps
include		in.seed
variable        seed equal 745823

units		real
atom_style	full
box tilt large
read_restart	restart.lmp.${pid}
read_restart	restart.lmp.0
Reading restart file ...
  restart file = 30 Jul 2021, LAMMPS = 30 Jul 2021
  restoring atom style full from restart
  triclinic box = (-10.580575 -9.1743249 0.17362386) to (12.560575 12.164323 21.686375) with tilt (-9.1209663 1.8370268 2.9055762)
  2 by 2 by 4 MPI processor grid
  restoring pair style lj/cut/tip4p/long/omp from restart
  restoring bond style harmonic/omp from restart
  restoring angle style harmonic/omp from restart
  1296 atoms
  864 bonds
  432 angles
Finding 1-2 1-3 1-4 neighbors ...
  special bond factors lj:    0        0        0       
  special bond factors coul:  0        0        0       
     2 = max # of 1-2 neighbors
     1 = max # of 1-3 neighbors
     1 = max # of 1-4 neighbors
     2 = max # of special neighbors
  special bonds CPU = 0.001 seconds
  read_restart CPU = 0.006 seconds
include 	in.setup
variable	out_freq equal 1000
variable	out_freq2 equal 10000
variable	out_freq3 equal 1000

timestep	2.0

neigh_modify    delay 7 every 1

include		in.tip4p
# This is TIP4P/Ice

# create groups ###
group ox type 2
432 atoms in group ox
group hy type 1
864 atoms in group hy

# set charges - beside manually ###
set group ox charge -1.1794
Setting atom values ...
  432 settings made for charge
set group hy charge 0.5897
Setting atom values ...
  864 settings made for charge

# ### TIP3P Potential Parameters ###
pair_style lj/cut/tip4p/long/omp 2 1 1 1 0.1577 8.5
pair_coeff 1 1*2 0.000 0.000
pair_coeff 2 2 0.21084 3.1668
bond_style  harmonic
bond_coeff  1 450 0.9572
angle_style harmonic
angle_coeff 1 55 104.52
kspace_style pppm/tip4p/omp 1.0e-5
pair_modify tail yes

thermo          ${out_freq}
thermo          1000
thermo_style    custom step temp pe etotal epair emol press lx ly lz vol pxx pyy pzz pxy pxz pyz enthalpy

restart 	${out_freq3} restart.lmp.${pid} restart2.lmp.${pid}
restart 	1000 restart.lmp.${pid} restart2.lmp.${pid}
restart 	1000 restart.lmp.0 restart2.lmp.${pid}
restart 	1000 restart.lmp.0 restart2.lmp.0


include         in.dump
dump            myDump all atom ${out_freq2} dump.water.${pid}
dump            myDump all atom 10000 dump.water.${pid}
dump            myDump all atom 10000 dump.water.0
dump            myDump2 all dcd ${out_freq2} dump.dcd
dump            myDump2 all dcd 10000 dump.dcd
dump_modify     myDump append yes
dump_modify     myDump2 append yes


variable natoms 	equal  "count(all)"                        # NUMBER ATOMS
variable H      	equal  "enthalpy/v_natoms"                 # ENTHALPY-per-atom
variable Vol      	equal  "vol/v_natoms"                 # volume-per-atom
fix AVG all 		ave/time ${out_freq} 1 ${out_freq} v_Vol v_H file vol_enthalpy.dat
fix AVG all 		ave/time 1000 1 ${out_freq} v_Vol v_H file vol_enthalpy.dat
fix AVG all 		ave/time 1000 1 1000 v_Vol v_H file vol_enthalpy.dat


timer           timeout 10:00:00 every 1000
New timer settings: style=normal  mode=nosync  timeout=10:00:00

fix 		1 all shake 1e-6 200 0 b 1 a 1
       0 = # of size 2 clusters
       0 = # of size 3 clusters
       0 = # of size 4 clusters
     432 = # of frozen angles
  find clusters CPU = 0.000 seconds
fix             2 all nph tri ${pressure} ${pressure} ${pressureDamp}
fix             2 all nph tri 1998.3 ${pressure} ${pressureDamp}
fix             2 all nph tri 1998.3 1998.3 ${pressureDamp}
fix             2 all nph tri 1998.3 1998.3 1000
fix             3 all temp/csvr ${temperature} ${temperature} ${tempDamp} ${seed}
fix             3 all temp/csvr 22.6 ${temperature} ${tempDamp} ${seed}
fix             3 all temp/csvr 22.6 22.6 ${tempDamp} ${seed}
fix             3 all temp/csvr 22.6 22.6 100 ${seed}
fix             3 all temp/csvr 22.6 22.6 100 745823


run             250000
PPPM initialization ...
  extracting TIP4P info from pair style
  using 12-bit tables for long-range coulomb (../kspace.cpp:340)
  G vector (1/distance) = 0.36783101
  grid = 30 40 32
  stencil order = 5
  estimated absolute RMS force accuracy = 0.0044449649
  estimated relative force accuracy = 1.338588e-05
  using double precision FFTW3
  3d grid and FFT values/proc = 11832 2400
Last active /omp style is kspace_style pppm/tip4p/omp
Neighbor list info ...
  update every 1 steps, delay 7 steps, check yes
  max neighbors/atom: 2000, page size: 100000
  master list distance cutoff = 10.8154
  ghost atom cutoff = 10.8154
  binsize = 5.4077, bins = 7 5 4
  1 neighbor lists, perpetual/occasional/extra = 1 0 0
  (1) pair lj/cut/tip4p/long/omp, perpetual
      attributes: half, newton on, omp
      pair build: half/bin/newton/tri/omp
      stencil: half/bin/3d/tri
      bin: standard
Per MPI rank memory allocation (min/avg/max) = 12.76 | 12.77 | 12.77 Mbytes
Step Temp PotEng TotEng E_pair E_mol Press Lx Ly Lz Volume Pxx Pyy Pzz Pxy Pxz Pyz Enthalpy 
43750000    23.725864    -6965.787   -6904.7537    -6965.787            0    1907.6636     23.14115    21.338648    21.512751    10623.015    2072.0128    1655.0263    1995.9518   -88.082391    65.411053   -173.94806   -6609.2074 
43751000    23.078028   -6968.8942   -6909.5274   -6968.8942            0    2039.4614    23.137697    21.238341    21.607167    10617.898    2055.0849    2285.5992       1777.7   -181.36963    383.86712   -225.44922   -6593.7145 
43752000    22.510074   -6967.2997   -6909.3939   -6967.2997            0    1866.6805    23.189313    21.215759    21.582151    10617.963    1713.9564    2223.2388    1662.8463   -35.156796   -186.15981    69.787541   -6620.3345 
43753000    22.013283   -6967.4106   -6910.7828   -6967.4106            0    1697.2029    23.138477    21.297938    21.582714    10636.001    1845.1304    1532.9991    1713.4792    167.46138   -310.17345   -88.802068   -6647.5209 
43754000    21.684407   -6969.0288    -6913.247   -6969.0288            0    1935.7687    23.142011    21.322754    21.527436    10622.744    2027.8942    1664.5372    2114.8747    28.349283    258.40414   -235.93144   -6613.3542 
43755000    22.655139   -6969.1363   -6910.8573   -6969.1363            0    2033.1905    23.133826    21.287361    21.575858    10625.206    2074.1998    2178.7617    1846.6102   -65.317478    193.43023     -239.231   -6595.7987 
43756000    22.771729   -6966.2022   -6907.6234   -6966.2022            0    2068.8728    23.142307    21.243938    21.589717    10614.233    1988.8203    2040.3317    2177.4665    -83.41979   -163.65214    311.32666   -6587.3666 
43757000    21.823196   -6966.8467   -6910.7079   -6966.8467            0    2234.6821    23.124498    21.284183    21.549973    10606.596    2374.4915    2050.6286    2278.9264   -25.679867   -257.70777    74.627825   -6565.0331 
43758000    22.631301   -6967.3401   -6909.1225   -6967.3401            0    1901.5392     23.12626    21.335939    21.528986    10622.842    2076.3798    1597.0961    2031.1416    -39.83614    76.241759   -32.673248   -6614.5299 
43759000    23.452997   -6967.1403   -6906.8089   -6967.1403            0    2070.9887    23.107395    21.295737    21.583372     10620.94    2086.0915    2114.4924    2012.3822   -300.78029    480.62484   -63.748169   -6586.0221 
43760000    23.599149   -6970.1433   -6909.4359   -6970.1433            0    1719.4438    23.158807    21.271652    21.595763    10638.636    1628.7454    1885.6678    1643.9183     -188.832    188.70988   -91.334682   -6642.6581 
43761000    22.798445   -6968.1207   -6909.4731   -6968.1207            0    1991.1535    23.190234    21.261442    21.539983    10620.458    1833.4686    1880.7941    2259.1976   -44.115301   -540.72094    317.76498   -6601.0664 
43762000    23.278884   -6965.3074   -6905.4239   -6965.3074            0    2076.0146    23.169004    21.234859    21.570303    10612.385    1609.0124    2549.8206     2069.211   -188.05512   -144.84071    196.03992   -6584.1176 
43763000    23.435453   -6967.7173    -6907.431   -6967.7173            0    2086.7211     23.13378    21.273159    21.575314    10617.829    1955.5928    2218.9378    2085.6327   -351.56021    353.51224    34.311668    -6584.302 
43764000    21.794191   -6968.5005   -6912.4363   -6968.5005            0    1927.6217    23.089764    21.318887    21.592176    10628.707    1804.2336    1761.6689    2216.9626    147.39835    379.75602   -100.95799    -6613.638 
43765000    23.504407    -6969.762   -6909.2983    -6969.762            0    1917.3064    23.168569    21.304283    21.522169    10623.122    2056.2487    1717.1631    1978.5074   -78.615665   -143.43528   -62.174933   -6612.2551 
43766000    22.203979   -6966.7193   -6909.6009   -6966.7193            0    2010.9065    23.169836    21.271308    21.555892     10623.88    1827.4825    1997.3362     2207.901   -18.448294   -415.26448     143.3649   -6598.0343 
43767000    22.638295   -6967.1617   -6908.9261   -6967.1617            0    2059.4067    23.164654    21.209895    21.604853    10614.894    1863.7984    2387.3737    1927.0479    269.94368    -327.4486    119.00727   -6590.1148 
43768000    22.377121   -6969.5417    -6911.978   -6969.5417            0    2336.8986    23.123313    21.257381    21.586267    10610.536    2428.3294    2342.9289    2239.4375   -50.322245    287.36537    -463.9009   -6550.3574 
43769000    22.399607   -6967.9876    -6910.366   -6967.9876            0    2128.0277    23.141953    21.309049    21.534516    10619.381    1847.8352    1797.9145    2738.3334   -2.6233596     664.6262    296.03966   -6580.7925 
43770000    21.665799   -6966.9773   -6911.2433   -6966.9773            0    2061.6667    23.143923    21.266197    21.587847    10625.176    1866.1306    2019.8339    2299.0355   -202.79045    165.41208    351.54001   -6591.7731 
43771000    22.506891   -6970.2287   -6912.3311   -6970.2287            0    2058.8847    23.206227    21.237008    21.545574    10618.323    1564.0618     2353.096    2259.4963     267.5284   -363.35216    282.16142   -6593.4977 
43772000    22.987003    -6967.533   -6908.4003    -6967.533            0    2162.4149    23.130842    21.268899    21.572392    10612.917    1991.2673    2030.0506    2465.9269   -200.06311   -38.385863    98.468109    -6573.705 
43773000    22.615201   -6968.5509   -6910.3747   -6968.5509            0    2044.6295     23.11321    21.286068    21.574382    10614.366    2358.7663    1868.8636    1906.2586   -158.33536    230.93753   -143.92458   -6593.8668 
43774000    24.019182   -6965.5038   -6903.7159   -6965.5038            0     2008.976    23.104616    21.290951    21.606721    10628.762     1908.373    2260.9123    1857.6427   -70.649221    441.42447   -373.84992   -6592.3054 
43775000    23.322256   -6966.0603   -6906.0652   -6966.0603            0    2050.7213    23.152025    21.253487    21.593676    10625.412    1978.6452    2441.8629     1731.656     380.0857   -125.88313     293.5514   -6588.2839 
43776000    24.154384   -6968.5428   -6906.4072   -6968.5428            0    1973.6756    23.190464     21.29289    21.512205    10622.554    1588.2499    1996.8858    2335.8912   -288.60767   -194.69608   -43.657221   -6600.6472 
43777000    22.987852   -6967.3864   -6908.2516   -6967.3864            0    1882.0463    23.144729    21.259884    21.598765    10627.764    2024.3092    2117.1248    1504.7049    262.20407    92.284402    231.20552   -6616.5437 
43778000    22.447204   -6970.5667   -6912.8226   -6970.5667            0    1847.1849    23.089371      21.3123    21.589904    10624.124    2001.3248    1894.3037    1645.9261    -206.8176    639.01508   -264.16653   -6626.6162 
43779000    22.498992   -6970.0429   -6912.1656   -6970.0429            0    1896.7806    23.127803    21.298003    21.567611    10623.689    2575.4501    1821.2228    1293.6689   -48.730063   -401.58078   -104.45252   -6618.2868 
43780000     24.02766   -6967.6377    -6905.828   -6967.6377            0    1809.5995     23.20224    21.242342    21.565153    10628.815    1563.6059     1794.424    2070.7687   -109.68961   -16.198525     256.3015   -6625.3214 
43781000    23.593257   -6967.8254   -6907.1332   -6967.8254            0    1846.2886    23.205898    21.252182    21.547538    10626.728    1921.4434    2044.8733    1572.5492    34.785453   -135.20706   -62.777984   -6620.9955 
43782000    23.494588   -6968.2906   -6907.8522   -6968.2906            0    2033.6972    23.102246    21.279293    21.601537    10619.304    2239.3908    2030.0297    1831.6711    120.81898    4.3031055   -54.340817   -6592.8902 
43783000    22.646851   -6967.2511   -6908.9934   -6967.2511            0    2326.6255    23.134709    21.299202    21.520858     10604.42    2391.6089    2263.2994    2324.9682    151.69241     76.67509   -892.58738   -6549.1701 
43784000    23.089315   -6969.7085   -6910.3126   -6969.7085            0    2068.3778    23.093371    21.305294    21.584974    10620.046    2244.2339    2121.6854    1839.2141    125.66611   -31.209568   0.20321941   -6589.9571 
43785000    21.573686   -6967.0272   -6911.5302   -6967.0272            0    2121.0105     23.15585    21.258369    21.562004    10614.018    1812.3988    2214.7854    2335.8474    168.54258   -230.19771    447.03774   -6583.2094 
43786000    22.256901    -6968.775   -6911.5204    -6968.775            0    1972.2067    23.160453    21.279753    21.547006    10619.414    1825.9569    1919.2967    2171.3664    386.91891   -354.69478     117.8979   -6606.0784 
43787000    23.130811    -6968.271   -6908.7684    -6968.271            0    1897.7671    23.120876     21.29726    21.576117    10624.323    2247.1632    1626.1479    1819.9904    191.97145   -113.31118   -271.94844   -6614.7191 
43788000    23.072648   -6969.2391   -6909.8861   -6969.2391            0     2020.362    23.148629    21.282967    21.563992    10623.964    2005.6977    1934.2143    2121.1739    79.794942    359.42735   -364.24876    -6596.852 
43789000    22.717674   -6968.2294   -6909.7896   -6968.2294            0    1891.5384    23.147957     21.26117    21.599889    10630.442    1936.5636    2048.2444    1689.8072    142.18127    203.30862    61.734673   -6616.5366 
43790000    22.298303   -6967.6868   -6910.3258   -6967.6868            0    1996.5859    23.181499    21.252885    21.547921    10616.095    2066.3427    2105.8711    1817.5438   -254.74909   -533.57637    89.011467   -6601.2047 
43791000    22.519096   -6969.3116   -6911.3826   -6969.3116            0    1901.9335     23.18599    21.247655    21.567986    10625.423    1824.0572    2166.7024    1715.0409   -92.830091   -684.10236   -79.239548   -6616.6573 
43792000    22.762352   -6969.0474   -6910.4926   -6969.0474            0    1865.3287    23.141542    21.285754    21.570354    10625.236    1641.2095    2062.6375    1892.1393    123.69137    200.82201   -139.80724   -6621.4447 
43793000    22.063302   -6965.1411   -6908.3846   -6965.1411            0     2003.999    23.100439    21.261587    21.644676    10630.826    2576.8109    2133.9863    1301.1998    219.62122    474.72243   -252.44234   -6597.6853 
43794000    22.312245   -6965.7174   -6908.3205   -6965.7174            0    1913.0737    23.150588    21.311462     21.53314    10623.867    1774.2368     1688.003    2276.9812    35.220369    281.60898   -283.16239   -6611.9123 
43795000    21.892459   -6971.7702   -6915.4532   -6971.7702            0    1856.6011     23.15018    21.256645    21.588177    10623.437    1967.2347    2009.7402    1592.8283    186.05327   -449.83791     345.3119   -6627.8064 
43796000    22.846641   -6967.1414   -6908.3698   -6967.1414            0    2170.5994    23.180933    21.238043    21.562294    10615.498    1825.5089    2442.1013    2244.1881   -76.023586    50.231763   -127.20148    -6572.326 
43797000    22.076605   -6968.6181   -6911.8274   -6968.6181            0     2018.246    23.113553    21.277042    21.601873    10623.543    2366.3307    1820.0916    1868.3158    260.45399    385.98788    -105.5648   -6599.1335 
43798000    23.821403   -6969.1934   -6907.9143   -6969.1934            0    2118.2582    23.136988    21.288001    21.553683    10616.056    2378.4467    2015.3988    1960.9292   -73.508494   -49.481005   -262.41744   -6579.9565 
43799000    22.512018   -6965.8957   -6907.9849   -6965.8957            0    1941.5843    23.204834    21.238916    21.562795    10627.127    1551.5234    2518.0333    1755.1961   -188.11135    100.27582   -36.189565    -6607.067 
43800000    22.781459   -6968.3813   -6909.7773   -6968.3813            0    2004.2402    23.141093    21.246315    21.614187    10626.895    2100.7043    2260.5472     1651.469    8.1537111   -333.00834    146.86484   -6599.1555 
43801000    23.032599   -6966.0312   -6906.7813   -6966.0312            0    2046.7232    23.141653    21.318502     21.51934    10616.466    1693.9181    2208.9974    2237.2541    42.367416   -203.80462   -107.27756   -6589.8866 
43802000    22.609089     -6970.05   -6911.8895     -6970.05            0    1968.6641    23.085017    21.337881    21.563939     10622.08    2156.8717      1774.21    1974.9105    264.36435    209.14958    -46.87466   -6606.9195 
43803000    22.000546   -6968.4924   -6911.8973   -6968.4924            0    1989.9154    23.104689    21.297597    21.586394    10622.111    2280.8024    1759.5969    1929.3469   -120.83981    33.685676     224.4825   -6603.6344 
43804000     23.40044   -6968.3371   -6908.1409   -6968.3371            0     1906.094    23.201012    21.232801    21.577196    10629.411    1608.8622    2388.2691    1721.1508   -49.036023   -153.99704    38.539581     -6612.66 
43805000     23.03326   -6967.3539   -6908.1023   -6967.3539            0    2166.8123    23.151658    21.272135    21.560352    10618.154    2007.2578    2437.0352    2056.1438   -189.54637   -366.47563    355.87853   -6572.5608 
43806000    23.275396   -6965.8697   -6905.9952   -6965.8697            0    2071.4373    23.146292     21.27575    21.570972    10622.727    1756.0089    2181.8253    2276.4778     51.93702    298.92052   -68.553338   -6585.0848 
43807000    22.915983   -6968.6692   -6909.7192   -6968.6692            0    1895.6771    23.115503    21.259695    21.622183    10625.758    2014.9752    2002.0237    1670.0325      191.634    661.64609    114.67391   -6615.9541 
43808000    22.220927    -6967.547    -6910.385    -6967.547            0     2190.886    23.127977    21.299178     21.54525    10613.339    2095.1819    2332.1864    2145.2896    267.66742    157.56606   -59.959961   -6571.2695 
43809000    22.841661   -6968.2564   -6909.4977   -6968.2564            0     1910.532    23.194541    21.230892    21.574795    10624.309    1395.2437    2550.5014     1785.851    296.84944     -39.6688    230.19536   -6613.4709 
43810000     22.00668   -6969.6487   -6913.0379   -6969.6487            0    1953.7779     23.16786    21.296654    21.524241    10620.015    1840.4727    1689.7533    2331.1077    -212.3094   -1.7052577    308.02312   -6610.4328 
43811000    22.571267   -6968.3267   -6910.2635   -6968.3267            0    1833.4136    23.092599     21.29274    21.618478    10629.907    2182.1622    1800.3978    1517.6808    330.81305    642.85701     -85.9071   -6626.0362 
43812000    22.482121   -6966.3558   -6908.5219   -6966.3558            0    1949.7788    23.120314    21.282407    21.584161    10620.615     2325.057    1694.2847    1829.9947   -135.18683    282.07019    -187.5424   -6606.5192 
43813000    23.696229    -6966.818   -6905.8609    -6966.818            0    1923.7125    23.170442    21.260013    21.568249    10624.603    1757.8654    1851.6724    2161.5996   -89.444541   -204.38584   -98.610055   -6607.7837 
43814000    21.914749   -6967.1192   -6910.7449   -6967.1192            0    2059.1294    23.201516    21.227542    21.559734    10618.409    1747.4811    2321.9456    2107.9616   -320.80194   -92.905458    210.16605    -6591.871 
43815000    21.640263   -6968.8288   -6913.1605   -6968.8288            0    2040.1337    23.137692    21.279362    21.571068     10620.63    1968.4044    1761.3168      2390.68    163.97246    16.906464    153.17491   -6597.1622 
43816000    23.167302   -6965.7859   -6906.1894   -6965.7859            0    2019.6848    23.099241    21.342977    21.554981    10626.747    2257.0557    1488.0274    2313.9714   -124.45026    235.10681   -247.91146   -6593.1782 
43817000    21.760427   -6968.9724   -6912.9951   -6968.9724            0    2189.0933    23.135141    21.282956    21.548947    10610.361    2196.1793     2163.409    2207.6915    -50.24965    220.81466   -162.19615   -6574.2521 
43818000    22.734025   -6970.4094   -6911.9275   -6970.4094            0     2069.149    23.141322    21.279603     21.55873    10616.341    2033.9443    2070.5972    2102.9057   -192.22569   -62.488843    323.17584   -6591.5644 
43819000    21.903957   -6970.7399   -6914.3934   -6970.7399            0    2120.4141    23.194493     21.22833    21.555655    10613.581    1778.9406    2145.4572    2436.8444   -103.91609   -142.65929     183.4443   -6586.1783 
43820000    21.937187   -6967.3583   -6910.9262   -6967.3583            0    2110.9378    23.103489    21.284314    21.614153    10628.585     2620.877    1751.3513    1960.5851    265.06126   -247.29445   -225.33201   -6583.7161 
43821000    21.985082   -6965.3897   -6908.8344   -6965.3897            0    1973.1725     23.14061    21.313672    21.538051    10622.812    1716.9283    1845.8086    2356.7808     283.5939     305.0342   -209.83861    -6603.145 
43822000    22.696513   -6962.7328   -6904.3474   -6962.7328            0    2069.8974    23.096054    21.282823    21.618915    10626.761    2117.0128    1771.0179    2321.6615   -40.877469   -20.900283    311.47921   -6583.5539 
43823000    22.159254   -6969.0456   -6912.0423   -6969.0456            0    2038.5455     23.17499     21.26174    21.540745        10614    1944.6036     1851.778    2319.2548    209.41247   -132.31698    195.73122   -6596.4871 
43824000    22.456016   -6968.1668   -6910.4001   -6968.1668            0    1997.5206    23.145456    21.275296    21.586027     10629.53    1964.8903    1492.2011    2535.4703    123.54595   -232.73677    293.31225   -6600.7429 
43825000    22.666443   -6968.2865   -6909.9785   -6968.2865            0     1941.112    23.159564    21.312163    21.537121    10630.301    2130.8247    1480.1028    2212.4086    431.90133    161.44432   -217.36277   -6609.0439 
43826000    23.294527   -6970.1957    -6910.272   -6970.1957            0    1909.8938    23.108587    21.282998    21.617733    10632.034    2213.0985    1748.3813    1768.2016    217.43323   -53.206194   -104.89993    -6614.129 
43827000    22.622416   -6969.0397   -6910.8449   -6969.0397            0    1714.6241    23.223527    21.217475    21.571816    10629.396    1512.4645    2033.8527    1597.5551    59.020356   -22.076239     -8.54414   -6645.0459 
43828000    23.478185   -6966.3372    -6905.941   -6966.3372            0    1926.5184    23.136798    21.280267    21.575372     10622.79    2078.1856    2040.7342    1660.6355   -179.34989   -37.524236   -24.561093     -6607.48 
43829000     21.48959   -6967.2482   -6911.9676   -6967.2482            0    1838.3293      23.1366     21.29913    21.563068    10626.052    2030.1632    1565.7733    1919.0515   -135.86519    154.09729    455.15523   -6627.0816 
43830000    22.968661   -6966.8032   -6907.7177   -6966.8032            0    1777.3387    23.114145    21.347828    21.551765    10634.434    1603.1808     1611.173    2117.6624    318.89828    129.25623   -311.30514   -6632.0662 
43831000    22.301602   -6968.9117   -6911.5422   -6968.9117            0     2018.705    23.127578    21.291208    21.578708    10625.659    1990.6746    2158.8834    1906.5571     228.4826    39.245092   -161.25822   -6598.7149 
43832000    23.120824   -6970.8256   -6911.3486   -6970.8256            0    1860.0219    23.178113    21.255304    21.563824    10623.586    1781.6902    1978.3846     1819.991   -38.082069   -10.559936   -55.697901   -6623.1678 
43833000    22.341724   -6966.5849   -6909.1121   -6966.5849            0    2104.8408    23.197043    21.200306    21.585452    10615.388    2176.3769    2318.0875    1820.0581   -355.45108   -311.57239    296.85168   -6583.2521 
43834000    23.549382   -6966.0183   -6905.4389   -6966.0183            0    1892.0667    23.174217     21.23703    21.600791    10630.862     2007.549    1753.6739    1914.9772   -136.95108   -42.122484    -80.10858   -6612.0925 
43835000    22.804987   -6969.8045     -6911.14   -6969.8045            0    1946.9597    23.125006    21.315994    21.559515    10627.386    2045.8942     1657.534     2137.451   -76.856485    282.30932   -225.10697   -6609.3817 
43836000    22.362654   -6968.8013   -6911.2747   -6968.8013            0       2087.8    23.116907    21.285808    21.580538    10618.963    2091.5954    2016.8999    2154.9046   -53.484681    348.68545    57.779258   -6587.9441 
43837000    21.531855   -6967.8099   -6912.4205   -6967.8099            0    1994.9211    23.163391    21.259962    21.570374    10622.391    2072.7582    1999.7027    1912.3024   -182.07707   -38.464473    225.06252   -6603.3739 
43838000    22.957804   -6968.0076     -6908.95   -6968.0076            0    2001.1038    23.162496    21.258782    21.567868    10620.157    1822.5759    2313.0298    1867.7058   -37.126241   -450.94101    83.419045   -6599.0108 
43839000    21.617496   -6969.3003   -6913.6906   -6969.3003            0    1929.9735    23.106731    21.296665    21.582916    10620.873    2283.5716    1908.6788    1597.6703    299.93417   -26.374302   -249.29404   -6614.7482 
43840000    21.921241   -6967.2344   -6910.8433   -6967.2344            0     1912.403    23.119185    21.305113    21.576811    10627.806    1823.6659    1803.9554    2109.5876    112.60966    314.53591   -341.27764   -6614.4292 
43841000    22.382309   -6970.0739   -6912.4967   -6970.0739            0    2049.4799    23.120041     21.29062     21.57715    10621.136    2144.4057    1957.1936    2046.8403    147.91256    -51.02235     79.05333   -6595.0356 
43842000    22.192281   -6966.9364   -6909.8481   -6966.9364            0     2022.459    23.217403    21.213308    21.566451    10621.863    1776.3743    2258.0945    2032.9081   -328.67242   -286.24046    250.29291    -6596.551 
43843000     22.90268   -6968.7908    -6909.875   -6968.7908            0    1919.9805    23.239432    21.218117    21.542198    10622.393    1284.9655    2058.7524    2416.2235   -188.44659   -363.10353    161.96585    -6612.438 
43844000    22.117775    -6966.411   -6909.5144    -6966.411            0    1953.6361    23.119837    21.285083    21.586432    10622.848     2208.028    1882.9759    1769.9044    -113.9246     165.2359   -5.4386903   -6606.8505 
43845000    21.682507   -6969.5973   -6913.8204   -6969.5973            0    2094.1397    23.082428    21.314741    21.588465    10621.438     2269.544    2207.5509    1805.3243    109.82732    408.60155   -261.83176   -6589.4323 
43846000    23.376826   -6967.7137   -6907.5783   -6967.7137            0    2102.5691    23.167027    21.276872    21.536555    10615.838    1679.4306    2503.7533    2124.5233    63.198172    245.28169    42.185513   -6582.0562 
43847000    22.385589    -6968.034   -6910.4484    -6968.034            0    1942.6222    23.130708    21.288696    21.585668    10629.271    2156.7437     1949.168     1721.955   -160.18621   -548.20201    7.8903524   -6609.3089 
43848000    22.132513   -6970.5096   -6913.5751   -6970.5096            0    1919.5575    23.243935    21.189803     21.56814    10623.051    1369.0488    2586.8242    1802.7996    17.028383    -248.2226     270.4683   -6616.1851 
43849000    22.474528   -6967.8824    -6910.068   -6967.8824            0    1704.0637    23.161929    21.275521    21.588106    10638.233    1737.7815    1674.2818    1700.1278   -228.87571   -24.711233    -255.6465   -6645.6865 
43850000    21.957942   -6968.8086   -6912.3231   -6968.8086            0    2043.6944    23.147024     21.28128    21.557739    10619.306    2277.4891    1878.5101    1975.0839    16.203489    165.78746   -312.78743   -6595.8127 
43851000    22.202017   -6970.4681   -6913.3548   -6970.4681            0    1887.8541    23.147791    21.275049    21.582762    10628.871    1764.5815    2089.5348    1809.4461   -142.81802    201.75967   -80.448914   -6620.7163 
43852000    22.401738   -6968.1671     -6910.54   -6968.1671            0    2004.7118    23.137164    21.262442    21.592446    10622.461    2200.0291    2005.1579    1808.9485    158.77175   -254.34425    172.13174   -6599.9747 
43853000    22.801629    -6965.812   -6907.1562    -6965.812            0     1938.667    23.154683    21.272417    21.572128    10625.483    1979.0582    1807.4509    2029.4919    69.429756    -377.3937   -206.65807   -6606.7369 
43854000    22.309388   -6966.2198   -6908.8302   -6966.2198            0    2064.9867    23.120181    21.327411    21.534666    10618.606    2296.9437     1813.792    2084.2244    128.74813    -42.63973    -136.8316   -6589.0433 
43855000    22.267393   -6966.0007   -6908.7192   -6966.0007            0    2039.7975     23.06852    21.334069    21.588945      10624.9     2481.785    1637.2854     2000.322   -117.54717    515.42397   -84.340419   -6592.6459 
43856000    22.103714   -6968.6494   -6911.7889   -6968.6494            0    1981.9433    23.169343    21.251821    21.568783    10620.269    1936.9061    2089.4337      1919.49    87.522003   -101.50648   -237.58106   -6604.8142 
43857000    22.737451   -6969.5741   -6911.0834   -6969.5741            0    1881.0084    23.183511    21.245025    21.574391    10626.127    1981.2014    1901.8139    1760.0098   -51.717462   -505.78069   -63.816685   -6619.5813 
43858000    21.480806   -6966.2708   -6911.0128   -6966.2708            0    2062.3909    23.197196     21.22523    21.561204        10616    2156.4385    2052.7501    1977.9841   -193.37133   -382.43164   -12.208701   -6591.7062 
43859000     22.79488   -6970.2237   -6911.5853   -6970.2237            0    1970.7779    23.154829    21.240853    21.595317    10621.189    2043.1987     2300.089    1569.0458   -317.89172    456.44965   -378.41419   -6606.3135 
43860000    21.851004   -6967.9914   -6911.7811   -6967.9914            0    2007.6458    23.089843     21.31854     21.58001    10622.582    2295.4839    2173.5646     1553.889   -11.579578     29.12245   -412.16187   -6600.7576 
43861000    22.529097   -6967.6354   -6909.6807   -6967.6354            0    1910.5544    23.147855    21.300299    21.547618    10624.187    1612.6148     2144.465    1974.5835   -139.01197    62.755521   -244.86817   -6613.6539 
43862000      22.9025   -6968.8523    -6909.937   -6968.8523            0    1937.7236    23.158961    21.273625    21.562881    10623.494    2126.5827     2050.615    1635.9731    65.319732   -448.08435    194.13217   -6609.7201 
43863000    23.227656   -6969.0635   -6909.3118   -6969.0635            0    1836.4675    23.140964    21.308505    21.545741    10624.191    1826.3566      1833.08    1849.9658   -365.60637    79.970748   -85.972677   -6624.7642 
43864000    22.875444    -6967.139   -6908.2933    -6967.139            0    1903.8197    23.113616    21.293385    21.587468    10624.642    1587.9807    2199.7715    1923.7068    381.49697    186.99827    103.82576   -6613.2974 
43865000    22.578883   -6966.9432   -6908.8604   -6966.9432            0    1999.4673    23.100103    21.325925    21.566073    10624.118    2239.6371    1987.8277    1770.9372   -144.29278    223.34715   -580.21741   -6599.0592 
43866000    21.734799   -6969.4871   -6913.5757   -6969.4871            0    1925.4546    23.188293    21.231167    21.588936    10628.546    1740.0497    2219.4425    1816.8716       181.97   -172.60313    558.90793   -6615.1178 
43867000    21.506532   -6971.6056   -6916.2814   -6971.6056            0    1927.2823     23.18974    21.248311    21.563844    10625.429    1677.8928      1848.88    2255.0742   -31.766258    43.011275     396.1719   -6617.6278 
43868000    21.620982   -6967.6381   -6912.0195   -6967.6381            0    2071.8305    23.139931    21.280694     21.55928    10616.518    2258.2597    1889.9794    2067.2524    179.44587   -357.43151    5.0402914   -6591.2358 
43869000    23.135175   -6970.6131   -6911.0993   -6970.6131            0    2007.4011    23.135998    21.277915     21.56991    10618.561    1717.1994    2270.7114    2034.2925    310.69224    598.82752   -347.41427   -6600.2315 
43870000    23.183344    -6970.655   -6911.0172    -6970.655            0    1920.7059    23.097279    21.290136    21.610835    10627.003    2355.2842    1797.9682    1608.8653    90.948084   -46.580885    126.74696   -6613.3387 
43871000    22.366646   -6968.3705   -6910.8336   -6968.3705            0    1904.8667    23.164138    21.276987     21.56539    10628.784    1811.1978    1988.0753    1915.3271    63.340003   -206.18261    197.68397   -6615.5604 
43872000    22.467298   -6964.3068   -6906.5111   -6964.3068            0    1880.9473    23.173704    21.289852    21.535254    10624.735    1787.8574    1998.5506     1856.434    96.609948   -270.44437   -229.68665   -6615.0567 
43873000    22.326626   -6968.7407   -6911.3068   -6968.7407            0    1984.2139    23.105517    21.304337     21.58794    10626.614     2566.236    1636.2043    1750.2013    96.662106   -159.22352   -23.778744   -6603.7968 
43874000    23.151847   -6968.7893   -6909.2326   -6968.7893            0    1988.1645    23.122582    21.272574    21.591185    10620.204    2049.4476    1945.0667    1969.9791   -48.064076    727.31721    90.704938   -6601.2962 
43875000    23.502868   -6968.9275   -6908.4678   -6968.9275            0    1889.4447    23.170317    21.236164    21.603602    10630.023    1761.2649    2324.8822    1582.1871    2.2219766   -143.12097   -31.948475    -6615.551 
43876000    23.126258   -6970.0336   -6910.5427   -6970.0336            0    1880.1678    23.223461    21.268737    21.523746    10631.303    1633.9537    1972.2659    2034.2838   -84.565977   -470.04339   -351.52723   -6619.0289 
43877000    22.209196   -6968.1403   -6911.0085   -6968.1403            0     1926.338    23.145685    21.212144    21.641715    10625.424    1799.8979    2293.3387    1685.7774    92.056938   -18.797886    404.59066   -6612.5014 
43878000    22.717645   -6968.7034   -6910.2636   -6968.7034            0    2157.3796    23.101451    21.326701    21.548506    10616.469    2439.2388    1641.8635    2391.0366   -130.05972   -71.327437    179.22287   -6576.2359 
43879000    22.807621    -6964.761   -6906.0898    -6964.761            0    2014.2487    23.158521    21.329959    21.493588    10617.194    1804.8254    1610.7196    2627.2009    86.055027    238.82624   -68.785148   -6594.2018 
43880000    22.112627   -6971.3692   -6914.4858   -6971.3692            0    2095.9633    23.112013    21.247753    21.623008     10618.59    2215.1604    2364.5432    1708.1864   -118.26961   -21.262214    138.67858   -6589.9023 
43881000    21.682715    -6968.909   -6913.1315    -6968.909            0    1957.6957    23.195203    21.288051    21.518054    10625.199    1620.3749    1894.1479    2358.5642   -6.3089407   -328.50193   -169.59638   -6609.7717 
43882000    23.413857   -6967.2975   -6907.0668   -6967.2975            0    1977.4046    23.170732    21.227615    21.607554    10627.878    1438.4213    2450.7126    2043.0801   -132.86465    50.383004    59.976988   -6600.5756 
43883000    22.802267   -6967.3186   -6908.6611   -6967.3186            0    1847.7265     23.15191    21.310723    21.533143    10624.107    1803.7122    1591.9461    2147.5212    40.949335    -103.7207    202.68301   -6622.3712 
43884000    21.793559    -6969.228   -6913.1654    -6969.228            0    2075.4658    23.074794    21.277856    21.639256    10624.488    2296.1638    2142.8693    1787.3642    119.81225    70.054028    2.8860331   -6591.5776 
43885000    22.250913   -6970.2449   -6913.0058   -6970.2449            0    1933.2177    23.163003     21.28205    21.550331    10623.369    1666.4339    2037.6456    2095.5737    213.56001    435.54729    289.76108   -6613.4906 
43886000    22.311219   -6964.8635   -6907.4693   -6964.8635            0    1962.0595    23.156397    21.311191    21.542696    10631.114    1942.2912    2046.7459    1897.1414    15.924045   -54.244622   -139.35218    -6603.264 
43887000    23.010984   -6969.7034   -6910.5091   -6969.7034            0    2063.1053     23.16609    21.214024    21.600841    10615.647    2215.3629    2135.6476    1838.3054   -243.68697   -30.566191    310.70734   -6591.1026 
43888000    22.379497   -6970.7223   -6913.1524   -6970.7223            0    2005.6218    23.127126    21.275822    21.581511    10619.153    2089.9537    2104.9454    1821.9662   -47.243952     183.3262   -291.68449   -6602.5429 
43889000    22.668028   -6969.3614   -6911.0493   -6969.3614            0    2084.6752    23.109289    21.300336     21.57521    10620.087     2343.624    2103.1246    1807.2771    489.43893   -135.67556    134.14529   -6588.1684 
43890000    22.874026   -6969.1112   -6910.2691   -6969.1112            0    1961.0881    23.170835    21.266956    21.543019    10615.821      1715.88    2015.5972    2151.7871   -54.042323    444.59459    10.399877   -6606.6518 
43891000    22.578041   -6970.2814   -6912.2008   -6970.2814            0    1991.6614    23.134292    21.253751    21.617432    10629.085    2110.4702    2166.4201    1698.0939     369.3984     -353.434    195.46871   -6603.4648 
43892000    22.396277   -6967.3255   -6909.7124   -6967.3255            0    1977.2639    23.217095    21.206537    21.561322    10615.807    1622.6864    2256.1816    2052.9236   -190.87659    25.363439    203.98449   -6603.5911 
43893000    22.621057   -6967.9946   -6909.8034   -6967.9946            0    2163.6451    23.143814    21.244093    21.596515    10618.344    2026.8585    2518.9672    1945.1098    243.79506   -126.11583   -67.438216   -6574.7463 
43894000    21.931779   -6966.9528   -6910.5346   -6966.9528            0    2185.9451     23.11738    21.338254    21.515655     10613.34    2070.7858    1886.0435     2601.006    178.58122    315.50985   -155.17106   -6572.1838 
43895000    23.483841    -6967.415   -6907.0042    -6967.415            0    2052.4986    23.112392    21.284883    21.593488    10622.799    2056.0472    1999.5699    2101.8786   -275.63729    62.612804    368.31379   -6589.0258 
43896000    22.822487   -6970.3958   -6911.6863   -6970.3958            0    1812.9889    23.167843    21.301077    21.539281    10629.636    1670.4007    1926.9759    1841.5901   -165.02339    38.326349    97.998571   -6630.6325 
43897000    22.008811    -6969.144   -6912.5277    -6969.144            0    1890.6986    23.142969    21.299988    21.552416    10624.155    1929.3372    1833.4837    1909.2748   -148.59201   -409.47191    45.897668   -6619.5783 
43898000    22.584083   -6970.7146   -6912.6184   -6970.7146            0    1918.2721    23.120219    21.265833    21.606698     10623.38    1341.2508     2695.617    1717.9486    133.62653    659.42318   -242.27287   -6615.4184 
43899000    22.787876   -6966.3219   -6907.7015   -6966.3219            0    1837.5249    23.103722    21.328817    21.575019    10631.631    2241.1816    1711.2038    1560.1893   -106.43679   -111.80232   -259.39459   -6622.7906 
43900000    21.565823   -6967.8647   -6912.3879   -6967.8647            0    1907.8145     23.17004    21.251024    21.581508    10626.456    1822.5149    1999.3171    1901.6114   -334.63688     151.3868    12.690766   -6616.7226 
43901000    23.248093   -6967.6047   -6907.8004   -6967.6047            0    2268.8609    23.194685    21.269234    21.518108    10615.597    2209.1719    2352.4358     2244.975   -197.21108   -469.94822    -70.28473   -6556.5408 
43902000    21.446678   -6967.6649   -6912.4947   -6967.6649            0    2040.4543    23.184964    21.198253      21.6107    10621.243     1969.165    2511.6692    1640.5289    74.498804    -142.1749    186.62176   -6596.4284 
43903000    23.201581   -6966.9745   -6907.2899   -6966.9745            0    1872.2549    23.145515     21.26662    21.592365    10628.342    1664.4566    1797.4172    2154.8908    22.798096    382.18945    4.8150163   -6617.0839 
43904000    23.180133   -6970.1431   -6910.5136   -6970.1431            0    1888.9262    23.191216    21.266675    21.539037    10623.054    1540.8552    1955.2116    2170.7118    175.58757    100.29984    181.89539   -6617.8692 
43905000    21.264838     -6967.87   -6913.1675     -6967.87            0    1914.4112    23.153003    21.253833    21.614758    10636.407    1572.8322    2590.9661    1579.4354    21.432514   -62.955465    343.88239   -6616.2019 
43906000    21.538523   -6970.3215    -6914.915   -6970.3215            0     2104.246    23.151747    21.298299    21.527307    10614.961    2079.8648    1953.0704    2279.8027   -92.710949   -158.80405    413.09793   -6589.1602 
43907000    20.748472   -6965.2993   -6911.9251   -6965.2993            0    2008.5949    23.084612    21.309537    21.610689    10630.782    2123.0487    2132.8697    1769.8662     418.8453    46.983541    -112.9315   -6600.5144 
43908000    22.454891   -6969.0962   -6911.3324   -6969.0962            0    1990.8339    23.124454    21.317913    21.533077    10615.056    1706.4645     2286.785    1979.2523     46.59328    151.03721   -234.49458    -6603.132 
43909000    23.038962   -6969.6493   -6910.3829   -6969.6493            0    1964.2224    23.128903    21.277579    21.598629     10629.27    2042.9373     1830.573    2019.1569   -59.995758   -94.851985   -29.184578   -6605.8951 
43910000    22.786134    -6969.773    -6911.157    -6969.773            0    1982.2387     23.22965    21.227515    21.539415    10621.252    1720.6219     1981.689    2244.4053    -18.27828   -405.40824    156.46168   -6604.1081 
43911000    21.784299   -6969.6358    -6913.597   -6969.6358            0    1919.0408    23.178735    21.228028    21.608401    10632.172    1691.7356    2293.1946    1772.1922    92.841021    -339.3825    179.06592   -6616.0318 
43912000    23.247586   -6969.6916   -6909.8886   -6969.6916            0    2021.0008    23.176071    21.266107     21.54789    10620.197    1659.1929    2058.8834     2344.926   -47.803834    204.56158   -87.202335   -6596.8666 
43913000    22.253653   -6967.6486   -6910.4025   -6967.6486            0     1948.369    23.072353    21.313386    21.604386    10623.956    2303.3796    1744.9941    1796.7332    246.51684   -12.251856    45.842336   -6608.5232 
43914000    22.208176   -6969.4892     -6912.36   -6969.4892            0    1974.9869    23.144436    21.284633    21.565663    10623.694     1645.654    2242.5176    2036.7892    440.39167    224.31158   -89.086039    -6606.364 
43915000    22.101978   -6967.4168   -6910.5608   -6967.4168            0    2052.2787    23.164098    21.301449    21.529166    10623.111    2051.4331    1738.2036    2367.1994    122.68703   -378.15212    394.32403   -6592.6071 
43916000    23.682908   -6968.4732   -6907.5504   -6968.4732            0    2024.2777    23.157623    21.255939    21.575359     10620.19    1901.2996    2148.2722    2023.2612    210.13313    -88.21535   -5.3815007    -6594.021 
43917000    22.587954   -6969.9873   -6911.8811   -6969.9873            0    1872.1026    23.136072    21.284475     21.58532    10629.456    1900.8821    1838.1339    1877.2919     339.4974    98.669282   -239.97445   -6621.6683 
43918000    22.737826   -6966.0792   -6907.5875   -6966.0792            0    2020.4744    23.153411    21.277877    21.565249    10624.237    2149.1878    1807.6056    2104.6297    316.52224    172.74629   -229.61949   -6594.5279 
43919000    23.315313   -6965.6544   -6905.6772   -6965.6544            0    1723.5273    23.166676     21.25071    21.610409    10638.984     1927.304    1805.2818    1437.9959    111.66823   -236.17194   -100.88605    -6638.257 
43920000    22.669737   -6969.1066   -6910.7901   -6969.1066            0    1963.8128    23.209349    21.232086    21.552003    10620.459    1608.7675    2379.1515    1903.5193    145.47275   -495.09226   -8.5441097   -6606.6181 
43921000    22.436923   -6969.0488   -6911.3312   -6969.0488            0    1766.0645    23.142183    21.279611    21.592924    10633.579    1733.7397    1760.0048     1804.449    347.10471   -324.07223    99.100287   -6637.4502 
43922000    22.738517   -6968.6145    -6910.121   -6968.6145            0     2086.061    23.125807    21.303119    21.552475    10617.865    2034.8624    2059.7918    2163.5286   -90.461632    422.06036   -226.89566   -6587.0931 
43923000    21.664108     -6967.67   -6911.9404     -6967.67            0    2121.4786    23.082626    21.304645     21.59555    10619.982    2420.5893    2058.5821    1885.2644    520.58751    78.507982   -111.12949   -6583.3625 
43924000    21.966362   -6968.8203   -6912.3132   -6968.8203            0    1988.1478    23.155417     21.28963    21.547632    10622.342    1850.8027    1934.5983    2179.0424    73.372421   -16.126325    93.345713   -6604.3173 
43925000      22.7471   -6968.2859   -6909.7704   -6968.2859            0    2029.1675    23.187101    21.240141    21.565908    10621.151    1787.6903    2361.5227    1938.2893    35.148664   -46.944044    261.40614   -6595.4552 
43926000    22.213316   -6969.6979   -6912.5555   -6969.6979            0    1910.0244    23.151596    21.293725    21.557324     10627.41    1665.4276    1860.6842    2203.9615    159.54263    133.35907    67.681798    -6616.521 
43927000    23.977934   -6967.6589   -6905.9772   -6967.6589            0    2068.7483    23.114795    21.276954    21.600311    10623.301     2101.807    1902.4203    2202.0176    275.72211    292.82516   -169.67756   -6585.4661 
43928000    22.389715   -6966.2317   -6908.6355   -6966.2317            0    2181.6571    23.144772    21.255201    21.578242    10615.347    2003.2376    2298.9131    2242.8206    240.20953    302.68066   -150.02537   -6570.8846 
43929000    21.884254   -6966.5031   -6910.2072   -6966.5031            0    2134.0643    23.178677    21.238297    21.573397    10620.057    2252.8503    2302.7451    1846.5976   -93.761341   -341.60963    200.19099   -6579.6777 
43930000    23.095492    -6968.576   -6909.1643    -6968.576            0    2181.4452    23.166619    21.258105    21.558879    10617.283    1899.0184    2064.8337    2580.4835   -33.994284     67.00161    470.53884   -6571.3845 
43931000     21.99873   -6967.2936   -6910.7032   -6967.2936            0    1988.5387      23.1438    21.296646    21.556472    10624.868    1862.8897    1964.5969    2138.1296    223.83295   -43.263835    258.43657   -6602.5736 
43932000    22.821917   -6966.4078   -6907.6998   -6966.4078            0    2155.3934    23.059465    21.337165    21.585372    10620.513    2371.3134    1963.6423    2131.2244    260.73873    573.36066   -323.59656   -6573.8524 
43933000     22.63081   -6969.8061   -6911.5897   -6969.8061            0    2198.4496     23.12654    21.299872    21.541621    10611.237      2119.94    2228.5233    2246.8856   -22.280015    314.69081      198.816   -6571.3708 
43934000    21.663079   -6967.8626   -6912.1357   -6967.8626            0    1972.9047    23.176781    21.250165    21.579446    10628.102    2000.5133    2010.5904    1907.6104   -297.00826    28.106275    370.40026   -6606.3355 
43935000    22.985621   -6967.6994   -6908.5703   -6967.6994            0    2055.3602    23.173308    21.264357    21.560097    10624.072    2087.3693    1969.3193    2109.3919   -135.76156   -330.62588    227.56269   -6590.1103 
43936000    22.647352   -6966.3508   -6908.0919   -6966.3508            0     2100.674    23.125295    21.293198    21.572979    10622.783    2104.1521    1966.4986    2231.3714    101.64403    353.81782   -225.23471   -6582.6505 
43937000    21.775372    -6968.767   -6912.7512    -6968.767            0    2133.3985     23.09536    21.331635    21.551278    10617.491     2243.112    2089.2811    2067.8025   -55.895258    412.01143   -255.82118   -6582.4046 
43938000    23.463222   -6968.6828   -6908.3251   -6968.6828            0    1852.4066    23.148461    21.266758    21.588279    10627.753    1947.0086    1801.6753    1808.5359   -103.00532   -33.543936    209.54033   -6621.2116 
43939000    21.723441   -6969.8734   -6913.9912   -6969.8734            0    2237.0297    23.170778    21.253584    21.545627    10610.404    2183.1398    2316.3254    2211.6238   -109.03346   -361.75782   -60.857924    -6567.829 
43940000    24.249436   -6967.7401   -6905.3599   -6967.7401            0    1873.3378    23.139301    21.312435    21.554395    10629.654    2032.6744     1541.236     2046.103   -19.725521   -212.44271    55.149178   -6614.9502 
43941000    23.421795   -6968.3243   -6908.0732   -6968.3243            0     1971.377    23.125663    21.277359    21.604249    10630.436    2069.1807    1937.1045    1907.8457    110.31079    356.57222   -402.89437   -6602.4427 
43942000    22.857403   -6968.3027   -6909.5034   -6968.3027            0    1993.1876    23.162331    21.292146    21.545246    10625.592    2017.6261     1661.473    2300.4637   -65.371959    62.132814    80.752404   -6600.6323 
43943000    21.998506   -6968.1776   -6911.5878   -6968.1776            0    2096.4832    23.163687    21.238138    21.601791    10627.078    1865.8371    2274.3009    2149.3116    238.55936   -333.56364    95.775492   -6586.6642 
43944000    22.429384   -6967.0284   -6909.3301   -6967.0284            0    1805.3147    23.213284    21.293403    21.486355    10620.486     1144.545    1737.1014    2534.2975    161.02195    17.828357    388.09707   -6629.7069 
43945000    22.738476   -6966.9668   -6908.4734   -6966.9668            0     2022.082      23.0896    21.259563    21.652944    10628.885    2266.0405    2195.0803    1605.1251     5.766091    238.01077   -24.150824   -6595.0277 
43946000    22.394999   -6968.7133   -6911.1035   -6968.7133            0     1921.003    23.157813    21.290798    21.545967    10623.203    1937.1631    1794.0792    2031.7667   -296.29418    347.52509   -331.24227   -6613.4854 
43947000    22.664824   -6968.1786   -6909.8747   -6968.1786            0    1831.4459    23.149349    21.277913    21.581062     10630.18    1700.1575    1891.2827    1902.8973    297.18716    -87.39821     70.15293   -6625.9451 
43948000    22.724547   -6966.6353   -6908.1777   -6966.6353            0    2055.9489    23.195486    21.240351    21.554291    10619.374    2051.0581     1940.926    2175.8626   -105.43365   -233.70516    116.66221   -6589.7674 
43949000    23.139942   -6967.9225   -6908.3964   -6967.9225            0    1856.9794    23.172096    21.270458    21.565082    10629.021    1932.4189    1780.4781    1858.0412   -267.96007   -175.77058    262.40864   -6620.5398 
43950000    21.269308    -6966.119    -6911.405    -6966.119            0    2050.1811     23.11958    21.289436    21.576917    10620.219    2396.3109    2195.3419    1558.8904   -291.49869    484.93427   -362.79852   -6593.8627 
43951000    23.037557   -6968.4905   -6909.2278   -6968.4905            0    1956.4385    23.111149    21.311495    21.565604    10621.774    2360.0712    1850.8456    1658.3985   -310.24237    102.27444   -410.02877   -6606.1605 
43952000    23.439222   -6971.1738   -6910.8778   -6971.1738            0    1821.4913    23.169092    21.225856    21.616201    10630.498    1724.1115    2335.2153    1405.1471   -90.100358   -86.765537   -6.7421253   -6628.4831 
43953000    21.911196   -6971.1909   -6914.8257   -6971.1909            0    2119.7574    23.184036    21.281785    21.511762    10613.853    2135.4598    2248.4151    1975.3972    -307.8742   -625.87783   -5.5033834   -6586.7039 
43954000     22.26202    -6968.344   -6911.0763    -6968.344            0    1877.5682    23.155561    21.272303    21.575823    10627.649    2056.2258    1628.3682    1948.1104   -261.72829    54.171993   -32.335694   -6620.0657 
43955000    21.977795    -6968.312   -6911.7755    -6968.312            0    2032.5486     23.10262    21.310761      21.5695    10619.407    1958.9273    1999.9057    2138.8128    294.48207    131.26703   -233.72271   -6596.9882 
43956000     21.64239   -6969.4807   -6913.8069   -6969.4807            0    2082.5683    23.091124    21.289418    21.601811    10619.377    2475.8716    2095.0126    1676.8208   -9.5184698    36.116045   -111.62434   -6591.2739 
43957000    21.486269   -6967.9321     -6912.66   -6967.9321            0     1983.725    23.165089    21.285855    21.532118    10617.245    1865.8252    1936.8094    2148.5405   -118.85151   -317.42369   -66.704485   -6605.4968 
43958000    22.662177   -6968.4793   -6910.1823   -6968.4793            0    1913.9023    23.163215    21.275428    21.569252    10629.485    1929.5076    1836.4859    1975.7133    93.419875   -497.75882    130.17469   -6613.4889 
43959000    22.741268   -6966.8678   -6908.3673   -6966.8678            0    1985.3473    23.154183    21.270296    21.579151    10627.653    1711.8867    2218.9435    2025.2116    14.949971    449.61907   -284.01699   -6600.6515 
43960000    22.332518   -6967.5388   -6910.0897   -6967.5388            0     1960.311    23.124585    21.312053    21.560493    10625.709    2121.5802    1640.4917     2118.861    86.229912   -150.17691   -173.30072     -6606.31 
43961000    22.291989   -6965.9087   -6908.5639   -6965.9087            0    1994.2953     23.13619    21.294429    21.565151    10624.546    1781.6317    1732.6271    2468.6273   -182.95751    94.541225   -27.070191   -6599.5516 
43962000    21.173272   -6965.9721   -6911.5052   -6965.9721            0       2139.6    23.176227    21.267619    21.529862    10612.137    1836.4795    2275.6279    2306.6926   -111.25884   -360.28411    236.00015   -6580.3654 
43963000    22.201461   -6967.6125   -6910.5006   -6967.6125            0    2134.8098    23.157283    21.256205    21.575689     10620.33    1852.0835    2263.3131    2289.0328   -125.31231   -141.95426     162.3178   -6579.8471 
43964000    22.965143   -6968.9257   -6909.8492   -6968.9257            0    2174.4311    23.139094    21.295738    21.547329    10617.749    2216.6048    2180.7447    2125.9439   -118.10313    269.09803   -198.55983   -6573.1408 
43965000     21.88226   -6970.1578    -6913.867   -6970.1578            0     1962.544    23.114397    21.300951    21.582254    10626.209    2051.4188    1761.0886    2075.1247    342.74605    205.04338    142.64183   -6609.7269 
43966000    22.633984   -6968.7105    -6910.486   -6968.7105            0    2317.0385    23.136833    21.263809    21.565945    10609.953    2098.3771    2451.9469    2400.7917    235.14228    103.16945    128.06184   -6551.9583 
43967000    23.348732   -6970.0684   -6910.0052   -6970.0684            0    1992.7947    23.161588    21.269149    21.560515    10621.297    1943.9637    1928.5742    2105.8461   -79.976968   -348.07978    480.70082   -6601.3199 
43968000    22.696015   -6967.3698   -6908.9857   -6967.3698            0    2033.2872    23.174259    21.250563    21.564408    10619.739    2018.2619    2217.7847    1863.8149    110.82515    -329.4911    126.95054   -6594.0743 
43969000    22.001734   -6968.0599   -6911.4618   -6968.0599            0    2087.4381    23.135681    21.267823    21.584652    10620.632    2041.6783    2429.1566    1791.4793    -189.3833    275.22083     -303.133   -6588.1363 
43970000    21.813829   -6970.3658    -6914.251   -6970.3658            0    2116.6315    23.117231    21.261286    21.611131    10621.915    2374.8927    2154.8867     1820.115   -127.10768    318.20111   -193.78117   -6586.3642 
43971000    21.673157   -6967.1444   -6911.3916   -6967.1444            0    2126.8087     23.16321    21.283998    21.537802     10618.26    2324.5781    1916.2728    2139.5753   -247.96248   -126.92403   -134.47167   -6582.0416 
43972000    22.739466   -6970.1417   -6911.6459   -6970.1417            0    2038.1726     23.18477    21.227932    21.570253    10616.117    1529.5469    2304.0544    2280.9165    121.14683   -111.40054    385.84783   -6596.0854 
43973000    21.769065     -6967.66   -6911.6604     -6967.66            0     2045.934    23.161319    21.308953    21.513251    10617.724    1928.2511    1573.9619    2635.5889   -499.14439   -251.35828    296.48702   -6594.8504 
43974000    22.443588   -6965.9804   -6908.2457   -6965.9804            0    1913.4308    23.134314    21.297005    21.570608    10627.658    2042.2371    1765.3645    1932.6908   -172.53321    319.60316     126.6698   -6611.6763 
43975000    22.288214   -6969.2047   -6911.8697   -6969.2047            0    1922.1934    23.124946    21.317823     21.55478    10625.935     1707.834    1930.2858    2128.4604    2.9909364    479.13917   -237.26315   -6613.9905 
43976000     21.52592   -6966.2188   -6910.8447   -6966.2188            0    2017.9255    23.160331    21.280376    21.563542    10627.819    2260.0246    1795.1411    1998.6107   -70.633261   -252.84539     68.80877   -6598.0747 
43977000    24.171114   -6967.5797   -6905.4009   -6967.5797            0    1870.4091     23.15412    21.259266     21.58599    10625.479    2050.2049    1649.0135    1912.0091     8.651199    -37.07898      405.045   -6615.5591 
43978000    23.285752    -6966.085   -6906.1838    -6966.085            0    2013.2966    23.140206    21.262165    21.588224    10621.641    2160.6605    2086.2544     1792.975    299.26862   -401.02346    77.928985   -6594.3126 
43979000    22.891384   -6967.7368   -6908.8501   -6967.7368            0    2007.5301    23.122422    21.312737    21.552729     10621.23    2020.8953    2043.3096    1958.3855   -71.091822    394.87855   -703.31922   -6597.8842 
43980000    23.010322   -6966.7556   -6907.5629   -6966.7556            0    1894.4675    23.086793    21.336331    21.574835    10627.493    2416.1928    1472.4215    1794.7882    107.32207   -63.034681    194.87555   -6613.9373 
43981000    22.895701   -6966.5355   -6907.6377   -6966.5355            0    1932.2504    23.163223    21.271506    21.562969    10624.433    2005.8359    1996.9094    1794.0061    23.019493   -267.31156    78.417979   -6608.2423 
43982000    22.721525    -6967.092   -6908.6422    -6967.092            0    2121.1266    23.171828    21.247984    21.556146    10613.268    1745.7118     2524.276    2093.3919   -248.95241   -449.24058    42.840997   -6580.3266 
43983000    22.553157    -6969.975   -6911.9584    -6969.975            0    1825.9969    23.090065    21.342859    21.571825    10630.767    2412.4491    1520.1424    1545.3991   -89.809585   -75.481393    -162.2296    -6628.858 
43984000     22.70393   -6969.1613   -6910.7568   -6969.1613            0    1857.1137    23.118525    21.290396    21.589115    10626.217    2025.0733    1957.6999    1588.5679   -283.33815    546.12288   -207.71634   -6622.9553 
43985000    22.343147   -6968.8572   -6911.3809   -6968.8572            0    1772.0119     23.14721    21.269796    21.602615    10635.754    1846.5813      1771.88    1697.5743    -285.8311    48.256161     92.86751   -6636.5213 
43986000    22.707021   -6969.6828   -6911.2704   -6969.6828            0    1932.1891    23.187253    21.276086    21.527586     10620.29    1647.9962     2029.703    2118.8682     138.9248   -461.54135    211.45925   -6612.0013 
43987000    21.566215   -6967.7757   -6912.2979   -6967.7757            0    2124.2594    23.122849    21.267995    21.593262    10619.062    2133.9983    1950.9973    2287.7827   -41.963778    36.089177    214.11193   -6583.3179 
43988000    22.832152   -6966.0704   -6907.3361   -6966.0704            0    2114.9207    23.100922    21.289211    21.584045    10615.042    2412.0671     1920.956     2011.739    168.88405    221.51668   -102.63713   -6579.9263 
43989000    21.980496   -6967.5794   -6911.0359   -6967.5794            0    2058.4626    23.133309     21.28642    21.566849    10620.063    1883.6506    2226.5714    2065.1658    -115.2915    424.64371   -571.93719   -6592.2156 
43990000    23.217679   -6968.4017   -6908.6757   -6968.4017            0    1868.8064    23.164831    21.284034    21.549192    10624.636    1913.6879    1751.5775    1941.1537   -24.400428   -139.28517    273.94576   -6619.1052 
43991000    22.106535   -6967.7877     -6910.92   -6967.7877            0    2084.8315    23.190384    21.245293    21.550582    10617.681    1823.0454    2156.1816    2275.2674    -238.8629   -108.88865    54.169025   -6588.0881 
43992000    22.516154   -6968.8874    -6910.966   -6968.8874            0    1982.9425    23.169927    21.251113    21.578107    10624.774    1824.3507    2008.8428    2115.6339    109.18665     49.25568    215.80301   -6603.7062 
43993000     22.62665   -6966.7727    -6908.567   -6966.7727            0    2058.7773     23.13364    21.303703    21.555936    10623.459    2184.9055     1770.976    2220.4503    46.780372   -29.983766   -609.72744    -6589.596 
43994000    21.982262   -6967.1833   -6910.6352   -6967.1833            0    1920.2832    23.129454    21.269383    21.596227    10624.247    2452.1846    1644.5227    1664.1422   -218.12956    52.115668   -117.41822   -6613.0994 
43995000     23.57118    -6967.094   -6906.4585    -6967.094            0    1850.6826    23.198432    21.261229    21.530536    10619.446    1426.2604    1729.2972    2396.4903    54.671716   -438.16853    217.86045   -6619.8364 
43996000    21.164243   -6965.8875   -6911.4438   -6965.8875            0    1980.8158    23.126991    21.279962    21.586958    10623.838    2179.3964    2045.1394    1717.9118    177.12436   -465.28735    19.302678   -6604.5406 
43997000    21.759281   -6965.6043   -6909.6298   -6965.6043            0    2013.5228    23.130652    21.307341     21.54119    10616.634    1955.5713    1947.9827    2137.0145    179.00872    360.82768   -422.52529   -6597.8706 
43998000    22.782419   -6968.4654    -6909.859   -6968.4654            0    2000.7135    23.101005    21.289433    21.609391    10627.657    2431.6475    1909.6618    1660.8312    71.386474    3.9276379   -86.817519   -6599.7615 
43999000    22.738745   -6970.0808   -6911.5867   -6970.0808            0    1943.5765    23.179558    21.221793    21.597412    10624.021    1592.9502    2275.5486    1962.2308    437.72977   -26.811225    49.979021   -6610.4481 
44000000    23.994888   -6967.8283   -6906.1029   -6967.8283            0    1852.6753    23.210439    21.257481     21.54271    10629.075    1471.3334    1710.2062    2376.4862    426.35052   -363.77822    195.42342    -6618.912 
Loop time of 612.277 on 64 procs for 250000 steps with 1296 atoms

Performance: 70.556 ns/day, 0.340 hours/ns, 408.312 timesteps/s
390.7% CPU use with 16 MPI tasks x 4 OpenMP threads

MPI task timing breakdown:
Section |  min time  |  avg time  |  max time  |%varavg| %total
---------------------------------------------------------------
Pair    | 39.87      | 48.991     | 58.12      |  76.1 |  8.00
Bond    | 1.441      | 1.7372     | 2.1301     |  16.5 |  0.28
Kspace  | 325.97     | 337.65     | 356.16     |  48.2 | 55.15
Neigh   | 0.10467    | 0.11779    | 0.1365     |   3.2 |  0.02
Comm    | 58.413     | 70.951     | 78.99      |  74.9 | 11.59
Output  | 0.50388    | 0.50421    | 0.50565    |   0.1 |  0.08
Modify  | 136.43     | 140.26     | 146.42     |  23.2 | 22.91
Other   |            | 12.06      |            |       |  1.97

Nlocal:        81.0000 ave          97 max          64 min
Histogram: 2 2 0 1 3 2 2 0 2 2
Nghost:        3716.50 ave        3753 max        3686 min
Histogram: 1 1 1 4 2 5 0 0 1 1
Neighs:        26267.9 ave       31387 max       20728 min
Histogram: 2 2 0 1 2 3 2 0 2 2

Total # of neighbors = 420287
Ave neighs/atom = 324.29552
Ave special neighs/atom = 2.0000000
Neighbor list builds = 250
Dangerous builds = 0

unfix		3
unfix		2
unfix		1

write_data	data.final.${pid}
write_data	data.final.0
System init for write_data ...
PPPM initialization ...
  extracting TIP4P info from pair style
  using 12-bit tables for long-range coulomb (../kspace.cpp:340)
  G vector (1/distance) = 0.36802779
  grid = 30 40 32
  stencil order = 5
  estimated absolute RMS force accuracy = 0.0043961736
  estimated relative force accuracy = 1.3238946e-05
  using double precision FFTW3
  3d grid and FFT values/proc = 11832 2400
Last active /omp style is kspace_style pppm/tip4p/omp
WARNING: Not all mixed pair coeffs generated from mixing. Use write_data with 'pair ij' option to store all pair coeffs. (../write_data.cpp:312)

write_restart   restart.lmp.${pid}
write_restart   restart.lmp.0
System init for write_restart ...
PPPM initialization ...
  extracting TIP4P info from pair style
  using 12-bit tables for long-range coulomb (../kspace.cpp:340)
  G vector (1/distance) = 0.36802779
  grid = 30 40 32
  stencil order = 5
  estimated absolute RMS force accuracy = 0.0043961736
  estimated relative force accuracy = 1.3238946e-05
  using double precision FFTW3
  3d grid and FFT values/proc = 11832 2400
Last active /omp style is kspace_style pppm/tip4p/omp
Total wall time: 0:10:12
