LAMMPS (30 Jul 2021)
  using 1 OpenMP thread(s) per MPI task
package omp 0
using multi-threaded neighbor list subroutines
echo both

include		in.partitions
variable        pid world 0
include		in.temp
variable        temperature equal 200.21
variable	tempDamp equal 100.0
include		in.pressure
variable        pressure equal -750.0
variable        pressureDamp equal 1000.0 # This is 1 ps
include		in.seed
variable        seed world 745823

units		real
atom_style	full
read_restart	restart.lmp.${pid}
read_restart	restart.lmp.0
Reading restart file ...
  restart file = 30 Jul 2021, LAMMPS = 30 Jul 2021
  restoring atom style full from restart
  orthogonal box = (-0.24149977 0.80707644 -0.29462916) to (18.449072 22.822101 22.507825)
  4 by 4 by 4 MPI processor grid
  restoring pair style lj/cut/tip4p/long/omp from restart
  restoring bond style harmonic/omp from restart
  restoring angle style harmonic/omp from restart
  864 atoms
  576 bonds
  288 angles
Finding 1-2 1-3 1-4 neighbors ...
  special bond factors lj:    0        0        0       
  special bond factors coul:  0        0        0       
     2 = max # of 1-2 neighbors
     1 = max # of 1-3 neighbors
     1 = max # of 1-4 neighbors
     2 = max # of special neighbors
  special bonds CPU = 1.950 seconds
  read_restart CPU = 2.305 seconds
include 	in.setup
variable	out_freq equal 1000
variable	out_freq2 equal 10000
variable	out_freq3 equal 1000

timestep	2.0

neigh_modify    delay 7 every 1

include		in.tip4p
# This is TIP4P/Ice

# create groups ###
group ox type 2
288 atoms in group ox
group hy type 1
576 atoms in group hy

# set charges - beside manually ###
set group ox charge -1.1794
Setting atom values ...
  288 settings made for charge
set group hy charge 0.5897
Setting atom values ...
  576 settings made for charge

# ### TIP3P Potential Parameters ###
pair_style lj/cut/tip4p/long/omp 2 1 1 1 0.1577 8.5
pair_coeff 1 1*2 0.000 0.000
pair_coeff 2 2 0.21084 3.1668
bond_style  harmonic
bond_coeff  1 450 0.9572
angle_style harmonic
angle_coeff 1 55 104.52
kspace_style pppm/tip4p/omp 1.0e-5
pair_modify tail yes

thermo          ${out_freq}
thermo          1000
thermo_style    custom step temp pe etotal epair emol press lx ly lz vol pxx pyy pzz pxy pxz pyz enthalpy

restart 	${out_freq3} restart.lmp.${pid} restart2.lmp.${pid}
restart 	1000 restart.lmp.${pid} restart2.lmp.${pid}
restart 	1000 restart.lmp.0 restart2.lmp.${pid}
restart 	1000 restart.lmp.0 restart2.lmp.0


include         in.dump
dump            myDump all atom ${out_freq2} dump.water.${pid}
dump            myDump all atom 10000 dump.water.${pid}
dump            myDump all atom 10000 dump.water.0
dump            myDump2 all dcd ${out_freq2} dump.dcd
dump            myDump2 all dcd 10000 dump.dcd
dump_modify     myDump append yes
dump_modify     myDump2 append yes


variable natoms 	equal  "count(all)"                        # NUMBER ATOMS
variable H      	equal  "enthalpy/v_natoms"                 # ENTHALPY-per-atom
variable Vol      	equal  "vol/v_natoms"                 # volume-per-atom
fix AVG all 		ave/time ${out_freq} 1 ${out_freq} v_Vol v_H file vol_enthalpy.dat
fix AVG all 		ave/time 1000 1 ${out_freq} v_Vol v_H file vol_enthalpy.dat
fix AVG all 		ave/time 1000 1 1000 v_Vol v_H file vol_enthalpy.dat


timer           timeout 23:50:00 every 1000
New timer settings: style=normal  mode=nosync  timeout=23:50:00

fix 		1 all shake 1e-6 200 0 b 1 a 1
       0 = # of size 2 clusters
       0 = # of size 3 clusters
       0 = # of size 4 clusters
     288 = # of frozen angles
  find clusters CPU = 1.405 seconds
fix             2 all nph iso ${pressure} ${pressure} ${pressureDamp}
fix             2 all nph iso -750 ${pressure} ${pressureDamp}
fix             2 all nph iso -750 -750 ${pressureDamp}
fix             2 all nph iso -750 -750 1000
fix             3 all temp/csvr ${temperature} ${temperature} ${tempDamp} ${seed}
fix             3 all temp/csvr 200.21 ${temperature} ${tempDamp} ${seed}
fix             3 all temp/csvr 200.21 200.21 ${tempDamp} ${seed}
fix             3 all temp/csvr 200.21 200.21 100 ${seed}
fix             3 all temp/csvr 200.21 200.21 100 745823

run             250000
PPPM initialization ...
  extracting TIP4P info from pair style
  using 12-bit tables for long-range coulomb (../kspace.cpp:340)
  G vector (1/distance) = 0.37174661
  grid = 24 25 27
  stencil order = 5
  estimated absolute RMS force accuracy = 0.0031328837
  estimated relative force accuracy = 9.4345863e-06
  using double precision FFTW3
  3d grid and FFT values/proc = 2730 384
Last active /omp style is kspace_style pppm/tip4p/omp
Neighbor list info ...
  update every 1 steps, delay 7 steps, check yes
  max neighbors/atom: 2000, page size: 100000
  master list distance cutoff = 10.8154
  ghost atom cutoff = 10.8154
  binsize = 5.4077, bins = 4 5 5
  1 neighbor lists, perpetual/occasional/extra = 1 0 0
  (1) pair lj/cut/tip4p/long/omp, perpetual
      attributes: half, newton on, omp
      pair build: half/bin/newton/omp
      stencil: half/bin/3d
      bin: standard
Per MPI rank memory allocation (min/avg/max) = 9.205 | 9.213 | 9.222 Mbytes
Step Temp PotEng TotEng E_pair E_mol Press Lx Ly Lz Volume Pxx Pyy Pzz Pxy Pxz Pyz Enthalpy 
19250000    214.43939    -4162.555   -3795.0132    -4162.555            0   -726.15834    18.690572    22.015025    22.802454    9382.6035   -213.72183   -894.27377   -1070.4794    512.00393    718.10388   -733.64319   -3894.3776 
19251000    206.05858   -4171.9043    -3818.727   -4171.9043            0   -1176.5918    18.677192    21.999265     22.78613    9362.4672    -584.2605   -1767.5819    -1177.933    12.173615     159.2455   -47.036183   -3979.3811 
19252000    198.79245   -4164.2213   -3823.4979   -4164.2213            0   -698.01929    18.643485    21.959563    22.745008    9311.8699   -1642.1591     405.7333    -857.6321    942.12505   -40.702212   -261.90837   -3918.2917 
19253000    197.30186   -4163.3428   -3825.1741   -4163.3428            0   -155.93482    18.646139    21.962689    22.748246    9315.8466   -559.65374   -337.34891    429.19819    856.63315   -285.59194   -6.0238512   -3846.3598 
19254000    193.14789   -4183.2926   -3852.2438   -4183.2926            0   -2107.9281    18.727365    22.058362    22.847342    9438.1228   -1815.4696   -2765.0051   -1743.3095     623.2903    1314.5114   -509.73641   -4142.3903 
19255000     203.4627   -4158.4659   -3809.7378   -4158.4659            0   -741.75142    18.684711    22.008122    22.795304    9373.7804   -1541.3268    -640.5238   -43.403691    24.186815   -393.28809   -44.025155   -3911.1404 
19256000    201.80663    -4155.054   -3809.1643    -4155.054            0    41.494116    18.672401    21.993621    22.780285    9355.2642    155.09043    391.29688   -421.90496    314.80509    136.98464   -2.6610723    -3803.503 
19257000    205.18508   -4169.8785   -3818.1983   -4169.8785            0   -283.16787    18.687712    22.011657    22.798965    9378.2974   -250.39961   -604.94342    5.8394113    666.40226    276.47088   -452.42062    -3856.928 
19258000    205.97471    -4161.101   -3808.0674    -4161.101            0    417.73525    18.636987    21.951909    22.737081    9302.1368    255.51165    2505.8278   -1508.1337    577.36646    863.72798   -1155.2617   -3751.3966 
19259000    217.75745   -4161.1959    -3787.967   -4161.1959            0   -144.30468    18.691511    22.016131      22.8036    9384.0182    194.53142   -261.53817   -365.90727    538.76287    152.15606   -1215.6471    -3807.716 
19260000    205.61525   -4171.1763   -3818.7588   -4171.1763            0   -243.80989    18.697849    22.023597    22.811333    9393.5677   -948.93934   -21.594602    239.10428    558.30692   -284.68829   -363.89066   -3852.1596 
19261000     200.0472   -4165.7944   -3822.9204   -4165.7944            0    800.50263    18.667693    21.988077    22.774542    9348.1902    909.95428     951.4898     540.0638    374.58813    -160.6369    759.79893   -3713.7848 
19262000    197.60309   -4122.1607   -3783.4758   -4122.1607            0    -1723.908    18.713643      22.0422    22.830601    9417.3911   -1320.6326   -2567.2865   -1283.8048   -221.50272     581.1771    -121.6287   -4020.2425 
19263000    209.73108   -4165.1383   -3805.6664   -4165.1383            0   -1308.8648    18.706123    22.033343    22.821427    9406.0434     223.9808   -1753.9588   -2396.6164    771.64806    120.10931   -393.55146   -3985.2132 
19264000    198.87426   -4178.5059   -3837.6422   -4178.5059            0    8.4546753    18.662243    21.981657    22.767893    9340.0048   -1664.4903     1183.587    506.26732    357.13444    235.85741     887.9939   -3836.4906 
19265000    197.40212   -4155.3846   -3817.0441   -4155.3846            0    -1201.506    18.708213    22.035804    22.823976    9409.1961   -1445.8952   -1156.2853   -1002.3374    325.52337    301.17439    737.43012   -3981.9189 
19266000    203.57928   -4168.1365   -3819.2085   -4168.1365            0   -1464.0526    18.699334    22.025346    22.813144    9395.8059   -813.86267   -1285.6388   -2292.6563    233.69112    263.10396   -417.53169    -4019.825 
19267000     207.3289   -4174.0682   -3818.7136   -4174.0682            0   -109.25858    18.659332    21.978228    22.764341     9335.635   -1044.6275    807.32928   -90.477541    185.88007    1140.8753     269.4554   -3833.5892 
19268000    187.33913   -4163.7552   -3842.6623   -4163.7552            0    575.16822    18.626061    21.939039    22.723751    9285.7852    1332.6413    342.25875    50.604572    74.834015    383.74906   -598.76016   -3764.7709 
19269000    195.84515   -4152.8365   -3817.1646   -4152.8365            0    397.68051    18.619153    21.930903    22.715323    9275.4574    -326.0186    1347.9105    171.14959    250.50705    755.50697   -1260.0598   -3763.3692 
19270000    194.68949   -4165.5234   -3831.8322   -4165.5234            0   -1029.1282    18.682638    22.005679    22.792774    9370.6596   -1323.7252   -711.85423   -1051.8051    1679.3349   -1149.1218    32.113862   -3972.4744 
19271000    202.56384    -4179.506   -3832.3185    -4179.506            0   -1846.3379    18.702725    22.029339     22.81728    9400.9172   -241.69143   -2001.3809   -3295.9414    880.17763    337.02414    346.10888   -4085.4565 
19272000    211.39339   -4161.6539   -3799.3329   -4161.6539            0   -139.40651    18.670628    21.991533    22.778122    9352.5997   -767.38583    940.13971    -590.9734    1210.2615    510.03095    1415.9278   -3818.3477 
19273000    197.07783   -4175.5339   -3837.7492   -4175.5339            0    528.11745     18.65552    21.973738    22.759691    9329.9147    475.85567    1549.7466    -441.2499    572.85348    263.17247   -32.942475   -3765.8897 
19274000    215.83271   -4145.0308   -3775.1009   -4145.0308            0   -890.54316    18.653819    21.971734    22.757615    9327.3621    687.81614   -2222.5831   -1136.8626    1033.4552   -303.24717   -626.99233   -3896.2415 
19275000    204.74195   -4163.4143   -3812.4936   -4163.4143            0   -657.94513    18.672516    21.993757    22.780426    9355.4376   -348.70142    150.11851   -1775.2525    535.46904   -213.37868   -1114.2069   -3902.2633 
19276000    208.21155   -4148.9629   -3792.0954   -4148.9629            0   -488.62131    18.672933    21.994249    22.780935    9356.0646    148.54257    2.5062746   -1616.9128    1159.8817    525.90527    428.07322   -3858.7671 
19277000    208.07127   -4153.9189   -3797.2919   -4153.9189            0   -649.52459    18.669208    21.989861     22.77639    9350.4665   -1008.9602   -116.06091   -823.55271    647.01251   -684.46827   -469.85552   -3885.8656 
19278000    205.15911   -4184.5377    -3832.902   -4184.5377            0   -1116.3012    18.701053    22.027371    22.815241    9398.3971   -370.72147   -991.56333   -1986.6188    440.26034   -178.58535   -284.35477    -3985.909 
19279000    203.84602   -4200.2392   -3850.8541   -4200.2392            0   -105.65096    18.613452    21.924188    22.708368    9266.9407   -292.11286    625.36969   -650.20972    593.62299   -620.47178    377.75564   -3865.1327 
19280000    193.21822   -4130.2336   -3799.0641   -4130.2336            0   -1199.7949    18.736884    22.069574    22.858954    9452.5213   -401.45164   -451.70079   -2746.2322     743.2108   -425.79763    637.53771   -3964.4623 
19281000    208.47362   -4142.3512   -3785.0345   -4142.3512            0   -921.11858    18.741611    22.075143    22.864722    9459.6784   -702.85287   -1346.6901   -713.81275    288.50055   -555.10153   -539.20635   -3912.1118 
19282000    199.77827   -4131.4844   -3789.0713   -4131.4844            0   -1494.7607     18.66766    21.988038    22.774502    9348.1408   -1362.9311   -623.10514   -2498.2457    62.440339    1054.5198    172.92196   -3992.8566 
19283000    208.76921   -4167.7481   -3809.9249   -4167.7481            0   -731.56953     18.69643    22.021925    22.809601    9391.4282   -219.48385   -565.71871    -1409.506    1809.9332    1088.0174   -405.69339   -3910.1238 
19284000    193.93315   -4174.6504   -3842.2556   -4174.6504            0   -1589.9706    18.706417    22.033688    22.821785    9406.4858   -1170.1722   -1937.5608   -1662.1787    390.29143   -47.348177    474.28129   -4060.3741 
19285000    194.52447   -4184.6114   -3851.2031   -4184.6114            0    451.35312    18.619406    21.931201    22.715632    9275.8355    -501.6485     1513.893    341.81487    529.33175   -271.61432   -531.80615   -3790.1448 
19286000    196.87303   -4176.3442   -3838.9106   -4176.3442            0   -1672.5509     18.68553    22.009087    22.796303    9375.0129   -2110.1235   -1097.6216   -1809.9077    213.21966    564.53733    267.63067     -4067.59 
19287000    206.67429   -4161.7445   -3807.5119   -4161.7445            0    -258.0694    18.680327    22.002958    22.789955    9367.1833    356.91643    904.64362   -2035.7682    805.01416    170.99366   -764.24469   -3842.7669 
19288000    197.11465   -4156.3644   -3818.5166   -4156.3644            0   -772.02072    18.708468    22.036105    22.824288    9409.5811   -346.73101    170.19851   -2139.5297    799.79579   -64.032562   -582.46286   -3924.4603 
19289000    216.63193   -4174.6467    -3803.347   -4174.6467            0   -2270.2017    18.758859    22.095458    22.885764    9485.8187   -2551.2908   -1840.8385   -2418.4758    352.25864   -247.41008    228.46182   -4117.4088 
19290000    204.90266   -4176.9525   -3825.7563   -4176.9525            0   -1727.2419    18.688233     22.01227      22.7996    9379.0813    -1047.926   -3123.9727   -1009.8271    835.01362   -1282.9406   -732.15761   -4062.0159 
19291000     191.5877   -4143.9882   -3815.6134   -4143.9882            0   -726.45768    18.704609    22.031559    22.819579     9403.759   -238.02062   -666.33195   -1275.0205    282.40863    701.56618   -1010.7451   -3915.2429 
19292000    201.68992   -4165.6365   -3819.9469   -4165.6365            0   -506.82616    18.699215    22.025205    22.812998    9395.6256   -388.26962    519.78137   -1651.9902    868.99923   -75.317883    223.60651    -3889.395 
19293000    198.54547   -4140.0263   -3799.7262   -4140.0263            0   -1684.9196    18.759026    22.095655    22.885968    9486.0725   -826.86732   -2077.3804   -2150.5111    590.14908    849.78238    566.97986   -4032.8258 
19294000    205.69112   -4163.4415    -3810.894   -4163.4415            0   -2121.7834    18.750067    22.085102    22.875037    9472.4873   -2499.8854   -2255.9205   -1609.5443    1066.5577   -32.673109    260.47227    -4104.011 
19295000    201.34833   -4201.7025   -3856.5984   -4201.7025            0   -607.44829    18.640505    21.956053    22.741373    9307.4049   -814.41135   -511.95016   -495.98337     1020.755    71.466934   -1132.6509   -3939.0528 
19296000     207.8341   -4155.5602   -3799.3397   -4155.5602            0     -1569.59    18.684086    22.007386    22.794542    9372.8395     -1487.21   -2088.2328   -1133.3272    145.53508   -542.33597   -743.89443   -4013.8921 
19297000    191.78956   -4148.3261   -3819.6053   -4148.3261            0    -997.4168     18.68041    22.003055    22.790056    9367.3077   -122.56899    -776.3324    -2093.349     316.5093    972.74134   -204.86597    -3955.865 
19298000     203.8957   -4147.2871   -3797.8168   -4147.2871            0   -1964.8721    18.704686     22.03165    22.819674    9403.8759   -1934.0876   -2704.1838   -1256.3447   -873.04842    1136.1282    72.598523    -4067.291 
19299000     208.3614   -4151.5588   -3794.4345   -4151.5588            0    173.34468     18.63436    21.948815    22.733876    9298.2036    400.33718    -56.34293    176.03979    187.15222    771.27649   -427.29343   -3770.9281 
19300000    194.20889   -4147.9315   -3815.0641   -4147.9315            0   -535.15633     18.63425    21.948685    22.733741     9298.038   -1074.0107   -685.31523    153.85693     589.5445   -108.83635   -397.75954   -3887.6326 
19301000    216.10371   -4158.0583   -3787.6639   -4158.0583            0   -1637.8565    18.685595    22.009162    22.796382    9375.1099   -1738.7559    -1016.335   -2158.4786    5.6813271   -201.10071    876.62411   -4011.6021 
19302000    199.44719   -4153.7248   -3811.8791   -4153.7248            0   -689.65773    18.618836     21.93053    22.714937    9274.9842   -1612.3612    234.36071   -690.97271    104.25068   -774.05986    463.51402   -3905.1664 
19303000    199.18057    -4159.788   -3818.3993    -4159.788            0   -602.18338    18.669983    21.990773    22.777335    9351.6304   -389.44134    -529.0004   -888.10839   -240.66934    712.30402    206.84429   -3900.5275 
19304000     210.1499   -4147.1498   -3786.9601   -4147.1498            0    -858.4502    18.645257     21.96165     22.74717    9314.5255   -2205.7317    -120.0143   -249.60457    1469.4579    586.01977   -4.6462611   -3903.5744 
19305000    195.45471   -4143.2456   -3808.2429   -4143.2456            0   -920.90991    18.628188    21.941545    22.726346    9288.9674   -1553.5349   -511.13638   -698.05844   -405.74348     103.2944    284.92724   -3932.9986 
19306000    202.33418   -4122.4424   -3775.6485   -4122.4424            0   -677.25525    18.656501    21.974894    22.760887     9331.386   -544.90836   -801.71618   -685.14121    240.22764    313.49036    415.58385   -3867.8153 
19307000    209.30324   -4162.9847   -3804.2461   -4162.9847            0    726.30264    18.595902    21.903517    22.686957    9240.7528   -5.9149074    350.34853    1834.4743    128.00632   -384.31509   -338.13669   -3706.3645 
19308000    201.87843   -4146.7479   -3800.7352   -4146.7479            0     -399.679    18.585336    21.891071    22.674067    9225.0106   -757.18369   -14.505157   -427.34816   -364.29987   -417.65163    756.63897    -3854.507 
19309000    205.36104   -4159.3407   -3807.3589   -4159.3407            0   -1914.6445     18.71066    22.038686    22.826961    9412.8884   -1989.5026   -2048.3085   -1706.1225   -131.89669   -1030.6765   -25.775748   -4070.1961 
19310000    195.39342   -4183.5441   -3848.6464   -4183.5441            0   -936.93508    18.623652    21.936202    22.720812    9282.1835   -1642.0789   -970.42887    -198.2975     817.4629   -206.68827   -361.71509   -3975.4804 
19311000    196.37862   -4152.3787   -3815.7924   -4152.3787            0   -1600.6805    18.631572    21.945531    22.730474    9294.0302    -2666.701   -1769.5525   -365.78818    254.71505   -479.61259    184.89693   -4032.7549 
19312000    196.22143   -4136.6442   -3800.3274   -4136.6442            0   -831.72757    18.692806    22.017656    22.805179    9385.9678   -693.60603   -275.28242   -1526.2943    628.17267   -614.60244   -153.26372   -3914.1781 
19313000    206.19342   -4137.4623   -3784.0538   -4137.4623            0   -528.00523    18.640598    21.956162    22.741486    9307.5442   -758.58883   -714.96923   -110.45763   -1.6199487    -1132.317   -109.75961   -3855.7258 
19314000    195.63232   -4161.7304   -3826.4233   -4161.7304            0   -811.33119    18.636476    21.951306    22.736457    9301.3704   -1069.8363   -902.22347   -461.93381    569.05559   -1639.2604   -954.32831   -3936.4811 
19315000    194.78189   -4174.7952   -3840.9457   -4174.7952            0   -1238.3976    18.626551    21.939617    22.724349    9286.5189   -567.48498   -1124.3997    -2023.308    590.68204    440.64985   -585.88384   -4008.6673 
19316000    205.44193   -4141.0942   -3788.9737   -4141.0942            0   -741.88211    18.639486    21.954852    22.740129    9305.8787   -256.13222   -419.53835   -1549.9758    1163.1885   -371.23414    953.28511   -3889.6595 
19317000     191.4571    -4179.676   -3851.5251    -4179.676            0   -516.86625    18.611232    21.921573     22.70566    9263.6248   -901.46598   -817.01865    167.88587    219.09984    70.516854    814.22703   -3921.3539 
19318000    198.79423   -4163.2578   -3822.5312   -4163.2578            0   -83.090181    18.618732    21.930407     22.71481    9274.8291    155.58438   -244.91779   -159.93713    111.28615     1874.526    534.41157   -3833.7703 
19319000    196.93052   -4186.1102    -3848.578   -4186.1102            0   -607.46352    18.660054    21.979079    22.765222    9336.7187   -268.47898   -960.37734   -593.53423    853.62361   -675.32552   -161.63629   -3931.2942 
19320000    203.40564   -4160.6897   -3812.0594   -4160.6897            0    -1518.066    18.666432    21.986591    22.773003    9346.2952    -1160.263   -1133.0746   -2260.8604   -451.81123   -243.45505   -1185.8968   -4018.9811 
19321000    204.39789     -4160.68    -3810.349     -4160.68            0   -325.36262    18.608999    21.918942    22.702935    9260.2903   -288.27018    2.3677305   -690.18541   -301.83306     82.92751    526.74672   -3854.2898 
19322000     216.8488    -4143.852   -3772.1806    -4143.852            0   -82.665891    18.632921    21.947119     22.73212    9296.0489   -620.95343   -374.55128    747.50704    116.54299   -525.16606    177.53899   -3783.3879 
19323000    198.15847   -4182.0111   -3842.3743   -4182.0111            0   -272.98277    18.631278    21.945184    22.730115    9293.5901    370.89737   -571.50546   -618.34022   -741.39092   -621.13263   -282.02624   -3879.3737 
19324000    205.24425   -4172.1168   -3820.3352   -4172.1168            0   -116.53574    18.611101    21.921419      22.7055    9263.4295   -103.01155    289.27236   -535.86802   -746.60888   -964.06876   -130.23174   -3836.0789 
19325000    198.00697   -4159.4019   -3820.0247   -4159.4019            0   -848.02491    18.638518    21.953713    22.738949    9304.4296   -1323.7391    878.47085   -2098.8065    13.235507   -2.5823899    -151.3247   -3935.0979 
19326000    188.15045   -4148.8652   -3826.3818   -4148.8652            0   -809.49537     18.64481    21.961123    22.746624    9313.8544   -457.64098     258.1147   -2228.9598    138.91751    900.24937   -1192.4423    -3936.338 
19327000    191.62807   -4159.4588   -3831.0148   -4159.4588            0    278.16225    18.604575    21.913732    22.697538    9253.6885    99.320414    377.71554     357.4508    186.60271     204.2822    637.65563   -3793.4753 
19328000    201.64841   -4125.2045    -3779.586   -4125.2045            0   -742.84193    18.658998    21.977835    22.763934    9335.1338   -1120.7533   -1298.9268     191.1543    204.45074    -47.04177    848.85452    -3880.719 
19329000    202.20132   -4161.9841   -3815.4179   -4161.9841            0   -378.64382    18.668866    21.989458    22.775973    9349.9522   -52.723312    -1137.984    54.775812    134.60839   -440.78221    670.10484   -3867.0496 
19330000    209.49778   -4136.9298   -3777.8577   -4136.9298            0   -1258.4386    18.714658    22.043395    22.831839     9418.923   -2118.8898    214.81068   -1871.2366    674.16679   -217.55794   -263.37074   -3950.7235 
19331000    205.72325   -4163.9508   -3811.3482   -4163.9508            0   -909.07722    18.626211    21.939216    22.723933    9286.0093    -2151.507    52.932109   -628.65672   -565.65743    200.98357    316.95765   -3934.4617 
19332000    190.85259   -4161.0498    -3833.935   -4161.0498            0   -1284.0146    18.708953    22.036675    22.824879    9410.3122   -1126.9581   -1083.2181   -1641.8675   -483.30321     1260.988   -648.97651   -4010.1528 
19333000     192.5316   -4163.0225   -3833.0299   -4163.0225            0   -203.32942    18.654584    21.972636    22.758549    9328.5106   -1373.1689     1144.679   -381.49839    23.068095    1460.1705    483.05115   -3860.6922 
19334000    209.19507   -4139.8111   -3781.2579   -4139.8111            0   -1361.2523    18.730882    22.062505    22.851633    9443.4416   -1826.2112   -582.18214   -1675.3634    287.76671   -427.84593   -591.66858   -3968.7336 
19335000      202.939   -4168.8849   -3821.0544   -4168.8849            0   -1827.9163    18.689971    22.014317    22.801721    9381.6982   -2157.1782   -2021.2871   -1305.2835   -11.607187   -442.11078   -192.23506   -4071.1543 
19336000     203.4508   -4168.0242   -3819.3165   -4168.0242            0     525.1114    18.621656    21.933851    22.718377    9279.1989    981.11453    740.15059   -145.93093    368.90489   -356.26587    219.38573   -3748.2544 
19337000     200.7616    -4170.118   -3826.0195    -4170.118            0   -1019.3692    18.681538    22.004384    22.791433    9369.0052   -1373.4456   -818.24235    -866.4197    159.74875    557.47495   -40.038931   -3965.3034 
19338000    206.21935   -4148.8186   -3795.3657   -4148.8186            0   -724.19621    18.652224    21.969856     22.75567    9324.9702   -749.65852   -93.947798   -1328.9823    34.562653    496.28695   -176.50594   -3893.8528 
19339000    186.38972   -4157.6486    -3838.183   -4157.6486            0   -1636.8127    18.701909    22.028378    22.816285    9399.6873   -1756.6253   -897.87154   -2255.9414   -324.72184    392.22929   -242.53263   -4062.5652 
19340000    209.05542   -4171.6357   -3813.3218   -4171.6357            0   -777.22062    18.621753    21.933966    22.718495    9279.3444   -1750.8457   -337.21954   -243.59662   -483.46969   -232.89455    68.719106   -3918.5029 
19341000    191.03183   -4162.0179   -3834.5959   -4162.0179            0   -766.43429    18.651912    21.969489    22.755289    9324.5022   -1193.8757    10.562662   -1115.9898    724.56561   -429.92131   -178.47367    -3938.822 
19342000     207.4822    -4156.691   -3801.0736    -4156.691            0   -1104.8829    18.653315    21.971141       22.757     9326.606   -870.42812    -1209.806   -1234.4148   -309.81183   -225.97425    -699.6118   -3951.3587 
19343000    206.06243   -4188.3556   -3835.1717   -4188.3556            0   -1349.4302    18.702401    22.028958    22.816885    9400.4287   -1146.5773   -1321.9408   -1579.7725   -220.30341    243.93973   -269.48374   -4020.1726 
19344000    200.37064   -4161.2989   -3817.8704   -4161.2989            0    -79.35774    18.655504     21.97372    22.759672    9329.8909    539.56995   -1343.9693    566.32611   -21.286184   -1717.3441   -195.54347   -3828.6684 
19345000    192.06249   -4157.7087   -3828.5202   -4157.7087            0   -24.583629    18.597379    21.905255    22.688758    9242.9538   -511.17862    176.82495    260.60278    418.97786    481.30146   -28.707518    -3831.834 
19346000    202.36053   -4139.6396   -3792.8006   -4139.6396            0   -209.20557    18.648923    21.965967    22.751642    9320.0196   -184.44135    618.55539   -1061.7308    1108.0575    1012.0002    317.05963   -3821.2365 
19347000    206.21214   -4160.3236    -3806.883   -4160.3236            0   -1542.4767    18.697444    22.023119    22.810838    9392.9564   -1608.6056   -1693.9955   -1324.8289    273.02142    113.78737    760.05991   -4018.1817 
19348000    205.91449   -4198.6522   -3845.7218   -4198.6522            0   -94.306135    18.604828     21.91403    22.697846    9254.0652   -317.13826    808.98133   -774.76147   -500.13655   -196.20522   -16.161535   -3858.4494 
19349000    209.26353   -4166.3268   -3807.6563   -4166.3268            0   -2064.6688    18.696851    22.022421    22.810114    9392.0626   -2439.2654   -3663.3096   -91.431451   -409.33827   -67.888826    296.51071   -4090.4614 
19350000    189.94409   -4161.0286   -3835.4709   -4161.0286            0   -619.41515    18.661737    21.981062    22.767276     9339.246   -565.76104   -225.83233   -1066.6521    723.77155    1097.2696   -667.33739   -3919.8373 
19351000    197.13158   -4184.6001   -3846.7234   -4184.6001            0   -228.11228    18.617517    21.928976    22.713327    9273.0125   -730.48279    164.79143   -118.64546    487.83543    949.35002   -625.39678   -3877.5727 
19352000    207.57295   -4163.8435   -3808.0705   -4163.8435            0   -184.03319    18.628134    21.941481     22.72628    9288.8859   -858.86541   -534.55677    841.32262    402.24321    483.22486   -738.99078   -3833.0013 
19353000    212.79944   -4169.6352   -3804.9042   -4169.6352            0   -1167.1351    18.694971    22.020206    22.807821    9389.2296   -337.79062   -1293.8818    -1869.733    1003.3895    119.02627    415.34236   -3964.7227 
19354000     190.1633   -4146.4852   -3820.5518   -4146.4852            0   -1265.6933    18.673107    21.994454    22.781147    9356.3267   -193.56585   -1222.8136   -2380.7004   -36.116497    82.202892    824.46909   -3993.2587 
19355000    208.21026   -4161.7341   -3804.8689   -4161.7341            0   -312.99634    18.619236    21.931001    22.715425    9275.5822    863.43295   -1323.6328   -478.78917    506.48572   -100.18956    425.94133   -3847.2094 
19356000     186.6024   -4160.0299   -3840.1998   -4160.0299            0   -721.79862    18.629232    21.942775    22.727619    9290.5289    -918.7702    371.93479   -1618.5604    103.03524   -17.457884   -699.72682   -3937.9983 
19357000    190.76669   -4162.2966   -3835.3291   -4162.2966            0   -1073.5664    18.649219    21.966317    22.752004    9320.4645   -1135.2968   -561.54396   -1523.8584   -281.41396    294.04414    8.8212583   -3981.2583 
19358000     188.1192   -4139.7647   -3817.3348   -4139.7647            0   -608.03584    18.658772    21.977569    22.763658    9334.7943   -1105.4752    61.988538   -780.62089    629.92126   -102.52656   -607.20589   -3900.1118 
19359000    202.52076   -4166.6167    -3819.503   -4166.6167            0   -1364.0056    18.703583     22.03035    22.818327    9402.2113      -1295.3   -1626.5244   -1170.1923   -484.43467   -220.38946    -364.0229   -4006.5377 
19360000    197.11335   -4167.5358   -3829.6903   -4167.5358            0   -1127.8524    18.671624    21.992707    22.779338    9354.0969   -719.15068    -1877.511   -786.89561   -379.44909    223.01891    837.52132   -3983.5518 
19361000     205.1652   -4163.3476   -3811.7015   -4163.3476            0    -1104.402    18.655335     21.97352    22.759465    9329.6364   -1932.7913   -1132.7951    -247.6197    606.57756   -1079.4829    717.98129   -3961.9699 
19362000    196.79796   -4153.3498   -3816.0449   -4153.3498            0   -344.72311    18.672952    21.994271    22.780958    9356.0932   -290.93569   -565.84972   -177.38393    823.58826   -109.43008   -59.720308    -3863.082 
19363000    188.90464   -4148.1313   -3824.3552   -4148.1313            0   -973.93455    18.644356    21.960588     22.74607    9313.1741   -821.19289   -233.20756   -1867.4032    596.75441    81.391846   -131.76627    -3956.638 
19364000    212.73852   -4151.6885    -3787.062   -4151.6885            0    149.26416    18.656926    21.975394    22.761406     9332.024   -36.921128    196.19684    288.51677   -129.27871   -926.23638    557.02291   -3766.7474 
19365000    205.35184   -4149.0034   -3797.0374   -4149.0034            0   -499.49406     18.66953    21.990241    22.776783    9350.9506   -1101.5285   -761.85638    364.90274   -332.20024    448.29916   -517.41396   -3865.1554 
19366000    207.40551   -4185.0637   -3829.5778   -4185.0637            0   -808.08709    18.651963    21.969548    22.755351    9324.5786    -1558.071   -671.07126   -195.11898    375.67842   -721.97868    114.20453   -3939.4691 
19367000    197.83004    -4180.395   -3841.3211    -4180.395            0   -1494.8751     18.70631    22.033562    22.821654    9406.3242   -1629.2889   -2090.6707   -764.66563    176.34808    76.704656    291.38805   -4046.3904 
19368000    196.84381   -4171.9849   -3834.6014   -4171.9849            0   -592.49424    18.592368    21.899354    22.682646    9235.4852    14.726946   -2008.2645    216.05485    283.57421   -525.74656    491.36793   -3914.4045 
19369000    208.94768   -4166.2086   -3808.0795   -4166.2086            0   -1100.2944    18.679869    22.002418    22.789396    9366.4939   -1682.2397   -686.69029   -931.95317    55.270258   -289.25043   -732.56488   -3958.3805 
19370000    200.73546   -4169.4456   -3825.3919   -4169.4456            0   -445.70848    18.636726    21.951602    22.736763    9301.7458   -93.022945    133.75474   -1377.8572    199.16141    215.72476      290.895   -3885.8551 
19371000    203.90843    -4172.078    -3822.586    -4172.078            0    168.80024    18.596627     21.90437    22.687842    9241.8336   -447.42936    857.32048    96.509609    338.00778    -138.2998    295.86991   -3799.8346 
19372000    210.81637   -4150.9892   -3789.6572   -4150.9892            0   -1051.4232    18.666939    21.987189    22.773622    9347.0577   -1069.7412    -1297.869   -786.65952    205.03275   -164.75548   -600.72082   -3932.9843 
19373000    192.82632   -4173.8627    -3843.365   -4173.8627            0   -1009.6624    18.661775    21.981106    22.767322    9339.3027   -1179.7691   -960.35341   -888.86475   -426.91076   -563.09114    1340.0199   -3980.8852 
19374000    191.82862   -4133.3061   -3804.5184   -4133.3061            0   -1018.6377     18.67693    21.998956    22.785811    9362.0736    -1228.281   -606.57477   -1221.0572    561.78525    785.76878   -463.15554   -3943.5993 
19375000    216.33133   -4156.7056   -3785.9211   -4156.7056            0   -1607.6708    18.634438    21.948907    22.733971    9298.3205   -2033.2252   -1809.6492   -980.13798    642.48692    106.49596    357.34692   -4003.9317 
19376000    195.68574   -4146.7144   -3811.3157   -4146.7144            0   -701.40786    18.599942    21.908275    22.691886     9246.777    20.096813   -62.858014   -2061.4624   -176.03182    856.32037    232.72076   -3905.9039 
19377000    195.77119    -4141.151   -3805.6059    -4141.151            0   -1085.1007    18.631399    21.945327    22.730263    9293.7715    -169.3998   -1161.3839   -1924.5183    -341.4283   -119.23963    882.90533   -3952.6806 
19378000    195.20243   -4147.4165   -3812.8462   -4147.4165            0   -275.23074    18.664566    21.984393    22.770727    9343.4934   -720.06658    146.10624   -251.73189    1285.2642   -102.57147    459.16965   -3850.3506 
19379000    212.83926   -4163.3771   -3798.5779   -4163.3771            0   -1321.2062    18.683781    22.007026    22.794169    9372.3802   -2144.9425    562.62374   -2381.2998    855.64407    213.82413   -947.36601    -3979.169 
19380000    192.81341   -4174.3547   -3843.8791   -4174.3547            0   -772.05789    18.665664    21.985687    22.772067    9345.1427   -971.37709    -59.58526   -1285.2113   -286.53669   -8.2780138    114.76083   -3949.1023 
19381000     197.0073    -4178.989   -3841.3252    -4178.989            0   -2754.6088    18.766447    22.104395    22.895021    9497.3347   -2308.3775   -2634.3633   -3321.0855     574.4056    336.37967    768.69717    -4222.863 
19382000    207.81163   -4142.3842   -3786.2021   -4142.3842            0   -509.91458    18.713161    22.041632    22.830013    9416.6637   -674.61237   -43.565442   -811.56592    591.86253    417.66744    134.34122   -3856.2299 
19383000     191.4032   -4157.1878   -3829.1293   -4157.1878            0   -2313.3926    18.691815    22.016489     22.80397    9384.4754   -2341.2048   -2201.9552   -2397.0179    242.81277   -39.856439    -357.3655    -4145.747 
19384000     194.1582   -4173.2213   -3840.4407   -4173.2213            0   -1313.8352    18.648044    21.964933     22.75057    9318.7025   -830.94173   -266.86346   -2843.7004    996.70991     316.2647    438.78049   -4018.9958 
19385000    184.46075   -4168.5288   -3852.3694   -4168.5288            0   -2253.0148    18.698801    22.024717    22.812493    9395.0013   -1497.5172   -1851.5518   -3409.9755    437.54265    538.30307    530.48782   -4161.0695 
19386000     195.0216   -4149.4941   -3815.2338   -4149.4941            0    -469.7609    18.627275     21.94047    22.725232     9287.602   -373.00052    34.230183   -1070.5124     937.6401    485.13792   -625.67415    -3878.863 
19387000    202.90129   -4184.8514   -3837.0855   -4184.8514            0   -429.15576    18.647879    21.964739    22.750369    9318.4558   -464.76218   -954.37137    131.66627    130.97951   -393.53184   -144.41048   -3895.4079 
19388000    199.10973   -4156.6325   -3815.3652   -4156.6325            0   -553.31709    18.624811    21.937568    22.722226    9283.9166   -494.35027    333.45327   -1499.0543    468.11534    395.61763   -222.45098   -3890.2823 
19389000    188.28253   -4184.2887   -3861.5789   -4184.2887            0   -797.95791    18.660308    21.979378    22.765532       9337.1    -395.2589   -83.924357   -1914.6905    745.73848    209.55504   -321.10309   -3970.2384 
19390000    203.14134   -4169.4355   -3821.2582   -4169.4355            0   -107.92878    18.679287    22.001733    22.788687     9365.619    635.31044     -608.658   -350.43878   -90.354309   -417.43013    498.12193   -3835.9999 
19391000    190.51289   -4171.5339   -3845.0013   -4171.5339            0   -430.40064    18.648747    21.965761    22.751428    9319.7567    935.52178   -24.661114   -2202.0626    1035.7214    143.68449    -719.7422    -3903.501 
19392000    191.18843   -4162.1931   -3834.5027   -4162.1931            0    40.609078    18.638797     21.95404    22.739288     9304.846     925.2855   -873.53618    70.077915     230.9078   -81.157734   -230.60062    -3828.992 
19393000    191.92768   -4160.2749   -3831.3174   -4160.2749            0   -397.40245     18.63197       21.946     22.73096    9294.6263   -270.38576     211.8497   -1133.6713    134.19671    481.98016    575.79925   -3885.1863 
19394000    195.98432   -4157.9777   -3822.0673   -4157.9777            0   -1314.4759    18.677598    21.999744    22.786626    9363.0788   -876.37432   -1288.2949   -1778.7584    196.18325    551.67752    155.70136   -4001.5601 
19395000    210.95694   -4156.5317   -3794.9587   -4156.5317            0   -1080.2723    18.688912    22.013069    22.800429    9380.1035   -1351.1982   -586.06901   -1303.5498    971.02727    181.43192    -650.0507   -3942.7391 
19396000    195.83179   -4169.9135   -3834.2645   -4169.9135            0    745.52064    18.639529    21.954904    22.740182    9305.9438    1337.2646    220.14496    679.15235    164.47038   -564.36716    562.27205   -3733.0842 
19397000    194.40742   -4177.4465   -3844.2389   -4177.4465            0   -1366.6945     18.67817    22.000417    22.787324    9363.9384   -294.37066   -313.19232   -3492.5206      442.068   -221.05966    773.17174   -4030.8794 
19398000    189.13916   -4175.1114   -3850.9333   -4175.1114            0    793.53804      18.5497    21.849096    22.630591    9172.0466    23.738777    158.27442    2198.6009     -39.8773    40.113397    538.77303   -3744.7858 
19399000    212.53366   -4156.4993   -3792.2239   -4156.4993            0   -1185.1548    18.651187    21.968635    22.754405    9323.4155   -933.26482    -1460.834   -1161.3656   -847.37288    543.71095    1018.3629   -3953.3723 
19400000    195.09435   -4168.0235   -3833.6384   -4168.0235            0   -583.57739    18.639252    21.954577    22.739844    9305.5279   -869.63364   -97.116639   -783.98188    56.545431    403.59452    160.61469   -3912.8366 
19401000     204.0403   -4150.1203   -3800.4022   -4150.1203            0   -1069.7297    18.720835    22.050671    22.839376    9428.2538   -409.12561   -1009.9955   -1790.0679   -226.70363    -30.00724   -342.94345   -3947.4915 
19402000    197.67082   -4178.9826   -3840.1816   -4178.9826            0   -1955.8326    18.732064    22.063898    22.853075    9445.2296   -2522.6226   -2512.8669   -832.00828    2.3838639    -116.5793   -548.92853   -4109.5956 
19403000    208.15553   -4167.8585    -3811.087   -4167.8585            0   -1168.2536      18.6517    21.969239    22.755031    9324.1849   -1865.0677    -1298.078   -341.61517    151.93477    153.48385    -641.7529   -3969.9504 
19404000    193.38161   -4169.9208   -3838.4713   -4169.9208            0   -677.33924    18.625288    21.938129    22.722808    9284.6295    329.72191   -144.82056   -2216.9191     357.5262   -223.75711    1056.5731   -3930.1876 
19405000     202.6245   -4172.6915      -3825.4   -4172.6915            0    -441.3877    18.672171    21.993351    22.780005    9354.9195   -147.63436     48.54461   -1225.0734    480.87713    -248.5621   -774.22577   -3885.6194 
19406000    192.47481    -4187.867   -3857.9717    -4187.867            0   -148.06439    18.661393    21.980656    22.766856    9338.7294     -313.302    575.01032   -705.90148    590.19164   -55.564274    735.33771   -3878.1375 
19407000    194.67993   -4163.6965   -3830.0218   -4163.6965            0   -2206.3578    18.692842    22.017698    22.805223    9386.0222   -764.05403   -3302.4601   -2552.5592   -141.43236    1125.6064   -647.49124   -4132.0402 
19408000    207.87228   -4194.3184   -3838.0324   -4194.3184            0   -187.06497    18.625512    21.938393    22.723082    9284.9653   -895.34554    320.90419    13.246445    533.27742    -802.2504    589.45474   -3863.3632 
19409000    194.55255   -4156.0066   -3822.5502   -4156.0066            0   -522.35346    18.666424    21.986581    22.772993    9346.2833   -237.73754     -6.63925   -1322.6836    406.46591    -447.5215    1779.7024   -3893.7501 
19410000    208.81757   -4152.9062        -3795   -4152.9062            0    82.401181    18.657796     21.97642    22.762468    9333.3303    915.64418   -1370.8273    702.38666   -398.32743    202.58173    707.58356   -3783.7838 
19411000     187.3319   -4166.7605     -3845.68   -4166.7605            0   -1004.0985    18.655005    21.973131    22.759062    9329.1413   -1814.8351   -628.43765   -569.02273    314.96438   -189.84788     735.3442   -3982.2936 
19412000    194.22231    -4164.492   -3831.6016    -4164.492            0   -10.582376    18.633325    21.947596    22.732613    9296.6544   -23.147461    1063.0582   -1071.6578    773.74611   -457.39738    259.60598   -3833.0364 
19413000    198.35764   -4157.7048   -3817.7266   -4157.7048            0   -166.87807    18.653413    21.971256     22.75712    9326.7536    771.78913   -1205.4831   -66.940229    633.81244   -186.41213   -115.44105   -3840.4256 
19414000    196.76565   -4169.2059   -3831.9563   -4169.2059            0   -820.17143    18.689904    22.014238    22.801639    9381.5979   -217.91771   -867.51373   -1375.0828   -208.11997   -197.68499    816.78587    -3944.173 
19415000    189.79808   -4146.3571   -3821.0497   -4146.3571            0    656.14567    18.595918    21.903535    22.686976     9240.776    986.52993    549.55538     432.3517   -945.41767    204.63946   -407.53269   -3732.6228 
19416000    205.81796   -4161.4261   -3808.6612   -4161.4261            0   -411.55412    18.650634    21.967984     22.75373    9322.5863   -872.41668   -235.34634   -126.89934    833.93877    832.71187   -233.82998   -3864.6162 
19417000    200.79598    -4191.226   -3847.0685    -4191.226            0   -125.32052    18.608095    21.917878    22.701833    9258.9415   -492.74658   -141.67396    258.45897    5.2603135    868.68159    12.005758   -3863.9908 
19418000    203.79219   -4142.4388    -3793.146   -4142.4388            0   -677.75718    18.638244    21.953389    22.738614    9304.0179   -2258.7302    70.930807    154.52784    199.52572    1887.5366    527.61995   -3885.1106 
19419000    210.63441   -4151.0785   -3790.0584   -4151.0785            0   -1533.2434    18.691232    22.015802    22.803259    9383.5971   -1357.4095   -979.02768   -2263.2931    -141.3268    -410.7856    300.09309   -3999.8829 
19420000    212.42369   -4185.3191   -3821.2322   -4185.3191            0    228.41125    18.587046    21.893085    22.676153    9227.5566    763.96575   -598.15644    519.42445    277.25097   -88.996522   -673.66645   -3790.4938 
19421000    200.10051    -4169.601   -3826.6356    -4169.601            0   -187.76353     18.63179    21.945788    22.730741    9294.3572     305.6671   -787.48407   -81.473619    7.5246629    595.43726   -399.55017   -3852.0867 
19422000    201.66715   -4174.8652   -3829.2146   -4174.8652            0   -160.45781    18.606535    21.916041     22.69993    9256.6132    277.82564    -1106.402    347.20291    881.99972    1061.3432      944.102   -3850.8761 
19423000    202.25582   -4183.0046    -3836.345   -4183.0046            0   -1237.7701    18.658889    21.977707    22.763801    9334.9703   -1471.0253   -779.67221   -1462.6129    520.63434    581.59087     730.4482   -4004.8562 
19424000    194.54675   -4169.7567   -3836.3102   -4169.7567            0   -1109.5183    18.726948    22.057871    22.846833    9437.4926   -2404.6442   -517.78548   -406.12529   -257.95584   -259.67967    616.76158   -3989.0201 
19425000    211.00419   -4172.9284   -3811.2744   -4172.9284            0    11.709032    18.620158    21.932087     22.71655    9276.9601   -159.03066    643.63947   -449.48171    15.171149    753.41931    35.575028   -3809.6902 
19426000    200.32212   -4174.0286   -3830.6833   -4174.0286            0   -255.24047    18.630068     21.94376     22.72864    9291.7802   -566.15804   -5.2083376   -194.35503    660.36616    706.56411    310.87488   -3865.2713 
19427000    207.42888   -4155.3497   -3799.8237   -4155.3497            0   -75.805941    18.610567     21.92079    22.704849    9262.6325   -1521.1144    443.21817    850.47843   -549.93556   -352.40585   -83.125459    -3810.064 
19428000    197.16714   -4140.9291   -3802.9914   -4140.9291            0    -691.6164    18.642241    21.958098    22.743491    9310.0062   -1215.0832   -915.11111    55.345156    916.36651   -550.00345    45.628675   -3896.8969 
19429000    199.39019   -4166.5566   -3824.8087   -4166.5566            0   -355.07321    18.632897    21.947091     22.73209    9296.0129   -563.93096    286.24636   -787.53505    737.49287    1394.6083    484.35792    -3872.947 
19430000    197.88447   -4162.4328   -3823.2656   -4162.4328            0   -2216.6999    18.674617    21.996232    22.782989    9358.5957   -2693.4271   -1012.3364   -2944.3362    881.49122   -113.83798   -1133.8588    -4125.813 
19431000    200.32928   -4155.3681   -3812.0105   -4155.3681            0    348.24758    18.569705     21.87266    22.654997    9201.7535    1323.5986   -939.80345    660.94762    629.03511     369.2583   -261.06949   -3765.2764 
19432000     213.7857   -4156.3097   -3789.8884   -4156.3097            0   -1041.0498    18.643925     21.96008    22.745544    9312.5282   -1518.1657   -538.35245   -1066.6314    211.35941    407.10665    -455.4612   -3931.2772 
19433000    196.18595   -4169.3004   -3833.0444   -4169.3004            0   -1068.5114    18.699351    22.025366    22.813165     9395.831   -253.27883   -947.69326   -2004.5622    505.90163    39.495047     397.7883    -3979.461 
19434000    200.15632   -4185.3944   -3842.3333   -4185.3944            0   -1256.2999    18.667272    21.987581    22.774029    9347.5584   -1487.4337   -1829.4106   -452.05537   -450.91383    434.75621    98.581451   -4013.5978 
19435000    206.64439   -4157.1949   -3803.0134   -4157.1949            0   -496.19982    18.635556    21.950224    22.735335    9299.9942    -539.5863   -666.35021   -282.66294    876.05788     1057.316    427.78269   -3870.3135 
19436000    201.74559   -4149.3221   -3803.5371   -4149.3221            0   -1005.2945    18.684673    22.008077    22.795257    9373.7225   -271.07759   -2412.3008    -332.5052   -320.66212   -154.46437   -103.37364    -3940.967 
19437000     192.3701   -4157.0263   -3827.3105   -4157.0263            0   -1270.0137     18.69272    22.017555    22.805074    9385.8383   -223.37219   -1577.9805   -2008.6883    1091.6618    761.17165    946.15939   -4001.1536 
19438000    212.76008   -4159.8244   -3795.1609   -4159.8244            0   -870.13496    18.669998    21.990791    22.777354    9351.6534   -1058.4351   -805.91771   -746.05212    938.94522   -171.33887    84.154631   -3913.8337 
19439000    197.62701   -4180.5791   -3841.8532   -4180.5791            0    -435.5233     18.68591    22.009534    22.796767    9375.5849   -1127.0518    1060.6123   -1240.1304    313.28249    965.74955   -183.90124   -3901.4038 
19440000    205.43885   -4133.6271    -3781.512   -4133.6271            0   -1411.4113    18.670965    21.991931    22.778534     9353.107   -1028.1202   -1732.1624   -1473.9512    1586.3041    823.58305    569.16544   -3974.0362 
19441000    208.90865   -4171.0089   -3812.9466   -4171.0089            0   -613.96294     18.66186    21.981206    22.767426    9339.4299   -600.88966   -758.01566   -482.98351    1140.3588    222.84315   -19.190509    -3896.572 
19442000    205.78004   -4168.6745   -3815.9745   -4168.6745            0   -139.65755    18.618381    21.929993    22.714381    9274.3035    -507.9611    112.68241   -23.693961    1017.8053      181.406   -146.88384   -3834.8641 
19443000     204.1234   -4164.4481   -3814.5876   -4164.4481            0   -2009.0857     18.69653    22.022043    22.809723    9391.5792   -1685.0904   -2590.0774   -1752.0892    626.30269    -98.36441     354.9247   -4089.7651 
19444000    204.24184   -4145.5826    -3795.519   -4145.5826            0    294.76017    18.562145    21.863755    22.645774    9190.5202    1286.4128   -1432.0056    1029.8733    371.19484    504.64355    712.53893   -3756.0111 
19445000    201.82385   -4174.9703   -3829.0511   -4174.9703            0   -1575.6307    18.651299    21.968766    22.754541    9323.5827   -914.02525   -1226.0848   -2586.7822    547.02759    1003.8437    398.33465   -4043.2973 
19446000    204.07518   -4169.0151   -3819.2373   -4169.0151            0   -789.84136    18.606267    21.915725    22.699602    9256.2131   -875.69434    -888.1995   -605.63025     728.1635    682.97107    590.72715   -3925.8598 
19447000    193.29422   -4148.0223   -3816.7227   -4148.0223            0   -1568.0951    18.678663    22.000998    22.787925    9364.6801   -1251.5031   -1793.0099   -1659.7724    83.267821    179.98139   -703.85185   -4030.8841 
19448000     199.0084   -4150.2314   -3809.1378   -4150.2314            0   -188.80397    18.629251    21.942797    22.727642    9290.5571    466.72881   -810.86311   -222.27762    235.99153    102.62723     154.9275   -3834.7195 
19449000     207.0173   -4149.7408   -3794.9202   -4149.7408            0   -1180.5624    18.713276    22.041768    22.830153    9416.8376   -1046.4044    -1902.774   -592.50875     693.9713    -28.02001    752.02004   -3957.0526 
19450000    204.55399   -4172.4578   -3821.8593   -4172.4578            0   -958.84801     18.65432    21.972325    22.758227    9328.1142    -477.8711   -1526.9505   -871.72248    263.89975   -478.97727    765.40329   -3952.3019 
19451000    195.83832   -4145.6778   -3810.0176   -4145.6778            0   -297.63053    18.666023     21.98611    22.772505    9345.6819   -222.63146   -1723.4073    1053.1472     353.1901   -165.84564   -394.17622   -3850.5838 
19452000    192.75421   -4138.0965   -3807.7224   -4138.0965            0    90.825028     18.56588    21.868154     22.65033    9196.0684     5.411129     591.7447   -324.68074    1072.8683    617.94391   -254.09804   -3795.5414 
19453000    191.06183    -4164.508   -3837.0346    -4164.508            0   -1667.1496    18.694073    22.019149    22.806725    9387.8769   -2217.5692   -1526.7155   -1257.1641    589.79396    111.45355    541.34407   -4065.2883 
19454000    198.42005   -4174.4892    -3834.404   -4174.4892            0   -886.24974    18.668957    21.989565    22.776084    9350.0892   -791.74324   -985.10812   -881.89787    590.01248    132.63011   -781.86789   -3955.2544 
19455000    192.33939   -4168.4107   -3838.7476   -4168.4107            0    -1180.928    18.709399      22.0372    22.825423    9410.9851   -1937.6675   -952.63916   -652.47743    403.31081    467.15242    -556.3583   -4000.8294 
19456000    194.56975   -4167.5345   -3834.0486   -4167.5345            0   -991.98072     18.67092    21.991878    22.778479    9353.0394   -1158.7358   -642.69229   -1174.5141    929.28409   -354.16324   -222.02478   -3969.3592 
19457000    189.61827   -4140.7405   -3815.7413   -4140.7405            0   -2269.6954    18.725913    22.056652    22.845571     9435.928   -2522.6861   -2206.8667   -2079.5335    811.13451    1141.7022    354.05995   -4128.0817 
19458000    197.81886   -4150.3162   -3811.2614   -4150.3162            0    59.488727    18.587044    21.893083    22.676151    9227.5541    -261.8379    1990.4136   -1550.1095    60.453101    795.30629    325.75307   -3803.2557 
19459000    206.28219   -4176.0135   -3822.4529   -4176.0135            0   -642.11084    18.598486     21.90656     22.69011    9244.6052   -2127.6886    725.63833   -524.28225   -701.34821   -549.37561    627.65629   -3909.0242 
19460000    209.62989   -4154.9282   -3795.6297   -4154.9282            0   -165.63319    18.645338    21.961745    22.747268    9314.6459    562.61366   -535.50549   -524.00773   -546.33022    770.50451    1089.5964   -3818.1301 
19461000    206.75604   -4184.8248    -3830.452   -4184.8248            0   -1648.4965     18.68617     22.00984    22.797084    9375.9756   -2354.4913   -1076.2895   -1514.7087    282.38907    722.69161   -255.26449   -4055.8658 
19462000    202.72642   -4162.4578   -3814.9916   -4162.4578            0   -994.69215    18.693318     22.01826    22.805805      9386.74   -698.58524   -672.28577   -1613.2054    76.795563    505.28444     748.9156    -3951.161 
19463000    215.22819   -4173.7558   -3804.8621   -4173.7558            0   -1554.3653    18.657233    21.975756     22.76178    9332.4844   -2276.5165    -647.9744   -1738.6049    461.67983    403.78506    256.52958   -4016.4185 
19464000    194.23877   -4161.8908   -3828.9722   -4161.8908            0   -915.54747    18.670498     21.99138    22.777963    9352.4041    -354.7597   -1943.5492   -448.33345    1371.0529   -1215.6939   -144.85634   -3953.8485 
19465000    196.42219    -4197.315   -3860.6541    -4197.315            0   -186.60032    18.566799    21.869237    22.651452    9197.4346   -688.56227   -11.939771    140.70109     699.1406   -363.69069    148.65222   -3885.6837 
19466000    205.55388   -4183.6982   -3831.3859   -4183.6982            0   -929.62277    18.659715    21.978679    22.764808    9336.2094   -171.12006   -1029.0183     -1588.73    235.60073    319.44741    401.06767   -3957.9624 
19467000    190.73071   -4166.1822   -3839.2763   -4166.1822            0     -698.463    18.670357    21.991214    22.777792    9352.1929    -863.8144   -373.42537   -858.14924    371.07053   -400.72778    224.13556   -3934.5412 
19468000    201.56305   -4152.4158   -3806.9436   -4152.4158            0   -1202.5248    18.705885    22.033062    22.821136    9405.6836   -942.38048   -169.88163   -2495.3123    -450.7943   -823.12878    559.98834   -3971.8966 
19469000    202.90168   -4153.3642   -3805.5977   -4153.3642            0   -24.958703     18.61042    21.920616    22.704669    9262.4119   -1206.9314    1046.1756    85.879772     1035.814    152.16943    699.55235   -3808.9692 
19470000     194.0951   -4171.1177   -3838.4453   -4171.1177            0   -276.47198    18.630287    21.944017    22.728906    9292.1071    999.79926   -692.02833   -1137.1869      -556.23    770.79689   -177.20718   -3875.9117 
19471000    195.09959   -4151.9531   -3817.5591   -4151.9531            0   -203.77593    18.585136    21.890835    22.673822    9224.7118    84.762381   -319.52853   -376.56163    369.20009    -432.8234   -203.52581   -3844.9737 
19472000    196.67727     -4171.51   -3834.4119     -4171.51            0   -71.974211    18.587982    21.894188    22.677295    9228.9507   -127.84922   -668.21927    580.14585    1023.5191   -53.826997    -132.3849   -3844.0993 
19473000    193.84972   -4165.4732   -3833.2214   -4165.4732            0   -537.87856    18.628814    21.942282    22.727109    9289.9029    62.900037   -255.03157   -1421.5042   -173.08728    505.82802   -835.04728   -3906.0952 
19474000    196.91854   -4147.8686    -3810.357   -4147.8686            0   -1577.9075    18.694015     22.01908    22.806655    9387.7896   -1573.1841   -1902.7523   -1257.7861    331.68555    101.50617   -442.91632   -4026.3903 
19475000    197.32734   -4169.0321   -3830.8198   -4169.0321            0   -613.45577    18.616906    21.928256    22.712582       9272.1   -341.99921   -351.90298   -1146.4651    759.42726    173.73662    119.96172   -3913.7738 
19476000    201.54446   -4153.6325   -3808.1922   -4153.6325            0   -1388.9299    18.666041     21.98613    22.772526    9345.7082    -1384.703   -2205.0718   -577.01509   -401.61607    442.75413    461.33953   -3997.4999 
19477000    205.63864   -4117.6266    -3765.169   -4117.6266            0   -883.31116    18.651468    21.968965    22.754747     9323.836   -6.2096487   -502.06691   -2141.6569    1421.4352   -263.00272    207.82265   -3885.2804 
19478000    202.67438   -4144.8966   -3797.5196   -4144.8966            0     645.6811    18.579973    21.884754    22.667524    9217.0268    1205.2571   -405.68349    1137.4697    1635.5305    76.344987    809.75189   -3710.7266 
19479000    207.17716    -4157.284   -3802.1894    -4157.284            0   -1000.5183     18.62173    21.933938    22.718467    9279.3093   -900.19085   -1868.1458   -233.21823   -192.68997   -214.08918   -433.27504   -3937.5888 
19480000     212.9354   -4148.2423   -3783.2783   -4148.2423            0    -790.0375    18.678888    22.001263      22.7882    9365.0193   -771.40508   -215.62157   -1383.0858    1664.5663   -209.45444    609.53128    -3891.181 
19481000    201.22364   -4146.9176   -3802.0271   -4146.9176            0   -1393.3451     18.61968    21.931523    22.715966    9276.2447   -366.37188   -1990.8077   -1822.8556    545.38249    649.97635   -11.871648   -3990.5252 
19482000    202.59192   -4166.4849   -3819.2492   -4166.4849            0   -77.429258    18.610201    21.920359    22.704402    9262.0855   -1026.7653    295.78163    498.69591    1124.4668   -139.01741   -177.31442   -3829.7082 
19483000    186.20922   -4150.1871   -3831.0309   -4150.1871            0   -661.02272    18.642599    21.958519    22.743927    9310.5415   -1818.5246   -8.2354633   -156.30805    668.55859   -824.29312    1053.6288   -3920.7877 
19484000    200.00534   -4143.6803   -3800.8779   -4143.6803            0     456.4139    18.595901    21.903515    22.686956    9240.7513   -222.57781    1751.5665   -159.74699    487.95345    86.748197    214.17278   -3739.3685 
19485000    198.50309   -4178.5492   -3838.3217   -4178.5492            0   -509.45167    18.643929    21.960085    22.745549    9312.5343    419.96541   -1019.3943   -928.92615   -99.993606   -696.70712   -213.62683   -3907.5122 
19486000    201.88239   -4166.3275    -3820.308   -4166.3275            0   -1473.3483    18.724336    22.054795    22.843646    9433.5439   -1613.8151   -1622.1192   -1184.1105    208.58179    256.96128   -829.65117   -4023.0091 
19487000    204.58566   -4174.0027   -3823.3499   -4174.0027            0   -1385.1897    18.651192    21.968641    22.754411     9323.423   -626.51319   -856.05978    -2672.996    130.79509    34.041174     -516.611   -4011.6977 
19488000    198.38819   -4150.0335   -3810.0029   -4150.0335            0   -552.61821    18.634521    21.949004    22.734072    9298.4444    48.276914   -1109.9025   -596.22903    -482.6476   -780.19477     33.45534   -3884.9425 
19489000    197.22191   -4149.4571   -3811.4255   -4149.4571            0   -1426.3176    18.658145     21.97683    22.762893     9333.853   -1336.8232   -1387.5836   -1554.5459    67.016629   -271.20954   -384.28035   -4005.5825 
19490000    193.11667   -4146.9166   -3815.9212   -4146.9166            0    20.276722     18.64425    21.960463    22.745941    9313.0152     253.4321    165.32073   -357.92267    1074.1111   -1133.9841   -401.31537   -3813.1672 
19491000    196.84103   -4177.9165   -3840.5377   -4177.9165            0   -979.74344    18.652679    21.970392    22.756225    9325.6525   -2173.6808    98.892895   -864.44244    2176.6413   -210.59807    625.34402   -3973.7878 
19492000    194.66501    -4155.672   -3822.0228    -4155.672            0   -1190.2832    18.661171    21.980395    22.766585     9338.396   -1181.0301   -1361.1231   -1028.6964    1457.9087    251.67115    306.49162   -3984.1286 
19493000    202.67604   -4147.8822   -3800.5024   -4147.8822            0   -14.466444    18.593048    21.900155    22.683475    9236.4988    397.42509    -487.8657    47.041281    230.45002   -568.18468   -159.67312   -3802.4511 
19494000    194.70866   -4140.7099   -3806.9859   -4140.7099            0   -1188.0065    18.691986     22.01669    22.804179    9384.7329   -905.96398   -2215.3704   -442.68499   -378.18553   -104.77959    402.08468   -3969.5844 
19495000    210.44152   -4148.9624   -3788.2729   -4148.9624            0   -1325.0981    18.709283    22.037064    22.825282    9410.8108   -663.72853   -1720.3998   -1591.1661    889.04941     20.71508     429.5103   -3970.1386 
19496000    200.01055   -4164.1737   -3821.3625   -4164.1737            0   -1915.1355    18.707405    22.034852    22.822991    9407.9773   -715.83649    -3195.706   -1833.8639    465.13436   -341.97726    540.15934     -4084.13 
19497000    197.45214   -4161.8139   -3823.3877   -4161.8139            0   -1626.1935    18.680144    22.002742    22.789732    9366.9076   -2415.6662   -655.87296   -1807.0413    898.05706    561.60884    -240.2066   -4045.5367 
19498000    202.61234   -4142.5322   -3795.2616   -4142.5322            0   -1150.8305    18.690149    22.014527    22.801938    9381.9667   -1377.2285   -1697.3546   -377.90841   -2.2082334   -522.86916    349.65978   -3952.7255 
19499000    189.72435   -4161.4035   -3836.2224   -4161.4035            0   -1582.4574    18.721309    22.051229    22.839953    9428.9686    -1558.716   -1236.9159   -1951.7402   -22.748553    -471.9247    597.04168    -4053.829 
19500000    209.59985   -4146.2978   -3787.0508   -4146.2978            0   -486.52139    18.638123    21.953247    22.738466     9303.837    711.96896   -791.49327   -1380.0399    890.37527   -926.57074      346.897   -3853.0654 
Loop time of 411.468 on 64 procs for 250000 steps with 864 atoms

Performance: 104.990 ns/day, 0.229 hours/ns, 607.580 timesteps/s
99.1% CPU use with 64 MPI tasks x 1 OpenMP threads

MPI task timing breakdown:
Section |  min time  |  avg time  |  max time  |%varavg| %total
---------------------------------------------------------------
Pair    | 11.811     | 19.623     | 29.357     |  74.1 |  4.77
Bond    | 0.2713     | 0.27908    | 0.28801    |   0.8 |  0.07
Kspace  | 196.04     | 205.97     | 215.6      |  30.8 | 50.06
Neigh   | 1.5957     | 1.8214     | 2.1975     |  10.5 |  0.44
Comm    | 73.989     | 82.195     | 87.484     |  35.1 | 19.98
Output  | 1.119      | 1.1197     | 1.1269     |   0.1 |  0.27
Modify  | 86.599     | 89.781     | 95.694     |  19.9 | 21.82
Other   |            | 10.68      |            |       |  2.60

Nlocal:        13.5000 ave          20 max           8 min
Histogram: 3 2 10 5 12 19 7 1 4 1
Nghost:        1793.34 ave        1831 max        1750 min
Histogram: 2 4 5 8 13 4 10 8 7 3
Neighs:        3308.88 ave        4825 max        1830 min
Histogram: 2 2 8 9 14 8 12 2 5 2

Total # of neighbors = 211768
Ave neighs/atom = 245.10185
Ave special neighs/atom = 2.0000000
Neighbor list builds = 5228
Dangerous builds = 0

unfix		3
unfix		2
unfix		1

write_data	data.final.${pid}
write_data	data.final.0
System init for write_data ...
PPPM initialization ...
  extracting TIP4P info from pair style
  using 12-bit tables for long-range coulomb (../kspace.cpp:340)
  G vector (1/distance) = 0.37197937
  grid = 24 25 27
  stencil order = 5
  estimated absolute RMS force accuracy = 0.0031068534
  estimated relative force accuracy = 9.3561967e-06
  using double precision FFTW3
  3d grid and FFT values/proc = 2730 384
Last active /omp style is kspace_style pppm/tip4p/omp
WARNING: Not all mixed pair coeffs generated from mixing. Use write_data with 'pair ij' option to store all pair coeffs. (../write_data.cpp:312)

write_restart   restart.lmp.${pid}
write_restart   restart.lmp.0
System init for write_restart ...
PPPM initialization ...
  extracting TIP4P info from pair style
  using 12-bit tables for long-range coulomb (../kspace.cpp:340)
  G vector (1/distance) = 0.37197937
  grid = 24 25 27
  stencil order = 5
  estimated absolute RMS force accuracy = 0.0031068534
  estimated relative force accuracy = 9.3561967e-06
  using double precision FFTW3
  3d grid and FFT values/proc = 2730 384
Last active /omp style is kspace_style pppm/tip4p/omp
Total wall time: 0:06:57
