LAMMPS (30 Jul 2021)
Processor partition = 0
  using 2 OpenMP thread(s) per MPI task
using multi-threaded neighbor list subroutines
variable        pid world 0 1
variable        phase world IceII IceIh

shell cd ${phase}
shell cd IceII
include Restart.lmp
echo both
log log.lammps
#include		in.partitions
include		in.temp
variable        temperature equal 135.10
variable	tempDamp equal 100.0
include		in.pressure
variable        pressure equal 2051.2
variable        pressureDamp equal 1000.0 # This is 1 ps
include		in.seed
variable        seed equal 745823

units		real
atom_style	full
box tilt large
read_restart	restart.lmp.${pid}
read_restart	restart.lmp.0
Reading restart file ...
  restart file = 30 Jul 2021, LAMMPS = 30 Jul 2021
  restoring atom style full from restart
  triclinic box = (-10.627621 -9.1980719 0.033099555) to (12.607621 12.188070 21.826899) with tilt (-9.2628002 1.6257808 2.8562904)
  2 by 4 by 4 MPI processor grid
  restoring pair style lj/cut/tip4p/long/omp from restart
  restoring bond style harmonic/omp from restart
  restoring angle style harmonic/omp from restart
  1296 atoms
  864 bonds
  432 angles
Finding 1-2 1-3 1-4 neighbors ...
  special bond factors lj:    0        0        0       
  special bond factors coul:  0        0        0       
     2 = max # of 1-2 neighbors
     1 = max # of 1-3 neighbors
     1 = max # of 1-4 neighbors
     2 = max # of special neighbors
  special bonds CPU = 0.002 seconds
  read_restart CPU = 0.013 seconds
include 	in.setup
variable	out_freq equal 1000
variable	out_freq2 equal 10000
variable	out_freq3 equal 1000

timestep	2.0

neigh_modify    delay 7 every 1

include		in.tip4p
# This is TIP4P/Ice

# create groups ###
group ox type 2
432 atoms in group ox
group hy type 1
864 atoms in group hy

# set charges - beside manually ###
set group ox charge -1.1794
Setting atom values ...
  432 settings made for charge
set group hy charge 0.5897
Setting atom values ...
  864 settings made for charge

# ### TIP3P Potential Parameters ###
pair_style lj/cut/tip4p/long/omp 2 1 1 1 0.1577 8.5
pair_coeff 1 1*2 0.000 0.000
pair_coeff 2 2 0.21084 3.1668
bond_style  harmonic
bond_coeff  1 450 0.9572
angle_style harmonic
angle_coeff 1 55 104.52
kspace_style pppm/tip4p/omp 1.0e-5
pair_modify tail yes

thermo          ${out_freq}
thermo          1000
thermo_style    custom step temp pe etotal epair emol press lx ly lz vol pxx pyy pzz pxy pxz pyz enthalpy

restart 	${out_freq3} restart.lmp.${pid} restart2.lmp.${pid}
restart 	1000 restart.lmp.${pid} restart2.lmp.${pid}
restart 	1000 restart.lmp.0 restart2.lmp.${pid}
restart 	1000 restart.lmp.0 restart2.lmp.0


include         in.dump
dump            myDump all atom ${out_freq2} dump.water.${pid}
dump            myDump all atom 10000 dump.water.${pid}
dump            myDump all atom 10000 dump.water.0
dump            myDump2 all dcd ${out_freq2} dump.dcd
dump            myDump2 all dcd 10000 dump.dcd
dump_modify     myDump append yes
dump_modify     myDump2 append yes


variable natoms 	equal  "count(all)"                        # NUMBER ATOMS
variable H      	equal  "enthalpy/v_natoms"                 # ENTHALPY-per-atom
variable Vol      	equal  "vol/v_natoms"                 # volume-per-atom
fix AVG all 		ave/time ${out_freq} 1 ${out_freq} v_Vol v_H file vol_enthalpy.dat
fix AVG all 		ave/time 1000 1 ${out_freq} v_Vol v_H file vol_enthalpy.dat
fix AVG all 		ave/time 1000 1 1000 v_Vol v_H file vol_enthalpy.dat


timer           timeout 10:00:00 every 1000
New timer settings: style=normal  mode=nosync  timeout=10:00:00

fix 		1 all shake 1e-6 200 0 b 1 a 1
Finding SHAKE clusters ...
       0 = # of size 2 clusters
       0 = # of size 3 clusters
       0 = # of size 4 clusters
     432 = # of frozen angles
  find clusters CPU = 0.001 seconds
fix             2 all nph tri ${pressure} ${pressure} ${pressureDamp}
fix             2 all nph tri 2051.2 ${pressure} ${pressureDamp}
fix             2 all nph tri 2051.2 2051.2 ${pressureDamp}
fix             2 all nph tri 2051.2 2051.2 1000
fix             3 all temp/csvr ${temperature} ${temperature} ${tempDamp} ${seed}
fix             3 all temp/csvr 135.1 ${temperature} ${tempDamp} ${seed}
fix             3 all temp/csvr 135.1 135.1 ${tempDamp} ${seed}
fix             3 all temp/csvr 135.1 135.1 100 ${seed}
fix             3 all temp/csvr 135.1 135.1 100 745823


run             250000
PPPM initialization ...
  extracting TIP4P info from pair style
  using 12-bit tables for long-range coulomb (../kspace.cpp:340)
  G vector (1/distance) = 0.36831981
  grid = 30 40 32
  stencil order = 5
  estimated absolute RMS force accuracy = 0.0042921928
  estimated relative force accuracy = 1.2925811e-05
  using double precision FFTW3
  3d grid and FFT values/proc = 7752 1200
Last active /omp style is kspace_style pppm/tip4p/omp
Neighbor list info ...
  update every 1 steps, delay 7 steps, check yes
  max neighbors/atom: 2000, page size: 100000
  master list distance cutoff = 10.8154
  ghost atom cutoff = 10.8154
  binsize = 5.4077, bins = 7 5 5
  1 neighbor lists, perpetual/occasional/extra = 1 0 0
  (1) pair lj/cut/tip4p/long/omp, perpetual
      attributes: half, newton on, omp
      pair build: half/bin/newton/tri/omp
      stencil: half/bin/3d/tri
      bin: standard
Setting up Verlet run ...
  Unit style    : real
  Current step  : 21250000
  Time step     : 2
  Walltime left : 9:59:59.95
Per MPI rank memory allocation (min/avg/max) = 10.64 | 10.65 | 10.65 Mbytes
Step Temp PotEng TotEng E_pair E_mol Press Lx Ly Lz Volume Pxx Pyy Pzz Pxy Pxz Pyz Enthalpy 
21250000    139.36767   -6646.2179   -6287.7031   -6646.2179            0    2271.7795    23.235241    21.386142      21.7938    10829.604    1969.0405     2588.102    2258.1959    -228.6542    1163.8677   -135.34558   -5928.9013 
21251000    138.19771   -6670.5187   -6315.0135   -6670.5187            0    2245.8661    23.255784     21.48219    21.675337    10828.677    3362.2555    1657.7232    1717.6196   -825.42357   -275.65429   -274.04028   -5960.3348 
21252000    137.76097   -6665.2905   -6310.9087   -6665.2905            0    2395.6861    23.239562    21.555647    21.591894    10816.325    2807.2906    641.30068     3738.467   -222.51575    212.99551    718.53306   -5933.0012 
21253000     134.6825   -6658.6576    -6312.195   -6658.6576            0    2082.9198    23.153697    21.429948    21.846383    10839.793    2942.0423    2646.0726     660.6446    363.10697   -315.44954     295.0749   -5982.9119 
21254000    131.26667   -6671.1795    -6333.504   -6671.1795            0    2349.1215      23.2403    21.474619    21.694626     10827.28     2601.511    1687.7969    2758.0565   -672.45315    222.98109    185.33406   -5962.5665 
21255000    131.92114   -6656.5046   -6317.1455   -6656.5046            0    1041.1557    23.234269    21.486128    21.770737    10868.267    1121.1049    1102.0189     900.3433     1143.063    253.00799   -768.71953   -6152.1196 
21256000    140.04682   -6662.8624   -6302.6005   -6662.8624            0    1933.1798    23.246266    21.464803     21.74346    10849.476    2317.3195    1878.6586    1603.5612   -815.71047    822.76854    509.98858   -5996.7164 
21257000    135.95331   -6671.2473   -6321.5157   -6671.2473            0     1898.607    23.290835    21.513765    21.652894    10849.693    1429.4495    1750.2317    2516.1399    474.55841    688.80963   -1413.8115    -6021.096 
21258000    137.84308   -6661.2536   -6306.6607   -6661.2536            0    1719.1784    23.231909    21.496194    21.724416    10849.122    1846.9443    745.96462    2564.6262   -113.21937   -221.44686    1115.6864   -6034.6466 
21259000    141.73171   -6652.1478   -6287.5516   -6652.1478            0    2692.1291    23.152059    21.449174    21.787939    10819.728    3421.9269    1982.1168    2672.3437   -555.73862    988.27209    330.03703   -5862.7481 
21260000    138.23286   -6660.3679   -6304.7723   -6660.3679            0     2468.803    23.259595    21.483695    21.643189    10815.146    2451.8825     2211.868    2742.6584    -9.811185   -128.08333     148.1102   -5915.3734 
21261000     134.4601   -6660.9664    -6315.076   -6660.9664            0    1671.5378    23.275553    21.475438    21.710892    10852.247    1968.0822     1331.504    1715.0273   -150.21077    469.36905    221.61463   -6050.5235 
21262000      135.328   -6636.8755   -6288.7525   -6636.8755            0    1611.6965     23.33427    21.448905    21.721627    10871.556     1333.643    1408.3537    2093.0929    1409.1758    652.09302   -222.23186   -6033.2172 
21263000    140.00085   -6657.0104   -6296.8667   -6657.0104            0    1076.7888    23.290064    21.423635     21.81483     10884.68    848.75011    1662.7246    718.89159    34.833841   -558.00792   -143.52256   -6125.9352 
21264000    134.53665   -6674.7537   -6328.6664   -6674.7537            0    2791.2384    23.315914    21.345672    21.696759    10798.344    2128.6589     3273.503    2971.5533    634.26605    343.82167   -431.30542   -5889.0944 
21265000     141.6889   -6675.2079   -6310.7219   -6675.2079            0    2335.7466      23.2986    21.323018      21.7697     10815.11    1924.1323    2647.8435    2435.2639    -139.6172    373.04152    628.41012   -5942.3109 
21266000    132.50807   -6656.0416   -6315.1727   -6656.0416            0    1899.5934    23.354247    21.380026    21.729584    10849.894     2524.386    2475.1824    699.21166   -756.58568   -372.76854   -1330.4716   -6014.5913 
21267000    134.17287   -6658.3638   -6313.2123   -6658.3638            0    2051.7431    23.349713    21.359842    21.740113    10842.798    2505.3117    1969.7725     1680.145    -241.4782   -644.63719    199.96167   -5988.7679 
21268000    127.53239   -6656.8313    -6328.762   -6656.8313            0    1125.5976    23.427114     21.33906     21.72846    10862.331   -307.90115    2768.3696    916.32449    487.63712    373.23244     478.9887   -6150.4494 
21269000    136.36398   -6668.8305   -6318.0425   -6668.8305            0    714.11008    23.421347    21.343415    21.775917    10885.596     286.4444    890.00306    965.88278     101.0102    542.65878    6.8433221   -6204.6737 
21270000    134.41645   -6666.6893   -6320.9112   -6666.6893            0    1651.6935    23.402104     21.37048    21.735584    10870.274    786.70328    1691.7292    2476.6479   -142.98764   -490.37907    486.25095   -6059.0653 
21271000     132.0814   -6670.4979   -6330.7265   -6670.4979            0      2490.48    23.363892    21.297473    21.729929    10812.636    1402.3468    3676.5487    2392.5445   -585.52316    404.34769    210.74741   -5937.9998 
21272000     131.4116   -6647.6305   -6309.5822   -6647.6305            0    1061.1282    23.351498    21.392153    21.769311    10874.616    2409.2379   -199.44224    973.58907   -966.90485   -1369.7415    186.27198   -6141.2924 
21273000    133.74943   -6662.5514   -6318.4891   -6662.5514            0    2629.1636    23.359028    21.343164    21.724959    10831.099    1906.7064    3195.4736    2785.3107    252.05313   -241.22519   -841.42813   -5903.1852 
21274000    139.93954   -6632.6583   -6272.6723   -6632.6583            0     2608.691    23.339078    21.362532    21.699433    10818.942    2006.0674    2555.2301    3264.7755   -538.21873    433.05743     451.1676   -5861.0648 
21275000    137.24427   -6642.3463   -6289.2937   -6642.3463            0    1461.4755    23.279449    21.339331    21.898895    10878.667    2638.4334    1135.2954    610.69775    133.36386   -261.31923    -408.1414   -6057.4245 
21276000     135.9625   -6641.3555   -6291.6003   -6641.3555            0    2472.9673    23.342056    21.447789    21.656039    10841.782    3148.1155     1769.843    2500.9435   -436.46085   -1382.7052   -40.287745   -5900.5839 
21277000     132.3756   -6641.6833   -6301.1551   -6641.6833            0    2344.5887     23.25888    21.419986    21.760327    10841.101    3338.5343    1833.3643    1861.8674   -888.89905   -124.47665    255.51869   -5930.4608 
21278000    132.18605    -6666.456   -6326.4154    -6666.456            0    1840.1302    23.242341     21.41458    21.744476    10822.769    2226.3232    1702.9694     1591.098    211.25907    277.49113   -64.608192   -6035.9711 
21279000    132.04378   -6662.7711   -6323.0965   -6662.7711            0    2524.7196    23.282481    21.414038    21.644816    10791.498    2511.6258    2888.6096    2173.9234    -318.5932   -301.64229   -607.24192   -5925.7488 
21280000    140.50222    -6652.564   -6291.1306    -6652.564            0    2481.8159    23.161979    21.364328       21.855    10814.731    2619.9227    2766.5537    2058.9712    1003.4815    465.41987    9.9900818   -5899.6943 
21281000    138.24179   -6648.5515   -6292.9329   -6648.5515            0     2453.149    23.385701    21.362958    21.611126    10796.654    864.76446    3450.0637    3044.6189   -315.65353   -143.34736    113.01105   -5906.6646 
21282000    140.78422   -6662.5441   -6300.3853   -6662.5441            0    2790.2751    23.285543    21.357215    21.712581    10797.978    2354.7326    2800.9545    3215.1382   -521.48866    208.09601   -394.97903   -5860.9799 
21283000    137.48495   -6666.2601   -6312.5884   -6666.2601            0    3055.1734    23.310241    21.265485    21.777465    10795.167    3090.7807    3248.5725    2826.1669    148.32069   -682.52127    251.98814   -5831.5928 
21284000    134.76838   -6666.8041   -6320.1207   -6666.8041            0    2368.6255    23.371159    21.271728    21.731921    10803.915    1582.5663    2262.5898    3260.7204   -528.26423    709.71959    557.05735   -5946.9105 
21285000    135.39357   -6674.9557    -6326.664   -6674.9557            0    2486.8635    23.392772    21.326317    21.681182    10816.344    2261.4127    3332.5673    1866.6105   -368.19217   -225.72834   -13.641641   -5934.3731 
21286000    136.88844   -6675.4227   -6323.2855   -6675.4227            0    2015.5498     23.35077    21.183317     21.86559    10815.743    1504.9566    3765.4115    776.28131   -375.80869    375.88334   -197.38866   -6005.3597 
21287000    134.98562   -6655.3961   -6308.1538   -6655.3961            0    1879.5429    23.417311    21.280239    21.739702    10833.458    843.78652    2379.0554    2415.7868    298.00088    65.991584    246.14211   -6011.1957 
21288000     135.8066   -6661.5399   -6312.1857   -6661.5399            0    1487.3321    23.376878    21.359169    21.761989    10865.994    401.51231    2684.9932     1375.491    197.09962    297.50693   -184.79594   -6076.4891 
21289000    135.12104   -6656.7537   -6309.1631   -6656.7537            0    1234.2475    23.407831     21.33536    21.761671    10868.094    1419.6424    355.88064    1927.2194    468.35888   -387.80715    177.89579   -6113.5349 
21290000    131.73653   -6659.4503   -6320.5661   -6659.4503            0    2453.6444     23.33157    21.329611    21.751891    10824.901    2295.8674    2879.4735    2185.5921   -388.70219    302.01702   -132.38374   -5933.2091 
21291000     132.9613   -6664.7711   -6322.7363   -6664.7711            0    1598.0539    23.360053    21.344843    21.761439    10850.616    1417.6433    2361.9133    1014.6051   -273.54084    592.09377   -702.52252   -6069.8521 
21292000     133.5262   -6658.7847   -6315.2967   -6658.7847            0    688.00382    23.419515    21.407957    21.714597    10886.916   -269.37013    1768.7189    564.66269   -1004.2023    709.22913   -331.57928   -6206.0592 
21293000    138.73821   -6659.5341   -6302.6385   -6659.5341            0    2109.5026    23.383478    21.324316    21.723676    10832.221    1999.2592      2881.06    1448.1886    384.18316   -481.48475   -214.21673   -5969.3859 
21294000    134.18612   -6654.2009   -6309.0152   -6654.2009            0    1753.6416    23.384896    21.380278    21.710529    10854.734    1387.3176    2560.1674    1313.4397    19.531871   -37.489147   -758.67063   -6031.4047 
21295000    124.61262   -6672.8754   -6352.3171   -6672.8754            0     1412.226    23.326187    21.328227    21.847382    10869.208    1557.2616    1482.5332    1196.8831   -34.219661    374.75519    503.95047   -6128.4563 
21296000    134.27131   -6652.1255   -6306.7208   -6652.1255            0    830.70221    23.369955    21.380637    21.789649    10887.515     1430.785    876.76613    184.55549   -614.41544     540.0935    90.225846   -6174.8192 
21297000    131.76987   -6665.0205   -6326.0505   -6665.0205            0    1939.6386    23.378275    21.444192    21.662842    10860.194    1190.6392    1823.2071    2805.0694   -3.8316319    110.30128   -500.08976   -6018.8413 
21298000    138.74152    -6661.356   -6304.4519    -6661.356            0     1289.448    23.355028    21.349077    21.821045    10880.154    245.75589    2343.9061    1278.6821   -44.146817    1036.8929    143.03612   -6099.8476 
21299000    137.38136   -6652.7705   -6299.3653   -6652.7705            0    1778.6215    23.303387     21.37037    21.790044    10851.485    1449.6231    1947.5137    1938.7275    638.46956   -94.117574    261.29797   -6017.8846 
21300000    136.11138   -6655.1458   -6305.0076   -6655.1458            0    2966.3737    23.331773    21.406223     21.59779    10786.911    1868.4554    3104.8464    3925.8193   -256.68234    77.021835    -177.6117   -5838.3494 
21301000     140.9701   -6660.0418   -6297.4048   -6660.0418            0    2722.2501    23.207284    21.335611    21.822319    10805.137    3256.1008    3663.9012    1246.7482   -222.87907   -157.31091   -3.2629192   -5868.4276 
21302000    134.37038   -6671.6843   -6326.0247   -6671.6843            0    1563.9813    23.332835    21.423797    21.701664    10848.183    854.10409    2124.1596    1713.6802    341.27258    -256.6615   -183.54562   -6078.5878 
21303000       138.45   -6681.0535   -6324.8994   -6681.0535            0    2111.4998    23.241621    21.446708    21.705488    10819.236    2552.0634    1584.5528    2197.8832   -332.96416   -244.09397   -232.40447   -5991.7312 
21304000    138.99945    -6658.847   -6301.2794    -6658.847            0    1989.5361    23.237965    21.405476    21.800417    10843.957    1956.3824    2724.9948    1287.2311    1606.2715    812.68822    398.70814   -5986.6383 
21305000    137.23787   -6656.0299   -6302.9939   -6656.0299            0    2746.0394    23.195642     21.49926    21.662176    10802.692    2459.6369    2404.2805    3374.2008   -320.68005   -874.91717    241.36198   -5870.3658 
21306000    140.47072   -6652.7574   -6291.4051   -6652.7574            0    2941.8359    23.309262    21.493952    21.598591    10821.071    2606.7326    2742.7764    3475.9986    312.30005    47.898635   -240.48768   -5827.1416 
21307000     136.5598   -6659.3043   -6308.0126   -6659.3043            0    2681.3403    23.140852    21.445748    21.775211    10806.447    2840.8036    3384.8922    1818.3252   -1133.2657    488.19898    -1048.722   -5885.4308 
21308000    134.06157   -6657.4156   -6312.5503   -6657.4156            0    2592.8829    23.195816    21.501759    21.675992    10810.919    2469.9772    2038.7428    3269.9286    946.05794   -190.20104     767.4534   -5903.7404 
21309000    142.32484   -6672.4093   -6306.2873   -6672.4093            0    2559.9815    23.252792    21.534238     21.57252    10802.033    1570.2993    2476.4105    3633.2348   -8.7756198    1249.5727    622.21891   -5902.9966 
21310000    133.35388   -6676.1451   -6333.1004   -6676.1451            0    2693.1471    23.103625    21.434732    21.798435    10795.021    2984.1697    2921.5975    2173.6742   -81.943323    -99.19468   -224.79537   -5909.1066 
21311000    138.25141   -6667.8078   -6312.1645   -6667.8078            0    1373.9481    23.252191    21.472793    21.744856    10856.978    1189.2595    1213.5833    1719.0016    -243.0615     345.7431   -273.69253   -6094.6164 
21312000    136.62441   -6654.4027   -6302.9448   -6654.4027            0    2281.0679     23.31357    21.518227    21.566777    10819.334    1679.6972    1785.9494     3377.557    -467.2573    160.43659    330.37021   -5943.0176 
21313000    136.60301   -6639.3154   -6287.9125   -6639.3154            0    2240.5972    23.185646    21.438649    21.812022    10842.078    2628.6943    2114.7064     1978.391    298.71472   -1106.1906   -330.31899   -5933.6279 
21314000    132.49316   -6657.7997   -6316.9691   -6657.7997            0    2381.7857    23.275175    21.441739    21.698164    10828.691    2246.8015      2214.34    2684.2154    258.86173   -418.39022    239.33461   -5940.8247 
21315000    130.86376    -6673.913   -6337.2739    -6673.913            0    2497.4637     23.34824    21.468493    21.531722    10792.808    1674.9079    2204.5905    3612.8926    816.64313     135.2939   -6.0694191    -5944.168 
21316000    139.13231   -6653.1651   -6295.2557   -6653.1651            0     2889.473    23.204914    21.357158    21.799219    10803.497    2816.1102    4086.5146    1765.7944   -304.87956    549.23008   -691.31039   -5839.9964 
21317000    128.44599   -6664.8037   -6334.3842   -6664.8037            0    2703.7868    23.278971    21.404414    21.690717    10807.893    2713.2427    2841.4461    2556.6716    628.78731   -529.97637   -723.51506   -5908.2078 
21318000    133.78222   -6672.1601   -6328.0135   -6672.1601            0    2220.9716    23.279272    21.407805    21.654094    10791.493     2296.982    1607.2103    2758.7224   -1358.3445    1025.5508   -762.20029   -5978.4707 
21319000    131.85519   -6680.1514    -6340.962   -6680.1514            0    2113.3613    23.216048    21.437762    21.792443    10846.102    1663.5555     2383.472    2293.0564    321.59057   -557.47261   -472.71976    -6006.672 
21320000    130.20292   -6654.0086   -6319.0695   -6654.0086            0    824.70466    23.333035    21.490064     21.71777    10889.907    686.76961    154.90679    1632.4376   -710.82384    574.01918   -11.223175   -6188.0915 
21321000    135.37526   -6655.2196    -6306.975   -6655.2196            0    2024.1048    23.316325    21.333042    21.730643    10808.999     2909.272    2203.5788    959.46367   -657.37829    904.05674   -635.32902   -5987.8988 
21322000    142.27573   -6644.0217    -6278.026   -6644.0217            0    2657.5978    23.261688    21.375861    21.780631     10830.17     3340.746    3087.2104    1544.8368    113.73515   -804.30281   -936.74636   -5858.2666 
21323000    133.86444    -6674.485   -6330.1268    -6674.485            0    2409.8982    23.322808    21.371017    21.644886    10788.507    2684.3316    2498.1954    2047.1677   -965.21114    161.96418   -117.48887   -5950.9551 
21324000    137.46843   -6671.8405   -6318.2113   -6671.8405            0     2101.991    23.387819    21.370623    21.642945     10817.41    740.16961    2582.7911    2983.0122   -167.22395    418.60888    272.08414   -5986.5995 
21325000    139.70159   -6672.8369   -6313.4631   -6672.8369            0    2256.6066     23.22913    21.326664    21.865014    10831.925    2267.9346    3145.0888    1356.7963   -725.67219    551.23277   -456.64812   -5956.9813 
21326000    135.08703   -6662.7471    -6315.244   -6662.7471            0    2473.2599     23.41617    21.327154    21.631519    10802.786    1650.9992    2026.6198    3742.1607    529.79073   -72.766767    476.47342   -5925.5879 
21327000    133.02666   -6667.5345   -6325.3315   -6667.5345            0    2253.5926    23.294801    21.348697    21.745495    10814.331    2629.0682    2083.0422    2048.6675   -121.11861   -754.71261   -282.86407   -5969.9041 
21328000    137.73645   -6649.3463   -6295.0277   -6649.3463            0    2090.6719    23.325943    21.350355    21.772855    10843.256    1529.5923    2675.2336    2067.1899   -237.70222    536.88172   -31.920976   -5964.4135 
21329000    136.31892   -6680.7494   -6330.0773   -6680.7494            0    1096.0455    23.392702    21.425691    21.674539    10863.384    758.00963    750.44114    1779.6858   -1278.6684   -90.131219    96.870373   -6156.4293 
21330000    138.37577   -6647.9678   -6292.0046   -6647.9678            0    3160.1746     23.29006    21.299527    21.814029    10821.225    2449.6935    4335.7743     2695.056    242.46884    656.12964     259.1931    -5793.277 
21331000    134.30209   -6671.7691   -6326.2852   -6671.7691            0    1921.7589    23.289732    21.361334    21.773538     10832.33    1959.5406     2548.925     1256.811   -447.72334    -68.79168   -386.65508   -6022.6887 
21332000     135.5406   -6671.8194   -6323.1495   -6671.8194            0    2085.4527    23.281193    21.374386    21.752016    10824.264    2126.3893    2736.1492    1393.8198   -22.694954    249.14091   -199.85587   -5993.9383 
21333000    131.95249   -6660.2984   -6320.8586   -6660.2984            0    1279.1929     23.36874    21.446153    21.683398    10867.059    1098.3855    271.56696    2467.6262    -91.13068   -605.13669    489.09541   -6118.1259 
21334000    143.81769   -6656.9649   -6287.0027   -6656.9649            0    1119.3466    23.307605    21.427182    21.830437    10902.476    1507.4572    926.37859      924.204    410.42433   -326.39929     -121.877    -6109.025 
21335000    128.49091   -6650.8513   -6320.3163   -6650.8513            0    1431.6645    23.403107    21.412839    21.665231    10857.031   -85.923433    1603.1446    2777.7723    6.6249366    297.31071    708.79833   -6093.6284 
21336000    135.94772   -6671.8472     -6322.13   -6671.8472            0    1251.8479    23.368812    21.240292    21.841634    10841.322    1118.5599    2343.2154    293.76832    483.97918   -7.4881235     15.35629   -6124.2009 
21337000    134.48144   -6681.8298   -6335.8845   -6681.8298            0    1921.8253     23.36512    21.372491    21.702665    10837.678    1455.4549    2282.1928    2027.8281   -167.93189   -539.91926   -275.67071   -6032.1277 
21338000    134.16057   -6655.5848   -6310.4649   -6655.5848            0    1110.1722    23.377237    21.340679    21.774752    10863.121    1140.1395    1172.9044    1017.4729   -366.14781    779.36893    110.31857   -6134.5831 
21339000    129.46118   -6669.3654   -6336.3344   -6669.3654            0    2960.8977    23.324107    21.190979    21.831638     10790.52    3785.8156    3746.2351    1350.6425    279.87888   -622.28645    264.98799   -5870.3819 
21340000    130.16171   -6656.0414   -6321.2084   -6656.0414            0    2169.6689    23.493783    21.337225     21.61422    10835.038    1186.2609     2804.456    2518.2897   -31.347878   -400.77872   -398.04931   -5978.3618 
21341000    137.00212   -6683.3999   -6330.9703   -6683.3999            0    1155.0515    23.476851    21.222866    21.830305    10876.864    360.47381    1856.5274    1248.1533   -121.80945   -457.14592   -295.84271   -6147.7469 
21342000    131.94544   -6651.2569   -6311.8353   -6651.2569            0    2618.8957    23.406371    21.301264    21.714275    10826.418    2359.2036    2293.0983    3204.3852   -159.56075    421.65995    478.16616   -5898.3321 
21343000    136.51405   -6667.7767   -6316.6026   -6667.7767            0    1772.6022    23.433816    21.325967    21.705543    10847.319    1336.7911    1585.3002    2395.7154   -585.40976   -142.13473     523.4265   -6036.1822 
21344000    136.44309   -6656.8246   -6305.8331   -6656.8246            0    2547.8387      23.3437    21.243123    21.819492    10820.135    2132.3317    3371.1138    2140.0706   -220.86516   -111.55881   -134.32738   -5903.7827 
21345000    131.82406   -6676.0584    -6336.949   -6676.0584            0    1275.8492    23.426857    21.319652    21.744925    10860.555    -42.94435    2913.1815    957.31035    351.86997    406.55457   -214.62691   -6134.8672 
21346000    137.05403   -6649.2843   -6296.7212   -6649.2843            0    2877.1533    23.373507    21.338305    21.667196    10806.536    2629.0555    3363.1508    2639.2535    377.90378   -810.58561    142.40737   -5843.2754 
21347000    136.58013   -6669.0027   -6317.6586   -6669.0027            0    1156.3213    23.332585    21.297243    21.884742     10874.96    2342.9813    965.21005    160.77271   -839.88091   -132.42957   -120.67556   -6134.2659 
21348000     130.6505   -6671.9482   -6335.8577   -6671.9482            0    2556.4398    23.351423    21.343461    21.665093    10797.886    2769.4488    2684.1924    2215.6783   -213.02923   -598.56335   -548.99604   -5933.2796 
21349000    138.11431   -6665.1978   -6309.9072   -6665.1978            0    2759.7896     23.34453    21.333668    21.691087    10802.692     1906.131    3218.5696    3154.6684     79.46476   -132.76681   -231.80852   -5875.1129 
21350000    134.06658   -6669.4556   -6324.5775   -6669.4556            0    2368.6016    23.312079    21.279319    21.823241     10825.75    2712.5208     2394.124      1999.16   -499.75798   -328.92737   -219.30134   -5950.6168 
21351000     134.8841    -6677.713   -6330.7318    -6677.713            0    2954.5975    23.330889    21.356985    21.619382     10772.45    3810.7108    2576.0847    2476.9971   -1046.3675   -109.74979   -91.717869   -5866.5494 
21352000    136.88925   -6669.9171   -6317.7779   -6669.9171            0     2199.642    23.282072     21.31147    21.809309    10821.238    1899.1459     2967.588    1732.1919    936.80526   -591.22176     436.6769   -5970.6377 
21353000    136.13562    -6647.004   -6296.8035    -6647.004            0    1463.0411     23.33516    21.339938    21.823459    10867.447    308.75596    2273.7395    1806.6278   -508.45711    717.63833   -441.89997   -6064.9253 
21354000    137.21944   -6664.1056    -6311.117   -6664.1056            0    2224.6637    23.448448    21.328094    21.611591    10808.188    1467.1924    2482.2747    2724.5238    212.71564   -614.93834    1150.1795   -5960.4514 
21355000    133.52128   -6650.1807   -6306.7054   -6650.1807            0     3190.163    23.324971     21.25867    21.819238     10819.24    3295.9431    3291.6711    2982.8749   -216.17474   -228.88996    230.92031   -5803.3374 
21356000    129.38151   -6657.4272   -6324.6011   -6657.4272            0    2110.4259    23.417004    21.375667    21.670151    10847.083    1490.4638    2145.3765    2695.4375     161.4386   -323.50566    476.68694   -5990.7453 
21357000    128.98843   -6649.7696   -6317.9547   -6649.7696            0    1228.9962    23.410725    21.424952     21.71313    10890.734    537.50301    1765.0502    1384.4356    352.55148    -552.6688     285.5627    -6122.753 
21358000    134.58868   -6661.2467   -6315.0255   -6661.2467            0    2222.0414    23.245313    21.287272    21.888634    10831.137    1696.5651    2771.6948    2197.8643   -1263.1957    1148.1983    575.02676   -5964.0296 
21359000    136.27876   -6675.4009   -6324.8321   -6675.4009            0     2493.192    23.433131    21.351648    21.602007    10808.261    1613.1573    3023.9931    2842.4257    134.84352   -860.25649    359.54118   -5931.8367 
21360000    135.21968   -6667.2084    -6319.364   -6667.2084            0    1985.4981    23.374197    21.353093    21.712163    10836.788    1957.8038    2258.0578    1740.6327   -292.17744   -409.77517   -234.27508   -6005.5691 
21361000    134.00799   -6653.7975   -6309.0701   -6653.7975            0    3164.8727    23.296559    21.247461    21.825534    10803.481    3393.1358    3303.5812    2797.9012   -903.16246    -101.0949    1376.5004   -5810.4201 
21362000    136.29515   -6660.8427   -6310.2317   -6660.8427            0    1900.0534     23.35291    21.387722    21.668423    10822.631    714.80073    2266.6258    2718.7336   -118.66015    352.39123   -246.06427    -6010.333 
21363000    135.32222   -6658.7146   -6310.6064   -6658.7146            0    3087.3964    23.298108    21.391883    21.662292    10796.278    2455.7631    3125.8156    3680.6106    252.11101    201.73799    20.612731   -5824.4877 
21364000    137.29201   -6659.4021   -6306.2268   -6659.4021            0     1714.427    23.159564    21.468993    21.874988    10876.518    1766.3761    2705.3921    671.51271    678.59654   -286.79071   -750.67789   -6034.2795 
21365000    136.89783     -6656.16   -6303.9987     -6656.16            0    2525.8967    23.199653    21.526015    21.632058    10802.965    2264.2507    1953.4367    3360.0027     951.4708    811.91211    322.69534   -5906.0432 
21366000    131.57033   -6674.6889   -6336.2323   -6674.6889            0    3114.6932    23.107563    21.500623    21.693571    10777.952    5335.5409    2272.8615    1735.6771   -508.16005   -982.06971     126.0336   -5846.6481 
21367000    130.14919   -6685.8689    -6351.068   -6685.8689            0    1531.8839    23.110796    21.531692     21.81267    10854.302    2244.4777    912.49499    1438.6791   -35.329524    647.66124    670.95206   -6108.5725 
21368000     129.0108    -6657.099   -6325.2266    -6657.099            0    1773.3092    23.139602    21.629568    21.675614    10848.636     2561.726    1221.3329    1536.8688   -332.42201    -6.300082     101.5016   -6044.6603 
21369000    131.55079   -6657.3273   -6318.9209   -6657.3273            0    2900.3176    23.148134    21.522534    21.691747    10806.969    2547.7039    2748.9897    3404.2593    671.43789    352.83272     212.5044   -5861.8061 
21370000    133.52744   -6657.7155   -6314.2243   -6657.7155            0    1953.5673    23.092843    21.606926    21.745062    10850.033    2620.5151     1282.631    1957.5559   -32.593433   -258.60189    571.52864   -6005.0985 
21371000    136.80196   -6670.0576   -6318.1429   -6670.0576            0    2189.8187    23.193684    21.579086    21.621941    10821.749    3691.7513    1296.6933    1581.0114   -356.54843    145.44124   -495.67703   -5972.5367 
21372000    140.25216   -6655.1763   -6294.3862   -6655.1763            0    1908.9617    23.154067    21.558388    21.755299     10859.47    2134.5631    1356.4791    2235.8428   -92.348448    679.09446   -64.163108   -5992.0558 
21373000    135.61734   -6667.8375   -6318.9702   -6667.8375            0     2054.963    23.101886    21.544002    21.731124    10815.734     3173.638    1977.7456    1013.5056   -188.30064   -398.60501   -77.074277   -5994.8277 
21374000    136.37999   -6661.1836   -6310.3544   -6661.1836            0    3360.2107    23.215327    21.480786    21.622356    10782.712    3895.7783    2433.7593    3751.0947    1013.7887   -284.13218     450.3836   -5781.9452 
21375000    135.55494   -6649.7954   -6301.0886   -6649.7954            0    1403.1054    23.228538     21.52678    21.754146    10877.848    1260.0821       1741.8    1207.4342    50.783859    90.440751    353.14799   -6078.4968 
21376000     136.4239   -6664.1714   -6313.2293   -6664.1714            0    2379.1462    23.144612    21.489437    21.739879    10812.648    3041.6876    2630.0154    1465.7356   -181.96024    548.02669   -1120.9968   -5938.0584 
21377000    136.10613   -6667.4107    -6317.286   -6667.4107            0    2782.6309    23.192765    21.486584    21.663036    10795.412    2560.6681    2879.8462    2907.3783   -425.82688    236.73137    676.47901   -5879.1886 
21378000    133.99488   -6659.1987    -6314.505   -6659.1987            0    2868.9728    23.237369    21.490468    21.656577    10814.904    3126.8275    2567.8865    2912.2044    657.11926    155.91322    -172.7823   -5861.9984 
21379000    136.28221   -6644.5121   -6293.9344   -6644.5121            0    2569.7667    23.039416    21.461906    21.864398    10811.284    3258.2778    3382.5578    1068.4646   -50.564648    600.52146   -560.84004   -5888.7554 
21380000    129.10828   -6673.7401    -6341.617   -6673.7401            0    2334.7779    23.252296    21.476287    21.616393    10794.643    2157.8661    1247.9808    3598.4868     841.6209    61.607261    591.83583   -5974.0557 
21381000     127.4526   -6663.7413   -6335.8772   -6663.7413            0    2861.2568    23.156776    21.463865    21.732117    10801.599    3411.2644    2463.3739     2709.132   -255.21486    365.37017   -938.49347   -5885.1428 
21382000    141.76723   -6660.5123   -6295.8248   -6660.5123            0    3304.4608    23.100508    21.536595    21.659843    10775.908    3850.7591    2966.4038    3096.2194    107.43276   -449.07711   -495.27684   -5776.5104 
21383000    134.96962   -6657.4481    -6310.247   -6657.4481            0     1348.235    23.302833    21.531236    21.635949    10855.595    934.68082    782.16884    2327.8553   -427.25927    1045.0214   -39.148643   -6096.7975 
21384000    133.02444   -6675.2431   -6333.0459   -6675.2431            0    2282.9054    23.146113    21.497659    21.765952     10830.46    3204.5754    2209.1726    1434.9682    -813.4713    -245.6584    -1079.162   -5972.4583 
21385000    130.40554   -6672.1801   -6336.7198   -6672.1801            0    1418.4138    23.272461    21.597057    21.608784    10860.935    462.43487    247.57153     3545.235    806.14921     1239.105       1112.7   -6112.0493 
21386000    139.08294   -6658.3089   -6300.5265   -6658.3089            0    2392.8192    23.156804    21.470498    21.759932     10818.78    3351.2293    2272.5296    1554.6987   -401.05947    290.82089   -164.67464   -5922.9855 
21387000    134.64115   -6667.6983   -6321.3421   -6667.6983            0     2070.167    23.179543    21.481242    21.764453    10837.074      2830.91    1699.3872    1680.2038   -34.812342    -399.7817   -55.014468   -5994.1572 
21388000    133.48156   -6673.4966   -6330.1234   -6673.4966            0    2060.9039    23.242268    21.502185    21.622099     10805.85    1998.9062    1522.6338    2661.1718   -110.62499    257.15565    486.33103   -6005.3409 
21389000    131.18598   -6661.5887   -6324.1207   -6661.5887            0    2980.0919    23.193701    21.468972     21.70633    10808.557    3257.6665    2285.0911     3397.518    751.84171   -760.20634   -421.22131   -5854.3637 
21390000    138.02716   -6673.4618   -6318.3954   -6673.4618            0    1560.8756    23.220747    21.478083    21.774986    10859.994    2586.0229    991.85502    1104.7489   -409.87036   -842.59136    204.20208    -6071.181 
21391000    131.93927   -6664.7793   -6325.3736   -6664.7793            0    2835.0011    23.259624    21.479856    21.627505    10805.391    2848.9797    2332.0235    3324.0001    193.30875     389.1312     359.1482   -5878.6184 
21392000    139.22701   -6676.1015   -6317.9485   -6676.1015            0    1094.4213    23.231251    21.507957    21.760608    10872.835    1757.8843    504.18665    1021.1928   -318.52943     587.1067   -351.63814   -6144.4071 
21393000    132.04935   -6652.0662   -6312.3773   -6652.0662            0    2228.6755    23.197662    21.445448    21.795006    10842.672    2796.8076    3661.2191    227.99985   -788.74365    434.76708   -1039.1509   -5959.9585 
21394000     132.9242   -6661.6032   -6319.6638   -6661.6032            0    2196.2821    23.218608    21.515479    21.630043    10805.493    2362.5898    1466.3232    2759.9333     504.8982   -302.20483    102.93113   -5973.5582 
21395000    137.13372   -6647.7742   -6295.0061   -6647.7742            0    1687.6828    23.169771    21.574001    21.754629     10874.37    2326.7605    1231.4383    1504.8497   -160.79431       90.705    388.25068   -6027.3539 
21396000     128.8475   -6652.7661   -6321.3137   -6652.7661            0    2722.2461    23.259169    21.453989    21.694491    10825.593    2235.8389    2621.5785    3309.3208    580.15015   -312.66199    198.38621   -5891.5251 
21397000    133.02907    -6670.353   -6328.1438    -6670.353            0    1475.5553    23.261806    21.459067    21.704991    10834.625     2577.354    418.33005    1430.9819   -1255.8732    16.516795   -35.137709   -6094.9886 
21398000    132.39422   -6672.1419   -6331.5659   -6672.1419            0    2052.3766    23.288607    21.400967    21.740447    10835.411    1440.4839    2541.9632    2174.6827    1107.5301   -486.14517   -429.28445   -6007.2425 
21399000    137.14546   -6650.8239   -6298.0256   -6650.8239            0    2087.9105    23.195621    21.485013    21.744552    10836.576    2798.6451    1561.3816    1903.7049   -805.16471   -34.692396    810.45826   -5968.0515 
21400000    134.92348   -6671.3616   -6324.2792   -6671.3616            0     2195.513    23.291181    21.391018    21.717167    10819.972    2506.5158    2046.0579    2033.9654    554.75231    -504.5498    484.11248   -5977.8312 
21401000    134.02554   -6647.3809   -6302.6083   -6647.3809            0    1495.9842    23.359186    21.382261    21.750482    10863.762    900.27305    2536.5111    1051.1684   -483.49066    74.304485   -214.11307   -6065.5894 
21402000    130.04231    -6666.463   -6331.9371    -6666.463            0    1591.7587    23.274056    21.314452    21.930589    10879.189    2165.8822    1997.2303    612.16372    1047.8323   -102.61755    78.036374   -6079.3858 
21403000    138.19687   -6651.8241   -6296.3211   -6651.8241            0    1216.1105    23.382506    21.441732    21.671421    10865.214    2021.2752    706.78942    920.26691     -135.335   -533.75784    131.38763   -6103.6187 
21404000    137.64221   -6669.3917   -6315.3155   -6669.3917            0    2141.9073    23.343169    21.353425    21.744408    10838.644    1980.6407    2431.7238    2013.3574     167.8013    382.91533   -12.864606   -5976.7431 
21405000    129.46067   -6667.6394   -6334.6097   -6667.6394            0    2050.4735    23.326132    21.362205    21.800206    10862.991    1673.7387    2336.8896    2140.7923   -640.90222    -541.8989   -641.37099   -6009.7622 
21406000    130.29578   -6681.5593   -6346.3814   -6681.5593            0    455.85019    23.398965    21.424155    21.735263    10895.954    168.36231    36.005539    1163.1827   -723.53549    223.50227    18.825985   -6273.9439 
21407000    131.50092   -6660.9419   -6322.6638   -6660.9419            0    2078.3381     23.34182    21.351624    21.750717    10840.248     1766.401    2128.6166    2339.9967    1574.3253    -786.3381   -300.92831   -5994.0912 
21408000    137.18517   -6678.3245    -6325.424   -6678.3245            0    2239.3299    23.324769    21.317035    21.737468    10808.193    2225.7278    1996.4406    2495.8213   -128.47638   -6.1659142    722.07763   -5972.4465 
21409000    136.01965   -6663.3618   -6313.4595   -6663.3618            0     2652.399    23.402476    21.338182    21.661782    10817.164    2136.5652    3091.8218    2728.8099   -104.25026    80.655883   -104.47556   -5895.0244 
21410000    131.89223   -6658.4713   -6319.1866   -6658.4713            0    2370.3418      23.2595    21.322787    21.795421    10809.599    2855.9849    3006.1038    1248.9367   -1413.6134    582.24683   -14.355101   -5945.5095 
21411000    133.24173   -6676.9556   -6334.1994   -6676.9556            0    3130.3128    23.309176    21.362736    21.676487    10793.758    2796.3788    2972.4156    3622.1439    87.905008   -482.97681   -544.24667   -5841.4384 
21412000    133.89007   -6660.1799   -6315.7559   -6660.1799            0    2148.0149    23.315533    21.323302    21.750786    10813.711    1494.9787    2337.0174    2612.0486   -33.196935    325.22406     693.4253   -5976.9991 
21413000    133.16698   -6660.8154   -6318.2515   -6660.8154            0    1577.1733     23.47559    21.306589    21.662008    10835.006    841.54254    3275.9624    614.01512    118.08193   -354.68899   -112.05208   -6069.0306 
21414000    133.20743   -6672.4454   -6329.7774   -6672.4454            0    3418.6079      23.2661    21.381039    21.687331    10788.436    2312.1127    3688.5488    4255.1623     657.6791    256.09234   -314.23551   -5791.8995 
21415000    137.37564   -6668.0737   -6314.6832   -6668.0737            0    2502.4911    23.265052    21.345477    21.745296    10798.793    2926.2539    2892.6161    1688.6034   -186.61956    179.10292    306.39414   -5920.5676 
21416000    130.72287   -6634.3927   -6298.1161   -6634.3927            0    1945.0526    23.351411    21.355867    21.785186    10864.046    1463.0196    2717.6555    1654.4827    362.41162   -321.07451    378.26836   -5989.9401 
21417000    137.25306   -6673.4662   -6320.3911   -6673.4662            0    1659.2311     23.36979    21.439233    21.656076    10850.352    619.35224    1500.0359     2858.305   -265.24487    510.51551   -0.9287608   -6057.8323 
21418000    139.02974   -6655.8519   -6298.2064   -6655.8519            0    2337.0414    23.288113    21.366312    21.741379    10818.099    2389.6429     3146.861    1474.6205    593.68971   -292.25971    185.65508   -5929.4893 
21419000     138.5243   -6641.0692   -6284.7238   -6641.0692            0    3530.1493    23.175333    21.401385    21.748311    10786.819    3927.8908    3645.0709    3017.4863   -1626.7148    718.66518    226.91738   -5729.3795 
21420000    139.26689   -6682.1019   -6323.8463   -6682.1019            0     1089.312    23.280732    21.518662    21.674464    10858.261    1505.4149    1203.1374    559.38368    151.60411   -765.89867   -1267.4338   -6151.3466 
21421000    135.00625   -6661.0356   -6313.7403   -6661.0356            0    1129.3304    23.232127    21.536661    21.710339    10862.604    1427.3463    335.01764    1625.6271   -714.88992    553.98448   -135.01577   -6134.8318 
21422000     137.5928   -6668.8673   -6314.9182   -6668.8673            0    2881.5435    23.229489    21.497378    21.649428    10811.142    3196.3768     2126.613    3321.6406    599.98983    192.69751   -321.26256    -5860.587 
21423000    131.80513   -6666.6455   -6327.5848   -6666.6455            0    2517.5814    23.238038    21.543535    21.589195    10808.188    2987.8994    2002.1947    2562.6499    -606.6805    620.11585   -32.771089   -5930.7477 
21424000    130.53969   -6666.5054      -6330.7   -6666.5054            0    1124.1756    23.226907    21.458426    21.842193     10886.43    1744.3232     638.1638    990.03968   -300.42445    359.18164    133.76127   -6152.2176 
21425000    131.66967   -6651.7514   -6313.0392   -6651.7514            0    1447.6573      23.2885    21.532196    21.684795    10873.895    1554.8942    452.07738    2336.0004    512.46008    473.89278    1571.8063    -6083.463 
21426000    130.83001   -6665.9779   -6329.4256   -6665.9779            0     1732.467    23.247979    21.492806    21.714287    10849.854     3003.686    1160.9763    1032.7388   -187.98436   -572.87246   -787.50368   -6055.2905 
21427000     140.9231   -6655.4542   -6292.9381   -6655.4542            0    1547.2154    23.195974    21.509963    21.786455    10870.233    2704.3175    224.76115    1712.5676    639.36034   -1134.7352     826.6982   -6047.6562 
21428000    134.01677   -6653.0579   -6308.3079   -6653.0579            0    1293.4121    23.114343    21.607658    21.779149    10877.526    2475.4946    445.19796     959.5438   -719.26728    542.73688   -372.18629   -6103.1242 
21429000    135.03808   -6662.9367   -6315.5594   -6662.9367            0    1922.8958    23.206677    21.539069    21.712494    10852.995    2506.2444    1334.3575    1928.0856    587.79241    400.24019     137.3263   -6011.2039 
21430000    136.43988   -6660.6912   -6309.7079   -6660.6912            0    2147.4399    23.148833    21.539117    21.703031    10821.249     2730.559    1645.4767    2066.2839      107.968    859.95481    294.15839   -5970.8058 
21431000    135.49484   -6674.6513   -6326.0991   -6674.6513            0    2046.5055    23.096403    21.642489    21.670424    10832.257    2836.9325    603.33465    2699.2495    687.45645   -443.88627   -57.833741   -6002.7975 
21432000    136.82702    -6656.952   -6304.9728    -6656.952            0    2523.4125    23.146669    21.516407     21.69944     10807.04     3084.663    2022.8896     2462.685   -636.44326     901.4166    90.877275   -5907.2588 
21433000    131.29626   -6664.0322   -6326.2806   -6664.0322            0    2651.5539    23.163352    21.493538    21.689798    10798.534    3182.4483    1527.4966    3244.7169    206.03293    409.73704    440.09263   -5908.6992 
21434000    134.38427   -6671.3607   -6325.6654   -6671.3607            0    2641.3902    23.043581    21.504891    21.809781     10807.83    4032.5466    2350.0733    1541.5506   -1054.4414     647.3361    93.640702   -5909.3265 
21435000    139.47508   -6662.6652    -6303.874   -6662.6652            0    2699.3083     23.27566    21.514866     21.57898    10806.164    1858.8672    2723.0544    3516.0034    -490.7401    1222.9953   -569.92684   -5878.4717 
21436000    136.82302   -6655.8512   -6303.8823   -6655.8512            0    1686.1301    23.257964    21.495823    21.736483    10867.135    1947.1317    1307.4314    1803.8273   -930.45962    186.23124    -92.27156   -6036.6543 
21437000    130.79552   -6672.3922   -6335.9286   -6672.3922            0    1591.0327    23.185671    21.465515    21.831949    10865.594    2079.0181     1094.564    1599.5158   -786.01664    262.82316    50.272611    -6083.808 
21438000    137.95778   -6653.5214   -6298.6334   -6653.5214            0    1020.1565    23.341508    21.581637    21.585162    10873.481     1463.809   -352.61669    1949.2771    583.76688   -1428.2599   -158.63471   -6136.8585 
21439000    130.61405    -6676.564   -6340.5673    -6676.564            0    2003.8676    23.242801    21.396948    21.788186    10835.809     1473.764    3197.8253    1340.0135    452.47537    82.108838    68.525172   -6023.8977 
21440000    140.74838   -6649.2539   -6287.1872   -6649.2539            0    2043.5865    23.256332    21.430449    21.770329    10850.193    2519.3061    1257.0922    2354.3611   -523.59485   -87.404309   -341.40183   -5963.8123 
21441000    132.85835   -6642.0954   -6300.3254   -6642.0954            0    1188.8248    23.439077    21.501448    21.573953    10872.713    1276.7254    440.84621    1848.9029   -668.66217    161.15154   -212.16576   -6111.8166 
21442000    136.98598   -6660.6099   -6308.2218   -6660.6099            0    1902.9269    23.265121    21.406168    21.818963    10866.216     2478.296    1891.8974    1338.5872   -612.44475   -251.93933    54.521818     -6006.66 
21443000    137.96968   -6683.3729   -6328.4543   -6683.3729            0    1578.6087     23.33696    21.421139    21.711732    10853.788    1805.2548    1900.9575    1029.6138   -902.38797   -387.84381    278.88416   -6078.5742 
21444000    132.86318   -6656.5949   -6314.8124   -6656.5949            0    856.57389    23.400225    21.457788    21.692284    10892.066    1153.0252    1248.0456    168.65087    488.93213    760.15639    135.56551    -6178.746 
21445000     140.5854   -6666.7199   -6305.0725   -6666.7199            0     2775.854    23.188276    21.415339    21.788178    10819.678    3405.6321    3376.4499      1545.48   -412.92421   -151.35557   -709.15858   -5867.0597 
21446000    132.01722   -6660.3197   -6320.7134   -6660.3197            0    1713.2651    23.299263    21.511513    21.628851    10840.432    941.47806    1254.1761    2944.1411   -68.384491    1374.3725    9.0265744   -6049.8521 
21447000    136.47841   -6668.5636   -6317.4812   -6668.5636            0    1277.7387    23.305156    21.488365    21.710685    10872.487    1109.9647    1549.1541    1174.0975    485.58191   -117.56057    243.28924   -6114.8777 
21448000     135.4758   -6653.8784   -6305.3751   -6653.8784            0    1557.3798    23.235868    21.457762    21.820117    10879.286    1887.9378    1719.9015    1064.3001   -275.95061   -303.22793   -485.12437   -6058.2762 
21449000     142.0237    -6668.401   -6303.0537    -6668.401            0    2385.4701    23.312872    21.468837    21.633522    10827.583    2476.3466    1766.3862    2913.6775   -721.37712    966.86888    550.72454    -5926.366 
21450000    129.67369   -6660.1116    -6326.534   -6660.1116            0    2504.9949     23.22668    21.403821    21.811432    10843.328     2783.825    2725.1155    2006.0442   -563.92835   -41.174177   -181.23438    -5930.397 
21451000    135.76642   -6661.2325   -6311.9817   -6661.2325            0    1569.2406    23.257922    21.410486    21.835449    10873.255    1651.7338    1767.3623    1288.6257   -56.081334   -628.54341   -45.008697   -6063.1389 
21452000    135.84536   -6667.6167   -6318.1628   -6667.6167            0    1706.8208    23.326885    21.414843    21.700227    10840.166    862.18585    2691.2822    1566.9944    182.34321     325.0877   -539.44003   -6048.3269 
21453000    127.38956   -6671.5573   -6343.8554   -6671.5573            0    1824.9335    23.249356    21.492682    21.720243     10853.41    2024.0524    1676.1357    1774.6123    -233.5093    580.65571   -783.99694   -6054.9943 
21454000     132.7648   -6661.6385   -6320.1092   -6661.6385            0       1928.6    23.244119     21.44514    21.732205    10832.926    1984.9575    1938.1834    1862.6589   -7.2525136    239.16239    61.527078   -6015.4152 
21455000      134.946   -6675.0088   -6327.8684   -6675.0088            0    2153.3354    23.264197    21.483387    21.655851    10823.459    2163.6861    1639.1965    2657.1237   -425.89064   -9.9867014   -22.296897   -5987.9665 
21456000    128.75268   -6668.1346   -6336.9262   -6668.1346            0    1580.0106     23.23099    21.492101    21.764033    10866.407    1628.0083    2806.7981    305.22546    767.06013   -162.07998    -1052.178   -6086.5333 
21457000    130.13447   -6664.8266   -6330.0636   -6664.8266            0    1190.4418    23.219618    21.476434    21.778636    10860.452    1237.2598    624.27173    1709.7938    1148.0888    519.43919    722.96324   -6141.5112 
21458000    136.46539   -6661.4925   -6310.4436   -6661.4925            0    2365.1597    23.264549    21.450091    21.694303    10826.036    2299.0657    3028.1369    1768.2764    535.80742    507.24496   -311.35943   -5937.0165 
21459000    141.40154   -6671.0985   -6307.3517   -6671.0985            0    2327.0391     23.28799    21.439556    21.710623    10839.771    2190.2769     2264.582    2526.2583    301.69482      159.824    -909.6585   -5939.4772 
21460000    133.70282   -6662.1743   -6318.2319   -6662.1743            0    1797.3143    23.251338    21.411603    21.768566    10837.446     1732.472    2241.4759    1417.9949    565.76259    948.59106    1341.3805    -6034.161 
21461000    136.19999   -6657.7266   -6307.3604   -6657.7266            0    2337.4877    23.242023    21.427642    21.742265    10828.121    2887.0559    1648.5548    2476.8524    1182.2743   -372.89174    559.01777   -5938.2313 
21462000    133.99225    -6671.043   -6326.3561    -6671.043            0      1909.58    23.261372    21.482702    21.684835    10836.284    2473.4906    1157.0429    2098.2067     543.8635   -533.39358   -451.11269   -6024.5735 
21463000    134.67865   -6665.3194   -6318.8668   -6665.3194            0    2419.6984    23.256715     21.38906    21.716432    10802.606    2286.9183     2147.124    2825.0529    459.57474    101.40869    194.65116   -5937.6555 
21464000    133.37832   -6659.0929   -6315.9853   -6659.0929            0    2484.7692    23.298439    21.397558    21.678396    10807.325    1970.5317     2467.943    3015.8329    1002.5598     672.9639    708.60874   -5924.3515 
21465000    132.54354   -6680.4003   -6339.4401   -6680.4003            0    1964.1472    23.284137    21.370464    21.787445    10841.276    2703.9263    1134.1238    2054.3915   -146.19621    28.100257    84.039255    -6028.891 
21466000    133.08131   -6665.3177   -6322.9742   -6665.3177            0    1568.3592    23.353186    21.380984    21.718625    10844.416    1417.2233    1163.7705    2124.0839     217.9789   -124.44403    426.13516   -6074.9308 
21467000    135.52947   -6671.4709   -6322.8296   -6671.4709            0    1649.1343    23.442512    21.328336    21.707568    10853.562    731.72538    2429.8565     1785.821   -183.05342    679.72633   -223.27773   -6061.7913 
21468000    140.65743   -6665.8106   -6303.9779   -6665.8106            0    2034.5905     23.40386    21.258529    21.817529    10854.911    2291.0988     2563.528    1249.1449    542.61653   -113.96511   -47.957887   -5981.8865 
21469000    135.74052   -6669.6105   -6320.4262   -6669.6105            0     2338.269    23.411307    21.224761    21.770525    10817.761    1747.3298    3713.3352    1554.1418    913.88602   -470.86407    243.51204    -5951.527 
21470000    129.00194   -6670.3494   -6338.4998   -6670.3494            0     2183.666     23.46447    21.186286    21.779317    10827.042    1932.9939    3489.4339    1128.5703   -302.05205   -352.88756   -36.740452   -5993.6961 
21471000    129.11296    -6659.234   -6327.0988    -6659.234            0    2186.9463    23.339475    21.287057    21.810768    10836.216    2089.4626    3522.6322    948.74409   -12.309234   -136.44388   -772.79499   -5981.4845 
21472000    135.09885   -6679.0765   -6331.5429   -6679.0765            0    2007.9345    23.392715     21.35232    21.680128     10828.98    965.17952    2731.1889    2327.4351   -359.43332    798.95546   -115.18936   -6014.4307 
21473000     136.0629   -6677.8966   -6327.8831   -6677.8966            0    1295.9991    23.461358    21.364769    21.644726    10849.343     1385.628    1225.4879    1276.8815    -245.2846    369.38306    447.33053   -6122.8216 
21474000    138.07549   -6652.3729   -6297.1822   -6652.3729            0    3619.3089      23.2561    21.233586    21.868391    10798.839    4981.4844    3487.0554     2389.387   -819.02254    814.52769   -856.36478   -5727.1772 
21475000    132.79688   -6667.7031   -6326.0912   -6667.7031            0    2170.7815    23.467295    21.345411    21.562315    10800.975    2073.4524     1502.308    2936.5842     98.78624   -847.87356    55.880796   -5984.1472 
21476000     135.4043   -6665.0938   -6316.7744   -6665.0938            0    2005.1916    23.257088    21.347111    21.831731    10838.835    2675.3057    2088.3401    1251.9291   -461.00413    450.45759   -768.43891   -5999.8072 
21477000    135.87577   -6633.2925   -6283.7604   -6633.2925            0    3810.9397    23.300915     21.37518    21.597754    10757.004    3455.5579    4248.3425    3728.9186    433.02809     215.5489    666.58673   -5685.9006 
21478000    139.28687   -6650.7348   -6292.4278   -6650.7348            0    3246.8467    23.257537    21.361077    21.719386    10790.322     3899.343    2894.1211    2947.0759   -466.24282   -394.63649   -43.971302   -5781.4852 
21479000    140.03495    -6666.435   -6306.2036    -6666.435            0    2590.0021    23.190068    21.407231    21.780698    10812.704     2580.498     2720.204    2469.3043    641.30162   -55.731411    742.87002   -5897.7805 
21480000    138.85454   -6655.2379   -6298.0431   -6655.2379            0    2042.4117    23.322715    21.499144    21.618913    10840.121     1488.513     1350.858     3287.864    355.33717   -304.80118   -152.89354    -5975.154 
21481000    135.18139   -6644.8747   -6297.1288   -6644.8747            0    1971.0319    23.224709    21.451638    21.758139     10840.08    1799.9148    703.70837    3409.4724   -565.12139    1584.4543    974.32635   -5985.5256 
21482000    140.72756   -6673.0053   -6310.9923   -6673.0053            0    2106.1748    23.245621    21.498899    21.685387    10837.386     2769.679     753.3688    2795.4766    -315.7521   -854.84703    488.92525   -5978.1068 
21483000    133.47216   -6672.4395   -6329.0905   -6672.4395            0    1669.7482    23.207772    21.517206    21.722121    10847.298    1781.7151    1159.7083    2067.8212    -448.8386    559.45852   -103.99609   -6064.9419 
21484000    135.64439   -6664.9924   -6316.0555   -6664.9924            0    1993.8351    23.167811    21.603397    21.680909    10851.369    2462.7411    933.06569    2585.6985   -178.41836   -362.61357    117.20742   -6000.5189 
21485000    137.09336   -6672.4724   -6319.8081   -6672.4724            0    2551.3322    23.167087    21.522348    21.685111    10812.416    3012.4035    1835.7053    2805.8879    266.83431   -17.760777   -31.162893   -5917.4937 
21486000    134.25201     -6670.12   -6324.7649     -6670.12            0    1309.7722    23.209415    21.551159    21.707934    10858.087    1432.9442    923.11944     1573.253   -11.805685    59.586626   -29.137634   -6117.3571 
21487000    132.33138   -6665.5034    -6325.089   -6665.5034            0    1958.7493    23.213941    21.535288     21.65166    10824.074    1433.3911    2245.6421    2197.2148    621.54558   -251.64871    83.344307   -6015.8847 
21488000    139.16618   -6651.4382   -6293.4417   -6651.4382            0    4004.7988    23.113373    21.417835    21.762206    10773.128    5514.0679    3958.7981    2541.5304   -163.62583    477.73672   -39.806518   -5664.2277 
21489000     129.4296   -6657.5712   -6324.6215   -6657.5712            0    2066.3783    23.256389    21.502357    21.666585    10834.748    1752.1367    2068.5418    2378.4565    180.49846   -491.78572   -773.94871   -5998.1054 
21490000    133.42828   -6654.3374   -6311.1013   -6654.3374            0    2277.8488    23.202468    21.475237    21.736794    10830.977    2657.0282    2032.0121    2144.5062    478.48765    223.65976   -230.81195   -5951.2953 
21491000    137.76894   -6680.4275   -6326.0253   -6680.4275            0    2130.0385    23.171665    21.509761    21.712184    10821.721    2729.0021    1530.4001    2130.7132   -405.31854   -366.91905    646.43405   -5989.8548 
21492000    136.33126   -6671.5623   -6320.8584   -6671.5623            0    2823.9524    23.190387    21.524804    21.633786    10798.905    2917.5899    2307.0822     3247.185    530.15117    416.67712    289.38728   -5876.1114 
21493000    132.99373   -6651.0502    -6308.932   -6651.0502            0    2125.7663    23.207234    21.520598    21.708549    10841.978    1627.6113    1935.0209    2814.6668    253.54624    133.55663    409.51196   -5972.8077 
21494000    133.14907   -6657.4716   -6314.9537   -6657.4716            0    2974.1745    23.143125    21.518641    21.662426    10788.075     3488.474    2069.9595      3364.09    1169.7131     643.4246    231.50907   -5847.0179 
21495000    141.35375   -6655.4159   -6291.7919   -6655.4159            0    2002.4675     23.17727    21.570413    21.702758    10850.148     1632.458    1480.2802    2894.6645    54.894756    89.368329     352.8933   -5974.9249 
21496000    130.36704   -6658.1301   -6322.7688   -6658.1301            0    2308.5836    23.126681    21.537481    21.753965    10835.442    2261.1723    2050.9832    2613.5952   -565.06197     400.4567    22.059211   -5957.9577 
21497000    135.26765    -6664.117   -6316.1492    -6664.117            0    1713.9542    23.298316     21.49529    21.618946    10826.856    2183.6572    667.24008    2290.9652    333.46222   -42.621549    871.61642   -6045.5182 
21498000    131.98354   -6647.4462   -6307.9266   -6647.4462            0    1196.3221    23.175762     21.42841    21.925509     10888.64    1251.0292    1329.6147    1008.3225     279.1688   -328.10146    197.48779   -6117.9511 
21499000    132.58191   -6662.0258   -6320.9669   -6662.0258            0    3170.4562    23.250721    21.496124     21.57977    10785.578    3017.9564    2958.5948    3534.8174    822.74398   -542.15631   -564.45345    -5822.265 
21500000    136.51252   -6637.6545   -6286.4843   -6637.6545            0    2184.3512    23.285314    21.476098    21.675803    10839.585     2372.976    1821.3955    2358.6821    131.98279    216.86711    283.97057   -5941.1729 
Loop time of 563.493 on 64 procs for 250000 steps with 1296 atoms

Performance: 76.665 ns/day, 0.313 hours/ns, 443.661 timesteps/s
196.9% CPU use with 32 MPI tasks x 2 OpenMP threads

MPI task timing breakdown:
Section |  min time  |  avg time  |  max time  |%varavg| %total
---------------------------------------------------------------
Pair    | 37.669     | 47.924     | 60.651     |  79.0 |  8.50
Bond    | 0.64203    | 0.9561     | 1.2079     |  13.3 |  0.17
Kspace  | 294.49     | 309.29     | 328.59     |  46.0 | 54.89
Neigh   | 1.4899     | 1.7228     | 2.006      |  12.6 |  0.31
Comm    | 69.16      | 81.15      | 91.999     |  67.3 | 14.40
Output  | 0.56534    | 0.56568    | 0.5673     |   0.1 |  0.10
Modify  | 105.12     | 109.19     | 112.4      |  18.6 | 19.38
Other   |            | 12.7       |            |       |  2.25

Nlocal:        40.5000 ave          53 max          30 min
Histogram: 2 3 2 7 6 4 3 4 0 1
Nghost:        3081.19 ave        3119 max        3046 min
Histogram: 2 1 1 11 4 5 2 1 2 3
Neighs:        12878.6 ave       16911 max        9539 min
Histogram: 2 3 2 7 6 5 1 5 0 1

Total # of neighbors = 412114
Ave neighs/atom = 317.98920
Ave special neighs/atom = 2.0000000
Neighbor list builds = 3628
Dangerous builds = 0

unfix		3
unfix		2
unfix		1

write_data	data.final.${pid}
write_data	data.final.0
System init for write_data ...
PPPM initialization ...
  extracting TIP4P info from pair style
  using 12-bit tables for long-range coulomb (../kspace.cpp:340)
  G vector (1/distance) = 0.36786143
  grid = 27 40 32
  stencil order = 5
  estimated absolute RMS force accuracy = 0.004391816
  estimated relative force accuracy = 1.3225823e-05
  using double precision FFTW3
  3d grid and FFT values/proc = 6783 1120
Last active /omp style is kspace_style pppm/tip4p/omp
WARNING: Not all mixed pair coeffs generated from mixing. Use write_data with 'pair ij' option to store all pair coeffs. (../write_data.cpp:312)

write_restart   restart.lmp.${pid}
write_restart   restart.lmp.0
System init for write_restart ...
PPPM initialization ...
  extracting TIP4P info from pair style
  using 12-bit tables for long-range coulomb (../kspace.cpp:340)
  G vector (1/distance) = 0.36786143
  grid = 27 40 32
  stencil order = 5
  estimated absolute RMS force accuracy = 0.004391816
  estimated relative force accuracy = 1.3225823e-05
  using double precision FFTW3
  3d grid and FFT values/proc = 6783 1120
Last active /omp style is kspace_style pppm/tip4p/omp
Total wall time: 0:09:23
