LAMMPS (30 Jul 2021)
Processor partition = 1
  using 2 OpenMP thread(s) per MPI task
using multi-threaded neighbor list subroutines
variable        pid world 0 1
variable        phase world IceV IceIII

shell cd ${phase}
shell cd IceIII
include Restart.lmp
echo both
log log.lammps
#include		in.partitions
include		in.temp
variable        temperature equal 256.47
variable	tempDamp equal 100.0
include		in.pressure
variable        pressure equal 7762.6
variable        pressureDamp equal 1000.0 # This is 1 ps
include		in.seed
variable        seed equal 745823

units		real
atom_style	full

read_restart	restart.lmp.${pid}
read_restart	restart.lmp.1
Reading restart file ...
  restart file = 30 Jul 2021, LAMMPS = 30 Jul 2021
  restoring atom style full from restart
  orthogonal box = (0.079833860 -0.0075909056 0.054479798) to (19.920167 20.007592 20.645518)
  2 by 4 by 4 MPI processor grid
  restoring pair style lj/cut/tip4p/long/omp from restart
  restoring bond style harmonic/omp from restart
  restoring angle style harmonic/omp from restart
  972 atoms
  648 bonds
  324 angles
Finding 1-2 1-3 1-4 neighbors ...
  special bond factors lj:    0        0        0       
  special bond factors coul:  0        0        0       
     2 = max # of 1-2 neighbors
     1 = max # of 1-3 neighbors
     1 = max # of 1-4 neighbors
     2 = max # of special neighbors
  special bonds CPU = 0.002 seconds
  read_restart CPU = 0.013 seconds
include 	in.setup
variable	out_freq equal 1000
variable	out_freq2 equal 10000
variable	out_freq3 equal 1000

timestep	2.0

neigh_modify    delay 7 every 1

include		in.tip4p
# This is TIP4P/Ice

# create groups ###
group ox type 2
324 atoms in group ox
group hy type 1
648 atoms in group hy

# set charges - beside manually ###
set group ox charge -1.1794
Setting atom values ...
  324 settings made for charge
set group hy charge 0.5897
Setting atom values ...
  648 settings made for charge

# ### TIP3P Potential Parameters ###
pair_style lj/cut/tip4p/long/omp 2 1 1 1 0.1577 8.5
pair_coeff 1 1*2 0.000 0.000
pair_coeff 2 2 0.21084 3.1668
bond_style  harmonic
bond_coeff  1 450 0.9572
angle_style harmonic
angle_coeff 1 55 104.52
kspace_style pppm/tip4p/omp 1.0e-5
pair_modify tail yes

thermo          ${out_freq}
thermo          1000
thermo_style    custom step temp pe etotal epair emol press lx ly lz vol pxx pyy pzz pxy pxz pyz enthalpy

restart 	${out_freq3} restart.lmp.${pid} restart2.lmp.${pid}
restart 	1000 restart.lmp.${pid} restart2.lmp.${pid}
restart 	1000 restart.lmp.1 restart2.lmp.${pid}
restart 	1000 restart.lmp.1 restart2.lmp.1


include         in.dump
dump            myDump all atom ${out_freq2} dump.water.${pid}
dump            myDump all atom 10000 dump.water.${pid}
dump            myDump all atom 10000 dump.water.1
dump            myDump2 all dcd ${out_freq2} dump.dcd
dump            myDump2 all dcd 10000 dump.dcd
dump_modify     myDump append yes
dump_modify     myDump2 append yes


variable natoms 	equal  "count(all)"                        # NUMBER ATOMS
variable H      	equal  "enthalpy/v_natoms"                 # ENTHALPY-per-atom
variable Vol      	equal  "vol/v_natoms"                 # volume-per-atom
fix AVG all 		ave/time ${out_freq} 1 ${out_freq} v_Vol v_H file vol_enthalpy.dat
fix AVG all 		ave/time 1000 1 ${out_freq} v_Vol v_H file vol_enthalpy.dat
fix AVG all 		ave/time 1000 1 1000 v_Vol v_H file vol_enthalpy.dat


timer           timeout 02:55:00 every 1000
New timer settings: style=normal  mode=nosync  timeout=02:55:00

fix 		1 all shake 1e-6 200 0 b 1 a 1
Finding SHAKE clusters ...
       0 = # of size 2 clusters
       0 = # of size 3 clusters
       0 = # of size 4 clusters
     324 = # of frozen angles
  find clusters CPU = 0.000 seconds
fix             2 all nph aniso ${pressure} ${pressure} ${pressureDamp}
fix             2 all nph aniso 7762.6 ${pressure} ${pressureDamp}
fix             2 all nph aniso 7762.6 7762.6 ${pressureDamp}
fix             2 all nph aniso 7762.6 7762.6 1000
fix             3 all temp/csvr ${temperature} ${temperature} ${tempDamp} ${seed}
fix             3 all temp/csvr 256.47 ${temperature} ${tempDamp} ${seed}
fix             3 all temp/csvr 256.47 256.47 ${tempDamp} ${seed}
fix             3 all temp/csvr 256.47 256.47 100 ${seed}
fix             3 all temp/csvr 256.47 256.47 100 745823


run             250000
PPPM initialization ...
  extracting TIP4P info from pair style
  using 12-bit tables for long-range coulomb (../kspace.cpp:340)
  G vector (1/distance) = 0.37168818
  grid = 24 24 24
  stencil order = 5
  estimated absolute RMS force accuracy = 0.0035724495
  estimated relative force accuracy = 1.0758325e-05
  using double precision FFTW3
  3d grid and FFT values/proc = 3211 432
Last active /omp style is kspace_style pppm/tip4p/omp
Neighbor list info ...
  update every 1 steps, delay 7 steps, check yes
  max neighbors/atom: 2000, page size: 100000
  master list distance cutoff = 10.8154
  ghost atom cutoff = 10.8154
  binsize = 5.4077, bins = 4 4 4
  1 neighbor lists, perpetual/occasional/extra = 1 0 0
  (1) pair lj/cut/tip4p/long/omp, perpetual
      attributes: half, newton on, omp
      pair build: half/bin/newton/omp
      stencil: half/bin/3d
      bin: standard
Setting up Verlet run ...
  Unit style    : real
  Current step  : 1250000
  Time step     : 2
  Walltime left : 2:54:59.94
Per MPI rank memory allocation (min/avg/max) = 10.18 | 10.19 | 10.19 Mbytes
Step Temp PotEng TotEng E_pair E_mol Press Lx Ly Lz Volume Pxx Pyy Pzz Pxy Pxz Pyz Enthalpy 
 1250000    255.48883   -4660.7728   -4168.0411   -4660.7728            0    6214.4498    19.840333    20.015183    20.591038     8176.864    7034.0261    5794.4525    5814.8708   -545.75557   -329.39362   -1095.1073   -3426.9606 
 1251000    256.53278   -4702.8488   -4208.1037   -4702.8488            0    7562.0221    19.759623    20.244792    20.321026    8129.0092    9013.0105    4203.6923    9469.3634    609.82883    902.74063   -942.00434   -3311.6014 
 1252000     245.3973   -4678.2917   -4205.0224   -4678.2917            0    7615.0519    20.239908    19.724924      20.5469    8202.9523    6861.2584    8833.2894    7150.6079   -1182.5629     299.6056    564.90845   -3294.0212 
 1253000    256.22499   -4712.3269   -4218.1755   -4712.3269            0    7136.5264     19.69386    20.058638    20.666438    8163.9047    7630.7474    7066.0451    6712.7866    393.74665    2261.9392    -30.75701   -3368.4851 
 1254000    243.09575   -4713.9773   -4245.1467   -4713.9773            0    6158.8709     19.94002    19.780483     20.82314    8213.1302    5611.7532    5683.7405    7181.1191    597.05648   -75.455589   -772.11851   -3507.4367 
 1255000    250.73621    -4692.213   -4208.6471    -4692.213            0    5912.9111    19.669943    19.988531    20.757643      8161.35    7285.1868    5554.5154    4899.0311    677.05578    609.27815   -703.46613   -3504.8633 
 1256000    243.75274   -4653.6913   -4183.5936   -4653.6913            0      7936.36     20.04272    19.875897    20.345678    8105.0474    7658.1303    6677.5466     9473.403   -102.07851    196.69158   -919.49677   -3245.4857 
 1257000    261.50937   -4707.5455   -4203.2027   -4707.5455            0    7833.9785     19.69996    19.944278    20.717003     8139.741    7183.2862    7939.3045    8379.3448   -65.050666    542.65094    889.57179   -3273.2329 
 1258000    251.50851   -4680.2878   -4195.2324   -4680.2878            0    8704.0055    19.929408    19.798966    20.614077    8133.9369    9345.8228    7164.7544    9601.4393   -34.665843    827.08497    47.586917   -3162.7187 
 1259000     279.8213    -4710.135    -4170.476    -4710.135            0    9364.6712     19.61925    20.250095    20.467646    8131.6252    11765.561    6036.4082    10292.044    225.79681   -413.67705    1801.5644   -3059.9065 
 1260000     258.1608   -4678.9086   -4181.0238   -4678.9086            0    9190.0092    19.650204    19.852049    20.719582    8082.6427    9111.7584    10925.693    7532.5764   -231.86379   -254.72084    1411.4944   -3097.7326 
 1261000    253.55514   -4697.3711   -4208.3687   -4697.3711            0    8770.9955    20.022604    19.601252    20.631563    8097.2307    9108.4224    8528.6108    8675.9532   -1109.4226   -2044.6083   -1172.4518   -3172.6036 
 1262000    263.77015   -4669.8206   -4161.1176   -4669.8206            0    7376.4672    19.860189    19.908528     20.64786    8163.8982    8102.5007    8873.1357    5153.7652    702.11726    51.567491   -939.18977   -3282.8601 
 1263000    261.27187    -4666.265   -4162.3802    -4666.265            0    6943.3586    20.048368    19.666799     20.59612    8120.7869    6429.1423    7346.0432    7054.8904   -734.46952   -135.62981   -477.10046    -3340.055 
 1264000    255.03149   -4704.3499   -4212.5003   -4704.3499            0    8843.5816    19.775402    19.914624    20.585616     8107.021    8326.6027    7976.0211    10228.121   -315.62838    -799.0181   -13.213354   -3166.9008 
 1265000    264.87684   -4718.6506   -4207.8133   -4718.6506            0    8201.8065    20.000248    19.647822    20.584723         8089    6525.4907    10438.159    7641.7697    150.90612   -393.62648   -141.42265   -3240.2481 
 1266000     249.4537   -4692.9819   -4211.8895   -4692.9819            0    8567.3546    19.837436    19.985515    20.555496    8149.4602    6278.1589    10274.197    9149.7074    216.23992    62.131827   -1815.7859   -3193.6464 
 1267000    244.85362   -4679.5855   -4207.3647   -4679.5855            0     7991.047    19.791261    19.767972    20.864616    8162.9282    8245.0528    9403.1084    6324.9799   -158.70136    785.06308    464.25206   -3256.0471 
 1268000     252.3381   -4724.4549   -4237.7996   -4724.4549            0    6769.0965    19.878258    20.098613    20.387581    8145.3567    7635.9364    5808.8867    6862.4663   -230.36505   -581.85957    765.81907   -3433.6873 
 1269000    255.86926   -4707.9341   -4214.4687   -4707.9341            0     7944.336    19.884361    19.781224    20.713362    8147.3315    6382.3692    10519.646    6930.9922   -495.98013     656.7641   -495.77965    -3270.519 
 1270000    245.02721   -4683.2159   -4210.6603   -4683.2159            0    8314.0248    19.764597    19.938449    20.614978    8123.8559    6358.6037    9720.8168    8862.6539    934.94754    123.29988   -1494.0767   -3225.6304 
 1271000    259.55415   -4738.9422   -4238.3701   -4738.9422            0    8418.7192    20.011619    19.879545    20.395686    8113.8503     7635.947    7792.5782    9827.6324   -641.14462   -748.80825   -437.26533   -3242.1647 
 1272000    260.97274   -4700.4791   -4197.1712   -4700.4791            0    8442.5602    19.799206    19.871634    20.602157    8105.7656     9316.479    8675.0699    7336.1317    163.44024    119.12419   -23.669792     -3199.14 
 1273000    244.49873    -4700.707   -4229.1707    -4700.707            0    6989.6994    20.056241    19.873005    20.432704    8144.0214    6465.5162    5746.3631    8757.2189    -290.8537    787.58354   -831.65088   -3398.9887 
 1274000    269.75254   -4679.8632   -4159.6228   -4679.8632            0     6529.124    19.916471    19.864671    20.694986    8187.6431    6102.4181    6806.3712    6678.5826   -243.70255    -1938.408   -471.40487   -3379.9907 
 1275000    264.46178   -4682.2758    -4172.239   -4682.2758            0    7835.4479    20.226661     19.73227    20.435359    8156.1184    6299.2162    8441.2999    8765.8274   -34.810903   -422.39187   -1000.8308   -3240.2233 
 1276000    271.50587   -4703.9867   -4180.3648   -4703.9867            0    7547.8915    19.858489    19.956498    20.602287    8164.8079    6626.0863     8967.595    7049.9933   -117.55444     520.5941    125.39644    -3281.597 
 1277000    257.84265    -4665.465   -4168.1937    -4665.465            0    9878.9545    19.693081    19.995482    20.670481    8139.4701    10357.794    10712.013    8567.0565   -407.08831    715.18409    -659.5409   -2995.5043 
 1278000     252.8023   -4713.7619   -4226.2114   -4713.7619            0    5634.9188    19.926206    19.886525    20.593466    8160.4288    3965.7861    5810.7143    7128.2559   -527.88634    1510.8223   -409.46984   -3555.5913 
 1279000    265.94419   -4699.8514   -4186.9557   -4699.8514            0    7298.7176    19.730995     19.93766    20.743224     8160.174    7830.1103    5666.4393    8399.6031   -607.03664   -241.17798    1397.8669   -3318.3516 
 1280000    264.87631   -4703.6901   -4192.8538   -4703.6901            0    7806.0566     19.90281    19.982028    20.602249    8193.4833    5010.5247    10916.492    7491.1535     299.4934    1581.6396    -721.3999   -3260.0804 
 1281000    262.94571   -4681.0752   -4173.9623   -4681.0752            0    7842.2503    19.927182    19.857089    20.635396    8165.3401    7862.8733    8414.9711    7248.9065   -558.74298   -292.30786    501.22748   -3240.0827 
 1282000    253.77145   -4677.2113   -4187.7917   -4677.2113            0    7156.3602    19.817363    19.760343    20.803721    8146.6936    6287.5797     9076.013     6105.488   -2.9789376    461.30008    843.18804   -3337.5361 
 1283000    263.77025   -4701.4027   -4192.6996   -4701.4027            0    8643.8951    19.888811    20.014991    20.392977    8117.9219    10576.333    5846.8071    9508.5449   -560.18386   -781.75421     279.5388   -3169.3353 
 1284000    250.45535   -4705.0227   -4221.9985   -4705.0227            0    6643.7387     19.99201    19.765976    20.545314    8118.7193     7126.645    6250.0551     6554.516   -625.34173   -956.50942   -511.93977   -3435.3586 
 1285000    239.67372   -4712.8841   -4250.6532   -4712.8841            0     7856.166    20.133686    19.785408    20.404612    8128.2422    6496.6164    8022.9522    9048.9294    909.47015   -1639.2785    4.1960957   -3319.3669 
 1286000    255.26373   -4728.6346   -4236.3371   -4728.6346            0    6953.1307    19.672584    20.119093    20.591668    8150.0699    7526.2661    6741.8382    6591.2877    -18.32045   -234.26205   -754.85819   -3409.8851 
 1287000    260.46814    -4709.375   -4207.0403    -4709.375            0    7476.5557    19.857173    19.805562    20.574417    8091.5571    5397.0092    9243.8741    7788.7839    208.38689    1351.9267   -534.04954    -3324.754 
 1288000    261.94819   -4693.7179   -4188.5288   -4693.7179            0    8119.0149    19.871965    19.973126    20.509759    8140.4308     6968.331    9542.9421    7845.7717   -331.82433    825.70451   -485.63554   -3224.6407 
 1289000    246.74121   -4691.7846   -4215.9234   -4691.7846            0    9599.3374    19.707528     19.91755    20.593337    8083.4134    9299.5238    9622.7562    9875.7322     206.9082   -1027.7716    1545.3198   -3084.2739 
 1290000    252.43124   -4704.8771   -4218.0423   -4704.8771            0    6441.8222    20.001205    19.829333     20.56418    8155.9707    6218.0994    6401.4023    6705.9649    53.511445   -672.41349   -1401.0524   -3451.8103 
 1291000    246.59515   -4696.5651   -4220.9857   -4696.5651            0     5953.911    20.044426    19.958022     20.64621    8259.4561    6802.5853    5051.6512    6007.4965   -302.27696    974.99675    805.96761   -3503.8032 
 1292000    251.78006   -4698.2377   -4212.6587   -4698.2377            0    7573.7831    19.800187    20.232512    20.391247     8168.887    8290.8373    6016.6015    8413.9103   -550.58006    645.39257   -208.28184   -3310.3573 
 1293000    260.88311   -4692.3371   -4189.2021   -4692.3371            0    7239.2844    19.955393    19.692351    20.694985    8132.4795    8313.9027    8154.4422    5249.5082     109.5304    1064.1094    556.24117    -3330.595 
 1294000    257.43966   -4729.3427   -4232.8486   -4729.3427            0    9766.2201    19.799907     19.89431    20.425576    8045.7465    9897.6563    8627.9782    10773.026   -457.37818    438.57844   -633.56356   -3086.8905 
 1295000    255.50042   -4743.1501    -4250.396   -4743.1501            0    7038.2099     19.87066    19.961894    20.497709    8130.5392    5704.5815    8094.9592    7315.0889   -375.58685   -186.51055   -26.635313   -3415.8363 
 1296000    243.27981   -4680.5806    -4211.395   -4680.5806            0    11072.867    19.798956    19.769819    20.569936    8051.5211     11241.47     10246.73      11730.4    520.44944   -1516.6426    -378.6446   -2911.1838 
 1297000    253.82762   -4703.3155   -4213.7876   -4703.3155            0    6516.9744    19.926011    19.837047    20.646021    8160.8193    4694.1942    8009.2771    6847.4519    262.94213     861.5575   -313.40102   -3438.1557 
 1298000    256.95736   -4726.5576   -4230.9938   -4726.5576            0    8163.2428    19.887175    19.857984     20.51284    8100.9142    8980.0772      7265.81    8243.8412    422.20405   -897.57777   -53.419187   -3266.5595 
 1299000    261.12027   -4696.9115   -4193.3191   -4696.9115            0    8166.6428    19.987898    19.913789    20.459601    8143.6328    6452.5787    9379.0265    8668.3232   -107.31143     779.6037   -666.44542   -3223.3952 
 1300000    246.20104   -4708.4845   -4233.6651   -4708.4845            0    8236.8699    19.923057    20.062323    20.385391    8148.0983    7930.1066    8562.7447    8217.7585   -370.20605    151.73128   -282.26121   -3254.8642 
 1301000    273.57186   -4665.3464     -4137.74   -4665.3464            0    5925.2653      19.9536    19.796911    20.665209    8163.1636    5442.3877     6995.495    5337.9131    222.16759    9.4589241   -270.68237   -3432.3291 
 1302000    247.73216   -4695.6052   -4217.8329   -4695.6052            0    7590.2396    20.132799    19.919465     20.14362    8078.2883    4921.9035    8996.8791    8851.9364    849.68173    1167.9071    1488.6041   -3323.5998 
 1303000    252.28379    -4710.599   -4224.0485    -4710.599            0    8860.0498    19.794993    19.816671    20.520813    8049.7172    9500.8366    9174.1889     7905.124    765.11482    707.79039    1445.0655   -3183.9064 
 1304000    250.88656   -4650.8989   -4167.0431   -4650.8989            0    9050.9806    20.070083    19.626422    20.538044    8090.0158    7460.6226    11029.612    8662.7068   -264.53933    331.09758    1235.8085   -3099.1669 
 1305000    259.14555    -4699.308    -4199.524    -4699.308            0    7278.8632    19.826202     19.88679    20.833379    8214.1746    8431.5855    6847.5804    6557.4237    424.23718    1182.1345   -1506.0823   -3327.5503 
 1306000    267.55201   -4670.0339   -4154.0373   -4670.0339            0    9425.5137    20.044923    19.869806    20.402306    8126.0087    8433.2179    10231.143    9612.1801    239.52692    -522.0904   -327.60852   -3037.0244 
 1307000    244.14895   -4703.4285   -4232.5667   -4703.4285            0    7934.6474    19.794417    19.690121    20.738251    8082.8259    8871.6923    7900.2421    7032.0077   -86.631156    1105.0023   -239.67049   -3297.2327 
 1308000    261.22533   -4709.5402   -4205.7452   -4709.5402            0    7521.8121    20.005823    19.741972    20.677257    8166.5735    5919.1668     9633.327    7012.9425   -452.21923    762.24669   -675.39207   -3309.8891 
 1309000    246.15184   -4680.3752   -4205.6506   -4680.3752            0     8750.989    19.688712    20.147566    20.324093    8062.1537      10204.2    7391.9079    8656.8592    477.35143   -877.15186   -945.81867   -3176.7247 
 1310000    258.84069   -4708.0631    -4208.867   -4708.0631            0    7308.6804     19.91869    19.814254     20.63697     8144.875    7473.7794    6370.1697     8082.092   -899.81564      384.572   -993.17115    -3340.708 
 1311000    251.25863   -4681.6186   -4197.0452   -4681.6186            0    5632.9844    19.847738    19.854129    20.700476    8157.2202    4327.5052    6099.3546    6472.0935    630.29121   -892.26372    -555.9621   -3526.9189 
 1312000    274.21154   -4687.5235   -4158.6835   -4687.5235            0    7574.0654    19.784717    20.046562    20.559455    8154.1994    8069.9377    5904.6372    8747.6212   -372.24474   -1064.7948   -935.09336   -3257.9708 
 1313000    261.59596   -4672.2606   -4167.7508   -4672.2606            0    11023.493    19.746908    19.740496    20.667081    8056.3128    10823.426    11996.253    10250.801   -650.51677   -1370.4701      792.224   -2872.5668 
 1314000    253.68282   -4705.3736   -4216.1249   -4705.3736            0    6459.0539    19.780986      20.0034    20.759079    8214.0973    6507.7716    7066.2922    5803.0979    544.73018    768.67797   -1031.2588   -3442.3679 
 1315000    267.40538   -4721.7733   -4206.0595   -4721.7733            0    8786.2564    19.760426    19.727436    20.668601    8057.0863    8074.1313    9496.3546    8788.2835   -505.42517   -1060.0245   -913.15946   -3173.6362 
 1316000     263.3194   -4676.2467   -4168.4131   -4676.2467            0    6309.9907    20.112265     19.88711    20.534151    8213.1431    4913.9588    5905.3088    8110.7046    1041.0186    1231.4193   -46.443754   -3412.6007 
 1317000    252.08147   -4711.9383    -4225.778   -4711.9383            0    8251.7483    19.720052    19.831771    20.805973     8136.874    9489.9227    7706.0073    7559.3149    -70.76815    997.08788   -37.173067   -3246.5598 
 1318000    258.17776   -4704.1566    -4206.239   -4704.1566            0    8666.8696    19.870845    19.850745    20.432737    8059.7154    9062.7247    7859.3869    9078.4971    607.07658    1313.2981     296.5014   -3187.5119 
 1319000    255.28827   -4730.9299    -4238.585   -4730.9299            0    7182.3192    19.997704    19.844785    20.575737    8165.4843    6878.5192    6581.5359    8086.9025    630.23687    86.357658    2329.5632    -3383.277 
 1320000     266.4141   -4708.7681   -4194.9661   -4708.7681            0    6531.0795     20.01324    19.875401    20.585028    8188.1305    6328.4152    6973.0955    6291.7279   -536.20848   -806.50933    17.122223    -3415.054 
 1321000    253.28067    -4682.989   -4194.5159    -4682.989            0    7700.3944     19.81951    19.885366    20.522498    8088.2903    6271.4111    7903.0566    8926.7157    1088.4119    1445.5773   -464.49737   -3286.1818 
 1322000    274.56697    -4677.912   -4148.3865    -4677.912            0    6586.5371    19.916161    20.064778     20.66143    8256.5834     7541.041    5436.5023    6782.0681   -338.23741    309.88141    331.86607   -3355.2765 
 1323000    246.25373   -4716.1376   -4241.2166   -4716.1376            0    6663.9138    19.931095    19.887055    20.701355    8205.4123    5209.5102    7633.4756    7148.7557   -257.47019    358.63542    716.47674   -3443.7625 
 1324000    248.95076   -4710.9923   -4230.8699   -4710.9923            0    7590.4449    19.867954    19.966277    20.497905    8131.2948    8516.0194    6245.1318    8010.1833    594.05101   -970.70685      107.955   -3330.7449 
 1325000    251.78064   -4705.6271   -4220.0469   -4705.6271            0    7298.6724    20.136068    19.895484    20.359677    8156.4289    5561.4795    7741.6285    8592.9091    666.46584   -87.698699    2152.6988   -3351.8469 
 1326000    261.82281   -4722.2885   -4217.3412   -4722.2885            0    6966.8618    19.960149     19.94272    20.494978    8158.2236    3690.0163    8554.6309    8655.9383    -397.3072   -492.03707   -776.49325   -3388.4287 
 1327000     245.1892    -4724.089    -4251.221    -4724.089            0    8159.1857    19.739956    19.977866    20.519547    8092.1336    10530.771    6299.1229    7647.6635   -248.11709   -56.548055    -601.3916   -3288.3109 
 1328000    259.17034   -4664.8473   -4165.0155   -4664.8473            0     8405.221    19.868402     20.00334    20.457911    8130.6774    9607.3372    6875.0562    8733.2696   -203.17671    516.34847   -21.086545   -3168.3446 
 1329000    258.68263   -4730.0972    -4231.206   -4730.0972            0     7749.146    19.607561    19.978871    20.824668    8157.7913    8104.0205    8114.3782    7029.0392    251.76856    -58.73285    275.44034   -3309.2668 
 1330000    261.22178   -4694.3759   -4190.5878   -4694.3759            0    6785.4919    20.010048    19.849618    20.713502    8227.2335    4571.8558    7562.7457    8221.8741   -70.383941   -64.945498   -83.336483   -3376.4254 
 1331000    258.38589   -4692.2653   -4193.9464   -4692.2653            0    8517.0093    19.871557    19.915147    20.555576     8134.766    4875.2226    11420.735    9255.0703    30.697571    97.212823    65.089941   -3183.5121 
 1332000    246.98561   -4700.6312   -4224.2986   -4700.6312            0    8463.8031    19.726187    20.042878    20.472406    8094.1661    7647.5153    8569.3443    9174.5497   -487.83981    856.90234    195.54363   -3225.1881 
 1333000    258.48279   -4684.6599   -4186.1541   -4684.6599            0    6768.0476    19.894001     19.97358    20.416733    8112.6789    7303.9767    5221.5081    7778.6581   -321.58444    166.07485    2274.5451   -3385.3919 
 1334000    263.40405   -4667.4861   -4159.4893   -4667.4861            0    7402.3766    19.859518    19.899528    20.574159    8130.8056    6912.5698     7455.953    7838.6069    330.27458    1271.1498     443.8252   -3281.7194 
 1335000    254.18178   -4723.4762   -4233.2652   -4723.4762            0    7374.7535    20.101745    19.687754    20.608486    8155.9775    5125.9721    10489.294    6508.9944    376.68635    169.86405    1422.0258   -3356.0636 
 1336000    252.70788   -4712.1514    -4224.783   -4712.1514            0    6398.0692    19.753051    20.015784    20.639635    8160.3506    7019.3236    5476.2382    6698.6458   -225.06324    1846.2548   -389.55153   -3463.3466 
 1337000    248.78004   -4701.9236   -4222.1304   -4701.9236            0    8253.2078    19.990028    19.713401    20.774718    8186.7233    9167.0062    7661.4687    7931.1485    143.97342    207.97603   -647.54125    -3236.739 
 1338000    263.81705   -4716.8036   -4208.0103   -4716.8036            0    7258.8562    20.026073    19.799213    20.561499    8152.6442    7565.1679    7359.6189    6851.7819   -717.54707    1016.1032    -395.1953   -3344.9471 
 1339000    248.27524   -4731.6107    -4252.791   -4731.6107            0    8736.4364    19.872166    19.933795    20.460917     8105.136     6688.047    11680.771    7840.4917   -259.76723   -376.90961    -1318.411   -3220.0997 
 1340000    248.08827    -4694.603   -4216.1439    -4694.603            0    6069.7919    20.239807    19.771895    20.630523    8255.9095    5057.6424    6850.0326    6301.7008    125.26321   -514.95092    564.99701   -3485.3168 
 1341000    255.91758   -4716.0704   -4222.5119   -4716.0704            0    6654.3746    19.784632    20.012328    20.729642    8207.6227    8961.8768    5134.3338    5866.9132   -437.98156   -788.69121   -519.50015   -3425.9848 
 1342000    254.44608   -4705.1849   -4214.4642   -4705.1849            0    7598.2297    20.030188     19.63795    20.632925     8115.999    8864.6231    7348.5677    6581.4983    403.30518    671.34419    1916.7602    -3315.111 
 1343000     265.2649   -4689.1814   -4177.5957   -4689.1814            0      8244.93    19.709216    20.155756    20.359163    8087.7619    9984.1118    6589.1878    8161.4903   -355.20836   -244.84652    1442.8418   -3205.0921 
 1344000     266.7814   -4721.9308   -4207.4205   -4721.9308            0    8819.3671    19.888438    19.605821    20.764101    8096.5279    8033.0975    8992.5071    9432.4967   -323.85299    1192.9315     1023.127   -3166.0335 
 1345000    243.98108   -4707.0981   -4236.5601   -4707.0981            0    9534.1606    19.944527    19.679021    20.575073     8075.485    9986.6712    9243.7553    9372.0551   -4.4755856    908.59098   -1357.3855   -3113.6966 
 1346000    250.10906   -4679.7455   -4197.3891   -4679.7455            0    6039.7149    20.195582     19.71743    20.508658    8166.6494    6185.5624    6024.1385    5909.4439   -1045.6014    200.73223   -431.13718   -3478.0458 
 1347000    248.62485   -4678.9795   -4199.4855   -4678.9795            0    9182.7392    19.821237    19.741134    20.651728    8080.8908    9948.7191    9221.2216    8378.2769    516.40517    773.43689    486.34219   -3117.2859 
 1348000    254.69084   -4701.4298   -4210.2371   -4701.4298            0    7687.2978    19.981958    19.762106    20.590874     8131.039    8001.9974    8140.5735    6919.3226    256.61731    365.96758    75.287685   -3298.6553 
 1349000    248.43406   -4691.6599    -4212.534   -4691.6599            0    7914.1533    19.861053    19.933975    20.501414    8116.7092    6701.9028    8584.9742     8455.583    109.34386    678.55149    140.78392   -3275.7049 
 1350000    265.85562   -4722.9325   -4210.2076   -4722.9325            0    8770.6983    19.848369    19.630003    20.804753    8106.0216    9056.7505    9055.9012    8199.4431    406.29688   -1287.6601   -458.64399   -3173.3531 
 1351000     250.6943    -4723.961    -4240.476    -4723.961            0    6910.5074    19.765457    19.928756     20.61017    8118.3659    6543.1725    6838.4302    7349.9194    220.42444    55.294117    21.420511   -3422.2854 
 1352000    254.61994   -4702.9486   -4211.8926   -4702.9486            0     5189.391    20.067659     19.91536    20.630365    8245.0211    5650.9644    4386.2284    5530.9802   -608.38175   -287.98292   -1354.4212   -3587.8934 
 1353000     262.2271    -4704.253    -4198.526    -4704.253            0    6585.7172     20.13276    19.786008    20.569927    8193.9677    5503.0047    6930.7416    7323.4052    13.527158     166.5714   -423.00553   -3411.5287 
 1354000    261.89938   -4701.9368   -4196.8419   -4701.9368            0    7363.9915    19.843116    19.930985    20.504052    8109.2059    5885.6842     7651.206    8555.0844   -123.12902    461.93437   -775.30628   -3325.9435 
 1355000     270.0421   -4675.6707   -4154.8718   -4675.6707            0    9550.4347    19.964802    19.923316    20.259409    8058.4852    6723.2076    10774.536     11153.56   -269.74065   -1553.6698    213.62475   -3032.4595 
 1356000    243.68133   -4701.0404   -4231.0804   -4701.0404            0    9484.6888    19.688123    19.972615    20.610194    8104.4086    10819.076    7472.0815    10162.908   -1041.8448   -1410.4965    163.86736   -3110.0425 
 1357000    270.28512   -4722.6211   -4201.3535   -4722.6211            0    8121.6013    19.884165    19.796723    20.526843    8080.2133    8990.9046    7503.3244    7870.5748   -1244.1327   -521.67128    443.60339   -3244.2909 
 1358000    270.47639    -4711.612   -4189.9755    -4711.612            0    7616.5341    19.586763    20.145465    20.706707    8170.5444     8738.321    6124.9825    7986.2989    31.863111    7.7953444    1839.5013   -3282.3969 
 1359000     254.9375   -4690.3303   -4198.6619   -4690.3303            0    8532.4044    20.102734    19.705295    20.434545    8094.7425    8782.0653    7460.4261    9354.7217   -306.08799   -1118.9904   -676.97716   -3191.3815 
 1360000     257.5315   -4675.1707   -4178.4996   -4675.1707            0    7845.8203    19.814466    19.843679    20.729239    8150.5693     8299.373    7612.1452    7625.9427   -381.65224    114.43512      1215.78    -3245.885 
 1361000    264.74001   -4692.9064   -4182.3331   -4692.9064            0    6228.4924    19.874979    19.841434    20.658985    8146.8309    5898.8191    5679.2721    7107.3859    136.83043    751.32125    128.71671   -3442.3061 
 1362000    248.89152   -4673.6092    -4193.601   -4673.6092            0    8158.8336     19.89366    20.030133     20.39327    8126.1603    9108.0692    6519.9687    8848.4629   -301.37794   -1267.9812    -188.4403   -3226.6836 
 1363000    257.30513   -4731.6011   -4235.3666   -4731.6011            0    8271.0026    20.076882    19.813512    20.420806    8123.2643    6997.2093    10371.997    7443.8015   -267.95534    1106.1637    -465.0634   -3255.5052 
 1364000    263.55145   -4713.2411   -4204.9599   -4713.2411            0    5950.4323    19.905553    20.069123    20.598476    8228.8232    6076.7521    5839.7932    5934.7517    331.17099   -262.95824    470.38706   -3490.8548 
 1365000    250.95109   -4687.5381   -4203.5578   -4687.5381            0    6639.2509    19.767773    19.977116    20.717807    8181.5261    7123.9905    6590.3912     6203.371    90.943072    1429.3604    486.06184   -3411.3679 
 1366000    256.25683   -4719.8062   -4225.5933   -4719.8062            0    7905.0237    19.860411    19.847583    20.533393     8093.877    6098.7639    9050.5337    8565.7734   -26.224994   -1071.4901    867.67001   -3292.4772 
 1367000    261.24041   -4741.0223   -4237.1982   -4741.0223            0    9096.4163    20.117763    19.751856     20.35034    8086.4752    7282.1302    9692.2666    10314.852     186.7724    961.84179    757.53372    -3164.431 
 1368000    260.87184   -4739.4438   -4236.3305   -4739.4438            0    6853.9031    19.918495    20.073638    20.466896    8183.4151    8662.3896     4580.897    7318.4227   -893.87697    1001.8396    190.35134   -3418.3397 
 1369000    250.17808   -4715.4707   -4232.9812   -4715.4707            0    7856.9595    19.945903    19.988264    20.516271    8179.5085    9260.3095    7238.2034    7072.3656   -263.49095   -241.86598    141.33914   -3295.7266 
 1370000    255.83629   -4690.7584   -4197.3566   -4690.7584            0    9198.9607    19.668188    19.801361    20.793809    8098.2923    9924.8135    9426.0679    8246.0006   -799.15673    1716.8209    109.27474   -3110.9107 
 1371000    247.25891   -4720.3932   -4243.5336   -4720.3932            0    7528.5985    19.901254    19.902332    20.549661    8139.3378    7264.1814    8298.6169    7022.9973   -127.56564    50.456242   -13.547432   -3349.8597 
 1372000    257.89686   -4676.8213   -4179.4455   -4676.8213            0    6016.0232    19.893588    20.164981    20.446106    8202.0337    5715.9496    5593.8631     6738.257    96.406305   -41.333245    500.39135   -3459.8193 
 1373000    251.59136   -4696.9052   -4211.6901   -4696.9052            0     6648.011    19.939246    19.786941    20.859143    8229.6972    4096.1315    8625.5381    7222.3634    213.10932    1317.9544    630.95702   -3413.7846 
 1374000    260.51984   -4708.1704    -4205.736   -4708.1704            0    8592.6706    19.870258     19.89172    20.608173    8145.4547    9721.9577    6345.7134    9710.3406    118.81492   -101.60588    192.83116    -3184.986 
 1375000    254.33715   -4669.9277   -4179.4171   -4669.9277            0    7713.9786     20.23004    19.963214    20.334669    8212.2908    7509.0127    6707.0967    8925.8264    56.285551    1122.7524   -1889.1539   -3255.5305 
 1376000    252.14003   -4724.4354   -4238.1621   -4724.4354            0    6583.1208    19.810025    19.930826    20.666789    8159.8715    8123.2522    4221.4353     7404.675    621.76863   -342.92098   -677.19504   -3454.7486 
 1377000    266.16683   -4727.4004   -4214.0753   -4727.4004            0    6550.2924    20.087068    19.772725    20.644711    8199.5853    7591.9587    5945.8114    6113.1072    258.61149    1603.5558    1127.4228   -3430.7747 
 1378000    250.71464    -4704.995   -4221.4708    -4704.995            0    7249.3434    19.903304    19.955826    20.605035    8184.0496    7601.6401    6482.5076    7663.8825   -270.52546   -790.78904    1439.3806   -3356.2184 
 1379000    276.00283   -4690.7225   -4158.4278   -4690.7225            0    8787.9516    20.098093    19.642417    20.495894     8091.269    7739.4116    9504.4357    9120.0076    631.14237    848.25701   -404.51325   -3121.4244 
 1380000    241.78278   -4718.3577   -4252.0593   -4718.3577            0    7487.9956    19.754291    19.930636    20.675356    8140.2101    7526.9635     7564.891    7372.1322    499.10494   -1726.8987   -719.54655   -3363.1098 
 1381000    239.70491   -4717.6262   -4255.3351   -4717.6262            0    6916.2901    20.076396    19.743548    20.600956    8165.7922    6306.2881    7734.6459    6707.9364    159.69049    288.34421    812.14299   -3431.6762 
 1382000    259.07942   -4669.8718   -4170.2153   -4669.8718            0    9277.7633    19.768798    19.998267    20.504614     8106.329    9508.0638    8845.3584    9479.8678    318.06117    719.43827    408.11467    -3073.375 
 1383000    261.59304   -4678.2774   -4173.7732   -4678.2774            0    8365.2113    19.836727    19.835445    20.624701    8115.2076    9772.2405    8771.6762    6551.7171   -328.23779    647.90249    138.67447   -3183.7339 
 1384000    254.56108   -4713.1972   -4222.2548   -4713.1972            0    8020.9821     19.74965    19.955477     20.68249    8151.2524    9778.1673     7512.735    6772.0442   -106.89096    1270.9353    1137.8997   -3268.7392 
 1385000    240.79676   -4679.8613   -4215.4645   -4679.8613            0    9885.6621    19.746939    19.826448    20.646697    8083.4228    9922.3502     9648.576     10086.06   -904.66064    375.41853    -725.6716   -3050.0593 
 1386000    268.06356    -4715.172   -4198.1888    -4715.172            0    7504.2642    19.706528    20.023001    20.544182    8106.4019    8876.3911    6051.0883    7585.3131   -307.29353   -435.62256    928.23296    -3311.008 
 1387000     256.5778   -4715.3549   -4220.5231   -4715.3549            0    7680.7732    19.792508    19.974693    20.585339    8138.3985    5448.0279     10656.78    6937.5118    230.30073    -32.36861    -376.0016   -3308.8906 
 1388000      253.649    -4715.367   -4226.1836    -4715.367            0    9333.9446    19.979822    19.874893    20.581116    8172.6958    7395.7121    11931.119    8675.0023    671.04844   -577.32523   -669.28263   -3113.6671 
 1389000    240.11283   -4711.0733   -4247.9955   -4711.0733            0    9228.4236    19.837377    19.745292    20.663221    8093.6761    11002.211    8182.0443     8501.015    672.67229    249.23058    418.21817   -3158.6912 
 1390000     257.1302   -4685.0072     -4189.11   -4685.0072            0    7165.0261    19.909997    19.791967    20.695784    8155.3396    5707.5386     8018.276    7769.2637   -9.9629298   -1299.8997   -116.93692   -3336.9214 
 1391000    252.32419   -4703.0811   -4216.4527   -4703.0811            0    6753.6327    20.013448    19.727527    20.612077    8137.9745    5519.7521    7672.2764    7068.8696    893.50762   -1091.7577   -389.73185   -3414.9044 
 1392000    243.13313   -4673.1155   -4204.2128   -4673.1155            0    6661.5623    19.914325    19.571531    20.889783    8141.8726    6944.7655    5754.9799    7284.9417    199.96118    175.33846    201.48869   -3413.2132 
 1393000    261.96196   -4727.4658   -4222.2502   -4727.4658            0    6376.3158    19.643805    19.999283    20.775635    8161.9579    8033.0564    6354.9835    4740.9076   -759.30334    1814.6908    37.001197   -3463.2532 
 1394000     259.8919   -4705.7619   -4204.5386   -4705.7619            0    6904.4777    19.881202    20.067922    20.427775    8150.1593    8420.3665    5307.5458    6985.5209   -152.87429    862.58015   -548.38603   -3383.8605 
 1395000    248.60971   -4684.0449   -4204.5802   -4684.0449            0    6643.3887    19.821432     20.02269    20.552077    8156.6754    5326.0527    6097.4076    8506.7059   -418.05545   -6.3453944   -923.35074   -3414.3043 
 1396000    246.28053   -4705.4489   -4230.4762   -4705.4489            0    6922.8246    19.744923    19.854569    20.720928    8123.1618    7147.1017    6467.5894    7153.7826   -492.04071   -994.52238    1491.2134   -3410.3431 
 1397000    251.84651   -4719.8926   -4234.1854   -4719.8926            0    7906.8392    20.162934    19.887398    20.383289    8173.4601     5352.704    8553.4199    9814.3936   -963.72762    597.23775    1615.1749   -3291.6781 
 1398000    257.33589   -4724.5722   -4228.2783   -4724.5722            0    8086.5396    19.886502    19.903068    20.524877    8123.7954    7268.4104    7716.8578    9274.3507   -259.08493    1354.8837   -1580.4262   -3270.2075 
 1399000    266.41914   -4694.9306   -4181.1189   -4694.9306            0    7937.2551    19.672008    19.847857    20.734618    8095.7739    8490.1652    6093.5157    9228.0843    1070.8241   -177.20485    308.62605   -3243.9786 
 1400000    245.26827   -4703.4484   -4230.4279   -4703.4484            0    5953.7924    19.841888    19.965908    20.649299    8180.4533    4118.7064    8224.6453    5518.0254   -332.54955    147.99999     222.6571   -3520.1195 
 1401000    261.72957   -4670.7929   -4166.0254   -4670.7929            0    8909.8176    19.905833    19.832796    20.616155    8139.0175    6929.8115     10543.76    9255.8814    686.50903    333.54899   -2538.4313    -3108.437 
 1402000    283.95772   -4730.0473   -4182.4109   -4730.0473            0    8982.7837    19.953564    19.871266    20.380658    8080.9834    10000.908    6845.4643    10101.979   -499.29201   -43.327262   -447.78327   -3123.7642 
 1403000    253.92352   -4700.4547   -4210.7419   -4700.4547            0    7996.5135     19.89875    19.835772    20.542253     8108.172    5714.8228    9444.9776    8829.7401     872.7186    261.37782    -524.2206   -3265.1592 
 1404000    247.89797   -4688.8852   -4210.7931   -4688.8852            0    8894.0709    19.978343    19.793179    20.517783    8113.4479    8767.5022    8284.0238    9630.6868    372.88642    680.55143   -460.36291   -3158.3905 
 1405000    260.66473   -4708.9564   -4206.2425   -4708.9564            0     9075.474    19.806098    19.528441    20.869729    8072.0404    9556.0018    10047.621    7622.7989    381.39818   -142.60886   -78.802919   -3137.8557 
 1406000    242.72033   -4710.7793   -4242.6727   -4710.7793            0    7046.2683    19.896276    19.889538    20.669021    8179.3048    6151.3545    7929.6216    7057.8288    777.76081   -85.604091    -603.1089   -3402.1461 
 1407000    257.83165   -4697.0961   -4199.8461   -4697.0961            0    7253.3705     19.78759    19.990449     20.53235    8121.8341    6952.0646    7240.4264    7567.6206    1020.9505   -371.07317    39.579222   -3340.6944 
 1408000    254.15642   -4737.3144   -4247.1524   -4737.3144            0    5622.5396    19.927373    19.894998    20.651222    8187.2811    5775.6994     4972.628    6119.2914     438.1499   -281.46536    -1819.305   -3575.8037 
 1409000    246.27516   -4703.1233    -4228.161   -4703.1233            0    7859.9267    20.033508    19.824447    20.444799    8119.7177    6972.5496    8095.5041    8511.7263   -803.40759   -413.06259    805.66072   -3297.4061 
 1410000    262.56375   -4707.8345   -4201.4582   -4707.8345            0    7262.4049    19.894059    19.820652     20.71012     8166.274    8027.7368    7845.6071    5913.8708    297.48479    1767.4934   -1183.1741   -3336.5295 
 1411000    246.90619   -4724.6119   -4248.4325   -4724.6119            0    4542.9595    20.019061    20.046189    20.638943    8282.5292    5422.8481    3457.0031    4749.0273    391.00587    -407.5983    436.94767   -3699.6785 
 1412000    264.56247    -4715.056   -4204.8251    -4715.056            0    6481.7839    19.731826    19.894236    20.791014    8161.5041    5913.5382    7576.5351    5955.2784   -479.90215   -446.78438   -676.77979   -3433.3167 
 1413000    257.77316   -4688.2344   -4191.0972   -4688.2344            0    9323.4286    19.871195    19.720882    20.628252    8083.7477    9967.0631    11013.705    6989.5175  -0.12629503   -601.46749     142.0078   -3091.9286 
 1414000    252.06954    -4708.953   -4222.8157    -4708.953            0    5424.8085    20.092481    20.163396    20.247706    8203.0066    4242.9109    4771.7962    7259.7184   -696.99748   -713.50292    1383.5689   -3573.8327 
 1415000    258.58284   -4706.2514   -4207.5526   -4706.2514            0    9438.6751    19.731954    19.858247    20.683466    8104.6506    12659.869    6390.8234    9265.3332   -875.11315    1336.2995   -359.19283   -3091.9199 
 1416000    252.88888   -4688.1235    -4200.406   -4688.1235            0    7137.0994    19.973517    20.139118    20.473188    8235.3197    7285.6228     7140.358    6985.3173   -34.435001     1080.634    1120.4196    -3343.214 
 1417000    254.03611   -4693.2612   -4203.3312   -4693.2612            0    8912.7517    19.920994    19.824527    20.508584    8099.3378    9515.2717    8880.0357    8342.9477   -30.482279    262.05208     1892.382   -3150.5522 
 1418000    265.28303   -4679.6133   -4167.9926   -4679.6133            0    8544.2424    19.950343    19.688911    20.736912    8145.4701    6077.9183    10074.733    9480.0761    425.51298    -1514.308   -662.70618   -3152.9937 
 1419000    257.03391   -4666.9311   -4171.2195   -4666.9311            0    8293.7558    19.745862    19.959147    20.557548    8101.9466    7458.8708     8699.194    8723.2025     -555.521   -800.94755   -179.71413   -3191.2411 
 1420000    264.00018   -4710.9589   -4201.8124   -4710.9589            0    7245.3859    19.903775    19.981141    20.480264    8145.0037    8252.4047    5463.2855    8020.4675   -32.061855    477.19258   -456.85004   -3341.1582 
 1421000    269.36273   -4714.3853   -4194.8966   -4714.3853            0    5748.8611    19.966604      19.7931     20.90345    8261.0643    4832.0846    7263.1405    5151.3582    -854.0928   -481.40282   -1166.9582   -3502.2788 
 1422000    255.95443   -4717.7185   -4224.0888   -4717.7185            0     7410.626    20.010755    19.823159    20.511755    8136.5285    6014.2816    7976.0581    8241.5383    460.31249    2012.9444    219.31526   -3344.7223 
 1423000    243.69303   -4697.0845   -4227.1021   -4697.0845            0    8256.0961     19.68611     19.97676    20.550175    8081.6585    8652.1309    7725.5144     8390.643     661.1944    908.49968    1299.4816   -3254.0163 
 1424000    250.68205   -4693.2918   -4209.8303   -4693.2918            0    7504.5533    19.914385    19.820368    20.689709    8166.4438    8083.3838    6508.9659    7921.3101   -45.662409    992.23722    1109.0626    -3316.044 
 1425000    254.61609    -4711.247   -4220.1984    -4711.247            0     7960.878    19.996885    19.869141    20.544026    8162.5715    6409.4667    8211.4041    9261.7631     427.0208     1291.174   -105.16827   -3272.5138 
 1426000    254.62126   -4717.7351   -4226.6766   -4717.7351            0    9824.0212    20.098798    19.592721    20.401044    8033.7295    9701.1027    10550.226    9220.7345   -148.19994    2.1425104   -1962.8534   -3075.6579 
 1427000    261.57433   -4709.9137   -4205.4456   -4709.9137            0    6850.9862     19.61727    20.032957    20.842266    8190.8421    5863.5999    8687.4712    6001.8874   -638.07416    750.18857   -194.18763   -3387.0608 
 1428000    251.18358   -4696.8085   -4212.3799   -4696.8085            0    7712.7095     19.96935    19.797014    20.686489    8178.0621    8167.9925    7387.6138    7582.5222    690.93111   -305.59465    1167.2882   -3292.4954 
 1429000    257.27915   -4674.5831   -4178.3986   -4674.5831            0     7620.192    20.144004    19.840544    20.344593    8131.0828    6735.8356    7333.4749    8791.2655    657.54999    331.62452   -839.78505   -3274.7696 
 1430000    263.27009   -4697.8857   -4190.1471   -4697.8857            0    8534.2663    19.891265    19.926714    20.478262    8116.9189    10260.096    6105.7976    9236.9054    217.70345   -1030.5177    1126.1911   -3179.8868 
 1431000    258.11381   -4698.4385   -4200.6443   -4698.4385            0    7574.7408    19.888218    19.730677    20.495522    8042.6068    6768.1926    7737.9447    8218.0852    169.98269    98.038849   -342.23711   -3312.1789 
 1432000    253.40174   -4705.5794   -4216.8729   -4705.5794            0    6640.4207    19.814969    19.919163    20.859033    8233.0103    8870.2838    5289.4264     5761.552    746.13592   -855.09166   -1602.2545   -3419.5575 
 1433000     248.7807     -4712.06   -4232.2655     -4712.06            0    6850.0042    19.740778     19.93882    20.631942    8120.8939    8514.0113    3916.6786    8119.3227   0.65228506    174.70973    352.15555   -3420.9859 
 1434000    250.44781   -4715.6946    -4232.685   -4715.6946            0    8490.4431    19.905119    19.751577    20.575118    8089.2617     8846.743    8016.3417    8608.2446    384.64427   -2169.1299   -1454.6359    -3231.037 
 1435000    265.57345   -4692.5076   -4180.3268   -4692.5076            0    8458.9844    19.774806     20.19108     20.33964    8121.1033    9911.8321    6279.2768    9185.8442    183.93871   -673.06052    337.40921    -3178.462 
 1436000    244.34899   -4652.8372   -4181.5896   -4652.8372            0    6816.1955    19.894045    19.918047    20.611294    8167.2359    5914.2512    7058.5307    7475.8045   -336.80357   -816.61944    1063.4642   -3369.7074 
 1437000    251.31177   -4702.5795   -4217.9036   -4702.5795            0    7044.0432    19.813206    19.847786    20.693249    8137.5845    6093.2735    8108.5809    6930.2751   -1231.2941   -139.82034   -1478.8562   -3381.9284 
 1438000    258.33719   -4685.6869   -4187.4619   -4685.6869            0    8170.1781     19.81724    19.795047    20.707437    8123.1794    9783.0739    8183.8704    6543.5902   -469.76609    777.10624   -281.98943   -3219.5553 
 1439000    254.71934   -4732.2339   -4240.9862   -4732.2339            0    6304.4092    19.779734    19.831722    20.709145     8123.497    7024.2239    5805.8836    6083.1199    24.573204    299.59115   -215.40797   -3494.0847 
 1440000    263.55562   -4665.8394   -4157.5502   -4665.8394            0    9093.1418    19.866282    19.767347    20.590114    8085.8141    9878.5599    8072.5123    9328.3532   -229.50263   -1068.4587   -1100.6644   -3085.2569 
 1441000    252.49298   -4692.5748   -4205.6208   -4692.5748            0    7214.0754    19.944663    19.881977    20.532045    8141.7637    6970.6575    6833.9222    7837.6465   -490.21684    2105.9537   -807.93376   -3349.0268 
 1442000    261.27098   -4689.9887   -4186.1056   -4689.9887            0    8025.4449    19.770885    19.769521    20.730144    8102.6031    8336.9994    8845.8982    6893.4373   -540.56881   -2253.1486   -1153.5762   -3237.7536 
 1443000    251.86859   -4685.9985   -4200.2487   -4685.9985            0    7983.8656    20.016714    19.982073    20.425774    8169.8082    7129.7196    7209.6176    9612.2595   -70.158458    665.27888   -632.38937    -3248.985 
 1444000      262.987   -4692.1535   -4184.9609   -4692.1535            0    6273.6603    19.980723    19.869663     20.49996    8138.6941    7370.2277    4612.8679    6837.8853   -47.292591    835.68742   -899.28728   -3440.3119 
 1445000    265.15586   -4723.7974    -4212.422   -4723.7974            0    6766.7647    19.926565    19.923993    20.635394    8192.5972    5132.6734    8036.9098    7130.7109    1208.6224    357.77465    1637.8951   -3403.9247 
 1446000    255.55681   -4709.0607   -4216.1979   -4709.0607            0    6998.9935    19.648405    20.005352    20.703663    8138.0561    7472.8085    6757.0558    6767.1161   -865.20169    1643.1739    816.75055    -3385.521 
 1447000    259.81983   -4709.5154    -4208.431   -4709.5154            0    7566.2516     19.92402    19.833123    20.513416    8105.9901    7840.2614    7114.5429    7743.9505    660.57896   -17.075747   -1044.3958   -3313.9673 
 1448000    261.35007   -4698.5819   -4194.5463   -4698.5819            0    9083.8795    19.666885    19.819575    20.799645    8107.4793    10848.586    8631.0843     7771.968   -286.13203   -636.74554    878.48543    -3120.475 
 1449000    262.11316   -4678.0699   -4172.5627   -4678.0699            0    9133.1568     19.93772    19.796387    20.529709    8102.9698    8236.6059    9967.3733    9195.4911    727.01128    296.33378    818.54708   -3093.2655 
 1450000    252.55239   -4707.9477   -4220.8791   -4707.9477            0    7376.9134    20.060631    19.632495    20.696193    8150.9936     8923.179      6603.62    6603.9412   -366.26785    21.442675   -431.63344   -3343.9568 
 1451000    235.74351   -4675.9541   -4221.3029   -4675.9541            0    7671.8354    19.978887    19.935362    20.397772     8124.154     8884.651    5461.6992    8669.1559   -898.79053   -1272.9426    314.92992    -3312.325 
 1452000    258.00288   -4693.6507   -4196.0705   -4693.6507            0    9108.2726    20.037896    19.904891    20.410643    8140.8282    9500.8026    9719.2712    8104.7438   -507.86321    728.83187    23.835034   -3114.6851 
 1453000    243.76459   -4697.9959   -4227.8754   -4697.9959            0     7806.599     19.87342    19.706514    20.648515    8086.6984    9381.6277    7645.7327    6392.4366    668.62318   -1216.3305   -248.03692   -3307.1947 
 1454000    240.09385   -4698.7655   -4235.7244   -4698.7655            0    5908.8047    19.817266    19.986854    20.686835     8193.741    6639.4901    5381.7711     5705.153   -409.10946   -519.52409    624.86299   -3529.6381 
 1455000    247.79913   -4726.6896   -4248.7881   -4726.6896            0     5587.704    20.110307    19.903432    20.432337    8178.3317     5638.586    5687.4166    5437.1095   -148.65191    250.48354    296.46117   -3582.3283 
 1456000    247.99404   -4722.2095   -4243.9321   -4722.2095            0    6928.2187    19.834802    20.191394    20.474182    8199.7522    5425.2529    7869.8688    7489.5343   -180.69328    655.87959    6.9560654   -3415.4213 
 1457000    253.33115   -4693.7205   -4205.1501   -4693.7205            0    6921.2876    19.941553    19.932861    20.474452    8138.4352    5586.2559    6340.2052    8837.4018    573.72803    111.54796    -623.8691   -3383.6574 
 1458000    248.82523   -4678.5818   -4198.7014   -4678.5818            0    6933.6498    19.750081    19.907404    20.720371    8146.6871    9680.3064    4684.0154    6436.6277   -671.66815   -1991.0884     4.008154    -3374.907 
 1459000    264.55547    -4724.836   -4214.6186    -4724.836            0    7717.2728    20.145941    19.781135    20.422088    8138.3976    6298.9544    8050.0739    8802.7901   -866.58594   -876.37521    606.31074   -3298.6541 
 1460000    251.45477   -4664.0244   -4179.0727   -4664.0244            0    8503.5267    19.931971    19.895629    20.463532    8114.9998    6647.5591    10793.948    8069.0724    148.08152    1236.5824    716.39612   -3172.6893 
 1461000    255.47022   -4691.5492   -4198.8533   -4691.5492            0    8149.0202    19.878195    19.934115    20.539544    8138.8812    9858.6288    6082.6562    8505.7755    542.07293    98.279126   -625.00059   -3231.5872 
 1462000    252.44405   -4692.1302   -4205.2706   -4692.1302            0    8816.0649    19.834122    19.825835    20.652832    8121.2726    8510.6551    10244.685    7692.8541   -16.157824   -174.74764    121.13656   -3161.0921 
 1463000    257.08483   -4671.4465   -4175.6368   -4671.4465            0    8551.3286    19.821873    19.693034    20.834392    8132.7638    7713.5263    9198.4335     8742.026   -312.33973   -1610.1017    553.99046   -3161.3806 
 1464000    249.20881   -4681.8374   -4201.2172   -4681.8374            0    8197.2039    19.698154    19.994888    20.669405    8140.9013    10711.148    6869.9587    7010.5046   -619.96726    611.46477    544.28246   -3227.9903 
 1465000    245.23547   -4728.2225   -4255.2653   -4728.2225            0    5773.7027       19.958    19.985188    20.428867    8148.3475    2323.4866    7253.1311    7744.4905   -381.28301   -1422.7316    490.76352   -3569.1456 
 1466000    263.73273   -4714.3079   -4205.6772   -4714.3079            0     9020.477    19.529616    20.063197    20.414793    7999.0576    8684.3895    10310.014    8067.0278    362.71949   -1126.1629    235.20273   -3153.3659 
 1467000    246.98021   -4724.8589   -4248.5368   -4724.8589            0    8438.6385     19.67062    19.807269    20.748249    8083.9589    8163.3677    9160.0416    7992.5062    6.5933654    296.20356   -1890.3448    -3253.653 
 1468000    255.07942   -4682.5414   -4190.5993   -4682.5414            0    7144.5614    20.051301    19.903081    20.568412    8208.4971    8651.3242    5359.8381    7422.5219   -248.32528      261.714    1287.8065   -3335.3059 
 1469000    269.33224    -4722.728   -4203.2981    -4722.728            0    6007.0601    20.011684    20.045965    20.490326    8219.7664    7446.3851    4331.6827    6243.1124   -366.62755    295.26363   -694.16276   -3483.1906 
 1470000    247.07528   -4711.5145   -4235.0091   -4711.5145            0     9652.806    19.696893    19.804725    20.758713    8097.7981     11472.76    8536.8244    8948.8332    -214.1452    354.96364   -838.12221   -3095.0313 
 1471000    244.34469   -4685.4048   -4214.1655   -4685.4048            0    7841.8948    19.785188    20.001229    20.516443    8118.9323    8210.3638    7149.1107    8166.2098    424.22152     618.6078    1493.0487   -3285.6358 
 1472000    258.17405   -4722.7238   -4224.8134   -4722.7238            0     9085.955    19.774972    19.882466     20.53771    8074.9186    6963.9605    11881.386    8412.5186    123.35472    435.05163    119.99489   -3154.8113 
 1473000    256.33512   -4729.0342   -4234.6704   -4729.0342            0    6888.0147    19.933663    19.776624    20.722346    8169.1745    5624.6065    7402.8963    7636.5411   -83.312392   -479.61485    835.29388    -3414.039 
 1474000    253.56054   -4706.9288    -4217.916   -4706.9288            0    5987.2823    19.943561    19.789954    20.830799    8221.5446    5692.8269    6260.4351     6008.585    126.96271    846.54141   -112.46108   -3500.0241 
 1475000    258.41546   -4725.6387   -4227.2627   -4725.6387            0    8466.0691    19.676672     19.90646    20.623359    8078.0227    9839.4132    6931.5227    8627.2713    93.303117   -6.3342503    904.56627   -3229.8779 
 1476000    251.80745   -4682.9653   -4197.3335   -4682.9653            0    7964.9362    19.779407    19.995111    20.476435    8098.2547    8365.2175    7619.4969    7910.0943    -714.6211    113.99711   -149.59392   -3256.6368 
 1477000    267.73475   -4657.2059   -4140.8569   -4657.2059            0    7657.3572    20.010968     19.80135    20.655658    8184.6844    7026.7668    7060.6036    8884.7012    258.20857    631.94198    812.84958   -3226.8347 
 1478000    266.86577    -4703.834   -4189.1609    -4703.834            0     6277.349     20.08788     19.91029    20.425293    8169.2084    5053.6115    6429.8484    7348.5873    288.35732    709.96535    263.06457   -3441.2805 
 1479000    254.10991   -4687.7688   -4197.6965   -4687.7688            0    7086.4859    20.013874    19.848109    20.609526    8186.8774    7127.6609    6419.9989    7711.7978    559.70452    5.0941511    85.592601   -3351.5899 
 1480000    260.01607   -4682.3039   -4180.8411   -4682.3039            0     6509.933    19.846311    19.953622    20.806767    8239.6002     6158.469    7699.3063    5672.0238    -677.1553     406.4856   -433.05417   -3398.5677 
 1481000    270.93793   -4711.5707   -4189.0442   -4711.5707            0    8569.4026    19.961577    19.708243    20.717122    8150.2732    8890.0751    8933.6529    7884.4796   -543.45714    185.27118    -306.1856   -3170.4561 
 1482000    250.52834   -4682.1734   -4199.0084   -4682.1734            0    7687.0663    19.954635    19.781318    20.595564    8129.6662    8498.5271     7733.724    6828.9477    647.95865   -930.58564   -246.27436    -3287.608 
 1483000    263.92435   -4722.9659   -4213.9656   -4722.9659            0    7506.2042    19.786668    19.939309    20.590096    8123.4618       6332.2    9423.8377    6762.5747    182.13399    440.99337   -823.62201   -3324.6879 
 1484000    265.21293   -4706.9448   -4195.4593   -4706.9448            0    7715.4877    19.946078    19.888396    20.535746    8146.4381    7736.3618    8244.2242    7165.8772     405.8051   -133.15155   -579.62048    -3278.802 
 1485000     241.2537   -4698.8147   -4233.5367   -4698.8147            0    7916.4646    19.968436     19.98283    20.320924    8108.5742    6564.8178    9333.8246    7850.7514   -237.71266     1911.141   -204.49026   -3297.3733 
 1486000    246.15264   -4693.3459   -4218.6198   -4693.3459            0    8027.9525    19.894539    19.727076    20.744019    8141.2203    6750.5042     10086.43    7246.9234   -19.372279    564.52066    648.96614   -3265.4502 
 1487000    245.68898    -4675.239   -4201.4071    -4675.239            0    8433.8688    19.788219    19.809925    20.677968    8105.8282    8978.1032    6083.8707    10239.632   -236.11998    -2168.638    657.89174   -3204.3957 
 1488000    266.82168   -4700.0544   -4185.4663   -4700.0544            0    6790.7946    20.052109    19.777549    20.439216    8105.8164    4582.0523    8402.0152    7388.3162    33.155968    214.56504    1181.0221   -3382.6924 
 1489000    247.67754   -4690.9225   -4213.2556   -4690.9225            0    6533.0336    19.550821    19.994028    20.737281    8106.1962    6137.2249    6626.6582    6835.2178    334.61806    178.29123   -287.57104   -3440.9167 
 1490000    255.94753    -4700.045   -4206.4287    -4700.045            0    5406.6165     20.02454    19.776323      20.8124    8241.9558    5720.3791    5692.0385    4807.4319   -31.532394    1745.5458   -1301.9172   -3556.5508 
 1491000    238.53855   -4676.6228   -4216.5812   -4676.6228            0    9460.0085     19.85009    20.014392    20.405592    8106.8862    9941.1576      9087.76    9351.1079    135.94591    358.86127   -1132.8373   -3098.1185 
 1492000    257.10687   -4703.2893   -4207.4371   -4703.2893            0    7130.1377    19.982787    19.816329    20.619286     8164.938    8068.5219    5589.2929    7732.5984    1363.3392   -540.28463    684.27575   -3358.3999 
 1493000    253.67133   -4678.8481   -4189.6216   -4678.8481            0    7255.7795    19.904441    19.722032    20.703117    8127.1334    7699.8835    7698.8565    6368.5985   -431.51393   -1159.9485    359.58343   -3329.6238 
 1494000    261.94715   -4707.9681    -4202.781   -4707.9681            0    7132.3933    19.915139    19.981152     20.50966    8161.3562    5356.0928    8026.7621     8014.325   -904.74957    217.43894   -48.134428   -3353.8478 
 1495000    266.22517   -4683.8753   -4170.4377   -4683.8753            0    6679.6928    19.970278    20.085417    20.425973    8193.0898    7120.3614    5590.7501    7327.9668   -73.817766    493.85332   -801.71987   -3372.2958 
 1496000    266.70708   -4706.9173   -4192.5503   -4706.9173            0    7212.2609    19.770937    19.836315    20.617188     8085.701    8255.0779    6372.6299     7009.075   -491.96817   -901.20248    1112.3937   -3342.0685 
 1497000     253.4643   -4704.8618   -4216.0346   -4704.8618            0    7296.6564    19.895852    19.888466    20.707004    8193.7194    8762.0835    6517.0202    6610.8656    698.79817   -995.97279    948.72326   -3344.1061 
 1498000    255.57944   -4681.8664     -4188.96   -4681.8664            0    6909.8253    19.935387    19.857825    20.666559    8181.3416    6474.1119    7331.7256    6923.6384    36.304045    727.35589    266.10256    -3364.504 
 1499000    243.51487   -4693.1755   -4223.5366   -4693.1755            0    6003.8501    20.163807    19.928192    20.391219    8193.7668     5236.982    5678.9303    7095.6379    689.45777   -966.47998   -1802.0248   -3506.0904 
 1500000    263.16352    -4679.695    -4172.162    -4679.695            0    5951.8657    19.951213    19.955957    20.605598    8204.0275    5603.6266    6713.8777    5538.0928   -208.43184    949.52335   -485.68579   -3460.0372 
Loop time of 412.004 on 64 procs for 250000 steps with 972 atoms

Performance: 104.853 ns/day, 0.229 hours/ns, 606.790 timesteps/s
195.4% CPU use with 32 MPI tasks x 2 OpenMP threads

MPI task timing breakdown:
Section |  min time  |  avg time  |  max time  |%varavg| %total
---------------------------------------------------------------
Pair    | 30.337     | 36.457     | 43.185     |  59.2 |  8.85
Bond    | 0.9599     | 1.1873     | 1.3645     |   8.5 |  0.29
Kspace  | 180.7      | 189.91     | 200.53     |  36.6 | 46.09
Neigh   | 2.6014     | 2.9839     | 3.4558     |  17.2 |  0.72
Comm    | 74.742     | 83.559     | 92.097     |  48.1 | 20.28
Output  | 0.64179    | 0.64249    | 0.64451    |   0.0 |  0.16
Modify  | 81.785     | 84.598     | 88.617     |  18.9 | 20.53
Other   |            | 12.67      |            |       |  3.07

Nlocal:        30.3750 ave          38 max          24 min
Histogram: 3 0 4 7 4 6 3 3 1 1
Nghost:        2643.25 ave        2696 max        2601 min
Histogram: 7 2 1 1 2 11 3 0 4 1
Neighs:        9583.88 ave       12261 max        7097 min
Histogram: 1 1 6 5 5 1 7 2 3 1

Total # of neighbors = 306684
Ave neighs/atom = 315.51852
Ave special neighs/atom = 2.0000000
Neighbor list builds = 7830
Dangerous builds = 0

unfix		3
unfix		2
unfix		1

write_data	data.final.${pid}
write_data	data.final.1
System init for write_data ...
PPPM initialization ...
  extracting TIP4P info from pair style
  using 12-bit tables for long-range coulomb (../kspace.cpp:340)
  G vector (1/distance) = 0.3716021
  grid = 24 24 24
  stencil order = 5
  estimated absolute RMS force accuracy = 0.0035830716
  estimated relative force accuracy = 1.0790314e-05
  using double precision FFTW3
  3d grid and FFT values/proc = 3211 432
Last active /omp style is kspace_style pppm/tip4p/omp
WARNING: Not all mixed pair coeffs generated from mixing. Use write_data with 'pair ij' option to store all pair coeffs. (../write_data.cpp:312)

write_restart   restart.lmp.${pid}
write_restart   restart.lmp.1
System init for write_restart ...
PPPM initialization ...
  extracting TIP4P info from pair style
  using 12-bit tables for long-range coulomb (../kspace.cpp:340)
  G vector (1/distance) = 0.3716021
  grid = 24 24 24
  stencil order = 5
  estimated absolute RMS force accuracy = 0.0035830716
  estimated relative force accuracy = 1.0790314e-05
  using double precision FFTW3
  3d grid and FFT values/proc = 3211 432
Last active /omp style is kspace_style pppm/tip4p/omp
Total wall time: 0:06:52
