#include		in.partitions
include		in.temp
variable        temperature equal 133.51
variable	tempDamp equal 100.0
include		in.pressure
variable        pressure equal 7543.8
variable        pressureDamp equal 1000.0 # This is 1 ps
include		in.seed
variable        seed equal 745823

units		real
atom_style	full

read_restart	restart.lmp.${pid}
read_restart	restart.lmp.1
Reading restart file ...
  restart file = 30 Jul 2021, LAMMPS = 30 Jul 2021
  restoring atom style full from restart
  orthogonal box = (0.091648698 0.082224657 0.12862563) to (19.908352 19.917776 20.571372)
  4 by 4 by 4 MPI processor grid
  restoring pair style lj/cut/tip4p/long/omp from restart
  restoring bond style harmonic/omp from restart
  restoring angle style harmonic/omp from restart
  972 atoms
  648 bonds
  324 angles
Finding 1-2 1-3 1-4 neighbors ...
  special bond factors lj:    0        0        0       
  special bond factors coul:  0        0        0       
     2 = max # of 1-2 neighbors
     1 = max # of 1-3 neighbors
     1 = max # of 1-4 neighbors
     2 = max # of special neighbors
  special bonds CPU = 0.010 seconds
  read_restart CPU = 0.022 seconds
include 	in.setup
variable	out_freq equal 1000
variable	out_freq2 equal 10000
variable	out_freq3 equal 1000

timestep	2.0

neigh_modify    delay 7 every 1

include		in.tip4p
# This is TIP4P/Ice

# create groups ###
group ox type 2
324 atoms in group ox
group hy type 1
648 atoms in group hy

# set charges - beside manually ###
set group ox charge -1.1794
Setting atom values ...
  324 settings made for charge
set group hy charge 0.5897
Setting atom values ...
  648 settings made for charge

# ### TIP3P Potential Parameters ###
pair_style lj/cut/tip4p/long/omp 2 1 1 1 0.1577 8.5
pair_coeff 1 1*2 0.000 0.000
pair_coeff 2 2 0.21084 3.1668
bond_style  harmonic
bond_coeff  1 450 0.9572
angle_style harmonic
angle_coeff 1 55 104.52
kspace_style pppm/tip4p/omp 1.0e-5
pair_modify tail yes

thermo          ${out_freq}
thermo          1000
thermo_style    custom step temp pe etotal epair emol press lx ly lz vol pxx pyy pzz pxy pxz pyz enthalpy

restart 	${out_freq3} restart.lmp.${pid} restart2.lmp.${pid}
restart 	1000 restart.lmp.${pid} restart2.lmp.${pid}
restart 	1000 restart.lmp.1 restart2.lmp.${pid}
restart 	1000 restart.lmp.1 restart2.lmp.1


include         in.dump
dump            myDump all atom ${out_freq2} dump.water.${pid}
dump            myDump all atom 10000 dump.water.${pid}
dump            myDump all atom 10000 dump.water.1
dump            myDump2 all dcd ${out_freq2} dump.dcd
dump            myDump2 all dcd 10000 dump.dcd
dump_modify     myDump append yes
dump_modify     myDump2 append yes


variable natoms 	equal  "count(all)"                        # NUMBER ATOMS
variable H      	equal  "enthalpy/v_natoms"                 # ENTHALPY-per-atom
variable Vol      	equal  "vol/v_natoms"                 # volume-per-atom
fix AVG all 		ave/time ${out_freq} 1 ${out_freq} v_Vol v_H file vol_enthalpy.dat
fix AVG all 		ave/time 1000 1 ${out_freq} v_Vol v_H file vol_enthalpy.dat
fix AVG all 		ave/time 1000 1 1000 v_Vol v_H file vol_enthalpy.dat


timer           timeout 02:55:00 every 1000
New timer settings: style=normal  mode=nosync  timeout=02:55:00

fix 		1 all shake 1e-6 200 0 b 1 a 1
       0 = # of size 2 clusters
       0 = # of size 3 clusters
       0 = # of size 4 clusters
     324 = # of frozen angles
  find clusters CPU = 0.002 seconds
fix             2 all nph aniso ${pressure} ${pressure} ${pressureDamp}
fix             2 all nph aniso 7543.8 ${pressure} ${pressureDamp}
fix             2 all nph aniso 7543.8 7543.8 ${pressureDamp}
fix             2 all nph aniso 7543.8 7543.8 1000
fix             3 all temp/csvr ${temperature} ${temperature} ${tempDamp} ${seed}
fix             3 all temp/csvr 133.51 ${temperature} ${tempDamp} ${seed}
fix             3 all temp/csvr 133.51 133.51 ${tempDamp} ${seed}
fix             3 all temp/csvr 133.51 133.51 100 ${seed}
fix             3 all temp/csvr 133.51 133.51 100 745823


run             250000
PPPM initialization ...
  extracting TIP4P info from pair style
  using 12-bit tables for long-range coulomb (../kspace.cpp:340)
  G vector (1/distance) = 0.3721825
  grid = 24 24 24
  stencil order = 5
  estimated absolute RMS force accuracy = 0.0035091297
  estimated relative force accuracy = 1.056764e-05
  using double precision FFTW3
  3d grid and FFT values/proc = 2197 216
Last active /omp style is kspace_style pppm/tip4p/omp
Neighbor list info ...
  update every 1 steps, delay 7 steps, check yes
  max neighbors/atom: 2000, page size: 100000
  master list distance cutoff = 10.8154
  ghost atom cutoff = 10.8154
  binsize = 5.4077, bins = 4 4 4
  1 neighbor lists, perpetual/occasional/extra = 1 0 0
  (1) pair lj/cut/tip4p/long/omp, perpetual
      attributes: half, newton on, omp
      pair build: half/bin/newton/omp
      stencil: half/bin/3d
      bin: standard
Per MPI rank memory allocation (min/avg/max) = 9.225 | 9.227 | 9.230 Mbytes
Step Temp PotEng TotEng E_pair E_mol Press Lx Ly Lz Volume Pxx Pyy Pzz Pxy Pxz Pyz Enthalpy 
22000000    136.84304   -4966.0142   -4702.1009   -4966.0142            0    6641.9871    19.816704    19.835552    20.442747    8035.5378    5897.8546    7623.0285    6405.0781   -15.493421   -99.029041   -203.52155   -3923.7259 
22001000    129.21019   -4962.1134   -4712.9207   -4962.1134            0    8049.7155    19.751362    19.948518    20.169601    7947.0325     7979.531    7209.8907    8959.7247    156.52002   -116.92568    43.519581   -3779.9641 
22002000    134.47338   -4968.2115   -4708.8682   -4968.2115            0    8058.2831    19.910375    19.737864    20.332831    7990.5642    7608.3413    8861.0635    7705.4445   -335.06629    621.69603   -691.58769   -3769.8028 
22003000    129.82453   -4968.6161   -4718.2385   -4968.6161            0    7477.6803    19.814625    19.826654    20.364258     8000.256    6186.3321    8510.4475    7736.2613    65.455778   -310.41379     -457.348   -3845.7762 
22004000    128.35345   -4980.2625    -4732.722   -4980.2625            0    8376.2945     19.80358    19.825629    20.314789     7975.961    8168.0276    8320.6135    8640.2422    38.612599   -401.54443     1209.643   -3758.3813 
22005000     129.7578   -4964.0923   -4713.8435   -4964.0923            0    7008.9193    19.652092    19.761855     20.55756    7983.7708    8488.3231    5567.8334    6970.6013    413.94135    874.93937    221.95724   -3897.7592 
22006000    131.36308    -4965.743   -4712.3982    -4965.743            0    6893.8385     19.78604    19.860615    20.428443    8027.6203    7373.0581     6445.067    6863.3905     350.6007   -605.54176   -62.911321   -3905.3048 
22007000    139.15673   -4987.0108   -4718.6354   -4987.0108            0    6655.7644    19.682814    19.751688    20.569271     7996.691    8086.1918    6162.9554    5718.1462   -594.68795    355.39399    319.47848   -3942.4166 
22008000    130.76649   -4960.5543   -4708.3602   -4960.5543            0    8679.3168    19.875922     19.63952    20.463954    7988.1771    8642.6004    8472.9904    8922.3596   -624.18671    299.63571   -884.79355   -3697.2252 
22009000    137.69331   -4964.8802    -4699.327   -4964.8802            0    7509.3679    19.902195    19.626373    20.493865    8005.0657    7863.9132    7624.4199    7039.7706    -384.5444   -413.53317   -402.98748   -3822.6408 
22010000    141.19217   -4979.8343   -4707.5333   -4979.8343            0    7289.6014    19.926079    19.548034    20.516811    7991.6193    7451.4723    7961.0918    6456.2401    105.72958   -531.84575      526.647   -3857.9334 
22011000    134.76763   -4975.0874   -4715.1767   -4975.0874            0    7615.0996    19.799595    19.756067    20.420239    7987.6241     7510.946    7229.5728    8104.7799   -254.93435    949.78529    964.13339   -3828.0838 
22012000    133.49746   -4948.7599   -4691.2988   -4948.7599            0    6524.8338     19.71933    19.938351    20.350035    8001.0417    6230.1428    5400.3225    7944.0362   -325.22005   -677.45295    134.42484   -3929.9356 
22013000     133.3566   -4952.0236   -4694.8342   -4952.0236            0      8109.83    19.650039    19.896176    20.415985    7981.8468    8986.2219    7382.4337    7960.8343    384.23286    -437.8372   -389.41719   -3750.7928 
22014000    131.81364   -4972.3331   -4718.1194   -4972.3331            0    6957.9251    19.650123    19.815731    20.516122    7988.5992    8432.5621    6549.9306    5891.2826   -598.09794    232.87416    694.48677   -3907.4827 
22015000    133.43838   -4975.0855   -4717.7384   -4975.0855            0    7399.3488    19.906955    19.879602    20.176816    7984.8204    6364.4529    7135.5571    8698.0364   -156.82143   -38.551531    237.37946   -3856.0812 
22016000    134.89891   -4973.0404   -4712.8765   -4973.0404            0    7652.5359    19.799283    19.782685    20.344787    7968.7067    7734.8546    6438.7181     8784.035     -174.353   -1004.5512   -88.227056   -3823.5339 
22017000    134.20957   -4974.0943   -4715.2599   -4974.0943            0    8712.0002    19.873744    19.695517    20.362979    7970.5518    8453.0296    8944.6933    8738.2776   -294.36748    1767.3333    330.29236   -3702.5568 
22018000    125.16847   -4966.3305   -4724.9326   -4966.3305            0    7783.0664    19.756523    19.762815    20.426382    7975.3687    7050.3399    8960.2835    7338.5758    164.07069   -111.83742   -747.16341   -3819.6642 
22019000    131.03613   -4970.1241   -4717.4099   -4970.1241            0    7839.2211     19.72161    19.832903    20.467053    8005.4173     6831.625    8363.5538    8322.4844    12.549878    1387.1217    1018.1752   -3802.1746 
22020000    131.46418   -4973.1587    -4719.619   -4973.1587            0    6767.4619    19.752097    19.719617     20.55479    8006.1689    5466.7854    9074.7773     5760.823   -179.10191   -211.73934   -1054.2261   -3929.4382 
22021000    128.67616   -4979.0486   -4730.8858   -4979.0486            0    6923.9226     19.55664    19.828086    20.588747    7983.7136    6444.7869    8265.8133    6061.1676   -653.81443    675.35521    422.70549   -3924.7039 
22022000    137.29542   -4977.2661   -4712.4803   -4977.2661            0    8543.0056    19.855344    19.688178     20.45909    7997.7762    8983.8549    9648.4411    6996.7207   -472.34868   -151.51373   -58.164877   -3716.0296 
22023000    131.07203   -4985.0229   -4732.2394   -4985.0229            0    6593.6483    19.663487    19.979976    20.441957    8031.1538    7260.2243    6023.4741    6497.2466    74.724523    301.19124   -202.67139   -3959.9509 
22024000    142.60174   -4965.9806   -4690.9611   -4965.9806            0     8634.909    19.887697    19.689655    20.399267    7987.9839    9073.9046    8471.1457    8359.6765    587.67322    747.56721   -152.14639    -3685.024 
22025000    134.93808    -4956.611   -4696.3715    -4956.611            0    8237.6678    19.853209    19.747543    20.325209    7968.5406     8753.315    7125.7777    8833.9107   -723.43861    611.38864    11.356014   -3739.0475 
22026000    142.93954   -4971.1746   -4695.5037   -4971.1746            0    7926.2232    19.694116    19.728177    20.494162    7962.5763    7813.5082    7709.3796    8255.7816   -257.91869    444.52692   -388.73094    -3775.063 
22027000    138.22422   -4958.9902   -4692.4132   -4958.9902            0    8552.7421     19.89445    19.621712     20.43214    7975.9547    8128.1326    8685.6466    8844.4471   -419.16288   -204.24197     264.3986   -3697.5486 
22028000    134.80705   -4981.1059   -4721.1191   -4981.1059            0    7486.8008    19.689353    19.619949    20.629153    7969.1267    6192.4849    9118.6235    7149.2939    662.25811    886.10999    65.551307   -3850.9916 
22029000    138.91303   -4980.0493   -4712.1439   -4980.0493            0    7197.7949    19.829668    19.716098     20.41389    7981.0894    7383.2503    6634.5532    7575.5814   -179.21774   -80.455305    138.43115   -3874.3493 
22030000    136.24015   -4963.8865   -4701.1359   -4963.8865            0    7767.9885    19.725383    19.714912    20.473889    7961.9717    6771.2124     9082.646     7450.107   -87.325651     1383.678    729.20135   -3799.1389 
22031000    139.35168    -4965.811   -4697.0595    -4965.811            0    7883.9126    19.736053    19.727932    20.523485    7990.8498    7467.5697    8045.7503    8138.4179   -249.49842    625.66114   -367.12081   -3778.2814 
22032000    138.56544   -4974.2943   -4707.0592   -4974.2943            0    7373.8356    19.875056    19.779292    20.410727    8023.7536    7741.6546    7704.7969    6675.0552    177.62455   -1185.3993   -608.03703   -3844.1861 
22033000       137.14   -4971.2921   -4706.8061   -4971.2921            0    8197.3821    19.745007    19.741035    20.400692    7951.9218    7242.5744    9547.5942    7801.9775   -804.57056    900.81145    171.59135   -3756.1505 
22034000    132.02666   -4983.3014   -4728.6769   -4983.3014            0    6487.9942    19.764345    19.779521    20.503599    8015.4571    6754.2203    6121.8297    6587.9326   -40.094262    595.22034   -345.74629   -3970.2484 
22035000    130.99157   -4994.6652   -4742.0369   -4994.6652            0    6790.5746    19.838206    19.759397    20.443013    8013.4771    6022.4864    8031.1541    6318.0832   -494.82504    591.17136   -231.34573   -3948.4337 
22036000    134.15413   -4983.8685    -4725.141   -4983.8685            0    7165.8864    19.670089    19.756434    20.515755    7972.6443    6365.1074    8772.5295    6360.0222   -100.80712    1048.3951   -266.55922    -3891.943 
22037000    135.93967   -4976.8226   -4714.6515   -4976.8226            0    7384.9919    19.581291      19.8388    20.534426    7976.9943    8299.2781    6696.9536    7158.7439   -687.89906   -1345.0676    1172.4436    -3855.509 
22038000    140.84529   -4978.1248   -4706.4928   -4978.1248            0    6795.1429    19.824385    19.947222    20.227938    7998.9643    6959.7098    6223.6536    7202.0652    316.07477   -346.37717    403.02813   -3913.7939 
22039000    133.63146   -4988.3671   -4730.6476   -4988.3671            0    5940.1241    19.887556    19.840833    20.373473    8039.0804     6963.038    4921.3606    5935.9737   -278.03982    -95.35008    11.980549   -4034.2171 
22040000    131.31094   -4975.4482    -4722.204   -4975.4482            0    6297.3648    19.895567    19.786994    20.412424    8035.8296    6093.3743    7362.6711     5436.049    381.93397   -695.90441   -398.62896   -3984.1886 
22041000    133.18193   -4967.6682   -4710.8157   -4967.6682            0    7518.4626    19.855627    19.645444    20.462465    7981.8473    6456.5066    7668.1691    8430.7121    565.77967    666.91953    286.81073   -3835.6136 
22042000    139.53798   -4989.4407     -4720.33   -4989.4407            0    6695.6373     19.72593    19.807666    20.431865    7983.2328    4232.7166     8747.955    7106.2403   -104.14457     603.6377   -184.60599   -3940.7753 
22043000    136.52709   -4966.7729   -4703.4689   -4966.7729            0    7397.9371    19.568294    19.650695    20.697966    7959.0013    7623.1601    7683.0372    6887.6139     383.8727   -1047.3218    52.253521   -3844.7617 
22044000    126.40343   -4966.7691   -4722.9894   -4966.7691            0    8087.0768    19.732271    19.658521    20.485244     7946.375    8741.2334    6934.3765    8585.6204     76.87034    1131.4637    599.01455   -3785.7803 
22045000     129.9081   -4984.8458   -4734.3071   -4984.8458            0    7632.3442    19.737344    19.756242    20.498393    7993.0561     8211.703    6790.4285    7894.9011   -60.829352   -400.94518    703.98712   -3844.6007 
22046000    122.25617   -4964.3974   -4728.6161   -4964.3974            0    5883.3346    19.950361    19.689628    20.548606    8071.8047     5662.297    7030.3841    4957.3226   -60.167737   -780.64351    211.96922   -4036.0359 
22047000    137.07406   -4980.9891   -4716.6302   -4980.9891            0    7854.2374    19.769536    19.824805    20.378815    7987.0115    8337.5496    8183.0587     7042.104    151.56698    537.35413   -242.18392     -3801.75 
22048000    126.21615   -4972.8522   -4729.4338   -4972.8522            0    8862.0779    19.734678     19.77634    20.446029      7979.67    7346.9171    9946.0459    9293.2708   -755.57712   -132.42276    1096.3194   -3698.1068 
22049000    129.76613   -4959.1236   -4708.8587   -4959.1236            0    9203.6986    19.673028    19.790854    20.525019    7991.3344    9546.3447      9023.32     9041.431   -401.28066    273.81665     761.1683   -3636.2098 
22050000     130.9147    -4984.383    -4731.903    -4984.383            0         7124    19.691019    19.756451    20.510983     7979.278    6796.5431      7593.26    6982.1969    466.17815    643.68425    143.89125   -3902.8861 
22051000    142.10766   -4952.0931   -4678.0265   -4952.0931            0    7358.3532    19.886045    19.752129    20.297353    7972.6323    6862.8034     7939.351    7272.9052   -202.04642    1002.0196    500.02683   -3822.4512 
22052000    128.68275   -4972.0693   -4723.8938   -4972.0693            0    6952.6555    19.687467    19.878207    20.386017    7978.0994    7211.7464    5911.9732    7734.2469   -332.44777   -738.04483   -96.429499   -3914.9357 
22053000    127.35898   -4983.8909   -4738.2684   -4983.8909            0    7184.4683    19.810668    19.849527    20.366985    8008.9581    5856.4007    7471.8775    8225.1265    72.013828   -252.58351   -1168.5403    -3899.105 
22054000    139.97101   -4967.1058   -4697.1599   -4967.1058            0    8238.8065    19.685463    19.856805     20.37409    7964.0359    10086.775    7262.0407    7367.6041    614.48002    45.025361    707.06833   -3740.2449 
22055000     138.1218   -4979.9071   -4713.5276   -4979.9071            0    7432.3249    19.634503    19.897811    20.447254    7988.4076    7759.2942    6722.8685     7814.812    109.62075   -1077.1595   -212.61276   -3847.6415 
22056000    141.32841   -4968.9258    -4696.362   -4968.9258            0    7403.3021    19.761477    19.799939    20.521022    8029.3841    6725.2808    8701.3067    6783.3186   -296.21661    296.72381   -283.51768   -3829.4329 
22057000    134.71132   -5001.9821     -4742.18   -5001.9821            0    5209.6666    19.744749    19.840716    20.495997    8029.3057    4506.0913    6431.4768    4691.4318   -3.4867886   -29.152272   -136.40826   -4132.1323 
22058000    134.43823   -4967.7328   -4708.4574   -4967.7328            0    9140.6758    19.601265    19.811218     20.43549    7935.6108    8650.8965    10175.065    8596.0654   -268.35141    709.60201    546.61884   -3650.5819 
22059000    137.72126   -4980.6903   -4715.0832   -4980.6903            0    8728.5771     19.64196    19.723259    20.530802     7953.704    9078.3897    9199.5083    7907.8333    182.75001    166.89773    346.54553   -3702.5978 
22060000    133.88007   -4976.2467   -4718.0478   -4976.2467            0    6673.4836    19.911197    19.733493    20.432847    8028.4222    6460.5818    6875.1179    6684.7512    469.58778   -311.46892     387.3506   -3936.6742 
22061000    129.58222   -4963.8433   -4713.9331   -4963.8433            0    7589.9468    20.001994    19.790956    20.316151    8042.3224    7657.9143    7232.5394    7879.3868   -297.87542    103.33641   -598.06609   -3823.7157 
22062000     138.8729   -4963.9467   -4696.1187   -4963.9467            0    6901.6189    19.821092    19.745101    20.463391    8008.7462    6844.7636    7625.7084    6234.3846   -628.30233    568.96179     660.2176   -3890.0141 
22063000    136.64246   -4966.2664     -4702.74   -4966.2664            0    8069.6944    19.857931    19.675779    20.389586    7966.6242    6824.4451    9322.8908    8061.7474   -780.31306    402.56998    1043.6329   -3765.1622 
22064000       135.94   -4974.6412   -4712.4695   -4974.6412            0    7742.6279    19.748364    19.838705    20.342337    7969.7606    7175.6653    8371.4388    7680.7795    204.90465   -266.33029   -261.74298   -3812.5378 
22065000    132.96702   -4978.6971   -4722.2591   -4978.6971            0     7413.182    19.817277    19.796259    20.390147    7999.2169     7496.019    6786.0504    7957.4766    -112.0892    315.07848    317.17372   -3857.4345 
22066000    135.58678   -4957.8565    -4696.366   -4957.8565            0    7967.5313    19.586408    19.993926    20.458007    8011.5437    9215.5075    7593.5603    7093.5263    375.46063     226.0607   -518.23095   -3765.4385 
22067000    130.96541   -4978.5857   -4726.0078   -4978.5857            0    6686.8015    19.734468    19.749934    20.499904    7989.9286    6613.6892    6131.1052    7315.6101    348.04696   -407.07594   -397.76656   -3946.8289 
22068000    127.77948    -4961.348   -4714.9145    -4961.348            0    7335.7322    19.614661    19.802527    20.569998    7989.7957    7108.9517    7485.5969    7412.6479   -459.94503   -1084.4107   -1011.6543   -3860.1332 
22069000    130.50049   -4990.0227   -4738.3415   -4990.0227            0    7246.5782    19.813549    19.802164    20.451097    8024.0114    8442.5734      5945.93    7351.2312    470.15272    1389.2815   -250.73176   -3890.3326 
22070000    141.36558   -4984.9123   -4712.2769   -4984.9123            0    6936.3454    19.769569     19.93536    20.340348    8016.4052    8027.7803    5449.3106    7331.9452    613.46912   -971.37489    371.17658   -3901.3415 
22071000    135.16767   -4974.5091   -4713.8269   -4974.5091            0    6950.2107    19.577952    19.911226     20.52048    7999.3146    6801.9908    6663.9232    7384.7182   -159.55622    1285.2252    136.52708   -3903.0028 
22072000    146.89553   -4973.2886   -4689.9882   -4973.2886            0     7639.162    19.673952    19.800427    20.626375    8035.0591    7809.6423    8033.5182    7074.3254    110.86324   -526.35202   -201.67329   -3794.8075 
22073000    128.70475   -4983.5072   -4735.2892   -4983.5072            0    7501.8506    19.811702    19.825985     20.41208      8017.59    8358.8195    7516.6454    6630.0867   -87.176038    88.284273    20.275578   -3858.1104 
22074000    133.26627   -4985.7747   -4728.7595   -4985.7747            0    7727.8326     19.74484    19.879538    20.359785    7991.5883    8494.3734    6572.3093    8116.8151    171.33859   -42.682776   -674.98496   -3828.0874 
22075000    137.29673   -4982.4386   -4717.6504   -4982.4386            0    8807.7061    19.724381    19.871972    20.274491    7946.8369    8472.7539     8214.556    9735.8084   -799.55682    1061.7904   -253.55585   -3696.8683 
22076000    134.99043   -4980.0087   -4719.6683   -4980.0087            0    7541.7239    19.688903    19.858562    20.476937     8006.345    6933.4442    7885.9635    7805.7639     4.081292   -62.423767    268.30046    -3839.064 
22077000    125.42504   -4976.3584   -4734.4657   -4976.3584            0    8153.9508    19.895415    19.525588    20.526013    7973.7336    7954.7854    8475.4361    8031.6311   -67.984077    942.20232     471.4794   -3786.2531 
22078000    140.86343   -4970.5733   -4698.9063   -4970.5733            0    6638.6207    19.658362    19.819088    20.547732    8005.6186    7757.0337    5428.9454    6729.8829   -51.477746    776.81299   -426.08733   -3923.8225 
22079000    133.92244   -4987.8285   -4729.5478   -4987.8285            0    6543.6661    19.846435    19.806417    20.435052    8032.7483    6715.4721    6402.2964    6513.2297   -450.53284    485.01313    354.99781   -3962.9613 
22080000    133.04957   -4957.6468   -4701.0495   -4957.6468            0    6941.7791    19.707592    19.686575    20.562107    7977.5832    6747.2177    7423.9961    6654.1235   -520.59718     1504.258    94.736444   -3893.4091 
22081000    135.29405   -4969.7864   -4708.8605   -4969.7864            0    7925.3628    19.854708    19.578131    20.480035    7960.9599    8470.2495     7505.593    7800.2459    412.55126   -743.89846    -330.2935   -3788.7065 
22082000    131.84479    -4981.747   -4727.4732    -4981.747            0    7194.4563    19.841649     19.70432    20.423492    7984.8951     6581.524    7317.7192    7684.1258    12.216793   -285.85561   -366.63561   -3889.6679 
22083000    138.96764   -4979.5811   -4711.5703   -4979.5811            0    6634.0476    19.663877    19.738663    20.623339    8004.7149    5726.6328    7910.9101    6264.5998    36.248986     181.0272    221.66233   -3937.1079 
22084000    139.64306   -4963.1031   -4693.7898   -4963.1031            0    8272.1455    19.819253    19.705208    20.450927    7986.9563    8909.0486    7485.1225    8422.2655   -45.222305   -264.87996    175.20373   -3730.2373 
22085000    134.23322   -4987.9272   -4729.0471   -4987.9272            0     6057.689    19.822522    19.795286    20.401795    8005.5108    5292.5211    6267.9263    6612.6196    111.66168    273.18062   -376.06982   -4021.7988 
22086000    136.00978    -4978.731   -4716.4247    -4978.731            0    7615.6966    19.683673      19.7228    20.425347    7929.4697    5539.4538     9852.895    7454.7411   -296.86485    369.09422   -465.13519   -3835.7213 
22087000    133.81795   -4984.3329   -4726.2537   -4984.3329            0    6886.1963    19.789153    19.799796    20.427581    8003.9594    5369.1645      9225.19    6064.2343   -162.73847   -838.78073    833.84934   -3922.4312 
22088000    131.83572   -4975.3219   -4721.0656   -4975.3219            0    6114.4296    19.879223    19.735834    20.526113     8053.072    6730.5397    6653.9376    4958.8114     -313.422   -255.05447    291.23622   -4002.9516 
22089000    125.05646   -4982.0738   -4740.8919   -4982.0738            0    7078.1653    19.631999    19.695504    20.690115    8000.0839    8405.5101    7320.6439    5508.3419   -608.04345   -333.73035    2276.3448    -3915.061 
22090000    129.18848   -4972.0201   -4722.8692   -4972.0201            0    7508.7239    19.757993    19.740265    20.563822    8020.4666    8610.2477    7097.2948    6818.6292   -142.67004    -481.9203    150.17221   -3844.5717 
22091000    131.64496   -4978.5146   -4724.6262   -4978.5146            0    7692.1034    19.931449    19.745706    20.392797    8025.7999    7046.3366    7628.6877    8401.2858   -71.961578    628.87143    -412.5631   -3824.2804 
22092000    133.46271   -4973.7773   -4716.3832   -4973.7773            0    8689.5365     19.86739    19.629988    20.434816    7969.5092    8137.2343    9098.6188    8832.7564   -507.76259    989.92661    90.500812   -3706.4235 
22093000    137.83825   -4979.9806    -4714.148   -4979.9806            0    5587.8659    19.815257    19.868676     20.48752    8065.9965    6176.7521     5347.358    5239.4875   -191.40045     345.8868   -541.17587   -4056.8234 
22094000     132.6721   -4970.7157   -4714.8464   -4970.7157            0      6895.12    19.781239    19.736361    20.408744     7967.771    6314.9288    6527.1488    7843.2825    415.60595     1043.865   -867.95523   -3913.6213 
22095000    130.22357   -4991.0061    -4739.859   -4991.0061            0    6320.2351    19.794631    19.748478    20.516067    8020.0141    7603.9419    5710.2565    5646.5069    324.48859   -256.36694   -863.08607   -4000.6211 
22096000    133.87609   -4967.5893    -4709.398   -4967.5893            0    7529.3692    19.812178    19.671979    20.468509     7977.494    9310.9685    6177.3988    7099.7404   -775.53423    904.33527   -1594.6699   -3833.4043 
22097000    134.68983   -4972.3501   -4712.5894   -4972.3501            0     7441.555    19.704548    19.777003    20.452333     7970.211    6561.2143    7657.9802    8105.4705    571.25646   -457.41215    585.21828   -3847.6027 
22098000    136.03374   -4983.6386   -4721.2861   -4983.6386            0     5553.154    19.809119    19.831296      20.4631    8038.7345    3083.3935    8036.8705     5539.198   -76.391488    245.69782    1103.5714   -4070.2526 
22099000    134.90308   -4971.8474   -4711.6755   -4971.8474            0    8701.3031    19.766297    19.769958    20.298376    7932.1762     9006.184    8924.1542     8173.571   -774.47055   -724.40817     252.5728   -3705.0857 
22100000    134.73987   -4979.9919   -4720.1347   -4979.9919            0    7199.4297    19.754013    19.906001    20.389553    8017.6497    7655.8454    6957.9624    6984.4813    10.708199    782.73028    122.77055   -3878.3112 
22101000     130.0102   -4988.2183   -4737.4827   -4988.2183            0    6613.6897    19.463136    19.946455    20.594921    7995.3719    7065.9148     5994.872    6780.2823    14.100926    89.000399   -355.36848    -3966.298 
22102000     134.3999   -4975.1934   -4715.9919   -4975.1934            0    6915.7742    19.692929    19.864249     20.47797    8010.6796    7249.7463     7136.434    6361.1422   -82.103327   -1055.3822    181.79474    -3908.039 
22103000    133.88531   -4971.3602   -4713.1511   -4971.3602            0    6499.9246    19.680751    19.894064    20.527115    8036.9841    6142.9663    6927.5774    6429.2301    -136.2291    172.46073   -94.769784   -3951.2874 
22104000    132.29083      -4965.7    -4710.566      -4965.7            0    6146.9576    19.843523    19.920496    20.322612    8033.3822    5633.3497    5991.9503     6815.573   -430.61958   -37.970857    -14.77271   -3990.3968 
22105000    130.69488   -4942.3803   -4690.3243   -4942.3803            0    8358.5832     19.76358     19.75705    20.410867    7969.8319    8752.6943    8752.9587    7570.0966    -167.4453    734.71985   -177.18354   -3718.7909 
22106000    128.42853   -4977.7957   -4730.1105   -4977.7957            0    6955.1685    19.797189    19.755637    20.451104    7998.5513    5094.0268     9549.891    6221.5876   -247.10469   -404.00035    5.1740614   -3918.7854 
22107000    131.48002   -4968.5667   -4714.9965   -4968.5667            0    7342.1481    19.799161     19.67518    20.598393    8024.1467    7788.9113    7619.1414    6618.3915   -186.60911    828.21653    973.06116   -3855.7893 
22108000    131.05406   -4958.9878   -4706.2391   -4958.9878            0    7608.8033    19.849456    19.745329     20.42955    8007.0362    7490.8133    7593.0322    7742.5644   -364.08408    351.71625   -355.16133   -3817.7256 
22109000    131.02471   -4966.3117   -4713.6195   -4966.3117            0    8648.5092    19.834484     19.56453    20.539142    7970.2623    7797.8088    9298.5692    8849.1496   -528.75672    179.40809    616.47959   -3708.3333 
22110000    136.82934   -4963.6435   -4699.7566   -4963.6435            0    8172.9341    19.730292    19.728235    20.470414    7967.9824    9179.2665    8131.1672    7208.3686    -66.71549   -232.01622   -34.342678    -3750.022 
22111000    141.90378   -4970.7119   -4697.0385   -4970.7119            0    7692.8448     19.66698    19.772316    20.502712    7972.7199    8109.9431     8434.564    6534.0272   -596.64685    1881.5097   -336.76362   -3802.5611 
22112000    137.63386   -4970.1671   -4704.7286   -4970.1671            0    6966.1923    19.639282    19.860376    20.375497    7947.3306    5627.5048    7530.0374    7741.0348    111.87843     1033.144   -1057.8086   -3897.3214 
22113000    131.57848   -4982.1976   -4728.4374   -4982.1976            0    7137.2046    19.753569    19.875979    20.310648    7974.3973    6687.5105    6312.5884    8411.5149   -612.43523   -1251.0921   -952.23596   -3898.3919 
22114000    136.06312   -4966.2104   -4703.8012   -4966.2104            0    8495.8531    19.669818    19.966582    20.244775    7950.9131    7739.9242    8792.3394    8955.2958   -516.65578    341.74343    100.82806   -3718.6568 
22115000    127.85794   -4963.2493   -4716.6645   -4963.2493            0    6361.9428    19.843946    19.806277    20.378472    8009.4463    4925.6141    7770.6684    6389.5458    219.80486   -658.86615    282.19618   -3973.5287 
22116000    129.48182   -4983.8011   -4734.0845   -4983.8011            0     6990.385    19.803839    19.777416    20.463609    8014.9564    7375.9773    6332.2876      7262.89   -326.60358   -79.918751   -257.85127    -3916.979 
22117000    128.72424   -4980.3077   -4732.0522   -4980.3077            0    8594.2051    19.809371    19.714651    20.474969    7996.1885    7292.9901    9822.1191     8667.506   -130.32493   -327.84088   -462.59802   -3729.8286 
22118000     133.8869   -4986.1365   -4727.9244   -4986.1365            0    6779.4432    19.680424     19.75561    20.598516    8008.6777    8023.5076    5630.3609    6684.4613    372.72575    932.24808   -397.97099   -3936.0966 
22119000    127.05127     -4973.94   -4728.9109     -4973.94            0     7798.992    19.759978    19.799961    20.438857    7996.6376    9311.4409    7498.7481    6586.7869   -317.37573    8.4258363    1179.2034    -3819.371 
22120000    128.13722    -4956.594   -4709.4706    -4956.594            0    8145.4362    19.746186    19.654836    20.509357    7959.8466     7482.194    9773.2045      7180.91   -73.551625   -422.93769   -405.00444   -3763.8978 
22121000    133.88881   -4993.7778    -4735.562   -4993.7778            0    6536.6972     19.79018    19.851878    20.412197    8019.3854    6163.4632    5702.4295     7744.199   -7.8127492    241.23154   -37.814876   -3971.0658 
22122000    135.28455   -4965.0617    -4704.154   -4965.0617            0    7204.3522    19.918463    19.791729    20.321476    8011.1493       6966.1    7033.7859    7613.1708   -103.50757     98.77801     184.8592   -3862.4379 
22123000     134.8824   -4968.6146   -4708.4825   -4968.6146            0    8295.9962    19.744166    19.800686    20.304306    7937.9285    8574.4609    8428.8878    7884.6399   -398.15437   -4.0480302   -476.98587   -3748.0837 
22124000    135.43827   -4977.8053   -4716.6012   -4977.8053            0    6412.3799    19.708755    19.771178    20.515711    7994.2609    7008.9097    6031.1748    6197.0553   -184.09457    748.72924    72.503903    -3968.994 
22125000     137.9193   -4969.5035   -4703.5145   -4969.5035            0    6530.9168    19.804756    19.694303    20.624534    8044.4114    6750.9963    7051.7986    5789.9554    198.68616    450.76413   -943.04322   -3937.3107 
22126000    130.05695   -4977.0029   -4726.1771   -4977.0029            0    8141.9825    19.766332    19.606235    20.555351    7966.0896    9378.5051     7390.126    7657.3163   -452.46934   -23.140032    -908.2915    -3780.264 
22127000     130.6461   -4964.6516   -4712.6896   -4964.6516            0    8022.7937    19.762059     19.64549    20.424712    7929.5947    7823.5803    8363.5925    7881.2082   -532.20652   -706.15924    658.18619   -3784.8936 
22128000    128.69621   -4963.4467   -4715.2452   -4963.4467            0    9716.5101    19.763222    19.662188    20.404178    7928.8226    10535.381    9248.1331     9366.016   -82.732081    433.61681    418.96617   -3591.6888 
22129000    139.23191   -4966.5671   -4698.0467   -4966.5671            0    6489.0891    19.752669    19.859723    20.481343     8034.473    7053.3667    5538.0411    6875.8593    418.52953   -682.37054    955.44297   -3937.6906 
22130000     130.1698   -4988.8183   -4737.7749   -4988.8183            0    6696.8766    19.740764    19.743689    20.441367    7967.1352     7218.574    7358.2491    5513.8067    36.570852   -137.17988   -1455.8065   -3959.6481 
22131000    126.07173    -4981.966    -4738.826    -4981.966            0    7648.4368    19.654951    19.959602    20.360611    7987.5695    8376.1479     6817.343    7751.8195    185.15677   -677.78324    207.98621   -3847.8557 
22132000    140.04848   -4962.0963    -4692.001   -4962.0963            0    7862.3079    19.762686    19.690815    20.379469    7930.5357    8533.8021     8119.149    6933.9726   -15.316189   -99.079735    1159.4515   -3782.6565 
22133000     134.2945   -4959.9238   -4700.9255   -4959.9238            0    8236.8374    19.915286    19.776893    20.318709     8002.777    7080.6791    9036.5525    8593.2807    112.94137   -796.23264   -608.02976   -3739.5853 
22134000     130.0288   -4981.4956   -4730.7241   -4981.4956            0     7083.855    19.717829    19.836802    20.450985     7999.171    8680.6852    6648.7858    5922.0941   -229.04617    327.56957     38.43989   -3904.3237 
22135000    137.86974    -4984.574   -4718.6806    -4984.574            0    6737.1717    19.824614    19.694256    20.441378    7980.9484    6715.5305    5723.0034    7772.9811    189.77329    -216.9315    -1102.771   -3934.5147 
22136000    133.89007   -4972.7892   -4714.5709   -4972.7892            0    8199.8028     19.71632    19.827916    20.463557    7999.8906    8683.2504    8804.3983    7111.7598   -309.80854   -1034.7112   -690.35789   -3757.8983 
22137000    127.68008   -4973.4262   -4727.1845   -4973.4262            0    8379.8367    19.786907    19.736421     20.51441     8011.343    8532.2601    8232.5455    8374.7045    286.77801    572.03013   -256.85889   -3748.1076 
22138000     130.2541   -4977.7527   -4726.5467   -4977.7527            0    8273.9941    19.864944    19.696499    20.414935    7987.7486    8454.1394    7450.8743    8916.9686   -100.57471    899.53205    620.74414   -3762.6833 
22139000    127.63605   -4986.9283   -4740.7714   -4986.9283            0    8727.1803    19.897327      19.6679    20.421175    7991.5948    8259.9863    8432.1507    9489.4038   -172.87456   -541.64769   -1437.0392   -3723.6254 
22140000    137.16993   -4971.0229   -4706.4791   -4971.0229            0    7701.5731     19.69448    19.935129     20.24184    7947.1893    8866.4496    6174.2346    8064.0351     88.06586    3.8527474    338.39136   -3813.8544 
22141000    135.82955     -4975.43   -4713.4713     -4975.43            0    7560.1959    19.678951    19.702667    20.469735    7936.6857    6950.6223    7998.8685     7731.097    -271.4619    178.01747   -231.80282   -3838.3906 
22142000    131.94002   -4977.8322   -4723.3748   -4977.8322            0    6919.9836    19.836271     19.76377    20.490712    8033.1685    6446.5738    7706.8275    6606.5495    294.43433    328.28122    -264.1927   -3912.6605 
22143000    134.14783    -4975.326   -4716.6106    -4975.326            0    7470.4781    19.600346    19.817987    20.452715    7944.6403    8645.9184    6850.1614    6915.3544   -514.65509    461.82659    775.79961   -3851.0479 
22144000    133.55802   -4973.3351   -4715.7572   -4973.3351            0    6219.3418    19.835227    19.779662     20.37698    7994.5839     4788.112    7945.0096    5924.9039   -349.08071    166.66216    92.555413   -3990.6267 
22145000    132.77688   -4980.1108   -4724.0394   -4980.1108            0    7326.1748    19.750433    19.809946    20.508275    8023.9655    6936.8679    8312.0137    6729.6428   -307.49569    541.56893    416.73649   -3866.7209 
22146000    131.97494   -4982.8882   -4728.3635   -4982.8882            0    8146.9269    19.788129    19.758599    20.488647    8010.7681    8131.8305    8673.8047    7635.1453   -546.26318    -25.46468   -230.86361   -3776.5675 
22147000    127.75157   -4975.1093   -4728.7297   -4975.1093            0    7069.6254    19.548032    19.900757     20.49567    7973.2384    6307.1824    7823.4252    7078.2687   -246.14825   -223.54828    -541.8928    -3906.663 
22148000    133.21035   -4976.8457   -4719.9384   -4976.8457            0      9307.79    19.699625    19.729937    20.376025    7919.5978    9043.8084    9753.9798    9125.5819   -344.65932   -534.30704   -312.50235    -3644.896 
22149000    137.70049   -4974.5911   -4709.0241   -4974.5911            0    6863.1444     19.83924    19.792158    20.473165    8039.0214    5331.4663    7762.9765    7494.9906   -237.12206    191.36451   -246.93038    -3904.383 
22150000    136.63685   -4986.3721   -4722.8565   -4986.3721            0    7512.2404    19.652669    19.758054    20.602769    8000.0244    8214.2371    8295.7668    6026.7171   -370.76148    632.42523   -213.57507   -3846.3873 
22151000    143.09904   -4973.6601   -4697.6815   -4973.6601            0    6711.8999     19.77384     19.84725    20.419326     8013.694    8229.0958    4929.0828    6977.5209    160.36286    215.36963   -523.25521   -3913.2517 
22152000    138.57337   -4973.5393   -4706.2889   -4973.5393            0     6811.508    19.593823    20.014029      20.3878    7995.1029    6517.7087    6705.3023     7211.513    217.35223     59.71737    510.65824   -3912.0645 
22153000    130.17441   -4976.3534   -4725.3011   -4976.3534            0    7009.0882    19.852493    19.786702    20.473152    8042.1686     7876.225    6437.6805    6713.3591   -444.44476    645.93184   -265.05159   -3903.2277 
22154000    132.33202    -4978.467   -4723.2536    -4978.467            0    6669.5822    19.953997    19.796533     20.37098    8046.9437    6167.0737    5642.1112    8199.5618   -285.84312     512.5703    506.69016   -3940.5353 
22155000    132.63329   -4978.6086   -4722.8141   -4978.6086            0    6824.4892     19.70571    19.858401    20.504885    8024.0514    7632.0791    6390.0058    6451.3827   -502.47242   -232.02578    430.65061   -3924.1949 
22156000    132.66876   -4990.1921   -4734.3292   -4990.1921            0    6694.2528    19.745774    19.843162    20.504464    8034.0304    7123.9795    6565.6831    6393.0957   -102.16331    518.44488    240.12812   -3949.9764 
22157000    136.92163   -4974.6303   -4710.5655   -4974.6303            0    7879.9513    19.892785     19.72993    20.337913    7982.2904    8055.7165    7352.1179    8232.0194   -641.31716   -690.42238   -78.668446   -3793.2326 
22158000    120.76826   -4961.1035   -4728.1917   -4961.1035            0    8295.3144    19.849886    19.812962    20.220404    7952.3822     7331.827    9064.7202    8489.3959    413.59729    1215.7274   -1615.8567   -3766.1233 
22159000    131.78352   -4969.6311   -4715.4755   -4969.6311            0    8215.6297    19.654892    19.674247    20.402261    7889.4566    7589.2419    8673.3217    8384.3256    764.69237    1062.1709    162.90996   -3770.1881 
22160000    132.01309   -4967.5067   -4712.9083   -4967.5067            0    6605.8866    19.889042    19.648364    20.438766    7987.2067    6929.3444    6609.5029    6278.8125    247.93975    471.00135     58.30614   -3943.4202 
22161000    133.51853   -4980.9771   -4723.4754   -4980.9771            0    8136.1226    19.877442     19.65585    20.381167    7963.0853    7768.1868    8413.8449    8226.3361   -357.76147    92.028773   -481.78194   -3778.5996 
22162000     134.3631   -4976.1188   -4716.9883   -4976.1188            0    7637.0729    19.840877    19.536903    20.636302    7999.2351    7623.2792    8095.8666    7192.0729   -0.1294297    1655.4783   -1013.6278   -3826.0425 
22163000    132.31591   -4967.0032   -4711.8209   -4967.0032            0    7663.5656    19.843334    19.635242    20.502994    7988.5541    6550.6163    9278.0049    7162.0757    -129.7545    707.03525    386.40732   -3818.9782 
22164000    135.04078   -4982.0268   -4721.5894   -4982.0268            0    8675.9231    19.699109    19.875121    20.305907    7950.2129    9316.9638    7526.1646    9184.6408   -273.63689   -723.26895   -1090.8178   -3715.6534 
22165000    134.76619   -4976.6961   -4716.7882   -4976.6961            0    7631.1954    19.714979    19.772485    20.490144    7987.3479    8955.7524    6494.8206    7443.0134    181.47762   -277.16669   -199.47291    -3827.851 
22166000    133.71383    -4966.917   -4709.0387    -4966.917            0    7290.9577      19.6032      19.8208    20.597126    8003.0359    8987.7037    5792.2038    7092.9656   -134.33606   -1474.9039   -82.750014   -3858.0667 
22167000    131.43656   -4972.7234   -4719.2369   -4972.7234            0    7206.0689    19.707358    19.898465    20.509289    8042.6395    7762.6025    6723.2447    7132.3594     322.9925   -784.42677    368.89077   -3874.0108 
22168000    143.75304   -4971.6962   -4694.4563   -4971.6962            0    7408.6886    19.632787    19.839585    20.436845    7960.2809    7024.1081    8300.0037    6901.9541   -629.66193   -763.90397    40.692299   -3834.3629 
22169000    141.31478   -4969.7864   -4697.2489   -4969.7864            0    8521.5586    19.648093    19.663968    20.608347    7962.2301     9889.827    7944.7373    7730.1115    49.259135   -279.08078   -529.46014   -3707.7174 
22170000    136.06927   -4976.0406   -4713.6196   -4976.0406            0    7399.0626    19.746396    19.844692    20.410404    7998.0442    6910.1468    7212.1141    8074.9269   -288.51613    20.874049    1271.6986   -3850.5688 
22171000    128.43474   -4956.1479   -4708.4507   -4956.1479            0    7227.9052    19.853637    19.748571    20.377929    7989.7981    7819.5223    7121.6591    6742.5343   -284.43642    437.03342     1034.816   -3866.2334 
22172000    132.96566   -4977.3128   -4720.8773   -4977.3128            0    8153.1064    19.572278    19.781655    20.580251    7968.0979    8044.1409    8530.7955     7884.383   -463.06269    512.33664    726.33047   -3773.4331 
22173000    125.45892   -4976.2509   -4734.2928   -4976.2509            0     6386.931    19.649952    19.973592    20.496994    8044.6629    7281.5054    5620.2359    6259.0515    334.03926    266.90976    16.413529   -3984.9579 
22174000    137.26975   -4986.1658   -4721.4296   -4986.1658            0     7684.149    19.808916    19.784418    20.508883    8037.5927    7259.1538    7614.7867    8178.5066   -317.18301    23.806303    -160.8566   -3820.6933 
22175000    132.87837      -4974.9   -4718.6329      -4974.9            0    7899.7267    19.644677    19.874368    20.427251    7975.3206    8473.7925     7664.527    7560.8604    138.57328    464.43552     160.6836   -3799.8009 
22176000    130.83587   -4987.8246   -4735.4966   -4987.8246            0    6745.0326    19.942729    19.724809    20.435861    8038.7836    5706.4617    6763.7844    7764.8516    730.44875     1206.004    619.85106   -3944.7264 
22177000    134.10663    -4968.818   -4710.1821    -4968.818            0    8082.8987    19.867445    19.664072     20.39145    7966.4266    7920.7335    7405.9342    8922.0285    662.11642    230.05384   -1314.5112   -3771.0935 
22178000    131.81511   -4966.6305    -4712.414   -4966.6305            0    7600.1779    19.877155    19.572744    20.511215    7979.8977    7085.5898    9014.1915    6700.7523   -359.90742    564.65241   -1078.2346   -3827.9158 
22179000    135.59567   -4956.6036   -4695.0959   -4956.6036            0    7198.8239    19.802545    19.741481    20.382764    7968.2655    6357.7038    6690.4022    8548.3658    701.52042     161.3691    428.46553    -3858.528 
22180000    139.29188   -4977.2351    -4708.599   -4977.2351            0     6987.895    19.783367    19.845927    20.351125    7990.2437    7955.8095    6200.9428    6806.9327   -572.78477    708.89544   -1111.6135    -3894.303 
22181000    131.97291   -4976.6357   -4722.1148   -4976.6357            0    7891.2917    19.794335    19.817565    20.386239    7997.0227    8675.1482     6726.909    8271.8178   -220.86084    220.75176    526.95215   -3801.7663 
22182000    133.53326   -4969.2472   -4711.7171   -4969.2472            0    8979.0201    19.798042    19.721943    20.348712    7945.2739    8612.6503    8611.5413    9712.8688   -838.03344    1224.0946   -766.78264    -3671.285 
22183000    131.72122   -4984.7834   -4730.7479   -4984.7834            0    7978.1801    19.781035    19.743775     20.46525    7992.7502    8218.6693    8366.1906    7349.6804    290.97022    607.89656   -126.67777   -3800.7629 
22184000    125.22749   -4965.4099   -4723.8982   -4965.4099            0    7915.6581    19.745656    19.662583    20.456448    7942.2281    7814.5291    8593.3649    7339.0804    309.82945    489.66425    1026.5012   -3807.0334 
22185000    137.85949   -4973.7307   -4707.8571   -4973.7307            0    7558.7361    19.791096    19.740339    20.511163    8013.3618    8043.2116    7227.6301    7405.3665    3.0394188    750.93817    143.59823   -3824.4929 
22186000    137.80021   -4968.8393     -4703.08   -4968.8393            0    7664.0741    19.818715    19.653232    20.534134    7998.0821    6344.4227    8619.0385    8028.7609   -56.426896    620.05944    323.89587   -3809.1131 
22187000    129.33401   -4970.1033   -4720.6718   -4970.1033            0    8278.9627    19.771356    19.666381    20.473017    7960.5442    8203.1415    9122.4108    7511.3356    321.82617   -123.76827   -531.08239   -3759.5143 
22188000    135.56366   -4972.4726   -4711.0267   -4972.4726            0    7468.1297    19.828251    19.825687    20.372954    8008.7855    7185.8446    7198.7929    8019.7516    162.33968    85.359876   -1131.7594   -3838.7497 
22189000    132.10569   -4984.2999    -4729.523   -4984.2999            0    6741.4158    19.742163    19.880122    20.300376    7967.4227    6521.6607    6650.1279    7052.4587    28.428176    419.90292    150.68024   -3946.1928 
22190000    139.81875   -4965.1891   -4695.5369   -4965.1891            0    7448.7469    19.869186    19.805954    20.249777    7968.8581    8141.1976    6567.6705    7637.3726   -331.89957    305.13967    53.973613   -3829.8612 
22191000    132.88682   -4975.3171   -4719.0337   -4975.3171            0    6268.8401    19.928524    19.785999    20.422512    8052.7137    5398.7842     5574.933    7832.8029    162.07227    -500.3567    1.2312139   -3982.8175 
22192000    132.42198   -4966.5698   -4711.1829   -4966.5698            0    8375.5955    19.788164    19.865009     20.30707    7982.5481    7969.0036    9246.8853    7910.8976   -128.87639    230.34622    373.95659   -3736.1188 
22193000    132.35614    -4962.941    -4707.681    -4962.941            0    7514.4381    19.616194     19.64921    20.597479    7939.1484    8148.5074    6896.8702    7497.9366   -567.73704   -245.39106   -145.50437   -3837.6268 
22194000    133.55476   -4959.2665    -4701.695   -4959.2665            0    7450.5728    19.742893    19.732135    20.534547    7999.6315    7510.7204    7358.0617    7482.9362    197.89879    1277.9649    136.05939   -3832.4633 
22195000    129.69312   -4958.4967   -4708.3726   -4958.4967            0    8469.1633    19.828381    19.708315    20.301359    7933.4457    6424.2695    9428.6718    9554.5487   -115.67521     185.6012    173.91795   -3728.4805 
22196000    128.94736   -4962.7561   -4714.0703   -4962.7561            0    8125.0762    19.673094    19.740887    20.459145     7945.602    7600.5238     8328.508    8446.1967    406.65528   -1261.9367   -1010.7525    -3772.549 
22197000    126.47386   -4957.8437   -4713.9282   -4957.8437            0     8431.022    19.696687    19.788354    20.434223    7964.5452    7259.7784    9251.1501    8782.1373   -425.24716    131.02852    251.47913   -3734.6252 
22198000    133.84882   -4973.7253   -4715.5866   -4973.7253            0    7290.5339    19.602882    19.849517    20.520717    7984.7696    8530.2597    6700.1389    6641.2032   -475.22941    779.68771    285.71576   -3866.6063 
22199000    137.69569   -4969.3749   -4703.8172   -4969.3749            0    6635.5771     19.63607     19.81223    20.579424    8006.1024    6340.9738    7487.8279    6077.9297   -718.39793   -893.33281    1331.2048   -3929.0419 
22200000     132.2064   -4974.3365   -4719.3654   -4974.3365            0     7678.856    19.685972    19.821965    20.468027    7986.9236    8782.6205    7130.8461    7123.1016   -19.951564   -1501.8109    154.70956   -3824.9239 
22201000    132.07828   -4978.1645   -4723.4404   -4978.1645            0    6712.4399     19.73729    19.841708    20.465546    8014.7488    7215.6622    6262.1445    6659.5131    246.16451    499.73872    364.11032   -3938.8442 
22202000    132.47504   -4966.8659   -4711.3767   -4966.8659            0    7949.2249    19.598618    19.932662    20.331916    7942.7166    10087.089    6493.9494    7266.6362   -814.47893    299.71718    1055.9639   -3790.5673 
22203000    124.88506    -4965.678   -4724.8267    -4965.678            0    8273.5744    19.636963    19.893395    20.390987    7965.6544    8908.7765    9024.6432    6887.3034   -55.398396    723.52348    627.40833   -3763.6781 
22204000    132.15445   -4984.5319    -4729.661   -4984.5319            0    7162.8216    19.862372    19.860853    20.263799    7993.7375    6779.5022    6311.5156    8397.4472   -338.34363   -415.02563   -680.44137   -3894.6159 
22205000    125.39869   -4973.4429    -4731.601   -4973.4429            0    7146.0478    19.800938    19.807221    20.327129    7972.3317    7083.6612    6730.7383    7623.7438    186.43687   -432.40301   -28.724182   -3900.7423 
22206000    130.00302   -4978.6225   -4727.9007   -4978.6225            0    8492.8083    19.781358    19.770098    20.329423    7950.4183    7137.4742    8913.3859    9427.5647   -101.82111    248.93822    683.55464   -3743.1707 
22207000    135.57445   -4975.1316   -4713.6649   -4975.1316            0    7311.7983    19.692432    19.792447    20.401058    7951.5454    6468.9229    7461.3253    8005.1467   -740.18522    231.30906   -437.75713   -3865.7512 
22208000    135.70927   -4972.1418   -4710.4151   -4972.1418            0    6702.3675     19.69386    19.949519    20.329996    7987.3104    6735.4202    6106.0154    7265.6668    -70.83353     640.0038    132.60329   -3929.6782 
22209000    132.87651    -4977.384   -4721.1204    -4977.384            0    7443.1627    19.668352    19.929748    20.417477    8003.3509    7664.2055    7265.8885     7399.394    231.06332   -590.47507   -1023.2065   -3852.3496 
22210000    132.18405   -4962.2676   -4707.3396   -4962.2676            0    8104.1272    19.600061    19.910788     20.52669    8010.5952    9263.2087    7073.2564    7975.9166   -620.17511    472.63699    1164.3645   -3760.5643 
22211000    135.99977   -4969.3906   -4707.1036   -4969.3906            0    7805.4775    19.795415    19.568516    20.495683    7939.3491     7841.768    7952.4945    7622.1699    31.099025   -251.51046    81.142496   -3803.3287 
22212000    134.93188    -4977.131   -4716.9036    -4977.131            0    7306.8812     19.59253    19.922758    20.402852    7963.9928    7578.2146    6756.1996    7586.2294     488.9137   -806.19126    793.02706   -3868.2337 
22213000    139.49286    -4973.855   -4704.8313    -4973.855            0    8019.1352    19.878302    19.706182    20.408774    7994.6361    7396.3342    8796.1729    7864.8984   -421.13562    58.467926    421.75708   -3769.8518 
22214000    135.51795    -4970.922   -4709.5643    -4970.922            0    8641.4472     19.66034    19.671197    20.647257    7985.1702    8840.5482    8995.0403    8088.7531   -534.94875    80.603742   -234.15698   -3703.2201 
22215000    128.50324   -4987.1813    -4739.352   -4987.1813            0    6784.9293    19.684047    19.804252    20.494339    7989.2636    7541.0261    6616.0071    6197.7547   -671.89983   -1092.5107   -241.21752   -3948.8045 
22216000    134.00207   -4985.7263   -4727.2921   -4985.7263            0    6867.5725    19.812654    19.764068    20.464669    8013.5269    6813.2902    7019.5973    6769.8298   -518.79461    -142.7937   -186.32987   -3924.6853 
22217000    130.56518    -4987.184    -4735.378    -4987.184            0    7376.4398    19.723017    19.680058    20.562497     7981.336    8103.8426     6055.311    7970.1657    122.50096     670.9279    240.26851   -3876.7634 
22218000    134.91647   -4965.4114   -4705.2136   -4965.4114            0    7493.9032    19.573607    19.816919    20.588761    7986.1454     7838.795    7920.0014    6722.9133    212.27262   -801.29897     1370.724   -3832.4007 
22219000    138.82719   -4980.5317   -4712.7918   -4980.5317            0    8241.5744    19.826153    19.741721    20.469558    8011.8339    6747.5543    9235.9412    8741.2277   -202.71578    367.88846   -456.41274   -3749.8101 
22220000    135.18833   -4992.8754   -4732.1533   -4992.8754            0    6685.3887    19.657758    19.822115     20.52933    7999.4247    6421.7723    6651.0004    6983.3936    90.147523   -177.04671    341.28382   -3952.2131 
22221000    133.93802   -4984.0439   -4725.7332   -4984.0439            0    6782.9295    19.793185    19.759044      20.5092    8021.0336    5619.8356    8015.9682    6712.9847    348.82073   -879.96918   -91.003587   -3932.2759 
22222000    128.11526   -4977.2937   -4730.2126   -4977.2937            0    7801.2591    19.871351    19.653167    20.541196    8022.0557    7610.2356     9758.276    6035.2658    101.90302    1190.2745    579.54704   -3817.5164 
22223000    134.83295    -4985.808   -4725.7713    -4985.808            0    7802.0149    19.812961    19.852479    20.333965    7998.0884    7647.3301    7373.7737    8384.9408    202.38718   -85.156603   -477.83999   -3815.7138 
22224000    132.76075   -4972.9381   -4716.8978   -4972.9381            0    6993.4903    19.674138    19.863384    20.469363    7999.3242    7416.5099    6693.6961    6870.2648   -511.30168   -464.34992   -205.16492   -3901.0237 
22225000    127.43479   -4976.0335   -4730.2648   -4976.0335            0    7193.0166    19.637455    19.775484     20.58775    7995.0505    6671.9068    7596.7815    7310.3613   -205.86841    479.54242   -261.21915   -3891.5618 
22226000     132.8715   -4973.5016   -4717.2477   -4973.5016            0    8992.7559    19.879191    19.679363    20.337256    7956.1344    7950.7099    9265.2964    9762.2613   -308.48243    467.46047    2056.3378   -3673.7997 
22227000     138.0154   -4951.9072   -4685.7329   -4951.9072            0    6807.2537    19.857699    19.851912    20.389754     8037.912    6200.6233    7314.3566    6906.7813   -100.01918    146.55305   -405.61529   -3887.7546 
22228000    130.76827   -4951.6723   -4699.4747   -4951.6723            0     7305.465    19.720628    19.820843    20.437284    7988.5149     8865.019    6014.7492    7036.6269    126.35391    1549.3637     592.8245   -3848.3567 
22229000    135.65499   -4967.2266   -4705.6045   -4967.2266            0     8086.375    19.897971    19.577101    20.531624    7997.9829    6718.6035    10369.599    7170.9223     232.4468    65.669111   -75.586543   -3762.3905 
22230000    138.68049   -4961.3079   -4693.8509   -4961.3079            0    8409.6641    19.750606    19.791204    20.335815    7949.0318     8481.984    8884.9599    7862.0483   -431.27259   -611.07519   -835.55942   -3718.9314 
22231000    138.47825   -4978.7102   -4711.6432   -4978.7102            0    5568.4717    19.731884    19.956731    20.453398    8054.2188    6348.2398    4761.3223    5595.8529    299.68098   -1098.6415   -248.55332   -4057.5565 
22232000    134.92413   -4973.2764   -4713.0638   -4973.2764            0    8090.1435    19.769329    19.872243    20.272219    7964.1627    7536.9399    8022.5653    8710.9255   -53.620676   -433.56351    295.79822   -3773.4006 
22233000    133.81718   -4981.0713   -4722.9936   -4981.0713            0    6603.1578     19.65339    19.782615    20.583995    8002.9636    6296.1677    7565.1631    5948.1425     196.4744   -387.48041   -446.42822    -3952.306 
22234000    134.33466   -4969.3958   -4710.3201   -4969.3958            0    7715.9665    19.802024     19.62486    20.621335    8013.6972    8336.7039    8533.2813    6277.9143   -407.60465   -497.52631   -463.06809   -3808.5431 
22235000    126.59349    -4966.191   -4722.0448    -4966.191            0    7882.4526    19.648412    19.733283    20.425783    7919.6415    7603.6247    8305.4681     7738.265    25.158491     968.0059   -363.89402   -3811.6227 
22236000    127.47302   -4975.7091   -4729.8666   -4975.7091            0    7077.5197    19.813659    19.903125    20.308461     8008.717    6546.1019    7413.9414     7272.516    -37.27608   -393.65995    1091.7168   -3903.2199 
22237000     132.0007   -4966.1353   -4711.5608   -4966.1353            0    8819.5067     19.70439    19.696348     20.47197    7945.2638    10502.099    8242.8028     7713.618   -60.599985    1.6693698   -208.12837   -3689.6135 
22238000    139.56976   -4977.7101   -4708.5381   -4977.7101            0    7005.3697    19.755423    19.994989    20.270364    8006.9857    6026.3537     7089.928    7899.8275   -208.60175    1595.9976    943.53793   -3890.4954 
22239000    134.99405   -4977.2863   -4716.9389   -4977.2863            0    7404.0151    19.855263    19.791671    20.302471    7978.2383    7183.8746    6651.0958    8377.0749   -396.11941    704.81948   -627.35911    -3855.449 
22240000    132.89872   -4969.9731   -4713.6667   -4969.9731            0    7700.4528    19.778384    19.755809    20.455982    7992.9293     6232.102    9136.7434     7732.513   -233.74992    994.72454     9.667567   -3816.0351 
22241000    128.54409   -4974.3142   -4726.4061   -4974.3142            0    7979.4413    19.815576    19.658073     20.47748    7976.7162    8205.2524    7718.6933    8014.3781    651.26069   -38.938546   -320.54274     -3798.14 
22242000    133.61039   -4973.9315   -4716.2526   -4973.9315            0    7847.5475    19.828054    19.721894    20.419941    7985.1521    6323.5033    8515.8016    8703.3375    375.67453    496.10494    356.17442   -3802.3645 
22243000     131.0819   -4960.9134   -4708.1109   -4960.9134            0    6473.3811    19.643762     19.86464    20.555676    8021.1593    8513.5631    4368.7696    6537.8106    241.21797    540.12231    238.62703   -3950.8523 
22244000    137.19099   -4967.8284    -4703.244   -4967.8284            0    8151.3757    19.748728      19.6814    20.499985    7967.9878    8048.2515    9273.0458    7132.8297   -418.93999    621.09934    401.60629    -3756.014 
22245000    142.40006   -4969.6537   -4695.0232   -4969.6537            0    6500.2918    19.571742    19.965494    20.459375    7994.6948    6469.9007     6656.458    6374.5169    202.65093   -90.597661    331.59386   -3937.1254 
22246000    138.20195   -4975.3148   -4708.7807   -4975.3148            0    7509.2741    19.667526    19.911694    20.431047     8001.079    8595.0553    5798.4399    8134.3269   -329.59873   -356.36248    72.330739    -3832.542 
22247000    138.88508     -4989.86   -4722.0084     -4989.86            0    7272.9087    19.889352    19.569541    20.627025    8028.5636    6250.3657    8386.4775    7181.8829   -55.698215    731.95236    661.58193   -3870.4354 
22248000    142.85488   -4983.4294   -4707.9218   -4983.4294            0    7696.4298     19.72019    19.817997     20.48339    8005.2089     8935.014    7057.7672    7096.5081   -43.138298    427.50644   -1413.7089   -3809.3808 
22249000    127.28821   -4970.7072   -4725.2212   -4970.7072            0    8420.1422    19.664367    19.882439    20.420162    7983.7846    9635.0645    7805.3631    7819.9989   -107.71886   -700.08322    135.15794   -3744.8193 
22250000    137.01204   -4958.1075   -4693.8683   -4958.1075            0    7791.5045    19.744121    19.767669    20.510459    8005.1344    7769.0276    8074.9408     7530.545   -190.66944    857.37328    1201.6363   -3784.2361 
Loop time of 357.795 on 64 procs for 250000 steps with 972 atoms

Performance: 120.740 ns/day, 0.199 hours/ns, 698.724 timesteps/s
99.1% CPU use with 64 MPI tasks x 1 OpenMP threads

MPI task timing breakdown:
Section |  min time  |  avg time  |  max time  |%varavg| %total
---------------------------------------------------------------
Pair    | 19.41      | 28.704     | 39.429     |  86.6 |  8.02
Bond    | 0.26004    | 0.27526    | 0.28876    |   1.0 |  0.08
Kspace  | 139.17     | 149.93     | 159.56     |  38.1 | 41.90
Neigh   | 1.0299     | 1.0426     | 1.0579     |   0.7 |  0.29
Comm    | 84.587     | 85.546     | 86.472     |   4.3 | 23.91
Output  | 0.57139    | 0.57221    | 0.57384    |   0.1 |  0.16
Modify  | 84.975     | 86.467     | 87.256     |   5.8 | 24.17
Other   |            | 5.257      |            |       |  1.47

Nlocal:        15.1875 ave          19 max          11 min
Histogram: 1 7 6 10 0 11 10 9 9 1
Nghost:        2326.72 ave        2351 max        2308 min
Histogram: 4 4 9 14 12 5 10 2 1 3
Neighs:        4905.30 ave        6975 max        3207 min
Histogram: 3 4 8 9 15 8 8 8 0 1

Total # of neighbors = 313939
Ave neighs/atom = 322.98251
Ave special neighs/atom = 2.0000000
Neighbor list builds = 2844
Dangerous builds = 0

unfix		3
unfix		2
unfix		1

write_data	data.final.${pid}
write_data	data.final.1
System init for write_data ...
PPPM initialization ...
  extracting TIP4P info from pair style
  using 12-bit tables for long-range coulomb (../kspace.cpp:340)
  G vector (1/distance) = 0.37225666
  grid = 24 24 24
  stencil order = 5
  estimated absolute RMS force accuracy = 0.0035017779
  estimated relative force accuracy = 1.05455e-05
  using double precision FFTW3
  3d grid and FFT values/proc = 2197 216
Last active /omp style is kspace_style pppm/tip4p/omp
WARNING: Not all mixed pair coeffs generated from mixing. Use write_data with 'pair ij' option to store all pair coeffs. (../write_data.cpp:312)

write_restart   restart.lmp.${pid}
write_restart   restart.lmp.1
System init for write_restart ...
PPPM initialization ...
  extracting TIP4P info from pair style
  using 12-bit tables for long-range coulomb (../kspace.cpp:340)
  G vector (1/distance) = 0.37225666
  grid = 24 24 24
  stencil order = 5
  estimated absolute RMS force accuracy = 0.0035017779
  estimated relative force accuracy = 1.05455e-05
  using double precision FFTW3
  3d grid and FFT values/proc = 2197 216
Last active /omp style is kspace_style pppm/tip4p/omp
Total wall time: 0:05:57
