LAMMPS (30 Jul 2021)
  using 1 OpenMP thread(s) per MPI task
package omp 0
using multi-threaded neighbor list subroutines
echo both

include		in.partitions
variable        pid world 0
include		in.temp
variable        temperature equal 252.59
variable	tempDamp equal 100.0
include		in.pressure
variable        pressure equal 1375.0
variable        pressureDamp equal 1000.0 # This is 1 ps
include		in.seed
variable        seed world 745823

units		real
atom_style	full
read_restart	restart.lmp.${pid}
read_restart	restart.lmp.0
Reading restart file ...
  restart file = 30 Jul 2021, LAMMPS = 30 Jul 2021
  restoring atom style full from restart
  orthogonal box = (0.22259287 1.3537163 0.27156278) to (17.984980 22.275462 21.941633)
  4 by 4 by 4 MPI processor grid
  restoring pair style lj/cut/tip4p/long/omp from restart
  restoring bond style harmonic/omp from restart
  restoring angle style harmonic/omp from restart
  864 atoms
  576 bonds
  288 angles
Finding 1-2 1-3 1-4 neighbors ...
  special bond factors lj:    0        0        0       
  special bond factors coul:  0        0        0       
     2 = max # of 1-2 neighbors
     1 = max # of 1-3 neighbors
     1 = max # of 1-4 neighbors
     2 = max # of special neighbors
  special bonds CPU = 1.484 seconds
  read_restart CPU = 1.743 seconds
include 	in.setup
variable	out_freq equal 1000
variable	out_freq2 equal 10000
variable	out_freq3 equal 1000

timestep	2.0

neigh_modify    delay 7 every 1

include		in.tip4p
# This is TIP4P/Ice

# create groups ###
group ox type 2
288 atoms in group ox
group hy type 1
576 atoms in group hy

# set charges - beside manually ###
set group ox charge -1.1794
Setting atom values ...
  288 settings made for charge
set group hy charge 0.5897
Setting atom values ...
  576 settings made for charge

# ### TIP3P Potential Parameters ###
pair_style lj/cut/tip4p/long/omp 2 1 1 1 0.1577 8.5
pair_coeff 1 1*2 0.000 0.000
pair_coeff 2 2 0.21084 3.1668
bond_style  harmonic
bond_coeff  1 450 0.9572
angle_style harmonic
angle_coeff 1 55 104.52
kspace_style pppm/tip4p/omp 1.0e-5
pair_modify tail yes

thermo          ${out_freq}
thermo          1000
thermo_style    custom step temp pe etotal epair emol press lx ly lz vol pxx pyy pzz pxy pxz pyz enthalpy

restart 	${out_freq3} restart.lmp.${pid} restart2.lmp.${pid}
restart 	1000 restart.lmp.${pid} restart2.lmp.${pid}
restart 	1000 restart.lmp.0 restart2.lmp.${pid}
restart 	1000 restart.lmp.0 restart2.lmp.0


include         in.dump
dump            myDump all atom ${out_freq2} dump.water.${pid}
dump            myDump all atom 10000 dump.water.${pid}
dump            myDump all atom 10000 dump.water.0
dump            myDump2 all dcd ${out_freq2} dump.dcd
dump            myDump2 all dcd 10000 dump.dcd
dump_modify     myDump append yes
dump_modify     myDump2 append yes


variable natoms 	equal  "count(all)"                        # NUMBER ATOMS
variable H      	equal  "enthalpy/v_natoms"                 # ENTHALPY-per-atom
variable Vol      	equal  "vol/v_natoms"                 # volume-per-atom
fix AVG all 		ave/time ${out_freq} 1 ${out_freq} v_Vol v_H file vol_enthalpy.dat
fix AVG all 		ave/time 1000 1 ${out_freq} v_Vol v_H file vol_enthalpy.dat
fix AVG all 		ave/time 1000 1 1000 v_Vol v_H file vol_enthalpy.dat


timer           timeout 23:50:00 every 1000
New timer settings: style=normal  mode=nosync  timeout=23:50:00

fix 		1 all shake 1e-6 200 0 b 1 a 1
       0 = # of size 2 clusters
       0 = # of size 3 clusters
       0 = # of size 4 clusters
     288 = # of frozen angles
  find clusters CPU = 0.135 seconds
fix             2 all nph iso ${pressure} ${pressure} ${pressureDamp}
fix             2 all nph iso 1375 ${pressure} ${pressureDamp}
fix             2 all nph iso 1375 1375 ${pressureDamp}
fix             2 all nph iso 1375 1375 1000
fix             3 all temp/csvr ${temperature} ${temperature} ${tempDamp} ${seed}
fix             3 all temp/csvr 252.59 ${temperature} ${tempDamp} ${seed}
fix             3 all temp/csvr 252.59 252.59 ${tempDamp} ${seed}
fix             3 all temp/csvr 252.59 252.59 100 ${seed}
fix             3 all temp/csvr 252.59 252.59 100 745823

run             250000
PPPM initialization ...
  extracting TIP4P info from pair style
  using 12-bit tables for long-range coulomb (../kspace.cpp:340)
  G vector (1/distance) = 0.37207799
  grid = 24 24 25
  stencil order = 5
  estimated absolute RMS force accuracy = 0.0033229186
  estimated relative force accuracy = 1.0006871e-05
  using double precision FFTW3
  3d grid and FFT values/proc = 2730 288
Last active /omp style is kspace_style pppm/tip4p/omp
Neighbor list info ...
  update every 1 steps, delay 7 steps, check yes
  max neighbors/atom: 2000, page size: 100000
  master list distance cutoff = 10.8154
  ghost atom cutoff = 10.8154
  binsize = 5.4077, bins = 4 4 5
  1 neighbor lists, perpetual/occasional/extra = 1 0 0
  (1) pair lj/cut/tip4p/long/omp, perpetual
      attributes: half, newton on, omp
      pair build: half/bin/newton/omp
      stencil: half/bin/3d
      bin: standard
Per MPI rank memory allocation (min/avg/max) = 9.227 | 9.231 | 9.238 Mbytes
Step Temp PotEng TotEng E_pair E_mol Press Lx Ly Lz Volume Pxx Pyy Pzz Pxy Pxz Pyz Enthalpy 
10500000    254.65732   -3883.9325   -3447.4586   -3883.9325            0    2805.6627    17.762387    20.921745     21.67007    8053.0343    4204.0483    1746.0189     2466.921   -760.20128     697.7371   -1030.3525   -3117.9469 
10501000      256.244   -3891.7715   -3452.5781   -3891.7715            0    1250.7944    17.805851    20.972941    21.723097    8112.2966    523.43789     2010.106    1218.8393   -1614.6947    329.29883    145.83405   -3304.5972 
10502000    254.69096   -3914.1205   -3477.5889   -3914.1205            0    829.92773    17.814189    20.982762    21.733269    8123.6978     2003.101    10.891453    475.79069   -414.20363    1301.7807    104.90583   -3379.2626 
10503000    254.15266   -3899.3283   -3463.7194   -3899.3283            0     1333.268    17.875386    21.054844    21.807929    8207.7077    2209.3538    696.81886    1093.6315    627.52398   -172.97486    236.39265   -3304.1259 
10504000    245.00786   -3923.2414   -3503.3063   -3923.2414            0    1640.8356    17.827779    20.998769    21.749849    8142.3041    1409.7628    2189.0085    1323.7356    896.49694    545.32528   -829.95008   -3308.4617 
10505000    243.59941   -3853.9189   -3436.3979   -3853.9189            0    742.61164    17.834285    21.006432    21.757786    8151.2215    1099.7251   -300.82647    1428.9363    235.37267    503.81303   -1160.0291   -3348.1183 
10506000    245.65714    -3838.766   -3417.7181    -3838.766            0    804.39498    17.927688    21.116449    21.871738    8279.9645    375.23122    2271.0865   -233.13274    1025.9854   -324.17793    -565.0814   -3320.5835 
10507000    269.11243   -3911.1869   -3449.9374   -3911.1869            0    2044.5962    17.708809    20.858637    21.604705    7980.3809    1869.9894    2963.4281    1300.3711   -1128.8569     519.6394   -866.81507   -3211.9757 
10508000    248.49289   -3878.0262   -3452.1179   -3878.0262            0    2061.3535    17.731514    20.885381    21.632406    8011.1163    1366.7474    4001.9507    815.36236   -847.03411    868.51043    137.36978   -3211.2819 
10509000    261.75948   -3886.7698    -3438.123   -3886.7698            0    727.52588    17.834539    21.006731    21.758095    8151.5692    376.18017   -329.29411    2135.6916    887.75664   -593.91842   -103.46468   -3351.6331 
10510000    264.57983   -3912.0648   -3458.5841   -3912.0648            0    2326.1159    17.729202    20.882658    21.629585    8007.9835     2224.914     2654.541    2098.8927   -1475.3538   -314.19657   -236.30396   -3186.9211 
10511000    260.59831   -3912.5021   -3465.8455   -3912.5021            0    743.00674    17.772403    20.933544    21.682291    8066.6661    1292.8346    957.27527   -21.089623   -994.88312    1616.7752   -56.528849   -3378.4352 
10512000    257.99901   -3862.0715     -3419.87   -3862.0715            0    1467.7087    17.702155    20.850801    21.596588    7971.3896    604.44818    1636.7065    2161.9715   -1052.0386    479.43926   -260.39419   -3249.2422 
10513000    273.45906   -3906.6609   -3437.9614   -3906.6609            0    1759.2414    17.708257    20.857988    21.604033    7979.6358    2013.5076     1930.885    1333.3317   -399.35957    660.20518    99.261335   -3233.2301 
10514000    248.16201   -3904.0188   -3478.6776   -3904.0188            0    581.17267     17.82238     20.99241    21.743263    8134.9094    595.77307   -260.01022    1407.7552    1072.7217    1531.0104    957.06088   -3409.7277 
10515000    258.11648   -3900.5491   -3458.1463   -3900.5491            0    1803.0994    17.751232    20.908607    21.656462    8037.8722     2089.152    2233.7674    1086.3787    172.58831    719.01918    -1553.787   -3246.7795 
10516000    228.94015   -3851.1452   -3458.7496   -3851.1452            0    1605.7696     17.77429    20.935766    21.684592     8069.235    454.14716    2281.8292    2081.3323    -738.3228   -180.49141    450.65846   -3269.7803 
10517000    260.53951   -3907.7302   -3461.1744   -3907.7302            0    2195.7252    17.772001     20.93307      21.6818    8066.1186    2245.3509    2354.9442    1986.8806     507.3919   -1046.7056   -639.96521   -3202.8779 
10518000    236.74983   -3911.4975   -3505.7164   -3911.4975            0    1058.1545    17.801279    20.967555    21.717519    8106.0485   -836.96476     966.7359    3044.6923    1072.6759    983.28503    -755.1772   -3380.6231 
10519000    271.79188   -3957.5561   -3491.7141   -3957.5561            0    1496.5111     17.80347    20.970136    21.720192    8109.0421    406.84329    3360.1873    722.50272   -784.95108   -627.39674   -798.07074   -3314.7336 
10520000    242.50592   -3924.6141   -3508.9673   -3924.6141            0   -477.11331    17.878895    21.058977    21.812211    8212.5427   -993.96555   -513.98855    76.614148    961.94797    458.51627   -73.434279   -3566.1119 
10521000    242.26456   -3896.6755   -3481.4424   -3896.6755            0      544.719    17.884925    21.066079    21.819566    8220.8539    457.81215    1019.0295    157.31535    217.86885    657.39231    -266.0386   -3416.1345 
10522000    253.41349   -3872.8493   -3438.5073   -3872.8493            0     2247.436    17.784917    20.948283    21.697557     8083.717    1804.2376    2759.5341    2178.5365   -765.27827   -476.61938   -953.62138   -3173.5509 
10523000    240.01416   -3897.2742   -3485.8981   -3897.2742            0    910.50525    17.776279    20.938108    21.687019    8071.9441    232.63542    2094.0669    404.81346   -973.32195   -184.05819   -989.31802   -3378.7125 
10524000    262.24696   -3841.6052   -3392.1229   -3841.6052            0    512.56926     17.86007    21.036803    21.789243    8186.6278   -1417.1382    1293.3032    1661.5427   -1351.3079   -160.12508    157.93635   -3330.9254 
10525000    248.20283   -3891.7787   -3466.3676   -3891.7787            0    3147.9661    17.828241    20.999313    21.750412    8142.9372    3070.5645    3533.7444    2839.5894    220.19839   -8.8076195    748.67396   -3092.5265 
10526000    257.43592   -3897.0468   -3455.8104   -3897.0468            0    557.25671    17.893087    21.075692    21.829524     8232.114    1814.2732   -424.96702    282.46398   -854.52371   -1128.9719    977.32771   -3388.9079 
10527000    258.61768   -3894.6475   -3451.3856   -3894.6475            0    1188.6092    17.884503    21.065582    21.819052    8220.2725    406.41185     1941.686    1217.7298   -495.15945    334.94077   -617.69868   -3308.8901 
10528000    250.13062   -3909.5312   -3480.8158   -3909.5312            0    2249.5059    17.809134    20.976808    21.727102    8116.7843    2763.7509    2941.8578    1042.9091   -296.13489   -590.68023    1553.1219   -3214.5306 
10529000    239.62555   -3914.2206   -3503.5106   -3914.2206            0    831.11886     17.83735    21.010042    21.761525    8155.4249    2248.9822    1206.3812   -962.00681    1029.4861   -1002.2273   -231.13452   -3404.6586 
10530000    262.85685    -3887.837   -3437.3094    -3887.837            0    374.22113    17.930011    21.119185    21.874572    8283.1836    1031.6109    631.81801   -540.76555    1228.0593   -2024.1307   -238.61214   -3392.1028 
10531000    251.58838   -3884.2047   -3452.9908   -3884.2047            0    1350.4185     17.89773    21.081162    21.835189    8238.5245   -257.83466     2776.079     1533.011    176.47993    22.942936   -961.38504   -3290.7374 
10532000    250.28336    -3898.354   -3469.3769    -3898.354            0    980.68867    17.849399    21.024234    21.776225    8171.9629    1102.9094    649.71293    1189.4436    400.96042    971.39551    1258.0794   -3352.4987 
10533000    251.66585    -3896.872   -3465.5254    -3896.872            0   -247.11615    17.900121    21.083978    21.838106    8241.8273   -270.91676    643.34681   -1113.7785    202.26353    502.94858    -57.42316   -3495.2284 
10534000    247.03326   -3935.3602   -3511.9537   -3935.3602            0     1025.985    17.857619    21.033916    21.786253    8183.2581    1214.5679    1204.0088    659.37825   -665.76997    397.27949    730.58629   -3389.5081 
10535000    245.89359   -3937.1748   -3515.7216   -3937.1748            0    2211.8006    17.863389    21.040713    21.793293     8191.193     2934.044    2802.7983    898.55951   -537.66453   -1679.1925    618.21611   -3251.4996 
10536000    255.28724   -3938.1014   -3500.5478   -3938.1014            0    600.21047    17.780116    20.942628      21.6917    8077.1726    580.97618    1387.1892   -167.53399    552.01539    897.17676   -104.91369   -3429.8447 
10537000    251.49412   -3916.1324   -3485.0801   -3916.1324            0    2080.4013    17.875241    21.054673    21.807753    8207.5085    2260.0486    2825.1816    1155.9735    1473.8826    449.22919    44.009619     -3236.06 
10538000    255.59145    -3926.389    -3488.314    -3926.389            0    2216.2699    17.949132    21.141706    21.897899    8309.7109    3041.0607     1121.331    2486.4181    114.73532      19.8941    662.44398   -3219.7273 
10539000    247.47182   -3890.9955   -3466.8373   -3890.9955            0    1696.4517    17.905587    21.090416    21.844774    8249.3792    3713.7015     100.6074    1275.0461    104.48585    987.98967    1219.1496   -3262.7393 
10540000    247.56274   -3899.8255   -3475.5115   -3899.8255            0    294.58161    17.897021    21.080327    21.834324    8237.5454   -987.20113    2498.7439   -627.79798   -1824.7892   -239.96979   -578.99799   -3440.1216 
10541000    241.74927   -3905.2888   -3490.9388   -3905.2888            0    2497.7276    17.937214    21.127669     21.88336    8293.1704    1025.2851    2022.4145    4445.4834   -761.58771   -1272.5545   -1143.3804   -3188.8452 
10542000    250.46119   -3918.6765   -3489.3945   -3918.6765            0    1192.8475    17.861285    21.038234    21.790726     8188.299    337.96218    800.69888    2439.8813   -468.75854    592.64596    -586.1948   -3346.9472 
10543000    251.20263   -3898.6872   -3468.1345   -3898.6872            0     3020.639    17.811078    20.979097    21.729473    8119.4418    3611.0482    3388.4749    2062.3938   -495.75668    319.08355   -956.39658   -3110.4494 
10544000    247.72152    -3922.203   -3497.6168    -3922.203            0    936.48617    17.895708    21.078781    21.832722    8235.7331    2462.6017    99.336171    247.52065    103.89408    358.29899   -611.69058   -3385.1357 
10545000    249.08211   -3977.5349   -3550.6167   -3977.5349            0    2250.6115    17.886783    21.068268    21.821833    8223.4168    67.459266    1689.3049    4995.0702   -645.22038    232.14972    -57.00649   -3280.7007 
10546000    250.73897    -3919.956   -3490.1979    -3919.956            0    735.91238    17.893702    21.076417    21.830274    8232.9633    748.51874    1091.7748    367.44358    -442.1977    458.74893    1547.4554   -3401.8374 
10547000    260.01833   -3951.2778   -3505.6153   -3951.2778            0    2199.9226    17.942172    21.133508    21.889407    8300.0479    2532.6281    1097.8331    2969.3066    371.34232   -155.50501     758.7656   -3239.3197 
10548000     250.4723   -3905.3659   -3476.0649   -3905.3659            0    1509.2723    18.034583    21.242357    22.002149    8428.9586    1892.7004    475.10058    2160.0159    600.33377   -430.43096    -78.26865   -3290.5335 
10549000    250.67852   -3915.9756   -3486.3212   -3915.9756            0    3345.9902    17.846866    21.021251    21.773135    8168.4843    3606.5201    3089.7564     3341.694   -1348.8056    -41.89648    1629.1722   -3087.7169 
10550000    251.76879    -3933.979   -3502.4559    -3933.979            0    1904.4544     17.90796    21.093211    21.847669    8252.6591    1300.8964     3253.353    1159.1138   -1846.2456    352.13268    267.94351   -3273.2423 
10551000     259.2267   -3922.6141   -3478.3084   -3922.6141            0    1578.0616    17.958613    21.152874    21.909466    8322.8862    1220.2704    1243.9759    2269.9384   -930.80634    342.60635    665.65088   -3286.7621 
10552000    249.92368   -3924.1105   -3495.7499   -3924.1105            0    3762.4921    17.842631    21.016262    21.767968      8162.67    4332.4773    3175.0476    3779.9513   -392.29603   -923.80467    504.41015   -3047.8472 
10553000    264.28517   -3962.0117    -3509.036   -3962.0117            0    3532.4074    17.919305    21.106574     21.86151    8268.3537    4462.8358    3352.7458    2781.6405   -931.75028     732.6177   -350.86596    -3083.079 
10554000    243.83449   -3905.1781   -3487.2541   -3905.1781            0   -746.62808    18.056866    21.268604    22.029335    8460.2413    -1281.049   -862.75477   -96.080466    38.174569   -84.206833    1167.0269   -3579.3761 
10555000    241.57266   -3901.7077   -3487.6604   -3901.7077            0    1955.8364    18.021645    21.227118    21.986365    8410.8311    2514.2542    1096.0468    2257.2083    1078.3237    1213.9964    1292.4671    -3247.751 
10556000    244.78664   -3856.2479    -3436.692   -3856.2479            0    834.72484    18.029691    21.236594     21.99618    8422.1003    1147.9836    664.25202    691.93893   -18.956143    467.28227    1491.2668   -3334.1647 
10557000    246.31894   -3907.0836   -3484.9014   -3907.0836            0    902.74285    18.032851    21.240316    22.000036    8426.5298    1445.3154    1624.9971   -362.08392   -647.10666    520.25915   -123.66441   -3373.9613 
10558000    247.22626   -3901.5124    -3477.775   -3901.5124            0    993.37717    17.996778    21.197827    21.956027    8376.0616    1640.0475   -681.68871    2021.7727    361.76485    -722.6896   -634.93275   -3356.4278 
10559000    256.65923   -3919.5586   -3479.6535   -3919.5586            0    1527.8387    17.913682    21.099952    21.854651    8260.5733   -624.58146    1108.0096    4100.0881   -853.22452    609.06577    408.07588   -3295.5917 
10560000    249.73621   -3950.2862   -3522.2469   -3950.2862            0    1459.0688    17.805949    20.973056    21.723216    8112.4299    58.361165    1460.2657    2858.5795    1155.8319     469.1415     829.3157   -3349.6223 
10561000    242.93429    -3900.961     -3484.58    -3900.961            0    650.73255    17.822814    20.992921    21.743792    8135.5037    542.13488   -67.177604    1477.2404   -101.57716     133.1306   -622.97192   -3407.3719 
10562000    259.33865   -3895.5487   -3451.0512   -3895.5487            0    2222.4109    17.880666    21.061062     21.81437    8214.9822    1770.2669    1614.9972    3281.9686   -578.30345    1097.8388    1232.3243   -3184.7906 
10563000    254.43961   -3869.8327   -3433.7319   -3869.8327            0    442.47995    17.847131    21.021563    21.773458    8168.8477   -126.34327    782.42569    671.35743    843.44038    65.820371   -1677.0606   -3381.0174 
10564000    251.94065   -3906.4553   -3474.6376   -3906.4553            0    2004.6721    17.809496    20.977234    21.727544    8117.2797     261.2193    3258.8461    2493.9508     1034.216    2143.6947   -750.01114   -3237.3202 
10565000    241.27974   -3919.6427   -3506.0975   -3919.6427            0    498.13628     17.86119    21.038122     21.79061    8188.1682    -36.77523    1101.8964    429.28771    932.55371   -130.02219    -1323.107    -3446.612 
10566000    260.70745    -3896.755   -3449.9114    -3896.755            0    3046.3686    17.891699    21.074058     21.82783    8230.1985    2550.9105    3546.4315    3041.7637   -956.98894   -273.05118   -367.73519   -3084.2588 
10567000    248.86912   -3956.6001    -3530.047   -3956.6001            0    1700.3367    17.799664    20.965653    21.715548    8103.8425    2671.2137    69.917762    2359.8787    483.13347   -971.97747    806.77616   -3329.0906 
10568000    253.78711   -3906.9832   -3472.0008   -3906.9832            0    1688.1765    17.903897    21.088425    21.842712    8247.0435    913.10671    3135.6146    1015.8083    -1616.213    41.480931    21.535583    -3268.956 
10569000    252.20273    -3943.125   -3510.8581    -3943.125            0    1605.4871    18.046962    21.256937    22.017251     8446.327    1693.1049    2417.2812    706.07525    60.740204   -622.68419   -303.90831   -3313.0926 
10570000    258.72044   -3928.7983   -3485.3603   -3928.7983            0     614.9511     17.98263    21.181163    21.938767    8356.3233    305.30063    199.10075    1340.4519   -478.17783   -89.383348   -88.525941   -3410.4172 
10571000    260.80023   -3918.8472   -3471.8445   -3918.8472            0   -245.33808    17.944201    21.135898    21.891883    8302.8643     228.7979    130.17329   -1094.9854    97.319451    862.95539     1098.419   -3501.5522 
10572000    268.30801   -3853.0509   -3393.1802   -3853.0509            0    -557.0638    17.945495    21.137422    21.893461    8304.6606    -841.8605   -1028.1277    198.79679   -218.19412    280.10182   -1413.5994   -3460.6489 
10573000    244.35163   -3907.9387   -3489.1284   -3907.9387            0     477.7098    17.899139    21.082822    21.836908    8240.4706   -45.857237    2022.5192    -543.5326    309.74069   -422.60895    1497.1979   -3431.7178 
10574000    265.85987   -3932.6907    -3477.016   -3932.6907            0     1557.518     17.84948     21.02433    21.776324    8172.0742    1694.4442    466.76912    2511.3407   -662.42962   -23.022082    25.551848    -3291.389 
10575000    257.72497   -3909.0838    -3467.352   -3909.0838            0    2817.8515    17.815377    20.984161    21.734718     8125.323    2370.4373    3431.2541    2651.8631    144.51528    1513.1733   -757.30019    -3133.438 
10576000    234.64035   -3887.4833   -3485.3177   -3887.4833            0    863.32195    17.955004    21.148623    21.905063    8317.8699    620.45671    -188.5868    2158.0959   -301.94799   -1703.8959    1.1217387   -3380.5902 
10577000    245.44726   -3918.7151   -3498.0269   -3918.7151            0    534.51278    17.892081    21.074508    21.828297    8230.7258   -990.57431    1676.4253    917.68731   -678.26019     -100.811   -628.89788   -3433.8658 
10578000    273.92236   -3908.7381   -3439.2446   -3908.7381            0    880.93073    17.966509    21.162174    21.919099    8333.8691    579.69758    1257.6579    805.43673   -750.72733    487.24241   -227.41045   -3332.1754 
10579000    261.37677   -3944.5351   -3496.5443   -3944.5351            0    1879.6233    17.993936    21.194479     21.95256    8372.0937    2052.4041    1242.0165    2344.4492    200.80711     933.5927    1162.5147   -3267.0453 
10580000    271.23853   -3909.1677   -3444.2741   -3909.1677            0    957.54902    17.935432    21.125569    21.881185    8290.6978    -108.5928    1653.7556    1327.4843    625.46318   -680.83075    34.750215   -3328.4956 
10581000    252.10293   -3885.1257   -3453.0299   -3885.1257            0    1221.6366    17.896581    21.079809    21.833787    8236.9383    564.96837    1524.3927    1575.5486    854.61627   -1201.4928   -808.65007    -3306.278 
10582000    239.50634   -3896.4073   -3485.9016   -3896.4073            0    595.37647    17.940797    21.131889     21.88773      8298.14    846.15589    1186.8118   -246.83827    999.85575    257.73554   -425.39944   -3413.8492 
10583000    228.17989   -3875.9442   -3484.8517   -3875.9442            0    916.73011    17.849142    21.023932    21.775912    8171.6104    1486.2255   -177.62575    1441.5906   -606.88418     235.0599   -1056.7192   -3375.6008 
10584000    268.38648   -3889.2721   -3429.2668   -3889.2721            0    2109.4413    17.842767    21.016423    21.768134    8162.8573       3448.7     1449.798    1429.8258    -60.71966   -116.57374   -861.01874   -3178.1444 
10585000    242.45377   -3900.3979   -3484.8404   -3900.3979            0    1456.8343    17.904212    21.088797    21.843097    8247.4794    809.13904    2130.6376    1430.7262   -778.51952   -1709.6321    38.492837   -3309.6109 
10586000    247.09005   -3902.3675   -3478.8636   -3902.3675            0    658.03898    17.805043    20.971988     21.72211    8111.1912    657.05864    1800.3137   -483.25539    229.60107    961.30816    1046.2908   -3401.0219 
10587000     249.5067    -3921.997   -3494.3511    -3921.997            0    909.65049    17.809005    20.976656    21.726945    8116.6083   -184.60063    1032.9347    1880.6174     1186.791    735.33152    1456.3267   -3386.6735 
10588000     256.4982   -3877.5592   -3437.9301   -3877.5592            0   -463.05217    17.867696    21.045786    21.798547    8197.1191   -719.54562   -1054.9712    385.36027    210.81924   -361.41282   -31.669578   -3493.2864 
10589000    255.64428   -3919.1416    -3480.976   -3919.1416            0    2017.6592    17.725677    20.878506    21.625285    8003.2077    880.62617     3505.925    1666.4264   -916.37854   -285.45506   -943.69173   -3245.4777 
10590000    246.29686   -3896.8274    -3474.683   -3896.8274            0    2837.5876     17.73306    20.887203    21.634292    8013.2127    3773.1287    2128.5252     2611.109   -1065.7757   -1634.9582    59.648091   -3143.0698 
10591000    239.25267   -3911.0666   -3500.9957   -3911.0666            0    1007.2621    17.782381    20.945295    21.694463    8080.2592    1100.2732    2396.4728   -474.95976    916.00581   -235.99054     859.0656   -3382.2976 
10592000    256.12577    -3885.117   -3446.1262    -3885.117            0    336.74952    17.736153    20.890846    21.638066    8017.4063    469.87261    564.13814   -23.762195    1254.0448   -499.74151    18.189678   -3406.7515 
10593000    240.86632   -3903.3623   -3490.5256   -3903.3623            0   -64.555896    17.748556    20.905454    21.653196     8034.237    479.94014    156.86456   -830.47239   -471.71863   -49.343822    31.909676   -3498.0897 
10594000    248.00803   -3903.9248   -3478.8475   -3903.9248            0    1313.6604    17.838555    21.011461    21.762995    8157.0775    585.13381    1107.9007    2247.9468    -50.93371    231.37942    1484.6654   -3322.5711 
10595000    247.57846    -3946.247    -3521.906    -3946.247            0    286.45512    17.830022     21.00141    21.752585    8145.3774    87.902126    246.85346    524.60976   -782.25409   -88.725276   -169.29252   -3487.8775 
10596000    256.25042    -3915.409   -3476.2045    -3915.409            0    846.92072    17.908892    21.094309    21.848806    8253.9482    544.03644    196.74925    1799.9765    -968.7463    648.05625   -378.41426   -3374.2561 
10597000    246.51007   -3912.9804   -3490.4706   -3912.9804            0    2264.9545    17.814885    20.983581    21.734118    8124.6495    1949.3587    1028.8316    3816.6731    787.61986   -805.59242   -1074.0396   -3222.0969 
10598000    251.31561   -3960.9503    -3530.204   -3960.9503            0    1586.2059    17.820133    20.989763    21.740521    8131.8324    485.29189    1369.6369    2903.6888   -145.46313   -1835.3459    89.650142   -3342.0888 
10599000    252.11102    -3904.428   -3472.3184    -3904.428            0   -263.77184    17.884137    21.065151    21.818605    8219.7677    41.051456    154.57332    -986.9403   -416.07675    379.46448   -53.408333   -3503.9385 
10600000      249.328   -3946.6116   -3519.2719   -3946.6116            0    -104.2598     17.87955    21.059748    21.813009    8213.4449   -270.39761    713.17573   -755.55752    827.98745    887.06715    550.99848   -3531.7607 
10601000    249.32896   -3952.8011   -3525.4598   -3952.8011            0    2782.6499    17.774744    20.936301    21.685146    8069.8536    1020.1181    3974.0823    3353.7494    -559.2729    608.01721   -1370.7675   -3197.9682 
10602000    245.67269   -3901.9711   -3480.8965   -3901.9711            0    1495.1735    17.853406    21.028954    21.781114     8177.468    1457.9679    2033.9989    993.55369   -442.12673   -1039.2757    1858.3626   -3302.5822 
10603000    253.79014   -3922.9785   -3487.9909   -3922.9785            0   -753.89185     17.93726    21.127723    21.883415    8293.2338    50.135985   -1059.5254   -1252.2862    911.47108   -207.68392   -215.51108   -3579.1728 
10604000    262.29456   -3933.5936   -3484.0297   -3933.5936            0    1508.2177    17.852181    21.027511    21.779619    8175.7843     1489.543    1708.0592    1327.0509    856.14504    31.599632   -392.45171   -3304.1967 
10605000    245.52745   -3885.1746   -3464.3489   -3885.1746            0    1277.6768    17.939051    21.129832      21.8856    8295.7174    1232.6394    1266.6609      1333.73    82.414187    567.25656    267.91001   -3309.7698 
10606000    246.39135    -3944.841   -3522.5347    -3944.841            0    270.97663    17.902907    21.087259    21.841504    8245.6754   -639.98472    842.50631    610.40831     368.2163    522.90122   -44.527213   -3489.9484 
10607000    253.63445   -3936.1628    -3501.442   -3936.1628            0   -515.36756    17.942387    21.133762     21.88967    8300.3468   -564.72743   -554.78832   -426.58693   -986.60085   -199.34941    240.24417   -3563.8283 
10608000    246.94739   -3903.6403    -3480.381   -3903.6403            0     1273.361    17.948145    21.140543    21.896694      8308.34     1359.663    571.56789    1888.8522    87.695506    598.14181   -325.63291   -3326.0896 
10609000    255.33276   -3928.9547   -3491.3231   -3928.9547            0    2553.7282    17.832813    21.004698     21.75599    8149.2035    2449.0664    1783.3299    3428.7884    957.55543    1023.5795    405.80792   -3187.8182 
10610000    250.52326   -3919.0212   -3489.6329   -3919.0212            0    518.48695    17.962004    21.156869    21.913603    8327.6025    1908.4743   -320.31974    -32.69365   -950.58786     448.3635   -193.67047   -3426.6629 
10611000    253.68748    -3896.611   -3461.7994    -3896.611            0    2140.0301    17.838159    21.010996    21.762513    8156.5352    1948.3085    2512.6375    1959.1445    1623.1997    209.80869   -459.42291   -3207.2327 
10612000    266.64513   -3917.9338   -3460.9131   -3917.9338            0    2126.8445    17.796528    20.961959    21.711722    8099.5596    1467.2304    2852.4907    2060.8125   -442.49662   -1220.4443   -554.79337   -3209.6823 
10613000    250.03636     -3928.38   -3499.8262     -3928.38            0    1378.9343    17.924967    21.113243    21.868417    8276.1937    266.87755    1847.6171    2022.3081   -670.51806   -467.31478    448.02576   -3333.3892 
10614000     268.4326   -3905.7991   -3445.7148   -3905.7991            0    899.58486    17.868725    21.046997    21.799802     8198.535    1033.2469   -192.78804    1858.2957   -1197.7476    1293.4184    1206.3884   -3338.1539 
10615000    248.78382   -3887.9108   -3461.5038   -3887.9108            0    1008.4219    17.869466     21.04787    21.800707    8199.5553     943.8551   -803.65242     2885.063    495.86343    -858.3996   -99.459487   -3340.9146 
10616000    241.81112   -3910.5671   -3496.1111   -3910.5671            0    2891.6505     17.80133    20.967615    21.717581     8106.118    3552.8078    2133.3051    2988.8385   -704.85239   -1284.0785   -2110.4246   -3154.2619 
10617000    250.46585   -3925.8365   -3496.5466   -3925.8365            0    986.67625    17.849591     21.02446    21.776459    8172.2259     1907.002    431.15065    621.87611   -1292.0315    582.86261    63.147517   -3378.9511 
10618000    240.78398   -3901.1664   -3488.4709   -3901.1664            0    814.18112    17.762479    20.921854    21.670183    8053.1595    328.04669    1193.5623     920.9344   -385.43645    644.75306   -827.28258   -3392.8477 
10619000    261.68723   -3909.9444   -3461.4214   -3909.9444            0    294.16829    17.874472    21.053768    21.806815    8206.4492   -21.670148    1352.5138   -448.33876   -385.81149   -1004.3176    337.84532   -3426.2146 
10620000    255.14545   -3934.3517   -3497.0411   -3934.3517            0    1225.2172    17.819034    20.988469     21.73918    8130.3281    2033.2446     176.8552    1465.5517   -228.74378     211.0313   -572.34784    -3351.764 
10621000    253.06856    -3943.689   -3509.9381    -3943.689            0    46.216519    17.802566    20.969071    21.719089    8107.8066   -306.76985   -757.32478    1202.7442   -69.650194    299.41544   -1055.5784   -3504.4733 
10622000    270.40491   -3914.3318    -3450.867   -3914.3318            0    1443.0461    17.731357    20.885196    21.632214    8010.9037     2154.969    1111.3242    1062.8449   -498.54463    172.83093   -298.49097   -3282.2748 
10623000    251.31923   -3933.7236    -3502.971   -3933.7236            0    2134.0867    17.692497    20.839425    21.584805    7958.3493    1925.4203    2689.1261    1787.7137    1051.1188    797.94933   -1244.2373   -3255.2796 
10624000    255.29141    -3901.709   -3464.1483    -3901.709            0    697.01242    17.817348    20.986483    21.737123    8128.0206    414.37321    173.33646    1503.3276   -692.04802   -389.93468   -793.95745   -3381.5252 
10625000    272.86941   -3890.0462   -3422.3573   -3890.0462            0   -486.87789    17.781631    20.944413    21.693548    8079.2374    197.35488   -638.62994   -1019.3586    1325.5127   -160.68038   -450.49131   -3479.7249 
10626000    254.34404   -3915.1606   -3479.2236   -3915.1606            0    1772.9151    17.782518    20.945457     21.69463    8080.4464    3146.4601     1526.515    645.77013   -915.02329    -20.85875    447.93002   -3270.2944 
10627000    249.82732   -3901.7842   -3473.5888   -3901.7842            0    1466.8864     17.85546    21.031374     21.78362    8180.2908    775.37121    2569.5721    1055.7158   -1366.2379     412.2627    486.56712   -3298.5875 
10628000    243.39517   -3901.0421   -3483.8711   -3901.0421            0    809.01109    17.908264    21.093569     21.84804    8253.0799    429.71191    447.11923    1550.2021   -70.445244   -1536.5006    -131.8186   -3386.4964 
10629000    261.57541   -3905.8344   -3457.5031   -3905.8344            0    669.56839    17.912527     21.09859    21.853241    8258.9746   -425.59185    1255.7767    1178.5203   -1069.9144    523.19478    1313.2203   -3376.8545 
10630000    260.34078   -3953.1304   -3506.9152   -3953.1304            0    2369.6958     17.83816    21.010996    21.762514    8156.5359    2613.4069    1329.6715    3166.0089   -95.493487    2040.1232    709.75652   -3225.0287 
10631000    240.46621   -3931.9715   -3519.8207   -3931.9715            0    1287.1832    17.839697    21.012806    21.764388    8158.6443    1865.4476    1337.6444    658.45765   -1175.9541    481.19304     1311.877   -3366.6646 
10632000    261.56904   -3887.0342   -3438.7138   -3887.0342            0    649.01971    17.835789    21.008203    21.759621    8153.2838    1687.7699   -656.81682    916.10605   -234.23573   -53.457025   -1181.9637   -3361.5406 
10633000    254.72055   -3926.1638   -3489.5815   -3926.1638            0    637.24389    17.847632    21.022153    21.774069    8169.5358    417.85334    300.32691    1193.5514   -178.05813   -1032.6514   -118.83986   -3413.6576 
10634000    244.19846   -3899.5687   -3481.0209   -3899.5687            0    2269.5308     17.77646    20.938321    21.687239    8072.1904    2219.0185    2171.2651    2418.3087   -267.79235   -481.30913    384.40482   -3213.8412 
10635000    243.90134   -3935.8921   -3517.8535   -3935.8921            0    3017.0116    17.835569    21.007944    21.759352    8152.9817    3402.5196    2550.2578    3098.2574   -1425.5279   -971.46603    920.70514   -3159.1222 
10636000    261.04113   -3925.6191   -3478.2035   -3925.6191            0    636.14124     17.84313    21.016851    21.768577    8163.3559   -442.97126    1143.0189    1208.3761    1303.0694   -165.63715    1166.8771   -3402.4683 
10637000    249.81518   -3936.4778   -3508.3032   -3936.4778            0    2805.2615    17.847429    21.021914    21.773821    8169.2571    3685.4136    2135.4345    2594.9364   -388.73021   -119.06695    -859.1239   -3174.0837 
10638000    261.38633   -3921.4924   -3473.4851   -3921.4924            0    1397.9319    17.808788      20.9764     21.72668    8116.3117    1980.1752    1551.8877    661.73267    164.31077   -312.18047    400.29951   -3308.0146 
10639000    234.15141   -3941.7609   -3540.4334   -3941.7609            0     1350.633    17.805952    20.973059     21.72322    8112.4338   -1175.9217    3477.6375    1750.1831    780.88379    228.55843   -130.23436   -3380.6379 
10640000    244.07583   -3884.0857    -3465.748   -3884.0857            0    1390.7122    17.891417    21.073726    21.827487    8229.8098    930.28393    2881.4577      360.395    702.87573   -315.33406   -1328.6813   -3298.8301 
10641000    249.18063   -3940.1328   -3513.0458   -3940.1328            0    599.68809    17.851358    21.026541    21.778615    8174.6534   -82.337555    1895.9048   -14.502946   -676.71259    646.77625    -682.3071   -3441.5516 
10642000    239.62579   -3901.9619   -3491.2515   -3901.9619            0    1377.5345    17.862089    21.039181    21.791707    8189.4045    304.34778    2078.4183    1749.8376   -335.15924    14.025025    11.174276   -3326.7269 
10643000    238.54944   -3906.0667   -3497.2012   -3906.0667            0    2534.9306     17.88178    21.062375     21.81573    8216.5187    2587.7434    1996.4868    3020.5614    68.016828   -1346.8777   -56.141714   -3193.4417 
10644000    254.93587   -3921.5002   -3484.5489   -3921.5002            0    3307.9521    17.816192    20.985121    21.735713    8126.4384    4001.6572    1998.1497    3924.0493    189.67505   -1076.2815    616.07546   -3092.5044 
10645000    263.44286   -3903.0597   -3451.5277   -3903.0597            0    1592.4739     18.00618    21.208901    21.967497    8389.1958    1776.1484    2238.6505    762.62286   -263.27852   -737.92008    126.48257    -3256.692 
10646000    252.90268   -3934.6817   -3501.2152   -3934.6817            0    2575.2122    17.890411    21.072541    21.826259    8228.4213    2336.4735    4017.3007    1371.8622   -28.377348   -617.11578   -687.84061   -3192.1818 
10647000    238.71687   -3910.0784   -3500.9258   -3910.0784            0     1279.228    17.915536    21.102135    21.856912    8263.1384    1923.0005    920.46416    994.21944   -133.31403    380.90981   -1011.1297   -3346.7668 
10648000    245.17214   -3941.3009   -3521.0843   -3941.3009            0    1303.7483    18.074088    21.288888    22.050345    8484.4708    1477.4447    2143.3977    290.40254     365.0184   -250.00165    509.68204    -3359.762 
10649000     256.4068    -3882.546   -3443.0735    -3882.546            0    616.69046     18.07827    21.293814    22.055447    8490.3615    220.63935    438.42937    1191.0026    561.87745    371.13865    -465.0164   -3366.7129 
10650000    246.78941   -3896.8999   -3473.9113   -3896.8999            0    1522.1155    17.897761    21.081199    21.835227     8238.568    1150.3601    3198.9282    217.05809   -530.97981   -1057.9107   -1249.1855   -3291.0275 
10651000    261.93802   -3901.0935   -3452.1407   -3901.0935            0     2455.758    17.909648    21.095199    21.849728    8254.9929    2482.0233    931.85852    3953.3921   -289.12266   -649.65224   -301.53472   -3156.4905 
10652000    243.07073   -3913.9388   -3497.3239   -3913.9388            0   -158.76092    17.905374    21.090166    21.844515    8249.0855    1290.2028   -406.69337   -1359.7922    103.06302   -349.92148   -616.90621   -3516.4235 
10653000    243.37607   -3849.8534   -3432.7151   -3849.8534            0   -406.41698    17.992465    21.192747    21.950765    8370.0411     701.5866   -383.73574   -1537.1018    2053.5721   -218.92087    657.63469   -3482.3258 
10654000    250.66243   -3913.8442   -3484.2174   -3913.8442            0    1149.5272     17.98206    21.180492    21.938072    8355.5288    1019.3751    618.85906    1810.3475   -257.44734   -633.52398   -408.09028   -3344.1397 
10655000    244.33668   -3895.0271   -3476.2424   -3895.0271            0    1354.6091    17.924529    21.112727    21.867883    8275.5873     378.4421    2517.2861    1168.0991    81.704799    24.931206    1559.3223   -3312.7533 
10656000    246.99226   -3957.1505   -3533.8143   -3957.1505            0    1097.9455    17.970937     21.16739    21.924501     8340.033    2124.3071    500.73185    668.79743   -269.84274   -771.22433    1113.7606   -3400.2702 
10657000    247.29713   -3922.1237   -3498.2649   -3922.1237            0    1586.3974    17.891343    21.073638    21.827396    8229.7073    3020.5441    712.91964    1025.7284   -1430.9086    1168.0631   -200.30428   -3307.8625 
10658000    255.62859   -3969.2576   -3531.1189   -3969.2576            0    1082.6043    17.975417    21.172667    21.929967    8346.2722    851.02589    1356.5479     1040.239   -835.82593   -2274.8981    444.99345   -3399.3423 
10659000    256.64308   -3949.2586   -3509.3812   -3949.2586            0    1677.1062    17.959918    21.154411    21.911058    8324.7006    462.25186    1984.6504    2584.4165   -99.316448    343.22104   -886.32024   -3305.7683 
10660000    262.24175   -3914.3313   -3464.8579   -3914.3313            0    2174.5313    18.012293    21.216102    21.974955    8397.7429    1097.5907    4048.5664    1377.4368   -1232.9936   -356.36178   -1889.8521   -3198.5377 
10661000    234.38865   -3911.3238   -3509.5897   -3911.3238            0    2541.8412     17.83585    21.008275    21.759695    8153.3671    2115.2025      3901.33    1608.9911   -371.53647   -442.76892    321.95868   -3207.3432 
10662000    243.05357   -3934.2931   -3517.7076   -3934.2931            0    625.20517    17.920572    21.108067    21.863056    8270.1083    47.816479     67.67416    1760.1249   -327.33219    300.67308    953.75776   -3442.3009 
10663000    256.11649   -3940.2331   -3501.2582   -3940.2331            0    2303.1328    17.948708    21.141207    21.897381    8309.1219    3682.7503    2359.6469    867.00115   -93.108721    2040.4294   -619.75859   -3222.1645 
10664000    245.32021   -3955.4037   -3534.9332   -3955.4037            0    456.03696    18.050552    21.261166    22.021631    8451.3687    258.68071    90.474265    1018.9559   -1681.6319   -258.66915    260.09103   -3478.7246 
10665000     254.2894   -3943.8022   -3507.9588   -3943.8022            0    2605.2529    18.002471    21.204533    21.962972     8384.013    2389.1204    3820.8896    1605.7485    71.839419    782.59898   -186.62984   -3189.4088 
10666000    254.97583   -3914.3522   -3477.3323   -3914.3522            0    1135.6095    18.045088     21.25473    22.014965    8443.6958    2058.3406    259.92892    1088.5591   -657.04124    -147.0075     70.97966   -3337.4904 
10667000    245.67844   -3960.7954    -3539.711   -3960.7954            0    222.51463    18.044179     21.25366    22.013857    8442.4209   -164.80582     1329.701   -497.35128   -650.74909    876.07227    237.20216   -3512.3141 
10668000    258.59889   -3906.7314   -3463.5017   -3906.7314            0    3122.9793    17.941028    21.132161    21.888012    8298.4613    3305.2154    3408.4605    2655.2619   -1887.8384   -152.55034   -557.12054   -3085.5446 
10669000    255.59745   -3914.0701   -3475.9848   -3914.0701            0    260.58973    18.042106    21.251218    22.011328    8439.5114    760.37804    1109.5485   -1088.1574   -1623.7331   -800.14466    575.97159    -3443.911 
10670000    248.33659   -3927.9036   -3502.2631   -3927.9036            0    1825.3435    18.045511    21.255228    22.015481      8444.29    300.56699    1391.3619    3784.1016    901.83687   -201.47748    1212.9413   -3277.4697 
10671000    254.78448   -3942.6224   -3505.9305   -3942.6224            0   -674.41831    18.143952    21.371179    22.135579    8583.2399    69.405102   -1313.8593   -778.80078   -359.09702    89.605634    454.64374   -3590.3526 
10672000    267.84242   -3980.1395   -3521.0668   -3980.1395            0    904.95157    18.081646    21.297791    22.059566    8495.1198    1021.2363    475.03419    1218.5842     196.8137    365.25457   -932.73141   -3408.9499 
10673000    241.69241   -3904.6781   -3490.4256   -3904.6781            0    313.90717    18.063428    21.276332     22.03734    8469.4673    2135.8012   -501.22315   -692.85651   -38.503109   -141.67368   -585.43791   -3451.6523 
10674000    245.67064   -3941.3742   -3520.3031   -3941.3742            0    2010.1245    17.910239    21.095895    21.850449    8255.8103    1433.3831    3348.5463    1248.4439   -252.22792    -163.2176    1452.0464   -3278.2791 
10675000    253.92166   -3936.3468   -3501.1338   -3936.3468            0    312.66598    18.029193    21.236008    21.995574    8421.4037    342.18732   -1016.9859    1612.7965     647.4194   -243.50398    84.277228   -3462.7329 
10676000    243.24909   -3933.9186    -3516.998   -3933.9186            0    781.50752    17.930361    21.119597    21.874998    8283.6679    3027.0047   -810.91599    128.43388     361.8109   -163.29257   -311.99331    -3422.585 
10677000    257.15936   -3918.7334    -3477.971   -3918.7334            0    1671.4856    17.929725    21.118848    21.874223    8282.7868    1583.2191    2366.6361    1064.6015   -807.63163   -371.07286   -1383.3979   -3276.0623 
10678000    250.34279   -3912.2688   -3483.1898   -3912.2688            0    967.58326    18.010551     21.21405     21.97283    8395.3064   -2307.8301    1376.5059    3834.0739    648.02055    -248.2893   -352.63516   -3364.7219 
10679000    244.58635   -3921.9723   -3502.7596   -3921.9723            0   -786.60981    17.998391    21.199727    21.957995    8378.3143   -1501.7275   -1492.8736    634.77164   -723.21091   -153.40211    6.6735848   -3598.8748 
10680000    249.07359   -3944.8999   -3517.9963   -3944.8999            0    669.60647    17.920415    21.107882    21.862864    8269.8906   -586.23926     1161.397    1433.6616     619.0828    95.539417    -117.2886   -3437.2365 
10681000    258.51341   -3934.1519   -3491.0688   -3934.1519            0    970.41022    17.959244    21.153617    21.910235    8323.7633    650.45079     613.1284    1647.6515    594.54259   -372.57001    260.74245   -3373.2673 
10682000     258.1187   -3915.9995   -3473.5929   -3915.9995            0    794.98354     17.89562    21.078676    21.832614    8235.6109   -1611.4711    2978.8403    1017.5814   -764.42465   -329.19666   -314.22734   -3378.1091 
10683000    244.43555   -3916.3814   -3497.4273   -3916.3814            0    2010.8307     17.85395    21.029595    21.781778    8178.2155    2037.3644   -321.95003    4317.0776    1181.1408   -665.29551    1060.7493   -3257.5937 
10684000    241.76794   -3908.5732   -3494.1912   -3908.5732            0    182.78935    17.963434    21.158553    21.915348    8329.5912    578.33027    -571.0222    541.05999   -369.09745    45.811848   -485.56327   -3471.9862 
10685000    252.19889   -3909.3484   -3477.0881   -3909.3484            0    1966.7779    17.928068    21.116896    21.872201    8280.4907    510.61633    2787.6401    2602.0771    53.691229    313.23159    628.80117   -3239.5752 
10686000    261.06017   -3911.9908   -3464.5426   -3911.9908            0    2221.8524    17.874041    21.053259    21.806288    8205.8547    156.58229    2207.6174    4301.3575    773.16578   -208.44645   -97.222819   -3198.6447 
10687000     250.6238   -3921.9869   -3492.4263   -3921.9869            0    578.42184    17.854678    21.030453    21.782666    8179.2162   -986.71573    -23.57198    2745.5532     380.2995   -1113.1127   -716.60434   -3423.4289 
10688000    262.18604   -3909.5033   -3460.1254   -3909.5033            0    400.49946    17.902723    21.087043     21.84128    8245.4214    118.80883    462.28007    620.40947   -1147.6776   -114.51002   -1505.5293   -3411.9649 
10689000    242.20413   -3932.5761   -3517.4465   -3932.5761            0    1405.9642    17.837336    21.010025    21.761508    8155.4054    2190.2835    1022.4491    1005.1602   -780.11563    813.63928   -58.404485   -3350.2237 
10690000    254.48289   -3879.8763   -3443.7013   -3879.8763            0    1947.7347    17.848136    21.022747    21.774685    8170.2289    1323.4602    807.25429    3712.4895   -2.2592415    1098.1017    732.25754   -3211.6201 
10691000    251.91606   -3903.8878   -3472.1123   -3903.8878            0    1814.3455    17.800122    20.966192    21.716107    8104.4678    2443.4145    1022.9217    1976.7001    465.70722    745.55979     658.9326   -3257.6651 
10692000    247.49009   -3900.6307   -3476.4412   -3900.6307            0    1608.0824    17.934518    21.124493     21.88007    8289.4305    1802.6626    1014.4085    2007.1763   -1071.5093   -430.44525    581.34195   -3282.0355 
10693000    271.00409    -3940.994   -3476.5022    -3940.994            0    1421.4411    17.895082    21.078043    21.831958    8234.8686    917.44533    1382.0458    1964.8321   -163.01133    943.01001    23.685338   -3305.7913 
10694000    247.64187   -3877.9869   -3453.5372   -3877.9869            0    2324.2652    17.863165    21.040448    21.793019    8190.8842    1352.2395    3993.1627    1627.3934    49.696879    234.23236   -18.488656   -3175.8906 
10695000    258.20945   -3950.7896   -3508.2275   -3950.7896            0    1500.3513    17.856208    21.032255    21.784532    8181.3188    743.40288    1885.6849    1871.9662     -96.2733   -105.71375      151.527   -3329.2113 
10696000    257.15278   -3931.5335   -3490.7824   -3931.5335            0    2004.8944    17.782958    20.945976    21.695168    8081.0469    299.09482     2758.601    2956.9873   -728.71957     -558.835    195.57696    -3254.498 
10697000    248.09364   -3909.5529   -3484.3288   -3909.5529            0    1134.0141       17.884     21.06499    21.818439    8219.5793    884.87477    1211.6001    1305.5674    1277.1659   -644.26872    13.380318   -3348.3899 
10698000    253.08338   -3904.9038   -3471.1275   -3904.9038            0    559.62099    17.847343    21.021813    21.773717    8169.1395    1745.8803    93.556748   -160.57404   -1306.2864    109.52392    927.23501   -3404.4551 
10699000    255.52683   -3901.5854   -3463.6212   -3901.5854            0    2163.1757    17.877453    21.057278     21.81045    8210.5546     3179.425     2472.807    837.29506    -80.77212    1186.1627   -376.76581   -3204.5971 
10700000     248.3892   -3912.9093   -3487.1787   -3912.9093            0    1406.8934     17.84207    21.015602    21.767284    8161.9014    823.55802    989.22837    2407.8938    388.16654    542.63763   -387.30382    -3319.712 
10701000    258.61924    -3929.775   -3486.5105    -3929.775            0     1371.905    17.834663    21.006877    21.758247    8151.7396    1578.8415    751.83853     1785.035    1709.5071    1713.6802   -368.33774   -3323.4119 
10702000    265.78757   -3950.8098    -3495.259   -3950.8098            0     914.6896    17.795629      20.9609    21.710626    8098.3325    2170.9879   -533.48404    1106.5649    1026.5715    273.73104   -255.24522   -3387.2287 
10703000    243.29804    -3956.428   -3539.4235    -3956.428            0    2086.7737       17.752    20.909511    21.657399    8038.9154    951.16092     3124.426    2184.7343    447.33033    232.02733    396.76917   -3294.7716 
10704000    252.75972   -3963.0755    -3529.854   -3963.0755            0      1129.52    17.823687    20.993949    21.744856    8136.6986    1905.3381    121.30602    1361.9159   -852.07546   -643.43411   -138.45644   -3395.8191 
10705000    239.04331    -3945.016   -3535.3039    -3945.016            0     1340.697    17.775978    20.937754    21.686652    8071.5348    1539.0783    1575.1712    907.84164    19.412511   -108.61579    -286.4453   -3377.4837 
10706000    248.47576   -3943.7886   -3517.9097   -3943.7886            0     1734.108    17.765005    20.924829    21.673264    8056.5958    2188.8057    2044.0711    969.44726   -947.77262   -169.07286   -118.17304   -3314.1569 
10707000    245.97411   -3930.6554   -3509.0642   -3930.6554            0    2399.4752    17.884818    21.065953    21.819436    8220.7067    2042.6085    1514.1752    3641.6419    446.79729    347.13461   -1207.8911   -3221.3898 
10708000    260.79247   -3933.1584   -3486.1691   -3933.1584            0    2635.3373    17.853316    21.028848    21.781004    8177.3436    1645.0463    4201.1174    2059.8484   -1150.9943   -718.98453    316.46726   -3171.8836 
10709000    248.43266   -3927.2617   -3501.4567   -3927.2617            0    868.78604    17.869266    21.047635    21.800463    8199.2804    1761.0494    882.88829   -37.579547    25.860534   -189.16088   -155.53241   -3397.5689 
10710000    253.89988   -3895.8338   -3460.6581   -3895.8338            0    783.41555    17.908478    21.093822    21.848301    8253.3759    1209.1287    612.34636    528.77153    1753.8454   -45.351005    725.97844   -3366.3607 
10711000    246.11602   -3932.0413   -3510.2069   -3932.0413            0    1679.0605    17.852999    21.028475    21.780617    8176.9087    1544.4617      2012.64    1480.0797   -194.97345    140.30427     605.0258   -3309.9759 
10712000    251.86233   -3915.5443   -3483.8609   -3915.5443            0    2708.2912    17.958236     21.15243    21.909007    8322.3628    2472.8697    2465.0754    3186.9285   -708.04535   -100.61986    1180.3111   -3155.1471 
10713000    264.89536   -3909.7843   -3455.7627   -3909.7843            0    1501.5388    17.970317    21.166659    21.923744    8339.1689    3066.6168     -175.458    1613.4575    937.77682   -947.33239   -97.019682   -3273.1482 
10714000     253.1309   -3935.8228   -3501.9651   -3935.8228            0    571.87708    18.023649    21.229478     21.98881    8413.6368    2191.8431   -759.45897    283.24714   -779.38397   -86.895067     819.5052   -3431.7933 
10715000    241.65457    -3945.681   -3531.4933    -3945.681            0    871.26719    17.948459    21.140913    21.897077    8308.7761    994.16182    1391.7139    227.92582   -530.53631    710.64382    1030.8747   -3425.9175 
10716000    238.67616   -3916.6146   -3507.5318   -3916.6146            0    2932.2563    17.855278    21.031158    21.783397    8180.0396    2344.0218    4319.6048    2133.1424   -1308.6039    1039.6037    1085.8824    -3157.721 
10717000    241.55074   -3934.1675   -3520.1578   -3934.1675            0    1691.1095     17.85805    21.034424    21.786779    8183.8506    1658.4375    3041.8112       373.08   -1042.1916   -277.03439    1382.2685   -3318.3187 
10718000    255.24008   -3908.4232   -3470.9505   -3908.4232            0    1934.0991     17.79262    20.957356    21.706955    8094.2256     2308.518    2509.0562    984.72293    524.29689    867.77079    676.61963   -3242.6378 
10719000    262.52923   -3900.4319   -3450.4658   -3900.4319            0    1044.0766    17.948939    21.141479    21.897663    8309.4428    1156.3737    87.903993    1887.9521   -1409.6078    470.81198    550.80927   -3323.9396 
10720000    240.19703   -3900.3541   -3488.6646   -3900.3541            0    1577.2492     17.78388    20.947061    21.696292    8082.3029    3247.0066    2000.7549    -516.0138    734.07622   -991.50544   -552.42374    -3302.751 
10721000    255.13246   -3902.1833    -3464.895   -3902.1833            0     1624.613    17.935113    21.125194    21.880796    8290.2556    1476.7646    2299.5463    1097.5282   -910.99745   -639.18181     771.2343   -3268.4714 
10722000    257.68061   -3943.0483   -3501.3926   -3943.0483            0    2260.0425    17.865175    21.042816    21.795471    8193.6495    3927.8191    866.74018    1985.5682   -893.33878    686.97777    318.30109   -3231.3266 
10723000    250.02526   -3913.2091   -3484.6743   -3913.2091            0    665.47551    17.887605    21.069236    21.822836    8224.5506    871.78083    730.39867    394.24702   -1178.3619   0.70903637     801.7132   -3404.8528 
10724000     254.8397   -3907.0022   -3470.2157   -3907.0022            0    859.11922    17.851913    21.027196    21.779292    8175.4165     745.0253      1085.09    747.24235    572.87439    480.67865   -1145.3087   -3367.7828 
10725000    244.40232    -3914.633   -3495.7357    -3914.633            0    1541.6226     17.72505    20.877767    21.624519     8002.358    -187.7928    1517.8496     3294.811    160.25937   -812.21147   -1571.1378   -3315.8188 
10726000    257.34238    -3912.006     -3470.93    -3912.006            0    156.97675    17.761918    20.921194    21.669499    8052.3974   -398.12451    1164.7922   -295.73748   -364.60512    28.089773   -766.14192   -3452.4953 
10727000    252.51133   -3844.5024   -3411.7067   -3844.5024            0    1206.5814    17.897873    21.081331    21.835364    8238.7227    2744.5846       192.26    682.89948   -1067.8678    522.09062   -760.32628   -3266.7319 
10728000    258.60076   -3890.7772   -3447.5443   -3890.7772            0    2904.9623    17.783222    20.946287    21.695489    8081.4063    2298.2222    2876.9982    3539.6665    317.67816   -663.04292    93.961851   -3105.1683 
10729000    252.23414   -3883.5687    -3451.248   -3883.5687            0    1767.1706    17.743892    20.899961    21.647506     8027.905    2133.2022    1382.8558    1785.4537    625.15012    534.76883    707.72035   -3244.3499 
10730000    248.01856   -3868.3668   -3443.2715   -3868.3668            0    689.03254    17.820247    20.989897     21.74066    8131.9884   -280.07037    1017.0206    1330.1474   -741.03349    353.90634   -641.83508   -3361.5545 
10731000    255.54308   -3906.0234   -3468.0313   -3906.0234            0    1368.7296     17.85868    21.035167    21.787548    8184.7174    952.66751    1724.4739    1429.0472    95.283485    912.70161   -545.71611    -3304.652 
10732000    262.78392   -3934.9355   -3484.5328   -3934.9355            0    742.24936    17.881867    21.062478    21.815836    8216.6389     936.5197   -567.83658     1858.065   -75.404593   -414.97204   -165.33879   -3395.5882 
10733000    246.33948   -3924.4426   -3502.2252   -3924.4426            0    829.71394    17.790862    20.955286     21.70481    8091.8269     1431.496    1670.0563   -612.41048    206.44944   -990.24429   -1696.9794   -3404.3098 
10734000    251.00891   -3906.8062   -3476.5855   -3906.8062            0    292.17795    17.955485    21.149189     21.90565    8318.5379    599.80386   -568.57346    845.30344       369.41   -2291.0872   -880.62597   -3441.1393 
10735000    246.99119   -3950.2539   -3526.9194   -3950.2539            0    799.75822    17.926728    21.115317    21.870566    8278.6334   -617.19505    993.01354    2023.4562    673.51079   -621.92305   -685.65727   -3430.3603 
10736000    251.57468   -3908.2922   -3477.1018   -3908.2922            0    427.51293    17.914813    21.101283     21.85603    8262.1372    1226.5872   -104.68463    160.63627   -558.88246   -989.36802   -647.46259   -3425.5887 
10737000    253.98744   -3934.9048   -3499.5791   -3934.9048            0     1244.864    17.885668    21.066955    21.820473    8221.8794     3185.403    356.72605    192.46312   -756.10429   -706.07446   -140.00263   -3350.3103 
10738000     249.5422   -3905.0397   -3477.3329   -3905.0397            0     778.2263    17.986287     21.18547    21.943228    8361.4223    725.98341     701.0508    907.64469    290.44309   -218.60135    598.17945   -3382.4338 
10739000     250.2818    -3910.271   -3481.2965    -3910.271            0    2194.1618    17.850886    21.025986    21.778039    8174.0057     915.6895    2151.5371     3515.259    704.17826    37.639117    71.643753   -3219.7316 
10740000    257.97991   -3926.2904   -3484.1216   -3926.2904            0    1150.0874    17.850771     21.02585    21.777899    8173.8473    1879.5438    706.94946    863.76891    816.67199   -658.84869    1616.9855   -3347.0229 
10741000    248.50267    -3946.231   -3520.3059    -3946.231            0    1700.8515    17.837977     21.01078     21.76229    8156.2843    1607.6592     2413.443    1081.4522    62.255459   -863.04244   -1876.8023   -3317.9878 
10742000    247.76423   -3918.1589   -3493.4994   -3918.1589            0    2442.2766    17.812037    20.980227    21.730644    8120.7545    2290.3575    3084.4565    1952.0159   -765.91734   -765.92161    1329.2231   -3204.2536 
10743000    259.02541   -3898.5793   -3454.6186   -3898.5793            0    841.76073    17.848414    21.023074    21.775023    8170.6101      1207.74     857.6971    459.84513    598.06085    98.950046     677.8745   -3354.3145 
10744000     245.6529    -3902.842   -3481.8014    -3902.842            0    1061.0618    17.959102     21.15345    21.910063    8323.5667     2058.308    1325.8732   -200.99592    326.49852   -419.70946   -340.51057   -3352.9983 
10745000    257.09215   -3895.9796   -3455.3325   -3895.9796            0    778.53736    17.947268    21.139511    21.895625    8307.1227    1903.6623    520.40437   -88.454587   -1151.5519    691.15579   -1282.6317    -3361.012 
10746000    235.72341   -3901.1308    -3497.109   -3901.1308            0   -568.90234    17.969718    21.165954    21.923013    8338.3351   -113.03531   -177.33892   -1416.3328    94.602078   -600.17261    1095.6889   -3566.2909 
10747000    247.73058   -3926.5018   -3501.9001   -3926.5018            0    1670.4101    17.846722    21.021081    21.772959    8168.2863    2463.0703    1287.0708    1261.0892   -224.84438   -299.89979    811.80511   -3302.9107 
10748000    264.43169    -3927.404   -3474.1771    -3927.404            0    322.43778    17.950746    21.143608    21.899869    8311.9538    452.49762    340.01642    174.79931   -533.85382    581.95115   -33.629376   -3435.0908 
10749000    242.40762   -3918.4875   -3503.0091   -3918.4875            0    1242.3236    17.908369    21.093693    21.848168    8253.2245    1688.0027    1159.5329    879.43506    1393.6649    171.00289    367.38521   -3353.4771 
10750000    272.45353   -3912.4221   -3445.4461   -3912.4221            0    903.01107    17.899842    21.083649    21.837765    8241.4413    1135.3146    1218.0125    355.70603    1687.7812    215.67799   -1880.8838   -3336.9105 
Loop time of 462.445 on 64 procs for 250000 steps with 864 atoms

Performance: 93.416 ns/day, 0.257 hours/ns, 540.604 timesteps/s
99.1% CPU use with 64 MPI tasks x 1 OpenMP threads

MPI task timing breakdown:
Section |  min time  |  avg time  |  max time  |%varavg| %total
---------------------------------------------------------------
Pair    | 20.237     | 22.554     | 24.601     |  23.4 |  4.88
Bond    | 0.26687    | 0.27491    | 0.28482    |   0.8 |  0.06
Kspace  | 208.71     | 220.05     | 232.19     |  39.6 | 47.58
Neigh   | 4.0118     | 4.9842     | 6.3537     |  30.3 |  1.08
Comm    | 91.319     | 103.99     | 116.58     |  63.0 | 22.49
Output  | 0.80203    | 0.80388    | 0.8056     |   0.1 |  0.17
Modify  | 100.17     | 103.7      | 107.33     |  13.6 | 22.42
Other   |            | 6.099      |            |       |  1.32

Nlocal:        13.5000 ave          18 max           8 min
Histogram: 1 2 3 5 11 8 13 9 6 6
Nghost:        1990.83 ave        2025 max        1957 min
Histogram: 1 5 5 9 11 16 6 6 2 3
Neighs:        3745.78 ave        5622 max        2244 min
Histogram: 3 5 6 11 14 11 8 5 0 1

Total # of neighbors = 239730
Ave neighs/atom = 277.46528
Ave special neighs/atom = 2.0000000
Neighbor list builds = 12635
Dangerous builds = 0

unfix		3
unfix		2
unfix		1

write_data	data.final.${pid}
write_data	data.final.0
System init for write_data ...
PPPM initialization ...
  extracting TIP4P info from pair style
  using 12-bit tables for long-range coulomb (../kspace.cpp:340)
  G vector (1/distance) = 0.372863
  grid = 24 25 25
  stencil order = 5
  estimated absolute RMS force accuracy = 0.0031480162
  estimated relative force accuracy = 9.4801573e-06
  using double precision FFTW3
  3d grid and FFT values/proc = 2940 384
Last active /omp style is kspace_style pppm/tip4p/omp
WARNING: Not all mixed pair coeffs generated from mixing. Use write_data with 'pair ij' option to store all pair coeffs. (../write_data.cpp:312)

write_restart   restart.lmp.${pid}
write_restart   restart.lmp.0
System init for write_restart ...
PPPM initialization ...
  extracting TIP4P info from pair style
  using 12-bit tables for long-range coulomb (../kspace.cpp:340)
  G vector (1/distance) = 0.372863
  grid = 24 25 25
  stencil order = 5
  estimated absolute RMS force accuracy = 0.0031480162
  estimated relative force accuracy = 9.4801573e-06
  using double precision FFTW3
  3d grid and FFT values/proc = 2940 384
Last active /omp style is kspace_style pppm/tip4p/omp
Total wall time: 0:07:45
