LAMMPS (30 Jul 2021)
  using 1 OpenMP thread(s) per MPI task
package omp 0
using multi-threaded neighbor list subroutines
echo both

include		in.partitions
variable        pid world 0
include		in.temp
variable        temperature equal 263.66
variable	tempDamp equal 100.0
include		in.pressure
variable        pressure equal 8625.0
variable        pressureDamp equal 1000.0 # This is 1 ps
include		in.seed
variable        seed world 745823

units		real
atom_style	full
read_restart    restart.lmp.${pid}
read_restart    restart.lmp.0
Reading restart file ...
  restart file = 30 Jul 2021, LAMMPS = 30 Jul 2021
  restoring atom style full from restart
  triclinic box = (-3.2029404 -0.10854381 -0.061733038) to (14.812939 22.688543 19.291731) with tilt (-0.15478227 -6.8201184 -0.053203015)
  4 by 4 by 4 MPI processor grid
  restoring pair style lj/cut/tip4p/long/omp from restart
  restoring bond style harmonic/omp from restart
  restoring angle style harmonic/omp from restart
  1008 atoms
  672 bonds
  336 angles
Finding 1-2 1-3 1-4 neighbors ...
  special bond factors lj:    0        0        0       
  special bond factors coul:  0        0        0       
     2 = max # of 1-2 neighbors
     1 = max # of 1-3 neighbors
     1 = max # of 1-4 neighbors
     2 = max # of special neighbors
  special bonds CPU = 1.521 seconds
  read_restart CPU = 1.936 seconds

include 	in.setup
variable	out_freq equal 1000
variable	out_freq2 equal 10000
variable	out_freq3 equal 1000

timestep	2.0

neigh_modify    delay 7 every 1

include		in.tip4p
# This is TIP4P/Ice

# create groups ###
group ox type 2
336 atoms in group ox
group hy type 1
672 atoms in group hy

# set charges - beside manually ###
set group ox charge -1.1794
Setting atom values ...
  336 settings made for charge
set group hy charge 0.5897
Setting atom values ...
  672 settings made for charge

# ### TIP3P Potential Parameters ###
pair_style lj/cut/tip4p/long/omp 2 1 1 1 0.1577 8.5
pair_coeff 1 1*2 0.000 0.000
pair_coeff 2 2 0.21084 3.1668
bond_style  harmonic
bond_coeff  1 450 0.9572
angle_style harmonic
angle_coeff 1 55 104.52
kspace_style pppm/tip4p/omp 1.0e-5
pair_modify tail yes

thermo          ${out_freq}
thermo          1000
thermo_style    custom step temp pe etotal epair emol press lx ly lz vol pxx pyy pzz pxy pxz pyz enthalpy

restart 	${out_freq3} restart.lmp.${pid} restart2.lmp.${pid}
restart 	1000 restart.lmp.${pid} restart2.lmp.${pid}
restart 	1000 restart.lmp.0 restart2.lmp.${pid}
restart 	1000 restart.lmp.0 restart2.lmp.0


include         in.dump
dump            myDump all atom ${out_freq2} dump.water.${pid}
dump            myDump all atom 10000 dump.water.${pid}
dump            myDump all atom 10000 dump.water.0
dump            myDump2 all dcd ${out_freq2} dump.dcd
dump            myDump2 all dcd 10000 dump.dcd
dump_modify     myDump append yes
dump_modify     myDump2 append yes


variable natoms 	equal  "count(all)"                        # NUMBER ATOMS
variable H      	equal  "enthalpy/v_natoms"                 # ENTHALPY-per-atom
variable Vol      	equal  "vol/v_natoms"                 # volume-per-atom
fix AVG all 		ave/time ${out_freq} 1 ${out_freq} v_Vol v_H file vol_enthalpy.dat
fix AVG all 		ave/time 1000 1 ${out_freq} v_Vol v_H file vol_enthalpy.dat
fix AVG all 		ave/time 1000 1 1000 v_Vol v_H file vol_enthalpy.dat



fix 		1 all shake 1e-6 200 0 b 1 a 1
       0 = # of size 2 clusters
       0 = # of size 3 clusters
       0 = # of size 4 clusters
     336 = # of frozen angles
  find clusters CPU = 0.042 seconds
fix             2 all nph tri ${pressure} ${pressure} ${pressureDamp}
fix             2 all nph tri 8625 ${pressure} ${pressureDamp}
fix             2 all nph tri 8625 8625 ${pressureDamp}
fix             2 all nph tri 8625 8625 1000
fix             3 all temp/csvr ${temperature} ${temperature} ${tempDamp} ${seed}
fix             3 all temp/csvr 263.66 ${temperature} ${tempDamp} ${seed}
fix             3 all temp/csvr 263.66 263.66 ${tempDamp} ${seed}
fix             3 all temp/csvr 263.66 263.66 100 ${seed}
fix             3 all temp/csvr 263.66 263.66 100 745823


run             250000
PPPM initialization ...
  extracting TIP4P info from pair style
  using 12-bit tables for long-range coulomb (../kspace.cpp:340)
  G vector (1/distance) = 0.37928398
  grid = 24 27 32
  stencil order = 5
  estimated absolute RMS force accuracy = 0.0024441416
  estimated relative force accuracy = 7.36046e-06
  using double precision FFTW3
  3d grid and FFT values/proc = 3825 384
Last active /omp style is kspace_style pppm/tip4p/omp
Neighbor list info ...
  update every 1 steps, delay 7 steps, check yes
  max neighbors/atom: 2000, page size: 100000
  master list distance cutoff = 10.8154
  ghost atom cutoff = 10.8154
  binsize = 5.4077, bins = 5 5 4
  1 neighbor lists, perpetual/occasional/extra = 1 0 0
  (1) pair lj/cut/tip4p/long/omp, perpetual
      attributes: half, newton on, omp
      pair build: half/bin/newton/tri/omp
      stencil: half/bin/3d/tri
      bin: standard
Per MPI rank memory allocation (min/avg/max) = 9.314 | 9.327 | 9.338 Mbytes
Step Temp PotEng TotEng E_pair E_mol Press Lx Ly Lz Volume Pxx Pyy Pzz Pxy Pxz Pyz Enthalpy 
18500000    276.08764    -4806.448   -4254.2386    -4806.448            0    8329.1458     18.01588    22.797087    19.353464     7948.653    8288.7684     8888.993    7809.6761   -1205.4445     602.1829    663.43766   -3288.6994 
18501000    269.17885   -4836.1396   -4297.7486   -4836.1396            0    9416.6354     18.11493    22.789827    19.185379    7920.4173     7687.868    9257.2986     11304.74   -1452.0396    278.67626    9.2470166   -3210.0221 
18502000    266.79004   -4819.9291   -4286.3161   -4819.9291            0    7736.3868     17.90685    22.840349    19.536868    7990.5538    7209.1161    7999.4406    8000.6038      606.306   -978.45248    1415.1869   -3384.7638 
18503000    255.97002   -4809.5872   -4297.6155   -4809.5872            0    8744.8795    18.229457    22.619216    19.326239    7968.9048    7927.6727    9115.5344    9191.4313   -699.25113   -1537.4058    271.03907   -3281.3005 
18504000     256.9605   -4843.3019   -4329.3491   -4843.3019            0    8854.2349    17.995635      22.6293    19.515954     7947.455    7480.5239    10587.427    8494.7534   -404.82287    20.764383   -1665.8476   -3303.0948 
18505000    258.73703   -4810.2896   -4292.7835   -4810.2896            0    7587.9716    18.322167    22.442049    19.402498    7978.0545    6110.7871    9041.3477      7611.78   -768.90388   -365.07071   -727.27287   -3409.9098 
18506000    272.23406   -4812.8404   -4268.3387   -4812.8404            0    7780.7606    18.055337    22.509825    19.570204    7953.7709    7544.3027    9013.0435    6784.9355   -19.553615   -84.544592    1636.9753   -3365.7892 
18507000    267.59953   -4832.4176   -4297.1854   -4832.4176            0    8055.8212    18.150597    22.622319    19.373375     7954.874    5652.0042    9236.5946    9278.8647    302.02319   -273.77115    565.88086      -3362.6 
18508000    257.45437   -4793.9582   -4279.0177   -4793.9582            0    9728.4874    18.082066    22.424877    19.503318    7908.3637    8659.4963    10917.811    9608.1555    1453.2809   -151.34719    2075.4873   -3156.9789 
18509000    270.08671   -4799.4578    -4259.251   -4799.4578            0    8733.0691    18.169597    22.688243    19.303098    7957.4363    8938.9505    9257.9107    8002.3461     996.3109   -28.707212   -1006.6091   -3245.7692 
18510000    271.95138   -4805.9445   -4262.0082   -4805.9445            0    10082.591    17.889761    22.647399    19.472699    7889.4918    10756.733    11306.581    8184.4586   -610.73102    306.01229   -401.59726   -3101.9038 
18511000    258.53474   -4814.9476   -4297.8462   -4814.9476            0    8353.8298    18.128817    22.835714    19.230723    7961.2207    7402.9374    9215.3893    8443.1625    -1246.956   -1442.9305   -303.41417   -3327.9144 
18512000    279.71736   -4803.6189   -4244.1497   -4803.6189            0    7711.9839    17.907703    22.794604    19.509159    7963.6191     9918.985    7297.1255    5919.8412   -881.48642    -58.58824   -432.80992   -3348.4705 
18513000    270.40128   -4793.3086   -4252.4727   -4793.3086            0    7473.8943    18.351783    22.553963    19.296233    7986.8159    6020.1312     8530.965    7870.5867    -248.7068   -62.730043   -494.57344   -3381.9171 
18514000    271.09648   -4848.1834    -4305.957   -4848.1834            0    6400.2901    18.002435    22.920815    19.391163     8001.385    4416.4754    7805.2476    6979.1473    1075.8736    222.27747   -2213.1537   -3559.0944 
18515000    267.26035   -4811.3397   -4276.7859   -4811.3397            0    10087.028    18.026423    22.831848    19.180639    7894.3011    8740.1944    11058.921    10461.969   -144.64438   -102.30112   -168.62261   -3115.4635 
18516000    273.68848    -4821.619   -4274.2082    -4821.619            0    9653.2032    17.930588    22.611003    19.490745    7902.1052    9134.4349    10763.856    9061.3185    1119.0001    1303.2764    690.83836   -3161.7335 
18517000    267.87539     -4819.01   -4283.2261     -4819.01            0    10085.637    18.037243    22.670784     19.28609    7886.4379    10298.754    9330.8844    10627.272   -282.94202    -825.1189    462.46858   -3123.2205 
18518000    255.73055   -4822.5792   -4311.0865   -4822.5792            0    7936.3311    17.967076    22.741988    19.598195    8007.9601    7836.8181    8080.4718    7891.7035   -812.95958   -229.68381    -957.7872   -3384.2192 
18519000    267.23684   -4813.3375   -4278.8308   -4813.3375            0    10914.834    18.023832    22.764535     19.13598    7851.5722    8769.7452    12559.415    11415.341    1142.4096    1022.2978    884.95255   -3029.0045 
18520000     267.1892   -4836.5465   -4302.1351   -4836.5465            0    6020.2289     17.88353    22.958056    19.542485    8023.5795    7343.5987    6042.0192    4675.0687     712.9695   -513.85059    583.75748   -3597.6739 
18521000    258.58654   -4829.7463   -4312.5413   -4829.7463            0    9763.7984    17.952735    22.950447    19.192172    7907.6222    8321.8372    9995.6696    10973.888    866.66267   -146.38734    220.90586   -3186.5355 
18522000    261.67086   -4804.5964   -4281.2223   -4804.5964            0    8889.3587    17.763814    23.103099    19.345969    7939.5691    7985.9616    8967.4911    9714.6235    1512.0468    525.91936    2875.7878   -3251.9193 
18523000    256.78165     -4845.34    -4331.745     -4845.34            0    7106.2409    17.989551    23.079185    19.241736    7988.8639    5932.9973    7712.8326    7672.8927   -75.929602    1392.4526   -996.59169   -3503.8012 
18524000    289.70073   -4811.1041   -4231.6669   -4811.1041            0    8571.1314    17.865017     22.97254    19.237492    7895.1592    6825.6741      8860.13     10027.59    747.82915    652.32713   -900.84889   -3244.7628 
18525000    278.61947   -4808.2709   -4250.9975   -4808.2709            0     8577.606    17.924682    23.149758    19.090247    7921.5373    7308.5886    8538.5928    9885.6366    607.35228   -128.34469    794.41728   -3260.0482 
18526000    272.23482   -4811.6501   -4267.1468   -4811.6501            0    9587.9034    17.810679    22.885271    19.446281     7926.347    11958.497    8323.6866    8481.5261   -245.97925    185.25197    1032.2539   -3158.8078 
18527000    265.34585    -4785.306   -4254.5815    -4785.306            0    8784.5134    18.067004    22.944829    19.192573    7956.1719    9052.3724    8099.3589    9201.8088    704.07666    499.26879    633.39417   -3235.2915 
18528000    260.18402   -4818.0535   -4297.6533   -4818.0535            0    9001.0669    17.768252    22.859617    19.464539    7906.0174    9148.7534    8724.8473       9129.6   -222.67659   -689.43391   -1465.5841   -3259.8199 
18529000     267.1592   -4817.7094   -4283.3579   -4817.7094            0    11010.682    18.018842    22.733464     19.23676    7879.9674     11333.24    11001.106      10697.7    577.63173    331.89028   -994.65279   -3017.9967 
18530000    271.27616   -4800.4072   -4257.8214   -4800.4072            0    8245.0623    17.958404     22.89503    19.350547    7956.1362    9626.0096    7667.4284     7441.749    330.10788    1035.5029    -1511.271   -3301.1296 
18531000    274.54724   -4811.0372   -4261.9088   -4811.0372            0    7159.0979    17.954193    23.009486    19.391449    8010.9325    7899.1912    7166.1855    6411.9172    709.17553   -506.64398    -719.4049   -3425.5025 
18532000    267.46709   -4805.5153   -4270.5481   -4805.5153            0    9016.3462    17.816726     22.98571    19.303938    7905.5435    8540.7573     9776.765    8731.5164    1273.0183    -382.1713   -1704.5045   -3231.0152 
18533000    278.79995   -4837.4003    -4279.766   -4837.4003            0    8606.6464    17.862383     22.97869    19.317959    7929.1368    7360.0393    9207.8153    9252.0844    524.22694    1003.2874   -241.86289   -3284.5078 
18534000    257.01777    -4829.643   -4315.5757    -4829.643            0      9331.91    18.023828    22.830215     19.25577    7923.5157    7654.5728    10035.325    10305.833    1371.1899    221.28853   -1604.5788   -3237.2143 
18535000    268.62809   -4851.6274   -4314.3381   -4851.6274            0    8455.7108     17.78643    22.924713    19.395348    7908.4301    8513.1464    8446.3942    8407.5918    1228.5625   -738.92994    658.13147   -3339.0873 
18536000    260.65127    -4836.365   -4315.0302    -4836.365            0    9272.5409    18.051848    22.853215    19.093795    7877.0072    7799.3274    9120.5121    10897.783   -361.31928    151.50747   -651.41705   -3249.8186 
18537000    265.76153   -4816.6466   -4285.0907   -4816.6466            0    8223.4041     17.90704    22.701702    19.545213    7945.5255    9700.3528    8899.9969    6069.8626    165.33256    22.393492    667.42469   -3332.1845 
18538000    264.90681   -4823.3365   -4293.4902   -4823.3365            0    7065.3343    18.060053    22.966928    19.277508    7996.0003    6631.6298    7310.7897    7253.5835     628.5725   -1041.2105   -746.82663   -3469.5771 
18539000    270.26066   -4835.7362   -4295.1815   -4835.7362            0    8539.3107    17.920265    22.906134    19.326459    7933.2017    8610.6743    8642.9962    8364.2616    908.49379    202.91614   -151.60476   -3307.2036 
18540000    262.85711   -4799.9872   -4274.2405   -4799.9872            0    7909.9207    17.806149    22.912518    19.462772    7940.4938    8415.5685    7977.5251    7336.6684    533.99124    228.38044   -252.83949   -3358.2404 
18541000    280.83251   -4845.0514   -4283.3517   -4845.0514            0     8745.861    18.126687    22.808839    19.203758    7939.7687    8666.7146    8333.7215    9237.1468    693.23869   -472.49198   -2763.1276   -3270.6389 
18542000    256.54028   -4794.6256   -4281.5133   -4794.6256            0    9646.7941    17.875217    22.890395    19.346839    7916.1612    9526.2993    10264.003    9150.0802    582.77791    35.517647    291.44849   -3167.7997 
18543000    262.80941   -4785.6981   -4260.0468   -4785.6981            0    7583.7032    17.885262    22.911813    19.334267    7922.8691    6663.1636    8402.2125    7685.7336    1421.4162   -7.1459494     1579.228   -3383.7733 
18544000    260.05993   -4838.2123   -4318.0603   -4838.2123            0    7330.7222    17.809407    22.945049    19.379801    7919.3174    8614.4743    8573.9376    4803.7546   -298.02102   -1127.4726   -597.57153   -3471.3976 
18545000    251.80059   -4832.1126   -4328.4803   -4832.1126            0    6786.8835    17.984635    23.048164    19.256149    7981.9208    7336.8628    5774.6338    7249.1538    -359.0249   -141.25978     472.3375   -3538.4319 
18546000    263.86587   -4845.5785   -4317.8142   -4845.5785            0    7361.5774    17.796462    23.172905    19.278653    7950.4338    8439.8441    5761.0756    7883.8123   -616.43267    330.47511    -1208.039   -3464.2472 
18547000    274.20029   -4830.6096   -4282.1751   -4830.6096            0    10126.942     17.82903    23.094024    19.142925    7881.9859    9772.8713    9660.7087    10947.246    1388.4658   -187.12966     1455.999   -3118.0763 
18548000    263.23813   -4833.7813   -4307.2725   -4833.7813            0     8708.841    17.890619    23.010446    19.220004    7912.3206    6988.6709    8494.6053    10643.247    818.47922   -557.77977   -1250.2392   -3302.3325 
18549000     265.7345   -4793.1071   -4261.6053   -4793.1071            0    9118.3291    17.768754    23.147236    19.228177    7908.5021    11010.148    8957.7544    7387.0852    1103.4033   -302.34504   -1155.4533    -3209.921 
18550000    269.67483    -4850.803   -4311.4201    -4850.803            0    7531.9233    17.856047     23.05709    19.279801    7937.6575    6745.7849    8316.6583    7533.3267    1581.2538    577.29018   -1605.7099   -3439.5051 
18551000    266.17182   -4754.3286    -4221.952   -4754.3286            0    7785.4245    17.999642    22.938269     19.30331    7969.9631    7670.2255    8309.7259    7376.3221   -929.13856   -134.48236   -82.997162   -3317.0231 
18552000    260.55683   -4820.5111   -4299.3652   -4820.5111            0    11477.227    17.867714    22.678765    19.405011    7863.2536    12439.232    11559.604    10432.845    1508.3236   -910.79876    607.51925   -2983.1857 
18553000    256.11782   -4828.9937   -4316.7264   -4828.9937            0    11342.828    18.053658     22.49824    19.347528    7858.4926    8324.3586    14448.289    11255.836    313.61856    1727.3204    1137.2109    -3016.747 
18554000    261.38958   -4764.2918   -4241.4803   -4764.2918            0    9634.0997    18.110333     22.73085    19.281981    7937.6832    8967.0945    10497.636    9437.5686   -249.61489   -397.67711    426.07269   -3126.2084 
18555000    270.85749     -4810.14   -4268.3916     -4810.14            0    8946.3237    17.939797    22.843022    19.386666    7944.6396    8400.1996    9555.7666     8883.005   -456.93468    107.84265   -476.10059    -3231.831 
18556000    271.04504   -4789.6605    -4247.537   -4789.6605            0    9132.6014    18.088743    22.758537    19.334525     7959.508    10136.578    9007.4397    8253.7868   -696.91817     331.9543    -444.7342   -3187.4131 
18557000    249.14159   -4817.4903   -4319.1763   -4817.4903            0    10045.107    17.920186    22.715478    19.351235    7877.2222    10832.659    9587.7776    9714.8853    645.73041    902.10447    298.64672   -3165.1823 
18558000    264.98701   -4818.0457    -4288.039   -4818.0457            0     7862.473     18.11629    22.795884    19.327433    7981.7825    6988.5269    8755.9108    7842.9812   -1829.3717    1306.6393    1903.9125   -3372.7991 
18559000    257.32372   -4804.3895   -4289.7103   -4804.3895            0    7297.1813    17.960481    23.039191     19.27773    7977.0276    7276.3494    6831.6088    7783.5859   -2174.7807   -664.07543   -2100.5645   -3440.7798 
18560000    269.34971    -4828.608   -4289.8753    -4828.608            0    9957.2811    17.918681    22.702797    19.500125    7932.7324    10296.936     10712.91    8861.9973    23.225999    705.74562     2560.635   -3137.9099 
18561000    276.69533   -4819.7362   -4266.3114   -4819.7362            0    8591.2676    17.982692    22.869243    19.293454    7934.4435    9428.3948    8261.0855    8084.3226   -1865.8426    107.64946   -378.85199   -3272.1666 
18562000    269.07269   -4773.7563   -4235.5777   -4773.7563            0    8067.8969    17.905897    23.068555    19.315848    7978.6658    10249.865    6978.6963     6975.129     956.9916    706.69719    2220.6323   -3296.7919 
18563000    274.19801   -4804.6982   -4256.2683   -4804.6982            0    7076.2107    17.944144    23.020393    19.392687    8010.7555    5923.4463    8567.8541    6737.3317    582.64688    141.13488     296.4888   -3429.5642 
18564000    266.91081   -4823.0939   -4289.2394   -4823.0939            0    7822.8749    17.714999    23.171159    19.466719    7990.6415    9101.2195     8002.014    6365.3912   -366.46526     359.3597    326.10112   -3377.5982 
18565000    265.62782   -4846.9282   -4315.6398   -4846.9282            0    8800.5709    18.095679    22.959225    19.069934    7922.8474    7699.8825    9257.9261    9443.9042   -49.206862    28.058695    230.08308   -3298.7637 
18566000    275.00253   -4803.5901   -4253.5511   -4803.5901            0    7683.6187    17.781186    23.141047    19.317879    7948.8293    9189.2096     7425.303    6436.3434   -44.209072    50.766461    -1273.886   -3362.8236 
18567000    268.45621   -4832.8004   -4295.8548   -4832.8004            0    8183.1411    17.751497    23.578737    18.916637    7917.7074    8480.2406    7329.0373    8740.1455   -2107.5502    -47.09226    82.219612   -3350.9341 
18568000    266.23659   -4826.4814   -4293.9753   -4826.4814            0    6648.3424    17.721049    23.212724    19.403437    7981.6781    7991.2354    5364.1294    6589.6624   -331.94919   -535.32331    145.00911   -3520.0778 
18569000      256.072   -4834.1051   -4321.9295   -4834.1051            0    10795.057    17.896585    22.982943    19.105251    7858.2992     10744.04    10571.432      11069.7     872.9469    1037.8947     559.5329   -3084.7594 
18570000    267.54297   -4808.8917   -4273.7727   -4808.8917            0    9682.4185    17.838285    22.963928    19.299262    7905.6937     9599.031    9859.6624    9588.5622   -621.63677    803.21091   -601.87462   -3157.4244 
18571000    268.53038   -4816.9927   -4279.8988   -4816.9927            0    9373.6848    17.982563    22.940972    19.141441    7896.5617    8499.0133    10142.021    9480.0205   -206.09366    948.38187    1574.8247   -3200.3947 
18572000     270.3996   -4768.4789   -4227.6463   -4768.4789            0    8105.8464    17.861961    22.825311     19.57565    7981.0864    9547.9107    8284.5508    6485.0776   -67.722832   -1405.3984    784.97928   -3284.1585 
18573000    246.73553   -4824.0978   -4330.5962   -4824.0978            0    9477.8317    18.126093    22.799803    19.170223    7922.5039    10366.607    8998.2637    9068.6247    1690.3781   -144.42918    378.62553   -3235.5124 
18574000    253.91204   -4839.2233   -4331.3678   -4839.2233            0    7687.4464    17.915858    22.674326    19.642748     7979.474    8362.8505     8111.745    6587.7438   0.71497184   -521.91653   -1651.5017   -3436.7609 
18575000    266.71385   -4836.7357    -4303.275   -4836.7357            0     7188.603    18.056219    22.850988    19.331858    7976.3717    8005.0675    6716.1324    6844.6092    810.41886   -571.59798    941.86863    -3467.045 
18576000    270.89151   -4814.3691   -4272.5527   -4814.3691            0     8747.817    17.981389    22.810997    19.380292    7949.2806    7874.6187    8889.8927    9478.9395    1340.6159   -156.61167    663.15645   -3258.3998 
18577000    245.74288   -4828.0864   -4336.5703   -4828.0864            0    6453.4906    18.109182    23.045481    19.125648    7981.7984    3916.4661    6468.0585    8975.9473   -92.810537   -927.30065   -2863.4309   -3585.3431 
18578000    267.46293     -4770.07   -4235.1111     -4770.07            0    8918.8611    17.791552    23.050667    19.320586    7923.5104    7326.4524    9556.4058    9873.7252    636.64179   -553.93141    783.65106   -3204.4808 
18579000    260.52344   -4824.7614   -4303.6824   -4824.7614            0    7963.5949     17.83379    23.054016    19.288491    7930.2795    6587.9073    9221.9048    8080.9725    1164.5721   -511.64354   -903.99062   -3382.6529 
18580000    273.10409   -4797.4997   -4251.2577   -4797.4997            0    10085.156    17.904712    22.833758    19.198328    7848.8885     8675.897    10850.912    10728.658    837.54796    338.16034    343.31958   -3096.8303 
18581000    257.18136   -4802.9643   -4288.5698   -4802.9643            0    6876.6317    18.035469    22.927957    19.398813    8021.7288    3785.4748    7096.5986    9747.8216     240.4239   -66.505686    35.608372   -3484.0817 
18582000    267.90484   -4850.8404   -4314.9976   -4850.8404            0    8097.9639     17.97618    22.780209    19.332429    7916.6517    9432.2186    7491.5685    7370.1044    472.70204   -109.76046    702.56696   -3380.0371 
18583000    265.11243   -4798.8361   -4268.5784   -4798.8361            0    7239.5115    17.760867    22.991158    19.542978    7980.2364    7686.2962    8062.4418    5969.7965     711.1526   -704.32618    495.33096   -3426.0183 
18584000    272.98594   -4796.5272   -4250.5216   -4796.5272            0    8134.6334    18.054372    22.832442    19.288279    7951.1185    9927.7483    7591.2555    6884.8964    1996.8986   -1236.4404    1040.5096   -3307.2384 
18585000    262.20924   -4833.0484   -4308.5975   -4833.0484            0    8535.5438    18.063838    22.609654     19.46669    7950.5297    8722.3736    9632.9509    7251.3069      577.738    97.634596     519.3742   -3318.8985 
18586000    258.72112   -4814.4846   -4297.0104   -4814.4846            0    9445.5547    18.237812      22.6695    19.157608     7920.561    8910.3717    9584.2481    9842.0444    1557.0124    2386.3669    541.40083   -3205.9236 
18587000    262.00334   -4825.6805   -4301.6414   -4825.6805            0     8622.252    17.970813    22.742324    19.451274    7949.6977    9627.9942     9966.668    6272.0938    83.669874    -530.4099   -1986.8784   -3301.9932 
18588000    272.78177    -4832.333   -4286.7358    -4832.333            0    7934.0206    18.088257    22.735411    19.292989    7934.1253    7069.8001    7341.0577     9391.204   -452.77085   -1484.5068    665.96666   -3368.6817 
18589000     247.4047    -4823.954   -4329.1141    -4823.954            0    7921.8071    17.864313    22.598463    19.599026    7912.2449    10789.306    7824.8801    5151.2355    575.78381   -888.48183   -1756.4028   -3415.0011 
18590000    257.89759   -4821.9305   -4306.1034   -4821.9305            0    7474.7858    18.200622    22.701126    19.303212    7975.5974    7098.5512    7828.0096    7497.7966    460.85838   -494.19536    174.79176   -3436.6669 
18591000    257.47253    -4822.176   -4307.1991    -4822.176            0    7047.1946    17.960424    22.801528    19.467603    7972.4722    7281.2947    7548.9405    6311.3487    1134.9386   -749.69763   -448.36237   -3487.8195 
18592000    249.53803   -4803.3227   -4304.2158   -4803.3227            0    9399.5653    17.870483    22.959694    19.295628     7917.012    9685.1198    9902.2687    8611.3073    1664.4731   -496.14638    558.68566   -3218.9279 
18593000     269.8978   -4802.1349   -4262.3059   -4802.1349            0    9017.7749    17.918241    22.821758     19.37176    7921.6118    9912.4137    8709.0797    8431.8313   -426.89195    614.41352    734.72314   -3220.4952 
18594000    257.00197   -4803.8544   -4289.8188   -4803.8544            0     8362.053    17.857564    23.005272     19.29349    7926.1154    7030.1285    9588.0045     8468.026    116.04598     678.3551   -355.13289   -3323.2134 
18595000    251.40572   -4833.5079   -4330.6655   -4833.5079            0    9671.3431    17.956044    22.919435    19.185946    7895.8298    9509.1755    10109.441    9395.4124    2954.8812    1139.1589    414.95454   -3216.9854 
18596000    269.33147   -4817.7219   -4279.0257   -4817.7219            0    9875.9068    17.765085    22.768008    19.428254    7858.2544    10261.684    10742.382    8623.6547    952.17391    314.38965   -388.79291   -3147.2016 
18597000    260.00663   -4801.8485   -4281.8032   -4801.8485            0    7691.3727    17.881908    23.243281    19.151408    7959.9807    7261.9194    7038.2855    8773.9131    134.16272     -365.729    1492.1772   -3388.9259 
18598000    268.05176    -4833.738   -4297.6013    -4833.738            0    7210.1337    17.948223    22.944391    19.368056    7975.9795    8012.6368    7044.5475    6573.2168   -1082.8454   -139.61406   -1013.3358   -3458.9079 
18599000    268.66489   -4828.9784   -4291.6154   -4828.9784            0    8798.6151     17.92206    23.009968    19.219749    7925.9559    9254.3228    8386.2488    8755.2738    1255.4941    762.67379   -157.05829   -3274.5665 
18600000    260.87755   -4808.3038   -4286.5165   -4808.3038            0    9811.5084    17.849255    22.948109    19.270573    7893.3545     10115.91    9702.4621    9616.1527   -115.65946   -53.311782    168.46068   -3157.0502 
18601000     255.5131   -4842.8018    -4331.744   -4842.8018            0    8607.0134    17.873691    22.949775    19.343169    7934.5134    10825.224    7834.3713    7161.4451   -126.18369   -1238.0668    739.27583   -3335.7685 
18602000    264.72776   -4815.3778   -4285.8896   -4815.3778            0    9642.4721    17.907353    22.823605    19.381582    7921.4532     10265.11    9306.2062    9356.1003    142.59987     1555.009    848.34178   -3171.9308 
18603000     261.5458   -4795.2382   -4272.1143   -4795.2382            0    9497.4527    18.096715    22.807367    19.255647    7947.5456     8307.301    10534.379    9650.6782   -931.64141    2349.4522     934.8975   -3171.2949 
18604000    251.09481   -4778.0044   -4275.7837   -4778.0044            0    7454.8862    17.995175    22.790115    19.443171    7973.8798    9232.6674    6739.0459    6392.9454     210.6686   -812.88639    2013.1054   -3408.8486 
18605000    281.40037   -4802.6405    -4239.805   -4802.6405            0    6866.1322    17.910635    22.978676    19.455938    8007.3381    6528.0904    6550.5685    7519.7377   -575.32838   -580.20447    174.01446   -3437.9862 
18606000    253.27866   -4832.4216   -4325.8329   -4832.4216            0    6855.2248    17.890051    23.118237    19.336925    7997.4899    8466.2356    5717.9012    6381.5375    492.94169   -462.62495    422.60006   -3526.2725 
18607000    273.11508    -4833.216   -4286.9521    -4833.216            0    8366.8805    17.919847    23.053753    19.169146    7919.1525    9216.0242    7136.8272    8747.7901   -1195.4217   -528.64462   -1323.1689   -3320.6383 
18608000    275.27417   -4820.8748   -4270.2925   -4820.8748            0    6727.7382    17.644012    23.274152    19.406988    7969.4683    8692.6844    6861.2714    4629.2587   -231.58415    699.14808   -757.88132   -3488.3509 
18609000    258.74634   -4816.3284   -4298.8037   -4816.3284            0    8541.6006     17.99945    23.154647    18.998655    7918.0867    8381.2387     9195.211     8048.352   -79.202829    1291.7071    1449.5222   -3312.4439 
18610000    278.39945   -4823.7027   -4266.8694   -4823.7027            0     8328.557    17.806067    23.112445    19.288671    7938.0934    8077.0465    8645.7267    8262.8977   -152.13188    314.24733    1138.9983   -3302.6811 
18611000    271.08828   -4793.1181    -4250.908   -4793.1181            0    8136.8809    17.950388    23.122156    19.187201    7963.6798    8048.5381    6914.7782    9447.3265   -1078.4486    501.70696   -202.62934   -3305.8736 
18612000    264.87209   -4802.2595   -4272.4826   -4802.2595            0     9792.884    17.747435    23.085147    19.286605    7901.7637    10096.965    10010.255    9271.4317   -821.42825   -39.438766   -1083.1424   -3143.9593 
18613000    256.58357   -4827.0296   -4313.8307   -4827.0296            0    7419.8539    17.706712    23.286088    19.311405    7962.4795    8196.5074    6335.7745    7727.2796    619.86891   -182.04135     1348.746   -3452.2032 
18614000    266.01845   -4810.8993   -4278.8295   -4810.8993            0    8316.8616    17.845028     23.21523    19.186116    7948.3556    7439.6411    7452.0101    10058.934    751.02576    257.73018    290.32732   -3314.7505 
18615000     267.2839   -4832.1619    -4297.561   -4832.1619            0    8130.2234    17.898777    23.184089    19.197995    7966.5314    8064.9081    8273.5273    8052.2348    1555.0119    98.079049    704.49027   -3352.9617 
18616000    264.41312   -4846.1415   -4317.2826   -4846.1415            0    8704.2631    17.810664    23.393637    18.990478    7912.5006    8994.3887    8792.5376     8325.863    -465.3189     1542.498     -1857.45    -3312.848 
18617000    255.87707   -4837.8582   -4326.0724   -4837.8582            0    7513.7182    17.796958    23.180741    19.290012    7958.0304    7517.4546    8361.9298    6661.7702   -1848.1308    674.05025   -523.78445   -3454.0325 
18618000    255.76175   -4826.2571    -4314.702   -4826.2571            0    9095.5027    17.874585     23.07326    19.185056    7912.3958    9314.4074     8035.292    9936.8088   -207.44847   -353.38212    584.20554    -3265.134 
18619000    251.41107   -4818.1127   -4315.2595   -4818.1127            0    8245.4056    17.885309    22.985464    19.291326    7930.7053    9850.3755    7590.1609    7295.6804   -1374.7599    217.64495    1200.0493    -3361.586 
18620000    267.43856   -4830.1173   -4295.2071   -4830.1173            0    8056.0855    17.856137     23.00273    19.345427    7945.9387    9477.5013    7927.5248    6763.2303   -1327.1944    -280.6252   -1318.4882   -3361.6408 
18621000    266.15996   -4847.5281   -4315.1753   -4847.5281            0    7816.1966    17.945006    22.884897    19.395186    7965.0136    9348.4285    6978.2892    7121.8721    23.310607   -1853.1862    3028.8048   -3407.2338 
18622000     270.0742   -4806.9651   -4266.7834   -4806.9651            0    8707.0821    18.030369    22.852297    19.233562    7924.9077    7449.2702    10270.461    8401.5151    -79.93068   -127.48039    -1011.817    -3260.448 
18623000    258.99177   -4811.2719   -4293.2563   -4811.2719            0    8778.1491    17.789884    22.879437    19.516921    7943.8269    11345.124    8395.2995    6594.0239      2163.77   -25.533726    1665.5118   -3276.2852 
18624000    264.90829   -4814.0967   -4284.2474   -4814.0967            0    7917.1515    18.051773    23.106409    19.086754    7961.3072    6026.0188    8868.4766     8856.959    1663.5414    452.70985   -312.31875   -3365.0067 
18625000    276.09555   -4806.9685   -4254.7433   -4806.9685            0    9114.7398    17.660551    23.243081     19.24803    7901.0397    9224.9699    10101.996    8017.2533    254.72217    997.05075    554.40436   -3204.4649 
18626000    261.06788   -4821.2054   -4299.0374   -4821.2054            0    9382.5315    17.661861    23.362793    19.177937    7913.3997    11194.448    7754.4684    9198.6784   -18.303854   -580.26995    498.55567   -3216.2105 
18627000     260.2797   -4816.4342   -4295.8426   -4816.4342            0    8520.8802    17.718066    23.289317    19.104674    7883.3845    9031.8302    8499.3652    8031.4451    1818.0719   -509.95966   -77.767746   -3316.1879 
18628000    251.64348   -4804.5489   -4301.2308   -4804.5489            0    10061.523    17.846712    23.141535    19.118407    7895.9079    11073.208     8685.774    10425.585    692.33362   -1558.0425   -1103.2576   -3142.6091 
18629000    269.57919   -4793.5255   -4254.3338   -4793.5255            0    7312.4569    18.020487    23.083946    19.247942    8006.8351    4540.6101     8518.287    8878.4736   -261.94907    663.79218    1467.6121   -3400.4474 
18630000    254.19445   -4835.1078   -4326.6875   -4835.1078            0    8547.8713    17.696182    22.963228    19.499367    7923.7914    9532.9735    8938.9498    7171.6906    693.31348    1228.5014    929.63246   -3338.8923 
18631000     252.8619   -4834.5057   -4328.7507   -4834.5057            0    7966.2655     18.12871     22.84861    19.135357    7926.1673    8459.0313    8804.0474    6635.7177   -1083.2014    -882.9505   -820.79786   -3407.8901 
18632000    266.52193   -4793.7843   -4260.7075   -4793.7843            0     7137.255    18.015163    22.741612     19.55147    8010.1167    7034.1416    7704.5917    6673.0316   -408.68571   -85.398941    757.66271   -3426.9381 
18633000    265.08286   -4795.7289   -4265.5305   -4795.7289            0    7878.4961    18.133746     22.67871      19.4129    7983.5547    7380.0661    8581.9585    7673.4636    652.54783    916.17777    2030.8461   -3348.2218 
18634000    253.26412   -4826.2642   -4319.7046   -4826.2642            0    8819.9331    18.070563    22.471318    19.566717    7945.4449    8855.6415    9384.6941    8219.4636   -218.58854   -521.53609   -1863.4592   -3297.6846 
18635000     253.0097    -4802.317   -4296.2663    -4802.317            0     10658.39     18.06977      22.5751    19.294391    7870.7001    9520.5068     11155.51    11299.153     456.1652    298.05173    947.23136   -3072.8314 
18636000    267.16663   -4799.5995   -4265.2333   -4799.5995            0    9144.2513    18.061849    22.522872    19.512407    7937.7394    9339.2026    11119.776    6973.7756    612.17764    154.32378   -914.93819   -3206.6601 
18637000    254.74983   -4814.7084   -4305.1773   -4814.7084            0    9394.5216    18.026346    22.660573    19.358767     7907.811    9165.6228    10323.843    8694.0988    1024.2536    341.16983    216.63217   -3221.7324 
18638000    253.28932   -4804.0012   -4297.3913   -4804.0012            0    10592.931    18.033656    22.539768    19.452142    7906.7984    10477.229    11439.695    9861.8699    250.74962    439.82839    1678.0644   -3075.8934 
18639000    265.69287   -4848.0909   -4316.6724   -4848.0909            0    9381.7192     18.00171    22.606621    19.351449    7875.2237    8127.4402    10225.693    9792.0247    431.07948    1144.7363   -52.663191   -3239.1626 
18640000    260.48169   -4799.2724   -4278.2769   -4799.2724            0    7832.7634    18.028736    22.857696    19.358249    7977.4446    7765.0466    7666.7066    8066.5369   -696.87079   -29.047184    1044.3859   -3366.9909 
18641000    249.01852   -4787.6077   -4289.5398   -4787.6077            0    10502.035    17.844668    22.781314    19.353824    7867.8131    10582.071    10735.869    10188.166    622.91011   -621.32649   -251.12368   -3084.4945 
18642000    268.95717   -4826.6977   -4288.7501   -4826.6977            0    7797.2032    18.041064    22.846671    19.304588     7956.931    7610.1355    7791.2938    7990.1804   -1225.3178    3.9331497   -1521.2785    -3383.934 
18643000    254.25629   -4809.4512   -4300.9072   -4809.4512            0    10087.971    17.973145    22.773662    19.328352    7911.3711    11424.736    9884.4308    8954.7475    571.24354    453.27239   -600.23694   -3136.9648 
18644000    260.16705   -4814.1297   -4293.7634   -4814.1297            0    6089.3959     17.91678    22.914893    19.540428    8022.5397     5983.722    7796.8484    4487.6174   -862.35368   -355.98366   -238.72356    -3581.301 
18645000    265.44045   -4825.5587    -4294.645   -4825.5587            0    9162.7271    17.938068    22.980521    19.192431    7911.6223    8491.9384    8488.2368    10508.006   -656.57669   -640.27761    2322.9003    -3237.423 
18646000    267.11804     -4835.93   -4301.6609     -4835.93            0    7926.1334     17.80653    22.963716    19.368354    7919.7992    7431.5768    9002.0687    7344.7547    950.79311    285.86647    660.56504   -3386.1755 
18647000    246.12077   -4820.4782   -4328.2063   -4820.4782            0    6985.3283    17.882309    23.147215    19.254837    7970.0711    6250.9556    6602.9415    8102.0878   -109.16915   -53.523331   -25.759706   -3516.2644 
18648000    256.21014   -4814.8095   -4302.3576   -4814.8095            0      9701.77    17.886046    22.960574    19.318727    7933.6966    9698.8186    10169.094    9237.3975    2252.8523    170.67354    1120.8031    -3179.816 
18649000    274.66217   -4798.3847   -4249.0264   -4798.3847            0     9565.319    17.869031    22.992737    19.218727    7896.1665    11275.932     8614.325    8805.6994   -1708.0323    633.14844   -1380.1209   -3147.5083 
18650000    252.55078   -4825.4693   -4320.3366   -4825.4693            0    7284.6085    17.912896    23.010563    19.312715    7960.4272    7487.1838    6929.2699    7437.3717    314.52186    569.11522    1881.2079   -3474.6324 
18651000    278.58892   -4789.4288   -4232.2165   -4789.4288            0    9337.9927    17.892253    22.992526      19.2691    7927.0779     8353.808    9039.9326    10620.237     1298.315    180.63217   -1888.0426   -3152.6671 
18652000    269.09776   -4822.3858   -4284.1571   -4822.3858            0    7278.8069     17.82798     23.10866    19.249695    7930.5035    5033.4946    8112.5628    8690.3632   -469.01316   -363.13903   -245.73414   -3442.3029 
18653000    267.29691   -4809.3452   -4274.7184   -4809.3452            0    7589.6901    17.935891     22.90696    19.333352    7943.2378    7520.8951    8443.9656    6804.2097   -1880.3064    307.98009   -247.18871   -3395.4985 
18654000    274.91127   -4850.6977   -4300.8412   -4850.6977            0    8898.3537    17.949919    22.786772    19.351119    7915.0087    9142.7667    8693.2755    8859.0188    1762.4192    2237.6605   -194.64484    -3273.684 
18655000    255.39387   -4810.5912   -4299.7719   -4810.5912            0    9224.8998     18.13647    22.776943    19.224241    7941.4061    8669.2048    9272.6825    9732.8122   -230.87802   -1023.2853    2711.3828   -3231.3693 
18656000    255.91226   -4839.8949   -4328.0388   -4839.8949            0     7759.002     17.77761     22.79388    19.579177    7933.8879    9008.5778    7820.4954    6447.9329   -2044.9904   -1157.5168   -1530.2092   -3430.2631 
18657000    268.68325   -4832.2348   -4294.8351   -4832.2348            0    10097.734    18.079363    22.748847    19.215156     7902.899    9263.2905    11947.666    9082.2461   -806.65577    92.400532   -231.57938    -3131.014 
18658000    254.85342   -4831.7864   -4322.0481   -4831.7864            0     9106.634    17.999382     22.80216    19.298539    7920.5986    9192.9777    8997.4702     9129.454    422.19883    -691.5872    57.156179   -3270.1061 
18659000    256.70725   -4830.2367   -4316.7905   -4830.2367            0    8644.8193    18.172963    22.656743    19.289598    7942.3024    11137.959      7691.44    7105.0588   -1369.9709    786.20099   -728.46268   -3315.4582 
18660000    270.90919   -4821.9747   -4280.1228   -4821.9747            0    6968.6826    17.934459    22.720172    19.565962    7972.6208    6472.9793    8189.4275    6243.6409   -260.19454   -1263.7646    824.38364   -3469.8567 
18661000    257.25304   -4830.2954   -4315.7576   -4830.2954            0    7443.4066    18.098478    22.713397    19.343202    7951.5634    3810.0549    9907.2292    8612.9356    223.87764    509.43562    1328.4281     -3452.58 
18662000    268.26216   -4833.2757   -4296.7182   -4833.2757            0    8097.8149    18.009986    22.632403    19.526498    7959.1813    9747.2263    9172.3386    5373.8796    162.21927   -58.462543    376.70904   -3356.7522 
18663000    249.23201   -4794.3089   -4295.8141   -4794.3089            0    7234.2253    18.366898     22.51853    19.212996    7946.4097    5739.6583    7993.5114    7969.5062     1673.639   -426.66377    631.17781   -3457.4381 
18664000    255.24161   -4807.8496   -4297.3349   -4807.8496            0    9468.8831    17.887798    22.703062    19.443569    7896.1847    9609.2473    8888.0208    9909.3811    528.86922   -1707.6604   -1142.4807   -3206.9196 
18665000    263.00309   -4824.4125   -4298.3739   -4824.4125            0    10249.895     17.91343    22.850754    19.219807    7867.3472    10516.699    9238.7032    10994.282    1734.8537    -298.1402   -198.18572   -3122.3298 
18666000    273.86732   -4802.4316   -4254.6631   -4802.4316            0    8305.9909     17.84039    23.143062    19.321199    7977.3606    8887.5841    7945.4004    8084.9882     1312.353   -686.63614   -1202.3457   -3288.3307 
18667000    265.04612    -4832.332    -4302.207    -4832.332            0    9071.9861     17.98534    22.979742    19.123277    7903.6213    7001.5975      10434.8    9779.5604    814.91983     1514.382    -859.0137   -3256.5136 
18668000    266.80755   -4808.4333   -4274.7852   -4808.4333            0    8643.2381    17.976315    22.874646    19.313306    7941.6666    6731.1653    9208.5428    9990.0062    452.57561   -530.83725   -204.64421   -3273.7162 
18669000    280.18283   -4811.0512   -4250.6509   -4811.0512            0    9350.1486    17.939281    22.796752    19.400914    7934.1461    8473.2456    10526.485     9050.715    1488.2573   -434.36321    1030.2913   -3168.7323 
18670000    264.92451   -4807.0358    -4277.154   -4807.0358            0    8148.2553    18.189542    22.513746    19.485362    7979.5424    8489.1256    8931.7665    7023.8738   -423.26375   -417.61208   -2351.8761   -3328.9135 
18671000    273.43805    -4818.111   -4271.2011    -4818.111            0    9311.9687    18.135913    22.662667    19.272402    7921.1147    8618.9689    9898.1326    9418.8047    1220.3563    537.34145    1307.9551   -3195.4701 
18672000    260.62802   -4823.8014   -4302.5132   -4823.8014            0     8251.344    17.884222    22.859581    19.376002    7921.4098    8819.9949    8844.8406    7089.1963   -105.72884   -60.435943    190.43857   -3349.2714 
18673000    255.11892   -4825.6706   -4315.4013   -4825.6706            0     7595.796    18.048741    22.941086     19.21484    7956.0525    8178.3266     8581.522    6027.5395   -980.45019     203.4821     1161.358   -3434.0545 
18674000    245.95543   -4795.3438   -4303.4025   -4795.3438            0    9311.4202    17.842588     22.89952    19.416915    7933.4932    10425.921    10893.395    6614.9444   -848.08335     1468.524    649.86751   -3226.0539 
18675000    271.03002   -4839.9138   -4297.8203   -4839.9138            0    8440.6073    18.030651    22.893423    19.178195    7916.4391    9453.4136    8765.4071    7103.0013   -1697.7844   -144.43997    171.15763   -3323.3256 
18676000    265.23445   -4831.4984   -4300.9967   -4831.4984            0    8842.7908    17.827328    22.993825    19.302476    7912.4415    10233.358    7961.6094    8333.4052    1350.5362   -569.94556    1557.5556   -3280.5842 
18677000    263.68364   -4806.3617   -4278.9618   -4806.3617            0    6850.3456    17.730174     23.44249    19.286029    8016.0342    7306.7689    5854.2933    7389.9746    1223.3122   -466.21399    526.58062   -3478.1178 
18678000     267.0487   -4811.8256   -4277.6953   -4811.8256            0    10009.196    17.872424     23.01931    19.133553    7871.7518    10147.031    9326.6041    10553.953      598.404    1176.3881   -111.94303   -3128.6253 
18679000    272.21189    -4804.514   -4260.0565    -4804.514            0    9557.9908    17.751461    23.212001    19.170127     7898.992    9597.1493    8894.9029     10181.92    1343.1685   -333.23923    1363.0076   -3158.9885 
18680000    271.09491   -4811.6099   -4269.3866   -4811.6099            0    9863.5016    17.744469     23.08045     19.30134    7904.8699    10781.067    10053.624    8755.8133     -59.9459    174.29903   -1651.1608   -3132.2786 
18681000    257.49645   -4821.8293   -4306.8046   -4821.8293            0    9218.1254    17.840721    23.054727    19.255344    7919.9725    8135.3596    8958.0676    10560.949    1677.1977    -932.3453    1205.5065    -3242.068 
18682000    255.36911   -4798.4001   -4287.6304   -4798.4001            0    8886.1913    17.829969    23.050549    19.307824    7935.3334    8766.2153    9448.9092    8443.4493   -1214.9098    516.50988    -860.9202    -3259.243 
18683000    258.50616   -4834.1463    -4317.102   -4834.1463            0    8643.6437    17.933935    22.919959     19.29654    7931.7473    7886.8748     8506.698    9537.3585    15.675242    195.49125    2153.1752   -3317.2365 
18684000    248.08766   -4823.0513   -4326.8453   -4823.0513            0    7977.8291    18.016426    23.026358    19.164554    7950.4665    9489.8588    6885.6621    7557.9663   -1617.1636    856.05172   -1068.9699   -3401.8208 
18685000      280.138   -4821.9423   -4261.6317   -4821.9423            0    9923.5873    17.801957    22.879563    19.391033    7897.9871    10746.857    10016.509    9007.3964      232.729   -280.82179    209.75413   -3118.5928 
18686000    269.73198   -4817.0923    -4277.595   -4817.0923            0    7042.1099    17.920069    23.135953    19.222607    7969.6521    6313.5585     6053.515    8759.2563    1254.4781   -1447.6137    1214.0511   -3459.0962 
18687000    267.92098   -4846.6088   -4310.7337   -4846.6088            0    8905.0705    17.795274    22.879637     19.44715    7917.8957     10013.72    8890.0138    7811.4778   -2326.8745    1244.9992    2029.9728   -3282.4261 
18688000    270.09872   -4804.7276   -4264.4968   -4804.7276            0    9434.9424    17.825831    23.078596    19.261203    7923.9655    8119.7532    8495.6136     11689.46   -1385.1754   -1158.4672    -438.7249   -3174.1674 
18689000    261.14114   -4841.3491   -4319.0346   -4841.3491            0    9875.1772    17.792443     23.16827    19.142529    7890.9358    9598.3343    10305.386    9721.8117    469.62636     -135.048   -116.15467   -3182.5873 
18690000    262.14753   -4779.1188   -4254.7913   -4779.1188            0     7296.329    17.809631    23.367608    19.217332    7997.6478    9498.1368    6749.9389    5640.9114   -1083.2431    735.06265    1148.0841   -3403.7658 
18691000    274.03973   -4820.3709   -4272.2576   -4820.3709            0    9286.9249    17.739623    23.244686    19.101767    7876.6511    9771.8887    8079.3074    10009.579   -1215.7902    358.90144    152.28281   -3205.4418 
18692000    266.05068   -4805.3745   -4273.2403   -4805.3745            0    7314.5289    17.759322    23.581501    19.014646    7963.1716    7985.7097     6848.687    7109.1901   -89.419232     392.5707    849.06548   -3423.7697 
18693000    266.20853   -4820.9021   -4288.4522   -4820.9021            0    10254.621    17.740181    23.233652    19.162999    7898.3978    10753.302    9506.0238    10504.537    208.36346    930.01839    1533.9392   -3107.2221 
18694000    267.54571   -4816.7651   -4281.6406   -4816.7651            0    8170.1727    17.941197    23.205034    19.058256    7934.4492    7789.4937    8089.4923     8631.532    32.025846   -221.66359     1762.859   -3336.2225 
18695000    263.47304   -4809.4233   -4282.4447   -4809.4233            0    8605.2834    17.616921    23.373292    19.282136    7939.7169    10744.781    7062.8109    8008.2583   -434.89485   -247.58296    126.39246   -3286.0163 
18696000    267.15032   -4844.2072   -4309.8735   -4844.2072            0    7704.4696    17.936222    23.305508    19.090152    7979.9275     8147.802    6246.1559     8719.451   -565.06274   -405.54542   -1550.2409   -3413.2346 
18697000    257.58451    -4809.247   -4294.0462    -4809.247            0    9787.8782    17.821386    23.148834     19.14321    7897.4221    9842.7699    10015.571    9505.2937   -1520.7766     1172.289    1361.2413   -3166.7194 
18698000    264.62916   -4818.6773   -4289.3863   -4818.6773            0    8321.8837    17.779234    23.394369    19.129221    7956.4931    9508.2898    6431.3822    9025.9791   -1152.5832    140.78584   -753.62681   -3323.7375 
18699000    262.14488   -4791.0433   -4266.7211   -4791.0433            0    9316.8556    17.797135    23.268334    19.165534    7936.6333    9049.7096    8572.9809    10327.876   -291.16918    561.83347   -526.60445   -3188.3169 
18700000    268.99039    -4839.924     -4301.91    -4839.924            0    7701.7396    17.923339    23.029706    19.299784    7966.3571    6648.1951     8172.925    8284.0988     891.7373    737.61459    926.34755    -3407.113 
18701000    263.99177   -4825.3989   -4297.3828   -4825.3989            0    7620.1826    17.923646    22.935675    19.345012    7952.5592    8576.5931    6666.8378    7617.1169    756.30728   -1244.1923   -335.12761   -3413.5946 
18702000    259.63123   -4820.2024   -4300.9079   -4820.2024            0    8819.5545    17.914589    23.005107    19.256617    7936.1722    7451.7742    8811.5654    10195.324   -513.85558    710.03067   -751.74582   -3280.1245 
18703000    255.99137   -4833.8024    -4321.788   -4833.8024            0    6987.3026    18.057966    22.935177    19.200076    7951.9544    6777.2772    6111.8883    8072.7422    1653.4526    504.05171    1804.2576   -3511.4629 
18704000    253.50982   -4832.0782   -4325.0272   -4832.0782            0    9100.3197    17.918927    22.822854    19.292922    7890.0537    10866.223    8983.7085    7451.0274    1491.5021    1500.5746    580.31687   -3277.8685 
18705000     262.7146   -4836.1524   -4310.6907   -4836.1524            0    9960.0101    17.928055    22.813808     19.23838    7868.6357    11303.867    8940.2991    9635.8643    76.349279   -345.28308    1427.6973     -3167.72 
18706000     257.5346   -4818.5085   -4303.4075   -4818.5085            0    9295.5298    17.820891    22.795001    19.533818    7935.1684    11460.224    8973.9388    7452.4262   -1347.2664   -744.89811     477.1764   -3227.6703 
18707000    264.68117   -4827.1087   -4297.7137   -4827.1087            0    7011.4509    18.119799    22.812685    19.285773    7971.9915    5183.8784    7579.4054    8271.0689     238.8467    827.35286    -68.40962   -3482.5392 
18708000    269.16578   -4805.5564   -4267.1915   -4805.5564            0    8539.0582    17.968064    22.864073    19.263366    7913.8361    7486.5593    9436.9678    8693.6473   -2320.7728   -212.28711   -2242.0165   -3281.6546 
18709000    261.10695   -4810.8309   -4288.5847   -4810.8309            0    8838.7443    18.124923    22.771009    19.259476    7948.8247    6803.2835    10027.464     9685.485    1013.0992    314.30294    350.99733   -3263.9493 
18710000    273.48672   -4823.4768   -4276.4695   -4823.4768            0    7583.4832    17.925729    22.812114    19.460057    7957.6802    7645.5012    8145.4067    6959.5416   -2092.3401   -1346.0885   -1749.7703   -3396.3714 
18711000    278.27171   -4837.9307   -4281.3529   -4837.9307            0    10245.279    18.002893    22.678245    19.269272    7867.1433    11040.086    10274.764    9420.9866   -1299.4888   -522.39551    218.48182   -3105.8689 
18712000     257.5675   -4796.4451   -4281.2783   -4796.4451            0    9762.0592    17.929268    22.867852    19.257177    7895.5166    9616.8947     10237.95    9431.3324    189.13567   -485.81833      -1458.9   -3157.1966 
18713000    260.77311   -4822.8121   -4301.2336   -4822.8121            0      7157.12    18.040564    22.981241     19.30986    8005.7629    4545.8364    8458.5664    8466.9572    1267.7867    174.17319     -484.566   -3465.5981 
18714000    252.36202   -4795.2465   -4290.4913   -4795.2465            0    7962.6805    17.942273    22.951314    19.321601     7956.611    6677.1364    8439.7344    8771.1707    927.85771    801.04501    998.74378   -3366.5097 
18715000    259.93381   -4859.0346   -4339.1349   -4859.0346            0    8151.9833    17.790922    23.082814    19.244503    7903.0349    9087.8203    6896.0494    8472.0802   -319.00512   -1273.6363    199.17399   -3399.5563 
18716000     269.3009   -4834.3024   -4295.6674   -4834.3024            0    8591.2934     17.77814    23.046161    19.326797     7918.534    9370.8963    9180.7406    7222.2433   -173.30922   -1003.5048    29.865384    -3303.513 
18717000    251.91968   -4838.6184   -4334.7479   -4838.6184            0    9775.4966    17.917161    22.999925    19.156238    7894.1584    9268.1679    9978.1184    10080.203    861.42336   -204.97979   -722.59626   -3209.3125 
18718000    262.15032   -4794.4226   -4270.0896   -4794.4226            0    8345.1734    17.934108    23.208291    19.137893    7965.5735    8186.9419    8377.9657    8470.6127    1667.7777    1249.1719   -1616.2227   -3300.6331 
18719000    269.95001   -4830.3781   -4290.4447   -4830.3781            0     8377.633    17.794591    23.324225    19.077028    7917.8262    8555.0242    7708.3413    8869.5336   -1156.0044    1244.4659   -245.48892   -3323.0512 
18720000    271.15916    -4862.501   -4320.1491    -4862.501            0    10051.661    17.666477    23.291388    19.113521      7864.77    10015.131    9774.0188    10365.833    1077.7916    768.83547    109.01557   -3167.2276 
18721000    258.85161   -4814.2542    -4296.519   -4814.2542            0    8707.6208    17.892897    22.966127    19.295379    7929.0606    9344.9916    8013.4329    8764.4379    124.99726   -32.921778    322.57811    -3289.594 
18722000     258.4519   -4862.8215   -4345.8857   -4862.8215            0    6162.1834    17.990952    22.864293    19.401815     7980.944    6629.7204    5208.2735    6648.5564    448.39529     159.8031    622.42444   -3628.6453 
18723000    257.60857   -4838.8373   -4323.5883   -4838.8373            0    8490.1697    18.143626    22.766061    19.152233    7911.0001    6809.0523    9098.2975    9563.1593   -1153.3257    1718.9222    -1694.623    -3344.045 
18724000    257.61474   -4805.2142   -4289.9529   -4805.2142            0    8903.4549    17.844483    22.951655    19.338429    7920.2547    8363.4596    9103.0601    9243.8451   -1639.5245   -1285.2456   -1523.4654   -3261.5256 
18725000    265.07452   -4842.6865   -4312.5047   -4842.6865            0    9816.2244     17.84424    22.996229    19.251227    7899.7452    9163.8653    9569.1823    10715.625    556.96046   -360.11762    781.50245   -3181.5806 
18726000    259.85388    -4814.263   -4294.5231    -4814.263            0    7502.0574    17.993345    22.998612    19.300835    7987.1091    7927.5033    7469.1659    7109.5029   -1347.9102    809.58078   -1423.1366    -3420.655 
18727000    284.64842   -4796.3475   -4227.0155   -4796.3475            0    9825.0292    17.910061    22.955991    19.270719    7923.0253    8116.7296    11757.384    9600.9739    1686.3453    721.44215    1855.8544   -3091.7412 
18728000    278.04397   -4817.4391   -4261.3168   -4817.4391            0    8522.6507     17.86415     23.06733    19.205594    7914.2079    9749.2696    8580.2341    7238.4484   -1091.6659   -730.15925   -2.0747639   -3277.6273 
18729000    264.58365   -4807.3401   -4278.1402   -4807.3401            0    9260.7357    17.953912     22.88051    19.337308    7943.6629    10512.374    9963.5854    7306.2474    71.817557    707.41336   -12.796726   -3205.2823 
18730000    276.03585   -4797.2214   -4245.1156   -4797.2214            0    7500.3587    17.983521    22.941658    19.301152    7963.1111    8189.4803    6012.8941    8298.7017   -1005.6646   -993.94034   -2024.9229   -3374.0704 
18731000    262.91808   -4791.4783   -4265.6097   -4791.4783            0    9908.9717    17.839897    22.917046    19.380485     7923.474     9717.062    9409.9802    10599.873   -60.819141    705.85252    -839.2045   -3120.5711 
18732000    275.49536   -4840.7651   -4289.7403   -4840.7651            0    8185.5524    17.868768    23.140823    19.186319    7933.5047    9614.6746    6840.8441    8101.1383    344.69259   -1237.7469     1213.271   -3342.6553 
18733000    261.42719   -4823.3802   -4300.4936   -4823.3802            0    8437.2552    17.863355    22.934416    19.360221    7931.6041    8333.5827    8491.3155    8486.8676   -1805.3432    137.20694    -1113.385   -3324.5199 
18734000    266.60691   -4797.3079   -4264.0612   -4797.3079            0    8220.3551    17.840709    23.282516    19.154116    7956.1714    8347.1596    7386.2667     8927.639   -762.58852    -172.6316    277.28192    -3310.232 
18735000    266.09581    -4851.713   -4319.4885    -4851.713            0    8319.2938    17.841899    23.425185      18.9292     7911.455    8554.3477    6757.5933    9645.9403   -1658.3389    -1066.624    804.47414   -3359.6046 
18736000    248.87065   -4804.1219   -4306.3499   -4804.1219            0    7745.3463    17.707746    23.188077    19.348766    7944.7692     6443.471    8655.1784    8137.3893   -707.88328   -778.24925   -265.08398   -3408.9252 
18737000    256.35284    -4816.632   -4303.8947    -4816.632            0    8883.0381    17.877003    23.249853    19.018177     7904.671    8761.1569    7725.2104    10162.747   -1512.3075    3.8883799   -1259.2909   -3279.8445 
18738000    275.65464   -4829.1792   -4277.8359   -4829.1792            0    9351.9178    17.732869    23.110897    19.338224    7925.2395    9446.7763    8539.3652    10069.612   -125.30983    492.72864    191.57765   -3196.9273 
18739000    248.69874   -4790.0785   -4292.6503   -4790.0785            0    7617.9309    17.934504    23.301223    19.069793    7969.1879     6772.413    7741.7334    8339.6462    251.73029   -93.240647    1340.7947   -3407.2759 
18740000    266.76483   -4797.1162   -4263.5536   -4797.1162            0    9559.2931    17.656282    23.197345    19.267893     7891.722     9838.044    8504.6736    10335.162   -954.44751   -943.47951      127.784    -3163.349 
18741000    259.37517   -4827.6246   -4308.8422   -4827.6246            0    9201.9801    17.844237    23.187841    19.054883    7884.3266    8728.4945    9558.2129    9319.2329    508.41705   -339.43927    698.95377   -3250.7542 
18742000    268.12661   -4839.2085   -4302.9222   -4839.2085            0    7233.6373    17.732833    23.271633    19.370334     7993.594    8812.0733     5894.592    6994.2467    1395.0366    35.466912    660.70703   -3459.6365 
18743000    257.47366   -4776.5584   -4261.5793   -4776.5584            0    8930.0449     17.74537    23.255976    19.275894      7954.89    9750.3488     7765.721    9274.0647   -984.73472    41.415778    233.33385   -3225.5699 
18744000    280.22892   -4830.4253   -4269.9328   -4830.4253            0     8842.145    17.888862    23.142546    19.095972    7905.6142        10278    7567.3098     8681.125    40.738374   -417.12467   -1624.2457   -3250.4753 
18745000    271.71629    -4803.061   -4259.5949    -4803.061            0    6873.7913    17.653034      23.3578    19.365332    7985.0242    8904.2646    5143.2514    6573.8578   -315.93939   -915.69126   -1190.0641   -3459.1186 
18746000     262.0543    -4822.446    -4298.305    -4822.446            0    7320.9708    17.907124    23.269084    19.100452    7958.8219    7415.8558    8013.9897    6533.0669   -663.60462    1186.8494   -332.93458   -3448.5508 
18747000    270.54118   -4833.3354   -4292.2197   -4833.3354            0    9367.9894    17.772243    23.122988     19.25856    7914.2543    10689.571    7777.1832    9637.2144   -1105.1569   -670.77973   -719.83737   -3210.9543 
18748000    276.97128    -4812.321   -4258.3442    -4812.321            0    8735.3719    17.740222     23.29777    19.101051    7894.6097     6818.027    8457.0469    10931.042    498.03808    836.52015   -93.972245    -3252.599 
18749000    255.71331   -4825.3928   -4313.9346   -4825.3928            0    6944.5086    17.827574    23.226634    19.315235    7997.9467    7836.0747    6572.3746    6425.0767   -435.94332    985.45439   -2136.2762   -3503.9143 
18750000    263.40336   -4785.1422   -4258.3029   -4785.1422            0    8585.5647    17.880847    23.270979    19.071774    7935.8571    9299.4109    7914.1415    8543.1416    2034.6546   -171.30979    970.54612   -3264.6411 
Loop time of 511.825 on 64 procs for 250000 steps with 1008 atoms

Performance: 84.404 ns/day, 0.284 hours/ns, 488.448 timesteps/s
99.2% CPU use with 64 MPI tasks x 1 OpenMP threads

MPI task timing breakdown:
Section |  min time  |  avg time  |  max time  |%varavg| %total
---------------------------------------------------------------
Pair    | 28.711     | 32.68      | 36.388     |  33.1 |  6.38
Bond    | 0.27381    | 0.2833     | 0.29591    |   0.9 |  0.06
Kspace  | 231.62     | 241.13     | 252.26     |  37.0 | 47.11
Neigh   | 4.3781     | 5.1014     | 6.0571     |  22.3 |  1.00
Comm    | 100.46     | 111.15     | 120.85     |  55.6 | 21.72
Output  | 0.85913    | 0.85956    | 0.86496    |   0.1 |  0.17
Modify  | 111.03     | 113.78     | 117.22     |  17.2 | 22.23
Other   |            | 6.84       |            |       |  1.34

Nlocal:        15.7500 ave          22 max          12 min
Histogram: 4 7 8 13 9 9 7 4 1 2
Nghost:        2483.92 ave        2506 max        2455 min
Histogram: 3 0 3 7 12 10 11 8 8 2
Neighs:        5265.03 ave        7420 max        3947 min
Histogram: 5 8 6 16 13 5 8 1 0 2

Total # of neighbors = 336962
Ave neighs/atom = 334.28770
Ave special neighs/atom = 2.0000000
Neighbor list builds = 9713
Dangerous builds = 0

unfix		3
unfix		2
unfix		1

write_data	data.final.${pid}
write_data	data.final.0
System init for write_data ...
PPPM initialization ...
  extracting TIP4P info from pair style
  using 12-bit tables for long-range coulomb (../kspace.cpp:340)
  G vector (1/distance) = 0.38380431
  grid = 24 30 32
  stencil order = 5
  estimated absolute RMS force accuracy = 0.0019065694
  estimated relative force accuracy = 5.7415772e-06
  using double precision FFTW3
  3d grid and FFT values/proc = 3825 384
Last active /omp style is kspace_style pppm/tip4p/omp
WARNING: Not all mixed pair coeffs generated from mixing. Use write_data with 'pair ij' option to store all pair coeffs. (../write_data.cpp:312)

write_restart   restart.lmp.${pid}
write_restart   restart.lmp.0
System init for write_restart ...
PPPM initialization ...
  extracting TIP4P info from pair style
  using 12-bit tables for long-range coulomb (../kspace.cpp:340)
  G vector (1/distance) = 0.38380431
  grid = 24 30 32
  stencil order = 5
  estimated absolute RMS force accuracy = 0.0019065694
  estimated relative force accuracy = 5.7415772e-06
  using double precision FFTW3
  3d grid and FFT values/proc = 3825 384
Last active /omp style is kspace_style pppm/tip4p/omp
Total wall time: 0:08:35
