LAMMPS (30 Jul 2021)
Processor partition = 1
  using 2 OpenMP thread(s) per MPI task
using multi-threaded neighbor list subroutines
variable        pid world 0 1
variable        phase world IceIh IceIII

shell cd ${phase}
shell cd IceIII
include Restart.lmp
echo both
log log.lammps
#include		in.partitions
include		in.temp
variable        temperature equal 240.22
variable	tempDamp equal 100.0
include		in.pressure
variable        pressure equal 1489.2
variable        pressureDamp equal 1000.0 # This is 1 ps
include		in.seed
variable        seed equal 745823

units		real
atom_style	full

read_restart	restart.lmp.${pid}
read_restart	restart.lmp.1
Reading restart file ...
  restart file = 30 Jul 2021, LAMMPS = 30 Jul 2021
  restoring atom style full from restart
  orthogonal box = (-0.14920990 -0.036092531 -0.16832386) to (20.149211 20.036094 20.868322)
  4 by 2 by 4 MPI processor grid
  restoring pair style lj/cut/tip4p/long/omp from restart
  restoring bond style harmonic/omp from restart
  restoring angle style harmonic/omp from restart
  972 atoms
  648 bonds
  324 angles
Finding 1-2 1-3 1-4 neighbors ...
  special bond factors lj:    0        0        0       
  special bond factors coul:  0        0        0       
     2 = max # of 1-2 neighbors
     1 = max # of 1-3 neighbors
     1 = max # of 1-4 neighbors
     2 = max # of special neighbors
  special bonds CPU = 0.002 seconds
  read_restart CPU = 0.007 seconds
include 	in.setup
variable	out_freq equal 1000
variable	out_freq2 equal 10000
variable	out_freq3 equal 1000

timestep	2.0

neigh_modify    delay 7 every 1

include		in.tip4p
# This is TIP4P/Ice

# create groups ###
group ox type 2
324 atoms in group ox
group hy type 1
648 atoms in group hy

# set charges - beside manually ###
set group ox charge -1.1794
Setting atom values ...
  324 settings made for charge
set group hy charge 0.5897
Setting atom values ...
  648 settings made for charge

# ### TIP3P Potential Parameters ###
pair_style lj/cut/tip4p/long/omp 2 1 1 1 0.1577 8.5
pair_coeff 1 1*2 0.000 0.000
pair_coeff 2 2 0.21084 3.1668
bond_style  harmonic
bond_coeff  1 450 0.9572
angle_style harmonic
angle_coeff 1 55 104.52
kspace_style pppm/tip4p/omp 1.0e-5
pair_modify tail yes

thermo          ${out_freq}
thermo          1000
thermo_style    custom step temp pe etotal epair emol press lx ly lz vol pxx pyy pzz pxy pxz pyz enthalpy

restart 	${out_freq3} restart.lmp.${pid} restart2.lmp.${pid}
restart 	1000 restart.lmp.${pid} restart2.lmp.${pid}
restart 	1000 restart.lmp.1 restart2.lmp.${pid}
restart 	1000 restart.lmp.1 restart2.lmp.1


include         in.dump
dump            myDump all atom ${out_freq2} dump.water.${pid}
dump            myDump all atom 10000 dump.water.${pid}
dump            myDump all atom 10000 dump.water.1
dump            myDump2 all dcd ${out_freq2} dump.dcd
dump            myDump2 all dcd 10000 dump.dcd
dump_modify     myDump append yes
dump_modify     myDump2 append yes


variable natoms 	equal  "count(all)"                        # NUMBER ATOMS
variable H      	equal  "enthalpy/v_natoms"                 # ENTHALPY-per-atom
variable Vol      	equal  "vol/v_natoms"                 # volume-per-atom
fix AVG all 		ave/time ${out_freq} 1 ${out_freq} v_Vol v_H file vol_enthalpy.dat
fix AVG all 		ave/time 1000 1 ${out_freq} v_Vol v_H file vol_enthalpy.dat
fix AVG all 		ave/time 1000 1 1000 v_Vol v_H file vol_enthalpy.dat


timer           timeout 02:55:00 every 1000
New timer settings: style=normal  mode=nosync  timeout=02:55:00

fix 		1 all shake 1e-6 200 0 b 1 a 1
Finding SHAKE clusters ...
       0 = # of size 2 clusters
       0 = # of size 3 clusters
       0 = # of size 4 clusters
     324 = # of frozen angles
  find clusters CPU = 0.000 seconds
fix             2 all nph aniso ${pressure} ${pressure} ${pressureDamp}
fix             2 all nph aniso 1489.2 ${pressure} ${pressureDamp}
fix             2 all nph aniso 1489.2 1489.2 ${pressureDamp}
fix             2 all nph aniso 1489.2 1489.2 1000
fix             3 all temp/csvr ${temperature} ${temperature} ${tempDamp} ${seed}
fix             3 all temp/csvr 240.22 ${temperature} ${tempDamp} ${seed}
fix             3 all temp/csvr 240.22 240.22 ${tempDamp} ${seed}
fix             3 all temp/csvr 240.22 240.22 100 ${seed}
fix             3 all temp/csvr 240.22 240.22 100 745823


run             250000
PPPM initialization ...
  extracting TIP4P info from pair style
  using 12-bit tables for long-range coulomb (../kspace.cpp:340)
  G vector (1/distance) = 0.37156955
  grid = 24 24 25
  stencil order = 5
  estimated absolute RMS force accuracy = 0.0035115047
  estimated relative force accuracy = 1.0574792e-05
  using double precision FFTW3
  3d grid and FFT values/proc = 3458 576
Last active /omp style is kspace_style pppm/tip4p/omp
Neighbor list info ...
  update every 1 steps, delay 7 steps, check yes
  max neighbors/atom: 2000, page size: 100000
  master list distance cutoff = 10.8154
  ghost atom cutoff = 10.8154
  binsize = 5.4077, bins = 4 4 4
  1 neighbor lists, perpetual/occasional/extra = 1 0 0
  (1) pair lj/cut/tip4p/long/omp, perpetual
      attributes: half, newton on, omp
      pair build: half/bin/newton/omp
      stencil: half/bin/3d
      bin: standard
Setting up Verlet run ...
  Unit style    : real
  Current step  : 2500000
  Time step     : 2
  Walltime left : 2:54:59.95
Per MPI rank memory allocation (min/avg/max) = 10.19 | 10.19 | 10.20 Mbytes
Step Temp PotEng TotEng E_pair E_mol Press Lx Ly Lz Volume Pxx Pyy Pzz Pxy Pxz Pyz Enthalpy 
 2500000    248.03934   -4703.1632   -4224.7985   -4703.1632            0    2483.8257    20.298421    20.072186    21.036646     8571.038    2830.6268    2662.4114    1958.4388   -23.179349    267.90431    508.98206   -3914.3207 
 2501000    247.00755   -4752.3487   -4275.9738   -4752.3487            0    1570.8686     20.05844    20.053119    21.217298    8534.3249    2324.5779    2444.6921   -56.664063   -69.334313    207.52115   -212.51279   -4080.4567 
 2502000    245.46777   -4736.1573   -4262.7521   -4736.1573            0    2253.6806    19.901704    20.257845     21.18735    8542.0115     3611.917    1706.4036    1442.7213    156.01344   -1225.1588    -596.0366   -3981.9965 
 2503000    234.42475   -4724.5586   -4272.4507   -4724.5586            0    967.76098    20.103421    20.214836    20.965487     8520.109    487.00873    761.28249    1654.9917    71.363826    283.26174    295.62276   -4152.1996 
 2504000    227.41534   -4742.2668   -4303.6771   -4742.2668            0    1684.3175    20.168863    20.107982    20.900693    8476.3831    1020.0533    2463.8796    1569.0197    769.15071   -319.37046    191.96209   -4095.4629 
 2505000    238.14891   -4726.1816   -4266.8914   -4726.1816            0    2248.5999    19.937318    20.119847    21.135832    8478.3387     1621.798    3731.5387    1392.4629   -630.18138    1065.2182   -540.16394   -3988.8568 
 2506000    249.33364   -4729.8589    -4248.998   -4729.8589            0    1638.8797    19.978995    20.232834    21.190748    8565.9718    3502.3726    518.45281    895.81361    474.31106   -381.61905   -63.949024   -4044.2594 
 2507000    236.76793   -4718.7542   -4262.1273   -4718.7542            0    2148.9612    20.417459    19.956474    20.875184     8505.813    912.47871    4036.7457    1497.6593   -357.40366    249.34646    1511.2063   -3995.5518 
 2508000    245.27106   -4730.7163   -4257.6905   -4730.7163            0    910.17124    20.196924    20.287173    20.869964    8551.2277    230.49953    1001.4922     1498.522    106.83586    747.51068    599.39343   -4144.1822 
 2509000    241.49495    -4702.523   -4236.7797    -4702.523            0    2418.6335     19.98975    20.167927    21.179528    8538.5654     3977.722    1658.2631    1619.9155   -695.44368   -27.208649   -361.86617   -3935.5964 
 2510000    247.12095   -4727.8118   -4251.2182   -4727.8118            0     21.01619     20.20322    20.139371    21.251381    8646.7649    502.34673   -392.82603   -46.472126   -33.394586   -640.06752    161.83319    -4248.568 
 2511000    243.14077   -4737.7111   -4268.7937   -4737.7111            0    2092.2167    20.312474     20.03282    20.836359    8478.6506    678.06533    2598.7567    2999.8281     -26.2048    202.10814    135.37241    -4010.086 
 2512000    248.91958   -4698.5285   -4218.4662   -4698.5285            0   -264.58138    20.143405    20.335606    21.037024    8617.3614     648.1981   -885.11658   -556.82567    395.03981    404.40138    178.72412   -4251.7175 
 2513000    258.12098   -4727.3243   -4229.5162   -4727.3243            0    712.40642    20.077695     20.37376    21.056384    8613.2848   -236.98123    499.96759    1874.2329   -239.62695   -1069.3213    128.70566   -4140.0266 
 2514000    242.44332   -4748.3943    -4280.822   -4748.3943            0    2392.2701    19.896578    20.243195    21.142615    8515.6175    2394.8029     2356.519    2425.4883   -272.53934   -883.42873   -853.90186   -3983.7222 
 2515000    242.18925   -4742.9264    -4275.844   -4742.9264            0    58.252989    20.078432    20.177902     21.36709    8656.6761   -107.72701    450.92754   -168.44157   -304.55841    43.922074    597.91351   -4268.4896 
 2516000    241.86324   -4729.6556    -4263.202   -4729.6556            0    2569.3944    20.256787    20.052699    20.870307    8477.5868    3209.8087    1625.1872    2873.1873   -204.92882    1316.1745   -604.00273     -3945.53 
 2517000     238.3231   -4726.4952   -4266.8691   -4726.4952            0    1666.9135    20.081436     20.23469    21.054279    8555.2297     2056.001    2300.3738    644.36589    943.76811   -1281.8406    995.19371   -4058.8895 
 2518000    237.24553   -4751.1026   -4293.5547   -4751.1026            0    756.02801    20.052222    20.267976    21.271549    8645.1392    1669.9527   -122.07048    720.20178    281.83401   -1478.0389   -327.93866   -4198.2343 
 2519000    237.52802   -4730.4627     -4272.37   -4730.4627            0    2140.9664     20.16704    20.091753    21.056719    8531.9964    1770.0054    2878.6702    1774.2236   -374.68691   -766.53995    662.21613   -4005.9686 
 2520000    239.10992   -4730.2771   -4269.1335   -4730.2771            0    1297.3786    20.231664    20.195865    20.902974    8540.8705    1290.9933    1542.0145     1059.128   -909.33497    106.43662    457.61045   -4107.5323 
 2521000    237.72929   -4756.8026   -4298.3217   -4756.8026            0    2194.5553    20.069044    20.328438    20.716801    8451.8817    970.92017    2949.7771    2662.9685   -82.521361    407.80308    506.18943   -4027.8163 
 2522000    228.77928   -4711.1126   -4269.8925   -4711.1126            0    1388.6427    20.156181    20.221038    21.233712    8654.4133    810.72211    1538.2369    1816.9691   -260.40933   -250.33557    1979.9549   -4094.6239 
 2523000    233.85563   -4748.3308   -4297.3206   -4748.3308            0    1494.8451    20.068385    20.053617    21.289952    8568.0072    2620.7677    696.44741    1167.3201     -296.434    730.68336   -1038.5419   -4110.5313 
 2524000    255.78468   -4706.5184   -4213.2161   -4706.5184            0    286.11505    20.241068    20.239315    21.061468    8628.1539    1519.8786   -233.18002   -428.35339    350.79693    58.151379   -348.60606   -4177.2134 
 2525000     244.2395   -4708.3165   -4237.2801   -4708.3165            0    1126.2348    20.286807    20.139551    21.021016    8588.4974    721.56437    1457.1368    1200.0033    463.95607    131.33061    874.08493   -4096.2142 
 2526000    251.49546   -4718.3979   -4233.3677   -4718.3979            0    1109.9466    20.078994    20.117216    21.198771    8562.8929    1970.7555    986.63357    372.45086   -9.3226205   -1147.6603    126.06982   -4094.7564 
 2527000    255.20059   -4720.6041   -4228.4283   -4720.6041            0    3046.2068    20.165238    20.228265    20.988097    8561.2085    3917.3966    2326.6319    2894.5917   -153.99729   -397.17857    1181.3905   -3848.0898 
 2528000    233.75085   -4730.0517   -4279.2435   -4730.0517            0    1526.1694    20.241901    20.189135    20.823444    8509.8437    314.80469     2337.486    1926.2174   -224.46486    87.717547   -1006.5288   -4089.8347 
 2529000    239.30485   -4724.4984   -4262.9788   -4724.4984            0   -109.37056    20.135331    20.340603     21.15151    8662.9134    1161.5198   -1420.8553   -68.776157   -762.57485   -206.48904   -159.80086   -4276.7967 
 2530000    243.68703   -4714.1277   -4244.1568   -4714.1277            0    391.00215    20.069975    20.186031    21.186856    8583.4976    50.144805    1353.0569    -230.1953    188.94868    527.73455   -756.94719   -4195.2106 
 2531000    243.39977    -4696.637   -4227.2201    -4696.637            0    1305.7522    20.199072    19.878521    21.485187    8626.8973    2248.0987    1751.6212   -82.463423     237.7563   -99.832629    -45.56613   -4062.9376 
 2532000    231.24007   -4700.6889    -4254.723   -4700.6889            0    2089.2949    20.170989    20.256659    20.996661    8579.1694     2189.894    2116.5986    1961.3922     210.3105   -441.20495    1194.7107   -3993.3138 
 2533000    244.19496   -4728.3724   -4257.4219   -4728.3724            0    4970.2516    20.302293    19.934147    20.683249     8370.695    3093.4401    6602.9001    5214.4146   -144.27287    24.260309    -94.17854   -3650.6635 
 2534000    230.17817   -4721.4459   -4277.5279   -4721.4459            0    1692.8258    20.264119    19.832463    21.146047    8498.3295     2064.247    2253.7229    760.50744   -413.96522    574.96634   -385.52912   -4067.7201 
 2535000    223.32681   -4743.4614   -4312.7568   -4743.4614            0    483.11733     20.06929    20.155015    21.060036    8518.7182    2062.8036   -1100.3316    486.88006    144.71223   -552.23895    361.08215   -4252.7359 
 2536000    229.29694   -4733.0927   -4290.8742   -4733.0927            0    2366.3454     20.30442    20.058811    21.031515    8565.7684    794.94161    2898.1611    3405.9336    346.62107    509.61144    531.89451   -3995.2634 
 2537000    242.12587   -4737.8262   -4270.8661   -4737.8262            0    2128.9274    20.069575    19.988578     21.20752    8507.6568    1870.2797    2481.2418    2035.2605   -72.251095    252.35744   -142.99276   -4006.7185 
 2538000    240.38131   -4708.3416    -4244.746   -4708.3416            0    2152.4724    20.042002    20.252764     21.15034    8585.0486    1432.9381    3450.0182    1574.4609   -222.68057    417.55229   -59.060286   -3975.2476 
 2539000    234.92301   -4744.8689   -4291.8001   -4744.8689            0     1806.853    20.230321    20.050194    20.911399    8482.1204    1301.8462    1977.1504    2141.5622   -676.60338    271.17716   -709.78245   -4068.2869 
 2540000     246.5922   -4747.2333   -4271.6595   -4747.2333            0    436.07372    20.286063    20.153381    20.904686    8546.5204    345.74772     43.29351    919.17992   -16.937054    841.17234   -329.03364   -4217.3063 
 2541000    231.07428   -4709.4754   -4263.8292   -4709.4754            0    1912.4799    20.149225    20.186406    20.989891    8537.4374    1798.0387    2472.7712    1466.6298    78.312441   -517.26495    1793.2586   -4025.7067 
 2542000    240.14895   -4737.2979   -4274.1505   -4737.2979            0    2628.6063    19.839838    20.062158    21.356337    8500.4622    4580.4624    1651.0643    1654.2921   -608.99116    617.87869   -400.78057   -3948.2808 
 2543000    239.07973   -4717.8319   -4256.7465   -4717.8319            0   -520.73808     20.20633    20.220662    20.960093    8563.9875   -995.40644    -1392.481    825.67324    538.31178    131.49798    384.90296   -4321.7851 
 2544000    235.66445   -4751.2332   -4296.7345   -4751.2332            0    2548.6209    20.075401    20.253402    20.845234    8475.5712    4290.0413    1937.4011    1418.4202   -845.01156    2575.9037    933.02129   -3981.7059 
 2545000    228.72729   -4745.7018    -4304.582   -4745.7018            0    799.00624    20.301314    20.075547    21.092388    8596.4135      1370.85    -368.8698    1395.0385    163.34713   -354.64674    121.05513   -4204.4106 
 2546000    231.00888   -4730.1995   -4284.6795   -4730.1995            0    2896.9626    20.094538    20.158206    21.128096    8558.3543    3192.7094    1906.8132    3591.3653   -810.86333   -1588.0328    -74.24146   -3923.0956 
 2547000    245.12575   -4745.3028   -4272.5572   -4745.3028            0    2372.3935    19.946041    20.334176    20.973948     8506.746    2915.7282    108.65334    4092.7988   -459.39089   -432.39508   -1373.3814   -3978.2329 
 2548000    242.32027     -4769.22    -4301.885     -4769.22            0    1145.9153    20.168955    20.075478    21.071997    8532.0815    1379.6338    1111.7338    946.37827    832.96501    1092.5192   -452.40508   -4159.2969 
 2549000    241.36119    -4731.249   -4265.7636    -4731.249            0    1619.8692    20.110742    20.093186    21.201134    8567.1428    1491.4461    2406.4285    961.73321   -110.43324    1041.6876    189.57967   -4063.3723 
 2550000    234.52172   -4735.8537   -4283.5588   -4735.8537            0    1420.2448    20.093804    20.234609    20.961302    8522.6616    3557.0039   -340.12561    1043.8562      1052.08    266.69419   -1026.1198   -4107.0305 
 2551000    256.10254    -4696.008   -4202.0927    -4696.008            0    1008.0933    20.154199    20.200197    21.217243    8637.9385    2737.0831    491.59972   -204.40298   -243.98931   -1094.4689   -649.66637   -4075.0976 
 2552000    240.42806   -4752.5232   -4288.8375   -4752.5232            0    2886.8159    19.842005    20.068331    21.242585    8458.7109    4952.4284    2045.5775    1662.4418   -635.73904     1815.419   -58.877965   -3932.7152 
 2553000    232.24937   -4753.1105    -4305.198   -4753.1105            0    2279.2561    20.042235    20.105335    21.072408    8491.2502    2025.0283    3633.1289    1179.6111    128.47312     399.3628    188.24314   -4022.9437 
 2554000    243.74573   -4710.1026   -4240.0184   -4710.1026            0    3454.2782    20.071885    20.103783    20.862928    8418.6255    2131.0902    3561.8414    4669.9029    115.80652   -78.748191     48.75815   -3815.9125 
 2555000    235.30475   -4716.2846   -4262.4796   -4716.2846            0    2064.1779    20.134335    20.184421    21.029111    8546.2283    2138.9122    1409.4174    2644.2041    288.53004   -468.53673     494.9665   -4005.2046 
 2556000    258.45286   -4725.3664   -4226.9183   -4725.3664            0    1928.8512    19.838266    20.148428    21.318602    8521.2558    3503.8519    1200.9474    1081.7544   -121.22471    217.15707    33.016011   -3987.2127 
 2557000    232.58431   -4748.2588   -4299.7004   -4748.2588            0    1051.1232    20.337307    20.079194    20.989916    8571.3735    270.64387    1627.0623    1255.6635   -8.3284406    138.84658   -998.77836   -4168.3051 
 2558000    233.27642    -4718.861   -4268.9678    -4718.861            0    1712.5206    20.106682    20.181455    21.176178     8592.914    3087.7753    545.11786    1504.6686    173.55058    226.79335   -83.023004   -4054.3567 
 2559000     238.0596   -4732.0611   -4272.9431   -4732.0611            0    1379.1287    20.071019    20.074099     21.33026    8594.1246    1488.1022    2295.5199    353.76392     532.6032    854.87031   -625.38788    -4100.088 
 2560000    243.90042   -4748.8442   -4278.4617   -4748.8442            0    2510.4033    20.337985    20.077611    20.974737    8564.7855    1404.0633     3514.984    2612.1626   -337.99442   -548.07908   -1110.6733   -3964.8907 
 2561000    244.79967   -4733.6249   -4261.5081   -4733.6249            0    1995.2799    20.261502    19.948909    21.074665    8518.2715    2348.3926    2565.6834    1071.7636   -781.92396   -87.496785    22.156701    -4013.634 
 2562000    248.89858   -4709.2891   -4229.2673   -4709.2891            0    469.27135    20.171972    20.110207    21.177656    8590.9816    1809.7384   -1087.5937    685.66926     66.00165    513.95455   -387.61716    -4170.472 
 2563000    252.22564   -4727.5364    -4241.098   -4727.5364            0    2475.8974    20.164634    20.153605    20.898381    8492.8948    3246.9713    1538.7865    2641.9344   -785.58413     636.1419   -287.64118    -3934.433 
 2564000    244.82729   -4737.7738   -4265.6037   -4737.7738            0    798.01678    20.459269     19.90491    21.093731    8590.2088   -762.29753    2472.8224    683.52543   -282.24142    1657.3874     1275.072   -4165.6287 
 2565000    251.48786   -4769.7841   -4284.7686   -4769.7841            0     2207.819    20.155887    20.148574    21.004548    8530.2071    3159.5091    1115.6627    2348.2852    47.149973    272.62983    517.86912   -4010.1064 
 2566000    249.92774   -4719.5619   -4237.5553   -4719.5619            0    1409.0648    20.227158    20.182707    20.943473    8549.9381    1984.8837   -75.516956    2317.8278    13.055979   -757.85349   -122.06515    -4061.856 
 2567000    229.66193   -4730.0449   -4287.1225   -4730.0449            0    556.23681    20.197367    20.102968    21.148044    8586.6772   -470.77106    3251.9861   -1112.5046   -468.27484   -206.05516    581.23958   -4217.4662 
 2568000      242.312   -4743.1009   -4275.7818   -4743.1009            0    1006.8892     20.19195    19.945259    21.270762    8566.4519    2719.6633   -903.43532    1204.4398   -910.10795   -157.09871   -6.3964895   -4149.9882 
 2569000    237.29726   -4759.1307    -4301.483   -4759.1307            0    2121.8268     20.07012    19.946176    21.364144    8552.5399    3359.8309    2452.2621     553.3872   -543.06297    206.55429   -284.91866   -4036.8275 
 2570000    247.20714   -4731.9152   -4255.1555   -4731.9152            0    558.26733    20.199604    20.145189    21.028235    8556.9113   -1039.7243    1445.0332    1269.4931   -352.38302    752.85526    258.44898   -4185.4872 
 2571000    242.08251   -4728.2039   -4261.3274   -4728.2039            0    3058.9267    19.925563    20.067233    21.228128    8488.0867    3163.4201    3970.2264    2043.1334    152.81974   -1079.7402    212.79643   -3882.6628 
 2572000    254.61759   -4698.4056   -4207.3542   -4698.4056            0    18.778979     20.19996    20.234568    21.085676    8618.5057    918.67178   -469.93263   -392.40221    860.18625   -1197.8105   -609.65587   -4204.9938 
 2573000    232.57803   -4744.6503    -4296.104   -4744.6503            0    2857.3529    20.135151    20.234846     20.70424    8435.5634    1758.6227    2707.7098    4105.7263    354.44956    1367.9361      161.732   -3944.5809 
 2574000    236.61494   -4750.1512   -4293.8194   -4750.1512            0    2415.0831    20.132022    20.030468    21.135284    8522.8842    2046.5654    3058.7495    2139.9342   -342.74226    712.95356   -1079.1028   -3993.6305 
 2575000    230.40489   -4724.8002    -4280.445   -4724.8002            0    1330.2548    20.133378    20.046919    21.177503    8547.4986    1702.4516    544.43876    1743.8739    10.684284   -680.49799    915.27991   -4114.6201 
 2576000    241.34197   -4738.1063   -4272.6581   -4738.1063            0    481.14749    20.047109    20.239359    21.047903    8539.9893     1292.648   -236.82638    387.62083    75.686537    540.20416   -1344.9235   -4212.7326 
 2577000    227.83024   -4757.2251   -4317.8353   -4757.2251            0    760.76303    20.239627    20.281971    20.988371    8615.7165    1290.4516    403.86206    587.97541   -78.286965   -371.14561   -155.75266   -4222.2444 
 2578000    248.63422   -4719.8495   -4240.3375   -4719.8495            0    2811.5798     20.19157    20.023074    21.095668    8528.9215    2917.3353    2658.6595    2858.7446   -126.50151    1530.4301    282.11822   -3890.6176 
 2579000    245.04471    -4762.608   -4290.0186    -4762.608            0    1058.1999    19.990307     20.29305    21.183718    8593.4779    2439.9406   -676.06475     1410.724   -783.05655    1377.0078    525.00633   -4157.3975 
 2580000    247.62129    -4730.268   -4252.7095    -4730.268            0    2972.8466    20.171593    20.065358    21.029011    8511.4972    1551.0443    3359.9796    4007.5157   -347.19825    1187.8435   -836.19185   -3883.6857 
 2581000    254.33242   -4746.7542   -4256.2528   -4746.7542            0    684.24735     20.31427    19.992288    20.965706    8514.7759     57.65436    1506.1296    488.95809   -11.045668    370.25572   -19.787315   -4171.2835 
 2582000    236.37636   -4756.7168   -4300.8452   -4756.7168            0    1288.1763    20.268766    20.227456    21.048339     8629.515   -6.3037516    1740.2765    2130.5563   -311.53158    51.136798    814.33474   -4138.7248 
 2583000    237.53505   -4715.0964   -4256.9901   -4715.0964            0    1465.2812    20.185653    20.123311    21.065127    8556.7002    155.07718    2621.0803    1619.6859   -691.39875   -581.66754    1254.8217   -4074.1366 
 2584000    248.24354   -4707.7127   -4228.9542   -4707.7127            0     1909.126    20.061595    19.987989    21.357739    8564.2598    2431.3819    2857.1457    438.85054    345.72988    710.76932    13.190307   -3990.5025 
 2585000    235.46544   -4739.3712   -4285.2563   -4739.3712            0    1058.0493    20.123554    20.103271    21.194502      8574.22    828.55985    1653.6924    691.89552    146.47984     1420.703    -1426.645   -4152.9513 
 2586000    236.68828   -4731.0179   -4274.5447   -4731.0179            0    2376.0453    20.136238    20.239838     20.99406    8556.2174     2920.876    1555.4409    2651.8189   -135.12647    247.88893    1103.3798   -3978.0531 
 2587000    236.54101   -4743.1265   -4286.9373   -4743.1265            0    920.91603    20.377829    20.165556    20.927975    8599.9381   -599.58084    2090.0792    1272.2498   -220.53672   -547.73388   -937.52443   -4171.4348 
 2588000    241.69308   -4727.8003   -4261.6749   -4727.8003            0    2512.2633    19.878932    20.274868    21.163935    8529.9703    2844.4331    1879.4204    2812.9365   -845.28692    1016.7013   -112.62728   -3949.1471 
 2589000    232.36485   -4765.5771   -4317.4419   -4765.5771            0     1778.218    20.080559    20.068062    21.322466    8592.4828    2871.5001    1492.1038    971.04998    232.88681    434.45949    1265.2434   -4094.6089 
 2590000    237.90508   -4736.4816   -4277.6616   -4736.4816            0    2882.5671    20.195224    20.041257    21.075781    8530.1626    2217.5151     3618.598    2811.5882   -431.57664    424.56825    30.178114   -3919.0597 
 2591000    230.82872   -4725.9754   -4280.8028   -4725.9754            0    905.98322    20.299026    20.101199    20.990215    8564.7375   -559.84922    2089.2285    1188.5704   -1052.5525    130.03269   -873.58181   -4167.6383 
 2592000    247.40529    -4756.366   -4279.2241    -4756.366            0    1295.7147    20.384915    20.117974    20.853802    8552.2105    701.65288    449.58095    2735.9103   -519.57975    142.74036    87.466663   -4117.6158 
 2593000    246.38944   -4729.2191   -4254.0363   -4729.2191            0    1158.5582    20.072455    20.141819    21.245594    8589.5033    3642.7586   -727.40066    560.31662     850.1434   -706.21828   -1252.8334   -4108.9048 
 2594000    240.15699   -4737.1976   -4274.0346   -4737.1976            0    1543.2836    20.107219    20.125763    21.090674    8534.8289     2351.353    1408.8893    869.60839    172.90958   -554.26275    1294.9115   -4081.9395 
 2595000     229.7134   -4756.1307   -4313.1091   -4756.1307            0    2219.6857    20.129498    20.025746    21.106352    8508.1439    957.22069    3917.3278    1784.5088    576.76749    168.37053    65.057473   -4037.6848 
 2596000    242.73604   -4719.0688    -4250.932   -4719.0688            0    3435.3025    19.973041     20.14723    20.976298    8440.8928    3502.9227    2931.8492    3871.1357   -205.84098   -687.48818    1262.3241   -3828.0402 
 2597000    240.53547   -4731.0642   -4267.1713   -4731.0642            0    461.75899    20.189552    20.142391    21.108863    8584.2538    709.69393    874.34185    -198.7588   -695.35729    189.50398   -845.27181   -4209.3625 
 2598000     233.2992   -4736.6187   -4286.6816   -4736.6187            0    1948.7194     20.19444    20.139152    20.846829    8478.3827    1687.1943    1824.7851    2334.1786   -1369.7946    497.00021    -75.08199   -4045.7253 
 2599000    233.77362   -4722.8827   -4272.0306   -4722.8827            0    2335.3003    20.079788    20.192197    20.962792    8499.4692    3434.2189    1804.8995    1766.7826    239.12234    653.73507   -108.30503    -3982.556 
 2600000    245.02718    -4741.885   -4269.3295    -4741.885            0     1883.558    20.338252    19.958524    21.235955    8620.1304   -369.39903    3346.8086    2673.2644    254.97634    849.26571    726.06517   -4032.5366 
 2601000    226.90079   -4748.4963   -4310.8991   -4748.4963            0    994.34874    20.058776    20.208456    21.017984    8519.7845    2829.8875    -290.7787    443.93745   -126.37756   -117.49517    -169.8461   -4187.3489 
 2602000    253.20755   -4769.0658   -4280.7337   -4769.0658            0     956.8145    20.307738    20.008325    21.032769    8546.1151    1251.9702    1338.9566    279.51671   -302.59068   -21.948523    517.77708   -4161.4799 
 2603000    237.71925   -4715.7104   -4257.2488   -4715.7104            0    1084.3611    20.141836    20.123962    21.189651    8588.8759    184.11517    1603.2278    1465.7404   -451.97612   -826.04464    104.38686   -4121.4218 
 2604000    250.90407   -4734.4839   -4250.5943   -4734.4839            0    1412.1204    20.123443    19.924508    21.233951     8513.746   -261.21227    3373.7401    1123.8332   -160.27764    1193.3743   -771.47388   -4075.2594 
 2605000    259.61687   -4732.9898   -4232.2968   -4732.9898            0    1274.7598    20.204302    20.279283    21.087819    8640.2859    2299.9239     425.7569    1098.5987    -93.36915    283.92914    329.55187   -4071.6647 
 2606000      227.548    -4726.552   -4287.7065    -4726.552            0   -804.44048    20.356769    20.060224    21.036038     8590.305    -712.2111    54.503358   -1755.6137    374.24579    1043.8157    696.36341   -4388.4875 
 2607000    245.80762   -4741.8103   -4267.7496   -4741.8103            0    1512.3244    20.201267    20.140392     20.92826     8514.902      1217.25      1690.51    1629.2131   -515.59639    820.98218   -654.22323   -4079.9475 
 2608000    251.40638   -4733.1881   -4248.3298   -4733.1881            0    1632.3687    20.172689    20.057822    21.256012    8600.6117     661.6285    3527.5348    707.94293    102.37406    1035.0434    413.56863     -4043.58 
 2609000    243.74298   -4739.7446   -4269.6658   -4739.7446            0    1698.6331    20.119804    20.080786     21.27653    8596.1755    706.36756    2952.5172    1437.0145    198.88981    1621.4382   -239.06993   -4056.7142 
 2610000    254.05701   -4730.2793    -4240.309   -4730.2793            0    1723.0167      20.2206    20.225794    20.878713    8538.9276    1430.9894    1405.4198    2332.6409   -679.44062    1721.0728    1592.5829   -4025.7392 
 2611000    255.05884   -4742.5731   -4250.6707   -4742.5731            0    676.16052    20.200608    20.268926    20.983657    8591.6454   -392.43567    1725.2122    695.70507    586.30217   -394.23636    128.62286   -4165.9476 
 2612000    237.43727   -4714.1823   -4256.2646   -4714.1823            0    1526.2478     20.13616    20.116355    21.138711    8562.5761    1330.0074    1374.0439    1874.6921   -80.643916   -971.10599    762.75503   -4065.6722 
 2613000    239.04124   -4759.8336   -4298.8224   -4759.8336            0    2528.1218    20.081007    20.050635    21.308013    8579.3933    2800.5984    3320.4649    1463.3019    304.37297   -320.11614   -1030.9744   -3982.4997 
 2614000    251.45792   -4746.7174   -4261.7596   -4746.7174            0     604.2024    20.230751    20.109698    20.952788    8524.3126    967.69084    400.21459    444.70176   -805.85115    664.68011    -36.39453   -4186.6462 
 2615000     238.8183   -4730.9978   -4270.4167   -4730.9978            0    1308.7169    20.084909    20.220772    21.084723    8563.1883    950.00907    1490.0875    1486.0542   -336.51179   -236.71708    128.60886   -4106.9771 
 2616000    226.03792   -4732.3516   -4296.4185   -4732.3516            0    326.81226    19.965175    20.234708    21.309573    8608.8434   -127.97096    1107.5007   0.90706668   -435.60186    -324.7084   -132.23561   -4255.3869 
 2617000    230.55589   -4742.9456   -4298.2992   -4742.9456            0    1597.3302    20.099578    20.145023    20.955048    8484.8347    968.62568     2694.899    1128.4658   -70.904346   -461.74115   -954.32126   -4100.6414 
 2618000    227.08817   -4728.0182   -4290.0595   -4728.0182            0    288.16446    20.159596    20.262555    21.180253    8651.8143    -1457.597    1622.7287    699.36161    42.881503    863.66068   -835.16763   -4253.6996 
 2619000    232.23503   -4745.5725   -4297.6877   -4745.5725            0     316.3518    20.164126    20.131932    21.185513    8600.1068    93.050358    1210.9628   -354.95775   -181.07952    27.827083   -295.47658   -4258.0096 
 2620000    255.35902   -4760.6022   -4268.1208   -4760.6022            0    1175.4474    20.226951    20.215234    21.089653     8623.402    298.12942    2031.0538    1197.1588    -902.5842   -285.25686   -555.90421   -4120.2925 
 2621000    230.73601   -4745.8877   -4300.8939   -4745.8877            0    919.85501    20.201479    20.232228    20.831364    8514.2146     1597.509   -582.85982    1744.9159   -533.93788    583.23931   -726.21482   -4186.6745 
 2622000    248.21369   -4721.6387   -4242.9377   -4721.6387            0    930.53075    20.111067    20.430332    20.970369    8616.2169    2334.8449   -798.47573     1255.223   -579.32258    698.50738    2395.1767   -4126.0085 
 2623000    246.48468   -4742.5941   -4267.2276   -4742.5941            0    1452.3589    20.089707    20.106027    21.142078     8539.797    140.72924    2312.4457    1903.9018    116.34698    1147.2491    584.40162   -4086.3448 
 2624000    245.83771   -4733.3118   -4259.1931   -4733.3118            0    1488.3425    20.082217    20.175224    21.215174    8595.6083    1125.7313    1409.8784    1929.4178    310.41735    32.309386   -166.44118   -4072.6173 
 2625000    264.41974   -4752.1014   -4242.1457   -4752.1014            0    2109.0301    20.163029    20.092456    21.057382     8530.867    229.16797    3128.5663     2969.356   -346.03354    465.17055    883.70285   -3979.7529 
 2626000    227.52478   -4734.7891   -4295.9885   -4734.7891            0    1278.1065    20.136319    20.307005    20.929821    8558.3779    986.97656    1621.5792    1225.7637   -12.931885    214.46858    -990.8115   -4136.4614 
 2627000    240.70894   -4744.0185    -4279.791   -4744.0185            0     2324.269     19.98039    20.255376     21.00548    8501.1343    3348.0555    59.050652    3565.7009   -510.93393    1193.5653   -1147.3127   -3991.6274 
 2628000    233.53078   -4737.6944   -4287.3106   -4737.6944            0    1501.9695    20.289616    19.962951    21.029932    8517.9763    993.60061    2528.5913    983.71646   -221.06958   -995.03768    738.89509    -4100.727 
 2629000    247.74811   -4706.4051    -4228.602   -4706.4051            0   -289.14743    20.234337    20.037543    21.229879    8607.5778    112.22754    305.10949   -1284.7793    106.72351     943.4235    113.37157   -4264.8994 
 2630000    232.55408   -4758.8553   -4310.3552   -4758.8553            0    1880.2063    19.964404    20.136427    21.039442    8458.1031    3424.5205    1660.2799    555.81859   -88.239406   -27.259177    978.85695   -4078.4266 
 2631000    222.38668   -4733.2112   -4304.3198   -4733.2112            0    1340.3746    20.155678    20.297197      20.9042    8551.9872    1178.8271    1116.1784    1726.1182    968.36777    1035.5434    943.73751   -4137.1456 
 2632000    246.02394   -4710.1059   -4235.6281   -4710.1059            0    3756.5935    19.959387     20.10059    20.974195    8414.7517    1885.4626    4540.8775    4843.4404   -234.36516    1061.3032    187.25548    -3774.617 
 2633000     249.6748   -4725.6657   -4244.1468   -4725.6657            0    2313.5057    20.060984     20.19479    21.222443    8597.7921    2938.4423    1076.8976     2925.177   -687.37329    1163.4407   -905.28969   -3954.0564 
 2634000    230.28259   -4740.8974   -4296.7781   -4740.8974            0     1964.194    20.022375    20.200824    21.193016     8571.907     2401.601    1091.7215    2399.2594   -23.682481    542.55162    154.36964   -4051.2293 
 2635000    232.22858    -4728.294   -4280.4217    -4728.294            0    1690.6214    20.047172    20.279252     20.95989    8521.0686    3326.7976    561.55411    1183.5126   -92.206495   -9.8455204   -923.76082   -4070.3264 
 2636000    246.36287   -4743.7523   -4268.6208   -4743.7523            0    594.04887    20.253923    20.155623     20.98729    8567.6507   -676.59092    1471.8888    986.84878    589.59009    579.98431   -599.27624   -4194.3941 
 2637000     225.7855   -4726.7473    -4291.301   -4726.7473            0    2336.3682    20.002133    20.037514    21.202869    8497.9619    2081.3266    3656.0499    1271.7281    53.791886   -1124.9315    6.7965634   -4001.7454 
 2638000    233.61211    -4732.226   -4281.6854    -4732.226            0    212.47258    20.162591     20.27044    21.096166    8622.0997   -1216.8547    1116.7727    737.49964    322.74832    231.33796    243.43883   -4254.9682 
 2639000    223.60948   -4743.3805   -4312.1308   -4743.3805            0    481.43094    20.197689    20.131522    20.998619    8538.2532   -359.92394    580.14113    1224.0756   -586.45677    756.36359   -599.88842   -4252.1822 
 2640000    240.87986   -4716.8431    -4252.286   -4716.8431            0    975.25289    20.214222    20.046916    21.033496     8523.463    1115.3499    822.86506    987.54366    172.44033    252.66416   -473.78006   -4131.0563 
 2641000    241.83193   -4740.7063   -4274.3131   -4740.7063            0    929.22323      20.1357    20.165171    21.124958    8577.5746    1481.2523   -33.344978    1339.7623   -345.10366    823.26581     1637.601   -4158.0718 
 2642000    254.56895   -4764.6003   -4273.6427   -4764.6003            0    889.23894    20.236281    19.977097    21.090486    8526.0852    656.33975    1467.3097    544.06737   -30.408895   -650.11915    243.40693    -4163.071 
 2643000    242.16373   -4740.6693   -4273.6361   -4740.6693            0    44.003381    20.075986    20.116256    21.256763    8584.6216   -597.53438    1355.8842   -626.33964   -573.88904   -597.12691    1492.3488    -4268.127 
 2644000    235.51897   -4712.9522   -4258.7341   -4712.9522            0    1780.4732     20.20727      20.2993    20.828949    8543.8984    2446.1775     1192.132    1703.1101   -107.96042    -361.9106    1444.2663     -4036.88 
 2645000    235.76434   -4724.9267   -4270.2353   -4724.9267            0     548.4798    20.140221    20.181889     21.03125    8548.5241    1061.8435   -497.20809     1080.804   -407.60897   -917.42212     44.74944   -4201.8555 
 2646000    231.00812   -4736.9952   -4291.4766   -4736.9952            0    596.08806    20.243514    19.931422    21.289264    8589.8351   -899.11533    1640.1662    1047.2133   -57.762632    204.49707    510.73516   -4216.8023 
 2647000    222.59647   -4721.5227   -4292.2267   -4721.5227            0    1319.0332    20.218818    20.159551    21.014327    8565.4879   -545.01016     2569.652    1932.4577   -135.29892    591.54503    24.878118   -4127.4545 
 2648000    225.52178   -4726.2627    -4291.325   -4726.2627            0    2303.2729    20.022298    20.221379    21.027655    8513.6451    3751.7577     473.3888    2684.6723    989.97603   -202.99872   -315.24859   -4005.3442 
 2649000    256.13021   -4746.0155   -4252.0469   -4746.0155            0    909.52746    20.050248    20.065546    21.145328    8507.1711    1410.7545    1257.7914    60.036495    757.88012   -490.30081   -392.69008   -4139.2033 
 2650000    234.55993   -4737.3775   -4285.0089   -4737.3775            0    1531.5434    19.996755    20.233288     21.14409     8554.901    2025.5814   -50.973133    2620.0218    298.73216   -198.00973    490.01904   -4093.9267 
 2651000    254.98605    -4723.501    -4231.739    -4723.501            0     2288.619    20.228532    20.018813    20.908758    8467.0265    1721.8053    2404.7692    2739.2827    504.32403    555.35373    100.03211   -3949.1337 
 2652000    242.68509   -4718.3111   -4250.2725   -4718.3111            0    619.96461     20.39227    20.225509    20.872433    8608.7107    156.31445    343.96385    1359.6155   -31.916547    -958.8472    709.95212   -4172.4364 
 2653000    236.97076   -4738.7764   -4281.7584   -4738.7764            0    2635.0232    20.125813    20.106188    21.070487    8526.2436    3300.3681    3069.4259    1535.2757     490.4574   -553.35103   -1688.9741   -3954.1024 
 2654000    238.29612   -4737.6588   -4278.0847   -4737.6588            0    1261.3401    20.025337    20.213979    21.242578    8598.8198    1416.8546    787.72313    1579.4426   -156.34067   -979.90728    1115.7241   -4119.9064 
 2655000    238.34295   -4725.0588   -4265.3944   -4725.0588            0    1872.8164    20.118626     20.03617    21.133675    8518.9886    1473.6983    1786.6297    2358.1212   -420.79428    145.64219    1560.0472   -4032.7143 
 2656000    238.82074   -4752.6812   -4292.0953   -4752.6812            0    1616.6096    20.176925    20.283743    20.843102    8530.3223    1176.1958    405.03429    3268.5989   -191.56674   -283.98161   -1226.3317   -4090.9794 
 2657000    241.88844   -4729.9357   -4263.4335   -4729.9357            0    2382.4821    20.074097    20.106837    21.041259     8492.812    1553.9979    4461.1553    1132.2931   -432.65532    97.886881    160.52589   -3968.3417 
 2658000    231.32035   -4748.5267   -4302.4059   -4748.5267            0    1355.3177    20.025386    20.023325    21.442734    8597.9965    1848.7289    1649.0063    568.21804   -326.40954    102.25951    772.10258   -4132.4586 
 2659000    243.36052   -4766.2459   -4296.9047   -4766.2459            0    1119.0381    20.135679    20.061697    21.178682    8555.2532    1673.3888    1921.2436   -237.51797   -207.09491   -79.401109    -1219.152   -4157.2827 
 2660000    234.30009   -4714.9472   -4263.0798   -4714.9472            0    898.78899    20.156731    20.339604    20.821813    8536.5252    470.48957    359.05095    1866.8265   -309.78933   -432.61428   -400.72516   -4151.1837 
 2661000    235.86724    -4751.236   -4296.3462    -4751.236            0   -12.896629    20.082336    20.264867    21.139581    8603.0881      703.816   -899.97681    157.47091   -365.99236    1349.3393   -282.64005   -4297.9643 
 2662000    246.52787    -4740.783   -4265.3333    -4740.783            0   -167.00683    20.171935    20.103724    21.245667     8615.777   -2221.0082    2482.7112   -762.72352    395.62646   -150.82478    733.75528   -4286.3181 
 2663000    245.95089   -4741.8812   -4267.5442   -4741.8812            0     1144.819    20.085169    20.220979    20.928233    8499.8298    1157.0915    846.02663    1431.3388   -650.00725    1211.9887   -696.92319    -4125.631 
 2664000    244.07635    -4754.366   -4283.6443    -4754.366            0    733.82985     20.27783    20.155856    20.970732    8571.0954    812.08584    351.21148    1038.1922      189.149   -952.16418    608.95933   -4191.9151 
 2665000    236.22534   -4734.0419   -4278.4615   -4734.0419            0    2604.6689     20.21167    20.079893    21.001334    8523.3531    2723.9608    1599.6384    3490.4076   -813.41885    -565.5491   -444.86674   -3954.6898 
 2666000    234.99398   -4708.0035   -4254.7979   -4708.0035            0    1958.8367    20.269665    19.847752    21.038829    8464.0743    2393.5881    1352.5676    2130.3543    360.80174    -1034.827    257.14393   -4012.9994 
 2667000    242.76954   -4744.7427   -4276.5412   -4744.7427            0    794.90311    20.029757    20.180177    21.127876    8539.9731    1887.3103    158.78649    338.61255   -536.90608    186.48909   -2.4164179   -4177.5386 
 2668000    250.22535   -4722.6927    -4240.112   -4722.6927            0    1005.8384    20.127715     20.12255    21.189701    8582.2733    1700.8533    1090.0789    226.58294   -18.994249   -351.08062     37.75054   -4114.2176 
 2669000    250.75554   -4719.6354   -4236.0322   -4719.6354            0    2904.7906    20.112791    19.877807     21.29046    8511.8871    854.97405    4622.4986    3236.8991    507.97697   -782.67965    507.24248   -3875.4398 
 2670000     243.7929   -4731.5456   -4261.3705   -4731.5456            0    2376.6816    20.119794    20.232075    20.968414    8535.5112    3374.4704    944.05224    2811.5223   -19.244001    711.34949   -1260.0166   -3965.5172 
 2671000    241.85309   -4720.1084   -4253.6744   -4720.1084            0    1747.2889     20.12475    20.148287    20.927318    8485.5928    1354.7619    2077.9473    1809.1576    303.79001    943.85822    1143.6947   -4037.4409 
 2672000    240.51995   -4751.3841   -4287.5211   -4751.3841            0    2804.2036    20.158226    20.245407    20.837644    8504.0823     3471.799    1565.7761    3375.0358   -98.616285     1763.351    992.07846   -3939.7345 
 2673000    224.52296   -4727.9827   -4294.9712   -4727.9827            0    676.62142    20.255384    20.007098    21.357503     8655.159   -302.05711     1849.693     482.2284   -449.05723   -318.00189     941.9063   -4209.5636 
 2674000    242.81018   -4742.4497   -4274.1699   -4742.4497            0    1057.5482    20.023942    20.056063    21.282022    8546.8907    2763.0111   -195.66177    605.29516    135.67292    347.92241   -311.68952    -4142.349 
 2675000    236.49375   -4738.2415   -4282.1434   -4738.2415            0    1276.2357    20.158581    20.096921    20.968206    8494.7531     706.7666    1044.0946    2077.8459   -830.81763    300.41808   -1151.3157    -4124.034 
 2676000    230.15046   -4745.3418   -4301.4773   -4745.3418            0     1768.572    20.141379    20.064504    21.226275    8578.1061    1523.0144    2612.6065    1170.0953    157.26591   -730.97784    1198.2063   -4080.2238 
 2677000    236.59618   -4723.7228   -4267.4272   -4723.7228            0    1239.8266     20.02262    20.131499    21.089079    8500.6987    1746.9391    1651.2944    321.24627    172.87069    340.80916    993.19635    -4113.721 
 2678000      240.334   -4731.3076   -4267.8033   -4731.3076            0    1630.9221    20.158101    20.283694     20.77304     8493.696    3288.1954   -355.31661    1959.8874   -1157.6894    1030.0208   -682.48588    -4065.778 
 2679000     244.2814   -4718.5347   -4247.4175   -4718.5347            0    358.44561    20.324745    20.235107     20.86474     8581.112    625.57644   -1143.6388    1593.3992   -1028.1567   -337.01911   -514.03264   -4202.5592 
 2680000    243.93811    -4727.124   -4256.6688    -4727.124            0    1598.7265    20.067797    20.052123    21.081606     8483.279    2236.7202     1644.866    914.59334    -107.7504    994.12268    202.92585   -4058.8745 
 2681000    236.61085   -4731.7684   -4275.4445   -4731.7684            0    2091.7689    20.282275    20.149722    21.014359    8588.1943    2289.9905    2156.7062    1828.6099    325.61535   -338.17661   -343.17639   -4013.4504 
 2682000    238.47932    -4729.654   -4269.7266    -4729.654            0     692.9816    20.100138    20.018766    21.352302    8591.7385    2104.9252    555.32645   -581.30688    335.39799    1257.8468    135.77037   -4182.8948 
 2683000    234.68407   -4753.6697   -4301.0618   -4753.6697            0    1833.1858    20.117184    19.998238    21.016664    8455.1768    320.46691    2993.0102    2186.0804    842.61312    755.31766    405.02872   -4075.0115 
 2684000    229.65584   -4741.9404   -4299.0298   -4741.9404            0     1133.088    20.189863    20.259505    20.972511    8578.5252    617.77569    623.59669    2157.8916     -191.491    784.56089   -132.60161   -4157.2703 
 2685000    237.11373   -4705.2531   -4247.9593   -4705.2531            0    1671.6917    20.207684    20.256147    21.041973     8613.107    1078.5845    1947.2333    1989.2574    481.62013    32.861083   -325.59145   -4037.9725 
 2686000     244.3241   -4707.3069   -4236.1073   -4707.3069            0    1702.0991    20.042795    20.082545    21.190222    8529.2832    2753.4072    2045.7328    307.15726   -156.14369    1926.1093    636.59507   -4024.3818 
 2687000    235.67708   -4735.0116   -4280.4885   -4735.0116            0    1296.2274    19.957797    20.225936    21.177791    8548.7354    2093.9117    414.61131     1380.159    60.044305   -340.56128   -554.56393    -4118.882 
 2688000    243.81095   -4724.8188   -4254.6089   -4724.8188            0    2713.4553    20.284324    19.948469    20.997134    8496.3056    769.53805    4000.6787    3370.1491    720.27222   -13.285427   -140.62433   -3918.3849 
 2689000    229.26207   -4740.9685   -4298.8173   -4740.9685            0    399.02033     20.16912    20.310364    20.933482    8575.2368    997.29622   -883.60917    1083.3739    222.54852    1021.6819    617.40017   -4248.9154 
 2690000    239.02692   -4697.6553   -4236.6718   -4697.6553            0    2303.1307    20.239768    20.071497    20.889561    8486.2261     249.5235    3227.1587      3432.71   -170.51803   -164.68749   -838.92603   -3951.6296 
 2691000    235.82095   -4718.2653   -4263.4648   -4718.2653            0      2992.43    19.864377    20.222991    21.163157    8501.6025     5041.111    1914.3359    2021.8432    12.395303    42.977746   -102.39993   -3892.4419 
 2692000    231.71373   -4706.8884    -4260.009   -4706.8884            0    2526.6324    19.968008    20.261547    21.125349    8546.9518    2785.9854    2176.1479    2617.7639    48.188645   -637.14077   -1067.8566    -3945.068 
 2693000     237.2835   -4720.4116   -4262.7904   -4720.4116            0    1161.0057    20.167551    20.348003    20.868454    8563.7747    697.39908    770.11912    2015.4988   -367.33732   -65.386044    258.93749   -4117.7879 
 2694000    243.50739   -4723.8395    -4254.215   -4723.8395            0    1029.6106    20.292358    20.042706    21.126527    8592.4493   -743.24417    2947.5869     884.4891   -323.86689    135.32614   -1138.9819   -4125.1924 
 2695000     239.3917   -4731.6701   -4269.9831   -4731.6701            0    4312.1743    20.097645    19.977953    21.112953    8477.0579    5544.6779    3844.9076    3546.9374   -29.271469    1288.1363    257.75484   -3736.8725 
 2696000    240.85744   -4736.1015   -4271.5876   -4736.1015            0   -589.80523    20.325811    20.168112    21.052627    8630.1716   -1881.8124    173.10162   -60.704913      40.2721   -78.064912    164.57061   -4345.8218 
 2697000    247.23826   -4753.6106   -4276.7908   -4753.6106            0    2850.4105    20.117591    20.044623    21.048305    8487.7189    2216.8619    4465.4254    1868.9441    980.54482   -384.79302    493.20761   -3923.9537 
 2698000    240.74445   -4730.5672   -4266.2713   -4730.5672            0    1206.3975    20.349461    19.994884      20.9878    8539.6234    2523.0458   -414.92415    1511.0709   -436.84311    476.00295    74.678469   -4116.0245 
 2699000    241.32791   -4707.2592   -4241.8381   -4707.2592            0    2392.8373    20.183217    20.175025    21.007139    8554.0421    3717.5667    1292.6633     2168.282    9.7361044    422.38342    112.25321    -3943.327 
 2700000    240.47758   -4747.9579   -4284.1766   -4747.9579            0    1222.8668     20.07285    20.122272    21.301555    8603.9399    1603.6698    2110.1557   -45.224999    258.07952    1227.2396   -801.69293   -4130.7318 
 2701000    228.07774   -4712.2806   -4272.4135   -4712.2806            0   -749.71463     20.10699    20.509975    21.120961    8710.1548    13.474165   -1998.3885   -264.22957   -420.79346     490.4567   -433.90348   -4367.6487 
 2702000    242.11125   -4735.3114   -4268.3795   -4735.3114            0    937.54917    20.143827       20.286    21.037906    8596.8808    610.01885    298.67511    1903.9535    131.09787   -574.39348   -364.03074   -4150.8326 
 2703000    224.64537   -4731.6213   -4298.3738   -4731.6213            0    1790.1275    20.141382    20.283838    20.972401    8568.1594    2198.1319    254.56954    2917.6811   -136.58196    746.70784   -845.59453   -4074.6833 
 2704000    230.46649   -4739.0649   -4294.5909   -4739.0649            0    341.88384    20.302693    20.115832    21.021007    8585.0959   -608.91121    795.75577    838.80697   -38.107167    413.16743    -1181.727   -4251.7854 
 2705000    233.22055   -4758.9362   -4309.1507   -4758.9362            0    1167.5302    19.972601    20.262235    21.195953    8577.7803    1159.4118    1501.2691     841.9096     528.9838    219.08509    458.45372   -4163.0949 
 2706000    233.60305   -4748.3513   -4297.8282   -4748.3513            0    2337.4676    20.025966    20.129108    21.139779    8521.5471    1352.1791    3936.7816     1723.442   -256.36029    726.98531   -230.11208   -4007.3323 
 2707000    247.87584   -4756.6481   -4278.5987   -4756.6481            0    1161.0672    20.190116    20.328731    20.882489     8570.997    1576.3065   -25.975752    1932.8708    303.67917   -51.415278   -101.47642   -4133.4662 
 2708000    231.97443   -4711.1887   -4263.8065   -4711.1887            0    2095.4597    20.219925    20.044672    20.931015    8483.3774    2525.2985    2330.6997     1430.381    1016.6064    -660.6934   -334.16598   -4004.5534 
 2709000    242.36674   -4741.1642   -4273.7396   -4741.1642            0    2536.3241    19.923443    19.996771     21.19526    8444.2879    1538.7707    3529.8858    2540.3157   -457.15445   -590.36381   -557.63843    -3961.388 
 2710000    253.52182   -4723.8816   -4234.9434   -4723.8816            0     4258.116    19.866426    20.187965    21.061527    8446.9932    4920.8489    3891.9022    3961.5969   -529.19299    232.08971    1213.0051    -3710.383 
 2711000    247.87011   -4739.9603   -4261.9219   -4739.9603            0    1212.6327    20.066117     20.23289    21.042279    8543.0714    886.58309    724.50164    2026.8135   -299.98518   -1068.2816    220.37294   -4110.8376 
 2712000    241.55564   -4738.6654    -4272.805   -4738.6654            0      1729.96    20.040813    20.358961    20.877068    8518.0553    2817.6348    379.93127    1992.3138   -851.66606    433.06724    8.1189059   -4057.8971 
 2713000     253.1192   -4736.5631   -4248.4014   -4736.5631            0    1796.7388    20.048491    20.199053    21.006977    8506.9969    1683.2811    1262.6199    2444.3154   -63.450291   -1472.3169    1090.7046   -4025.4876 
 2714000    238.27009   -4722.2503   -4262.7264   -4722.2503            0      606.889    20.318527    20.231482    21.195654    8712.9805    939.94957   -715.66104    1596.3785   -544.59792    1682.6343   -703.83137    -4185.609 
 2715000    225.44631   -4756.2638   -4321.4716   -4756.2638            0    2633.9649     20.07025     20.07645    20.983906    8455.2416    3499.0549    1576.0798    2826.7601   -321.88783   -177.86295   -1117.6115   -3996.6747 
 2716000    232.49419   -4739.1613   -4290.7767   -4739.1613            0    1180.8505    20.011741     20.36623    21.036321    8573.6407    1617.1679   -870.11644    2795.4999   -802.85026    -408.1888    806.49095   -4143.1258 
 2717000    234.34273   -4760.8882   -4308.9385   -4760.8882            0    2182.5874    20.075223    20.054793    21.045472    8473.0004    1346.5338    3249.6141    1951.6144   -83.237342   -804.09605    797.42662   -4039.2361 
 2718000    238.55466   -4712.3788   -4252.3061   -4712.3788            0    1066.8051    20.303502    19.892115     21.25877    8585.9834   -119.91713    1111.0743    2209.2581    344.73568   -251.92635    1215.6597   -4118.7231 
 2719000    240.28288   -4714.3943   -4250.9886   -4714.3943            0    933.14147    20.125667    20.215329    21.104246    8586.1985    1488.9431    708.03689    602.44445   -364.32745    74.561747     1205.715   -4134.1398 
 2720000    230.13109   -4742.2861    -4298.459   -4742.2861            0    3708.2846    20.046764    20.178006    20.857369    8436.8832    4170.6943    2401.6232    4552.5361    -420.3177   -296.26859    656.25141   -3842.1794 
 2721000    248.04189    -4759.835   -4281.4654    -4759.835            0    537.99936     20.25335    20.342098    20.905749     8613.077    2124.8114   -934.11256    423.29924    157.34336    1547.6785    52.598799   -4213.8857 
 2722000    237.98419    -4753.571   -4294.5985    -4753.571            0    3001.9799    20.165927    19.993605    21.112277    8512.2501     1444.396    5416.5176     2145.026   -378.33361    871.18081   -527.04066   -3921.9254 
 2723000    231.53852   -4731.6453   -4285.1038   -4731.6453            0    581.10792    20.153361    20.099943    21.183846    8581.1819    1292.0755   -215.60813     666.8564   -722.08273    1073.3047   -358.93947   -4212.3794 
 2724000    237.14192    -4725.368   -4268.0198    -4725.368            0    989.16326    20.199581    20.161327    20.967308    8538.9437    1944.4986    116.69832    906.29288   -220.87781   -728.18615   -51.489165   -4144.8376 
 2725000    238.89306   -4754.0964    -4293.371   -4754.0964            0    1974.0072    20.012592    20.325086    20.933234    8514.7535    3877.1937   -364.67461    2409.5025    314.78912    1082.5354    8.3956851   -4048.2409 
 2726000    239.39796   -4729.0444   -4267.3453   -4729.0444            0     2715.575    20.266593    20.017245    21.007206    8522.2319    2842.0769    3072.9937    2231.6546   -618.25959    1149.9593     692.4344   -3929.8318 
 2727000    256.46191   -4711.8882   -4217.2799   -4711.8882            0    1608.5346     20.12486    20.217712    21.179283    8617.3976    1092.5668    2389.0367    1344.0004    -134.6858   -409.78511   -485.46114   -4015.1258 
 2728000     247.4364   -4722.7137   -4245.5118   -4722.7137            0    1845.8858    20.273051    20.084836    20.890333    8506.1446   -80.780794    2421.3434    3197.0948    183.60828     561.5072     485.3466   -4016.5234 
 2729000     243.7836   -4727.8437   -4257.6865   -4727.8437            0    2437.0653    20.107002    20.155292    21.132234     8564.102     1441.343    2171.7646    3698.0884    -38.48209    13.216154   -222.10784   -3953.3003 
 2730000    251.20381   -4719.6407    -4235.173   -4719.6407            0    472.31473    20.145946    20.001705    21.285193     8576.938    417.12197    1062.4404   -62.618159   -44.644978    5.6029197    773.35061   -4176.0931 
 2731000    248.35804   -4727.5387   -4248.5594   -4727.5387            0     2086.846    20.151763    20.172194    20.849997     8475.634    2512.3308    1759.7671      1988.44   -384.08375   -1223.2817   -134.67063   -3990.6076 
 2732000    238.89624   -4730.9209   -4270.1894   -4730.9209            0    441.14052    20.107678    20.386923    20.944389    8585.8106    1765.6879   -2083.2013    1640.9349    263.13418   -693.98543    203.34651   -4214.9519 
 2733000    243.49032   -4763.8855   -4294.2939   -4763.8855            0     203.1633    20.197736     20.13892    21.184398    8616.9783   -302.95364    660.68381    251.75975   -12.656214    750.66821    7.1479685   -4268.7625 
 2734000    240.69122   -4715.1839   -4250.9906   -4715.1839            0    182.63057    20.072677    20.127208    21.252316    8586.0831   -67.000072    593.72127    21.170495   -14.696897   -635.63665    532.31662   -4228.1217 
 2735000     241.6291   -4767.6016   -4301.5996   -4767.6016            0    1514.8746    20.151101     20.07239    21.016655    8500.8323    1116.5802    1171.9161    2256.1274    640.69797   -307.73881    27.381334   -4113.7916 
 2736000    235.94643    -4741.252   -4286.2094    -4741.252            0    2628.9045    19.894235     20.33314    20.943193    8471.7785    2317.2008    2944.5955    2624.9173    -477.6803   -366.24812   -69.114296   -3961.4025 
 2737000     241.0335   -4739.7603    -4274.907   -4739.7603            0    2197.6806    20.168834    20.062653    21.074592    8527.6296    642.66459    3021.3327    2929.0445    404.23933    729.86754    953.49746   -4001.5886 
 2738000    251.12251   -4740.5907   -4256.2798   -4740.5907            0    1949.4796    20.195638    19.957658    21.190795    8541.1118   -22.295379    3728.2605    2142.4737    162.96821    255.61578   -1191.1933   -4013.4461 
 2739000    237.15498   -4739.8573    -4282.484   -4739.8573            0    2113.5952    19.980446     20.33389    21.099007    8572.1083    1324.9207    2959.2042    2056.6606    18.645149    488.68413    -976.3264   -4018.2521 
 2740000    235.67684   -4715.8144   -4261.2918   -4715.8144            0    1602.0962    20.103413    20.182238    20.920499    8488.1131    1526.0041    1520.7461    1759.5383    44.586194      876.898   -469.67534   -4062.9676 
 2741000    238.39985   -4750.1898   -4290.4156   -4750.1898            0    1545.7267    20.384451    20.076886    20.940698    8570.1128    521.00201    1794.2851     2321.893   -237.02443    317.24049    1413.0005    -4097.221 
 2742000     233.4635   -4713.4786   -4263.2246   -4713.4786            0    1183.0761    20.151742    20.147356    21.080687    8558.8504    637.55087    1680.3117    1231.3657    180.20731    663.50597    534.75082   -4115.5506 
 2743000    249.93573   -4735.8472   -4253.8251   -4735.8472            0    2844.4163    20.063936    20.034969    21.162323    8506.8376    3270.8581    3545.6589    1716.7318    494.91309    602.47759   -337.89176   -3900.9369 
 2744000    248.57824   -4736.9259   -4257.5219   -4736.9259            0    3047.1001    20.137044    20.008127    21.028369    8472.4253    1865.7261    4565.9671     2709.607    778.25237   -302.97856    1883.1622   -3881.0172 
 2745000    259.04609   -4723.5681   -4223.9759   -4723.5681            0    2005.4117    20.152284    20.191205    20.820902     8472.002    4417.5033   -256.97243    1855.7042    327.00903    1623.3642     788.3794   -3976.1964 
 2746000    247.37012   -4728.9573   -4251.8832   -4728.9573            0     527.7779    20.380237    20.045226    21.082622    8612.8089   -1151.7156    1925.6788    809.37051     72.43172    589.57601    1231.0789   -4185.5896 
 2747000    241.80914   -4739.8934   -4273.5441   -4739.8934            0    995.65446    20.063216    20.168614    21.099627    8537.9065    1053.3823    739.74451    1193.8366   -255.26267    623.16572   -643.16098   -4149.5686 
 2748000    249.44881   -4727.6175   -4246.5345   -4727.6175            0    193.04638    19.832737    20.334435    21.473942    8660.1722    1282.3879    851.47914   -1554.7279   -863.52776   -132.12461   -375.39753   -4222.1528 
 2749000    236.37035   -4746.8048   -4290.9447   -4746.8048            0    2292.0363    20.106498    20.168771     20.91665    8482.1903    2925.3489    1729.0567    2221.7034   -453.06533   -628.81062    496.23714   -4007.4105 
 2750000     239.7782   -4690.0194    -4227.587   -4690.0194            0    961.17472    20.435734    20.156348    20.943563    8626.8579    1320.6593    689.03733    873.82752    628.75593   -309.16576   -849.37942   -4106.6579 
Loop time of 334.978 on 64 procs for 250000 steps with 972 atoms

Performance: 128.964 ns/day, 0.186 hours/ns, 746.317 timesteps/s
195.9% CPU use with 32 MPI tasks x 2 OpenMP threads

MPI task timing breakdown:
Section |  min time  |  avg time  |  max time  |%varavg| %total
---------------------------------------------------------------
Pair    | 25.754     | 34.467     | 43.612     |  72.3 | 10.29
Bond    | 1.0131     | 1.2013     | 1.3678     |   8.0 |  0.36
Kspace  | 146.31     | 156.48     | 164.91     |  37.5 | 46.71
Neigh   | 2.0297     | 2.1397     | 2.2809     |   5.2 |  0.64
Comm    | 59.642     | 62.365     | 64.809     |  16.6 | 18.62
Output  | 0.81597    | 0.81627    | 0.81763    |   0.0 |  0.24
Modify  | 64.876     | 66.523     | 69.794     |  14.7 | 19.86
Other   |            | 10.99      |            |       |  3.28

Nlocal:        30.3750 ave          36 max          23 min
Histogram: 1 1 2 4 4 2 10 5 1 2
Nghost:        2513.34 ave        2536 max        2486 min
Histogram: 1 1 3 3 4 5 5 5 3 2
Neighs:        9140.19 ave       11653 max        6520 min
Histogram: 1 1 5 4 4 6 6 1 3 1

Total # of neighbors = 292486
Ave neighs/atom = 300.91152
Ave special neighs/atom = 2.0000000
Neighbor list builds = 7064
Dangerous builds = 0

unfix		3
unfix		2
unfix		1

write_data	data.final.${pid}
write_data	data.final.1
System init for write_data ...
PPPM initialization ...
  extracting TIP4P info from pair style
  using 12-bit tables for long-range coulomb (../kspace.cpp:340)
  G vector (1/distance) = 0.37136482
  grid = 24 24 25
  stencil order = 5
  estimated absolute RMS force accuracy = 0.003538855
  estimated relative force accuracy = 1.0657157e-05
  using double precision FFTW3
  3d grid and FFT values/proc = 3458 576
Last active /omp style is kspace_style pppm/tip4p/omp
WARNING: Not all mixed pair coeffs generated from mixing. Use write_data with 'pair ij' option to store all pair coeffs. (../write_data.cpp:312)

write_restart   restart.lmp.${pid}
write_restart   restart.lmp.1
System init for write_restart ...
PPPM initialization ...
  extracting TIP4P info from pair style
  using 12-bit tables for long-range coulomb (../kspace.cpp:340)
  G vector (1/distance) = 0.37136482
  grid = 24 24 25
  stencil order = 5
  estimated absolute RMS force accuracy = 0.003538855
  estimated relative force accuracy = 1.0657157e-05
  using double precision FFTW3
  3d grid and FFT values/proc = 3458 576
Last active /omp style is kspace_style pppm/tip4p/omp
Total wall time: 0:05:35
