LAMMPS (30 Jul 2021)
Processor partition = 0
  using 2 OpenMP thread(s) per MPI task
using multi-threaded neighbor list subroutines
variable        pid world 0 1
variable        phase world IceII IceIh

shell cd ${phase}
shell cd IceII
include Restart.lmp
echo both
log log.lammps
#include		in.partitions
include		in.temp
variable        temperature equal 187.60
variable	tempDamp equal 100.0
include		in.pressure
variable        pressure equal 2089.5
variable        pressureDamp equal 1000.0 # This is 1 ps
include		in.seed
variable        seed equal 745823

units		real
atom_style	full
box tilt large
read_restart	restart.lmp.${pid}
read_restart	restart.lmp.0
Reading restart file ...
  restart file = 30 Jul 2021, LAMMPS = 30 Jul 2021
  restoring atom style full from restart
  triclinic box = (-10.681837 -9.2326342 -0.0044466353) to (12.661837 12.222632 21.864446) with tilt (-9.1421872 1.6829750 2.6605122)
  4 by 2 by 4 MPI processor grid
  restoring pair style lj/cut/tip4p/long/omp from restart
  restoring bond style harmonic/omp from restart
  restoring angle style harmonic/omp from restart
  1296 atoms
  864 bonds
  432 angles
Finding 1-2 1-3 1-4 neighbors ...
  special bond factors lj:    0        0        0       
  special bond factors coul:  0        0        0       
     2 = max # of 1-2 neighbors
     1 = max # of 1-3 neighbors
     1 = max # of 1-4 neighbors
     2 = max # of special neighbors
  special bonds CPU = 0.002 seconds
  read_restart CPU = 0.009 seconds
include 	in.setup
variable	out_freq equal 1000
variable	out_freq2 equal 10000
variable	out_freq3 equal 1000

timestep	2.0

neigh_modify    delay 7 every 1

include		in.tip4p
# This is TIP4P/Ice

# create groups ###
group ox type 2
432 atoms in group ox
group hy type 1
864 atoms in group hy

# set charges - beside manually ###
set group ox charge -1.1794
Setting atom values ...
  432 settings made for charge
set group hy charge 0.5897
Setting atom values ...
  864 settings made for charge

# ### TIP3P Potential Parameters ###
pair_style lj/cut/tip4p/long/omp 2 1 1 1 0.1577 8.5
pair_coeff 1 1*2 0.000 0.000
pair_coeff 2 2 0.21084 3.1668
bond_style  harmonic
bond_coeff  1 450 0.9572
angle_style harmonic
angle_coeff 1 55 104.52
kspace_style pppm/tip4p/omp 1.0e-5
pair_modify tail yes

thermo          ${out_freq}
thermo          1000
thermo_style    custom step temp pe etotal epair emol press lx ly lz vol pxx pyy pzz pxy pxz pyz enthalpy

restart 	${out_freq3} restart.lmp.${pid} restart2.lmp.${pid}
restart 	1000 restart.lmp.${pid} restart2.lmp.${pid}
restart 	1000 restart.lmp.0 restart2.lmp.${pid}
restart 	1000 restart.lmp.0 restart2.lmp.0


include         in.dump
dump            myDump all atom ${out_freq2} dump.water.${pid}
dump            myDump all atom 10000 dump.water.${pid}
dump            myDump all atom 10000 dump.water.0
dump            myDump2 all dcd ${out_freq2} dump.dcd
dump            myDump2 all dcd 10000 dump.dcd
dump_modify     myDump append yes
dump_modify     myDump2 append yes


variable natoms 	equal  "count(all)"                        # NUMBER ATOMS
variable H      	equal  "enthalpy/v_natoms"                 # ENTHALPY-per-atom
variable Vol      	equal  "vol/v_natoms"                 # volume-per-atom
fix AVG all 		ave/time ${out_freq} 1 ${out_freq} v_Vol v_H file vol_enthalpy.dat
fix AVG all 		ave/time 1000 1 ${out_freq} v_Vol v_H file vol_enthalpy.dat
fix AVG all 		ave/time 1000 1 1000 v_Vol v_H file vol_enthalpy.dat


timer           timeout 10:00:00 every 1000
New timer settings: style=normal  mode=nosync  timeout=10:00:00

fix 		1 all shake 1e-6 200 0 b 1 a 1
Finding SHAKE clusters ...
       0 = # of size 2 clusters
       0 = # of size 3 clusters
       0 = # of size 4 clusters
     432 = # of frozen angles
  find clusters CPU = 0.000 seconds
fix             2 all nph tri ${pressure} ${pressure} ${pressureDamp}
fix             2 all nph tri 2089.5 ${pressure} ${pressureDamp}
fix             2 all nph tri 2089.5 2089.5 ${pressureDamp}
fix             2 all nph tri 2089.5 2089.5 1000
fix             3 all temp/csvr ${temperature} ${temperature} ${tempDamp} ${seed}
fix             3 all temp/csvr 187.6 ${temperature} ${tempDamp} ${seed}
fix             3 all temp/csvr 187.6 187.6 ${tempDamp} ${seed}
fix             3 all temp/csvr 187.6 187.6 100 ${seed}
fix             3 all temp/csvr 187.6 187.6 100 745823


run             250000
PPPM initialization ...
  extracting TIP4P info from pair style
  using 12-bit tables for long-range coulomb (../kspace.cpp:340)
  G vector (1/distance) = 0.36957196
  grid = 30 40 32
  stencil order = 5
  estimated absolute RMS force accuracy = 0.0039923353
  estimated relative force accuracy = 1.2022799e-05
  using double precision FFTW3
  3d grid and FFT values/proc = 7888 1280
Last active /omp style is kspace_style pppm/tip4p/omp
Neighbor list info ...
  update every 1 steps, delay 7 steps, check yes
  max neighbors/atom: 2000, page size: 100000
  master list distance cutoff = 10.8154
  ghost atom cutoff = 10.8154
  binsize = 5.4077, bins = 7 5 5
  1 neighbor lists, perpetual/occasional/extra = 1 0 0
  (1) pair lj/cut/tip4p/long/omp, perpetual
      attributes: half, newton on, omp
      pair build: half/bin/newton/tri/omp
      stencil: half/bin/3d/tri
      bin: standard
Setting up Verlet run ...
  Unit style    : real
  Current step  : 10500000
  Time step     : 2
  Walltime left : 9:59:59.93
Per MPI rank memory allocation (min/avg/max) = 10.65 | 10.66 | 10.67 Mbytes
Step Temp PotEng TotEng E_pair E_mol Press Lx Ly Lz Volume Pxx Pyy Pzz Pxy Pxz Pyz Enthalpy 
10500000    197.18688   -6479.1445   -5971.8933   -6479.1445            0    1815.2852    23.343675    21.455266    21.868892     10952.92    1403.5059    3282.0407    760.30907   -127.75774    553.81928     226.8832   -5681.9248 
10501000    185.54186   -6502.9648   -6025.6697   -6502.9648            0    1534.7788    23.444117    21.550012    21.742842    10984.941    1395.5568    1191.6406    2017.1389   -316.19804    126.33979   -397.19708   -5779.7918 
10502000    191.33608   -6511.3173   -6019.1169   -6511.3173            0    3442.1342    23.327162    21.446703    21.807319    10909.999    3679.3295    3114.1332    3532.9398   -206.05623    387.58576   -713.05651    -5471.435 
10503000    186.54577   -6506.4542   -6026.5766   -6506.4542            0    2135.6633    23.406939    21.455055    21.766967    10931.309    1701.7024    1453.0604    3252.2272    856.60001    50.356417    453.00106    -5686.105 
10504000    181.78839    -6519.481   -6051.8414    -6519.481            0    1507.7316     23.46677    21.586671    21.669851    10977.284    1351.7118    1970.8944    1200.5888   -973.51322    425.94122   -731.83836    -5810.465 
10505000    184.50736    -6500.275    -6025.641    -6500.275            0    1480.6776    23.436986    21.483982    21.802359     10977.92    1205.9163    1745.6306    1490.4858    179.24613    1097.8263    33.105428   -5788.5821 
10506000    190.33132    -6492.558   -6002.9422    -6492.558            0     4102.761    23.482418    21.479889    21.508582    10848.923    2887.2941    4150.5351    5270.4538    -2056.383    760.47612   -399.28455   -5353.8017 
10507000    184.60212   -6516.0015   -6041.1238   -6516.0015            0    1827.6851    23.404373    21.570682     21.68287     10946.56    1658.2506    2154.7492    1670.0554   -57.815487    567.73039   -287.30951   -5749.3442 
10508000    192.51216   -6507.5296   -6012.3038   -6507.5296            0    1744.7808    23.446656    21.517019    21.756494    10976.198    1886.2273    1763.6992    1584.4158   -451.26324    144.74182   -752.30008   -5733.0052 
10509000    196.89081    -6489.063   -5982.5734    -6489.063            0    3644.5101    23.422278    21.449506    21.653474    10878.625    3358.5214    3921.7835    3653.2254   -653.36569   -480.78605   -992.64358   -5404.3588 
10510000    198.74969   -6522.5241   -6011.2527   -6522.5241            0    1779.9706    23.249678    21.599659    21.796833    10946.045    2077.5632     1340.481    1921.8677    647.17484    370.61796    755.38505   -5727.1038 
10511000    192.27164   -6516.6623   -6022.0552   -6516.6623            0    1712.6111    23.462368    21.431613    21.794223    10958.928    1927.2421    1700.9332    1509.6581    322.02624   -199.05033   -61.438284   -5748.3376 
10512000    185.81007    -6468.871   -5990.8859    -6468.871            0    1445.2293    23.497839    21.507855    21.808617    11021.816    1169.7931    1942.0905    1223.8042    542.21829    -875.9716    89.901399   -5758.5771 
10513000    190.77617   -6491.4633   -6000.7032   -6491.4633            0    3343.4485    23.160451    21.688761    21.698473    10899.609    3142.0647     3099.453    3788.8277    524.82362    761.44104   -910.54185   -5469.2299 
10514000    186.85122   -6526.4863    -6045.823   -6526.4863            0    2672.8849    23.502965    21.384042    21.768759    10940.726    2822.1048    2798.4793    2398.0706    1028.5607   -841.63176     666.1101   -5619.3394 
10515000    187.93874   -6499.6978   -6016.2369   -6499.6978            0    1264.7264    23.423601    21.467294    21.899732     11012.09    1722.0728    1889.5619    182.54468   -822.11003   -545.54504   -102.94079   -5813.1217 
10516000    187.90911   -6506.1821   -6022.7973   -6506.1821            0    1892.2775    23.112583    21.806217    21.747253    10960.572    2098.3279    890.63278     2687.872    311.19566    653.74911   -225.65747   -5720.3192 
10517000    191.93076   -6516.8049   -6023.0747   -6516.8049            0    2431.0191    23.437539    21.360993    21.847145    10937.754    1555.4906    3420.4013    2317.1655    -34.46391    -134.2077     -1013.97   -5635.2885 
10518000    184.03325   -6522.4338   -6049.0194   -6522.4338            0    2573.2334    23.402407    21.397536    21.805962    10919.419    2876.4355     2653.439    2189.8258   -828.26507    217.81386    216.77996   -5639.2358 
10519000    186.47992   -6502.5721   -6022.8638   -6502.5721            0    2128.8246    23.230269    21.700205     21.77339    10976.001    2514.8151    1223.4239    2648.2349    464.40868   -1339.2282    117.12696    -5682.095 
10520000    185.01168   -6509.6553    -6033.724   -6509.6553            0    2222.1534    23.476252    21.382799    21.796053    10941.357      2686.95    1909.8019    2069.7082   -394.73917   -201.65903   -380.63268   -5679.1384 
10521000    189.88297   -6536.3825   -6047.9201   -6536.3825            0    1548.7427    23.309313    21.510346    21.827335    10944.038    2016.7694     1695.602    933.85683    538.02324   -119.45765    -673.0441   -5800.7291 
10522000    184.92506    -6487.967   -6012.2586    -6487.967            0    3057.8235    23.121378    21.688229    21.752625    10908.109    4195.0945    2371.0288    2607.3471   -710.29661    143.00001   -90.508928   -5525.8091 
10523000     196.9309   -6534.7347   -6028.1419   -6534.7347            0    3109.2959    23.533794    21.249656    21.789248    10896.477     2627.822    3843.9936    2856.0721   -305.90853   -640.15692   -508.29119   -5534.0315 
10524000    201.97735   -6493.4452   -5973.8707   -6493.4452            0    2123.7793    23.424443    21.493239    21.778445    10964.732    1623.1954    1483.5576    3264.5848   -67.033472      171.643     808.8871   -5634.2585 
10525000    195.48055   -6494.1534   -5991.2916   -6494.1534            0    1106.9136    23.315823    21.669598    21.763469    10995.873    2572.5174     52.47703    695.74626   -135.04788    -757.2116    358.45864   -5813.7831 
10526000    194.58369    -6492.607   -5992.0524    -6492.607            0    1175.3874    23.532027    21.374539    21.865698    10998.145    1178.4352    1598.2012    749.52596    -955.4111    47.755404    275.11893   -5803.5241 
10527000    186.27007   -6483.0111   -6003.8427   -6483.0111            0    1592.9655    23.401921    21.464551    21.854837    10977.941    2934.9287    1447.0582     396.9095   -361.03011    445.07011   -42.520479   -5748.8058 
10528000    184.22673   -6519.0957   -6045.1836   -6519.0957            0    1603.1852    23.232241    21.620495    21.772671     10936.25    2141.6088    1474.6621    1193.2848    99.488816   -672.07688   -747.24434   -5789.4852 
10529000    191.28608   -6530.1233   -6038.0515   -6530.1233            0    1272.6134    23.499316    21.356601    21.852121    10966.826     1041.083    2177.0219    599.73538   -429.17023   -855.16223   -73.180071   -5834.5099 
10530000    200.76724   -6505.5009   -5989.0395   -6505.5009            0     1510.576    23.332239    21.537869    21.898357    11004.509    1974.6556       1855.3    701.77244   -802.64178    244.53361   -317.14139   -5746.6079 
10531000    189.80056   -6487.9192   -5999.6688   -6487.9192            0     1940.229    23.280574    21.571595    21.878834    10987.531    2442.9364    1875.5973    1502.1532     502.9658    476.72553   -1174.5766   -5688.7629 
10532000    185.28032   -6484.1696   -6007.5473   -6484.1696            0     2252.711    23.409171    21.355019    21.894083    10944.924    2990.5633    2022.5335    1745.0362   -415.74693   -1316.5268   -311.63621   -5647.9685 
10533000    181.85241   -6486.9208   -6019.1166   -6486.9208            0    1608.6517    23.242994    21.661981    21.835818    10994.101    1782.7611    598.87317    2444.3207    402.61492   -1325.0485     746.6974   -5761.1891 
10534000    184.40031   -6508.8349   -6034.4763   -6508.8349            0    1333.9837     23.38757    21.557749     21.79477     10988.56     747.3042    1197.4869    2057.1601    396.51033   -6.5500207    -577.7102   -5820.6963 
10535000     181.8498   -6514.0535    -6046.256   -6514.0535            0    1390.8895    23.453798     21.40621    21.847857    10968.868    607.29222    1667.9504     1897.426     1283.513   -149.72698    846.50071   -5823.7559 
10536000    187.39951     -6516.42   -6034.3462     -6516.42            0    1448.3693    23.358915    21.664205    21.674479    10968.421    2066.9362    320.14001    1958.0318   -331.90478    904.19966    632.29503   -5802.6605 
10537000    189.51852   -6502.7574   -6015.2325   -6502.7574            0    2907.8198    23.382296    21.524649    21.662232    10902.508    3092.2623    2848.7002    2782.4969    208.56099   -1480.8636   -609.54434   -5552.8836 
10538000    181.44147   -6490.2065   -6023.4594   -6490.2065            0    2017.2428    23.533054    21.340451    21.830566    10963.441    1812.0268    2651.4354    1588.2661    1418.8014    653.79043    94.687637   -5700.9213 
10539000    189.04296   -6506.2143   -6019.9128   -6506.2143            0     765.3896    23.307077    21.673703    21.809123    11016.893    1906.6164   -387.95843    777.51084    353.75443   -589.10082   -405.71691   -5896.9376 
10540000    193.35065   -6532.9328   -6035.5501   -6532.9328            0    3182.6364    23.391969    21.463313    21.694171    10891.974    1812.2757    3266.3687    4469.2646     743.4707    704.35803   -368.34935   -5529.9938 
10541000    177.47313   -6494.6408    -6038.102   -6494.6408            0    1935.5267    23.517164    21.358103    21.787359    10943.399    446.63008    2545.4866    2814.4636   -12.461596   -106.47986     525.5562   -5729.1953 
10542000    187.07583   -6504.7831   -6023.5419   -6504.7831            0    1627.8321    23.391432    21.619768    21.671066    10959.434    1907.1504    968.36448    2007.9814    320.93428   -732.88807    -882.0979   -5763.3621 
10543000    189.73299   -6501.6305    -6013.554   -6501.6305            0    2251.4863    23.330376    21.580572      21.7057    10928.448    2038.2511    1643.1864    3073.0213    489.82797   -505.94145    847.04888   -5654.7116 
10544000    181.80735    -6482.841   -6015.1527    -6482.841            0     2688.152    23.506027    21.351281     21.77286    10927.445    1899.6292    3869.2546    2295.5722    700.20257    259.04203      448.873   -5586.7538 
10545000    173.95947    -6521.702   -6074.2018    -6521.702            0    977.10755     23.39959    21.652873    21.683343    10986.264     906.0654    174.44154    1850.8157    189.01353    464.64874   -357.45332   -5917.6463 
10546000      184.907    -6486.825    -6011.163    -6486.825            0    2472.9618    23.328099     21.42104    21.854134    10920.776    2475.3579    3307.8131    1635.7143   -973.84289    843.82259   -21.653548   -5617.2985 
10547000    190.03636   -6532.1294   -6043.2724   -6532.1294            0     2619.988    23.443067     21.35624    21.787272    10907.924    1680.4406    3326.8873     2852.636    575.70739   -458.86216   -135.35394   -5626.4824 
10548000    195.50999    -6511.699   -6008.7615    -6511.699            0     2114.949     23.25984    21.630905    21.749943    10943.079    2385.9224    1778.3249    2180.5997    506.23802   -319.31834    664.41733   -5671.2292 
10549000    193.81933   -6503.2942   -6004.7058   -6503.2942            0    1709.4361     23.25344    21.642245     21.80976    10975.907    1931.2538     1490.423    1706.6315     472.7461    56.683304     660.8144   -5731.0723 
10550000    194.13613   -6517.1596   -6017.7563   -6517.1596            0    3232.5044    23.540832    21.259667    21.811107     10915.81    2480.8221    4689.2695    2527.4218    264.24794    114.58683   -1286.1545   -5503.1548 
10551000    189.79444   -6488.2104   -5999.9758   -6488.2104            0    1422.9534    23.289381    21.572491    21.884479     10994.98    1807.6104     585.3258    1875.9241    373.34531    446.79925   -35.970976   -5771.8045 
10552000    181.84972   -6505.7472   -6037.9498   -6505.7472            0      2467.76    23.188851     21.62169    21.781629     10920.92    2835.7941    1969.8889     2597.597    311.63056   -321.98317   -496.17947   -5644.9087 
10553000    191.18719   -6531.4991   -6039.6817   -6531.4991            0    1659.4594    23.598312    21.240038    21.884125    10968.959    937.51397    3638.6195    402.24489    327.39943   -290.87323   -1064.6497   -5774.2163 
10554000    189.64262   -6500.6515   -6012.8074   -6500.6515            0    712.61955    23.434482    21.511212    21.884508    11032.071    547.21483    1049.6462    540.99761   -427.59545    597.50274    526.74804    -5898.153 
10555000    192.83372   -6505.6323   -6009.5793   -6505.6323            0    2896.3942     23.22262    21.605805    21.721018    10898.377    3526.4261    1181.0611    3981.6953   -23.444361    184.43027    273.77773   -5549.2216 
10556000    192.60329   -6488.4833    -5993.023   -6488.4833            0    2231.1429    23.472403    21.299339    21.881978    10939.822    2053.6614    2599.9987    2039.7686    608.35283    545.59513   -492.63269   -5637.0529 
10557000    183.62621   -6492.1522   -6019.7849   -6492.1522            0    1224.4865    23.368662    21.518082     21.92064    11022.767    1294.6377    1011.9423    1366.8794    54.074276    318.09569   -308.99285   -5822.9417 
10558000     185.4851   -6504.7929   -6027.6438   -6504.7929            0    2199.8515    23.194535    21.603203    21.826366    10936.673    3266.5543    2063.0646    1269.9356   -582.25503   -2330.0221   -26.473132   -5676.7671 
10559000    189.92166   -6509.2815   -6020.7196   -6509.2815            0    3567.1614    23.418984    21.283126    21.859826    10895.575    3907.9238    4979.2794    1814.2811    56.855691    125.91828   -1534.6529   -5453.8948 
10560000    186.01323   -6531.6053   -6053.0976   -6531.6053            0    914.98895    23.317933    21.562365    21.910479    11016.365    1329.9972    1038.1755    376.79411    122.40206   -499.49277    215.85464   -5906.0933 
10561000    184.83138   -6497.9469   -6022.4794   -6497.9469            0    993.17779    23.295986    21.588259    21.854616    10991.119    1065.7558    824.08838    1089.6892    -615.6139   -511.40711    275.48262   -5863.2788 
10562000    191.79816   -6502.8668   -6009.4777   -6502.8668            0    2909.0215    23.380588    21.337417    21.859596    10905.345    2911.4275     3289.802    2525.8351    292.31045    106.41455   -267.71993   -5546.8175 
10563000    194.91543   -6493.5823   -5992.1742   -6493.5823            0    2435.6794    23.213199    21.520648    21.916241    10948.545    2625.7519    3222.9991    1458.2871    575.00008   -309.03881   -97.134388   -5603.2613 
10564000    184.12545   -6505.9349   -6032.2834   -6505.9349            0    1593.9209     23.30194     21.47904    21.948901    10985.497    1946.9786    1809.2708    1025.5134   -372.56979    -128.9232    929.44362   -5776.9178 
10565000    185.22601    -6535.531   -6059.0484    -6535.531            0    1956.8714    23.405631    21.369686    21.866703     10937.09    1809.5905    2812.2679    1248.7557   -646.21132    462.08092   -635.95215   -5746.9152 
10566000    188.12123   -6480.1145   -5996.1841   -6480.1145            0    1967.5232     23.22878     21.71767    21.795766    10995.418    1978.2786    1746.4836    2177.8073   -288.27564    393.42593   -175.86203   -5680.6782 
10567000    180.79975   -6519.0186   -6053.9223   -6519.0186            0    2458.5479    23.335447     21.53589    21.779497    10945.278    2534.5931    1639.4278    3201.6228    995.28957   -232.09126    1702.1665    -5661.475 
10568000    177.44432   -6501.2627    -6044.798   -6501.2627            0    2914.1959    23.480503    21.385641    21.735807     10914.54    3217.0944    2923.5685    2601.9247   -657.17399   -1184.7248   -6.6414153    -5580.924 
10569000    177.49685   -6521.2915   -6064.6917   -6521.2915            0    2494.9965    23.162475    21.708622    21.671244    10896.852    4125.0075   -23.930865     3383.913   -295.77224    186.52461    216.07443   -5668.1883 
10570000    192.35935   -6524.5971   -6029.7644   -6524.5971            0    1894.0702    23.396447    21.486364    21.751425    10934.541    2052.9721    2474.9498    1154.2886   -258.25587   -161.14041    -594.9938   -5727.7188 
10571000     191.4477   -6509.9069   -6017.4194   -6509.9069            0     1933.302    23.539157    21.423668    21.754225    10970.549    772.18697    2442.1846    2585.5345    421.64108    181.64209    298.24164   -5708.1023 
10572000    187.23135   -6456.2533    -5974.612   -6456.2533            0    3998.8851    23.273101    21.615203    21.642368    10887.254    3644.5364    2475.0769     5877.042    333.09196    961.57321    1231.2302   -5339.6714 
10573000    190.77362   -6533.2114   -6042.4579   -6533.2114            0    2925.7996    23.436204    21.535873    21.591481    10897.633      2672.27    2507.7586      3597.37   -749.83856   -391.24221   -478.08459   -5577.4582 
10574000    186.95472   -6511.2552   -6030.3256   -6511.2552            0    2542.9535    23.490923    21.404039    21.748928    10935.375    1119.6571    3191.2887    3317.9147   -1405.2491    1252.0241    516.17627   -5624.7722 
10575000    186.50094   -6499.1267   -6019.3644   -6499.1267            0    3825.7606    23.281217    21.538422    21.665303    10863.864    3839.1159     3274.669     4363.497   -756.73093    707.01255    1218.2421   -5413.2173 
10576000    193.11543   -6527.2741   -6030.4965   -6527.2741            0     2038.356    23.367518    21.558375    21.698297    10930.858    1865.1367    1141.0223    3108.9089   -1844.3478    319.12409   -1077.5067   -5705.5512 
10577000     192.5999   -6532.1154   -6036.6639   -6532.1154            0    939.82235     23.53742    21.342942     21.82621    10964.566     373.7711    1005.3861    1440.3098   -957.72873   -757.98687   -504.44575   -5886.3797 
10578000    195.39844   -6496.0211   -5993.3705   -6496.0211            0    2453.9023     23.26579    21.556927    21.793464    10930.271     2680.008     1698.777    2982.9218   -155.34126    435.02506    212.34636   -5602.2018 
10579000    182.19515   -6515.2224   -6046.5365   -6515.2224            0     1409.754    23.358478    21.582632    21.795488    10987.921    1377.0472    401.66918    2450.5456   -86.152151    700.09627   -878.41901   -5820.6269 
10580000    185.40058   -6474.4575   -5997.5258   -6474.4575            0    871.19191    23.558527    21.314397     21.98623    11040.073    980.36728    1570.8104    62.398017    708.02062   -595.46781    537.32781   -5857.2568 
10581000    178.11148   -6498.4091   -6040.2282   -6498.4091            0    2625.7667    23.250636    21.582745    21.799253    10939.139    3007.4653    2270.2586    2599.5763    625.15497   -644.63424   -537.27272   -5621.3235 
10582000    185.99883   -6516.6202   -6038.1496   -6516.6202            0    2319.9641     23.22682    21.551643    21.899427     10962.33    3123.3738    2191.9828    1644.5358    532.15158   -228.76348    -1015.847   -5667.2468 
10583000    192.54655   -6520.6321   -6025.3178   -6520.6321            0    1928.8347    23.424817    21.271395    21.987744    10956.021    1482.3457    3427.0003    877.15798    517.03183    30.289716   -733.49003   -5717.1241 
10584000     196.0326   -6484.1378   -5979.8558   -6484.1378            0    2957.1278    23.334588    21.508356    21.804276    10943.318    2999.4873    3625.9046    2245.9916   -677.41415    533.49993   -357.23695   -5507.9069 
10585000    189.02341   -6519.3189   -6033.0677   -6519.3189            0    3170.6988    23.211487    21.506825    21.791021    10878.195    2564.1103    3888.0763    3059.9098    797.52264   -460.85395     545.2871   -5530.0449 
10586000    180.46409   -6504.0616   -6039.8287   -6504.0616            0    1465.5648    23.570595    21.410432    21.817046    11010.117    768.66399    1398.4742    2229.5562    550.34879   -815.53729     525.3196   -5804.5012 
10587000    183.83714   -6519.5494   -6046.6395   -6519.5494            0    2495.7161    23.344414    21.569967    21.734859    10944.333    1541.3963     3359.975     2585.777    685.17208    179.64214   -878.05545   -5648.2937 
10588000    191.50374   -6507.0724   -6014.4407   -6507.0724            0    3605.0701    23.292016     21.42583    21.809756    10884.175    3691.3848    3526.6513    3597.1743    20.034595    129.51887    803.17137   -5442.1916 
10589000    179.80675   -6526.4735   -6063.9316   -6526.4735            0    2377.7355     23.48086    21.418152    21.721249    10923.978    1688.8032    2634.8266    2809.5768   -532.17652   -103.82405   -867.82064   -5685.1227 
10590000    182.29796   -6507.9969   -6039.0465   -6507.9969            0    2274.8717    23.314589    21.613533    21.721282    10945.585     2784.176    1462.5459    2577.8933   -374.31124    860.65319    -72.90478   -5675.9084 
10591000    188.66803   -6533.1096   -6047.7726   -6533.1096            0    1636.2197    23.574763    21.352826    21.736263     10941.77    1034.1535    1787.5154    2086.9901    49.230556    662.80248    604.72006   -5786.6737 
10592000    184.27502   -6497.2449   -6023.2087   -6497.2449            0    2020.4594    23.437279     21.48904     21.76714    10962.903    2185.9669    2677.3352     1198.076   -819.09091    14.999676   -275.25119   -5700.1722 
10593000    188.58071   -6511.0748   -6025.9624   -6511.0748            0    2414.7182     23.27406    21.539263    21.765544      10911.2    2504.1234    2551.8187    2188.2126   -128.33988    637.31782    266.96519   -5641.7115 
10594000     186.3389    -6498.961   -6019.6156    -6498.961            0    1832.8575    23.467544    21.389669    21.870844    10978.354      1335.18    2389.7997    1773.5927    -475.0872    260.74718   -967.36858   -5726.1603 
10595000    181.16219   -6524.4879   -6058.4592   -6524.4879            0    1992.6928    23.376344    21.484416    21.840897     10969.09    1939.7314    1839.7563    2198.5906    -1374.136   -52.428755    866.76313   -5739.6823 
10596000    193.39488   -6501.0164   -6003.5198   -6501.0164            0    1897.3919    23.253582    21.634282    21.818427    10976.295    1995.7243    1861.0172    1835.4342     942.8752   -271.29694   -968.32579   -5699.7891 
10597000    185.77548   -6507.0191    -6029.123   -6507.0191            0    1362.2341    23.474337    21.369684    21.899267     10985.53    1245.7843    761.62663    2079.2915   -680.82834    459.79674    341.51467   -5810.8758 
10598000    184.09975   -6532.7677   -6059.1823   -6532.7677            0    1945.8536    23.247725      21.5072    21.923109    10961.411    3077.2671    493.53913    2266.7545   -778.81192   -592.16407    52.260965   -5748.1163 
10599000    182.65809   -6493.6663   -6023.7895   -6493.6663            0    2357.5875     23.12261    21.612681    21.860013    10924.358    2853.8772    2807.1309    1411.7545    393.28717    843.36392   -631.28862   -5648.1773 
10600000    187.89269   -6528.4615    -6045.119   -6528.4615            0    1485.8812    23.458769    21.466199    21.835989    10995.962    1271.6548    1781.0713    1404.9174    544.40729   -928.33028   -382.17435   -5806.8359 
10601000    183.19992   -6519.0467   -6047.7761   -6519.0467            0    2165.0316    23.412051    21.389232    21.869213    10951.354    1369.2401    2919.2451    2206.6095    818.45247   -1456.5646    61.701891   -5701.9897 
10602000    192.12077   -6519.4028   -6025.1838   -6519.4028            0      3310.53    23.068862    21.450719    22.022864    10897.875    4083.1847    3381.9412    2466.4642   -322.96019    774.37497   -209.89127    -5499.027 
10603000    191.86178   -6497.8453   -6004.2925   -6497.8453            0    1922.7811    23.290894    21.511621     21.92337    10984.154    2884.7677    2107.1445    776.43125   -693.28825    52.489249    -461.6131   -5696.2772 
10604000    189.23594   -6506.1866   -6019.3887   -6506.1866            0     1724.203    23.373577    21.421183    21.927275     10978.76    1843.0436    1413.0715    1916.4938    938.27806   -477.18242    315.29557   -5743.3197 
10605000    187.27678   -6494.1343   -6012.3762   -6494.1343            0    2177.5777    23.295046    21.543741    21.866005    10973.727    1616.7152    2838.8089    2077.2089    805.92447   -930.05769   -33.372503   -5663.8755 
10606000    188.58225   -6525.7943    -6040.678   -6525.7943            0    2941.2314     23.31717    21.466152    21.805427    10914.269    2586.3504    3539.9113    2697.4325    829.54464   -23.006664   -240.40311   -5572.5121 
10607000    185.68103    -6512.344   -6034.6909    -6512.344            0    2693.2055    23.350391    21.410091     21.83943    10918.274    3074.6411    3158.9055    1846.0698   -603.07565    277.93828   -43.431296   -5605.8469 
10608000    186.33158   -6514.7106    -6035.384   -6514.7106            0    2340.0025     23.36387    21.533733    21.785417     10960.49    2919.2999     1220.282    2880.4254     480.3947    -511.5013    12.295166   -5661.3404 
10609000    182.93305   -6510.9348   -6040.3507   -6510.9348            0    1701.4918     23.38882     21.50409    21.834277    10981.665    935.07289    697.74245    3471.6601     41.53298    374.24886    886.89165    -5767.846 
10610000    180.06807   -6496.8233   -6033.6092   -6496.8233            0    2140.4665    23.393258    21.445495     21.82626    10949.798    2620.5687    2362.3565    1438.4743    205.05698   -818.53224   -1123.9428   -5691.7947 
10611000    187.92742   -6504.0833   -6020.6514   -6504.0833            0    2757.9518    23.397672    21.509931    21.718167    10930.369    2786.2067    2883.3345    2604.3142    -1680.926   -139.60031   -3.1820748   -5581.0112 
10612000    192.18027   -6519.6074   -6025.2354   -6519.6074            0    336.51178    23.422435    21.512836    21.831925    11000.736   -307.31872    917.29692    399.55714    1192.8103   -226.78744    1123.0765   -5971.2473 
10613000    183.85033   -6492.4902   -6019.5464   -6492.4902            0    2683.5793    23.427777    21.486114    21.759486    10953.114    2974.1579    1998.8931     3077.687   -1224.8915    1101.6866   -188.15022   -5590.8716 
10614000    187.71039   -6498.7297   -6015.8562   -6498.7297            0    2515.8858    23.291121    21.553467    21.786307    10936.823    3095.2324    1780.8907    2671.5342   -201.40332   -1273.1776    883.14507   -5614.5665 
10615000    189.22081   -6499.5658   -6012.8068   -6499.5658            0    1038.9501     23.51495    21.527704    21.765161    11018.023   -784.21152     1549.411    2351.6509    464.38635   -539.44348     500.3621   -5845.8615 
10616000     186.4496   -6534.5143    -6054.884   -6534.5143            0    2393.6995    23.389883    21.449842    21.741927    10908.127    3156.9057    2398.9958     1625.197   -983.01141    502.25739   -1479.2598   -5674.0851 
10617000    173.40081   -6524.1978   -6078.1347   -6524.1978            0     1982.091    23.322104    21.477303    21.809024    10924.051    2470.3757    1176.4431    2299.4542    279.44863   -275.67099     477.4708   -5762.3558 
10618000     175.8565   -6500.1578   -6047.7776   -6500.1578            0    313.11374    23.470665    21.618953    21.755499    11038.984    21.116639   -435.25524    1353.4798   -384.73555   -202.20819   -215.63055   -5997.3687 
10619000     189.9642   -6518.6947   -6030.0234   -6518.6947            0    2171.8879    23.522831    21.427681    21.689747    10932.494    428.12624    2175.8058    3911.7317   -392.40272   -150.46277    444.75605   -5683.7393 
10620000    179.70749   -6495.3586    -6033.072   -6495.3586            0    2157.8606    23.407741    21.517997    21.735551     10947.93    2831.6714    1231.8993    2410.0113   -414.31449   -876.85185    -377.3123   -5688.5386 
10621000    189.78612   -6518.2265   -6030.0132   -6518.2265            0    1703.5552    23.388045    21.548571    21.750311    10961.699    1255.4454    2160.5688    1694.6513   -788.72316    266.40435   -29.593699   -5757.6742 
10622000    190.89259   -6480.8047   -5989.7452   -6480.8047            0    1754.1135    23.607485    21.346551    21.734143    10952.669   -217.56706    3947.0446    1532.8631    774.35186   -8.1814516   -60.864007   -5709.5546 
10623000    181.31851   -6499.4687   -6033.0379   -6499.4687            0    1938.2405    23.336461    21.633946    21.723595    10967.369    1526.8844    1347.7288    2940.1084    211.16052    -80.26603    587.68038   -5723.0206 
10624000    190.21085   -6504.0859   -6014.7801   -6504.0859            0    2227.0133    23.383924    21.568784    21.741003    10965.353    3108.5727    1445.4912    2126.9761   -1421.4073   -281.90786   -412.21686   -5658.6396 
10625000    183.26376   -6472.1896   -6000.7548   -6472.1896            0    2500.3686    23.432907    21.426251    21.811704    10951.206    2100.2588    2595.5141     2805.333    683.96828   -164.84584    1434.6977   -5601.4156 
10626000    189.55806   -6515.0189   -6027.3923   -6515.0189            0    1939.4049     23.38575    21.555072    21.748914    10963.226    1382.2695    2342.5173     2093.428   -129.36816    32.532649   -1112.3732   -5717.3059 
10627000    184.89537   -6504.9378   -6029.3057   -6504.9378            0    3027.8613      23.3655    21.445804     21.78339    10915.481    3269.6822    2322.4874    3491.4143   -532.84902    52.071119    802.14176   -5547.2971 
10628000    186.76323   -6509.4857   -6029.0486   -6509.4857            0    2159.2342    23.394753    21.510888    21.790098     10965.69    1951.0069     1043.223    3483.4728    162.00149   -230.53823    859.42115   -5683.7367 
10629000    197.59959   -6502.1815   -5993.8686   -6502.1815            0    2182.7034    23.406194    21.524438    21.747061    10956.282    1998.2656    1356.0623    3193.7824    570.03087   -795.21263   -6.5671692   -5645.1028 
10630000    180.69606   -6526.7735   -6061.9439   -6526.7735            0    2828.7398    23.387008    21.462401    21.678018    10881.094    3307.1796    1994.1742    3184.8655     891.5408   -649.98113    951.45604   -5613.0523 
10631000       187.03   -6536.9959   -6055.8727   -6536.9959            0    2092.1131    23.414914    21.545166    21.664418    10929.227    1038.9497    2027.9289    3209.4606   -349.41052   -386.93566    34.715256   -5722.4075 
10632000    189.81976   -6490.0506   -6001.7509   -6490.0506            0    1013.9292    23.431013    21.533328    21.783677    10990.904   -240.23671    1866.7402    1415.2841    1069.3149    93.278836   -153.23932   -5839.2271 
10633000    179.44834   -6473.8947   -6012.2748   -6473.8947            0    3030.8845    23.344284    21.377672    21.876505    10917.392    2436.0706    3634.3418    3022.2411    1175.5487    374.15335    563.64997   -5529.7005 
10634000    177.29889   -6510.6216    -6054.531   -6510.6216            0    2197.6079    23.355156    21.486702    21.802376    10940.983    1821.8209    2154.6601    2616.3427    -2.252375   -370.00197   -60.531691    -5703.874 
10635000    186.05872   -6535.3903   -6056.7656   -6535.3903            0    1917.6315    23.323165    21.439139    21.848745    10924.997    2008.6612    2563.4551    1180.7783    243.95747    831.88517    310.72961   -5751.2296 
10636000    185.68065   -6479.4806   -6001.8284   -6479.4806            0    634.63468    23.335218    21.489055    21.993754    11028.807    401.13609     1704.883   -202.11506    441.42879    558.92544    693.10332   -5899.7514 
10637000    188.61654   -6515.8538   -6030.6492   -6515.8538            0    3097.7654    23.368837    21.469038    21.735921    10905.052    3016.4347    3164.0851    3112.7764   -604.16027   -1610.3656   -463.45806   -5537.9837 
10638000    179.98018   -6511.6516   -6048.6636   -6511.6516            0    1842.2798    23.447685    21.459147    21.788476    10963.249    1662.1288    1807.7496     2056.961    115.08093    304.67875    867.74199   -5754.1056 
10639000    184.75423   -6513.4964   -6038.2274   -6513.4964            0    2553.6095    23.277417    21.585538     21.71266    10909.647    3346.0024     1379.242    2935.5841   -628.89874     363.6172   -112.58844   -5631.9328 
10640000    184.88821   -6505.7597   -6030.1461   -6505.7597            0    2948.0463    23.341423    21.449044    21.787599    10907.988    3460.4657    2605.8384    2777.8349   -990.65971   -1027.5908    467.82405   -5561.1655 
10641000    185.11542   -6517.8525   -6041.6544   -6517.8525            0    1299.6984    23.470004    21.463907    21.800649    10982.251    1458.3063    177.14127    2263.6475   -247.11955   -501.20075    282.67959   -5833.4884 
10642000    192.62577   -6521.2275   -6025.7095   -6521.2275            0    1766.0913    23.264501    21.549836     21.83854    10948.668    1885.2637    1420.4712    1992.5388     435.1126   -141.43118   -148.82167   -5743.7087 
10643000     190.6003   -6515.9166    -6025.609   -6515.9166            0    905.75351    23.468639    21.455057     21.83283    10993.288     675.5102    1088.8927    952.85765   -839.36143    35.417325   -13.288268   -5880.3933 
10644000    185.36567   -6511.5696   -6034.7277   -6511.5696            0    2252.8181     23.38761    21.467423    21.776725    10933.478    1481.7263    2670.3546    2606.3733    -452.5323    1070.3194   -671.18424   -5675.5078 
10645000     193.3749   -6502.1479   -6004.7028   -6502.1479            0    1476.0885      23.2773    21.545479    21.851155    10958.804     1767.807    1343.7164    1316.7423    316.52855    267.24881    84.023882     -5768.79 
10646000    183.88345   -6512.5933   -6039.5644   -6512.5933            0    1550.4515    23.362253    21.477381     21.89362    10985.343    1836.6144    2414.2869    400.45322   -1214.3625    713.92948   -128.83909   -5791.1666 
10647000    185.82501   -6525.6402   -6047.6166   -6525.6402            0    2789.4487    23.384291    21.458833    21.792449    10935.442    1861.1641    3861.3699    2645.8121    -612.3975    664.14027   -481.99044   -5602.7492 
10648000    181.05805   -6515.5035   -6049.7427   -6515.5035            0    2892.8918    23.332084    21.440002    21.779541    10894.996    2334.9187    2332.4154    4011.3413    859.25837   -247.56267    1331.5615   -5590.0844 
10649000    188.87246   -6489.5039    -6003.641   -6489.5039            0    1674.6373    23.398233    21.550966    21.752083    10968.586     2213.239    1390.5278     1420.145   -88.097585   -1029.4845   -252.61414   -5735.7567 
10650000    182.58791   -6507.3762   -6037.6799   -6507.3762            0    1729.6527    23.472673    21.493785    21.721015    10958.612    1011.6793    1934.5927    2242.6861    539.68874    136.19955    397.20861   -5761.2466 
10651000     186.4043   -6485.0616   -6005.5479   -6485.0616            0    3214.6833    23.370341    21.469182    21.719407    10897.541    2945.6602    2905.8924    3792.4975    738.10203   -40.421106     30.85183     -5494.64 
10652000    175.58991   -6501.6114   -6049.9171   -6501.6114            0    618.56514    23.456003    21.551765    21.751514    10995.787    317.63159    218.11111    1319.9527    196.56421   -342.20444   -76.125098   -5950.7225 
10653000    189.71661   -6485.9095   -5997.8751   -6485.9095            0     1161.626    23.478604    21.553109    21.764647    11013.715    1642.0013    464.35284    1378.5238   -856.13547    139.80878    402.44369   -5811.2904 
10654000    187.84715   -6511.6267   -6028.4013   -6511.6267            0    2365.6076    23.334943    21.489024    21.772393    10917.661    2473.7308    2632.0202     1991.072    805.24418   -1270.8621   -709.93785   -5651.7425 
10655000    181.78156   -6518.0232   -6050.4012   -6518.0232            0    699.40563    23.359392    21.503099    21.869577    10985.074    896.10092    1087.8308    114.28519    406.85169    842.40975   -137.68535   -5938.3522 
10656000    177.45165   -6519.6464   -6063.1629   -6519.6464            0     2049.775    23.327022     21.42064    21.845604    10915.806    1390.6021    2287.3988    2471.3241   -1334.6262     1360.212     474.7502   -5736.8472 
10657000    179.90633   -6505.4319   -6042.6338   -6505.4319            0    2565.5688     23.34645    21.505694    21.756079    10923.327    2526.9362    2418.9998    2750.7704    234.35414    488.01359   -1079.2954   -5633.9245 
10658000    190.93514   -6535.6787   -6044.5096   -6535.6787            0    1895.5217    23.458744    21.478951    21.746278     10957.28    1817.8846    1421.6528    2447.0275    508.26032   -542.78581   -45.065878    -5741.604 
10659000     192.4994   -6518.9098   -6023.7168   -6518.9098            0    2953.8812    23.463537    21.413155    21.683425    10894.368    2515.9159    3581.5121    2764.2155    665.74858   -442.92252    859.18548   -5554.3948 
10660000    186.68355   -6512.3469   -6032.1149   -6512.3469            0    3079.0547    23.389552     21.47286    21.694619    10895.918     3245.008    3158.0102    2834.1458   -478.89657       919.95   -1398.9136   -5542.8352 
10661000    182.10633   -6521.6201   -6053.1627   -6521.6201            0    2874.1089    23.362949    21.542723     21.65649    10899.744    1981.5615    2024.1309    4616.6342     549.2996    683.82332    791.90331   -5596.2898 
10662000    191.34101   -6518.1073   -6025.8942   -6518.1073            0    1479.4256    23.526907    21.458292    21.723578    10967.088    685.73267    1545.2081    2207.3361     385.5129   -24.827642    454.47793   -5789.2693 
10663000    188.46273   -6514.0785   -6029.2696   -6514.0785            0    909.54868    23.499728    21.613477    21.662379    11002.557   -128.02101    928.65382    1928.0132    836.16592   -272.30828    4.3310133   -5883.3225 
10664000    185.44365   -6523.8992   -6046.8567   -6523.8992            0    2939.5006    23.303156    21.538676    21.734574    10908.998    3347.3436    2216.1182    3255.0398    536.15309    295.30053   -368.73404   -5579.1923 
10665000    181.83802   -6497.5652    -6029.798   -6497.5652            0    2943.3156    23.372507    21.415568    21.792055    10907.698    2937.8834    2590.5614     3301.502   -168.55165    327.94299    270.45908   -5561.5825 
10666000     193.8151   -6504.1377   -6005.5602   -6504.1377            0    1065.9757     23.38766    21.501299    21.871926    10998.628    2095.9162    376.01493    725.99612   -925.12101    -251.7365   -32.244703   -5834.5737 
10667000    184.01021   -6510.5265   -6037.1714   -6510.5265            0     626.9016    23.287782    21.587235     21.93255    11025.906    717.28614    881.55628    281.86237   -277.09961   -584.00224    586.66102   -5936.3647 
10668000    193.34441   -6498.4711   -6001.1044   -6498.4711            0    2872.4279    23.349062    21.430159    21.841551    10928.947     2773.493    2891.6341    2952.1566     839.6383    -504.3839    -369.4603   -5543.2753 
10669000     194.0594   -6488.3284   -5989.1224   -6488.3284            0    1678.2224    23.351049    21.515384    21.886624    10995.988    2079.4323    1761.1727    1194.0623   -650.85219   -455.23519   -576.16164   -5719.9939 
10670000    187.04055   -6511.1088   -6029.9584   -6511.1088            0    2382.7953    23.179015    21.476207    22.016812     10959.91    2864.5392    1567.3498     2716.497   -113.59183    551.62084    884.95381   -5649.0946 
10671000    184.67837   -6502.3289   -6027.2551   -6502.3289            0    2033.8222    23.316134    21.474188     21.91941     10974.94    2904.5728    2228.4956    968.39834    569.37701   -897.72615    -1122.378   -5701.7251 
10672000    191.16415   -6516.3281     -6024.57   -6516.3281            0    3235.2663     23.37574    21.394336    21.821878    10913.306    3108.9696    3749.3494    2847.4799    66.715617   -134.23973    350.05616    -5509.647 
10673000    179.23927   -6502.0109   -6040.9288   -6502.0109            0    2775.4036    23.282193      21.4311    21.874498    10914.565    3354.4979    2963.4444    2008.2684    360.79249    137.54286    -77.89863   -5599.1464 
10674000    184.29605   -6518.9339   -6044.8435   -6518.9339            0    1939.4169    23.223257    21.656088    21.807612     10967.59    3606.5606    857.92572    1353.7643   -29.216219   -138.02102   -1432.1387   -5734.6317 
10675000    185.97154   -6500.7357   -6022.3353   -6500.7357            0    1725.1301    23.377473    21.401952    21.949648    10981.926    1567.5048    1257.7178    2350.1678   -518.07332    1042.1816    1090.3439   -5746.0382 
10676000    179.57594    -6510.219   -6048.2708    -6510.219            0    1711.2065    23.354035    21.529847     21.79255    10957.486    2507.4485    1823.0889    803.08212   -1019.2638    345.50834    -1125.411   -5774.8137 
10677000      197.838   -6505.0904   -5996.1642   -6505.0904            0    1846.3442    23.352415    21.631115    21.750036    10986.787    1808.6521    1325.6542    2404.7262    723.38665   -1301.2298    631.35298   -5700.3226 
10678000    193.40587   -6510.6115   -6013.0867   -6510.6115            0    1121.7936    23.550833    21.383841    21.805609    10981.463    324.50989    2361.6943    679.17654    217.08785   -601.25196    -247.5562   -5833.4277 
10679000    192.85475   -6525.5737   -6029.4666   -6525.5737            0    1516.4917    23.351455    21.503336    21.836086    10964.645    1670.1644    1514.6933    1364.6175   -346.24047    453.92249   -26.100322   -5786.9673 
10680000     196.5558   -6525.5831   -6019.9552   -6525.5831            0    1720.0232     23.19156    21.652329    21.815515    10954.689    2023.4775    1836.6873    1299.9048    -383.6772   -843.28191   -309.75129   -5745.1593 
10681000     190.5036   -6522.7734   -6032.7145   -6522.7734            0    4050.0201    23.360614    21.342946    21.751836    10845.124    5244.0747    2607.6176    4298.3679     266.6193    452.12968    510.79308    -5392.143 
10682000    187.37071   -6493.6244   -6011.6246   -6493.6244            0    1797.3265    23.432189     21.51642    21.804342    10993.244    1806.3675    1162.6681    2422.9437   -393.92724   -713.24623   -239.02782   -5723.4679 
10683000    181.36813   -6506.6926   -6040.1341   -6506.6926            0    879.83305    23.269649     21.71915    21.771451    11003.226    1064.7395    420.55984    1154.1998   -389.87686    482.55974    678.44819   -5898.9467 
10684000    181.12819   -6504.8986   -6038.9573   -6504.8986            0    3760.1605    23.369195    21.372899    21.759955     10868.39    3910.1634    4131.5174    3238.8007   -12.754931   -641.52089   -1553.1007   -5442.9557 
10685000    190.97386   -6506.9158   -6015.6471   -6506.9158            0    1930.7162    23.389246    21.453644    21.845967    10961.969    1767.1373    1541.6983     2483.313   -382.98827    124.14836     381.2891   -5706.9853 
10686000    193.29292    -6505.763   -6008.5288    -6505.763            0    194.16112    23.273162    21.676357    21.919424    11057.853    1196.5726   -701.85865    87.769436    -801.8092    463.22564     1710.908   -5977.2169 
10687000    186.32713   -6532.1055   -6052.7903   -6532.1055            0    1776.1651    23.434567    21.419242    21.812875    10948.987    1197.2888    2001.8962    2129.3102    296.92822    -800.2889   -561.45703   -5769.1727 
10688000    194.18767    -6506.908    -6007.372    -6506.908            0    2160.8432    23.345515     21.40562    21.901982    10944.973    2906.9922    2957.3782    618.15919   -199.27737    -356.2051   -451.26191   -5662.4557 
10689000    176.91723   -6515.2864   -6060.1776   -6515.2864            0    827.33008    23.165276    21.610641    22.020819    11023.985    2076.0806   -86.638226     492.5479   -77.395244    162.62365    485.41684   -5927.1649 
10690000    196.42159   -6491.1534   -5985.8708   -6491.1534            0    2325.1711    23.293443    21.385703    22.020941    10969.658    3676.2476     2526.641    772.62466   -370.56813    618.48433    125.84485   -5613.8871 
10691000    192.97844    -6502.583   -6006.1577    -6502.583            0    1684.0748    23.341772    21.405762    21.996086    10990.309    1618.6607    2918.3201    515.24368    175.88215    632.36903   -445.71014   -5736.2302 
10692000    188.63336   -6502.7919   -6017.5441   -6502.7919            0    3193.1812    23.229426    21.548719    21.840037    10932.344    4022.2355      3264.21    2293.0982   -445.62126   -129.56948   -1071.8698   -5508.4328 
10693000    185.34883   -6518.4436    -6041.645   -6518.4436            0    1938.7713    23.383484    21.394207    21.944635    10978.267    1723.5203    2308.5696    1784.2239     357.4218    603.40723    1610.4244   -5731.2346 
10694000    192.05696   -6521.8031   -6027.7483   -6521.8031            0    2161.9501    23.268311    21.512375    21.908653    10966.522     3708.988    851.32748    1925.5348   -106.92103   -440.70556   -102.50254   -5681.9758 
10695000    194.41104   -6510.6588   -6010.5483   -6510.6588            0     2184.443    23.207435    21.592838    21.856888    10952.801    2763.4227    1827.6233    1962.2831   -1407.7862   -84.145287   -495.14183   -5661.6154 
10696000    191.98862   -6529.0449   -6035.1659   -6529.0449            0     1721.925    23.401596    21.403433    21.832935     10935.56    1538.3077    1992.4589    1635.0084   -395.87085    737.05819   -185.43069   -5760.5465 
10697000    186.60812   -6503.7315   -6023.6935   -6503.7315            0    2106.9837    23.397247    21.563035    21.707294     10951.67    1973.3677    1336.7047    3010.8786   -622.77319    1323.2224    395.06502   -5687.1685 
10698000    188.66279   -6495.9239   -6010.6004   -6495.9239            0    3154.4052     23.34456    21.591238    21.655118    10915.002    2544.5208     2249.969    4668.7258    -613.8759   -79.758793    1060.2433   -5508.4693 
10699000    184.97052   -6487.5039   -6011.6785   -6487.5039            0    2387.1734    23.414653    21.373295    21.863259    10941.431    1691.3092    4117.7585    1352.4524    470.60248    -19.59359    18.031133   -5630.7584 
10700000      182.683   -6507.3253   -6037.3844   -6507.3253            0    2293.5135    23.324664    21.601136    21.773794    10970.492    2597.5502    1640.7722     2642.218   -198.26773    705.86979   -123.89742   -5670.4375 
10701000    197.18017   -6529.5228   -6022.2888   -6529.5228            0    2253.5629    23.360197    21.464573    21.774758    10918.226    1567.3737    2865.6243    2327.6907     -18.7736    1776.4019   -8.8537529   -5663.4514 
10702000    191.93963   -6521.7503   -6027.9973   -6521.7503            0    2414.6379    23.500469     21.26371    21.790364    10888.801    1713.2174    3152.5896    2378.1067    355.19117    804.92211    391.57921    -5644.548 
10703000    180.02799   -6533.9653   -6070.8542   -6533.9653            0    1627.9023    23.313642    21.595382    21.755935    10953.395     971.5685    2249.3356    1662.8029    7.5716092   -53.817171   -303.12001   -5810.8065 
10704000    181.93292    -6503.278   -6035.2666    -6503.278            0    1720.2506    23.348032    21.443846    21.922415     10975.93    935.92167    2643.0499    1581.7803    386.60414     107.3317   -184.10556   -5759.9015 
10705000    185.43525   -6518.5364   -6041.5155   -6518.5364            0    2593.9507    23.435579    21.245757    21.932049    10920.113    2149.5355    4237.7015     1394.615   -227.59034    266.66768   -895.96809   -5628.4065 
10706000    184.67591   -6528.9765    -6053.909   -6528.9765            0    630.96848    23.349989    21.600579    21.831996    11011.476    773.35515    1094.2786    25.271684     578.0069    201.91964   -853.03656   -5952.5811 
10707000    181.28789   -6515.0858   -6048.7337   -6515.0858            0    3069.6333     23.29499    21.480898    21.783621    10900.465    3142.0107    3604.8591    2462.0302   -80.008101   -252.77132   -86.323877   -5560.7476 
10708000    187.29997    -6510.551   -6028.7333    -6510.551            0    2550.5671    23.525782    21.289497    21.813799    10925.487    2618.7226    2965.3938    2067.5849    53.613548   -197.35119   -41.477788   -5622.3335 
10709000    184.49205   -6488.7773   -6014.1827   -6488.7773            0    1431.9964    23.414504    21.578956    21.773062     11001.07    913.11578    2686.1286    696.74467    -515.2944    97.011479    -1065.652   -5784.4342 
10710000    186.78529   -6509.1887   -6028.6949   -6509.1887            0    2859.3729    23.364118    21.476457    21.739923    10908.626     1810.905     2894.323    3872.8909     513.5033    1022.9614     250.1295   -5573.7941 
10711000    189.29591   -6501.0251   -6014.0729   -6501.0251            0     2532.899    23.484917    21.456255    21.689803    10929.456    2144.1028    2577.1794    2877.4147   -918.37543   -352.36456   -765.17739   -5610.3417 
10712000     187.2866   -6526.0353   -6044.2519   -6526.0353            0    1333.1549      23.4785    21.529517      21.7351    10986.675    655.75033    1719.0495    1624.6648   -92.077502    173.97537   -1075.3922   -5830.6413 
10713000    186.90317   -6509.2397   -6028.4427   -6509.2397            0     1493.809    23.445272    21.522655    21.772279     10986.39    1172.9138    1458.5981     1849.915    268.91584    395.78237   -80.390524   -5789.0969 
10714000    192.35277   -6521.7424   -6026.9266   -6521.7424            0    2699.0219     23.42958    21.506818    21.664617    10916.708    1394.6513    2863.9589    3838.4556    257.49778     315.6856    129.63208    -5597.218 
10715000    181.46715   -6529.8708   -6063.0576   -6529.8708            0    1361.0866    23.413818    21.533935    21.697401    10939.648    746.49068    1289.8799    2046.8893    822.96803    602.54127   -320.56027    -5845.905 
10716000    179.19384   -6492.3225   -6031.3572   -6492.3225            0    1098.3798    23.429122    21.512138    21.816875    10995.934    262.35354    1218.0378    1814.7479   -298.50455    391.39698    1318.7781   -5855.2162 
10717000    186.52338   -6507.6858   -6027.8658   -6507.6858            0    2628.1094    23.367411    21.471157    21.783042    10929.105    3040.5773    2332.5429    2511.2081   -20.183476   -522.05399   -435.07073    -5608.972 
10718000     188.7517    -6500.873   -6015.3208    -6500.873            0    3026.4485    23.335119    21.445205    21.783667    10901.122    2289.8109     3629.533    3160.0015    678.42642   -7.5351492   -316.07948   -5534.1709 
10719000    186.53365   -6516.0455   -6036.1991   -6516.0455            0    945.68571    23.391173      21.5935    21.768043     10994.98    679.61047    732.54784    1424.8988    -1121.987   -38.273369   -229.78435   -5884.5579 
10720000    181.93399   -6528.6563   -6060.6422   -6528.6563            0    2070.9402    23.327308    21.496992    21.778777    10921.337       3174.7     1408.051    1630.0695   -797.72303    488.61348   -363.43347   -5730.7901 
10721000    188.35818   -6523.5426   -6039.0026   -6523.5426            0    2008.3008    23.450773      21.4706    21.750318    10951.332    2006.8621    1106.1232    2911.9172    1332.5247    353.55414    684.26491    -5718.249 
10722000    182.54544   -6510.1035   -6040.5164   -6510.1035            0    2663.3401    23.356273    21.557408    21.681749    10916.776    2724.6465    1711.5268     3553.847    -105.7804   -455.83748    493.19168   -5616.4861 
10723000    183.57572   -6519.2655   -6047.0281   -6519.2655            0    1507.5122    23.346653     21.53708    21.797538    10960.211    720.50272    1346.0869    2455.9469    -51.37623    808.30044    389.98345   -5806.0622 
10724000    195.57991   -6506.3894    -6003.272   -6506.3894            0    3175.1737    23.429411    21.439648    21.693329    10896.956    3109.0503    2533.8956    3882.5751   -162.05255    184.96103   -286.10955   -5498.6704 
10725000    180.80727   -6506.3235   -6041.2078   -6506.3235            0    2616.8369    23.457978    21.552758    21.645355    10943.548    2413.2872    2531.8125    2905.4109    807.10464   -834.35531   -1213.6956   -5623.5596 
10726000    192.07821   -6521.1689   -6027.0594   -6521.1689            0    1974.0878    23.307426    21.525289    21.837589    10955.898     802.8215    1725.0494    3394.3926    1564.2022    362.89767    1737.4532   -5711.6386 
10727000    199.61305     -6501.01   -5987.5175     -6501.01            0    1349.4819    23.458218    21.473395     21.82806    10995.396     1516.045    1395.6571    1136.7436   -36.228867   -1016.5772   -1155.9264   -5771.1193 
10728000    192.72327   -6489.7266   -5993.9577   -6489.7266            0    1582.7425     23.34222    21.419726    21.964538    10981.917    2112.7927    1871.4627    763.97216   -135.09035    213.95721    774.53559   -5740.4657 
10729000    177.78494   -6467.9618   -6010.6209   -6467.9618            0    2532.2918    23.234575    21.613304    21.772468    10933.609    3695.4181    1804.0116    2097.4457    143.84536    54.402914   -693.22983   -5606.8331 
10730000    192.13503   -6496.9749   -6002.7193   -6496.9749            0    1226.3433    23.426127    21.506584    21.834121    11000.379    1335.4222    1243.5059    1100.1017   -55.663951    221.50715   -130.80328   -5805.9779 
10731000    189.62746   -6490.2762   -6002.4711   -6490.2762            0    2239.8392     23.39687    21.395323    21.905604    10965.586    1769.7282    3827.3153    1122.4741    682.57633   -1128.9214    370.41096   -5644.2719 
10732000    191.73008   -6515.6817   -6022.4678   -6515.6817            0    2196.9819    23.185743    21.669708    21.841705     10973.89    2662.2385    2292.9044    1635.8027   -381.58971    624.35733    15.025869   -5670.8564 
10733000    178.29794    -6503.642   -6044.9814    -6503.642            0    1702.6255    23.424016    21.433157    21.861007    10975.332    1160.3317    2630.0674    1317.4774    667.29704   -384.90906   -546.35769   -5772.4525 
10734000     183.6839   -6497.9584   -6025.4427   -6497.9584            0    1164.9328    23.411858    21.467851    21.906353    11010.183    1373.9961    1940.5662    180.23606   -223.45627    288.79479    194.72626   -5838.3869 
10735000    190.32572   -6519.6157   -6030.0144   -6519.6157            0    2861.8589    23.152923    21.731071    21.673891    10904.954    2914.8507    2609.1962    3061.5299    304.71624    -384.3491    92.353828   -5574.8713 
10736000    182.01553   -6500.9501   -6032.7263   -6500.9501            0    2876.1305    23.498936    21.396806    21.715974    10918.839    1988.8684     3475.274     3164.249   -65.737196    405.14452    244.25803   -5574.7311 
10737000    180.67333   -6508.5386   -6043.7675   -6508.5386            0    1962.9305    23.380288    21.462264    21.794656    10936.426    1157.3262    2019.4187    2712.0464    426.10044    323.71511    79.571699   -5730.6869 
10738000    192.54021   -6498.1364   -6002.8384   -6498.1364            0    1703.2195      23.2475    21.681484    21.804826    10990.511    2719.7208    1277.3166     1112.621    397.63758   -17.523943    777.37698   -5729.8374 
10739000    189.06518   -6517.6215   -6031.2628   -6517.6215            0    1601.6295    23.526993    21.340514    21.835572    10963.163    1348.3769    2215.2293    1241.2822   -93.747547   -452.67735   -586.40988   -5775.1839 
10740000    194.02728   -6519.3372   -6020.2138   -6519.3372            0    2434.1826    23.303473    21.465391    21.804751    10907.132    3166.1798    2624.9997    1511.3683    594.46773   -669.47919    480.91212     -5633.01 
10741000    180.18256   -6504.8832   -6041.3746   -6504.8832            0    1587.9955    23.207026    21.707691    21.736126    10950.029    2314.5824     38.32263    2411.0814   -125.15578   -369.26975    58.933385   -5787.7797 
10742000    187.84358   -6517.1106   -6033.8945   -6517.1106            0    1020.4495    23.528491    21.332759    21.905762    10995.107    451.08946    1466.7154    1143.5436   -143.55772    671.20605    14.409906    -5870.263 
10743000    185.50082   -6493.0591   -6015.8696   -6493.0591            0    2697.9173    23.291098    21.469165    21.834595     10918.18    2245.7247    3934.2895    1913.7377   -858.58024    1145.8461   -323.94576    -5586.279 
10744000    183.43077   -6502.1697   -6030.3052   -6502.1697            0    2002.3596    23.235719    21.671839    21.811001    10983.164    2684.7088    728.95256    2593.4174    691.75172    412.88112     364.1888   -5709.5709 
10745000    195.11285   -6491.8713   -5989.9553   -6491.8713            0    526.73016    23.642823    21.362046    21.867228    11044.242    171.84494    631.06875    777.27679   -369.47943    301.24049   -435.49191   -5905.1155 
10746000    187.56063   -6519.4029   -6036.9146   -6519.4029            0    1453.2077    23.428939    21.433528    21.802085     10948.24    578.51633    2419.0816    1362.0252    435.32585   -213.91943   -217.58507   -5804.8826 
10747000    189.11108   -6516.1897    -6029.713   -6516.1897            0    2554.7008    23.268182    21.566905    21.714529    10896.843    3064.6015    2836.7856    1762.7152   -325.81218   -178.18704   -614.29025   -5623.7218 
10748000      189.183    -6507.359   -6020.6973    -6507.359            0    516.06224    23.551346    21.421474    21.831098    11013.888    -661.4594    1051.3551    1158.2911    995.85818    993.27752   -84.959195   -5937.8042 
10749000    180.85134   -6501.3278   -6036.0987   -6501.3278            0    1705.7875    23.600117    21.507716    21.650927    10989.677    1411.2157    2301.4986    1404.6482   -441.38536   -506.97368   -249.12505   -5762.7067 
10750000    200.07505   -6500.5016   -5985.8208   -6500.5016            0    2922.7702    23.310493    21.629589    21.682906    10932.442    2830.9844    2072.4351    3864.8912    -591.2004    240.84073    624.21922   -5519.8188 
Loop time of 524.256 on 64 procs for 250000 steps with 1296 atoms

Performance: 82.402 ns/day, 0.291 hours/ns, 476.866 timesteps/s
197.1% CPU use with 32 MPI tasks x 2 OpenMP threads

MPI task timing breakdown:
Section |  min time  |  avg time  |  max time  |%varavg| %total
---------------------------------------------------------------
Pair    | 36.122     | 46.951     | 54.803     |  95.1 |  8.96
Bond    | 0.6673     | 0.96479    | 1.2328     |  12.8 |  0.18
Kspace  | 276.61     | 286.98     | 297.73     |  39.2 | 54.74
Neigh   | 2.3418     | 2.5099     | 2.6842     |   5.6 |  0.48
Comm    | 68.501     | 73.156     | 77.533     |  23.8 | 13.95
Output  | 0.49302    | 0.49397    | 0.49594    |   0.1 |  0.09
Modify  | 99.896     | 102.9      | 105.03     |  12.3 | 19.63
Other   |            | 10.31      |            |       |  1.97

Nlocal:        40.5000 ave          51 max          29 min
Histogram: 2 2 7 2 2 2 4 3 5 3
Nghost:        3056.53 ave        3107 max        3010 min
Histogram: 2 4 2 6 6 2 2 3 3 2
Neighs:        12756.6 ave       16003 max        9168 min
Histogram: 2 2 7 2 2 2 4 3 5 3

Total # of neighbors = 408210
Ave neighs/atom = 314.97685
Ave special neighs/atom = 2.0000000
Neighbor list builds = 5660
Dangerous builds = 0

unfix		3
unfix		2
unfix		1

write_data	data.final.${pid}
write_data	data.final.0
System init for write_data ...
PPPM initialization ...
  extracting TIP4P info from pair style
  using 12-bit tables for long-range coulomb (../kspace.cpp:340)
  G vector (1/distance) = 0.36784858
  grid = 27 40 32
  stencil order = 5
  estimated absolute RMS force accuracy = 0.004375626
  estimated relative force accuracy = 1.3177068e-05
  using double precision FFTW3
  3d grid and FFT values/proc = 7395 1120
Last active /omp style is kspace_style pppm/tip4p/omp
WARNING: Not all mixed pair coeffs generated from mixing. Use write_data with 'pair ij' option to store all pair coeffs. (../write_data.cpp:312)

write_restart   restart.lmp.${pid}
write_restart   restart.lmp.0
System init for write_restart ...
PPPM initialization ...
  extracting TIP4P info from pair style
  using 12-bit tables for long-range coulomb (../kspace.cpp:340)
  G vector (1/distance) = 0.36784858
  grid = 27 40 32
  stencil order = 5
  estimated absolute RMS force accuracy = 0.004375626
  estimated relative force accuracy = 1.3177068e-05
  using double precision FFTW3
  3d grid and FFT values/proc = 7395 1120
Last active /omp style is kspace_style pppm/tip4p/omp
Total wall time: 0:08:44
