LAMMPS (30 Jul 2021)
  using 1 OpenMP thread(s) per MPI task
package omp 0
using multi-threaded neighbor list subroutines
echo both

include		in.partitions
variable        pid world 0
include		in.temp
variable        temperature equal 200.21
variable	tempDamp equal 100.0
include		in.pressure
variable        pressure equal -750.0
variable        pressureDamp equal 1000.0 # This is 1 ps
include		in.seed
variable        seed world 745823

units		real
atom_style	full
read_restart	restart.lmp.${pid}
read_restart	restart.lmp.0
Reading restart file ...
  restart file = 30 Jul 2021, LAMMPS = 30 Jul 2021
  restoring atom style full from restart
  orthogonal box = (-0.21527517 0.83796555 -0.26263521) to (18.422848 22.791212 22.475831)
  4 by 4 by 4 MPI processor grid
  restoring pair style lj/cut/tip4p/long/omp from restart
  restoring bond style harmonic/omp from restart
  restoring angle style harmonic/omp from restart
  864 atoms
  576 bonds
  288 angles
Finding 1-2 1-3 1-4 neighbors ...
  special bond factors lj:    0        0        0       
  special bond factors coul:  0        0        0       
     2 = max # of 1-2 neighbors
     1 = max # of 1-3 neighbors
     1 = max # of 1-4 neighbors
     2 = max # of special neighbors
  special bonds CPU = 2.256 seconds
  read_restart CPU = 2.753 seconds
include 	in.setup
variable	out_freq equal 1000
variable	out_freq2 equal 10000
variable	out_freq3 equal 1000

timestep	2.0

neigh_modify    delay 7 every 1

include		in.tip4p
# This is TIP4P/Ice

# create groups ###
group ox type 2
288 atoms in group ox
group hy type 1
576 atoms in group hy

# set charges - beside manually ###
set group ox charge -1.1794
Setting atom values ...
  288 settings made for charge
set group hy charge 0.5897
Setting atom values ...
  576 settings made for charge

# ### TIP3P Potential Parameters ###
pair_style lj/cut/tip4p/long/omp 2 1 1 1 0.1577 8.5
pair_coeff 1 1*2 0.000 0.000
pair_coeff 2 2 0.21084 3.1668
bond_style  harmonic
bond_coeff  1 450 0.9572
angle_style harmonic
angle_coeff 1 55 104.52
kspace_style pppm/tip4p/omp 1.0e-5
pair_modify tail yes

thermo          ${out_freq}
thermo          1000
thermo_style    custom step temp pe etotal epair emol press lx ly lz vol pxx pyy pzz pxy pxz pyz enthalpy

restart 	${out_freq3} restart.lmp.${pid} restart2.lmp.${pid}
restart 	1000 restart.lmp.${pid} restart2.lmp.${pid}
restart 	1000 restart.lmp.0 restart2.lmp.${pid}
restart 	1000 restart.lmp.0 restart2.lmp.0


include         in.dump
dump            myDump all atom ${out_freq2} dump.water.${pid}
dump            myDump all atom 10000 dump.water.${pid}
dump            myDump all atom 10000 dump.water.0
dump            myDump2 all dcd ${out_freq2} dump.dcd
dump            myDump2 all dcd 10000 dump.dcd
dump_modify     myDump append yes
dump_modify     myDump2 append yes


variable natoms 	equal  "count(all)"                        # NUMBER ATOMS
variable H      	equal  "enthalpy/v_natoms"                 # ENTHALPY-per-atom
variable Vol      	equal  "vol/v_natoms"                 # volume-per-atom
fix AVG all 		ave/time ${out_freq} 1 ${out_freq} v_Vol v_H file vol_enthalpy.dat
fix AVG all 		ave/time 1000 1 ${out_freq} v_Vol v_H file vol_enthalpy.dat
fix AVG all 		ave/time 1000 1 1000 v_Vol v_H file vol_enthalpy.dat


timer           timeout 23:50:00 every 1000
New timer settings: style=normal  mode=nosync  timeout=23:50:00

fix 		1 all shake 1e-6 200 0 b 1 a 1
       0 = # of size 2 clusters
       0 = # of size 3 clusters
       0 = # of size 4 clusters
     288 = # of frozen angles
  find clusters CPU = 1.403 seconds
fix             2 all nph iso ${pressure} ${pressure} ${pressureDamp}
fix             2 all nph iso -750 ${pressure} ${pressureDamp}
fix             2 all nph iso -750 -750 ${pressureDamp}
fix             2 all nph iso -750 -750 1000
fix             3 all temp/csvr ${temperature} ${temperature} ${tempDamp} ${seed}
fix             3 all temp/csvr 200.21 ${temperature} ${tempDamp} ${seed}
fix             3 all temp/csvr 200.21 200.21 ${tempDamp} ${seed}
fix             3 all temp/csvr 200.21 200.21 100 ${seed}
fix             3 all temp/csvr 200.21 200.21 100 745823

run             250000
PPPM initialization ...
  extracting TIP4P info from pair style
  using 12-bit tables for long-range coulomb (../kspace.cpp:340)
  G vector (1/distance) = 0.37197937
  grid = 24 25 27
  stencil order = 5
  estimated absolute RMS force accuracy = 0.0031068534
  estimated relative force accuracy = 9.3561967e-06
  using double precision FFTW3
  3d grid and FFT values/proc = 2730 384
Last active /omp style is kspace_style pppm/tip4p/omp
Neighbor list info ...
  update every 1 steps, delay 7 steps, check yes
  max neighbors/atom: 2000, page size: 100000
  master list distance cutoff = 10.8154
  ghost atom cutoff = 10.8154
  binsize = 5.4077, bins = 4 5 5
  1 neighbor lists, perpetual/occasional/extra = 1 0 0
  (1) pair lj/cut/tip4p/long/omp, perpetual
      attributes: half, newton on, omp
      pair build: half/bin/newton/omp
      stencil: half/bin/3d
      bin: standard
Per MPI rank memory allocation (min/avg/max) = 9.204 | 9.213 | 9.220 Mbytes
Step Temp PotEng TotEng E_pair E_mol Press Lx Ly Lz Volume Pxx Pyy Pzz Pxy Pxz Pyz Enthalpy 
19500000    209.59985   -4146.2976   -3787.0507   -4146.2976            0   -573.10124    18.638123    21.953247    22.738466     9303.837    625.56213   -878.13148   -1466.7344    893.43004   -927.89763    345.53793    -3864.813 
19501000    210.91895   -4172.9644   -3811.4565   -4172.9644            0   -2368.4561    18.717602    22.046862     22.83543    9423.3686   -1698.9224    -2665.599    -2740.847    321.42062    209.10528    -532.3117   -4136.9538 
19502000     196.8371   -4151.1851    -3813.813   -4151.1851            0   -761.07683    18.680489    22.003149    22.790153    9367.4273   -1437.5908   -1510.5243     664.8846    1135.5653    25.573627   -411.87066    -3917.787 
19503000    199.41558   -4161.5267   -3819.7352   -4161.5267            0   -1218.6484    18.661926    21.981284    22.767506    9339.5288   -1705.9379    74.179756   -2024.1872    614.13944    158.15902    476.89343   -3985.7242 
19504000    189.53853   -4170.5953   -3845.7328   -4170.5953            0   -564.52616     18.58903    21.895422    22.678574    9230.5123   -1173.0188   -932.95042    412.39074    698.70846    25.151897    1052.0048   -3921.7279 
19505000    207.05859    -4156.768   -3801.8767    -4156.768            0   -1929.9314    18.779588    22.119874    22.911054    9517.3003    -2725.743   -1794.9904   -1269.0607   -148.58584   -15.952236   -106.63327   -4069.7513 
19506000    200.01943    -4147.067   -3804.2405    -4147.067            0    42.926621    18.608832    21.918746    22.702732     9260.042    786.28685   -393.12977   -264.37721    170.91574    69.612387    627.70192   -3798.4434 
19507000    208.54252   -4169.5719   -3812.1372   -4169.5719            0    196.21566    18.657709    21.976317    22.762361    9333.1993    298.18518    50.805687    239.65611      771.981    483.98239   -538.95749   -3785.4293 
19508000    209.20636   -4162.5913   -3804.0188   -4162.5913            0   -778.26043    18.704859    22.031853    22.819884    9404.1358   -1534.6808    645.20417   -1445.3046   -9.5289034    347.00368    183.45591   -3910.7569 
19509000    204.68381   -4140.7153   -3789.8943   -4140.7153            0      -874.89    18.700722     22.02698    22.814837    9397.8973   -835.21858   -652.60572   -1136.8457    427.34506    134.64528    237.97056   -3909.8056 
19510000    198.67563   -4150.0671   -3809.5439   -4150.0671            0    -495.4068    18.686485    22.010211    22.797468    9376.4494    189.78903   -750.54381   -925.46561     939.5155    361.10194   -199.12143   -3877.2887 
19511000    209.20619   -4168.3456   -3809.7734   -4168.3456            0   -1098.5432    18.719713    22.049349    22.838006    9426.5578   -611.56792   -1055.5552   -1628.5066   -242.14025    1192.5793   -533.58035   -3960.7975 
19512000    216.51886   -4148.7114   -3777.6055   -4148.7114            0   -580.62443    18.673679    21.995128    22.781845    9357.1862    -676.5811    207.81915   -1273.1113    875.24932    246.67558   -57.708663   -3856.8404 
19513000    205.25828   -4145.5786   -3793.7729   -4145.5786            0   -1145.6157    18.706223    22.033459    22.821548    9406.1929   -1104.2722   -815.76242   -1516.8126   -153.02757    142.55093    123.67426   -3950.9281 
19514000    192.74346   -4157.3012   -3826.9455   -4157.3012            0   -976.95316    18.667739    21.988131    22.774598    9348.2596   -1540.8089   -681.16049   -708.89012    377.74131    785.36243    185.29094   -3960.1382 
19515000    210.09124   -4169.8544   -3809.7652   -4169.8544            0   -193.48291    18.651684     21.96922    22.755011      9324.16   -1213.2755    506.70381    126.12297    512.62253   -89.395524     275.2738   -3836.0756 
19516000     199.0078   -4149.5052   -3808.4127   -4149.5052            0   -1772.6529    18.751267    22.086515    22.876502    9474.3063   -2230.3635   -882.94467   -2204.6506    1170.5372   -844.05004   -672.04975   -4053.3455 
19517000    205.22957   -4163.0427   -3811.2863   -4163.0427            0   -583.72116    18.681249    22.004043     22.79108    9368.5696   -951.88167   -33.006477   -766.27533    159.49169   -221.48906    493.82495   -3891.0407 
19518000    195.19464   -4175.5718   -3841.0148   -4175.5718            0   -368.60137     18.67924    22.001677    22.788629    9365.5478    -1148.165    940.60357   -898.24267    258.96677    526.66006    376.61531    -3891.361 
19519000    193.26034   -4145.7276    -3814.486   -4145.7276            0   -627.84784    18.707833    22.035356    22.823512     9408.622    104.58621   -1855.9573   -132.17244    223.55801   -192.56137   -1.8004794   -3900.6362 
19520000     186.5167   -4149.3139   -3829.6306   -4149.3139            0   -1617.6995    18.749359    22.084269    22.874175    9471.4157   -2232.6106   -1070.5837   -1549.9042   -190.92629    151.40437   -410.72529   -4053.0849 
19521000    196.80206   -4173.1564   -3835.8444   -4173.1564            0   -825.29082    18.662199    21.981606     22.76784    9339.9394    -813.8231    117.73892   -1779.7883    1001.2141   -726.55921     192.8779   -3948.2601 
19522000    206.72278   -4154.2644   -3799.9486   -4154.2644            0   -1500.7165    18.700633    22.026876    22.814729    9397.7635   -1301.3909   -1424.6413   -1776.1174    877.62596   -509.86066    17.077944   -4005.6319 
19523000    196.37403    -4176.393   -3839.8147    -4176.393            0   -57.760104    18.649544      21.9667      22.7524    9320.9515    717.28603   -669.45383   -221.11251   -607.14248    596.96927    948.72189   -3847.6664 
19524000    213.97902   -4144.2637    -3777.511   -4144.2637            0   -948.78298    18.724478    22.054961    22.843819    9433.7577   -2067.4373    86.617603   -865.52928    215.56239   -24.429922    243.38403   -3908.0461 
19525000    202.56369   -4163.7034   -3816.5162   -4163.7034            0   -110.77174    18.657145    21.975653    22.761674    9332.3535    1094.2575    -109.0694   -1317.5034    735.12117   -437.04806    587.67586   -3831.5925 
19526000    209.27054    -4144.033   -3785.3504    -4144.033            0   -382.20852    18.716499    22.045563    22.834085    9421.7031   -430.92671    715.21142   -1430.9103   -323.66888   -334.21147   -323.69482   -3837.8681 
19527000    217.62423   -4179.9126   -3806.9121   -4179.9126            0   -537.92677    18.674734     21.99637    22.783132    9358.7721   -1424.8834    562.20666   -751.10359    355.45045     74.12341    4.6538617   -3880.3327 
19528000    203.95688   -4176.5289   -3826.9538   -4176.5289            0   -989.47293    18.657619     21.97621    22.762251    9333.0636    40.562536   -963.25533    -2045.726    345.98961   -1518.8069   -514.79622   -3961.6341 
19529000    187.90204    -4171.689   -3849.6313    -4171.689            0    145.24362    18.656896    21.975359    22.761369    9331.9785    48.257767   -535.76992    923.24301    1611.4734   -666.18604    320.48683    -3829.864 
19530000    203.23059   -4145.9364   -3797.6061   -4145.9364            0   -1232.6686    18.673784    21.995251    22.781973    9357.3437    8.8637195   -2004.4085   -1702.4611    521.96635   -127.33878     125.8173    -3965.825 
19531000    198.86512   -4132.2452   -3791.3972   -4132.2452            0   -1321.3267     18.71677    22.045883    22.834416    9422.1128   -1794.2151   -1111.6329   -1058.1321    300.67814    814.03406   -1452.5053   -3972.9632 
19532000    194.99267   -4140.0511   -3805.8403   -4140.0511            0   -277.58223    18.729808    22.061239    22.850322    9441.8161   -830.89242    498.78038   -500.63466    959.75122   -272.36748    218.10598   -3844.0632 
19533000    204.60644   -4165.4458   -3814.7573   -4165.4458            0   -117.85057     18.66347    21.983103     22.76939    9341.8477    -522.7449   -500.41206    669.60525    957.63334   -1208.3403   -812.87019   -3830.8134 
19534000    195.88999   -4172.9134   -3837.1647   -4172.9134            0   -1115.8428    18.662951    21.982492    22.768757    9341.0688   -403.97152   -1559.9107   -1383.6461   -21.641342   -1111.7038    -185.2398   -3989.1758 
19535000    195.50386   -4183.9212   -3848.8342   -4183.9212            0   -1409.6095    18.701865    22.028327    22.816232    9399.6211   -1464.6099    -584.5758   -2179.6428    819.18964   -1218.2377   -255.05548   -4042.0689 
19536000    194.65581   -4167.0956   -3833.4622   -4167.0956            0    89.022605    18.645379    21.961794    22.747319    9314.7081   -610.48553    312.59326    564.96009    601.47046   -131.87959   -484.37025   -3821.3689 
19537000    210.32147   -4171.2824   -3810.7986   -4171.2824            0   -1716.9006    18.709774    22.037642    22.825881    9411.5512   -2116.6995   -778.38786   -2255.6144   -239.43796   -592.35445    353.05774   -4046.4566 
19538000    203.61049   -4160.6663   -3811.6849   -4160.6663            0    -1329.421    18.729913    22.061363     22.85045    9441.9753   -672.43028   -600.83437   -2714.9983    513.30673    126.26141   -137.89612   -3994.7482 
19539000    206.70109   -4166.8519   -3812.5733   -4166.8519            0   -1509.9499    18.711141    22.039252    22.827548     9413.614   -1604.0908   -976.92169   -1948.8373    45.749652   -150.12442   -887.87069   -4019.8711 
19540000    196.44583   -4161.8725    -3825.171   -4161.8725            0   -894.39444    18.645502    21.961938    22.747469    9314.8921   -335.55518   -903.49327   -1444.1349    414.27065    547.65477   -288.34414   -3946.6729 
19541000    187.65276    -4137.968   -3816.3376    -4137.968            0   -1083.9736    18.711534    22.039715    22.828028    9414.2075   -1282.7398    -647.2188    -1321.962    150.78133    115.87074   -833.21747   -3965.1634 
19542000    201.92342   -4171.1727   -3825.0828   -4171.1727            0    638.46081    18.661869    21.981216    22.767436    9339.4432   -954.92444    1835.8381    1034.4688    835.14765    -379.5782   -791.68984   -3738.1205 
19543000    211.19258   -4170.4104   -3808.4335   -4170.4104            0   -1100.3457    18.700532    22.026757    22.814605    9397.6114    -1477.914   -873.30089   -949.82216    1017.6925    137.81734    750.56555   -3959.2409 
19544000    204.87366    -4163.896   -3812.7495    -4163.896            0   -555.43173    18.644227    21.960436    22.745913    9312.9811    -462.6709   -56.372875   -1147.2514     740.0602   -594.95761   -251.51232   -3888.1884 
19545000    191.03086   -4181.9102   -3854.4898   -4181.9102            0   -585.65626    18.629852    21.943505    22.728376    9291.4565   -1197.0893   -547.31014   -12.569303    104.10673   -1190.9913    2.2117486     -3933.85 
19546000    202.73734   -4146.3128    -3798.828   -4146.3128            0    682.71153    18.630115    21.943814    22.728696    9291.8495    279.24891    666.46434    1102.4213    1204.4596   -70.689124     64.09787   -3706.3123 
19547000    193.05642   -4158.8602   -3827.9681   -4158.8602            0   -2189.2648    18.748583    22.083354    22.873227    9470.2385   -1528.7932   -2368.4833   -2670.5179    21.776652    7.9761118    381.15558   -4130.3356 
19548000    201.18493    -4156.681   -3811.8569    -4156.681            0   -339.29878     18.67107    21.992054    22.778662    9353.2641   -1222.4941    600.52578   -395.92797    343.96829   -171.93786   -590.88955   -3858.1399 
19549000    200.78343    -4151.578   -3807.4421    -4151.578            0   -235.43903    18.681782    22.004671     22.79173    9369.3717    66.936506    331.31606   -1104.5696     1009.149    381.14722    532.90728   -3839.6131 
19550000    201.51505   -4172.6527   -3827.2628   -4172.6527            0   -832.29625    18.660725    21.979869    22.766041    9337.7257    -2452.665   -61.917689    17.693891    400.28371    65.044408   -1515.6737   -3940.6059 
19551000    203.09524   -4145.9698   -3797.8715   -4145.9698            0   -921.71893    18.714277    22.042946    22.831374    9418.3477   -1212.2247   -4.5115218   -1548.4206    1258.0165    925.77859   -70.240204    -3924.476 
19552000    196.46822   -4162.3473   -3825.6075   -4162.3473            0   -1947.2878     18.72835    22.059523    22.848543     9439.612   -1805.8894   -1884.1321   -2151.8419    1390.0208    241.34349    26.106588   -4093.6849 
19553000    202.57946    -4182.043   -3834.8288    -4182.043            0   -442.30939    18.630298     21.94403     22.72892     9292.124    217.93135   -612.61918   -932.24034    484.69359    455.97729    812.02279   -3894.7688 
19554000    206.03642   -4154.2858   -3801.1464   -4154.2858            0   -59.551349    18.623709    21.936269    22.720881    9282.2677   -1017.4629    311.59791    527.21095   -432.18682    -875.1038    476.72479   -3809.2081 
19555000    197.58637   -4154.9481   -3816.2918   -4154.9481            0    223.60282     18.61632    21.927566    22.711866    9271.2239    698.38924   -868.87165    841.29086   -109.78923   -105.39979   -823.56017   -3786.0582 
19556000    208.61522   -4143.5536   -3785.9943   -4143.5536            0    128.10092    18.597034    21.904849    22.688338      9242.44   -830.29938    497.73631    716.86582    323.87141     641.7064    277.56968   -3768.7274 
19557000    202.74388    -4163.945    -3816.449    -4163.945            0    527.81802    18.616127    21.927338    22.711631    9270.9357    1092.8468    828.25912   -337.65188    245.03552   -562.40109    660.50009   -3745.0842 
19558000     191.0019   -4143.1266   -3815.7559   -4143.1266            0   -523.46084    18.653157    21.970955    22.756808    9326.3695   -781.82445   -1209.3447    420.78665    913.93784    184.42582    709.86698   -3886.9547 
19559000    201.30651   -4161.4242   -3816.3917   -4161.4242            0   -897.42918    18.649789    21.966987    22.752698     9321.318   -1778.9945    293.81297    -1207.106    1338.2149    130.06337    4.0438071   -3938.3899 
19560000    192.27096   -4172.3733   -3842.8274   -4172.3733            0    -555.0804    18.636978    21.951898     22.73707    9302.1229   -741.28288   -238.85662    -685.1017   -53.394781   -939.75699    15.279444   -3918.1307 
19561000    192.20291   -4142.4848   -3813.0556   -4142.4848            0   -1015.2904    18.696943    22.022529    22.810227    9392.2017   -1570.1864    257.61005    -1733.295    441.04759    227.63056   -229.64533   -3952.1256 
19562000    202.60432   -4153.2975   -3806.0407   -4153.2975            0   -331.91225    18.663466    21.983097    22.769385     9341.841   -239.15428    24.554219    -781.1367    249.01901    797.46371    -42.04475   -3851.2608 
19563000    207.96383   -4146.4392   -3789.9963   -4146.4392            0   -643.92023    18.677738    21.999909    22.786797    9363.2897    -14.60749   -372.75126    -1544.402    943.11126   -424.97197    356.17791   -3877.9262 
19564000    200.15034   -4164.5904   -3821.5395   -4164.5904            0   -22.611477    18.664481    21.984293    22.770623    9343.3659    687.71278    -455.5875   -299.95971    437.51095   -416.01739     490.4583   -3824.6207 
19565000    196.78804   -4175.2305   -3837.9425   -4175.2305            0   -1389.7415    18.678824    22.001187    22.788121     9364.922   -1771.5732   -757.91864   -1639.7327   -173.00147   -358.18777    146.35938   -4027.7503 
19566000     218.8737   -4169.6227   -3794.4807   -4169.6227            0   -487.76917    18.633099    21.947329    22.732337    9296.3153     -329.119   -399.29106   -734.89746    700.37009   -444.97987   -194.47766   -3860.6111 
19567000    185.32729    -4162.501   -3844.8564    -4162.501            0   -576.12307    18.659828    21.978813    22.764947    9336.3798   -169.09837   -621.54054   -937.73028   -205.45463   -289.54757    984.99642   -3923.3022 
19568000    201.59962   -4165.9388    -3820.404   -4165.9388            0   -492.23589    18.637797    21.952863    22.738069    9303.3496   -1409.8523    827.72456   -894.57991    63.855656    3.5581969    626.24429   -3887.1904 
19569000    194.47303   -4187.5005   -3854.1804   -4187.5005            0   -207.00478    18.639294    21.954626    22.739895    9305.5914   -654.80885    602.78031   -568.98579    832.71471    1024.7385   -275.82496   -3882.2735 
19570000    206.55554   -4178.1552   -3824.1261   -4178.1552            0   -635.51999    18.646677    21.963322    22.748902    9316.6526   -1370.0309   -1168.6747    632.14563    1565.7656   -508.36232   -314.65888   -3910.4766 
19571000    203.15108   -4174.3052   -3826.1112   -4174.3052            0   -1099.8115    18.686086    22.009741    22.796981    9375.8487   -2151.1597   -787.39385   -360.88078    261.21335   -1013.4509    433.29438   -3976.4962 
19572000    218.93338   -4146.2338   -3770.9895   -4146.2338            0   -649.77034     18.70888    22.036589     22.82479     9410.202   -1436.1409    441.83459   -955.00472    467.38676    782.84172    1065.5993   -3860.1627 
19573000    188.38993   -4166.1542   -3843.2603   -4166.1542            0   -1433.1735    18.705194    22.032248    22.820293    9404.6411   -1659.3857   -1022.4539   -1617.6809     120.6789   -222.48212     391.9374   -4039.8302 
19574000    209.08527    -4190.867    -3832.502    -4190.867            0   -145.88403    18.644275    21.960493    22.745972    9313.0536   -160.10621   -387.96256    110.41667    763.58132   -58.290897   -893.46199   -3852.3162 
19575000    201.21798   -4168.2674   -3823.3866   -4168.2674            0   -1080.0761    18.669396    21.990082    22.776619    9350.7486   -1795.4348    205.91284   -1650.7062   -211.61823   -535.08583   -780.33083   -3970.6778 
19576000    199.25661   -4169.4159   -3827.8969   -4169.4159            0   -18.574414    18.655825    21.974097    22.760062    9330.3715    28.938577    1103.4404   -1188.1022     231.3719     241.4822   -430.67174   -3830.4244 
19577000    201.88698   -4184.0989   -3838.0715   -4184.0989            0   -1127.9725    18.673409     21.99481    22.781516    9356.7807    -1286.192   -562.65682   -1535.0688    798.07274    310.64092    689.76698   -3991.9936 
19578000    209.78549   -4144.5581   -3784.9929   -4144.5581            0   -21.640119    18.634135     21.94855    22.733602    9297.8671   -550.04196   -340.90091    826.02252   -669.02355     132.5256   -182.75293   -3787.9273 
19579000    203.39087   -4178.6764   -3830.0714   -4178.6764            0   -984.25758     18.70132    22.027684    22.815566     9398.799   -1148.6546   -433.79143   -1370.3267    396.18461    525.40621    -599.3496   -3964.9854 
19580000    214.88226    -4160.163   -3791.8622    -4160.163            0   -1007.4708    18.658367    21.977092    22.763164    9334.1866   -1254.1905   -267.71473   -1500.5072    267.61311    109.47206    668.32179   -3929.0087 
19581000     200.2964   -4161.9258   -3818.6246   -4161.9258            0    245.76731    18.611935    21.922401    22.706517     9264.674   -632.17028    1248.5943    120.87791    606.91701   -527.84016    253.66283   -3785.4176 
19582000    191.80728   -4167.8327   -3839.0816   -4167.8327            0   -295.12291    18.614657    21.925607    22.709838    9268.7398   -820.41707    434.37096   -499.32263     535.9078   -274.72559    336.25923   -3878.9749 
19583000    187.93202   -4156.6331   -3834.5241   -4156.6331            0    23.403783     18.67028    21.991124    22.777698    9352.0773    93.915357   -11.605081   -12.098928    1430.5665   -1017.5092    140.47547    -3831.332 
19584000    214.62936   -4156.6538   -3788.7864   -4156.6538            0     -766.705    18.675625    21.997419    22.784219    9360.1115   -678.47791   -1701.7484    80.111337    125.26638    -660.2138   -534.51344   -3893.4475 
19585000    198.72163   -4153.0858   -3812.4838   -4153.0858            0   -2307.8178    18.722136    22.052204    22.840963    9430.2196   -1758.5592   -2413.7685   -2751.1258    423.52621    990.19635    164.20503   -4129.8781 
19586000    199.59028   -4163.4511   -3821.3602   -4163.4511            0   -290.27551    18.669383    21.990067    22.776603    9350.7289   -1828.4659    1467.9975   -510.35804   -123.80839    640.91156   -721.06982   -3860.9453 
19587000    189.36971   -4156.6167   -3832.0434   -4156.6167            0   -1427.8169    18.714317    22.042993    22.831423    9418.4085   -1385.6479   -1603.2606   -1294.5422    614.61216    71.650483    98.165337   -4028.1653 
19588000     218.2509   -4175.1189   -3801.0443   -4175.1189            0   -1234.6417    18.644539    21.960804    22.746294    9313.4486   -941.35543   -1167.9629   -1594.6068    492.76508   -647.15414   -95.080149   -3968.7421 
19589000    188.02594   -4167.4654   -3845.1954   -4167.4654            0    -73.92718    18.662207    21.981615    22.767849     9339.951    520.90672    482.63268   -1225.3209   -178.98649   -762.73694    267.06669   -3855.2653 
19590000    201.79339   -4166.1998   -3820.3329   -4166.1998            0    679.47417    18.632089     21.94614    22.731106    9294.8046    29.556063    1179.4286    829.43789     1895.681   -26.997082    424.14075   -3728.2266 
19591000    194.02662   -4177.2052   -3844.6502   -4177.2052            0   -843.86592     18.66677    21.986989    22.773416    9346.8034   -1058.7473     -442.691   -1030.1595    942.45631    801.06009    584.32894   -3959.6806 
19592000    207.00941    -4159.199    -3804.392    -4159.199            0    -1148.833    18.682014    22.004945    22.792014    9369.7218    -1926.252    139.21067   -1659.4575    456.00722   -195.06792    676.53482   -3961.3775 
19593000    191.21367   -4166.1679   -3838.4342   -4166.1679            0   -313.49722    18.640189     21.95568    22.740987    9306.9311   -1764.9449    556.04492    268.40828    651.57308     942.2054    77.135448   -3880.9858 
19594000    197.07322   -4165.1218    -3827.345   -4165.1218            0   -1486.3576    18.681641    22.004505    22.791558    9369.1593   -2136.5278   -873.37895    -1449.166   -511.57242    149.13799    52.564322   -4030.4403 
19595000    197.27902   -4177.3484   -3839.2189   -4177.3484            0   -1245.1654    18.654362    21.972374    22.758278    9328.1769   -2423.1514   -459.25198   -853.09294    419.34685    105.78443    144.45943   -4008.6136 
19596000     209.3933   -4159.4589    -3800.566   -4159.4589            0   -2326.9245    18.733126    22.065147    22.854369    9446.8348   -3529.5781   -2517.2464   -933.94899    797.95282    97.005588   -193.25747   -4121.1519 
19597000     201.7448   -4158.8037     -3813.02   -4158.8037            0   -483.69726    18.670544    21.991435     22.77802     9352.474    329.31994   -951.04731   -829.36442    78.498902    850.95354   -191.43783   -3878.9945 
19598000    191.58103   -4175.0634   -3846.7001   -4175.0634            0   -872.17974    18.638141    21.953268    22.738488    9303.8641   -1458.9908    320.14061    -1477.689    4.2614727   -48.716353    514.82166   -3965.0438 
19599000    197.07234   -4150.0373   -3812.2621   -4150.0373            0   -2464.8012    18.763264    22.100647    22.891138    9492.5034   -2012.5148   -2384.4688   -2997.4199   -411.91636   -42.937483    479.24143   -4153.4853 
19600000    205.49321   -4191.1054   -3838.8971   -4191.1054            0   -1011.9276    18.656037    21.974347    22.760321    9330.6897   -896.55679   -283.13576   -1856.0903    727.81458    72.714509   -615.22924   -3976.5987 
19601000    194.56128   -4188.1885   -3854.7172   -4188.1885            0   -431.99252    18.625983    21.938948    22.723656    9285.6697   -375.46985   -831.11104   -89.396689   -208.79313    89.424755   -340.66543   -3913.2184 
19602000    210.97109   -4174.0196   -3812.4224   -4174.0196            0    92.126908    18.664487      21.9843     22.77063    9343.3744    617.92199   -617.39111    275.84984    641.52754   -687.51455    263.10258   -3799.8688 
19603000    210.06215   -4173.2725   -3813.2332   -4173.2725            0   -821.01091    18.692855    22.017714    22.805239    9386.0422   -910.36789   -748.51526   -804.14959    730.24834    119.16989    448.37625   -3925.6179 
19604000    201.36518   -4164.5407   -3819.4077   -4164.5407            0   -256.35152    18.615705    21.926841    22.711116    9270.3053   -637.23648    757.75349   -889.57157    868.77411    390.99424    211.84599   -3854.0658 
19605000    201.15231   -4144.9227   -3800.1545   -4144.9227            0   -883.47727    18.715432    22.044307    22.832783     9420.092   -789.01714   -91.836301   -1769.5784    1299.6817    384.41574    961.48755   -3921.5287 
19606000    197.97507   -4186.5461   -3847.2236   -4186.5461            0   -1103.6279     18.70699    22.034363    22.822484    9407.3506   -1333.0787    -1294.777   -683.02783   -741.81238   -510.92557    -1073.351   -3998.6375 
19607000    199.04625   -4174.7515    -3833.593   -4174.7515            0   -1304.9111    18.667829    21.988237    22.774708    9348.3948   -2258.3481    266.80031   -1923.1854    522.47284    187.96446     1013.204   -4011.5004 
19608000    198.83221   -4153.0687   -3812.2771   -4153.0687            0   -860.77866    18.700952    22.027251    22.815118    9398.2443   -1096.5797   -620.07681   -865.67946    612.98963    450.09887    886.06014   -3930.2586 
19609000     202.6178   -4177.0363   -3829.7563   -4177.0363            0   -779.71078    18.676326    21.998245    22.785074     9361.166    152.90334   -199.76639   -2292.2693    862.86681   -601.23911   -427.33519   -3936.2048 
19610000    205.31448   -4180.3752   -3828.4732   -4180.3752            0   -1075.5277    18.726349    22.057165    22.846102     9436.586   -1288.1722   -32.213206   -1906.1977    497.84232    244.84322   -22.047182   -3976.4905 
19611000    201.70282   -4157.9282   -3812.2164   -4157.9282            0    -795.9843    18.731867    22.063665    22.852834    9444.9311   -1534.1929    581.59226   -1435.3522    68.739331   -462.00946    200.18457    -3921.859 
19612000    210.03602   -4186.1587   -3826.1642   -4186.1587            0    168.50925     18.66826    21.988744    22.775234    9349.0421   -754.48743    1070.9972    189.01792    1383.2171   -119.53676      566.965   -3803.1886 
19613000    189.58053   -4150.0366    -3825.102   -4150.0366            0   -912.40159    18.674565     21.99617    22.782925    9358.5171   -638.71416   -1466.5753   -631.91527   -438.68582   -966.12641   -460.91599   -3949.6306 
19614000    204.52624   -4137.1798   -3786.6288   -4137.1798            0   -946.73759    18.690363    22.014779      22.8022    9382.2893   -310.21595   -845.68339   -1684.3134    292.50906   -351.26645   -35.624114    -3916.172 
19615000    208.41328   -4158.4234   -3801.2101   -4158.4234            0   -656.47729    18.728564    22.059775    22.848805    9439.9359   -387.88987   -485.71566   -1095.8263    348.76284     -431.775    457.77551   -3891.5885 
19616000    192.99194   -4167.7539   -3836.9723   -4167.7539            0    820.96313    18.577602    21.881961    22.664631     9213.498    617.41148    609.90139    1235.5765    344.68507    776.62788     252.3119     -3726.66 
19617000    193.34794   -4174.7109   -3843.3192   -4174.7109            0   -709.25831    18.655054     21.97319    22.759123     9329.216   -400.49566   -520.59368   -1206.6856    560.32367    107.03318    656.08684   -3939.8187 
19618000    193.36185   -4167.4792   -3836.0636   -4167.4792            0    23.323856    18.632856    21.947043    22.732041    9295.9521    -286.4243    1083.2465   -726.85061    346.68002     459.6184    152.05506   -3832.9015 
19619000    196.53389   -4145.6809   -3808.8286   -4145.6809            0    329.17498    18.658589    21.977353    22.763435    9334.5199   -878.70488    793.47434    1072.7555    188.64675    -64.53387    531.66037   -3764.0165 
19620000    190.56055   -4152.5562   -3825.9419   -4152.5562            0   -598.42849    18.690933    22.015451    22.802895    9383.1478   -441.26953    336.31549   -1690.3314   -477.24414    462.36893    1.3200853    -3907.833 
19621000    194.32612   -4163.6736   -3830.6053   -4163.6736            0    368.49643     18.62697    21.940111     22.72486    9287.1458    529.84979    273.67282    301.96667    333.60116   -394.98653    610.38315   -3780.6948 
19622000    206.92233   -4145.7758    -3791.118   -4145.7758            0   -1532.7324    18.726737    22.057623    22.846576    9437.1733   -1844.3067   -865.62299   -1888.2674    633.85534   -187.77414     117.1308   -4002.0702 
19623000    192.49632    -4177.783   -3847.8509    -4177.783            0   -53.530965    18.637603    21.952635    22.737833    9303.0591    688.58961   -766.42789   -82.754607   -884.04266   -173.89983   -453.03021   -3855.1137 
19624000    205.19719   -4145.3837   -3793.6827   -4145.3837            0   -1470.7041    18.708337    22.035949    22.824127    9409.3823   -1862.4048   -118.70724   -2431.0003    913.78071   -401.94044   -208.56533   -3995.5018 
19625000     212.6821   -4151.8422   -3787.3124   -4151.8422            0    -371.9615    18.655123    21.973271    22.759207    9329.3197   -824.59236   -317.15056    25.858433    1318.3127   -613.79917    571.79127   -3837.9209 
19626000    208.38877   -4177.0156   -3819.8443   -4177.0156            0   -119.80996    18.681257    22.004053     22.79109    9368.5818   -622.56391    -81.83068    344.96472    851.71457   -143.09893   -18.668717   -3836.2141 
19627000    203.49367   -4157.3009   -3808.5197   -4157.3009            0   -810.11581    18.690291    22.014694    22.802111    9382.1801   -167.00204   -908.09682   -1355.2486   -351.13629   -132.04181    420.25723   -3919.3674 
19628000    209.30479   -4171.2276   -3812.4863   -4171.2276            0   -213.44619    18.641896    21.957691     22.74307    9309.4892   -695.24128   -286.88501    341.78773    177.02476   -843.53586    -219.2489   -3841.4658 
19629000    208.20437   -4161.0738   -3804.2186   -4161.0738            0   -789.33894    18.700241    22.026413     22.81425     9397.172   -1456.0504    288.64659    -1200.613     81.06129   -225.09178    439.92673    -3912.396 
19630000     189.5248   -4166.0903   -3841.2513   -4166.0903            0   -1094.2623    18.744647    22.078718    22.868426    9464.2759   -397.02594   -1272.6815   -1613.0794    1289.2962     125.7394   -238.66542   -3992.2888 
19631000    197.01785   -4182.4649    -3844.783   -4182.4649            0   -117.92789    18.639582    21.954966    22.740247    9306.0228    630.64197   -341.11634    -643.3093     746.0565   -85.724823    429.81371    -3860.788 
19632000    199.16568   -4137.1123   -3795.7491   -4137.1123            0   -913.10383    18.682563    22.005591    22.792683    9370.5468   -622.98529   -1036.0167   -1080.3095    238.74207   -930.73178    601.48334   -3920.5337 
19633000    194.86074   -4164.6985   -3830.7138   -4164.6985            0   -626.91615    18.666547    21.986727    22.773144    9346.4692    575.09437   -1130.5647   -1325.2782   -419.84526   -287.47393    768.37042   -3916.1679 
19634000    196.80635   -4183.6746   -3846.3553   -4183.6746            0   -421.29223    18.631052    21.944919     22.72984    9293.2526   -437.79253   -191.78261   -634.30154   -390.97059    -607.9667   -165.25951   -3903.4541 
19635000    187.24035   -4170.9629   -3850.0393   -4170.9629            0   -1427.4075    18.641334     21.95703    22.742384    9308.6473   -1445.6664   -990.25525   -1846.3009    1472.9299   -128.50096    158.12872     -4043.82 
19636000    198.84518   -4159.2742   -3818.4603   -4159.2742            0     -297.445    18.628567    21.941992    22.726809    9289.5345   -560.82567   -621.09115    289.58182   -82.354161    790.64017    262.93271   -3858.7577 
19637000    196.48377   -4177.6358   -3840.8693   -4177.6358            0    49.267957      18.6108    21.921064    22.705132    9262.9796    149.47239   -1260.7942    1259.1256    269.44839   -135.90553    510.01314   -3834.2136 
19638000    201.76534   -4168.3579    -3822.539   -4168.3579            0    128.57879    18.645715    21.962189    22.747729    9315.2115    479.00751     398.8741   -492.14525    205.17061   -86.265611   -339.63127   -3805.0712 
19639000    185.62494   -4174.1688    -3856.014   -4174.1688            0   -834.69258    18.678134    22.000374    22.787279    9363.8839   -633.03622    310.47355   -2181.5151     1112.621    458.49045    531.96588   -3970.0018 
19640000    202.83739   -4171.0863   -3823.4299   -4171.0863            0   -676.94902     18.65324    21.971053    22.756909    9326.4944   -39.209403    -65.43708   -1926.2006   -154.07297   -1128.5968   -75.782833   -3915.5067 
19641000    195.44261   -4178.8119   -3843.8299   -4178.8119            0   -427.57729    18.663469    21.983102    22.769389    9341.8465    17.960524   -507.19404   -793.49834    485.53169   -178.64055    -757.5103   -3902.0836 
19642000    198.18251   -4178.8828   -3839.2048   -4178.8828            0   -802.07634    18.663774    21.983461    22.769761    9342.3042   -1893.5078   -667.89672    155.17555   -135.94003   -1392.3229    216.85749    -3948.486 
19643000    199.12979   -4173.5772   -3832.2755   -4173.5772            0   -793.46118    18.680948    22.003689    22.790713    9368.1175    -882.8481     133.0486    -1630.584    120.77063    -394.8444   -744.57488   -3940.6817 
19644000    186.64922   -4143.8699   -3823.9595   -4143.8699            0   -743.22818    18.661606    21.980907    22.767116    9339.0485   -1531.9419   -749.48669    51.744041   -278.04163    1082.1584    -372.0421   -3925.1875 
19645000    200.44299   -4146.1306   -3802.5782   -4146.1306            0   -924.15167    18.664369    21.984161    22.770486    9343.1969   -697.55192   -894.93873   -1179.9644   -163.45967   -511.57666    38.883658    -3928.504 
19646000    207.91473    -4185.873   -3829.5142    -4185.873            0   -597.25358    18.646945    21.963638    22.749229    9317.0551    -890.9347   -20.899496   -879.92655   -731.18805    -223.0859    244.88105   -3910.6689 
19647000    193.40962   -4178.8289   -3847.3314   -4178.8289            0   -495.19656    18.618868    21.930567    22.714975    9275.0311   -305.40343    -1002.443   -177.74325    404.16244   -862.74134    687.25111   -3914.3151 
19648000    195.35662   -4176.4163   -3841.5818   -4176.4163            0   -731.72792    18.682641    22.005683    22.792778    9370.6644     -1375.71   -545.63416   -273.83961    277.28218   -455.78677   -463.42023   -3941.5808 
19649000    206.14327   -4146.1443   -3792.8218   -4146.1443            0   -582.40803    18.665134    21.985063     22.77142    9344.3468   -59.862576   -80.414661   -1606.9468    351.80796   -464.44918   -406.90456   -3872.1911 
19650000     194.1874   -4165.9883   -3833.1577   -4165.9883            0   -622.08247     18.60975    21.919827    22.703852    9261.4122   -1228.5715   -1130.5751    492.89922    834.59082    120.71558   -13.248182   -3917.1813 
19651000    205.14466   -4156.1274   -3804.5164   -4156.1274            0   -901.63748    18.640454    21.955993    22.741311     9307.329   -1514.9114    -1428.863    238.86196      605.556    218.35616     548.8266   -3926.9028 
19652000    192.45967   -4177.8395   -3847.9703   -4177.8395            0    -765.8731    18.646643    21.963282    22.748861    9316.6022   -486.23831   -910.64122   -900.73977    -302.8375   -430.32762   -904.02216   -3952.0318 
19653000    199.73749    -4158.953   -3816.6098    -4158.953            0   -1082.2114    18.715904    22.044863    22.833359    9420.8054   -1912.1683   -737.67864    -596.7873    856.21635    612.47211   -415.16813   -3965.2978 
19654000    200.77781   -4184.0585   -3839.9322   -4184.0585            0   -1455.6397    18.676763     21.99876    22.785608    9361.8231   -1294.7979   -2187.6722   -884.44908   -139.52033   -435.72238    -588.8817   -4038.6744 
19655000    193.10327   -4156.4379   -3825.4655   -4156.4379            0   -1151.1476     18.67908    22.001489    22.788434    9365.3071   -1577.6347   -66.090476   -1809.7176    356.82395   -434.47735   -692.83506   -3982.6931 
19656000    189.15047   -4184.5337   -3860.3362   -4184.5337            0    1258.5302    18.550721    21.850298    22.631836    9173.5606    226.48146    1488.2917    2060.8174    1342.9567    11.608104    5.0340547   -3691.9613 
19657000     198.1587   -4177.1563    -3837.519   -4177.1563            0   -1341.9743    18.660007    21.979023    22.765165    9336.6477    -2114.494   -1437.1211   -474.30789    201.81332   -248.63927   -858.36836   -4020.2495 
19658000    200.33438   -4182.8904   -3839.5242   -4182.8904            0    808.57044    18.580782    21.885707    22.668511    9218.2309   -626.64187     1232.249    1820.1042    592.31946    825.72385   -773.38724   -3730.8212 
19659000    196.63443   -4158.1195   -3821.0948   -4158.1195            0   -666.58815      18.6516    21.969122    22.754909    9324.0349   -342.04075   -482.76117   -1174.9625   -65.958873    288.79146   -211.32488   -3911.7385 
19660000    208.18785   -4158.3472   -3801.5204   -4158.3472            0   -481.26619    18.682501    22.005519    22.792608    9370.4546   -36.085514   -491.15045   -916.56261    854.77355    565.17882    753.86658   -3867.2895 
19661000    185.28786    -4167.891    -3850.314    -4167.891            0   -197.04412    18.609761     21.91984    22.703864    9261.4277    446.40751   -538.46036   -499.07952     64.65723   -469.73675    528.97019   -3876.9284 
19662000    198.87874   -4175.9379   -3835.0665   -4175.9379            0   -185.31362    18.649194    21.966287    22.751973     9320.426   -166.25292   -279.95795      -109.73    -91.30587   -185.61465   -601.72186    -3860.256 
19663000     197.6675   -4154.4861   -3815.6908   -4154.4861            0    -1007.157    18.711476    22.039647    22.827957    9414.1198   -1249.8861   -1259.2917   -512.29326    685.56797   -390.47975    250.60345   -3953.9687 
19664000    201.22771   -4176.1071   -3831.2097   -4176.1071            0   -1443.8157    18.678217    22.000473    22.787381    9364.0097   -1867.8894    -1588.685   -874.87286    335.75487    27.434643   -749.91487   -4028.3836 
19665000    187.93474   -4147.7281   -3825.6144   -4147.7281            0   -444.88726    18.662763     21.98227    22.768528    9340.7863   -86.407747   -1405.9333    157.67931    1217.8137   -86.872564   -1061.5074   -3886.2195 
19666000    202.85363   -4157.3233   -3809.6391   -4157.3233            0    -1191.487    18.709662    22.037511    22.825744    9411.3828   -2095.5651   -1415.6756   -63.220388    650.96658    1100.7692    899.23237   -3973.1771 
19667000    185.53275   -4164.5208   -3846.5241   -4164.5208            0   -528.75602    18.672787    21.994077    22.780757    9355.8451   -1054.3557   -323.32887   -208.58347    363.64273    144.91087   -306.55838   -3918.6704 
19668000    199.49474   -4130.6096   -3788.6825   -4130.6096            0   -1823.4276    18.761522    22.098595    22.889014    9489.8603   -2758.2996   -893.19382   -1818.7895   -426.44797    398.07458    635.79511   -4041.0446 
19669000    209.32723   -4155.4489   -3796.6692   -4155.4489            0   -2004.5876    18.711896    22.040142     22.82847    9414.7546   -1810.9968   -1857.8039   -2344.9622    380.80504      205.325     503.7577   -4071.9082 
19670000    206.37883   -4174.2905   -3820.5643   -4174.2905            0    -177.5326     18.62824    21.941607     22.72641    9289.0456   -653.49704    303.82949   -182.93025     837.0084   -269.35062    272.13463   -3844.6148 
19671000    199.64249    -4168.478   -3826.2976    -4168.478            0    -972.2869    18.689658    22.013948    22.801339    9381.2268   -1104.2413   -700.72834   -1111.8911    1029.3344    798.84043    -513.8764   -3959.3216 
19672000    192.52539   -4157.0723   -3827.0904   -4157.0723            0   -1170.2862    18.690789    22.015281    22.802719    9382.9308    -1792.033   -54.189939   -1664.6357    1025.9766   -399.18067    64.237047   -3987.2329 
19673000    192.18977   -4161.7031   -3832.2964   -4161.7031            0   -479.60986      18.6979    22.023656    22.811394    9393.6434   -832.53114    483.93079   -1090.2292   -159.05915    -335.0145    205.46761   -3898.0014 
19674000    187.56207   -4156.5994   -3835.1244   -4156.5994            0   -893.65876    18.659085    21.977938    22.764041    9335.2648   -1536.1605   -531.91414   -612.90164    506.50372    -315.9681   -551.17984   -3956.7918 
19675000    200.60753   -4150.5883   -3806.7538   -4150.5883            0   -665.29144    18.654828    21.972924    22.758847    9328.8768   -1604.1913   -357.84381   -33.839193    906.66194    38.900378     -153.869   -3897.2681 
19676000    194.08911   -4167.3188   -3834.6567   -4167.3188            0   -620.18607    18.663541    21.983186    22.769476     9341.954    -571.0141    -1327.684    38.139893    395.11931     485.4722    -271.0453   -3919.1526 
19677000     212.9083   -4165.4009   -3800.4834   -4165.4009            0   -1104.8967    18.725378    22.056022    22.844918     9435.119    -1893.463   -978.13282   -443.09443    861.85363   -14.673063   -861.41911   -3952.5189 
19678000      212.667    -4174.727    -3810.223    -4174.727            0   -583.36705    18.684827    22.008259    22.795446    9373.9549   -679.61123   -400.30031    -670.1896    707.39708     460.2044   -420.01779   -3889.9748 
19679000    194.19405   -4157.0865   -3824.2445   -4157.0865            0    -374.6563    18.661983    21.981351    22.767576    9339.6146   -297.96329    -11.25204   -814.75358   -252.61763   -873.10456   -382.01542    -3875.276 
19680000    198.38338   -4169.5845   -3829.5622   -4169.5845            0   -1451.7871    18.717281    22.046484    22.835039    9422.8839   -2567.0695   -51.319483   -1736.9724    530.16245    -253.6095    27.411784   -4029.0713 
19681000    206.10589   -4164.9136   -3811.6551   -4164.9136            0   -554.30091    18.687244    22.011105    22.798394    9377.5925   -962.60346   -486.59425   -213.70501    605.54624    460.80436    632.17159   -3887.4628 
19682000    199.39715   -4133.0127   -3791.2528   -4133.0127            0   -702.49669    18.697441    22.023116    22.810834    9392.9518    7.5850981   -1349.0632   -766.01194    932.93513     541.0798    729.47848   -3887.4854 
19683000    191.54426   -4172.8553    -3844.555   -4172.8553            0   -1915.9644    18.750484    22.085593    22.875546    9473.1193   -2657.9846   -1072.6773   -2017.2313    1215.6817   -194.37583    122.92888   -4109.2564 
19684000    189.84767   -4166.1333   -3840.7409   -4166.1333            0   -1047.6901    18.648775    21.965794    22.751462     9319.799   -2061.5508   -785.77479   -295.74483   -3.9136582    305.87597    194.01157   -3983.1426 
19685000     207.6358   -4159.1477   -3803.2671   -4159.1477            0   -715.92198    18.646081     21.96262    22.748175    9315.7597   -304.58248   -2026.6358    183.45237    814.60821   -656.93988    1034.4219   -3900.5328 
19686000    206.28611   -4162.4743    -3808.907   -4162.4743            0   -2085.4483    18.717297    22.046503    22.835058     9422.908   -2070.8433   -2538.9268   -1646.5748    1371.0132    1009.3164   -641.54011   -4095.4965 
19687000    194.09641   -4167.1773   -3834.5027   -4167.1773            0   -304.96976    18.668638    21.989189    22.775694    9349.6095   -777.32002    762.82738   -900.41664     1202.705    -21.57443    790.37408   -3876.0867 
19688000    208.38297   -4155.4923    -3798.331   -4155.4923            0   -1738.4908    18.676429    21.998366      22.7852    9361.3205   -2350.0758    -644.9213   -2220.4754    600.76027    54.659139   -199.18907   -4035.6789 
19689000    192.53624   -4177.6204   -3847.6199   -4177.6204            0   -49.229702     18.62038    21.932348     22.71682    9277.2911    441.56024   -1954.7588    1365.5094    898.16417   -825.61707   -39.265367   -3854.2807 
19690000    212.62623   -4155.3065   -3790.8724   -4155.3065            0   -961.13758    18.658139    21.976823    22.762886    9333.8441   -928.76727   -1032.1201   -922.52538    937.66402    159.11558   -606.31759   -3921.7068 
19691000    205.32278   -4171.4616   -3819.5454   -4171.4616            0   -349.26198    18.645917    21.962427    22.747975    9315.5138    467.06677   -1210.7128   -304.13988    615.88446   -546.31628   -168.73159   -3866.9952 
19692000     207.4298    -4167.925   -3812.3974    -4167.925            0   -1765.6433    18.742513    22.076204    22.865822    9461.0433    -2276.075   -1270.9869   -1749.8679    1276.0901   -498.93859     329.7002   -4056.0201 
19693000    191.20757   -4138.3126   -3810.5894   -4138.3126            0   -2015.1425    18.746213    22.080562    22.870336    9466.6477   -1655.5309   -2859.7129   -1530.1837     475.4452   -908.02315    945.63365   -4088.8027 
19694000    206.53688   -4155.7479   -3801.7507   -4155.7479            0   -109.39039    18.578893    21.883482    22.666207    9215.4196    467.70909   -415.69638   -380.18388    266.91328    26.254186   -209.51181   -3816.4525 
19695000     194.9733   -4162.0643   -3827.8868   -4162.0643            0    6.3406395    18.630527    21.944299    22.729199     9292.466   -891.10866    364.29801    545.83257    1214.3271   -712.08432   -435.73147   -3827.0275 
19696000    203.07751   -4169.7063   -3821.6384   -4169.7063            0    -2613.153    18.734671    22.066968    22.856255    9449.1736   -2354.1849   -2015.0593   -3470.2149    240.67424   -1009.8327    43.767916   -4181.7479 
19697000    196.64299   -4156.1152   -3819.0759   -4156.1152            0   -169.19061    18.652069    21.969674    22.755481     9324.738   -1674.1512    905.32206    261.25733    934.44915   -331.23748   -642.31105   -3842.0844 
19698000    207.20891     -4169.85    -3814.701     -4169.85            0   -1595.1978    18.669635    21.990364    22.776911    9351.1077   -1901.4386   -942.24866   -1941.9063    482.84418   -67.432129   -357.26878   -4032.2482 
19699000     205.8824   -4161.6893   -3808.8139   -4161.6893            0   -691.62829    18.651769    21.969321    22.755115    9324.2885   -331.80731   -896.86942   -846.20816   -119.53211   -898.76585    667.29554   -3902.8651 
19700000    194.82391   -4160.3586   -3826.4371   -4160.3586            0   -1093.1538    18.677057    21.999106    22.785965    9362.2642   -604.61843   -970.17814   -1704.6649    304.24948    247.64053   -337.68498   -3975.6952 
19701000    201.15789   -4166.1409   -3821.3632   -4166.1409            0   -688.30906    18.672891    21.994199    22.780883    9356.0011   -658.61261   -936.93642   -469.37816    480.49833    554.02028    353.72372   -3915.2814 
19702000     198.7833   -4151.7433   -3811.0356   -4151.7433            0   -1498.0895    18.661821     21.98116    22.767378    9339.3708   -1296.4522   -1984.4989   -1213.3172    170.71635   -858.04776    629.20252    -4015.083 
19703000    194.45696    -4169.937   -3836.6445    -4169.937            0   -1493.3097    18.682108    22.005056    22.792128    9369.8631   -459.23507   -1825.7536   -2194.9403    583.18194    327.39164    286.81883    -4040.705 
19704000    196.82393   -4174.7466   -3837.3971   -4174.7466            0    -1052.864    18.647368    21.964137    22.749746    9317.6893   -790.50974   -2223.2912   -144.79099   -113.61163   -148.42924    351.67763   -3980.4697 
19705000    192.10222   -4175.7289   -3846.4723   -4175.7289            0   -1130.3587    18.672312    21.993517    22.780176    9355.1304   -1712.0859   -1087.5905   -591.39958    1590.1762    224.35992     182.9215   -4000.6927 
19706000    180.35169   -4149.3517   -3840.2351   -4149.3517            0   -536.75187    18.625838    21.938777    22.723479    9285.4519   -173.80351   -412.93539   -1023.5167    357.72028   -751.45697   -170.28706   -3912.9214 
19707000    193.02613   -4159.2974   -3828.4573   -4159.2974            0   -1856.9269    18.661355    21.980611     22.76681    9338.6721   -1783.2222   -782.95814   -3004.6002   -31.057473      203.614    37.513815   -4081.3613 
19708000     212.6396   -4175.8305   -3811.3735   -4175.8305            0   -577.42322    18.642195    21.958044    22.743435    9309.9374    41.511501   -962.39816     -811.383    634.99335   -254.71132   -546.53282   -3889.7736 
19709000    202.06784   -4172.8381   -3826.5007   -4172.8381            0   -83.083198     18.62671    21.939804    22.724542    9286.7557   -641.27901    147.36936    244.66006    -630.8446   -623.17744   -177.63106   -3837.7533 
19710000    203.65785   -4146.3894   -3797.3268   -4146.3894            0   -538.09854    18.701414    22.027796    22.815682    9398.9414    -967.3466   -268.18975   -378.75927    273.15217    -400.9676   -516.16633   -3871.0861 
19711000    198.15181   -4170.2466   -3830.6212   -4170.2466            0   -1118.5848    18.640063    21.955532    22.740833     9306.743   -281.79769   -1676.8966   -1397.0601    457.52291    67.070757   -435.98304   -3982.4459 
19712000    201.43059   -4168.3458   -3823.1007   -4168.3458            0   -914.15645    18.657853    21.976487    22.762537    9333.4157    -1519.093   -465.12218   -758.25418    716.93084   -793.24287   -128.93732   -3947.5341 
19713000    212.17663   -4176.4508   -3812.7873   -4176.4508            0   -474.53666    18.666313    21.986451    22.772858    9346.1174   -1091.1556    -249.6916    -82.76275   -107.74331   -170.70648    207.14294   -3877.4683 
19714000    201.72826   -4175.7634   -3830.0081   -4175.7634            0    426.62826    18.601457    21.910059    22.693734    9249.0362    98.853079    636.22699     544.8047    -295.5727   -721.58565    963.66048   -3772.4612 
19715000    194.36858   -4199.8434   -3866.7023   -4199.8434            0   -1573.8736    18.656886    21.975347    22.761357    9331.9642   -2253.2275   -1397.1535   -1071.2398    339.01809   -80.672257   -639.69609    -4080.902 
19716000    198.88054   -4176.9073   -3836.0329   -4176.9073            0    844.52503    18.589447    21.895913    22.679082    9231.1325   -248.64556    1672.1924    1110.0282    656.41593   -554.40048   -335.67803   -3722.3373 
19717000    190.08464   -4169.6505   -3843.8519   -4169.6505            0   -377.33465    18.665443    21.985427    22.771797    9344.8111    4.8597212    354.72321   -1491.5869    955.50222    474.10155   -433.01097   -3895.2768 
19718000    204.03592   -4166.9626    -3817.252   -4166.9626            0    -375.8365    18.633564    21.947877    22.732905    9297.0117   -787.35686    321.39532   -661.54796    475.34146    16.145535   -963.25884   -3868.2107 
19719000    201.69983   -4158.4846    -3812.778   -4158.4846            0   -29.774199    18.655018    21.973147    22.759078    9329.1608    290.24747   -672.68573    293.11567   -336.69071    144.78268    43.946526    -3816.829 
19720000     185.7178   -4165.9723   -3847.6583   -4165.9723            0   -50.305556     18.62148    21.933644    22.718163    9278.9364   -258.46351     146.2944   -38.747561    524.56853    690.11001   -882.47957   -3854.4659 
19721000    207.36788   -4184.5129   -3829.0914   -4184.5129            0    -537.9423    18.610261     21.92043    22.704475    9262.1756   -896.67926   -1198.7679     481.6203    588.60498    -206.7134    97.599145   -3901.7563 
19722000    199.49663   -4173.9116   -3831.9812   -4173.9116            0   -722.72299    18.631699     21.94568    22.730629    9294.2198   -2226.7578   -187.79295    246.38179    396.57805    452.43883   -216.75913   -3929.9439 
19723000    198.07857   -4175.4108    -3835.911   -4175.4108            0   -1051.7908    18.672464    21.993697    22.780363    9355.3602   -1022.2066   -1508.9957   -624.16999    405.45172   -781.87498   -987.68955   -3979.4155 
19724000    202.33389   -4172.7463    -3825.953   -4172.7463            0   -1385.2455    18.628164    21.941517    22.726317    9288.9314   -1066.4295    -1656.612    -1432.695    220.04127   -436.39132   -327.90513   -4013.6115 
19725000    191.45146   -4159.1638   -3831.0225   -4159.1638            0   -1152.4716    18.687574    22.011494    22.798797    9378.0898   -1986.3768   -963.25955   -507.77858    698.15533   -471.92711   -801.44682   -3988.6459 
19726000    196.48098   -4156.3119   -3819.5502   -4156.3119            0   -436.44207    18.628348    21.941733    22.726541    9289.2059   -815.94083    176.19486   -669.58025    844.94349   -302.95059    -648.3591   -3878.6765 
19727000    204.75228   -4125.8928   -3774.9544   -4125.8928            0   -118.60341    18.625448    21.938318    22.723003    9284.8689    -588.3977   -930.97022    1163.5577    797.40626    1084.4594   -176.76416   -3791.0146 
19728000    203.75435   -4149.3449   -3800.1169   -4149.3449            0   -201.22774    18.615695     21.92683    22.711105     9270.291    107.71952   -463.88262   -247.52011    76.575537   -76.575014   -729.30625   -3827.3224 
19729000    204.89051   -4165.3704    -3814.195   -4165.3704            0   -708.89695     18.66791    21.988332    22.774807    9348.5164    454.91234   -359.96943   -2221.6337    -473.0569   -900.71597    -768.7163    -3910.845 
19730000    205.92432   -4148.8176   -3795.8704   -4148.8176            0   -1186.9422    18.633155    21.947395    22.732405    9296.3989   -1508.7899   -300.57833   -1751.4585    1119.3725    18.891497   -798.81441   -3956.7941 
19731000    201.52707   -4158.1294   -3812.7189   -4158.1294            0    176.17786    18.649991    21.967226    22.752945    9321.6215    131.72919    654.99437   -258.18999    438.21627    73.420531   -606.37416   -3788.7682 
19732000    198.55704   -4157.1384   -3816.8185   -4157.1384            0   -280.90076    18.608396    21.918233      22.7022    9259.3913   -101.84339   -1606.5748    865.71592    1331.8526    220.48414    180.07402   -3854.7509 
19733000    195.37798   -4172.4233   -3837.5522   -4172.4233            0    -786.0356    18.647968    21.964843    22.750477    9318.5879   -1460.4642   -1117.9062    220.26361     -329.033    145.30644    6.6525717    -3944.376 
19734000    203.19139   -4151.0849   -3802.8218   -4151.0849            0   -142.46235    18.644176    21.960377    22.745852    9312.9054    681.67898   -454.93279   -654.13323    509.43926    393.47217     19.91994   -3822.1709 
19735000    198.27813   -4179.0541   -3839.2122   -4179.0541            0   -538.59368    18.619216    21.930978    22.715401    9275.5525    646.07795   -987.58669   -1274.2723   -101.63551    260.22555    637.51975   -3912.0702 
19736000    199.40267   -4170.2011   -3828.4318   -4170.2011            0    -972.2074    18.667962    21.988393    22.774869    9348.5936    170.33784   -2537.3453   -549.61469    1171.3036    284.33817   -342.41479   -3960.9822 
19737000    191.78161   -4151.9999   -3823.2928   -4151.9999            0   -1866.5066    18.718092     22.04744    22.836028    9424.1094   -1959.6861   -1763.2054   -1876.6283    819.81282   -189.81938   -397.59768   -4079.8272 
19738000    204.61682   -4161.8255   -3811.1193   -4161.8255            0   -38.282078    18.645536    21.961978     22.74751    9314.9429   -444.11954   -807.74047    1137.0138    1179.4881    921.39947   -477.35681   -3816.3199 
19739000    202.91214   -4168.8134    -3821.029   -4168.8134            0   -539.30852    18.614453    21.925367    22.709589    9268.4353   -525.88916   -838.22747   -253.80892     176.2345   -684.70274    185.71124   -3893.9276 
19740000    202.07618    -4166.938   -3820.5863    -4166.938            0   -1126.4546    18.633806    21.948162      22.7332    9297.3738   -2127.8055    804.75465   -2056.3131    1143.4506     86.71517    1142.0688   -3973.3253 
19741000    199.18023   -4188.9099   -3847.5218   -4188.9099            0    -447.7273    18.612103    21.922599    22.706722     9264.925   -586.01523   -717.69917   -39.467516    1148.5639    461.95226    3.6614542   -3908.0184 
19742000    199.92705   -4166.0388   -3823.3707   -4166.0388            0   -820.76492    18.599914    21.908241    22.691851    9246.7341    -272.5001   -745.28316   -1444.5115    792.31953    670.47999   -195.27549   -3934.0542 
19743000    202.69903   -4145.5311   -3798.1119   -4145.5311            0   -897.40159    18.684553    22.007935    22.795111    9373.5416   -1127.1161    -1241.547   -323.54167    627.58026    550.29741    149.70006   -3920.7899 
19744000    204.16871   -4159.6073   -3809.6691   -4159.6073            0   -1028.5876    18.660188    21.979236    22.765385    9336.9193   -963.76297   -1261.6854   -860.31451    -43.54365    302.30426   -46.071437   -3949.7312 
19745000    206.08514   -4152.7218    -3799.499   -4152.7218            0   -385.84931    18.620929    21.932994    22.717489    9278.1116   -1654.5146   -244.12966    741.09628     1101.106   -837.19886    26.753483   -3851.7089 
19746000    199.42509   -4166.2722   -3824.4644   -4166.2722            0    44.696387     18.58537    21.891111    22.674108    9225.0605   -1067.5023    656.66506     544.9264    356.12851    327.14215   -105.33388   -3818.4511 
19747000    196.02102   -4159.3025   -3823.3292   -4159.3025            0   -1621.5131    18.679284    22.001729    22.788683     9365.614   -1860.2266   -1373.8511   -1630.4616    992.91581    624.19432    -206.0786   -4044.8083 
19748000     203.6701   -4147.5072   -3798.4236   -4147.5072            0   -1066.9186    18.661961    21.981325    22.767549    9339.5822   -2015.3173    -739.2077   -446.23084    737.74145   -544.22426   -741.63735   -3943.7467 
19749000    196.18463   -4180.5418   -3844.2881   -4180.5418            0    210.61724    18.612659    21.923253      22.7074    9265.7555   -712.48817    342.22519    1002.1147    66.995353   -191.45155    79.121799   -3815.8271 
19750000    198.81988   -4133.5366   -3792.7661   -4133.5366            0   -281.52076    18.647508    21.964301    22.749916    9317.8983   -457.34823    243.00766   -630.22171    809.26139    577.26533    230.11014   -3831.0226 
Loop time of 480.081 on 64 procs for 250000 steps with 864 atoms

Performance: 89.985 ns/day, 0.267 hours/ns, 520.746 timesteps/s
99.1% CPU use with 64 MPI tasks x 1 OpenMP threads

MPI task timing breakdown:
Section |  min time  |  avg time  |  max time  |%varavg| %total
---------------------------------------------------------------
Pair    | 12.251     | 19.728     | 27.494     |  70.2 |  4.11
Bond    | 0.27095    | 0.27921    | 0.30005    |   1.0 |  0.06
Kspace  | 221.91     | 237.76     | 253.74     |  47.5 | 49.52
Neigh   | 1.4881     | 2.079      | 2.7273     |  23.9 |  0.43
Comm    | 85.891     | 103.14     | 119.34     |  74.3 | 21.48
Output  | 1.8801     | 1.8849     | 1.8944     |   0.4 |  0.39
Modify  | 99.892     | 104.63     | 109.28     |  21.7 | 21.79
Other   |            | 10.58      |            |       |  2.20

Nlocal:        13.5000 ave          21 max           9 min
Histogram: 4 5 16 9 11 13 4 0 1 1
Nghost:        1793.16 ave        1827 max        1768 min
Histogram: 8 11 6 8 5 6 6 7 4 3
Neighs:        3301.56 ave        4873 max        2201 min
Histogram: 5 3 8 16 13 8 7 2 0 2

Total # of neighbors = 211300
Ave neighs/atom = 244.56019
Ave special neighs/atom = 2.0000000
Neighbor list builds = 5097
Dangerous builds = 0

unfix		3
unfix		2
unfix		1

write_data	data.final.${pid}
write_data	data.final.0
System init for write_data ...
PPPM initialization ...
  extracting TIP4P info from pair style
  using 12-bit tables for long-range coulomb (../kspace.cpp:340)
  G vector (1/distance) = 0.37193769
  grid = 24 25 27
  stencil order = 5
  estimated absolute RMS force accuracy = 0.0031114997
  estimated relative force accuracy = 9.3701891e-06
  using double precision FFTW3
  3d grid and FFT values/proc = 2730 384
Last active /omp style is kspace_style pppm/tip4p/omp
WARNING: Not all mixed pair coeffs generated from mixing. Use write_data with 'pair ij' option to store all pair coeffs. (../write_data.cpp:312)

write_restart   restart.lmp.${pid}
write_restart   restart.lmp.0
System init for write_restart ...
PPPM initialization ...
  extracting TIP4P info from pair style
  using 12-bit tables for long-range coulomb (../kspace.cpp:340)
  G vector (1/distance) = 0.37193769
  grid = 24 25 27
  stencil order = 5
  estimated absolute RMS force accuracy = 0.0031114997
  estimated relative force accuracy = 9.3701891e-06
  using double precision FFTW3
  3d grid and FFT values/proc = 2730 384
Last active /omp style is kspace_style pppm/tip4p/omp
Total wall time: 0:08:05
