LAMMPS (30 Jul 2021)
Processor partition = 1
  using 4 OpenMP thread(s) per MPI task
using multi-threaded neighbor list subroutines
variable        pid world 0 1
variable        phase world IceIh Liquid

shell cd ${phase}
shell cd Liquid
include Restart.lmp
echo both
log log.lammps
#include		in.partitions
include		in.temp
variable        temperature equal 275.52
variable	tempDamp equal 100.0
include		in.pressure
variable        pressure equal -3125.0
variable        pressureDamp equal 1000.0 # This is 1 ps
include		in.seed
variable        seed equal 745823

units		real
atom_style	full
read_restart	restart.lmp.${pid}
read_restart	restart.lmp.1
Reading restart file ...
  restart file = 30 Jul 2021, LAMMPS = 30 Jul 2021
  restoring atom style full from restart
  orthogonal box = (-0.54766814 0.44645055 -0.66815385) to (18.755241 23.182727 22.881350)
  2 by 2 by 4 MPI processor grid
  restoring pair style lj/cut/tip4p/long/omp from restart
  restoring bond style harmonic/omp from restart
  restoring angle style harmonic/omp from restart
  864 atoms
  576 bonds
  288 angles
Finding 1-2 1-3 1-4 neighbors ...
  special bond factors lj:    0        0        0       
  special bond factors coul:  0        0        0       
     2 = max # of 1-2 neighbors
     1 = max # of 1-3 neighbors
     1 = max # of 1-4 neighbors
     2 = max # of special neighbors
  special bonds CPU = 0.001 seconds
  read_restart CPU = 0.006 seconds
include 	in.setup
variable	out_freq equal 1000
variable	out_freq2 equal 10000
variable	out_freq3 equal 1000

timestep	2.0

neigh_modify    delay 7 every 1

include		in.tip4p
# This is TIP4P/Ice

# create groups ###
group ox type 2
288 atoms in group ox
group hy type 1
576 atoms in group hy

# set charges - beside manually ###
set group ox charge -1.1794
Setting atom values ...
  288 settings made for charge
set group hy charge 0.5897
Setting atom values ...
  576 settings made for charge

# ### TIP3P Potential Parameters ###
pair_style lj/cut/tip4p/long/omp 2 1 1 1 0.1577 8.5
pair_coeff 1 1*2 0.000 0.000
pair_coeff 2 2 0.21084 3.1668
bond_style  harmonic
bond_coeff  1 450 0.9572
angle_style harmonic
angle_coeff 1 55 104.52
kspace_style pppm/tip4p/omp 1.0e-5
pair_modify tail yes

thermo          ${out_freq}
thermo          1000
thermo_style    custom step temp pe etotal epair emol press lx ly lz vol pxx pyy pzz pxy pxz pyz enthalpy

restart 	${out_freq3} restart.lmp.${pid} restart2.lmp.${pid}
restart 	1000 restart.lmp.${pid} restart2.lmp.${pid}
restart 	1000 restart.lmp.1 restart2.lmp.${pid}
restart 	1000 restart.lmp.1 restart2.lmp.1


include         in.dump
dump            myDump all atom ${out_freq2} dump.water.${pid}
dump            myDump all atom 10000 dump.water.${pid}
dump            myDump all atom 10000 dump.water.1
dump            myDump2 all dcd ${out_freq2} dump.dcd
dump            myDump2 all dcd 10000 dump.dcd
dump_modify     myDump append yes
dump_modify     myDump2 append yes


variable natoms 	equal  "count(all)"                        # NUMBER ATOMS
variable H      	equal  "enthalpy/v_natoms"                 # ENTHALPY-per-atom
variable Vol      	equal  "vol/v_natoms"                 # volume-per-atom
fix AVG all 		ave/time ${out_freq} 1 ${out_freq} v_Vol v_H file vol_enthalpy.dat
fix AVG all 		ave/time 1000 1 ${out_freq} v_Vol v_H file vol_enthalpy.dat
fix AVG all 		ave/time 1000 1 1000 v_Vol v_H file vol_enthalpy.dat


timer           timeout 23:50:00 every 1000
New timer settings: style=normal  mode=nosync  timeout=23:50:00

fix 		1 all shake 1e-6 200 0 b 1 a 1
Finding SHAKE clusters ...
       0 = # of size 2 clusters
       0 = # of size 3 clusters
       0 = # of size 4 clusters
     288 = # of frozen angles
  find clusters CPU = 0.000 seconds
fix             2 all nph iso ${pressure} ${pressure} ${pressureDamp}
fix             2 all nph iso -3125 ${pressure} ${pressureDamp}
fix             2 all nph iso -3125 -3125 ${pressureDamp}
fix             2 all nph iso -3125 -3125 1000
fix             3 all temp/csvr ${temperature} ${temperature} ${tempDamp} ${seed}
fix             3 all temp/csvr 275.52 ${temperature} ${tempDamp} ${seed}
fix             3 all temp/csvr 275.52 275.52 ${tempDamp} ${seed}
fix             3 all temp/csvr 275.52 275.52 100 ${seed}
fix             3 all temp/csvr 275.52 275.52 100 745823

run             250000
PPPM initialization ...
  extracting TIP4P info from pair style
  using 12-bit tables for long-range coulomb (../kspace.cpp:340)
  G vector (1/distance) = 0.37167085
  grid = 24 27 27
  stencil order = 5
  estimated absolute RMS force accuracy = 0.0029961968
  estimated relative force accuracy = 9.0229578e-06
  using double precision FFTW3
  3d grid and FFT values/proc = 5985 1296
Last active /omp style is kspace_style pppm/tip4p/omp
Neighbor list info ...
  update every 1 steps, delay 7 steps, check yes
  max neighbors/atom: 2000, page size: 100000
  master list distance cutoff = 10.8154
  ghost atom cutoff = 10.8154
  binsize = 5.4077, bins = 4 5 5
  1 neighbor lists, perpetual/occasional/extra = 1 0 0
  (1) pair lj/cut/tip4p/long/omp, perpetual
      attributes: half, newton on, omp
      pair build: half/bin/newton/omp
      stencil: half/bin/3d
      bin: standard
Setting up Verlet run ...
  Unit style    : real
  Current step  : 12750000
  Time step     : 2
  Walltime left : 23:49:59.96
Per MPI rank memory allocation (min/avg/max) = 12.20 | 12.23 | 12.24 Mbytes
Step Temp PotEng TotEng E_pair E_mol Press Lx Ly Lz Volume Pxx Pyy Pzz Pxy Pxz Pyz Enthalpy 
12750000    284.28417    -3758.227   -3270.9736    -3758.227            0   -2807.1872    19.302909    22.736277    23.549503    10335.318   -2219.4923   -2036.8662    -4165.203   -409.76843    659.59159   -955.15833    -3694.101 
12751000    282.92037   -3782.1222   -3297.2064   -3782.1222            0    -2651.913    19.342111    22.782452     23.59733    10398.416   -1699.5995   -2601.3402   -3654.7992    -187.9978   -570.09355   -620.32277   -3699.3696 
12752000    276.57619   -3768.9867   -3294.9446   -3768.9867            0   -3232.4851     19.35822    22.801426    23.616983    10424.419   -3567.0546   -2684.0146   -3446.3862    -791.3818    997.49994   -120.93694   -3786.3775 
12753000    278.30468   -3802.8067    -3325.802   -3802.8067            0    -2966.415     19.23531    22.656654    23.467033    10227.115   -2623.0825   -3041.3612   -3234.8013    716.70916    1222.4644   -152.04361   -3768.2487 
12754000    250.52908   -3791.6037   -3362.2055   -3791.6037            0   -2851.6204    19.186344    22.598979    23.407295    10149.212   -3570.9763    -3267.604   -1716.2809    640.25602    1065.9381    709.14562   -3784.2905 
12755000    273.24686    -3772.186   -3303.8502    -3772.186            0   -2583.2446    19.154341    22.561284    23.368251    10098.508    -4100.808   -1720.3312   -1928.5946    522.99684   -479.63364    383.04009   -3684.3011 
12756000    281.21345   -3792.3436   -3310.3533   -3792.3436            0   -3322.0345    19.144634     22.54985    23.356409    10083.164   -3334.3942   -3174.1974   -3457.5121    472.74989   -261.69485    218.79001   -3798.8671 
12757000    291.26395    -3801.707   -3302.4906    -3801.707            0   -3284.4075    19.212986     22.63036    23.439798    10191.549   -4237.6777   -2494.8785   -3120.6665    304.62651    403.73478    127.65982   -3790.6629 
12758000    271.11922   -3746.5936   -3281.9046   -3746.5936            0   -3245.8341    19.135081    22.538598    23.344754    10068.077   -2835.0644   -2358.1925   -4544.2455    22.130348   -447.87055   -236.10186   -3758.4987 
12759000    297.64233   -3763.8031   -3253.6543   -3763.8031            0   -3678.0211    19.361305     22.80506    23.620747    10429.404   -3672.6183   -4774.9022   -2586.5429    341.04365   -245.51282    1560.3189   -3813.0893 
12760000    269.37427    -3755.245   -3293.5467    -3755.245            0   -2870.1303    19.238102    22.659943    23.470439    10231.569   -3743.9049   -2060.5552   -2805.9308   -550.12596    502.99964   -521.42386   -3721.8188 
12761000    281.83405   -3761.8625   -3278.8086   -3761.8625            0   -3688.9526    19.298364    22.730923    23.543959     10328.02   -3609.4978   -3780.5891   -3676.7709   -695.33735    941.03602    450.80156   -3834.4518 
12762000    279.22624    -3716.981   -3238.3967    -3716.981            0   -3361.4133    19.424228    22.879175    23.697513     10531.42   -3321.1099   -3676.0439    -3087.086    143.23617    216.95765   -40.807076    -3754.676 
12763000    288.59232   -3769.7901   -3275.1527   -3769.7901            0   -2743.8659    19.241825    22.664328    23.474981     10237.51   -2497.1738   -2931.8926   -2802.5313    122.96718    684.81268   -1143.4943   -3684.8217 
12764000    277.06373   -3810.3305   -3335.4527   -3810.3305            0   -3463.2519    19.319792    22.756163    23.570101    10362.461   -2521.6326    -4221.187   -3646.9362    38.490307   -584.51789   -138.32285   -3858.8397 
12765000    281.34055    -3801.242    -3319.034    -3801.242            0   -2344.2241    19.249034    22.672819    23.483776    10249.022   -2348.5424   -2259.3602   -2424.7697    1092.0177   -271.32152    1084.2375   -3669.4286 
12766000    274.69896   -3803.5519   -3332.7273   -3803.5519            0   -2839.8569    19.191268    22.604779    23.413302    10157.027   -2858.3113   -2904.5896   -2756.6697    439.32748    1529.0229    166.81925   -3753.3948 
12767000    280.11455    -3789.561   -3309.4543    -3789.561            0   -2642.7358    19.304795    22.738498    23.551804    10338.348   -2506.2713    -2837.158   -2584.7782   -421.64236    709.91569   -767.28365   -3707.9107 
12768000    265.28963   -3808.7209   -3354.0236   -3808.7209            0   -4774.4547    19.377565    22.824212    23.640584    10455.702   -4941.6198   -4676.6097   -4705.1345    239.40838    404.05009    60.394177   -4082.0596 
12769000    276.28298   -3805.8662   -3332.3267   -3805.8662            0   -3100.3792    19.329807    22.767959    23.582319    10378.585   -2730.1405   -2905.3569   -3665.6402   -804.24952    826.35169    1059.9546   -3801.6032 
12770000    271.87884   -3834.9232   -3368.9321   -3834.9232            0   -3799.3816    19.271288    22.699031    23.510926    10284.609   -3554.7372   -4977.4405    -2865.967   -654.65751   -813.39495   -697.58115   -3938.8032 
12771000    278.88272   -3839.4856   -3361.4902   -3839.4856            0   -3662.2493    19.385037    22.833013    23.649699    10467.801   -3061.1965   -3572.5392    -4353.012    189.74067    1278.0204    276.68924    -3920.577 
12772000    276.77076   -3803.4227   -3329.0471   -3803.4227            0   -1500.1104    19.262789    22.689021    23.500557    10271.008     -259.218   -1227.5833     -3013.53   -1177.2869   -930.79345   -32.763562   -3553.7518 
12773000    277.01047   -3840.1428   -3365.3563   -3840.1428            0   -2403.1414    19.258158    22.683566    23.494908    10263.603   -1781.8985   -3000.5416   -2426.9842   -245.51608    255.42235    445.81213   -3725.0684 
12774000     275.1711   -3760.4315   -3288.7977   -3760.4315            0   -3073.1658     19.39018    22.839071    23.655975    10476.136   -3806.5341   -2863.9425    -2549.021    137.58485    99.481305   -724.61578   -3758.3273 
12775000    279.67594   -3813.3467   -3333.9917   -3813.3467            0   -4114.7452    19.390253    22.839156    23.656063    10476.253    -3823.411   -4090.0854   -4430.7391    -746.5106    283.93034    725.60963   -3962.6647 
12776000    282.78824   -3766.9129   -3282.2236   -3766.9129            0   -3881.0214    19.432846    22.889325    23.708026    10545.442   -3823.7681   -4999.2738   -2820.0223   -323.22967    135.72634    -409.7346   -3879.1032 
12777000    283.25053   -3756.1703   -3270.6886   -3756.1703            0   -4270.6424    19.403354    22.854588    23.672047    10497.504   -3762.5649   -4947.9517   -4101.4104   -204.24109    141.63316    630.68229   -3924.5039 
12778000    266.44118   -3812.2704   -3355.5993   -3812.2704            0   -3375.3748    19.312968    22.748125    23.561776    10351.485   -2931.3176   -4301.9436   -2892.8634   -709.57418   -631.47872    1209.1973   -3865.1654 
12779000    275.56581   -3829.2179   -3356.9076   -3829.2179            0   -2598.1803    19.391342     22.84044    23.657392     10478.02   -3374.7724   -2257.4898   -2162.2785   -453.99317    481.73394    56.883338   -3753.9386 
12780000    277.76662   -3748.3415    -3272.259   -3748.3415            0   -2487.6759    19.422249    22.876844    23.695098      10528.2   -1986.1435    -3215.427   -2261.4571    115.01703    392.52471    252.14292   -3654.2242 
12781000    273.40363   -3710.6901   -3242.0857   -3710.6901            0   -3246.9584    19.576976    23.059092    23.883865    10781.829   -3466.7909   -2622.9105   -3651.1738    433.05985   -236.34729     312.4058   -3752.6436 
12782000    273.02191    -3761.146   -3293.1958    -3761.146            0    -3982.629     19.38437    22.832228    23.648886    10466.722   -3387.1657   -4732.4245   -3828.2969    275.76037    175.97059   -94.755382   -3901.1298 
12783000    272.59952    -3772.633   -3305.4067    -3772.633            0   -3082.6419    19.317467    22.753424    23.567264     10358.72   -2181.1611   -4172.8585    -2893.906    251.99949    848.58813   -27.684863   -3771.1055 
12784000    271.15532   -3834.9463   -3370.1953   -3834.9463            0   -2473.1011     19.17707    22.588055     23.39598      10134.5   -2087.1799   -2793.4004   -2538.7231   -54.108749    249.67129     493.2713   -3735.7229 
12785000    271.58587   -3806.0177   -3340.5288   -3806.0177            0   -2925.7564    19.289698    22.720717    23.533387    10314.113   -2764.6815   -3817.2146   -2195.3732    407.22721    46.255756    98.507636   -3780.6233 
12786000    265.58408    -3739.714    -3284.512    -3739.714            0   -2874.6827    19.387266    22.835639     23.65242    10471.414   -3050.2909   -2495.3894   -3078.3679    407.20312   -471.18462   -1183.1337   -3723.5187 
12787000     270.8341   -3734.8373   -3270.6369   -3734.8373            0   -2477.9407    19.252661    22.677091    23.488201    10254.816   -1955.7918   -2338.3404     -3139.69   -208.14492   -170.95877   -385.46925   -3641.2277 
12788000    285.82466   -3754.2222   -3264.3285   -3754.2222            0   -3355.5504    19.238603    22.660534    23.471051     10232.37   -2833.8644   -3077.3972   -4155.3895    233.87799   -285.39409    450.42369   -3765.0726 
12789000    262.56969   -3721.7614    -3271.726   -3721.7614            0   -2639.5979    19.207575    22.623987    23.433197    10182.941   -2655.1708   -2952.8287   -2310.7942    536.06972    190.54208    1944.2863   -3663.7267 
12790000    267.10895   -3761.4012   -3303.5856   -3761.4012            0   -2717.0558    19.284913     22.71508    23.527548    10306.438   -1414.8542   -3799.6617   -2936.6514   -289.98269    763.09671     70.19586   -3711.9831 
12791000    264.12275   -3756.8028   -3304.1055   -3756.8028            0   -2937.2982    19.276993    22.705752    23.517887    10293.746   -2313.1144   -3072.1691   -3426.6113   -505.10498    31.265071   -135.47691   -3745.0637 
12792000    273.77907   -3783.8309    -3314.583   -3783.8309            0    -3501.565     19.30556      22.7394    23.552738    10339.578   -3188.3424   -4511.8925   -2804.4601    503.01583   -770.49226    358.15615   -3842.5914 
12793000    267.61658   -3753.8018   -3295.1161   -3753.8018            0   -3745.9748     19.28154    22.711108    23.523434    10301.033   -2285.8403   -4374.7357   -4577.3485   -942.71926   -1067.2989   -234.71681   -3857.8739 
12794000    277.51242   -3788.7625   -3313.1157   -3788.7625            0   -2241.9787    19.193875     22.60785    23.416483    10161.167   -1979.5487   -3274.6464   -1471.7409    544.29837    -124.9085   -680.13543   -3645.3549 
12795000     265.4973   -3830.1766   -3375.1233   -3830.1766            0   -2790.8542    19.216025    22.633939    23.443505    10196.385   -3848.7552   -2760.0432   -1763.7643     273.9315    31.358401    582.81762    -3790.134 
12796000    287.83875   -3820.3404   -3326.9946   -3820.3404            0   -3028.0531    19.202994    22.618591    23.427608    10175.657   -2907.4455   -3497.2679    -2679.446   -1270.0062   -382.14712   -910.59017   -3776.3623 
12797000    263.43199   -3795.6645   -3344.1511   -3795.6645            0   -3392.1454    19.173786    22.584187    23.391974    10129.295   -2798.4962   -4451.8292   -2926.1107   -1280.4616    -144.7682   -157.73106    -3845.257 
12798000    280.03262   -3796.7383    -3316.772   -3796.7383            0   -2538.8019    19.023132    22.406736    23.208176    9892.3991    -3150.179   -2626.8031   -1839.4237   -706.04221    -667.2073   -289.55903   -3683.0462 
12799000    275.97167    -3750.331    -3277.325    -3750.331            0   -4337.8221    19.314338     22.74974    23.563448    10353.689   -3524.1761   -4060.3599   -5428.9303   -277.28304   -577.96036   -13.653426   -3932.3272 
12800000     275.4195   -3788.0249   -3315.9653   -3788.0249            0    -3299.537     19.30127    22.734347    23.547505    10332.687   -3706.2273   -2364.7833   -3827.6004   -709.53207   -269.40487    800.44591   -3813.1779 
12801000    268.76993   -3730.8437   -3270.1813   -3730.8437            0   -3444.7864    19.314149    22.749516    23.563216    10353.383   -3060.9523   -3686.8988   -3586.5081   -1013.0719   -716.93551    291.45722   -3790.3215 
12802000    267.81052   -3764.4166   -3305.3986   -3764.4166            0   -3789.9317    19.328874     22.76686    23.581181    10377.081   -3797.1646   -4318.3341   -3254.2964    264.53518     327.1337    458.12862   -3878.9634 
12803000    283.39017   -3795.9979   -3310.2768   -3795.9979            0   -3011.5354    19.269723    22.697188    23.509017    10282.104   -2565.3977   -2579.3819   -3889.8265   -611.45347   -346.78972    274.87768   -3761.8684 
12804000    277.27386   -3721.3229    -3246.085   -3721.3229            0   -3877.3325    19.477986    22.942495    23.763098    10619.101   -3779.8896   -3499.4884   -4352.6193    454.76081    630.38272   -573.23228   -3846.5624 
12805000    277.84696   -3755.6166   -3279.3964   -3755.6166            0   -3158.9535    19.468178    22.930943    23.751132    10603.068   -5277.5922   -2261.8246   -1937.4437   -476.44854   -475.52313   -1264.5575   -3767.8808 
12806000    278.58638   -3737.0214   -3259.5339   -3737.0214            0   -2637.9619     19.39788     22.84814    23.665368     10488.62   -2771.9736   -2695.3586   -2446.5537    267.83851    614.74018   -648.64459   -3663.0518 
12807000    286.00113   -3788.2576   -3298.0614   -3788.2576            0   -2628.7387    19.340363    22.780393    23.595198    10395.597   -3794.4328   -2560.5895   -1531.1939     418.2843   -314.64276   -257.27783   -3696.6022 
12808000    286.97856   -3802.0798   -3310.2084   -3802.0798            0    -2956.497    19.427962    22.883573    23.702068    10537.494   -3099.3603   -2987.1239   -2783.0068    730.96985    41.156637    1136.1253   -3764.5585 
12809000    280.11193   -3775.6399   -3295.5376   -3775.6399            0     -3802.88    19.458392    22.919416    23.739193    10587.087   -2984.9535   -4294.6226    -4129.064   -208.96151    757.51852    1141.6511   -3882.7091 
12810000    271.07572   -3793.2124   -3328.5979   -3793.2124            0   -5086.3035    19.531918     23.00602    23.828894    10707.554   -5005.7391   -4983.9511   -5269.2202   -784.23914     202.7522    368.88808   -4122.8684 
12811000    274.30509   -3775.2437   -3305.0942   -3775.2437            0   -3488.5284    19.427316    22.882812     23.70128    10536.442   -3607.6376   -3664.8802   -3193.0673     789.2227    648.38806   -302.17408   -3841.1526 
12812000    272.83359   -3760.2043   -3292.5769   -3760.2043            0   -2175.2524    19.409213    22.861489    23.679194    10507.015   -1806.9995    -1963.638   -2755.1197   -51.383235    375.05165   -383.18041   -3625.8996 
12813000    269.42057   -3739.3367   -3277.5591   -3739.3367            0   -1680.0579    19.311833    22.746788    23.560391    10349.659   -2198.8339    -1540.111   -1301.2288     667.9126    462.90106   -164.25594   -3531.1456 
12814000    278.38522   -3783.7029   -3306.5601   -3783.7029            0   -2809.1237    19.485476    22.951316    23.772235    10631.355   -2100.5877   -4324.4613   -2002.3222    739.83292   -170.61488    844.51848   -3742.1075 
12815000    258.37821   -3805.9055   -3363.0541   -3805.9055            0   -3491.1725    19.379704    22.826731    23.643194    10459.165   -3211.8193   -3770.0782   -3491.6201   -456.56977   -44.688865    991.73395   -3895.5843 
12816000    290.18712   -3780.0113   -3282.6405   -3780.0113            0    -3107.634    19.467605    22.930268    23.750433    10602.131   -2703.7718   -3807.5597   -2811.5706    314.04117   -888.43871    99.459241   -3763.1466 
12817000    273.51844   -3825.2541   -3356.4529   -3825.2541            0   -3224.0714    19.398037    22.848325     23.66556    10488.876   -2971.4673   -3243.8231   -3456.9239    400.72288   -345.09629    345.56324   -3849.6375 
12818000    280.99822   -3790.3158   -3308.6945   -3790.3158            0   -4313.8277    19.664474    23.162153    23.990613    10927.042   -2833.1706   -4982.4496   -5125.8631   -493.58905    771.98765   -248.68085   -3996.1447 
12819000    263.53555    -3795.835   -3344.1441    -3795.835            0    -3336.217    19.582952     23.06613    23.891155    10791.705    -3083.643   -4895.2121    -2029.796    1034.8398    -96.84549   -1097.2441   -3869.2177 
12820000    269.90737   -3771.0529    -3308.441   -3771.0529            0   -3369.0986     19.52321    22.995763    23.818271    10693.239   -5064.1791   -2632.6291   -2410.4877    190.58405    79.182237   -533.82798   -3833.8516 
12821000     273.7774   -3784.2855   -3315.0404   -3784.2855            0   -3195.5287    19.599469    23.085585    23.911306    10819.034   -2550.4015     -3485.61   -3550.5746   -215.32725   -52.383925    208.87152   -3819.2453 
12822000    293.40333   -3739.7829   -3236.8996   -3739.7829            0   -3776.1535    19.620783     23.11069    23.937309    10854.369   -2870.6209     -4558.46   -3899.3795      155.443   -482.80586   -375.20837   -3834.6641 
12823000    269.21839   -3814.1542   -3352.7231   -3814.1542            0   -2271.0498    19.498556    22.966723    23.788193    10652.779   -1758.4866   -2696.8733   -2357.7895    81.881989   -266.84611   -468.13909    -3705.553 
12824000    288.42292   -3844.9583   -3350.6113   -3844.9583            0   -2382.5026    19.447828    22.906973    23.726305    10569.853   -2206.9503    -2787.642   -2152.9155    50.173963     764.0852    240.80224   -3717.8751 
12825000    278.12092   -3765.0674   -3288.3777   -3765.0674            0   -3346.4229    19.649139    23.144091    23.971904    10901.498   -3520.5135   -2896.2013   -3622.5539    335.74121   -415.26545    295.21861    -3820.416 
12826000    281.53768   -3773.9552   -3291.4093   -3773.9552            0   -3600.7494    19.612799    23.101287    23.927569    10841.125   -3587.6119   -3250.5168   -3964.1195    747.61441     380.0723    465.99122   -3860.7118 
12827000    268.13065   -3768.9652   -3309.3984   -3768.9652            0   -3158.2753     19.57988    23.062513    23.887408    10786.628   -2849.9456    -2705.752   -3919.1282   -961.60258   -848.31445   -749.55521   -3806.2327 
12828000    286.97306   -3725.6682   -3233.8062   -3725.6682            0   -2954.8373    19.529147    23.002755    23.825513    10702.996   -3039.4237    -2622.962    -3202.126      168.461    -330.8304   -600.22419   -3695.0333 
12829000    273.76444   -3752.7006   -3283.4777   -3752.7006            0   -3434.9442    19.617241    23.106519    23.932988    10848.492   -2467.4827   -3779.7866   -4057.5634    337.66644     -710.812    535.26492   -3826.9344 
12830000    289.25409   -3718.7645   -3222.9929   -3718.7645            0    -2616.032    19.512309    22.982923    23.804972    10675.337    -1412.536   -3184.0664   -3251.4935   -133.37307    747.86298   -730.92206   -3630.2799 
12831000    271.92315   -3739.0762   -3273.0092   -3739.0762            0   -2364.6363    19.617187    23.106455    23.932922    10848.402   -3260.1423   -1980.5426   -1853.2239    1381.7706    425.57837   -185.78395   -3647.1249 
12832000    275.07271   -3797.3283   -3325.8631   -3797.3283            0   -2116.7915    19.491739    22.958694    23.779876     10641.61   -2290.3828    -1670.073   -2389.9186    14.274709    393.86335    579.48285   -3654.3827 
12833000    256.90292   -3707.6586   -3267.3358   -3707.6586            0   -3827.4856    19.651469    23.146835    23.974746    10905.376    -3300.081   -4573.0224   -3609.3535    1452.7371   -24.391159   -516.21292   -3876.0734 
12834000    291.88639   -3712.0162   -3211.7329   -3712.0162            0   -2502.7339    19.779373    23.297489    24.130789    11119.702   -2513.7034   -817.69231   -4176.8061    233.04636    515.01726    696.87858   -3617.5999 
12835000    281.73481   -3760.7822   -3277.8984   -3760.7822            0   -1638.1179    19.615613    23.104602    23.931003    10845.792    -2025.075   -722.44396   -2166.8345    376.29466    -229.4866    -426.1332   -3537.0073 
12836000    284.54567   -3759.1089   -3271.4074   -3759.1089            0   -2628.1997    19.575171    23.056966    23.881663    10778.846   -358.35571   -4024.4646   -3501.7789   -178.09986   -531.03377     502.4375   -3684.5562 
12837000    276.94137   -3756.6222   -3281.9542   -3756.6222            0   -4104.9833    19.657534    23.153979    23.982146    10915.477    -2890.644    -5162.365   -4261.9409   -579.28684    1103.6685   -209.95023   -3935.4307 
12838000    282.00542   -3702.4578   -3219.1102   -3702.4578            0   -2344.4284    19.651078    23.146374     23.97427    10904.726   -591.48895   -3133.1406   -3308.6557   -675.79263     45.88969    427.76767   -3591.9546 
12839000    259.79686   -3735.1793   -3289.8963   -3735.1793            0   -3257.4559    19.567212    23.047592    23.871953    10765.705   -2940.9215   -2422.5208   -4408.9256    113.97391   -1121.7969   -14.339862   -3801.3389 
12840000    271.92108    -3717.873   -3251.8096    -3717.873            0   -3376.7262    19.524548    22.997339    23.819903    10695.438   -4131.3978   -3741.5275   -2257.2532    671.49297    475.85767    194.96796    -3778.518 
12841000    269.34983   -3741.9416   -3280.2852   -3741.9416            0   -2763.2998    19.670346     23.16907    23.997777    10936.834   -2574.2238    -3665.957   -2049.7187   -47.817332   -472.83864   -965.79633   -3721.0384 
12842000    280.28746    -3741.873   -3261.4698    -3741.873            0   -2402.8207    19.388837    22.837489    23.654336     10473.96    -967.4064    -3361.258   -2879.7978    149.74913     590.8242   -263.79555   -3628.5054 
12843000    263.29433   -3773.6283   -3322.3509   -3773.6283            0   -3792.9002    19.399333    22.849852    23.667141    10490.978   -4723.1448   -4349.3709    -2306.185    770.97112   -42.733286    294.50885   -3902.6652 
12844000    269.42553   -3777.1667   -3315.3806   -3777.1667            0   -3251.7114    19.281965    22.711608    23.523953    10301.714   -2999.2636   -3151.1572   -3604.7134    44.341162    78.208035    263.48582   -3803.9175 
12845000    271.80349   -3802.0619      -3336.2   -3802.0619            0   -3256.3788     19.23516    22.656477     23.46685    10226.876   -4032.1848   -3390.1403   -2346.8113   -535.46618    199.94189    413.03146    -3821.884 
12846000    280.12905   -3759.5483   -3279.4167   -3759.5483            0   -3615.7451    19.398692    22.849097    23.666359    10489.939   -3549.6464   -3719.0128   -3578.5762   -532.21215   -54.966254    234.46174   -3832.5715 
12847000    281.98656   -3785.1007   -3301.7854   -3785.1007            0   -2747.7821    19.296639    22.728891    23.541854     10325.25   -2976.9141    -2329.517   -2936.9153    348.86167   -92.821199   -290.58488   -3715.5552 
12848000    274.30813   -3804.7827    -3334.628   -3804.7827            0   -3198.9694    19.230702    22.651227    23.461412    10219.767   -3815.6607   -3045.7479   -2735.4995   -10.089346    129.13684   -393.75944   -3811.4178 
12849000    272.41598    -3780.861   -3313.9493    -3780.861            0    -3054.352    19.264439    22.690965    23.502571    10273.648   -2718.7973   -3946.0931   -2498.1656    1090.4787   -474.36066   -205.72327   -3771.5848 
12850000    285.89735   -3822.4217   -3332.4034   -3822.4217            0   -2536.6187    19.282096    22.711763    23.524113    10301.924   -3732.8194   -2594.6924   -1282.3445    1208.0357    633.25138   -156.51903   -3713.5126 
12851000    272.77633   -3826.8263    -3359.297   -3826.8263            0   -2895.9764    19.273299    22.701401     23.51338     10287.83   -2653.4337   -3869.9954      -2164.5     994.3666   -1493.3471    -980.3958    -3793.802 
12852000    272.67134   -3765.3253    -3297.976   -3765.3253            0   -2295.2224    19.356757    22.799703    23.615198    10422.056   -1536.6658   -3879.8835   -1469.1179   -337.39458   -62.200875    306.30971   -3646.8383 
12853000    265.12444   -3767.2237   -3312.8094   -3767.2237            0   -3844.6407    19.315583    22.751206    23.564966    10355.691   -3631.7344   -5348.0742   -2554.1136   -267.73844    903.66959    27.625914   -3893.4545 
12854000    287.30504   -3791.5807   -3299.1497   -3791.5807            0   -3171.5494    19.295457    22.727499    23.540412    10323.353   -3468.2413   -3891.5071   -2154.8997   -544.74869   -707.20336   -968.33698   -3776.6439 
12855000    277.62736    -3767.461   -3291.6172    -3767.461            0   -3311.2422    19.377773    22.824457    23.640838    10456.039   -3784.2219   -3370.5955   -2778.9092    483.97085   -453.19199   -153.84223   -3796.5505 
12856000    278.38098   -3825.2453   -3348.1098   -3825.2453            0   -3702.5023    19.253171    22.677693    23.488824    10255.632   -3265.5628   -4163.4745   -3678.4697    591.23987   -1211.5015   -453.81642   -3901.8852 
12857000    274.24185   -3817.3624   -3347.3212   -3817.3624            0   -3253.3085    19.142118    22.546887    23.353339    10079.188    -2404.999   -4115.6928   -3239.2338    -215.4596   -134.35182    149.96662   -3825.5401 
12858000    279.90449   -3774.3315   -3294.5847   -3774.3315            0   -3507.7532    19.254069     22.67875    23.489919    10257.067   -3397.0231    -5250.018   -1876.2185    150.98722     799.3246   -291.59586   -3819.3053 
12859000    272.56943   -3768.5723   -3301.3976   -3768.5723            0   -2649.8274    19.267261    22.694289    23.506014    10278.164   -3397.2133   -1322.3706   -3229.8983    321.48603     182.5249   -44.747388   -3698.5974 
12860000    270.75083   -3778.3235   -3314.2659   -3778.3235            0   -2890.4159    19.359228    22.802613    23.618213    10426.047   -3431.3303   -3110.3392   -2129.5783    -69.49634   -466.92163     596.4289   -3753.7629 
12861000    283.62383   -3784.2091   -3298.0875   -3784.2091            0   -3294.5677    19.274999    22.703403    23.515454    10290.553   -3341.5363   -3725.4802   -2816.6866   -326.12317   -434.72958    62.684313   -3792.5269 
12862000    281.09904   -3776.8457   -3295.0515   -3776.8457            0   -3410.1204    19.260838    22.686723    23.498177    10267.888   -3851.2553   -2942.6907    -3436.415    487.18086    712.07558   -291.35061   -3805.7055 
12863000    276.09016   -3827.1054   -3353.8963   -3827.1054            0   -2304.3263    19.065267    22.456366    23.259581    9958.2778   -1822.9233   -3146.9156     -1943.14   -20.947524    646.16739   -225.46222   -3688.5565 
12864000    281.78968    -3775.659   -3292.6811    -3775.659            0   -2624.9004    19.239328    22.661387    23.471935    10233.526   -2390.2807   -3189.0515    -2295.369   -22.707681   -189.06781    589.09551   -3684.4356 
12865000    284.78677   -3759.7511   -3271.6363   -3759.7511            0   -2809.5411    19.536167    23.011024    23.834078    10714.544   -3823.0543   -2885.6631   -1719.9057    607.50018    567.27723    232.52603    -3710.657 
12866000    263.31672   -3764.6022   -3313.2863   -3764.6022            0   -3498.3968    19.526224    22.999312    23.821947    10698.191   -3855.0143   -3214.2844   -3425.8917   -407.53438    414.42165    456.79092   -3859.1137 
12867000    262.15969   -3796.8791   -3347.5464   -3796.8791            0    -2204.996    19.320054    22.756472    23.570421    10362.883   -2534.2192   -2816.4749    -1264.294    -424.8975    317.75848    407.85644   -3680.7919 
12868000    264.54492   -3789.8177   -3336.3968   -3789.8177            0   -2740.8821    19.351989    22.794087    23.609382    10414.356   -3178.9878   -1802.9914   -3240.6671   -127.41946   -377.31953    395.99805   -3752.6893 
12869000    285.92386   -3797.7189   -3307.6551   -3797.7189            0   -1447.5365    19.211047    22.628075    23.437432    10188.463   -3434.2424   -1298.9433    390.57623     -409.647    653.91295   -483.08045   -3522.7421 
12870000    263.41213   -3739.6288   -3288.1494   -3739.6288            0   -3529.4988    19.314522    22.749955    23.563671    10353.983   -3501.2123   -3017.1998   -4070.0842   -379.74849   -515.47357    8.4323708   -3821.1116 
12871000    295.07482   -3830.2188   -3324.4706   -3830.2188            0   -3204.0361    19.175888    22.586663    23.394539    10132.627   -2183.9328   -3278.6881   -4149.4873   -54.472207   -239.67117    171.14165   -3797.9438 
12872000    291.49717   -3766.5999   -3266.9837   -3766.5999            0   -3950.2171    19.251587    22.675827    23.486892    10253.101   -4356.9451   -4085.7496   -3407.9565    401.27904   -547.10949     503.7232   -3857.6634 
12873000    267.23591   -3818.1822    -3360.149   -3818.1822            0   -3292.7025    19.221628    22.640539    23.450341    10205.307    -3287.887   -3661.4066   -2928.8139    417.51626    298.04951    861.43466   -3850.2149 
12874000    280.96807   -3763.9897   -3282.4201   -3763.9897            0   -2531.4728    19.203845    22.619592    23.428646    10177.009   -1977.2313   -3024.0133   -2593.1738   -589.79298   -890.58223    578.36194   -3658.1444 
12875000    290.34463   -3752.5727    -3254.932   -3752.5727            0   -3702.6516    19.276192    22.704808     23.51691    10292.464   -3544.6917   -3801.3499    -3761.913    401.76435    122.73317    -795.4556   -3810.7186 
12876000    284.09976   -3768.0155   -3281.0783   -3768.0155            0   -2987.8718    19.243492    22.666291    23.477015    10240.171   -2272.9982   -2788.2709   -3902.3462    -184.3251    1351.1116   -363.19058   -3727.2942 
12877000    283.61515   -3768.7066      -3282.6   -3768.7066            0   -3055.1412    19.206169     22.62233    23.431481    10180.704   -3927.3775   -2085.7376   -3152.3086   -388.21147    576.95853    796.93149   -3736.2125 
12878000    279.72609   -3779.9238   -3300.4829   -3779.9238            0    -2763.677    19.255176    22.680054     23.49127    10258.836   -3260.0885    -2715.032   -2315.9106   -572.41418    584.25149    -657.1015   -3713.9693 
12879000     293.0045   -3744.5818   -3242.3821   -3744.5818            0   -4501.7645    19.379213    22.826153    23.642594    10458.369   -5061.8254   -3566.6153   -4876.8529   -306.79451   -4.4788519    895.80781   -3929.0119 
12880000    267.62337    -3781.101   -3322.4037    -3781.101            0   -3222.8157    19.213078    22.630468     23.43991    10191.695   -3054.2705   -3585.1516   -3029.0252   -94.833624     -476.206   -119.65135   -3801.4283 
12881000    271.39962   -3783.0626    -3317.893   -3783.0626            0   -3048.1597    19.201716    22.617085    23.426049    10173.625   -2430.3371   -4522.7557   -2191.3862   -650.47762   -253.68333   -795.02881   -3770.1542 
12882000    293.62209   -3774.5219   -3271.2636   -3774.5219            0   -3454.6417    19.201957    22.617368    23.426342    10174.007   -3236.8937   -3525.2448   -3601.7865    180.05118   -598.55912   -159.36203   -3783.8546 
12883000    270.16333   -3777.9646   -3314.9139   -3777.9646            0   -2919.6223    19.294656    22.726556    23.539435    10322.068   -2923.1024    -3176.428   -2659.3365    690.09714    1322.0617   -32.191757   -3754.4244 
12884000    271.56958   -3816.3352   -3350.8742   -3816.3352            0   -3046.8992    19.236625    22.658204    23.468638    10229.214   -2750.8179   -3086.1479   -3303.7319    37.364054   -510.10408    -454.0854   -3805.4185 
12885000    264.36313   -3819.6844    -3366.575   -3819.6844            0   -3213.3396    19.215053    22.632794     23.44232    10194.838    -3490.009   -3366.5058    -2783.504    876.43741    17.287702   -949.40038   -3844.3384 
12886000    270.09169   -3797.3039    -3334.376   -3797.3039            0   -3327.7959    19.213852    22.631379    23.440854    10192.926   -2881.1539   -4062.8249    -3039.409    905.31892    355.91036   -60.690825   -3829.0641 
12887000    259.04822   -3785.5279   -3341.5281   -3785.5279            0   -3383.3581    19.317224    22.753138    23.566968    10358.329   -4831.9993   -2304.1333   -3013.9415    545.34041     762.5906   -186.35103   -3852.6372 
12888000    294.47423   -3802.9144   -3298.1957   -3802.9144            0   -4138.7105    19.339772    22.779697    23.594477    10394.645   -4632.4521   -3380.4594   -4403.2199    974.73773   -101.53681    -603.3179   -3925.6045 
12889000    262.26037   -3818.8197   -3369.3144   -3818.8197            0   -2903.4383    19.255869     22.68087    23.492115    10259.943   -2911.6636   -3053.4702   -2745.1809    16.323818   -996.58503   -1065.1659    -3803.758 
12890000    280.45625   -3763.3002   -3282.6078   -3763.3002            0   -4040.7749    19.317262    22.753183    23.567015    10358.392   -4070.9214   -4022.1534     -4029.25   -419.81286   -135.10425    218.25051   -3893.0336 
12891000    266.21662   -3820.1078   -3363.8216   -3820.1078            0   -2304.5779    19.214679    22.632354    23.441863    10194.243   -1623.3779   -2726.2523   -2564.1034   -488.15826   -54.115443    137.34333   -3706.4492 
12892000    267.61914   -3817.4061    -3358.716   -3817.4061            0   -3940.7558    19.405245    22.856815    23.674353    10500.572   -3889.5502   -3722.6389   -4210.0782    239.30873    83.490608   -642.64638   -3962.2036 
12893000    261.70123    -3803.044    -3354.497    -3803.044            0   -3181.0927    19.183513    22.595644    23.403841    10144.719    -3213.833     -2641.27   -3688.1751   -264.36383   -244.86703   -163.03561   -3825.1407 
12894000    263.82044   -3794.6779   -3342.4987   -3794.6779            0   -3163.9464    19.201139    22.616405    23.425345    10172.707    -3399.501   -2904.5809   -3187.7574   -620.79356    33.710469   -166.31523   -3811.8971 
12895000    290.13227   -3798.9958    -3301.719   -3798.9958            0   -3475.4899     19.22758    22.647549    23.457603    10214.791   -3281.3228   -3352.2618   -3792.8851   -120.88772   -1522.6371    -598.0441   -3819.4706 
12896000    269.26505   -3814.4238   -3352.9127   -3814.4238            0   -2918.8803     19.13565    22.539268    23.345449    10068.975   -2402.1767   -3873.9576   -2480.5066   -721.45336    253.18903    954.29636   -3781.5376 
12897000    269.57071   -3842.8538   -3380.8189   -3842.8538            0   -2371.8318    19.080436    22.474234    23.278088    9982.0674   -2410.6732    -2182.286   -2522.5364   -429.71787    1068.4409   -123.00769   -3726.1059 
12898000     255.1034   -3790.3739   -3353.1354   -3790.3739            0   -4069.7283    19.365047    22.809467    23.625312    10435.451   -4883.5529   -4214.0163   -3111.6157    184.26104   -153.88494   -20.606511   -3972.5088 
12899000    276.97807   -3720.3931   -3245.6622   -3720.3931            0   -3678.2796    19.459785    22.921056    23.740892     10589.36      -3874.9   -4317.2254   -2842.7132    496.83624    983.51654   -1239.8326   -3813.7171 
12900000    278.54938   -3839.5517   -3362.1276   -3839.5517            0   -2620.1797    19.067931    22.459505    23.262832    9962.4542   -3270.9166   -1742.0568   -2847.5658   -144.76219    71.296804    290.56697   -3742.8192 
12901000    263.99004   -3760.4748   -3308.0049   -3760.4748            0    -3397.195    19.226417     22.64618    23.456184    10212.937    -4388.105   -2880.6395   -2922.8405   -7.2289523    521.71504    48.962026   -3814.0008 
12902000    263.41462     -3819.84   -3368.3564     -3819.84            0   -3466.5258    19.157017    22.564435    23.371516    10102.741   -3486.7955    -3305.013   -3607.7688    770.51429   -205.84911      -923.58   -3879.1078 
12903000    275.57566   -3798.2083    -3325.881   -3798.2083            0   -2627.2198    19.158473    22.566151    23.373293    10105.046   -1921.0597   -2987.0372   -2973.5624    572.30564    253.92106   -92.658837    -3713.059 
12904000    262.93836   -3819.6848   -3369.0175   -3819.6848            0   -2453.4291    19.302623     22.73594    23.549155    10334.859   -1545.4537   -1909.5634   -3905.2701    956.59491    1011.6452   -697.29193   -3738.8064 
12905000    279.19133   -3799.2992   -3320.7748   -3799.2992            0   -4603.8709    19.397279    22.847433    23.664635    10487.647   -3995.9655   -4713.5347   -5102.1124   -53.881947    -426.2151   -4.7381998   -4024.9441 
12906000    258.72849   -3802.0432   -3358.5914   -3802.0432            0   -2694.8019    19.344657    22.785451    23.600436    10402.523   -2756.5022   -2801.4116   -2526.4918    41.586836    552.24806    331.34857   -3767.4202 
12907000    257.20984   -3795.3644   -3354.5155   -3795.3644            0   -3411.7238    19.365781    22.810332    23.626208    10436.638   -2682.4593   -3528.9609   -4023.7511    410.94515    945.97402    106.02322    -3873.806 
12908000     268.9351   -3800.3123   -3339.3667   -3800.3123            0   -3766.8041    19.497253    22.965188    23.786603    10650.643   -2700.7661   -4022.2832   -4577.3629   -695.29303    1156.8193    564.33621   -3924.4595 
12909000    276.20755   -3825.2896   -3351.8793   -3825.2896            0   -3415.6272    19.339521    22.779401     23.59417     10394.24   -2975.3875   -3382.5511    -3888.943   -557.39009    1212.6047    148.86853   -3869.6519 
12910000    290.80712   -3785.6665   -3287.2331   -3785.6665            0   -3772.9285    19.302535    22.735837    23.549048    10334.718   -1783.7293   -5139.3779   -4395.6784   -748.55565   -14.904674    382.47144   -3855.8936 
12911000     268.1877   -3849.4454   -3389.7809   -3849.4454            0   -3161.3992    19.238753     22.66071    23.471234    10232.609    -1978.659   -3456.8508   -4048.6879    81.462476   -250.04207    1060.8642   -3861.5631 
12912000    261.78861   -3797.9843   -3349.2876   -3797.9843            0   -5041.4017    19.408173    22.860264    23.677925    10505.326    -4411.752   -5940.5185   -4771.9347    912.25232    451.01885   -79.271231   -4121.6778 
12913000    267.59201   -3797.9575   -3339.3139   -3797.9575            0   -2735.4051    19.204512    22.620378    23.429459    10178.069   -2420.6763   -4507.6429   -1277.8961   -923.25843    -818.2187     922.6297   -3745.3484 
12914000    271.61089   -3816.2324   -3350.7007   -3816.2324            0   -3199.8935    19.351619    22.793651     23.60893    10413.759   -3009.7113   -3469.4332   -3120.5361    179.63896    1342.8553     51.45716   -3836.6813 
12915000    279.99366   -3829.3497   -3349.4502   -3829.3497            0   -2669.8204    19.276888    22.705627    23.517758    10293.578   -2320.2549   -2204.3568   -3484.8494   -86.031885   -29.519625   -20.223022    -3750.247 
12916000    282.07826   -3796.3641   -3312.8917   -3796.3641            0   -2680.8199    19.395833    22.845729     23.66287      10485.3   -2923.6458    -2290.128   -2828.6859    372.57199   -533.31368   -14.247093   -3722.8355 
12917000    271.06143   -3835.2641   -3370.6741   -3835.2641            0   -3807.7277    19.339097    22.778901    23.593653    10393.556   -4348.8633   -3132.5176   -3941.8021   -804.42555    324.28827   -349.19844    -3947.847 
12918000     280.2611   -3756.7877   -3276.4297   -3756.7877            0   -2121.5544     19.40844    22.860579    23.678252    10505.761   -659.66538   -3179.3444   -2525.6535   -631.51964   -708.91859    686.74095   -3601.4853 
12919000    287.15456   -3778.3656   -3286.1925   -3778.3656            0   -3117.3356    19.429703    22.885624    23.704192    10540.327    -3574.617   -2972.8507   -2804.5391    677.48923   -96.940342     493.1255   -3765.3889 
12920000    272.44014   -3779.8919   -3312.9388   -3779.8919            0   -2895.3959    19.392235    22.841491    23.658481    10479.466   -2980.8339   -2155.9522   -3549.4018   -198.41005     740.5982    571.68364   -3755.4487 
12921000     271.5797   -3776.4376   -3310.9593   -3776.4376            0   -3476.5518    19.461573    22.923163    23.743074    10592.279   -3338.5224   -4020.3887   -3070.7443     -833.601    386.48146    991.48537   -3848.0084 
12922000    270.57194   -3755.6754   -3291.9244   -3755.6754            0    -2734.342    19.499284    22.967581    23.789081    10653.972   -2916.4104   -3194.0035    -2092.612    384.74491    -278.1139    170.13616   -3716.7789 
12923000    286.92353   -3811.7213   -3319.9442   -3811.7213            0   -2050.6651    19.153364    22.560133    23.367059    10096.963   -3496.1275    -1736.636   -919.23171   -370.36625    796.32247    692.30479   -3621.9125 
12924000    268.24941   -3758.5062   -3298.7359   -3758.5062            0   -3665.9928    19.377539    22.824181    23.640552     10455.66   -4185.9894   -3756.1085   -3055.8805   -263.96084     426.2638    1145.8843   -3857.7451 
12925000    283.24177    -3771.099   -3285.6323    -3771.099            0   -3349.0793    19.224807    22.644283    23.454219    10210.371   -3186.9302   -3034.7074   -3825.6004    403.84284    810.03764    1272.9052   -3784.3363 
12926000    266.79377   -3748.1875   -3290.9121   -3748.1875            0   -2605.8151    19.379458    22.826442    23.642894    10458.767   -3151.1013   -1393.5982   -3272.7459   -371.82862    195.13072    349.62765   -3688.3781 
12927000    287.13593   -3748.6852    -3256.544   -3748.6852            0    -3693.166    19.372025    22.817686    23.633825    10446.736   -3168.1134   -4244.6516   -3666.7329    546.50415   -167.05182    364.04177   -3819.2161 
12928000    276.32756   -3743.8018   -3270.1858   -3743.8018            0   -2340.7874    19.263859    22.690281    23.501863     10272.72   -1160.9733   -3454.5377   -2406.8511    21.607771   -750.66758   -584.00165   -3620.8757 
12929000    281.39117    -3787.748   -3305.4532    -3787.748            0   -2926.2578    19.219521    22.638058    23.447771    10201.953   -2235.3425   -3530.3463   -3013.0846     1079.363   -868.44279    21.738165   -3740.8365 
12930000    273.31025   -3740.0845   -3271.6401   -3740.0845            0   -4483.5989    19.410703    22.863245    23.681013    10509.436   -5713.9604   -4049.3026   -3687.5339     302.5026   -570.60464   -96.843567   -3958.8383 
12931000     274.6109   -3743.8439   -3273.1703   -3743.8439            0   -3357.3619    19.277832    22.706739     23.51891     10295.09   -3774.4277   -4146.4074   -2151.2505    877.13655    411.86014    428.23373   -3777.2557 
12932000    295.53364   -3744.8025    -3238.268   -3744.8025            0   -3523.6134    19.304304    22.737921    23.551206    10337.561   -3951.8718   -3097.1776   -3521.7909    1067.0295    297.15462    1116.8516   -3769.4975 
12933000    288.21194   -3789.7353   -3295.7499   -3789.7353            0   -2616.2067    19.182509    22.594462    23.402617    10143.127   -2472.2405   -2830.4298   -2545.9497    294.54836   -578.69428   -7.7378759   -3682.7578 
12934000    265.22645   -3759.6821    -3305.093   -3759.6821            0   -4186.2969    19.360087    22.803626    23.619261    10427.436   -4850.8527      -2656.7    -5051.338    415.10293     108.5639    449.92097   -3941.7176 
12935000    275.11338   -3758.3614   -3286.8265   -3758.3614            0   -1950.7375    19.354888    22.797501    23.612918    10419.036   -1289.7593    -2325.464   -2236.9894    508.25185    83.720405    33.727964   -3583.2429 
12936000     286.5458   -3809.5742   -3318.4445   -3809.5742            0   -1761.6011    19.170651    22.580494    23.388149    10124.326   -1945.0935   -2051.5766   -1288.1334   -82.399527    1113.6541    487.79698   -3578.5501 
12937000    253.64151   -3794.7897   -3360.0568   -3794.7897            0   -2824.8538    19.233728    22.654791    23.465104    10224.593   -4335.7606   -1009.8755   -3128.9253   -1120.8847    99.706626    552.90311   -3781.2855 
12938000    284.95756   -3775.7157   -3287.3082   -3775.7157            0   -2567.7355    19.330164     22.76838    23.582755     10379.16   -2814.8302   -2086.7064     -2801.67    966.53984    428.43134    721.68531   -3675.9848 
12939000    266.65579   -3814.9121   -3357.8732   -3814.9121            0    -1926.552    19.230528    22.651022    23.461199    10219.489   -1771.3782   -2187.2619   -1821.0158   -459.15405    10.782866    105.28739    -3645.008 
12940000     290.5951   -3763.1115   -3265.0415   -3763.1115            0   -4144.9737    19.455302    22.915776    23.735423    10582.043   -4108.4307   -4047.6351   -4278.8552    -340.9382    1308.7499    379.69696   -3904.7279 
12941000    291.00862   -3818.4859   -3319.7071   -3818.4859            0   -2206.1573    19.373626    22.819572    23.635778    10449.327   -2247.2726   -2499.3697   -1871.8296      383.381   -832.79013     560.2682   -3655.9094 
12942000    278.34784   -3797.6219   -3320.5433   -3797.6219            0   -2525.4505    19.301515    22.734635    23.547803     10333.08   -2962.8045    -2723.017   -1890.5299   -343.84489    209.06562    518.23822    -3701.122 
12943000    267.41713   -3762.1848   -3303.8409   -3762.1848            0   -2036.0754     19.27876    22.707833    23.520042    10296.577   -1476.7115   -2837.1312   -1794.3836    585.77322    764.80089   -208.31229   -3609.5882 
12944000    291.02631    -3779.477   -3280.6678    -3779.477            0   -3723.7932    19.383804    22.831561    23.648196    10465.805   -3596.9571   -4594.4637   -2979.9586   -524.76519   -623.85646   -24.651589   -3849.0416 
12945000    281.01202   -3790.9558   -3309.3109   -3790.9558            0   -4295.3908    19.410809    22.863369    23.681142    10509.608   -5089.7749   -4129.2855   -3667.1119   -900.15067    818.76527   -162.59367   -3967.6733 
12946000    271.33486   -3755.9614   -3290.9027   -3755.9614            0   -3985.2842     19.41759    22.871356    23.689414    10520.626   -4281.6861   -3651.1266     -4023.04    39.813573    784.76552    1002.5383    -3902.375 
12947000    274.24132   -3776.7657   -3306.7254   -3776.7657            0   -2892.2276    19.422139    22.876714    23.694964    10528.021   -3832.6105     -1926.69   -2917.3824    123.44208   -153.04419    940.26857   -3750.7992 
12948000    265.95464    -3732.873   -3277.0358    -3732.873            0   -4926.5122    19.583246    23.066477    23.891514    10792.191   -5698.2175   -3566.8987   -5514.4204    323.41952    275.40011    218.75775   -4052.4345 
12949000    289.87477   -3786.3808   -3289.5454   -3786.3808            0   -3198.5344     19.36256    22.806538    23.622278    10431.431   -3677.4747   -2408.0862   -3510.0422    281.39209    297.81698   -227.17277    -3776.144 
12950000    277.69343   -3791.4536   -3315.4965   -3791.4536            0   -1356.4446    19.368913    22.814021    23.630028    10441.702   -1163.9699    -894.5803   -2010.7835   -421.27408   -292.21037    850.22939    -3522.058 
12951000    273.95082   -3760.4229   -3290.8806   -3760.4229            0   -2406.5573    19.532108    23.006243    23.829126    10707.866   -2578.6646   -1958.7537   -2682.2535    773.76522    110.92856     230.9627   -3666.6964 
12952000    279.84172   -3785.4954   -3305.8562   -3785.4954            0   -2961.6404    19.386681     22.83495    23.651706    10470.466   -3380.9658    -2544.003   -2959.9524   -42.848797     489.1843   -494.66314   -3758.1017 
12953000    275.33551    -3783.614   -3311.6983    -3783.614            0   -2387.1158     19.56295    23.042571    23.866753    10758.671   -1805.8539   -2486.0826   -2869.4109   -1161.9395   -134.30271    24.801059   -3686.2468 
12954000    266.25244    -3773.901   -3317.5534    -3773.901            0   -4190.2336    19.565628    23.045726    23.870021     10763.09   -4570.0225   -3132.2074   -4868.4709   -94.275058   -464.26276    81.894154   -3975.2887 
12955000    267.28749   -3782.9133   -3324.7917   -3782.9133            0   -2797.8844    19.566853    23.047168    23.871514    10765.111   -1971.9436   -2470.5275   -3951.1821    336.19849    780.98277    242.25751   -3764.0542 
12956000    263.52793   -3760.2697   -3308.5918   -3760.2697            0   -3367.3127     19.57149     23.05263    23.877172    10772.767   -3148.7318   -3199.0551   -3754.1513    17.006969   -376.54618    330.42266   -3837.6295 
12957000    272.02517   -3754.4734   -3288.2316   -3754.4734            0   -2840.2109    19.563463    23.043176     23.86738    10759.518   -3216.0589    -2373.113   -2931.4607   -130.15295    50.934202    107.58495   -3733.9076 
12958000    278.52635   -3757.7054   -3280.3207   -3757.7054            0   -2293.4496    19.465436    22.927713    23.747787    10598.588   -2731.4571   -1987.5456   -2161.3461    46.440537    334.17861   -126.44466   -3634.8182 
12959000    261.90544   -3756.1263   -3307.2294   -3756.1263            0   -2873.5195    19.513279    22.984065    23.806155    10676.929   -2894.1318   -2803.8314   -2922.5953   -437.68453    552.04872    633.79011    -3754.671 
12960000    281.93563   -3754.8927   -3271.6647   -3754.8927            0   -3916.6009    19.487356    22.953532    23.774529    10634.434   -3654.2203   -3525.9902   -4569.5923   -222.65099    272.33196   -418.54428   -3879.0994 
12961000    281.51189   -3809.3268    -3326.825   -3809.3268            0   -2174.5526    19.384087    22.831894    23.648541    10466.262   -2328.5099   -2216.7438   -1978.4042   -154.16022   -223.26653    568.61714   -3658.7481 
12962000    273.74317   -3808.0555   -3338.8691   -3808.0555            0   -2563.4524    19.395852    22.845752    23.662894    10485.332   -2267.3153   -3267.4207   -2155.6214   -74.173766   -128.28691   -452.11333   -3730.8666 
12963000    298.92618   -3815.9054   -3303.5562   -3815.9054            0   -3924.4854    19.554231    23.032302    23.856117    10744.293   -4543.8344   -3195.1838    -4034.438    141.67025   -10.921335   -222.04522   -3918.5014 
12964000    272.24943   -3803.3366   -3336.7104   -3803.3366            0   -2555.8846    19.400911    22.851711    23.669066    10493.539   -2705.2201   -2596.1303   -2366.3033    37.120656   -535.85101   -432.85074   -3727.8566 
12965000    257.17362   -3816.4416   -3375.6549   -3816.4416            0   -4897.2076    19.550693    23.028134      23.8518    10738.462   -4466.0553    -5631.874   -4593.6936    416.33637   -34.719596    278.90229   -4142.6038 
12966000    259.40165   -3773.0594   -3328.4538   -3773.0594            0   -3821.7341    19.461553    22.923139     23.74305    10592.247   -3239.3547   -3377.4421   -4848.4056      182.652   -579.53404   -193.22181    -3918.824 
12967000    262.88016   -3800.0058   -3349.4382   -3800.0058            0   -3740.7312    19.459167    22.920328    23.740138    10588.351   -3848.3416   -3176.4481    -4197.404    1191.4152   -520.86503   -154.47503   -3927.0828 
12968000    280.77812   -3790.6919   -3309.4479   -3790.6919            0   -2841.2264    19.442425    22.900609    23.719713    10561.045    -3125.426   -2627.9381   -2770.3151   -91.621624   -98.201458    381.01678   -3747.0592 
12969000    281.76295   -3789.3659   -3306.4338   -3789.3659            0   -2447.9972    19.360726    22.804378     23.62004    10428.468   -2328.5789   -2613.2344   -2402.1783    271.46159   -128.27439   -374.50501    -3678.746 
12970000    272.24492   -3802.6347   -3336.0162   -3802.6347            0   -2816.9309    19.499763    22.968146    23.789666    10654.759   -2866.6761    -2248.024   -3336.0926    350.94043   -107.41313   -41.259457   -3773.7355 
12971000    274.63779   -3808.8355   -3338.1157   -3808.8355            0   -2873.8041    19.397492    22.847683    23.664894    10487.991   -2316.8593   -2960.8793   -3343.6737    419.88223   -462.54943   -496.12142    -3777.683 
12972000    269.86798   -3835.2746   -3372.7301   -3835.2746            0   -2126.2414     19.36782    22.812733    23.628695    10439.935    -1739.807   -2792.7376   -1846.1795   -712.17294   -535.80554    137.05594   -3696.4626 
12973000    259.51856   -3781.4389    -3336.633   -3781.4389            0   -3920.0331     19.52634    22.999449    23.822089    10698.383   -4013.7766   -4643.2425   -3103.0801   -156.36115   -389.84774    329.55592   -3948.2559 
12974000    273.31334   -3787.8826   -3319.4329   -3787.8826            0   -3561.7804    19.493964    22.961315    23.782591    10645.255    -2657.795   -3716.2812    -4311.265    466.62438   -52.699464    144.53136   -3872.3998 
12975000    270.55246   -3809.9814   -3346.2638   -3809.9814            0   -2818.0332    19.514093    22.985024    23.807148    10678.266   -2764.4162   -3081.7054   -2607.9781   -272.79766    712.11125    54.828644   -3785.1205 
12976000    278.45483      -3771.5    -3294.238      -3771.5            0   -3292.8709    19.609102    23.096932    23.923059    10834.995   -3966.4435     -3517.79   -2394.3794   -75.287381    563.41804   -694.46533   -3814.5685 
12977000    294.00003   -3707.6488   -3203.7428   -3707.6488            0     -3918.67    19.803104    23.325441    24.159741    11159.774   -3436.3709   -3466.9973   -4852.6417   -252.86662    3.0372248    940.00534   -3841.5214 
12978000    279.29241   -3748.4347   -3269.7371   -3748.4347            0   -2502.0249     19.61397    23.102666    23.928998    10843.067   -1947.4137   -2750.3316   -2808.3295    410.46486    963.92147    74.630065   -3665.3948 
12979000    285.85467    -3748.562   -3258.6169    -3748.562            0   -3290.5276    19.722457    23.230449    24.061351    11023.986   -3249.1133    -3037.519   -3584.9505    662.33839    656.01895    193.99708   -3787.6466 
12980000    282.21719   -3738.4586    -3254.748   -3738.4586            0   -3789.2198    19.702356    23.206773    24.036828    10990.313   -3710.6658   -4308.0945   -3348.8992   -284.43616   -290.77435    510.32104   -3862.0934 
12981000    275.33865   -3752.1404   -3280.2194   -3752.1404            0   -3301.3054    19.678253    23.178383    24.007423    10950.028    -3053.377   -3003.2343   -3847.3048    497.70449     213.0592    241.83223   -3807.4211 
12982000    273.61551   -3768.6921   -3299.7245   -3768.6921            0   -1970.1139    19.628166    23.119387    23.946317    10866.627   -1200.1295    -2499.022   -2211.1903    521.98092   -470.52474    1015.2742   -3611.9454 
12983000    267.75808   -3760.4388   -3301.5106   -3760.4388            0   -3518.7618    19.734718    23.244891     24.07631    11044.558   -2459.8344   -3295.1936   -4801.2573    226.69563   -183.02935    390.86585   -3868.2901 
12984000    280.05718   -3748.8723   -3268.8638   -3748.8723            0   -4114.8308    19.758831    23.273294    24.105728    11085.093   -3836.6762   -4430.2803   -4077.5359    621.09199    72.187793    822.42806   -3934.0868 
12985000    275.51746   -3778.8332   -3306.6057   -3778.8332            0   -3199.4506    19.600755      23.0871    23.912875    10821.164   -4039.1044   -2515.8539   -3043.3935   -86.253945    53.976367     161.9028   -3811.5289 
12986000     263.6277   -3729.1944   -3277.3455   -3729.1944            0   -3935.7478    19.623498    23.113889    23.940622    10858.876   -3999.3127   -3944.9518   -3862.9788   -388.75743    170.31958    622.21321   -3900.6325 
12987000      274.135   -3743.2349   -3273.3769   -3743.2349            0   -3280.7778    19.681115    23.181753    24.010914    10954.805   -2831.2407   -2965.1934   -4045.8992   -439.22242   -759.11041   -97.479921   -3797.5291 
12988000     278.0234   -3753.5306    -3277.008   -3753.5306            0   -2209.1578    19.598909    23.084926    23.910624    10818.108   -1618.4754    -2073.732   -2935.2661   -1127.0902     659.9719   -234.26951    -3625.549 
12989000    274.05632   -3771.1895   -3301.4664   -3771.1895            0    -1098.684    19.494938    22.962462    23.783779    10646.851   -213.71909   -860.65411   -2221.6788    901.09684    495.19545      141.665   -3472.0628 
12990000    280.00281   -3744.1866   -3264.2714   -3744.1866            0   -2430.3637    19.504863    22.974152    23.795887     10663.12   -1989.7577   -2169.5432   -3131.7901   -207.03145   -379.96472    55.094737   -3642.2188 
12991000    282.25852   -3791.3416   -3307.5601   -3791.3416            0    -2329.176    19.512635    22.983307    23.805369    10675.872   -2112.3811   -2464.1311   -2411.0158    -818.3588   -283.73932    347.97054    -3670.205 
12992000    271.97935   -3757.8701   -3291.7068   -3757.8701            0   -3192.9093    19.504616    22.973861    23.795586    10662.715   -2907.6816   -3061.6628   -3609.3836   -33.431872   -548.26134   -161.11865   -3788.2194 
12993000    282.13359   -3733.1624   -3249.5951   -3733.1624            0   -2380.9315    19.552078    23.029765    23.853489    10740.743   -2360.8954   -2123.0654   -2658.8336   -848.16722    540.50796    365.76344   -3622.5507 
12994000    267.13536   -3712.3994   -3254.5385   -3712.3994            0     -3224.31     19.65109    23.146388    23.974284    10904.745   -3294.9876   -3385.3423      -2992.6   -629.26772    367.12936   -131.12399   -3767.3151 
12995000    287.65782    -3723.155   -3230.1194    -3723.155            0   -3419.7101     19.79447    23.315271    24.149207    11145.183   -3815.3982   -3238.1576   -3205.5746    501.29333   -1521.7199    237.29938   -3785.9627 
12996000    269.81838   -3738.6173   -3276.1578   -3738.6173            0   -3985.1165    19.750942       23.264    24.096103     11071.82   -3799.5323   -3588.5595   -4567.2576   -551.59544    68.046259    345.39436   -3919.6391 
12997000    256.09183   -3688.7371   -3249.8044   -3688.7371            0   -4099.7117     19.90529    23.445802    24.284407    11333.423   -3415.7031   -5018.3917   -3865.0402   -414.86137    110.35945    1240.2771   -3927.4308 
12998000     269.8672   -3697.2357   -3234.6926   -3697.2357            0   -3450.9301    19.874261    23.409254    24.246552    11280.506   -3474.2083   -3441.7153   -3436.8666   -510.49805   -217.66479    967.65902   -3802.4209 
12999000     284.3905   -3800.5504   -3313.1149   -3800.5504            0    -3046.868     19.80232    23.324518    24.158785    11158.449   -3167.8851   -1971.2407   -4001.4782    635.30693   -208.32837    510.71627   -3808.9455 
13000000    274.73083   -3703.2196   -3232.3404   -3703.2196            0   -3280.8737    19.772224    23.289068    24.122067    11107.649   -3796.9589   -2978.2031    -3067.459    536.09668    29.033687    18.729526   -3763.8211 
Loop time of 1058.43 on 64 procs for 250000 steps with 864 atoms

Performance: 40.815 ns/day, 0.588 hours/ns, 236.199 timesteps/s
184.8% CPU use with 16 MPI tasks x 4 OpenMP threads

MPI task timing breakdown:
Section |  min time  |  avg time  |  max time  |%varavg| %total
---------------------------------------------------------------
Pair    | 22.038     | 24.639     | 27.598     |  27.2 |  2.33
Bond    | 1.6527     | 1.8495     | 2.6183     |  16.1 |  0.17
Kspace  | 176.62     | 182.27     | 184.43     |  15.0 | 17.22
Neigh   | 3.1087     | 3.2453     | 3.3171     |   3.1 |  0.31
Comm    | 50.33      | 53.536     | 57.245     |  27.2 |  5.06
Output  | 720.56     | 720.56     | 720.56     |   0.0 | 68.08
Modify  | 52.198     | 59.429     | 65.94      |  50.5 |  5.61
Other   |            | 12.9       |            |       |  1.22

Nlocal:        54.0000 ave          66 max          25 min
Histogram: 1 0 0 2 0 0 1 5 4 3
Nghost:        2202.38 ave        2347 max        2039 min
Histogram: 2 1 0 1 1 5 2 1 2 1
Neighs:        11144.1 ave       14046 max        4635 min
Histogram: 1 0 1 0 1 0 3 4 2 4

Total # of neighbors = 178305
Ave neighs/atom = 206.37153
Ave special neighs/atom = 2.0000000
Neighbor list builds = 14907
Dangerous builds = 1

unfix		3
unfix		2
unfix		1

write_data	data.final.${pid}
write_data	data.final.1
System init for write_data ...
PPPM initialization ...
  extracting TIP4P info from pair style
  using 12-bit tables for long-range coulomb (../kspace.cpp:340)
  G vector (1/distance) = 0.36967742
  grid = 24 27 27
  stencil order = 5
  estimated absolute RMS force accuracy = 0.0032173043
  estimated relative force accuracy = 9.6888165e-06
  using double precision FFTW3
  3d grid and FFT values/proc = 5985 1296
Last active /omp style is kspace_style pppm/tip4p/omp
WARNING: Not all mixed pair coeffs generated from mixing. Use write_data with 'pair ij' option to store all pair coeffs. (../write_data.cpp:312)

write_restart   restart.lmp.${pid}
write_restart   restart.lmp.1
System init for write_restart ...
PPPM initialization ...
  extracting TIP4P info from pair style
  using 12-bit tables for long-range coulomb (../kspace.cpp:340)
  G vector (1/distance) = 0.36967742
  grid = 24 27 27
  stencil order = 5
  estimated absolute RMS force accuracy = 0.0032173043
  estimated relative force accuracy = 9.6888165e-06
  using double precision FFTW3
  3d grid and FFT values/proc = 5985 1296
Last active /omp style is kspace_style pppm/tip4p/omp
Total wall time: 0:17:38
