LAMMPS (30 Jul 2021)
  using 1 OpenMP thread(s) per MPI task
package omp 0
using multi-threaded neighbor list subroutines
echo both

include		in.partitions
variable        pid world 0
include		in.temp
variable        temperature equal 267.61
variable	tempDamp equal 100.0
include		in.pressure
variable        pressure equal 10500.0
variable        pressureDamp equal 1000.0 # This is 1 ps
include		in.seed
variable        seed world 745823

units		real
atom_style	full
read_restart	restart.lmp.${pid}
read_restart	restart.lmp.0
Reading restart file ...
  restart file = 30 Jul 2021, LAMMPS = 30 Jul 2021
  restoring atom style full from restart
  orthogonal box = (0.67690882 1.8888405 0.82582718) to (17.530664 21.740337 21.387369)
  4 by 4 by 4 MPI processor grid
  restoring pair style lj/cut/tip4p/long/omp from restart
  restoring bond style harmonic/omp from restart
  restoring angle style harmonic/omp from restart
  864 atoms
  576 bonds
  288 angles
Finding 1-2 1-3 1-4 neighbors ...
  special bond factors lj:    0        0        0       
  special bond factors coul:  0        0        0       
     2 = max # of 1-2 neighbors
     1 = max # of 1-3 neighbors
     1 = max # of 1-4 neighbors
     2 = max # of special neighbors
  special bonds CPU = 0.763 seconds
  read_restart CPU = 1.078 seconds
include 	in.setup
variable	out_freq equal 1000
variable	out_freq2 equal 10000
variable	out_freq3 equal 1000

timestep	2.0

neigh_modify    delay 7 every 1

include		in.tip4p
# This is TIP4P/Ice

# create groups ###
group ox type 2
288 atoms in group ox
group hy type 1
576 atoms in group hy

# set charges - beside manually ###
set group ox charge -1.1794
Setting atom values ...
  288 settings made for charge
set group hy charge 0.5897
Setting atom values ...
  576 settings made for charge

# ### TIP3P Potential Parameters ###
pair_style lj/cut/tip4p/long/omp 2 1 1 1 0.1577 8.5
pair_coeff 1 1*2 0.000 0.000
pair_coeff 2 2 0.21084 3.1668
bond_style  harmonic
bond_coeff  1 450 0.9572
angle_style harmonic
angle_coeff 1 55 104.52
kspace_style pppm/tip4p/omp 1.0e-5
pair_modify tail yes

thermo          ${out_freq}
thermo          1000
thermo_style    custom step temp pe etotal epair emol press lx ly lz vol pxx pyy pzz pxy pxz pyz enthalpy

restart 	${out_freq3} restart.lmp.${pid} restart2.lmp.${pid}
restart 	1000 restart.lmp.${pid} restart2.lmp.${pid}
restart 	1000 restart.lmp.0 restart2.lmp.${pid}
restart 	1000 restart.lmp.0 restart2.lmp.0


include         in.dump
dump            myDump all atom ${out_freq2} dump.water.${pid}
dump            myDump all atom 10000 dump.water.${pid}
dump            myDump all atom 10000 dump.water.0
dump            myDump2 all dcd ${out_freq2} dump.dcd
dump            myDump2 all dcd 10000 dump.dcd
dump_modify     myDump append yes
dump_modify     myDump2 append yes


variable natoms 	equal  "count(all)"                        # NUMBER ATOMS
variable H      	equal  "enthalpy/v_natoms"                 # ENTHALPY-per-atom
variable Vol      	equal  "vol/v_natoms"                 # volume-per-atom
fix AVG all 		ave/time ${out_freq} 1 ${out_freq} v_Vol v_H file vol_enthalpy.dat
fix AVG all 		ave/time 1000 1 ${out_freq} v_Vol v_H file vol_enthalpy.dat
fix AVG all 		ave/time 1000 1 1000 v_Vol v_H file vol_enthalpy.dat


timer           timeout 23:50:00 every 1000
New timer settings: style=normal  mode=nosync  timeout=23:50:00

fix 		1 all shake 1e-6 200 0 b 1 a 1
       0 = # of size 2 clusters
       0 = # of size 3 clusters
       0 = # of size 4 clusters
     288 = # of frozen angles
  find clusters CPU = 0.908 seconds
fix             2 all nph iso ${pressure} ${pressure} ${pressureDamp}
fix             2 all nph iso 10500 ${pressure} ${pressureDamp}
fix             2 all nph iso 10500 10500 ${pressureDamp}
fix             2 all nph iso 10500 10500 1000
fix             3 all temp/csvr ${temperature} ${temperature} ${tempDamp} ${seed}
fix             3 all temp/csvr 267.61 ${temperature} ${tempDamp} ${seed}
fix             3 all temp/csvr 267.61 267.61 ${tempDamp} ${seed}
fix             3 all temp/csvr 267.61 267.61 100 ${seed}
fix             3 all temp/csvr 267.61 267.61 100 745823

run             250000
PPPM initialization ...
  extracting TIP4P info from pair style
  using 12-bit tables for long-range coulomb (../kspace.cpp:340)
  G vector (1/distance) = 0.37485186
  grid = 24 24 24
  stencil order = 5
  estimated absolute RMS force accuracy = 0.0030943059
  estimated relative force accuracy = 9.3184104e-06
  using double precision FFTW3
  3d grid and FFT values/proc = 2535 216
Last active /omp style is kspace_style pppm/tip4p/omp
Neighbor list info ...
  update every 1 steps, delay 7 steps, check yes
  max neighbors/atom: 2000, page size: 100000
  master list distance cutoff = 10.8154
  ghost atom cutoff = 10.8154
  binsize = 5.4077, bins = 4 4 4
  1 neighbor lists, perpetual/occasional/extra = 1 0 0
  (1) pair lj/cut/tip4p/long/omp, perpetual
      attributes: half, newton on, omp
      pair build: half/bin/newton/omp
      stencil: half/bin/3d
      bin: standard
Per MPI rank memory allocation (min/avg/max) = 9.238 | 9.240 | 9.243 Mbytes
Step Temp PotEng TotEng E_pair E_mol Press Lx Ly Lz Volume Pxx Pyy Pzz Pxy Pxz Pyz Enthalpy 
26250000    279.25383   -3827.6743   -3349.0428   -3827.6743            0    13087.244    16.853755    19.851497    20.561541    6879.3214    13096.358    13952.947    12212.425   -147.54351   -45.658374    223.71457   -2036.0278 
26251000    269.41571   -3840.1366   -3378.3673   -3840.1366            0    10832.976    16.863429    19.862892    20.573344    6891.1749    10303.155    12297.447    9898.3249    1294.8132   -1263.5635   -121.78108   -2289.6455 
26252000    265.23562   -3817.1661   -3362.5614   -3817.1661            0    9745.8114    16.853209    19.850854    20.560875    6878.6526    10807.617    9437.9766    8991.8404    901.56912    77.690097   -110.13437   -2384.8802 
26253000    269.90167   -3843.6859   -3381.0836   -3843.6859            0    12191.662    16.830024    19.823545     20.53259     6850.303    12998.826    11418.546    12157.614    823.09038     454.7471    346.27069     -2163.08 
26254000    249.90645   -3842.6795   -3414.3484   -3842.6795            0    10204.416    16.880395    19.882876    20.594043     6911.995    8167.0974    11173.012    11273.137    181.41459   -705.26871    1508.1348   -2385.6988 
26255000    273.87812   -3829.8036   -3360.3859   -3829.8036            0    10019.137    16.857969     19.85646    20.566682    6884.4827    11038.803     9018.634    9999.9726   -1386.6763    916.19836   -614.47367   -2354.4333 
26256000    276.80786   -3841.8971    -3367.458   -3841.8971            0      10774.7    16.841055    19.836538    20.546048    6863.7821    11438.995     10696.01    10189.095    1076.5706   -118.55111    21.067666   -2288.8973 
26257000    267.17146   -3823.1185   -3365.1958   -3823.1185            0    12717.701    16.771254    19.754322    20.460891    6778.7909    12610.722    15129.884    10412.495    328.95846   -1411.9925   -375.26845   -2107.9021 
26258000    252.37937   -3801.4025   -3368.8329   -3801.4025            0    9290.9661    16.899844    19.905784     20.61777    6935.9134     10024.18    7746.5124    10102.206   -1243.5209    121.30159   -457.90515   -2429.0221 
26259000    293.53903   -3849.8726   -3346.7567   -3849.8726            0    12418.252    16.808356    19.798024    20.506155    6823.8792    12745.413    11560.377    12948.966   -540.43541    1736.7138   -1446.7662   -2110.9013 
26260000      271.195   -3839.4144   -3374.5955   -3839.4144            0    10025.329    16.839911    19.835191    20.544652    6862.3835    10220.182    9137.3119    10718.492    1804.7808   -208.69309    1144.7679   -2371.2523 
26261000    277.49253   -3853.7325   -3378.1198   -3853.7325            0    10097.454     16.85192    19.849335    20.559303    6877.0746    12513.152    7473.4264    10305.782    357.80792     -1212.36    270.39086   -2365.3949 
26262000    282.14854   -3825.8964   -3342.3035   -3825.8964            0    9059.8658    16.875424     19.87702    20.587978    6905.8899    6883.1567    9220.0217    11076.419   -901.62749   -2536.8757   -537.94193   -2429.8362 
26263000    273.65219   -3805.2461   -3336.2156   -3805.2461            0    9497.7265    16.886098    19.889593       20.601     6919.003    9020.2242    8619.8827    10853.073   -158.96805   -434.68395   -870.30487   -2377.8327 
26264000    261.33718   -3845.8378   -3397.9148   -3845.8378            0    10480.231    16.845591    19.841881    20.551581    6869.3291    10623.971    9746.2813     11070.44   -683.42713   -269.42466    1424.5634   -2347.9831 
26265000    261.81692   -3831.5291   -3382.7838   -3831.5291            0    8229.3582    16.917064    19.926067    20.638779    6957.1371    6879.4313     7960.032    9848.6114    719.73416    774.06188    602.21931   -2547.8108 
26266000    275.95559   -3851.1999   -3378.2214   -3851.1999            0    11591.395    16.822369    19.814528     20.52325    6840.9597    11904.501    11643.218    11226.465   -800.61956    540.25653    670.07751   -2221.7668 
26267000     283.1415     -3858.24   -3372.9451     -3858.24            0    9873.7343    16.892747    19.897425    20.609112    6927.1793    8280.0531    12379.039    8962.1111    324.55529    1610.5814    468.21519   -2375.4432 
26268000    250.36058   -3853.4341   -3424.3247   -3853.4341            0    10451.137    16.915181    19.923848    20.636481    6954.8137    10244.272    10460.979     10648.16   -395.07103    1064.9122    901.03597   -2364.2781 
26269000     259.6834   -3803.5239   -3358.4354   -3803.5239            0    10067.706    16.910468    19.918297    20.630731     6949.002    8211.7291    10827.091    11164.298   -322.46973    259.03088   -693.28936   -2338.1331 
26270000    255.12342   -3821.1615   -3383.8887   -3821.1615            0    12428.456    16.767686    19.750119    20.456538    6774.4646    13120.678    11459.299    12705.392    510.97199   -524.97817   -610.62984   -2155.9744 
26271000    276.99105   -3856.5376   -3381.7845   -3856.5376            0    10811.771    16.813075    19.803582    20.511913    6829.6282    9029.8444     12437.24    10968.227    1680.0202   -666.57133    51.289545   -2304.8983 
26272000    273.75437   -3828.6628   -3359.4572   -3828.6628            0    9832.7154     16.88005    19.882469    20.593622     6911.571    7624.7959    10722.477    11150.874   -531.23161    202.22564    -669.0106   -2368.3374 
26273000    250.81793   -3849.3621   -3419.4687   -3849.3621            0    9449.5039    16.856688    19.854951    20.565119    6882.9134    8558.1768    10166.408    9623.9269   -783.27102    598.01492    666.06146   -2470.9253 
26274000    271.01843   -3797.6355   -3333.1191   -3797.6355            0    9124.9577    16.901942    19.908255     20.62033    6938.4969    11310.941    6602.0589     9461.873    991.48743   -1410.3866   -12.134364   -2409.7568 
26275000    266.60859   -3818.3306   -3361.3726   -3818.3306            0    10184.612    16.830275     19.82384    20.532896    6850.6091    10393.866    12511.848    7648.1226    130.44412   -1649.6459    1240.8387   -2343.8371 
26276000    278.73034   -3819.1538   -3341.4196   -3819.1538            0    8244.0499    16.889224    19.893274    20.604813    6922.8455    9287.9896    6743.7811    8700.3788   -269.95508    140.89923   -265.67145   -2509.0788 
26277000    279.16788    -3827.211   -3348.7268    -3827.211            0    9908.1594    16.906975    19.914183     20.62647    6944.6972    10697.287    9531.4173     9495.774   -495.88938    1820.7586   -702.03994   -2345.2157 
26278000    255.88849   -3822.0102   -3383.4261   -3822.0102            0    9058.8387    16.900564    19.906633    20.618649    6936.8007    8642.8676    7643.9225    10889.726    2361.7876     277.9377     1053.904   -2466.9785 
26279000    257.67425   -3825.5134   -3383.8685   -3825.5134            0    11386.594    16.831704    19.825524     20.53464    6852.3553    13586.111    10524.442    10049.228   -810.00169   -239.82954   -1170.8772   -2245.9541 
26280000      283.905   -3801.2479   -3314.6444   -3801.2479            0    11421.257    16.755371    19.735614    20.441514    6759.5495     11752.64     10788.89     11722.24    162.83208   -203.92871   -1581.0744   -2188.7244 
26281000    269.66726   -3784.0084   -3321.8079   -3784.0084            0     10567.81    16.862283    19.861542    20.571945    6889.7693    9447.5524    11518.437    10737.439   -6.3959633    184.12019   -39.782367   -2259.9521 
26282000    267.55229   -3805.9454   -3347.3699   -3805.9454            0    10878.936    16.881386    19.884043    20.595251    6913.2121    11119.142     10211.43    11306.237   -367.19983   -982.49078    254.92513   -2250.5326 
26283000     270.8016   -3834.7063   -3370.5616   -3834.7063            0    11633.822    16.917985    19.927152    20.639902    6958.2737     12104.31    10906.334    11890.822    1717.0662    -1020.679   -295.85358   -2189.9697 
26284000    261.64301   -3851.4036   -3402.9564   -3851.4036            0    9774.1856    16.876926    19.878789     20.58981    6907.7341    8761.1577    12801.224    7760.1747    806.18784    683.66796    277.87058   -2418.2833 
26285000    259.99196   -3840.8831   -3395.2658   -3840.8831            0    11904.584     16.83135    19.825107    20.534208    6851.9224    11826.626    10914.748    12972.378   -819.85564    243.51018   -1886.8092   -2205.6615 
26286000     266.7524   -3865.4112   -3408.2067   -3865.4112            0    10043.891    16.841507     19.83707    20.546599    6864.3342    6916.4571    10029.771    13185.446    701.53042    970.54463   -2517.0326   -2402.7201 
26287000    264.76072   -3834.4924   -3380.7016   -3834.4924            0     10847.79    16.867768    19.868003    20.578638    6896.4957    9241.1572    11012.725    12289.487    -2018.685   -152.91537   -1100.1437   -2289.6492 
26288000    274.94371   -3835.1835   -3363.9394   -3835.1835            0    11275.364    16.802986    19.791698    20.499603    6817.3401     12257.26    11272.189    10296.644   -1094.4539    640.24233   -873.67364   -2242.8986 
26289000    277.65043   -3868.1676   -3392.2843   -3868.1676            0    8890.1108    16.914866    19.923478    20.636097    6954.4257    10020.149     8380.375    8269.8084    539.27467    1341.5935   -1672.6108   -2490.6211 
26290000    263.86451   -3831.0286   -3378.7739   -3831.0286            0    10973.936    16.846292    19.842707    20.552437    6870.1877    12875.593    11799.931    8246.2863   -25.160343    2027.1036    735.89201   -2279.2443 
26291000    258.85024   -3827.3643   -3383.7038   -3827.3643            0    10482.066    16.924337    19.934633    20.647651    6966.1137    12405.782    8936.4763    10103.941   -153.23621   -1136.7964    -678.2123   -2318.7927 
26292000    271.34102   -3858.4347   -3393.3654   -3858.4347            0    11677.305    16.851398    19.848721    20.558666    6876.4359    11684.487    13064.169    10283.258    2110.9806   -105.54738   -315.31613    -2222.298 
26293000    265.82415   -3823.9457   -3368.3322   -3823.9457            0    11683.767    16.849279    19.846225    20.556081    6873.8417    11186.822    11168.411    12696.067   -552.36341   -1819.7814   -1822.0054   -2197.0588 
26294000    267.06763   -3818.4711   -3360.7263   -3818.4711            0    13239.307    16.800791    19.789113    20.496926    6814.6696    12279.581     12520.74    14917.599    1112.8055   -1976.4454   -524.49808   -2044.9383 
26295000    256.23961   -3863.8054   -3424.6195   -3863.8054            0     11058.69    16.824816    19.817411    20.526236    6843.9459    11055.933     10633.88    11486.257   -369.25952   -57.573356    369.98906   -2320.8302 
26296000    279.07341   -3860.3098   -3381.9875   -3860.3098            0    9849.7312     16.92107    19.930785    20.643665    6962.0803    9904.9402    8022.9444    11621.309    921.73047   -568.27968    1488.7891    -2381.897 
26297000    267.14021   -3818.6998   -3360.8307   -3818.6998            0    9839.2188    16.850017    19.847095    20.556982    6874.7457    9458.1824    10394.768    9664.7064    64.901382     278.3496   -224.27886   -2374.3396 
26298000    272.10748   -3830.9741   -3364.5912   -3830.9741            0    8850.2869    16.861309    19.860395    20.570757    6888.5757    9038.3548    8342.2538    9170.2521   -1357.8561    901.98661   -727.20065   -2475.4665 
26299000     277.6266   -3822.3732   -3346.5307   -3822.3732            0    11835.402    16.808364    19.798033    20.506165    6823.8889    12775.106    13327.237    9403.8643    1480.6111    1461.7372   -713.63764   -2168.6784 
26300000    270.06217   -3856.0389   -3393.1616   -3856.0389            0    12020.119    16.829128    19.822489    20.531496    6849.2086    11748.406    12620.697    11691.253    860.46868    151.30579   -1779.4988   -2192.4878 
26301000    260.01533   -3829.2758   -3383.6184   -3829.2758            0    9464.7517    16.881773    19.884499    20.595724    6913.6882    8535.5591    10635.853    9222.8432   -601.71609    800.35103    84.674508   -2429.2965 
26302000    260.83942   -3842.6858    -3395.616   -3842.6858            0     10016.77    16.894111    19.899031    20.610776    6928.8572    9991.3927    9676.8866     10382.03   -1295.7081    12.449743    1551.2469   -2383.4186 
26303000    273.01287   -3844.3815   -3376.4468   -3844.3815            0    11482.416    16.818212    19.809632    20.518179    6835.8894    10698.614    11434.057    12314.577    68.473763   -203.21086   -414.38037   -2231.7138 
26304000    280.57902   -3848.7998   -3367.8969   -3848.7998            0    8163.7318    16.881815    19.884548    20.595774    6913.7387    6943.5116     8332.619    9215.0648    294.31729    57.054843   -251.72215   -2544.7496 
26305000    258.89435   -3812.1016   -3368.3656   -3812.1016            0    12346.539    16.776435    19.760425    20.467212    6785.0752    11669.054    11910.515    13460.047     1107.077    2502.0645    748.56702   -2146.6341 
26306000    272.37843   -3819.1756   -3352.3283   -3819.1756            0    11371.231    16.818342    19.809785    20.518338    6836.0481    11963.336    11712.074    10438.282    834.11178   -812.81637   -356.75882   -2218.6535 
26307000    283.12188   -3886.8984   -3401.6372   -3886.8984            0    11876.532    16.830556    19.824171    20.533239    6850.9524    10533.143    13037.917    12058.537    141.77486    101.13488   -958.55115    -2215.004 
26308000    260.41906    -3834.132   -3387.7826    -3834.132            0    11058.523     16.82639    19.819264    20.528156    6845.8661      13041.9    11490.187    8643.4816    792.06872    -339.9388   -1180.4546   -2283.7004 
26309000    268.00464   -3835.1889   -3375.8381   -3835.1889            0    11580.529    16.837006    19.831769    20.541108    6858.8325    12174.574     10172.69    12394.323   -988.48753    305.65575   -980.48562    -2217.449 
26310000    264.48881    -3883.146   -3429.8212    -3883.146            0    9816.5255    16.870317    19.871005    20.581747    6899.6223    9469.6278    9361.2067    10618.742    1581.2841    -738.6849   -158.02739    -2442.044 
26311000    266.73359   -3844.2475   -3387.0753   -3844.2475            0    9984.9791    16.853094    19.850718    20.560735    6878.5118    11278.579    10171.373    8504.9851    1180.4631     714.6845    2086.9906   -2385.4217 
26312000    273.49398   -3844.0056   -3375.2462   -3844.0056            0    9289.7282    16.901611    19.907865    20.619926    6938.0896    9292.2822    7672.1646    10904.738   -66.604221   -1618.5137   -291.58183   -2435.2658 
26313000    279.33477   -3804.0478   -3325.2776   -3804.0478            0    10941.867     16.85082     19.84804    20.557961    6875.7283    9881.3713    11261.675    11682.555    474.37522    1008.6579   -645.10466    -2228.077 
26314000    259.09214   -3831.5104   -3387.4354   -3831.5104            0    10234.311    16.893007    19.897731    20.609429     6927.499    10356.428    8930.6204    11415.885     1551.198   -999.03315    898.65882   -2353.4581 
26315000    265.17957   -3862.1166   -3407.6078   -3862.1166            0    12657.296    16.802166    19.790732    20.498603    6816.3422    13070.589    13877.066    11024.233    211.78348    806.23862      330.384   -2149.3541 
26316000    286.25107   -3854.5332   -3363.9086   -3854.5332            0    9552.6197    16.905163    19.912049    20.624259    6942.4645    10971.183    8664.3749    9022.3008    190.18771    1782.0404    1895.7545   -2396.7181 
26317000    262.95909   -3857.5657   -3406.8628   -3857.5657            0     10037.47    16.859966    19.858813     20.56912    6886.9307    9272.3202    11123.412     9716.678    1087.8154    -19.88372     727.4283   -2398.7112 
26318000     266.6359   -3810.4166   -3353.4118   -3810.4166            0    11058.741    16.856936    19.855244    20.565423    6883.2181     11200.11    11982.506    9993.6055    58.313402    2833.2209    2720.3565   -2243.2838 
26319000     255.8509   -3834.6947    -3396.175   -3834.6947            0    14535.404     16.73889    19.716202    20.421407    6739.6228    14763.614    13496.897      15345.7    712.59022    1398.2312   -865.80574   -1967.4832 
26320000    270.20943   -3848.7435   -3385.6138   -3848.7435            0    10437.033    16.810139    19.800123    20.508331    6826.0508    9931.5373    9646.3648    11733.197    326.69829   -566.75113    1083.5181   -2346.5972 
26321000    274.80278   -3871.1884   -3400.1858   -3871.1884            0    12111.806    16.799887    19.788048    20.495823    6813.5693    12353.655    12124.205    11857.558    500.51755   -2178.1949    1287.2445   -2196.6487 
26322000     292.2805   -3828.4385   -3327.4797   -3828.4385            0    9064.8929    16.871361    19.872235    20.583021    6900.9038    7513.4259    10424.339     9256.914    743.31201    812.46746    1859.7289   -2415.1653 
26323000    266.41082   -3882.6155   -3425.9965   -3882.6155            0    10515.628    16.830237    19.823797     20.53285    6850.5638    11476.086    8753.0537    11317.744   -416.66523   -867.31679   -455.66491   -2375.3965 
26324000    278.56046   -3881.9729   -3404.5298   -3881.9729            0     12494.74    16.765605    19.747668    20.453999    6771.9425    15454.961    10957.376    11071.883    -499.0132    -670.2749    518.83778   -2170.5264 
26325000    260.31268    -3845.313   -3399.1459    -3845.313            0    9964.7791    16.821276    19.813241    20.521917    6839.6263    10726.044    8361.7438     10806.55    940.37505    -1049.801    -33.05622   -2405.1698 
26326000    255.70399   -3839.2404   -3400.9725   -3839.2404            0    9436.4166    16.897226      19.9027    20.614576    6932.6905    10051.542    9922.4066    8335.3014   -786.37772   -245.28615   -1170.2075   -2446.8925 
26327000    263.30397   -3868.6969   -3417.4029   -3868.6969            0    11260.827    16.840637    19.836046    20.545538    6863.2713    11193.992    11040.434    11548.056    564.40963    718.62598    198.64248   -2290.2642 
26328000     272.5018   -3804.5299   -3337.4711   -3804.5299            0    10400.988    16.861544    19.860671    20.571044    6888.8634    12044.099    8320.8927    10837.973    295.43219   -1124.0988    419.23096   -2292.5149 
26329000    277.56476   -3872.7972   -3397.0607   -3872.7972            0    10575.595    16.845708    19.842019    20.551725    6869.4729    10043.655    10535.477    11147.654   -324.45762   -2189.6969   -386.45108    -2337.553 
26330000    277.30834   -3806.5067   -3331.2097   -3806.5067            0     10362.58    16.856738    19.855011    20.565182    6882.9757    10539.364    10257.089    10291.288    1249.1357   -708.23897    649.53977   -2291.0021 
26331000    263.62206   -3831.6158   -3379.7766   -3831.6158            0    11991.819    16.834281     19.82856    20.537784    6855.5031     13586.82    10824.241    11564.394    365.89266    1959.9371    710.09228   -2180.8288 
26332000    260.86753   -3856.6012   -3409.4832   -3856.6012            0    10073.856    16.835537    19.830039    20.539316     6857.037    11898.385    9542.8881    8780.2961   -370.78091    837.31327     226.8238   -2402.0688 
26333000    257.35123   -3838.5276   -3397.4364   -3838.5276            0    13037.891    16.851916    19.849331    20.559298    6877.0696    14212.621    12192.826    12708.228    149.01523    541.61961   -351.00439    -2089.801 
26334000     280.6666   -3809.2224   -3328.1695   -3809.2224            0    9578.1221    16.908842    19.916382    20.628747    6946.9977    9609.8748    9484.8939    9639.5976   -708.22072   -26.067528   -213.43039   -2357.7636 
26335000    266.43638    -3823.951   -3367.2881    -3823.951            0     11559.48    16.820057    19.811805     20.52043    6838.1394    11002.133    12450.807    11225.499    -151.7656     590.3799   -666.03324    -2214.493 
26336000    270.14554   -3827.8263   -3364.8061   -3827.8263            0    10134.154    16.863397    19.862854    20.573305     6891.135    11082.006    9069.4585    10250.996   -1029.7138    1726.4195   -592.97704   -2346.3223 
26337000    259.53466   -3836.5896   -3391.7561   -3836.5896            0     10526.98    16.848013    19.844734    20.554536    6872.2928    9748.9045     10898.54    10933.496    2196.9818   -1984.5298   -1307.9065   -2336.6859 
26338000    270.33425   -3824.6049   -3361.2612   -3824.6049            0    9743.1234    16.921558     19.93136    20.644261    6962.6833    10222.524    8748.3543    10258.492   -233.93661   -594.85662    328.60318   -2371.9095 
26339000    247.58844   -3828.1884   -3403.8303   -3828.1884            0     10206.15    16.896509    19.901856    20.613701     6931.808    10103.877    11066.536    9448.0384    375.44998   -425.43711   -339.18768   -2372.0568 
26340000    262.66058   -3801.1441   -3350.9528   -3801.1441            0    11914.539    16.795504    19.782886    20.490476    6808.2383    10674.746     14241.29    10827.582     1079.395    204.06701   -1741.4556   -2167.9443 
26341000     261.0116   -3831.4471   -3384.0821   -3831.4471            0    12215.342    16.849261    19.846204    20.556059    6873.8198    13416.752    12217.678    11011.597   -2018.6956    1527.6124    666.15375   -2159.5233 
26342000    265.63909    -3818.191   -3362.8947    -3818.191            0    11170.133    16.910389    19.918205    20.630635    6948.9051    10395.175    13031.876    10083.348   -1742.4767   -263.36168   -1223.0204   -2230.8837 
26343000    265.31603   -3848.7437   -3394.0011   -3848.7437            0    10056.795    16.880825    19.883382    20.594567    6912.5229    10312.432    11476.725    8381.2261    821.67092    1139.2581    829.96897    -2380.155 
26344000    252.54763   -3837.2035   -3404.3455   -3837.2035            0    9503.3229    16.917725    19.926845    20.639585    6957.9526     8272.903    9569.0748    10667.991   -189.67831     1245.053    2312.3195   -2439.9996 
26345000    269.96955   -3876.2812   -3413.5627   -3876.2812            0    10113.673     16.93989    19.952953    20.666627    6985.3371    9708.6733    10033.053    10599.294   -66.363584   -360.65778    552.32242   -2383.2426 
26346000    268.47587    -3820.994   -3360.8356    -3820.994            0    11877.315    16.889616    19.893737    20.605292    6923.3282    13017.367    12049.611    10564.968    1292.0787   -297.34622    555.31604   -2161.5873 
26347000    271.54759   -3834.4337   -3369.0104   -3834.4337            0    10009.193    16.836153    19.830764    20.540067    6857.7901    10566.686    8168.5292    11292.365   -603.43588   -426.10918   -1260.8818   -2367.9526 
26348000    247.29388     -3834.01   -3410.1568     -3834.01            0    9757.7461    16.926737    19.937461     20.65058    6969.0782    8554.0011    11115.971    9603.2663   -408.43329     879.9539   -413.16001   -2418.4101 
26349000     267.5201   -3814.7468   -3356.2265   -3814.7468            0    12264.278    16.819276    19.810885    20.519477    6837.1868    12584.227    10127.497     14081.11   -136.88864    87.164617    2252.8997   -2133.3142 
26350000    267.06736   -3855.2075   -3397.4632   -3855.2075            0    11285.218    16.787075    19.772957    20.480192    6797.9921    11993.444    11532.388    10329.822     106.4707    -307.5657     1971.627   -2278.6271 
26351000    268.69752   -3888.7309   -3428.1925   -3888.7309            0    9044.3694    16.874504    19.875936    20.586855    6904.7604    10070.952    9662.1778    7399.9786    155.32101   -707.95388    127.60453   -2517.4349 
26352000    274.69745    -3833.286    -3362.464    -3833.286            0    11966.818    16.862704    19.862038    20.572459    6890.2857    11903.064    12028.858    11968.531   -78.619195   -1824.2685    1073.2357   -2159.9454 
26353000    270.69711   -3825.9035   -3361.9379   -3825.9035            0    11469.013    16.858086    19.856599    20.566826    6884.6266    11267.911    11722.486    11416.642   -1809.1426   -215.89734    1369.8867   -2210.3891 
26354000    269.47714   -3859.7001   -3397.8255   -3859.7001            0     10314.06    16.894303    19.899257     20.61101    6929.0936    11154.923    10375.038    9412.2203    421.66911   -860.02012    1165.5649   -2355.5513 
26355000    279.62698   -3846.0458   -3366.7747   -3846.0458            0    10640.411    16.869038    19.869498    20.580187    6898.0531    10158.554     10378.41    11384.268   -652.83038   -1151.5693   -467.53735   -2296.3384 
26356000    256.83525   -3855.7687   -3415.5618   -3855.7687            0    12992.836    16.855713    19.853803     20.56393    6881.7196    13706.494    11015.818    14256.197    2349.8614   -281.82824   -737.68393   -2111.5641 
26357000    274.07394   -3892.2926   -3422.5393   -3892.2926            0    10639.332    16.902326    19.908707    20.620798    6938.9701    10397.237    10047.559    11473.201    1920.0493    923.71758    146.30368   -2345.8627 
26358000    261.19749   -3856.4931   -3408.8095   -3856.4931            0    8909.6933    16.936357    19.948792    20.662316    6980.9674    7711.0519    9350.0121    9668.0158    1104.9273    1078.6121   -2438.4695   -2501.7115 
26359000    278.30613   -3883.4706   -3406.4634   -3883.4706            0    10062.981    16.863942    19.863496     20.57397    6891.8034    10082.791    9147.6436    10958.509    646.79862   -1376.6022     184.3803   -2395.0343 
26360000    261.71104   -3861.1441   -3412.5804   -3861.1441            0    10714.756    16.902873    19.909352    20.621466    6939.6442    11432.814    9131.0634    11580.392    1575.9543    1404.3381   -3011.7033   -2328.1657 
26361000    264.97114   -3831.1644   -3377.0129   -3831.1644            0    9170.2003    16.877695    19.879695    20.590748    6908.6785    10438.279    7430.7595    9641.5627   -611.65005   -518.98776   -842.16948   -2453.0603 
26362000    273.92496   -3859.4128   -3389.9148   -3859.4128            0    11326.503    16.798936    19.786927    20.494662    6812.4116    12740.724    10115.748    11123.038    1075.4548    2259.0873   -1288.0249   -2264.6036 
26363000    266.73967   -3848.5518   -3391.3691   -3848.5518            0    10401.702     16.78882    19.775013    20.482322    6800.1132    10715.924    11135.367    9353.8166   -551.63255    10.515627     936.8807   -2359.8045 
26364000    279.25358   -3839.3681    -3360.737   -3839.3681            0    10987.281     16.88762    19.891386    20.602857    6920.8739    10301.004    11616.494    11044.344   -1097.5134    117.30926   -631.47168   -2251.7485 
26365000    274.85656   -3850.9191   -3379.8244   -3850.9191            0    9324.3766    16.925735     19.93628    20.649357      6967.84    11068.805    8446.3831    8457.9413    491.45405    95.985481    303.56748   -2432.2924 
26366000    259.60122   -3866.0222   -3421.0746   -3866.0222            0    9371.0662    16.892526    19.897164    20.608842    6926.9074    10031.449     9167.684    8914.0657   -953.75206    1357.3474    180.93264   -2474.3923 
26367000    262.91491   -3891.5665   -3440.9394   -3891.5665            0    10304.039    16.863029    19.862421    20.572856    6890.6845    8131.0266    9352.9188    13428.172    321.12628    571.60281   -1079.8748   -2405.4497 
26368000    268.46592   -3875.5344    -3415.393   -3875.5344            0    10684.981    16.827797    19.820923    20.529874    6847.5847    10980.366    10872.206     10202.37    1558.4463   -1252.4504    509.24888   -2348.3374 
26369000    271.22434   -3841.7441   -3376.8749   -3841.7441            0    12993.307    16.806834    19.796231    20.504298    6822.0254    12555.016    11409.389    15015.517   -1847.6928   -1574.4926    367.91801   -2084.1416 
26370000    261.44178   -3835.9255   -3387.8233   -3835.9255            0    9530.0296    16.879021    19.881257    20.592366    6910.3071    8472.8437     9393.341    10723.904    -1899.022   -525.09589    -599.4581   -2427.3893 
26371000    253.50695   -3823.1576   -3388.6553   -3823.1576            0    10998.905    16.817634    19.808951    20.517474     6835.185     11957.98    11254.663     9784.071   -2970.6681    849.23291    654.46344   -2292.2387 
26372000    291.05975   -3860.4146   -3361.5482   -3860.4146            0    9095.4417    16.885539    19.888934    20.600318    6918.3152    10316.931    7884.0113    9085.3831    207.97827    -40.79393   -630.63305   -2443.8497 
26373000    258.12484   -3864.9051   -3422.4879   -3864.9051            0    9297.2465     16.85005    19.847133    20.557022    6874.7861    9294.4599    9757.4338    8839.8458   -246.05383    -20.17174   -1464.3299   -2490.3302 
26374000    276.62085   -3847.0139   -3372.8952   -3847.0139            0    11176.322    16.810521    19.800574    20.508797    6826.5163    10704.747    11686.056    11138.163    10.297036   -543.69298   -1144.0756   -2260.2059 
26375000    286.66702   -3830.1251   -3338.7877   -3830.1251            0     10292.58    16.839389    19.834576    20.544015    6861.7447    10576.795    12015.022    8285.9234   -359.11617    1068.9001   -2393.4617   -2308.7937 
26376000    277.32536    -3861.711   -3386.3849    -3861.711            0    13034.409    16.780549     19.76527     20.47223    6790.0669    10391.706    15568.693    13142.829   -1508.1044   -917.34701   -549.57279   -2095.6373 
26377000    266.24147   -3829.6551   -3373.3263   -3829.6551            0    11660.151     16.85688    19.855178    20.565355    6883.1494    14046.589    11808.866    9124.9991     485.9846   -780.86124   -586.97192   -2202.8375 
26378000    266.72938   -3833.5918   -3376.4268   -3833.5918            0    9292.8213    16.883404     19.88642    20.597714     6915.692    9447.2673    8595.6212    9835.5754     218.2946    1404.6238    107.82571   -2439.1689 
26379000    279.59585   -3813.4721   -3334.2544   -3813.4721            0    12350.786    16.781142    19.765968    20.472954     6790.787    13503.854    12996.132    10552.371   -286.16024    -1232.719    -814.5517   -2111.0738 
26380000    263.55787   -3837.8192   -3386.0901   -3837.8192            0    12092.805    16.791859    19.778592    20.486029    6803.8064     10135.11    15278.759    10864.546   -317.89874    389.93239    1980.2591   -2186.1629 
26381000    259.41277   -3865.9338   -3421.3092   -3865.9338            0    9941.2839    16.895538    19.900712    20.612517    6930.6135    10038.923    7922.3287      11862.6   -721.13118   -187.64928   -1063.2822   -2416.4851 
26382000    275.78524   -3842.2594   -3369.5729   -3842.2594            0    8452.9463    16.971897    19.990652    20.705674    7025.0064    10509.702    6550.0719    8299.0652   -1724.8435   -344.40538   -2479.4033   -2503.5474 
26383000    268.45929    -3881.586    -3421.456    -3881.586            0    8880.7654     16.90565    19.912623    20.624854    6943.0652    7333.3158    8895.5904     10413.39   -584.44229    2101.3711    150.95502   -2522.2121 
26384000     257.6517   -3859.7062      -3418.1   -3859.7062            0    11780.149    16.816358    19.807449    20.515918    6833.6296    11647.863    12093.582    11599.002    20.185305    2409.5738    1853.0034    -2244.073 
26385000    259.12162   -3881.7221   -3437.5965   -3881.7221            0    10680.275    16.811758     19.80203    20.510306    6828.0233    11456.876    9524.0939    11059.857    289.03607    1004.5876    280.13061   -2374.0578 
26386000    269.45493    -3870.178   -3408.3414    -3870.178            0    9489.0705    16.891752    19.896252    20.607898    6925.9549    11446.467    6861.7818    10158.963   -41.869602    1332.3806    2203.9076   -2449.8699 
26387000    268.24329   -3856.1203   -3396.3605   -3856.1203            0    11310.779    16.794503    19.781706    20.489255    6807.0207    10749.647    12070.799     11111.89    1942.8322    460.23944    364.47603   -2273.5008 
26388000    268.93139   -3844.5319   -3383.5927   -3844.5319            0     8936.135    16.859213    19.857927    20.568201    6886.0079    9033.4937    9220.0903    8554.8209    1626.2966     1823.932   -1421.9848   -2486.1781 
26389000     251.0697   -3854.1194   -3423.7946   -3854.1194            0    10667.909    16.812605    19.803028    20.511339     6829.055    9201.3787    12028.011    10774.339    812.30531   -308.17439    1139.4024   -2361.3267 
26390000    261.33684    -3854.321   -3406.3986    -3854.321            0    9453.0996    16.823306    19.815632    20.524394    6842.1034    8720.3679    10026.177    9612.7543   -1405.8948   -373.51301    -2102.192   -2463.1205 
26391000    258.64966     -3867.05   -3423.7334     -3867.05            0    11182.655    16.884462    19.887666    20.599004    6916.9922    12115.653    10140.669    11291.642   -1945.9728    1083.5659    1142.5617   -2295.6581 
26392000     260.9765   -3857.4261   -3410.1213   -3857.4261            0    10104.366    16.830545    19.824159    20.533226    6850.9396    10052.964    10030.479    10229.654    2060.5569    150.86701   -1111.4399   -2400.5544 
26393000    254.19957   -3869.8799   -3434.1905   -3869.8799            0    10263.379    16.894967    19.900039     20.61182    6929.9105    11325.731    8295.4134    11168.994    659.41962    916.95729   -1255.6477   -2396.9156 
26394000    259.69701   -3841.5645   -3396.4527   -3841.5645            0    8185.4097    16.871943     19.87292    20.583731     6901.617    8281.1208    8571.4018    7703.7064   -757.97005   -1103.9701   -5.0388651   -2572.5666 
26395000    280.75767   -3852.0694   -3370.8603   -3852.0694            0     10457.16    16.872701    19.873813    20.584656    6902.5481     9435.088     11522.66    10413.732   -1213.1828    1075.9341   -934.27492   -2318.1737 
26396000    262.60166   -3839.0285   -3388.9382   -3839.0285            0    12531.424    16.815718    19.806694    20.515136    6832.8488     14599.89    12165.818    10828.564   -787.64512   -142.32793    203.71867   -2140.1807 
26397000    248.64455   -3852.5771   -3426.4089   -3852.5771            0    10797.209    16.796449    19.783998    20.491629     6809.387    10544.307    11086.968    10760.351     353.8362    552.43556    553.09641   -2354.1605 
26398000    257.04153   -3869.0017   -3428.4414   -3869.0017            0    9077.0586    16.833823     19.82802    20.537224    6854.9428    9305.3791    9386.9428    8538.8538      927.864   -647.93505    1497.8755   -2520.9869 
26399000    279.13466   -3837.0021   -3358.5749   -3837.0021            0    9075.4737    16.906223    19.913298    20.625553    6943.7707    8461.6922    8136.6165    10628.112   -1556.4988    -724.8771    468.70937   -2439.5219 
26400000    275.14528   -3872.5327   -3400.9431   -3872.5327            0    9526.9467    16.817358    19.808626    20.517137    6834.8482    10347.939    10369.953    7862.9481   -1172.0395    -2.244375    -947.0168   -2451.3042 
26401000    268.10327   -3821.1044   -3361.5846   -3821.1044            0     11564.62     16.84915    19.846073    20.555924    6873.6846    12448.376    11582.469    10663.013    964.25612    230.32192   -1285.6579   -2202.2819 
26402000    258.18621   -3850.0015   -3407.4792   -3850.0015            0    10345.229    16.867773    19.868009    20.578644    6896.5018    9239.4758    9716.9016    12079.311    496.07415    558.66382   -2974.8177   -2366.9725 
26403000    268.11744   -3838.1553   -3378.6111   -3838.1553            0    10537.634    16.867201    19.867335    20.577946    6895.8001    9232.2157    10773.729    11606.956    36.437342    893.28356   -1262.5556   -2318.8606 
26404000    261.99205   -3845.9366   -3396.8912   -3845.9366            0    9904.0829    16.878132     19.88021    20.591282    6909.2154    10061.746    9834.1574    9816.3448    2001.3595    390.74241   -1597.0238    -2398.918 
26405000    260.24088   -3845.1127   -3399.0687   -3845.1127            0    13022.231    16.840684    19.836101    20.545595    6863.3284    13264.413    13205.781    12596.501   -1284.6454     946.5933    1686.9493   -2095.6136 
26406000    244.10687   -3873.9364   -3455.5456   -3873.9364            0    10251.999    16.856093    19.854251    20.564394    6882.1854    9617.1426     10903.44    10235.415   -1283.4794    2299.7283    466.24624   -2426.5564 
26407000    268.56297   -3854.8789   -3394.5712   -3854.8789            0     10800.05    16.808027    19.797636    20.505754    6823.4781    8466.1446    11881.308    12052.698    -1143.827   -847.99523    1502.1705   -2319.8212 
26408000    266.13798   -3852.9279   -3396.7765   -3852.9279            0    11623.634    16.796869    19.784493    20.492141     6809.898    11745.299    10940.339    12185.263    -1612.729    -1789.723    717.74756   -2242.3709 
26409000    256.14754   -3836.1002   -3397.0721   -3836.1002            0    9892.3833    16.885996    19.889473    20.600875    6918.8772    9883.1711    9320.7557    10473.223   -564.62024   -190.21212     -524.734   -2398.8839 
26410000    276.82129   -3837.9522   -3363.4899   -3837.9522            0    10913.286    16.879123    19.881377     20.59249    6910.4319    10938.514     11163.75    10637.593   -437.36959    1601.4104    48.812169   -2263.6319 
26411000    259.70071   -3870.6946   -3425.5765   -3870.6946            0    10024.638    16.855882    19.854002    20.564136    6881.9262    9068.3997    11451.707    9553.8084   -496.23376    -952.3458    1500.0555   -2419.4453 
26412000    251.58735   -3829.4114   -3398.1993   -3829.4114            0     8358.991    16.888931     19.89293    20.604456    6922.4856    6829.0952    9298.1006    8949.7771    225.70024    91.296861    27.650418   -2554.2977 
26413000    268.34075   -3843.0208   -3383.0939   -3843.0208            0    11201.842    16.799081    19.787098    20.494839    6812.5883    12745.549    9862.5043    10997.472    2165.9473   -2044.8307   -3.3701717   -2270.1392 
26414000    263.35245    -3862.325   -3410.9479    -3862.325            0    11973.745    16.850438     19.84759    20.557495    6875.2604    11113.549    12861.855     11945.83    1213.7302   -1838.5369    257.03319   -2210.3571 
26415000    272.75461   -3861.4963   -3394.0042   -3861.4963            0    10729.685    16.805309    19.794434    20.502437    6820.1678    11658.497    13100.084    7430.4746   -171.48606    937.06174   -547.03733   -2326.7745 
26416000     264.6186   -3814.6647   -3361.1175   -3814.6647            0    9364.8386    16.879195    19.881463    20.592579    6910.5214    11581.784    8737.2679    7775.4635   -770.21551   -1999.1029    1189.1863   -2417.3022 
26417000    257.93258   -3861.6486    -3419.561   -3861.6486            0     9520.636    16.899931    19.905887    20.617877     6936.021    10023.265    9495.8284    9042.8145    1784.0643    556.82634    602.57374   -2456.5034 
26418000    275.35155   -3822.3347   -3350.3916   -3822.3347            0    9939.8544     16.91874    19.928041    20.640824    6959.2056     9426.389    10925.291    9467.8831    -257.7968    47.995277     897.9838   -2341.5672 
26419000    279.36761   -3842.2112   -3363.3847   -3842.2112            0    10576.089     16.91215    19.920279    20.632784    6951.0765    12253.702    9552.9174    9921.6479    273.71778   -520.60717     -488.831   -2291.2408 
26420000    272.05521   -3838.6036   -3372.3103   -3838.6036            0    12949.072    16.839016    19.834136     20.54356     6861.289    13921.679    11450.174    13475.364    30.429636    1104.1168   -129.68479   -2076.5632 
26421000    254.74363   -3833.5253   -3396.9035   -3833.5253            0    10851.967     16.89665    19.902022    20.613874    6931.9818    10198.655    12378.583    9978.6632      692.816   -1458.7629    9.1189922   -2299.8147 
26422000    270.16465   -3862.6225   -3399.5696   -3862.6225            0    11858.794      16.8692     19.86969    20.580385    6898.2523    12314.914    12909.733    10351.735   -2149.0294   -121.41164    380.48362   -2206.5282 
26423000    257.90216   -3862.4867   -3420.4513   -3862.4867            0    9851.9296    16.876085    19.877799    20.588784    6906.7016    8984.7939    10272.134    10298.861     1998.801    1669.9449    1404.7687   -2428.0944 
26424000    258.34996   -3861.1372   -3418.3342   -3861.1372            0    8759.8076    16.912206    19.920345    20.632852    6951.1455    9170.6533    8071.5344    9037.2352   -220.57376    1265.4606    228.24634   -2530.3058 
26425000     262.4489   -3806.0177   -3356.1893   -3806.0177            0    9947.7212    16.841798    19.837413    20.546954    6864.6904    11354.224    10684.553    7804.3871   -1280.1542    127.99213    340.71694   -2360.2785 
26426000    264.95362   -3827.2721   -3373.1507   -3827.2721            0    10515.357    16.818076    19.809472    20.518014    6835.7243    8921.0105    10595.457    12029.603    762.66635   -793.16712   -286.84777   -2324.8534 
26427000    270.61099   -3816.6685   -3352.8505   -3816.6685            0    10996.119    16.894368    19.899334     20.61109    6929.1736    11907.594    12455.056    8625.7065   -1086.0315     1.135279   -996.63025   -2241.6389 
26428000    267.20776    -3848.066    -3390.081    -3848.066            0    9837.0777    16.894239    19.899181    20.610932    6929.0143    11738.652    10082.088    7690.4927    118.28933   -146.53879   -573.08506   -2396.0191 
26429000    267.22424   -3862.7267   -3404.7135   -3862.7267            0    9216.9004    16.904361    19.911104    20.623281    6941.4763    9649.9819    9846.2808    8154.4386   -54.622949   -10.584359   -928.44792   -2471.6469 
26430000    268.70091   -3868.2057   -3407.6615   -3868.2057            0    10079.563    16.900725    19.906822    20.618845    6936.9989    8874.8424    10839.018    10524.828    19.791367   -556.25689   -151.06295   -2387.9221 
26431000    286.04883   -3880.5537   -3390.2758   -3880.5537            0    10842.606    16.920777     19.93044    20.643308    6961.7191    11969.813     10525.52    10032.486    583.20377     1532.079    2544.5693    -2289.431 
26432000    286.08332    -3850.164    -3359.827    -3850.164            0    11063.389    16.879573    19.881907     20.59304     6910.985    12192.441     12307.05    8690.6766      492.417    370.40199    765.34228   -2244.7521 
26433000     260.0345   -3859.7049   -3414.0147   -3859.7049            0    13085.764    16.765039    19.747001    20.453308    6771.2566    15095.989    11774.192    12387.112     2292.959   -446.30308     66.74976   -2121.7715 
26434000    260.23749   -3869.6129   -3423.5748   -3869.6129            0    10860.357    16.809049    19.798839       20.507    6824.7227    11484.138      10976.2    10120.732   -109.21831    1268.7267   -2057.4458   -2342.6263 
26435000    269.21059   -3848.0414   -3386.6237   -3848.0414            0    11435.434    16.822859    19.815105    20.523848    6841.5575     10757.37    12762.192    10786.739    1032.3755   -648.09499    -390.8499   -2245.6293 
26436000    264.26201   -3849.8071   -3396.8711   -3849.8071            0    8411.1826    16.919545    19.928989    20.641806    6960.1987    7288.3837    9523.4428    8421.7214   -333.91847   -51.886589    60.108002   -2543.0742 
26437000     260.1557   -3856.6574   -3410.7594   -3856.6574            0    10420.578     16.87825     19.88035    20.591426    6909.3607    11912.638    9165.8552    10183.241    288.77057    1092.0614    1831.3099   -2360.7201 
26438000    282.53834   -3848.7369   -3364.4759   -3848.7369            0    11416.886     16.87391    19.875237    20.586131    6904.0317    12858.258    10813.611    10578.787   -543.68734   -394.63241   -818.75885     -2214.93 
26439000    258.18797   -3873.9586   -3431.4332   -3873.9586            0    10394.038    16.841718    19.837319    20.546857    6864.5928    11588.824    9260.3644    10332.926   -937.16811    907.60264    567.67734   -2390.8544 
26440000    269.01358   -3809.9748   -3348.8948   -3809.9748            0    11943.954    16.841381    19.836922    20.546446    6864.1805    12596.014    11543.874    11691.973   -744.09801    151.26641    1238.7341    -2153.221 
26441000    255.37212   -3817.2678   -3379.5687   -3817.2678            0    9494.4118    16.887031    19.890691    20.602138    6920.1491    10699.849     8236.436    9546.9504   -856.72582     766.6677    1772.9765   -2421.3616 
26442000    276.37676   -3856.0295   -3382.3292   -3856.0295            0    8856.7361    16.903019    19.909523    20.621643    6939.8233    9308.3843    8227.9617    9033.8624    350.24848   -818.91118   -2249.1109   -2485.9371 
26443000    271.22733   -3862.6106   -3397.7362   -3862.6106            0    11143.475    16.862267    19.861523    20.571927    6889.7505    8001.8946    12260.181    13168.351   -284.75808    315.52185    -37.70312   -2278.0404 
26444000    283.58571    -3871.791   -3385.7348    -3871.791            0    11271.692    16.852754    19.850319    20.560321    6878.0966    11296.519    11713.474    10805.083   -2117.7877   -31.630153   -1784.6241   -2255.0715 
26445000      265.026   -3843.0124   -3388.7669   -3843.0124            0     9922.929    16.866014    19.865937    20.576498    6894.3447    9036.7994     11659.85    9072.1372    1060.1455    -899.6388   -431.99852   -2391.0467 
26446000    258.90167   -3847.3284   -3403.5798   -3847.3284            0    10603.115    16.822914     19.81517    20.523916    6841.6249     13075.46    8759.4981    9974.3877   -254.37923   -1.6159396   -253.22473   -2345.6213 
26447000    261.05395   -3827.2927   -3379.8552   -3827.2927            0    11446.062    16.822317    19.814467    20.523187    6840.8966    12545.117    10685.701    11107.368   -799.38867   -377.77731    1173.0386   -2237.9107 
26448000    264.55819   -3831.4978   -3378.0541   -3831.4978            0     11528.96    16.827294     19.82033     20.52926    6846.9707    13067.078    10949.595    10570.206    59.622623   -668.31213    44.521055   -2226.8178 
26449000    272.69764   -3831.8622   -3364.4678   -3831.8622            0    10475.472    16.857647    19.856081     20.56629    6884.0887    9931.6222    10709.629    10785.164    644.72349   -578.12753   -2303.4831   -2312.7579 
26450000    269.44328   -3876.5932   -3414.7767   -3876.5932            0    9343.5259    16.933259    19.945142    20.658536    6977.1369    7622.0352    10586.633    9821.9096    360.09024   -496.94573   -194.14487   -2464.0319 
26451000    258.48555   -3841.9345   -3398.8991   -3841.9345            0    9747.9558    16.843523    19.839445    20.549058    6866.7993    9658.8387    10615.553    8969.4756    2271.6073   -390.01974    344.52214   -2422.6879 
26452000    266.40317   -3837.2919   -3380.6859   -3837.2919            0    10502.583    16.842873    19.838679    20.548265    6866.0047    10102.339    10505.206    10900.204     554.2681   -1832.4989     1100.977   -2329.0241 
26453000    256.60997   -3887.5768   -3447.7561   -3887.5768            0    11507.533    16.791532    19.778207     20.48563    6803.4084    12395.318    11002.419    11124.861    448.99525    1505.8408    -927.7788   -2305.9703 
26454000     262.9055   -3881.2634   -3430.6524   -3881.2634            0    10471.998    16.786546    19.772334    20.479547    6797.3499    12840.025    8279.9616    10296.006   -203.29808    1089.3697    361.57714   -2392.5384 
26455000    269.22121   -3905.4737   -3444.0377   -3905.4737            0    10774.021    16.804547    19.793536    20.501508    6819.2405    11680.014    10032.988    10609.061     553.5398     671.3689    -12.04337   -2372.5438 
26456000    259.75356   -3887.8156   -3442.6069   -3887.8156            0      10147.2    16.816469    19.807579    20.516053    6833.7646    10121.975    9874.8178    10444.808    1067.4867    -517.2274   -936.53548   -2431.3019 
26457000    262.09241   -3850.2409   -3401.0235   -3850.2409            0    10036.131    16.790643    19.777159    20.484545    6802.3275    9542.9667    8659.8721    11905.555   -1300.2363   -807.22986    1402.1047   -2405.3894 
26458000    267.89067   -3813.8318   -3354.6763   -3813.8318            0    11418.939    16.753233    19.733096    20.438905    6756.9623    9907.1301    11581.775    12767.912    209.50719    347.93372    2589.6103   -2229.4156 
26459000    266.33181   -3862.2293   -3405.7457   -3862.2293            0    10952.216    16.799651     19.78777    20.495535    6813.2823    9018.4974    13068.729    10769.422     2345.225   -262.67262   -277.45646   -2317.4816 
26460000    270.46996   -3825.2927   -3361.7165   -3825.2927            0    9666.9832    16.826381    19.819254    20.528146    6845.8558    8797.5725    10383.691    9819.6863    473.74365   -1766.6847   -296.01881   -2396.5669 
26461000    251.90466   -3822.5623   -3390.8063   -3822.5623            0    12931.772    16.777205    19.761332    20.468151    6786.0094    15285.267    13636.165    9873.8851    1331.6611    345.64199    2722.5171   -2110.9878 
26462000    277.85846   -3878.5993   -3402.3594   -3878.5993            0     8822.429    16.858157    19.856683    20.566913     6884.714    7308.8448      8838.45    10319.992   -547.25593    1989.3899    840.47637   -2516.5302 
26463000     275.1917   -3851.3658   -3379.6966   -3851.3658            0    10868.369    16.884366    19.887553    20.598887    6916.8737    10894.738    9427.4225    12282.946     1218.581    483.56548   -2651.6514   -2283.3444 
26464000    255.53146   -3850.5986   -3412.6264   -3850.5986            0     10019.13    16.874616    19.876069    20.586992    6904.8982    10571.546    10105.416    9380.4275    104.45018    1081.3789    -1587.591   -2403.6915 
26465000    257.78651   -3875.7877   -3433.9504   -3875.7877            0    11328.684     16.84161    19.837192    20.546725    6864.4608    9641.6557    12039.578    12304.818    689.33765   -320.88598    -1019.023   -2299.8232 
26466000    265.78271   -3836.5324   -3380.9899   -3836.5324            0    11984.751    16.833542    19.827689    20.536882    6854.6001    12174.267    11705.345    12074.642    1103.4942    594.75752   -374.80965   -2182.9065 
26467000    267.74912   -3858.2952   -3399.3824   -3858.2952            0     10107.45    16.862365    19.861639    20.572046    6889.8703    8040.8069    12413.759    9867.7826    967.24681   -1179.1999   -233.69821   -2383.7688 
26468000    260.89808   -3805.6852   -3358.5148   -3805.6852            0    10405.916    16.851189    19.848474    20.558411    6876.1797    9431.3473    9613.4476    12172.954    1344.2904    1916.2665    109.58224   -2314.9884 
26469000    270.84433   -3818.1207   -3353.9028   -3818.1207            0    9826.8181     16.84938    19.846343    20.556204    6873.9652    9166.1743     9421.312    10892.968   -121.48471    446.36579    484.51888   -2368.7669 
26470000    265.49566   -3873.5653   -3418.5148   -3873.5653            0    11624.775    16.805903    19.795134    20.503163    6820.8922    10747.426    12693.572    11433.328   -701.75713   -267.71667    730.20742    -2262.132 
26471000    257.28429   -3856.4586   -3415.4821   -3856.4586            0    11297.819    16.830291     19.82386    20.532916    6850.6292    12449.536    11346.009    10097.911   -344.43788   -1097.2618   -1140.4667   -2286.7238 
26472000    260.25935   -3868.8071   -3422.7315   -3868.8071            0    10735.686    16.852536    19.850061    20.560054    6877.8289    10837.193    11299.683    10070.183   -409.20461    1321.7682   -559.12827   -2345.8769 
26473000     269.7128   -3872.0304   -3409.7519   -3872.0304            0    9013.0295    16.867441    19.867617    20.578239    6896.0943    8973.2478    10061.699     8004.142    1076.3717    343.72113    70.502895   -2503.2894 
26474000     272.2493   -3832.5657   -3365.9397   -3832.5657            0     12405.55    16.800969    19.789322    20.497143    6814.8854    11801.031    12728.064    12687.554    212.41713    358.86895    556.49186   -2132.9755 
26475000    253.58198   -3853.3755   -3418.7446   -3853.3755            0     10200.74    16.858527    19.857118    20.567363    6885.1666    10740.289    10102.727    9759.2052    368.07392    1152.8804    779.47681   -2394.4568 
26476000    266.67507   -3828.0782   -3371.0063   -3828.0782            0    11205.708    16.821682    19.813719    20.522413    6840.1219    10524.262    11148.718    11944.145    371.57219    247.66516    133.63788   -2253.1678 
26477000    277.32358   -3817.4923   -3342.1692   -3817.4923            0    10855.563    16.833819    19.828015     20.53722     6854.938      11724.3    8439.8845    12402.503    829.64792    496.33157   -349.64076   -2256.9143 
26478000    261.42323   -3845.8621   -3397.7916   -3845.8621            0    8810.6086    16.861146    19.860203    20.570559    6888.3767    9913.9573    7659.9807    8857.8879    625.49643    387.09544   -1130.9453   -2512.6787 
26479000    269.57768   -3844.2119    -3382.165   -3844.2119            0    9554.6577    16.842407    19.838131    20.547697    6865.4351    10412.561    9079.3991     9172.013   -1611.9586   -1466.2134    346.56382   -2425.5017 
26480000    264.32498   -3824.6936   -3371.6497   -3824.6936            0     9407.795    16.878766    19.880957    20.592055    6909.9936    8095.3377    9353.8868     10774.16   -623.29076    1469.9177   -370.20146   -2423.5775 
26481000    267.91372   -3842.1783   -3382.9833   -3842.1783            0    12001.875    16.794739    19.781985    20.489543     6807.308    11163.517    12770.721    12071.387      1276.82   -214.12428   -35.713637   -2191.4659 
26482000    271.45903   -3864.9929   -3399.7214   -3864.9929            0     8372.914    16.840784    19.836219    20.545717    6863.4506    10066.481    7743.1865    7309.0745     450.2421   -625.08867    2029.8887   -2561.6229 
26483000    269.03243   -3872.3832   -3411.2708   -3872.3832            0    11778.115    16.836144    19.830754    20.540057    6857.7792    10492.917    13024.818    11816.611   -309.35204   -395.39041    -756.0573   -2233.2982 
26484000    263.67428   -3807.1367    -3355.208   -3807.1367            0    9868.9529    16.891707    19.896199    20.607843    6925.8997    9438.8183    11552.542    8615.4987    1452.4888    125.26915     -113.104   -2358.3733 
26485000    260.73405   -3869.1985   -3422.3093   -3869.1985            0    11271.358    16.851387    19.848707    20.558652    6876.4218    10145.261    14205.401    9463.4116    881.47944    136.40839    8.1718706   -2291.9548 
26486000    260.34514   -3850.2853   -3404.0627   -3850.2853            0     10088.79    16.952347    19.967625    20.681823    7000.7578    9692.3648    10011.055     10562.95    123.51115   -307.64813   -1112.5669   -2374.0086 
26487000    278.56617   -3841.0049    -3363.552   -3841.0049            0    10672.479    16.832956    19.826998    20.536166    6853.8835    12018.441    9486.9142    10512.082    1091.2784    249.15114    559.36485   -2296.7645 
26488000    265.91442   -3801.1557   -3345.3875   -3801.1557            0    10273.288    16.864914     19.86464    20.575155    6892.9947    11092.026    8328.7336    11399.104     73.66615   -28.413461   -328.74227    -2312.642 
26489000    259.06801   -3849.2754   -3405.2417   -3849.2754            0    8386.1395    16.890113    19.894322    20.605898    6923.9392    8149.3568    7444.1856    9564.8762    1627.0242    965.48502    379.93101   -2558.4215 
26490000    271.03302   -3852.0586   -3387.5173   -3852.0586            0    8445.7237     16.88655    19.890125    20.601552    6919.5585    9418.5647    7353.6589    8564.9476     62.25117    472.38352   -1654.6791   -2535.2199 
26491000    274.38164   -3897.8639   -3427.5832   -3897.8639            0     9911.425    16.805564    19.794734    20.502748    6820.4783    10428.525    10935.606    8370.1437    680.93825   -895.82449   -1585.9472   -2441.6969 
26492000    276.16397    -3835.975   -3362.6394    -3835.975            0    11636.489    16.802934    19.791636     20.49954    6817.2768    9726.6665    12737.055    12445.745    32.793138    774.31342   -843.29989   -2205.7049 
26493000    277.93511    -3816.206   -3339.8347    -3816.206            0    10735.186    16.820277    19.812064    20.520698     6838.408    12062.584     8462.021    11680.953   -667.11654   -1453.3231    219.26914   -2269.2021 
26494000    274.62316   -3809.0974   -3338.4027   -3809.0974            0    11208.838      16.7726    19.755908    20.462533    6780.4228    9031.6091     13202.65    11392.254    205.84435    584.55007    1330.2062   -2230.0111 
26495000    276.74014   -3827.2743   -3352.9512   -3827.2743            0    10155.802      16.8804    19.882881    20.594048    6912.0004    10409.488    11562.106    8495.8118    47.334417   -1077.3962    1447.9974   -2329.2013 
26496000    267.92829   -3819.6096   -3360.3897   -3819.6096            0    11528.138    16.823981    19.816428    20.525218     6842.927    10351.748    13203.597    11029.071    677.33953   -707.57355   -1535.7046   -2209.9152 
26497000     264.3741   -3833.2283   -3380.1002   -3833.2283            0     9651.346    16.856454    19.854676    20.564834     6882.627     10874.36    10473.213    7606.4654    1404.7516    372.34222   -615.57961   -2411.3361 
26498000    279.69003   -3824.5782    -3345.199   -3824.5782            0    9626.0215    16.883308    19.886307    20.597596    6915.5737    10501.257    8298.2227    10078.584   -831.59241   -249.59551   -1509.3996   -2374.3517 
26499000    263.38453   -3879.1188   -3427.6867   -3879.1188            0    9166.8683    16.886963    19.890612    20.602056    6920.0664    10219.911    8733.3147    8547.3796    1411.3825   -2226.4981    973.79224   -2502.5474 
26500000     270.0404   -3807.6187   -3344.7787   -3807.6187            0    8585.2887    16.940197    19.953314    20.667001    6985.7164    11188.667    6325.9474    8241.2517    149.99706    261.71966    202.43959   -2470.1137 
Loop time of 436.111 on 64 procs for 250000 steps with 864 atoms

Performance: 99.057 ns/day, 0.242 hours/ns, 573.249 timesteps/s
99.1% CPU use with 64 MPI tasks x 1 OpenMP threads

MPI task timing breakdown:
Section |  min time  |  avg time  |  max time  |%varavg| %total
---------------------------------------------------------------
Pair    | 22.48      | 27.735     | 32.21      |  46.7 |  6.36
Bond    | 0.2613     | 0.28467    | 0.30618    |   1.2 |  0.07
Kspace  | 181.56     | 190.98     | 199.23     |  24.6 | 43.79
Neigh   | 5.4843     | 6.2153     | 7.0277     |  15.5 |  1.43
Comm    | 95.268     | 102.41     | 108.35     |  31.0 | 23.48
Output  | 1.3445     | 1.3455     | 1.3516     |   0.1 |  0.31
Modify  | 100.29     | 102.67     | 104.15     |  10.2 | 23.54
Other   |            | 4.477      |            |       |  1.03

Nlocal:        13.5000 ave          17 max           8 min
Histogram: 1 1 2 1 14 12 14 11 5 3
Nghost:        2266.75 ave        2309 max        2218 min
Histogram: 3 4 6 7 6 7 12 11 6 2
Neighs:        4415.50 ave        5702 max        2952 min
Histogram: 3 3 7 5 8 11 11 8 4 4

Total # of neighbors = 282592
Ave neighs/atom = 327.07407
Ave special neighs/atom = 2.0000000
Neighbor list builds = 14652
Dangerous builds = 0

unfix		3
unfix		2
unfix		1

write_data	data.final.${pid}
write_data	data.final.0
System init for write_data ...
PPPM initialization ...
  extracting TIP4P info from pair style
  using 12-bit tables for long-range coulomb (../kspace.cpp:340)
  G vector (1/distance) = 0.37443072
  grid = 24 24 24
  stencil order = 5
  estimated absolute RMS force accuracy = 0.0031417604
  estimated relative force accuracy = 9.4613181e-06
  using double precision FFTW3
  3d grid and FFT values/proc = 2535 216
Last active /omp style is kspace_style pppm/tip4p/omp
WARNING: Not all mixed pair coeffs generated from mixing. Use write_data with 'pair ij' option to store all pair coeffs. (../write_data.cpp:312)

write_restart   restart.lmp.${pid}
write_restart   restart.lmp.0
System init for write_restart ...
PPPM initialization ...
  extracting TIP4P info from pair style
  using 12-bit tables for long-range coulomb (../kspace.cpp:340)
  G vector (1/distance) = 0.37443072
  grid = 24 24 24
  stencil order = 5
  estimated absolute RMS force accuracy = 0.0031417604
  estimated relative force accuracy = 9.4613181e-06
  using double precision FFTW3
  3d grid and FFT values/proc = 2535 216
Last active /omp style is kspace_style pppm/tip4p/omp
Total wall time: 0:07:18
