LAMMPS (30 Jul 2021)
Processor partition = 0
  using 1 OpenMP thread(s) per MPI task
using multi-threaded neighbor list subroutines
variable        pid world 0 1
variable        phase world IceII IceIII

shell cd ${phase}
shell cd IceII
include Restart.lmp
echo both
log log.lammps
#include		in.partitions
include		in.temp
variable        temperature equal 134.93
variable	tempDamp equal 100.0
include		in.pressure
variable        pressure equal 8168.8
variable        pressureDamp equal 1000.0 # This is 1 ps
include		in.seed
variable        seed equal 745823

units		real
atom_style	full
box tilt large
read_restart	restart.lmp.${pid}
read_restart	restart.lmp.0
Reading restart file ...
  restart file = 30 Jul 2021, LAMMPS = 30 Jul 2021
  restoring atom style full from restart
  triclinic box = (-10.606311 -9.1053202 0.15305150) to (12.586311 12.095318 21.706948) with tilt (-9.0408556 1.8185818 2.7651046)
  4 by 4 by 4 MPI processor grid
  restoring pair style lj/cut/tip4p/long/omp from restart
  restoring bond style harmonic/omp from restart
  restoring angle style harmonic/omp from restart
  1296 atoms
  864 bonds
  432 angles
Finding 1-2 1-3 1-4 neighbors ...
  special bond factors lj:    0        0        0       
  special bond factors coul:  0        0        0       
     2 = max # of 1-2 neighbors
     1 = max # of 1-3 neighbors
     1 = max # of 1-4 neighbors
     2 = max # of special neighbors
  special bonds CPU = 0.007 seconds
  read_restart CPU = 0.021 seconds
include 	in.setup
variable	out_freq equal 1000
variable	out_freq2 equal 10000
variable	out_freq3 equal 1000

timestep	2.0

neigh_modify    delay 7 every 1

include		in.tip4p
# This is TIP4P/Ice

# create groups ###
group ox type 2
432 atoms in group ox
group hy type 1
864 atoms in group hy

# set charges - beside manually ###
set group ox charge -1.1794
Setting atom values ...
  432 settings made for charge
set group hy charge 0.5897
Setting atom values ...
  864 settings made for charge

# ### TIP3P Potential Parameters ###
pair_style lj/cut/tip4p/long/omp 2 1 1 1 0.1577 8.5
pair_coeff 1 1*2 0.000 0.000
pair_coeff 2 2 0.21084 3.1668
bond_style  harmonic
bond_coeff  1 450 0.9572
angle_style harmonic
angle_coeff 1 55 104.52
kspace_style pppm/tip4p/omp 1.0e-5
pair_modify tail yes

thermo          ${out_freq}
thermo          1000
thermo_style    custom step temp pe etotal epair emol press lx ly lz vol pxx pyy pzz pxy pxz pyz enthalpy

restart 	${out_freq3} restart.lmp.${pid} restart2.lmp.${pid}
restart 	1000 restart.lmp.${pid} restart2.lmp.${pid}
restart 	1000 restart.lmp.0 restart2.lmp.${pid}
restart 	1000 restart.lmp.0 restart2.lmp.0


include         in.dump
dump            myDump all atom ${out_freq2} dump.water.${pid}
dump            myDump all atom 10000 dump.water.${pid}
dump            myDump all atom 10000 dump.water.0
dump            myDump2 all dcd ${out_freq2} dump.dcd
dump            myDump2 all dcd 10000 dump.dcd
dump_modify     myDump append yes
dump_modify     myDump2 append yes


variable natoms 	equal  "count(all)"                        # NUMBER ATOMS
variable H      	equal  "enthalpy/v_natoms"                 # ENTHALPY-per-atom
variable Vol      	equal  "vol/v_natoms"                 # volume-per-atom
fix AVG all 		ave/time ${out_freq} 1 ${out_freq} v_Vol v_H file vol_enthalpy.dat
fix AVG all 		ave/time 1000 1 ${out_freq} v_Vol v_H file vol_enthalpy.dat
fix AVG all 		ave/time 1000 1 1000 v_Vol v_H file vol_enthalpy.dat


timer           timeout 10:00:00 every 1000
New timer settings: style=normal  mode=nosync  timeout=10:00:00

fix 		1 all shake 1e-6 200 0 b 1 a 1
Finding SHAKE clusters ...
       0 = # of size 2 clusters
       0 = # of size 3 clusters
       0 = # of size 4 clusters
     432 = # of frozen angles
  find clusters CPU = 0.001 seconds
fix             2 all nph tri ${pressure} ${pressure} ${pressureDamp}
fix             2 all nph tri 8168.8 ${pressure} ${pressureDamp}
fix             2 all nph tri 8168.8 8168.8 ${pressureDamp}
fix             2 all nph tri 8168.8 8168.8 1000
fix             3 all temp/csvr ${temperature} ${temperature} ${tempDamp} ${seed}
fix             3 all temp/csvr 134.93 ${temperature} ${tempDamp} ${seed}
fix             3 all temp/csvr 134.93 134.93 ${tempDamp} ${seed}
fix             3 all temp/csvr 134.93 134.93 100 ${seed}
fix             3 all temp/csvr 134.93 134.93 100 745823


run             250000
PPPM initialization ...
  extracting TIP4P info from pair style
  using 12-bit tables for long-range coulomb (../kspace.cpp:340)
  G vector (1/distance) = 0.36894785
  grid = 30 40 32
  stencil order = 5
  estimated absolute RMS force accuracy = 0.0041960951
  estimated relative force accuracy = 1.2636416e-05
  using double precision FFTW3
  3d grid and FFT values/proc = 5168 640
Last active /omp style is kspace_style pppm/tip4p/omp
Neighbor list info ...
  update every 1 steps, delay 7 steps, check yes
  max neighbors/atom: 2000, page size: 100000
  master list distance cutoff = 10.8154
  ghost atom cutoff = 10.8154
  binsize = 5.4077, bins = 7 5 4
  1 neighbor lists, perpetual/occasional/extra = 1 0 0
  (1) pair lj/cut/tip4p/long/omp, perpetual
      attributes: half, newton on, omp
      pair build: half/bin/newton/tri/omp
      stencil: half/bin/3d/tri
      bin: standard
Setting up Verlet run ...
  Unit style    : real
  Current step  : 24500000
  Time step     : 2
  Walltime left : 9:59:59.89
Per MPI rank memory allocation (min/avg/max) = 9.446 | 9.450 | 9.455 Mbytes
Step Temp PotEng TotEng E_pair E_mol Press Lx Ly Lz Volume Pxx Pyy Pzz Pxy Pxz Pyz Enthalpy 
24500000    139.77101   -6654.3876   -6294.8352   -6654.3876            0     7030.164    23.192622    21.200638    21.553896    10598.016    6788.9416      7446.59    6854.9605    196.63331    42.027427   -279.60375   -5208.2446 
24501000    134.31113   -6665.0918   -6319.5846   -6665.0918            0    7043.2204    23.347917    21.115511    21.491792    10595.522    6843.4509    6309.7854     7976.425   -334.50579    167.03619     169.1512   -5231.2322 
24502000    133.09503   -6652.6328   -6310.2539   -6652.6328            0    8094.5797    23.200639    21.186603    21.407147    10522.528    7035.1331    9107.6522    8140.9537    9.7285367   -51.967578   -38.406433   -5068.0576 
24503000    134.11594   -6664.3721    -6319.367   -6664.3721            0    7403.0524    23.091346    21.221959    21.567173    10568.855    7385.4965    7416.0047    7407.6559   -149.99711    282.46009   -913.09871   -5178.2907 
24504000    127.73957   -6657.9804   -6329.3782   -6657.9804            0     8396.161    23.134177    21.408404    21.238997    10518.949    8893.3745    7327.6294    8967.4791   -872.46478    314.10272   -873.79053   -5041.3392 
24505000    133.42797   -6660.3709   -6317.1355   -6660.3709            0    8534.8109    23.024579    21.252859    21.527474    10534.213    8729.9845    8315.7515    8558.6968   -370.80703    421.92747   -925.44169   -5005.9266 
24506000    137.61371   -6650.9368   -6296.9339   -6650.9368            0    8948.5604    23.071943    21.332583     21.32762    10497.116     8982.221     8141.194    9722.2662    159.27621    98.251919   -95.377976   -4927.0017 
24507000    132.08131   -6662.8655   -6323.0944   -6662.8655            0    7831.2084    23.127606    21.379546    21.320239    10541.956    8335.3098    6312.8453    8845.4701   -880.15142   -218.42477    29.203767   -5119.0961 
24508000    136.20448   -6663.2393   -6312.8616   -6663.2393            0    7285.9625    23.075935    21.257915    21.575808    10583.932    7884.1567    7778.2552    6195.4756    41.475654     1025.916   -370.17787   -5188.2311 
24509000    136.45589   -6639.4476   -6288.4232   -6639.4476            0    8848.2184    23.096349    21.316233    21.383839    10527.845     8373.653    7504.2629    10666.739    2.9104664    -270.4451    745.25552    -4929.887 
24510000    137.18119   -6646.7488   -6293.8585   -6646.7488            0    10941.935    23.216685    21.055221    21.383408    10452.903    10366.111    11965.212    10494.481     136.0161   -169.37315    -1142.472   -4625.8167 
24511000    138.60509   -6670.3004   -6313.7472   -6670.3004            0    7193.5326    23.184813    21.205867    21.449291    10545.631    6994.5385    6820.5365    7765.5227    31.150804    182.42794    393.23046    -5207.402 
24512000    133.21348    -6635.524   -6292.8404    -6635.524            0    8731.1898     23.22465    21.104658    21.502068    10539.202    7849.0168    9818.1254    8526.4271   -222.37866    1081.1735   -464.99593   -4950.8264 
24513000    136.75382    -6650.152   -6298.3612    -6650.152            0    8667.0911    23.253781    21.124464    21.452805    10538.125     8188.783    9043.6857    8768.8045    -1611.317    295.27883   -114.05929   -4966.3355 
24514000    130.72847   -6665.9638   -6329.6727   -6665.9638            0    8061.5647    23.156298    21.202499    21.436182    10524.552    7816.9231    7865.3522    8502.4189    400.92026   -88.063372   -128.17455   -5092.3048 
24515000    133.82635   -6653.9532    -6309.693   -6653.9532            0    8763.7645    23.074114    21.263671     21.45183    10525.134    9180.3298     9037.954    8073.0097   -760.43949   -325.54791   -523.60847   -4964.4703 
24516000    136.58404   -6661.3187   -6309.9646   -6661.3187            0     8923.565    22.977412    21.423231    21.314974    10492.305    9431.4039    8060.7208    9278.5703   -19.398683    114.93566   -10.003784   -4944.4851 
24517000    133.75632   -6661.2606   -6317.1806   -6661.2606            0     7344.122    23.044149    21.327752    21.523578    10578.406    7965.5056    6779.6548    7287.2058    252.32101    378.40302   -539.22432   -5184.1647 
24518000    132.01513   -6673.0723   -6333.4714   -6673.0723            0    7417.4125    23.083042    21.362311    21.425958    10565.293    7580.1403    7302.5765    7369.5205   -245.44211   -262.32365   -585.37225   -5190.5671 
24519000    135.01773   -6671.7767   -6324.4518   -6671.7767            0     7049.238    23.238801    21.147988     21.49863    10565.585    7661.2455    7800.3583    5686.1102    666.73906   -234.73215   -715.59806   -5238.2473 
24520000    132.95345   -6667.0571   -6325.0425   -6667.0571            0    7138.6932    23.199071     21.17102    21.530456     10574.64    6478.2357    7302.7579    7635.0858    -135.3237     383.9637     725.7926   -5224.1113 
24521000    129.46057   -6660.5752   -6327.5457   -6660.5752            0    9695.6294    23.202389    21.110033    21.440061     10501.41    8953.1592      10833.5    9300.2292   -206.28657    817.21799   -944.50508   -4842.6379 
24522000    137.69559    -6670.517   -6316.3035    -6670.517            0    7629.9769    23.117315    21.293411    21.461503    10564.349    7761.5673    7756.5086    7371.8546   -1008.6006   -22.119268    6.8871815   -5140.7514 
24523000    136.50735   -6671.6366   -6320.4797   -6671.6366            0    8359.4847    23.130798    21.213181    21.431035    10515.733    7002.0395    7898.9385    10177.476    184.21105    1446.0017    1262.8027   -5038.4593 
24524000    145.97084   -6647.4668   -6271.9657   -6647.4668            0    10373.499    23.007093    21.222817    21.472893    10484.683    12228.849    9635.3399    9256.3067   -1027.6786   -713.97789   -580.10351   -4685.7711 
24525000     143.2392    -6658.792   -6290.3179    -6658.792            0    7899.8317    23.243168    21.272736    21.337463    10550.219    7921.1193     7273.408    8504.9678   -83.444446    327.83959   -1761.7388   -5074.8173 
24526000    137.35396    -6645.881   -6292.5463    -6645.881            0    9218.6528    23.087349    21.167723    21.526143    10519.968    8711.8481    9624.5553    9319.5549    331.62605    120.20329    863.14513   -4878.1935 
24527000    134.36852   -6645.4058    -6299.751   -6645.4058            0     8804.018    23.273488    21.118301    21.383867    10510.096    8302.7449    9335.7471    8773.5619   -187.80727    847.44079   -348.14565   -4950.2802 
24528000    130.97425   -6675.3968   -6338.4735   -6675.3968            0    6506.6168    23.217802    21.212457    21.473999    10576.087    6075.2673    6685.3293    6759.2537   -106.54343    160.94388   -165.56031    -5334.884 
24529000    136.68649   -6677.0399   -6325.4222   -6677.0399            0    7890.7462    23.126863    21.139587    21.548291    10534.794    7022.8781    8440.8197    8208.5408    93.023128    351.25784    858.28483   -5113.0945 
24530000    141.68235   -6658.1962    -6293.727   -6658.1962            0    7832.0923    23.167638     21.30317    21.352911    10538.604    7156.0239    7212.6084    9127.6447   -1119.1682    616.87841   -142.69198   -5089.9757 
24531000    139.13632   -6657.4936   -6299.5739   -6657.4936            0    7983.6519    22.981559    21.327294    21.505328    10540.502    8945.9944    8366.5378    6638.4234    -617.0707    163.88636   -706.94566   -5072.3077 
24532000    135.85269   -6648.9936   -6299.5208   -6648.9936            0    8392.0147    23.157983    21.317629    21.292022    10511.302    8598.2421    7284.9135    9292.8886   -362.35443    1484.6322    507.14935   -5013.0538 
24533000    134.48321   -6658.3905   -6312.4406   -6658.3905            0    8671.0514    22.996857    21.362045    21.435768    10530.533     9452.856    8928.3766    7631.9217   -468.78616   -110.33327   -79.457987   -4980.7664 
24534000    133.21577   -6666.4663   -6323.7768   -6666.4663            0    7326.6171    23.061767    21.280363    21.518537    10560.497    8320.9673    6769.9391    6888.9449    757.11521    442.54782    446.65918   -5195.3751 
24535000    131.75249   -6661.1029   -6322.1776   -6661.1029            0    9307.1822    23.116394    21.243494    21.354744    10486.738    9280.5473    9382.7574    9258.2417   -609.59953   -196.48503    235.36853   -4898.7528 
24536000    131.76062   -6662.2491   -6323.3029   -6662.2491            0    8491.0201    23.228257    21.144272    21.456236    10538.114    7678.5995    9046.6289    8747.8317    326.41644    168.22242    125.43155   -5018.3385 
24537000    133.31639    -6655.359   -6312.4107    -6655.359            0    7507.8765    23.230559    21.142982    21.504833    10562.384    6533.9708    8596.7252    7392.9337   -649.02816    345.85755    252.12856   -5155.8858 
24538000    138.35602    -6669.183   -6313.2706    -6669.183            0    8878.0652    23.222804    21.095224    21.464003    10515.005    7980.2071     9669.129    8984.8596   -800.80355    689.79501   -181.73233   -4951.8142 
24539000    132.10129   -6656.6453   -6316.8228   -6656.6453            0       6910.5     23.11986    21.282245    21.545761     10601.43    7394.4538    6813.5947    6523.4515   -801.04404   -1025.8736   -727.13902   -5248.3836 
24540000    133.00384   -6662.4808   -6320.3365   -6662.4808            0    8204.1233    23.112597    21.293628    21.388759      10526.5     7037.264    7823.5062    9751.5996    1119.9816    1032.9613    969.34985   -5060.8542 
24541000    138.77403   -6683.9023   -6326.9145   -6683.9023            0    7919.8553    22.987411    21.308837    21.534062    10548.137    9256.8597     7204.607    7298.0994   -571.68263    981.21901    -407.4959   -5108.5734 
24542000    136.44659   -6668.3175    -6317.317   -6668.3175            0    8707.0276    23.013009    21.430122    21.330521    10519.607    9391.4628    7606.4389     9123.181    12.198831    -553.5427   -343.72679    -4981.505 
24543000    138.25867   -6656.6403   -6300.9783   -6656.6403            0    8885.0546    22.933573    21.291467    21.528321    10512.051     10010.12    7797.9176    8847.1262    820.23103    357.42979    1216.7215   -4938.8329 
24544000    130.59314   -6647.2361   -6311.2932   -6647.2361            0    7658.4547    23.058346    21.370285    21.445176    10567.398    7860.1551    7139.8523    7975.3566    488.04107   -544.13643   -722.72916    -5131.013 
24545000    131.66312   -6689.4149   -6350.7195   -6689.4149            0    7655.6498    23.210789    21.204202    21.414615    10539.551     7021.687    7533.8233    8411.4392    172.66627    263.49833   -271.99291   -5173.9808 
24546000    139.00013   -6665.5815   -6308.0122   -6665.5815            0    8632.0429    23.247769    21.102447    21.467856    10531.804    7250.1842    9160.8071    9485.1373    195.97461    1.2124944   -63.579192   -4982.1687 
24547000    134.01589   -6668.6217    -6323.874   -6668.6217            0    9119.1332    23.189665    21.081254    21.472323    10497.115    8680.2106    9885.3179    8791.8713   -476.43376    649.78111   -123.91499    -4927.829 
24548000    135.21902   -6650.5917    -6302.749   -6650.5917            0    8809.2735    23.158769    21.165323    21.431718    10505.031    9036.0848    9538.9208    7852.8148   -344.55492   -1063.7924   -202.80014   -4953.1234 
24549000    135.04069   -6654.9178   -6307.5339   -6654.9178            0    7642.8935    23.110428    21.328874     21.45522    10575.694    7658.9063    7870.2772    7399.4969    115.72188    855.64249   -36.674509   -5128.7272 
24550000    135.78077   -6660.2722   -6310.9844   -6660.2722            0    7991.4969    22.968438    21.418711    21.429896     10542.53    7930.6233    8077.3368    7966.5305     164.8713    664.11887   -16.079491   -5082.2759 
24551000    136.47595   -6654.6139   -6303.5379   -6654.6139            0    8056.7088    22.913387    21.380257    21.510491    10537.862    8722.6663    7676.2983    7771.1619    386.89531    217.10468    287.60908   -5065.3513 
24552000    125.80621   -6660.2402   -6336.6114   -6660.2402            0    7127.9049    23.079658    21.418772    21.429953    10593.638    7061.3115    6864.8676    7457.5357    1044.0327    12.940503    72.006505    -5235.369 
24553000    130.37493   -6660.6607   -6325.2792   -6660.6607            0    7912.1779    23.082208    21.282101    21.506878    10564.993    7751.4224    8299.4743    7685.6369    631.33334   -800.55563   -646.42435   -5106.1741 
24554000    139.84071   -6661.8387    -6302.107   -6661.8387            0    8028.3934    23.143445     21.23737    21.423234    10529.646    7348.2471    8126.5973    8610.3358    169.26775    391.71543    887.64318   -5069.2341 
24555000    138.12881   -6661.2354   -6305.9075   -6661.2354            0    8269.6233    23.190998    21.155773    21.417477    10507.918    7915.6393     8307.416    8585.8147    82.773371    296.69363    32.070562   -5038.6109 
24556000    137.42403   -6643.6973   -6290.1824   -6643.6973            0    9220.6529    23.202924    20.996184    21.565031    10505.898    9544.8861    9420.4133    8696.6592   -635.64638   -456.45195   -22.576228   -4877.4147 
24557000    136.15906   -6659.7629    -6309.502   -6659.7629            0     8787.561    23.237562    21.094259    21.452581    10515.608    8127.3064    8481.6855    9753.6912   -433.01675   -609.21741    96.143608   -4961.8473 
24558000    134.77208   -6665.5327   -6318.8398   -6665.5327            0    8334.3497    23.150272    21.167925     21.46148    10517.053    7994.5896    8012.9086     8995.551     648.1531   -325.47653    224.75965   -5040.5137 
24559000    137.55588   -6667.4335   -6313.5794   -6667.4335            0    8137.2399    23.053589    21.340158    21.443687    10549.591     7858.225    8119.2508     8434.244    547.51365   -362.41556    752.45901   -5061.6246 
24560000    132.67812   -6681.0852   -6339.7788   -6681.0852            0    6932.9599    23.063131    21.361142    21.498905    10591.539    6930.9401    6540.9387    7327.0008   -465.44473    856.05944   -283.98792   -5268.8671 
24561000    134.60409     -6657.82   -6311.5592     -6657.82            0     8788.566    23.007959    21.368849    21.389981    10516.461    9940.2851    7138.9346    9286.4784    304.50179    411.58567    891.15406    -4963.641 
24562000    137.25434   -6660.4334   -6307.3549   -6660.4334            0     7620.128    23.130894     21.30468    21.410576    10551.053    7271.7735    8657.3128    6931.2976     1126.208      238.318   -991.87017    -5134.798 
24563000    137.51799   -6642.2788   -6288.5222   -6642.2788            0    8364.3585    23.117408    21.268773    21.439597    10541.398    7786.8988    8490.4909    8815.6857    507.85408   -204.79813   -251.13287   -5002.6236 
24564000    128.37338   -6644.2065   -6313.9738   -6644.2065            0    8847.4713    23.179957    21.122557     21.41773    10486.548    8647.7661    9179.8368     8714.811   -549.32031    189.83028    84.026926   -4960.8809 
24565000    129.98277   -6667.4773   -6333.1046   -6667.4773            0    8792.5146    23.164158    21.162436    21.411136    10495.953     9130.243     8883.884    8363.4167   -804.34906   -223.72748    532.41172   -4987.2105 
24566000    141.32111   -6658.5735   -6295.0335   -6658.5735            0    8864.5072     23.11009    21.211718    21.469532    10524.466    9763.3435    8328.3928    8501.7852   -1614.4696    321.13584   -1383.8256   -4934.4333 
24567000    128.55473   -6671.2327   -6340.5335   -6671.2327            0    7584.2255    23.133099    21.290941     21.42331    10551.525    7209.6574    7970.4101    7572.6092   -168.15388    989.48646   -24.218313   -5173.4487 
24568000    131.00742    -6663.162   -6326.1533    -6663.162            0    8873.2547    23.118484    21.205131    21.459861    10520.278    9383.2717    8639.6192    8596.8732   -606.75156    468.31253   -400.31537   -4964.7524 
24569000    125.80538   -6666.2566   -6342.6299   -6666.2566            0    7437.0497    23.138623    21.285049    21.436886     10557.81    8140.4695    6465.2205    7705.4591   -845.89296   -1506.6327   -972.43918   -5197.5114 
24570000    131.83706   -6657.0031   -6317.8603   -6657.0031            0    8692.5066    23.152751    21.230126    21.382549    10510.289    8366.7215    8176.0276    9534.7706     639.3638    844.69033    548.15349   -4985.4574 
24571000    132.03473   -6653.2977   -6313.6465   -6653.2977            0     8329.105    23.051853    21.172586    21.597709    10541.136    8539.2744    8184.8024    8263.2384    852.59513    384.20026    1648.8926   -5033.1993 
24572000    144.73047   -6659.1592   -6286.8489   -6659.1592            0    8967.8259    23.126563     21.27113    21.416752    10535.503    8581.2565    9387.6895    8934.5317    851.35582    -440.6908    239.88877   -4908.9469 
24573000     133.7148   -6678.5476   -6334.5744   -6678.5476            0    7051.9416    23.112205    21.290931    21.458761    10559.435    6642.1035    7180.4139    7333.3076    292.03637    26.492994    587.48538   -5248.5858 
24574000    139.88544   -6675.3382   -6315.4914   -6675.3382            0    8433.8949    23.100334     21.19446     21.49706    10524.942     7507.945    8101.6072    9692.1325    735.73918    6.3859174    1148.0312   -5020.9267 
24575000    138.57446    -6668.016   -6311.5416    -6668.016            0     8977.873    23.037288    21.324625    21.396564    10511.309    10105.304    7930.2282    8898.0872   -829.13171    -102.6833    199.55727   -4935.2637 
24576000    132.82689   -6662.6327   -6320.9436   -6662.6327            0    7516.1117    23.141805    21.331346    21.397239    10562.658    7908.1284    7174.6307     7465.576    604.25571   -90.012593   -146.78642   -5163.1202 
24577000    134.51689   -6675.9473   -6329.9108   -6675.9473            0    7185.5723    23.066089    21.276427    21.513381    10557.992    7154.3997    6277.3864    8124.9309    1007.0988    442.44292    640.01665   -5223.4945 
24578000     141.1243    -6661.124   -6298.0903    -6661.124            0    8329.0884    23.125632    21.292053    21.458796    10566.143     8298.808    8095.1601    8593.2972   -458.28133    -72.73332   -502.67588   -5014.6081 
24579000    131.13807   -6666.0085   -6328.6638   -6666.0085            0    8057.5664    23.255495    21.153445     21.45348    10553.693    7875.1863     8640.189    7657.3239  -0.71003135   -11.442548   -785.83326   -5088.4852 
24580000    142.63411   -6654.9707   -6288.0532   -6654.9707            0    9033.1883    23.184045    21.129042      21.4536    10509.189    9582.5993    7583.6562    9933.3094   -210.06191   -578.81897    830.78827   -4903.5749 
24581000    129.25854   -6657.8421   -6325.3324   -6657.8421            0    7730.5643    23.230779    21.214604    21.392205    10542.759    7161.2259    8160.5104    7869.9567    279.10266   -393.95165   -858.98964    -5136.717 
24582000    134.07706   -6663.3629   -6318.4579   -6663.3629            0    8509.3527    23.088168    21.176877    21.521046    10522.399    8083.8844    9270.6599    8173.5138   -383.27011    809.69302    261.42261   -5012.6262 
24583000     137.8796   -6667.5369   -6312.8501   -6667.5369            0    8702.3717    23.088953    21.233865    21.416784    10499.958    8984.8167    8109.4342    9012.8642   -350.36398    454.58877     325.7868   -4980.2462 
24584000    142.16082   -6647.4063   -6281.7063   -6647.4063            0    9397.3558    23.060023    21.318314    21.341135    10491.319    9644.7331    8919.2025    9628.1317   -82.327427   -95.442962   -564.04958   -4843.8626 
24585000    137.29078   -6672.7059   -6319.5337   -6672.7059            0    8934.0386    22.958955    21.405621    21.388846    10511.563    9425.3127    8491.3937    8885.4093    808.82679    26.737331   -1071.5696   -4949.9423 
24586000    134.53364   -6665.2848   -6319.2052   -6665.2848            0     8110.326    23.052435    21.339916    21.375393    10515.347    8604.8951    7577.1412    8148.9416    539.01824    397.32473     273.7484   -5075.4418 
24587000    138.53941   -6686.9203   -6330.5361   -6686.9203            0    7983.2657    23.099859    21.258658    21.420356    10518.937    8093.7423    7345.8616    8510.1933   -172.16217   -20.817045   -18.118121   -5105.8399 
24588000    139.17054   -6666.1856   -6308.1778   -6666.1856            0    8951.3286    23.141593    21.254686     21.34232    10497.589     8230.955    8394.1863    10228.844   -571.19715   -287.48242    7.3550182   -4937.7602 
24589000    132.98252    -6684.382   -6342.2926    -6684.382            0    8706.4456    23.225884    21.024869    21.511097    10504.324    7788.0372     9919.481    8411.8185   -471.35309   -62.351536    30.865844   -5008.5105 
24590000    136.65854   -6679.9538    -6328.408   -6679.9538            0    7514.7481    23.193542    21.243797    21.453173    10570.383    6913.7948    8054.7659    7575.6837   -265.40068   -684.27483   -392.03953    -5169.948 
24591000    134.67655   -6677.4126   -6330.9654   -6677.4126            0    8278.5655     23.13744    21.252347    21.417011    10531.278    9247.0131    7029.2593     8559.424   -97.125104    806.41531   -38.857014    -5059.478 
24592000    139.49965   -6668.3969   -6309.5426   -6668.3969            0    8749.0422    22.999878    21.269534    21.469329    10502.725    8372.9144    9537.5493    8336.6628    85.510699   -600.71492    577.40875    -4969.439 
24593000    129.50879    -6649.212   -6316.0586    -6649.212            0    8240.7193    23.180656    21.229271    21.411124    10536.594    8435.1228    8562.1838    7724.8514    -120.1875    427.26103   -775.51875    -5049.745 
24594000    135.12107   -6652.4448   -6304.8541   -6652.4448            0    8906.5501    22.990468    21.325649    21.460072    10521.587    9558.2418    8551.1559    8610.2526   -824.98048    200.16881    540.93226   -4938.1746 
24595000      133.259   -6681.2889   -6338.4882   -6681.2889            0     8010.408    23.162614    21.196438    21.454412    10533.363    7509.0791    9206.9457    7315.1991    1254.2717   -7.2663859   -255.65742    -5107.943 
24596000    140.70603   -6660.5273   -6298.5696   -6660.5273            0    8423.6168    23.089652    21.359193    21.327525     10518.23    8274.8978    8197.3864    8798.5661    179.37081    365.96371    108.10448    -5006.407 
24597000    132.57776   -6660.2319   -6319.1837   -6660.2319            0    7924.3821    23.183989    21.193488    21.440682     10534.87    7327.1177    8381.9759    8064.0525    258.08578    1087.5971    209.03268   -5101.6794 
24598000    130.09304   -6671.5386   -6336.8822   -6671.5386            0    8182.0565    23.121765    21.227162    21.473383    10539.339    9311.1049    7448.2509    7786.8136   -889.35151   -794.56481   -59.095046   -5079.2555 
24599000    132.40814   -6653.8985   -6313.2866   -6653.8985            0    8085.8531    23.259108    21.200506     21.34877    10527.182    7493.7415     6800.593    9963.2249   -239.12619    20.497153    335.09489   -5071.8805 
24600000    131.45622   -6668.5395   -6330.3764   -6668.5395            0    7915.9659    23.017692    21.246908    21.570639    10549.224    7678.7469    8663.8527    7405.2982   -197.65598    154.91525    627.39168   -5112.5081 
24601000    133.01888   -6674.6817   -6332.4988   -6674.6817            0    8597.5925    23.079523    21.251023    21.430298    10510.778    9584.7402     8020.126    8187.9113   -55.013295    -504.5266    -339.8667   -5014.5831 
24602000     134.9306   -6674.0968    -6326.996   -6674.0968            0    7347.2049    23.074024    21.275917    21.557034    10582.801    7651.2848    6794.8639    7595.4659    825.85644     238.9398    425.37772   -5193.0336 
24603000     140.6942   -6662.6532   -6300.7259   -6662.6532            0     8235.667    23.061304    21.286687    21.496551     10552.63    9061.8379    7906.5999    7738.5631    -719.8437    238.65938    219.10454   -5033.2627 
24604000     134.6936   -6654.0836   -6307.5925   -6654.0836            0     9238.823    23.130198     21.23179    21.354772    10487.233    9601.6496    10461.813    7653.0064    588.99307   -286.05532   -1472.0663   -4894.5558 
24605000    135.68743   -6660.5588   -6311.5111   -6660.5588            0    7870.8753    23.062771    21.228133    21.586116    10568.121    8102.9694    8501.2925     7008.364    116.57606    961.03138   -362.98818   -5098.4108 
24606000    132.93437   -6661.3234   -6319.3578   -6661.3234            0    9653.7698    23.109803    21.177589    21.414127    10480.286    9919.9458    9564.0649    9477.2987    1212.0815   -716.02244    426.94272   -4843.8349 
24607000    133.72962   -6665.6103    -6321.599   -6665.6103            0    7744.0003      23.1873    21.286527    21.351482    10538.602    7944.5983    6829.8258    8457.5769   -19.923989    192.28184    441.46923   -5131.3871 
24608000     137.2883   -6674.2328    -6321.067   -6674.2328            0    7697.7576    23.077028    21.299226    21.470496    10553.239    8256.2466    6415.5767    8421.4497   -192.35061   -49.070274    618.99972   -5136.3192 
24609000    130.04544   -6653.0361   -6318.5021   -6653.0361            0    9745.1956    22.982963    21.248503    21.460298    10480.212    9994.8988    10086.533    9154.1548     29.65294    658.78341   -297.23891   -4829.0158 
24610000    130.68347   -6658.9645   -6322.7892   -6658.9645            0    8820.1176    23.092649    21.353494    21.293208    10499.867    8681.4629    8944.3198    8834.5702   -707.33006    1027.8454   -1409.4447   -4972.1664 
24611000    139.08464   -6673.6039   -6315.8171   -6673.6039            0    8361.6332    23.080676    21.257831    21.490321    10544.121    8294.9237     8145.612    8644.3638    166.09498    7.8691753   -83.977057   -5030.0054 
24612000    133.85522    -6662.021   -6317.6866    -6662.021            0    7077.2382    23.204151    21.294097     21.38729    10567.705    6241.4123    6607.1892     8383.113   -193.84299    612.03842    946.92066   -5226.9488 
24613000    137.08838   -6660.0469   -6307.3954   -6660.0469            0    9033.5563    23.111436    21.117308    21.487921    10487.208    8651.1173     10377.51    8072.0413   -390.45618     728.2695   -353.09974   -4925.7565 
24614000    132.43966   -6648.3134   -6307.6204   -6648.3134            0    8903.1818    23.152891    21.160507    21.513953    10540.264    8054.0188    9002.3997    9653.1267    886.22594   -351.91669    16.280668   -4939.0327 
24615000    138.51692   -6668.7431   -6312.4167   -6668.7431            0     7641.965    23.245156     21.31765    21.294249    10551.984    6772.0765    6953.0152    9200.8034   -94.810681    908.97886    1105.5064   -5136.3958 
24616000    132.31679   -6681.9326   -6341.5558   -6681.9326            0    8169.4946    23.020717    21.171281    21.627236    10540.641    9029.1121    8124.7398     7354.632   -1075.4165   -233.98255   -446.64856   -5085.7049 
24617000    129.68201   -6686.5047   -6352.9056   -6686.5047            0    7964.4316    23.195071    21.224749    21.406512     10538.63     8792.017    7658.0744    7443.2035   -453.37762   -1096.7146    -404.8326   -5128.8114 
24618000    129.08488   -6660.4902   -6328.4273   -6660.4902            0    8741.0615    23.144182    21.239564     21.34824    10494.204    8829.3567    8571.7812    8822.0466      757.993   -766.81924   -356.61905   -4990.6323 
24619000    138.01749    -6685.311   -6330.2694    -6685.311            0    6637.9876    23.093001    21.251345    21.624789    10612.524    5854.1615    7357.5274    6702.2739   -848.18593    729.93792   -370.87802   -5302.8896 
24620000    137.79499    -6677.399   -6322.9298    -6677.399            0     7661.466    23.142992    21.295858    21.396955    10545.487    8105.8047    6771.8949    8106.6985    308.14946    -642.0206    600.86574   -5144.6338 
24621000    132.59548   -6660.1613   -6319.0675   -6660.1613            0    8660.9301    23.084283    21.248229    21.448539    10520.512    9182.1019    8372.1091    8428.5795    229.22972   -81.584118   -3.0467194   -4990.2134 
24622000    139.30677   -6648.5004   -6290.1422   -6648.5004            0    8581.5581    23.057065    21.197139    21.523641    10519.546    8985.4667    8902.4775    7856.7299   -692.42072    1311.9714    282.97648   -4973.5871 
24623000    135.47777   -6665.9828   -6317.4744   -6665.9828            0    9131.0629    23.153119    21.216478     21.34019    10482.891     8415.644    10086.093    8891.4517   -96.463544    370.09984   -410.97064   -4921.4973 
24624000    136.81386   -6664.4206   -6312.4753   -6664.4206            0    8949.4427    23.080256    21.235533    21.482556    10529.064    8902.5042    8823.8623    9121.9615   -59.115056   -406.57697    560.62074   -4938.2383 
24625000     138.2482    -6662.104   -6306.4689    -6662.104            0    7542.3442     23.14643    21.280939    21.455807    10568.654    6701.7906    8305.6333    7619.6087    38.287634    553.90498   -940.84667    -5143.945 
24626000    137.44903   -6670.2817   -6316.7025   -6670.2817            0    8852.9714    23.122524    21.292612     21.32875    10500.975    8239.2732    8871.8135    9447.8276   -6.1191508    733.80985   -185.64111   -4960.9058 
24627000    138.21664   -6681.1913   -6325.6374   -6681.1913            0    7460.5303    22.954251    21.247172    21.686538    10576.805    8066.0634    7003.1612    7312.3664    137.97639    435.81919    1609.1498   -5174.8368 
24628000    137.44808   -6672.9913   -6319.4145   -6672.9913            0     7671.739    23.176764    21.256149    21.435338    10560.093    7191.0574    7556.4627     8267.697    -266.4887    204.12683   -233.69376   -5137.9044 
24629000    138.70453   -6654.7193   -6297.9104   -6654.7193            0    7988.2776      23.2102    21.233155    21.456694    10574.412    6453.8873    8601.3801    8909.5654    -610.7358    445.68289    85.660034   -5065.9826 
24630000    130.70536   -6684.4882   -6348.2567   -6684.4882            0    6986.4906    23.364447    21.010312    21.545544    10576.586    5780.2576    8508.3706    6670.8437    258.67846    411.42893   -156.02949   -5270.5999 
24631000    131.36465   -6673.0113   -6335.0838   -6673.0113            0    8185.4519    23.160519    21.221155    21.413993    10524.827    8209.1187    8691.7975    7655.4394    315.83632   -1252.3541   -179.74378   -5078.6677 
24632000    139.34542   -6656.3902   -6297.9327   -6656.3902            0    8398.8572    23.156695     21.14984    21.485945    10522.965    8901.8935    8713.6445    7581.0336     366.5476   -331.24294   -764.89854   -5008.9882 
24633000    140.31982   -6668.3873   -6307.4232   -6668.3873            0    9071.3997     23.06746    21.270313    21.423571     10511.52    8735.8072    9754.9179    8723.4741   -652.38081    547.87648   -109.94366   -4916.7799 
24634000    126.50833   -6661.1856   -6335.7506   -6661.1856            0     8187.852    23.069497    21.306398    21.409933    10523.579    8408.3929    8487.0203    7668.1427    611.75219   -89.526277   -164.79399   -5079.1151 
24635000    127.86739   -6665.5297   -6336.5987   -6665.5297            0    8607.7738    22.957355    21.387253    21.450576    10532.121    8705.1614    8435.3606    8682.7995    74.409618    41.092045   -243.63545   -5014.4431 
24636000    135.04724   -6654.7955   -6307.3947   -6654.7955            0    6779.5149     23.20906    21.357161    21.373045    10594.183    5943.9968    5630.7387    8763.8092   -613.46484    450.33358    545.37748   -5259.9237 
24637000    132.61861   -6660.5549   -6319.4016   -6660.5549            0    8934.3582    23.045801    21.171757    21.571128    10524.987    9573.1064     8923.109    8306.8591    547.60111    679.34598    232.17757   -4948.0122 
24638000    138.75967   -6684.2822   -6327.3314   -6684.2822            0    8779.0573    23.211579    21.202321    21.320227    10492.523    7773.8945      9677.86    8885.4174    277.99373    483.69727   -392.72059   -4983.9365 
24639000    132.38505   -6662.8247   -6322.2723   -6662.8247            0    9359.5699    23.173923    21.088109    21.482628    10498.436     8370.238    10841.526    8866.9452     453.0074   -232.16288   -127.59455   -4889.2387 
24640000     135.8452   -6676.5467   -6327.0932   -6676.5467            0    6850.7832     23.18786    21.174826    21.562064     10586.95    6633.5766    7267.0598    6651.7133   -185.09451    -180.1288    446.57659   -5269.3337 
24641000    134.19803   -6673.2173    -6328.001   -6673.2173            0     8176.592    23.166885    21.243102    21.421464    10542.285    8790.6767    7639.4663     8099.633   -9.3687322   -710.82228    300.07584    -5070.863 
24642000    139.01911   -6670.4305   -6312.8124   -6670.4305            0    8927.3908    22.945411    21.265022    21.504671    10492.875    9989.9806    9021.1383    7771.0536    904.30941   -991.03347    212.64915   -4946.6733 
24643000    129.40358   -6654.0524   -6321.1696   -6654.0524            0    7017.9225    23.123505    21.318744    21.462318    10580.152    7099.8007    7111.3249    6842.6418   -131.44297    412.31752   -170.21812   -5238.2995 
24644000     132.2684   -6663.7056   -6323.4532   -6663.7056            0    8579.8164    23.101789    21.277205    21.424082    10530.826    9867.8163      7205.22    8666.4129    56.639973   -1303.4704    318.72694    -5005.754 
24645000    138.56948   -6652.7299   -6296.2683   -6652.7299            0    8981.3938    23.060295    21.197515    21.516975    10517.948    9450.7578    9143.6921    8349.7315   -677.51112    634.12755    584.46263   -4918.5811 
24646000    134.34424   -6678.0562   -6332.4638   -6678.0562            0    6414.0369    23.229896    21.319522     21.38729    10592.061    5596.0517    6964.8498    6681.2093   -542.64549      1125.05   -619.85286   -5341.6596 
24647000    132.03051    -6678.473   -6338.8325    -6678.473            0    7012.2321    23.143708    21.249536    21.537278    10591.884    7549.6204    6896.7408     6590.335   -121.06288    485.78749   -352.73909   -5255.6407 
24648000    134.55606   -6675.7368   -6329.5996   -6675.7368            0     7915.715    23.173998    21.239373    21.350486    10508.735    7353.3626    7810.5031    8583.2792    52.993001   -355.79298    387.62338   -5116.4441 
24649000    139.07745   -6659.1423   -6301.3741   -6659.1423            0    8459.9983    23.129912    21.155557    21.505976    10523.437    8682.3057    8870.5602    7827.1291   -704.07755    227.42525   -129.05555   -5002.9882 
24650000    136.64539   -6680.2979    -6328.786   -6680.2979            0    7326.9973    23.205151     21.28227    21.417797    10577.357    7104.1074     7155.767    7721.1175    -353.2069   -173.33446    778.78051   -5198.5241 
24651000    135.58321   -6652.2278   -6303.4482   -6652.2278            0    7728.2606    23.171724    21.206139    21.514846    10572.025    8219.6978    8045.7474    6919.3366    1344.1688    -1271.408   -968.41887   -5111.8884 
24652000    138.16444   -6686.6121   -6331.1925   -6686.6121            0    9016.3267    23.030969    21.251404    21.432412    10489.889    9543.4427    9241.2992    8264.2383   -923.99288   -474.33023   -345.95277   -4951.8364 
24653000    139.94425   -6661.1442   -6301.1461   -6661.1442            0    7763.4608    23.139822     21.20676    21.530988      10565.7    7990.1885    8460.0482    6840.1456    82.365434   -161.72491   -205.22621   -5104.8752 
24654000    129.63753   -6653.0442   -6319.5595   -6653.0442            0    8142.0762     23.12032    21.236974    21.460794    10537.371    8229.1169    9009.2253    7187.8862    440.29829    -383.6915    234.99387   -5068.3118 
24655000    131.28792   -6665.6494   -6327.9192   -6665.6494            0    8836.3808    23.311778    21.007905    21.480939    10519.895    7253.1398    10455.967    8800.0353    1561.4218   -237.56307   -173.70054   -4972.2251 
24656000    127.61619   -6676.8969    -6348.612   -6676.8969            0    7449.6497     23.12388    21.241508    21.486435    10553.838    8105.7188     7091.631    7151.5993    345.59024    -495.6261    317.33804   -5201.9851 
24657000    131.36576    -6667.568   -6329.6376    -6667.568            0    8405.8099    23.192022    21.174247    21.420084    10518.838    8328.0647    8105.0167    8784.3481    267.59018     744.6182   -16.513218   -5040.1321 
24658000    134.99723   -6679.8707   -6332.5986   -6679.8707            0     7567.584    23.006459    21.342072    21.488167    10550.808    8010.2189    8317.2747    6375.2584   -921.31744    264.45817   -352.05279   -5168.1539 
24659000    135.07224   -6666.8297   -6319.3646   -6666.8297            0    7825.5542    23.112414    21.282813    21.470609    10561.332    8201.0313     7366.503    7909.1284   -471.54012   -51.175625   -769.38657   -5114.0243 
24660000    135.36346   -6667.6124   -6319.3981   -6667.6124            0    8749.3419    23.067852     21.33693    21.334339    10500.701    8991.1385    8205.8955    9050.9918    907.94085    242.23005    650.65843   -4979.5069 
24661000    131.29347     -6681.32   -6343.5756     -6681.32            0    6772.3584    23.046368    21.304711    21.557337    10584.571    8780.2548    5722.3961    5814.4243    593.83444   -953.31013    128.07614   -5298.1597 
24662000    138.04185   -6673.2921   -6318.1878   -6673.2921            0       7966.5    23.155477    21.215096    21.451113    10537.767    7755.3652    7973.2004    8170.9346    183.06473   -397.30139   -510.50247    -5093.876 
24663000    137.37082   -6670.6505   -6317.2724   -6670.6505            0    8193.9512    23.317607     21.13267    21.367163    10528.953    7277.2412     8307.156    8997.4564   -977.38683   -136.76981   -56.065622   -5059.0586 
24664000    132.86106   -6673.2174   -6331.4405   -6673.2174            0    8576.8655    23.307338    21.070652    21.442986    10530.668    8282.2161    9492.0822    7956.2982   -593.28567   -524.44434   -474.84596   -5014.2141 
24665000    134.91768   -6664.9074   -6317.8399   -6664.9074            0    8522.3405    23.181885    21.188355    21.434039      10528.1    9439.6439    8209.3156     7918.062    234.69956   -1345.5856    531.61139   -5009.3066 
24666000    142.74025   -6666.3354   -6299.1448   -6666.3354            0    8443.7302    23.147051    21.206851    21.448069    10528.344     7369.559    8423.7138    9537.9178    306.09597    1302.5227    113.89857   -5002.6515 
24667000    136.59133   -6672.3384   -6320.9655   -6672.3384            0    8320.2474    22.984892    21.422362    21.371858    10523.304    8649.0095    7140.8032    9170.9296    603.31288   -699.47255    464.51121   -5044.0439 
24668000    137.79227   -6658.1672   -6303.7049   -6658.1672            0    8274.6019    22.976451    21.313853    21.532025    10544.592    9237.6482    8084.6041    7501.5534     483.0361    413.81189   -201.61151   -5031.2196 
24669000    141.08271   -6648.3667     -6285.44   -6648.3667            0    8966.0339    22.918909     21.42694    21.429232    10523.512    9736.2512    8043.3903    9118.4604   -336.13386   -437.38015    457.06546   -4909.3812 
24670000    138.54915   -6682.7396   -6326.3303   -6682.7396            0    7780.3683    23.155669    21.265899    21.443803    10559.489    8151.7846    7824.2928    7365.0276    420.11907    243.37885   -554.58861    -5128.159 
24671000    135.72935   -6669.2388   -6320.0833   -6669.2388            0    8488.2709    23.064398    21.293586    21.431093    10525.319    8677.3918    7714.7572    9072.6637   -477.64761    -13.05369    787.93412   -5017.1254 
24672000    139.20474   -6681.6036   -6323.5079   -6681.6036            0    7024.7459    23.175385    21.258466    21.471694    10578.526    6670.6497    7063.5099     7340.078    562.02639    43.625051   -499.17466   -5239.7515 
24673000    133.70119    -6674.566   -6330.6279    -6674.566            0    7641.9508    23.111135    21.293455    21.481475    10571.376    8170.8908     7360.729    7394.2326    256.65889   -334.98987    579.60972   -5152.4479 
24674000    137.25758   -6682.5993   -6329.5125   -6682.5993            0    8570.8448    23.179249     21.20393    21.398707    10517.276    9567.2242    7721.8784    8423.4319   -869.52299    297.06287   -186.75821   -5014.8848 
24675000    136.00004   -6670.7257   -6320.8739   -6670.7257            0    6828.1888    23.238896     21.24637    21.449223    10590.386    5952.8168    7109.7822    7421.9676      -863.48    647.34848   -885.98231   -5266.2607 
24676000    128.08163   -6663.9481    -6334.466   -6663.9481            0    8495.2976    23.098268    21.135309    21.628003    10558.554    9268.0238    9052.6764    7165.1925   -788.11081   -498.38066    121.21236   -5026.3118 
24677000    134.03818   -6641.8014   -6296.9963   -6641.8014            0    7686.1487    23.163179    21.254905    21.424681    10548.038    7443.3684    7899.2861    7715.7917    120.96859    101.06211   -684.02674   -5114.6182 
24678000     138.4615   -6663.5092   -6307.3255   -6663.5092            0    8809.6131    23.060275    21.286838    21.405221    10507.402    9359.2524    8489.8249    8579.7621   -1153.1325    -106.7133   -988.20817   -4957.3431 
24679000    131.49338   -6656.1421   -6317.8834   -6656.1421            0    7828.1518    23.010655    21.371184    21.430986    10539.008    8385.7811    6768.5275    8330.1467    570.28797   -107.79964    206.77078   -5114.6916 
24680000    136.94582   -6664.6395   -6312.3547   -6664.6395            0    8071.4396    23.075228    21.307881    21.408518     10526.23     7500.647    7422.3869     9291.285    374.59009    568.13043    985.32938   -5073.2735 
24681000    132.42254   -6663.4468   -6322.7979   -6663.4468            0    8300.5065    23.085025    21.225824    21.520769    10545.148    8200.6971     8570.783    8130.0394   -173.29802    750.03885   -535.10978   -5046.2616 
24682000    135.72958   -6657.4032   -6308.2472   -6657.4032            0    7971.1568    23.159237    21.254191     21.41677    10541.995    8419.3269     7728.964    7765.1796    200.81408    -256.1088    423.06551   -5082.7282 
24683000    132.65847   -6666.3533   -6325.0975   -6666.3533            0    9585.4882    23.203281    21.117391    21.395946    10483.859    9805.9539    8549.3928    10401.118    240.30594    57.996489    327.82112   -4859.5116 
24684000    133.09559   -6666.2886   -6323.9083   -6666.2886            0    7848.8774     23.11087    21.216935    21.481191    10533.126    8429.3854    7859.7229    7257.5238   -1014.4439    527.47423   -363.86682   -5118.2043 
24685000    135.76863   -6655.4457   -6306.1891   -6655.4457            0    8295.9164    23.194378    21.215555    21.422927    10541.828    8680.1752     7734.766    8472.8081    100.38758    25.727345   -208.16121   -5030.7605 
24686000    140.14147   -6666.3093   -6305.8039   -6666.3093            0    8284.9648    23.091729    21.265755    21.455751    10536.127    8050.9421    7782.6243    9021.3279    692.62846    789.97881    1770.2924   -5032.7478 
24687000    135.32626   -6684.1277   -6336.0091   -6684.1277            0    8283.5857    23.123755    21.245113    21.437206    10531.387    8081.3404     7401.174    9368.2427    907.39754    969.54565    552.85599   -5063.7375 
24688000    132.08939   -6641.1143   -6301.3224   -6641.1143            0    9005.6343    23.065642    21.315587    21.394392    10518.717    9152.2509    8199.2539     9665.398    423.15457   -317.34128    137.48768   -4919.8158 
24689000    127.44992   -6667.6611   -6339.8039   -6667.6611            0    8638.2328    23.062035    21.240745     21.47113    10517.736    8713.7353    8292.8655    8908.0976   -713.47229    378.72648    -304.6192    -5014.782 
24690000    135.52365   -6643.6364   -6295.0101   -6643.6364            0    7431.2469    23.207382    21.286874    21.419722    10581.613    6702.6071    6636.4187    8954.7148   -60.012028    1040.4013    976.95492   -5148.2054 
24691000    137.14041   -6657.5741   -6304.7888   -6657.5741            0    8508.1685    23.127993    21.237822      21.4825    10551.951    8797.9047    8214.6347    8511.9662   -706.00013    437.03722   -246.81468    -4995.472 
24692000    137.62974   -6666.0584   -6312.0143   -6666.0584            0    7577.2651    23.142434    21.261279    21.444312    10551.411    7134.9053    8100.3577    7496.5322    154.86463   -1089.8121   -322.57063   -5146.0133 
24693000    130.30471   -6658.6704   -6323.4695   -6658.6704            0    8221.3828    23.119711    21.266803    21.402855    10523.406    7945.2442    9825.3312    6893.5731   -496.72544    522.17242    209.62632   -5061.7085 
24694000    136.32187   -6666.5895   -6315.9098   -6666.5895            0    7757.3113    23.200101    21.214674    21.458958    10561.725    5856.7228    9251.2013    8164.0099    383.98466    136.17229    -862.5031   -5121.0362 
24695000    138.50139   -6669.7692   -6313.4829   -6669.7692            0    6914.9934    23.138664    21.291065    21.505494    10594.613     7384.071    6485.1881     6875.721    70.042251   -935.03012   -72.649466   -5245.0364 
24696000    135.61692   -6673.1754   -6324.3092   -6673.1754            0    8010.3329    23.155828    21.259736    21.376373    10523.306    6975.7299    8211.0618    8844.2069    483.04195    319.67115   -21.024905   -5094.9504 
24697000     131.8159   -6653.2958   -6314.2074   -6653.2958            0    8507.5121    23.078523    21.174276    21.549204    10530.472    8595.1635    9081.2818    7846.0909    802.35212    40.717133   -29.253159   -5007.6566 
24698000    136.16226   -6656.4574   -6306.1883   -6656.4574            0    8920.4098    23.218517     21.24726    21.309616     10512.67    7957.5443    9603.4168    9200.2683    101.41198    562.99868   -614.08095   -4938.5422 
24699000    131.01291   -6642.7345   -6305.7118   -6642.7345            0    8516.6875    23.184375    21.257546    21.357001    10525.647    8618.4237    8419.9236    8511.7151      262.782    156.77268    153.66525   -4998.3512 
24700000    129.51623   -6660.9217   -6327.7491   -6660.9217            0    7997.6813    23.029192    21.246964    21.544651    10541.807    9307.8404    6781.7549    7903.4486   -594.78523    36.967278    -449.2465   -5098.1741 
24701000     135.3153   -6664.6185   -6316.5282   -6664.6185            0    7714.6641    23.158247     21.33515    21.352208    10549.799    7045.0645    7469.4537     8629.474    -237.3348    156.90969     95.84793   -5129.5654 
24702000    131.16587   -6652.1847   -6314.7685   -6652.1847            0    8208.9411    23.085608    21.278673    21.427731    10525.968     7879.111    8696.4281    8051.2841    388.61713    604.73403   -511.29545   -5054.6103 
24703000    128.41538   -6678.3585   -6348.0178   -6678.3585            0    7981.1786    23.092522    21.264626    21.500476    10557.892    7321.8398    8682.0898    7939.6061   -802.96436    1513.9117   -272.64598   -5119.1077 
24704000    135.74406   -6676.7134   -6327.5201   -6676.7134            0    7154.6769    23.181388    21.342726    21.364764    10570.303    6464.6366    7880.2505    7119.1437    526.89572   -171.06375    285.00706   -5224.5764 
24705000    134.47392   -6669.0685   -6323.1425   -6669.0685            0    9291.0075    23.097803    21.096362     21.51717    10484.878    9995.2433    9491.1391    8386.6401   -314.34043   -561.85565     153.0113   -4902.4435 
24706000    128.21124   -6670.8341   -6341.0185   -6670.8341            0    7870.2277    23.203208    21.248894    21.381968    10542.219    7031.4032    7956.4006    8622.8793   -304.17908      181.899   -969.61384    -5130.991 
24707000    129.34882   -6674.1656   -6341.4236   -6674.1656            0     7104.348    23.205794     21.21794    21.507871    10590.027    6240.7014    7290.1822    7782.1605   -397.75639    593.18863   -51.273115   -5244.1948 
24708000    136.14279   -6661.6568   -6311.4378   -6661.6568            0     9020.091    23.126365     21.11705    21.523678    10511.316    9351.2179    9067.9341    8641.1209   -17.358082    311.00825    226.35162    -4928.687 
24709000    133.61275   -6652.0106      -6308.3   -6652.0106            0     8076.716    23.201863     21.26664    21.352553    10535.898    7228.6995     7990.558    9010.8905   -10.247501    922.37017   -305.07334     -5067.27 
24710000    133.97819   -6666.7763   -6322.1256   -6666.7763            0    8104.5526    23.093656    21.212414    21.509459    10536.886    8720.9274    7818.0698    7774.6607    562.34769    160.26949   -396.43691   -5076.7016 
24711000    137.64103   -6663.6492    -6309.576   -6663.6492            0    7820.4256    23.001816    21.347272    21.473779    10544.185    8906.4318    7047.5131     7507.332    433.82758   -247.99272    78.188091   -5106.9814 
24712000    132.33099   -6674.2059   -6333.7925   -6674.2059            0    7276.3871    23.098287    21.333441    21.446428     10568.07     7407.514    6968.1433    7453.5039    889.72137    34.955172   -54.689488   -5212.3233 
24713000    134.68744   -6675.0993    -6328.624   -6675.0993            0    6840.4505    23.037603    21.374559    21.518926     10596.32    6687.3018      7238.34    6595.7096   -46.757993   -530.43644   -335.78004   -5271.5251 
24714000    138.34702   -6673.3555   -6317.4662   -6673.3555            0    8228.3775    23.164249    21.178752    21.477437    10536.614    7632.2985    9137.6558    7915.1782    -185.7584    336.75123    16.993612   -5053.0468 
24715000    129.95285   -6674.5489   -6340.2531   -6674.5489            0    7850.3782    23.170348    21.217361    21.480138    10559.929    7850.3981    8143.4658    7557.2707   -1318.3838   -322.71339    -259.2647   -5131.2499 
24716000     131.8688   -6659.5586   -6320.3341   -6659.5586            0    7826.3422    23.244806    21.164269     21.42167    10538.591    7390.9345    8017.5858    8070.5064    20.004837   -610.54737   -301.62178   -5117.4681 
24717000    135.36978    -6668.795   -6320.5645    -6668.795            0    9228.5767    23.171918    21.121263    21.478393    10511.959    8818.0749    10096.839    8770.8158   -1129.5243    136.67931   -505.01844   -4905.7671 
24718000    138.27155   -6662.9824   -6307.2873   -6662.9824            0    7777.7259    23.137876    21.238547     21.46033    10545.925    6905.5426    9019.6166    7408.0185    88.864314    1069.2205   -501.07566   -5111.0613 
24719000    134.40811   -6672.6299   -6326.8732   -6672.6299            0    7366.7181    23.079594    21.396075    21.394454    10564.854    7551.5225    6778.5295    7770.1023    155.72253    579.59757    864.39406   -5191.8273 
24720000    133.18446   -6678.7559    -6336.147   -6678.7559            0    8330.8563    23.004678    21.360069    21.405394    10518.214    8366.9591     7407.152    9218.4578    1084.7218    1175.8935   -15.816253   -5058.2156 
24721000    132.33367   -6658.8193    -6318.399   -6658.8193            0    9250.7992    22.962269    21.354164    21.379652    10483.299    9301.3134    8354.1202    10096.964   -5.6671876     33.01816   -1.2664872   -4904.0613 
24722000    133.81605   -6676.0873   -6331.8536   -6676.0873            0    7615.0785    23.099056     21.21752    21.522612    10548.333    7400.2112    8369.6794    7075.3451    941.80958    186.52963    17.095857   -5160.3757 
24723000    136.77296   -6683.5399   -6331.6998   -6683.5399            0    7561.1133    23.301644    21.222426    21.329239     10547.68     6547.918    8596.9981    7538.4237    510.95859   -123.19253    81.767752   -5168.5957 
24724000    137.72238   -6659.2749   -6304.9924   -6659.2749            0    7355.9181     23.21184    21.078347    21.599312    10567.835    7526.9409    8991.9707    5548.8426   -10.104613    555.61773     118.9826   -5171.2907 
24725000    138.22067   -6682.1975   -6326.6333   -6682.1975            0    7893.4867    23.158429    21.178901    21.478229    10534.429    7589.6546    8183.5426    7907.2628   -252.05967   -545.47709   -1165.3813   -5113.9266 
24726000    136.44053    -6671.552    -6320.567    -6671.552            0    8312.7777    23.197183    21.234911    21.367301    10525.321    7689.0161    8162.8492    9086.4677     1238.944   -420.82721    338.27031   -5044.5472 
24727000    139.88811   -6649.1988   -6289.3451   -6649.1988            0    7652.5449    23.171556    21.237012    21.453462    10557.133     7641.097     8061.274    7255.2637    82.534124    1069.9749    -133.1466   -5111.1214 
24728000    137.69373   -6649.5248   -6295.3161   -6649.5248            0    8289.8328    23.040868    21.282934    21.485726    10536.112     8573.254    8812.6922    7483.5523   -1090.5991    886.69313   -1015.7226   -5021.5138 
24729000     133.6659   -6652.2076   -6308.3602   -6652.2076            0    8437.8732    23.047012    21.385846    21.327415    10511.853    8571.4634    8108.9024    8633.2536    93.246267     480.2907    121.68812   -5014.7955 
24730000    139.36771   -6660.8497   -6302.3347   -6660.8497            0    8515.2551    23.005939    21.306862    21.524585    10551.015    9324.8703    7011.2838    9209.6111    688.35752    131.30112    948.15741   -4992.0436 
24731000    140.69396   -6669.3435   -6307.4169   -6669.3435            0    7583.2441    23.169926    21.253114    21.449181    10562.286    7406.5205    8229.3404    7113.8714   -373.40286      14.6829     -666.335   -5139.2931 
24732000    135.91862   -6665.1128   -6315.4704   -6665.1128            0    7677.5389    23.234248    21.169041    21.484164    10566.916    7311.1965    7619.1932    8102.2271     477.6332    156.54958    518.81308    -5132.303 
24733000    135.35448   -6676.0079   -6327.8167   -6676.0079            0    7773.6419    23.184418    21.137626    21.503678    10538.169      8083.51    7134.5458      8102.87    452.76259   -970.52046    667.34262   -5133.0983 
24734000    138.04135   -6669.4384   -6314.3355   -6669.4384            0    8343.4629    23.262011    21.173375    21.361939    10521.509    8125.1682    7665.8855    9239.3349   -470.62111    88.177575   -486.71337   -5034.0693 
24735000    137.37527   -6676.3712   -6322.9817   -6676.3712            0    8150.4602    23.160016    21.146654    21.513976    10536.617    8051.3928    8221.5759     8178.412    196.72966     386.4285   -79.954615    -5070.535 
24736000    137.32811   -6676.8814   -6323.6132   -6676.8814            0    7613.7333     23.16772    21.241067    21.414904    10538.426    7325.6661    8130.1105    7385.4232    135.94571    564.28848   -423.48073   -5153.4423 
24737000     132.5835   -6670.0713   -6329.0083   -6670.0713            0    9374.3925     23.04971    21.217659    21.477851    10503.977    10130.531    8869.8356    9122.8113    -949.2094   -143.09923   -252.91011   -4892.9476 
24738000    130.63859   -6643.2523   -6307.1925   -6643.2523            0    7560.2381    23.156626    21.334715    21.395145    10570.057    7248.8994    7233.5076    8198.3072    112.47614   -12.523977   -547.57908   -5141.7557 
24739000     127.2093   -6648.8209   -6321.5827   -6648.8209            0     8291.925    23.056159    21.332356    21.459575    10554.725    8663.9192    7011.2922    9200.5635    338.41699   -129.80577    832.69366   -5045.2081 
24740000    139.80309   -6669.2234   -6309.5885   -6669.2234            0    7658.8138    22.934407     21.36646    21.518544    10544.669    8977.8424    7002.6655    6995.9336   -1285.0852    790.54045   -684.35251   -5131.7917 
24741000    134.37081   -6668.5587    -6322.898   -6668.5587            0    8206.3361      23.0693    21.282138    21.422983    10517.914    8531.6777     7854.003    8233.3275    279.31729    163.22332     138.0106   -5064.1036 
24742000    138.27233   -6677.3444   -6321.6473   -6677.3444            0    9007.3091    23.141827    21.158302    21.445692    10500.707    10150.245    9228.9227    7642.7599    910.03513   -333.62314   -689.34425   -4942.2497 
24743000    133.76282   -6651.2903   -6307.1936   -6651.2903            0     8376.002    23.126389    21.243278    21.447831    10536.897    8146.9668    8546.3015    8434.7378   -836.33788    219.76071     194.9219   -5020.0548 
24744000    134.49039    -6664.931   -6318.9626    -6664.931            0     7842.698    23.216178    21.064106     21.55702    10541.987    7950.2674    7320.5465      8257.28   -1160.1783    1265.9785    568.31317   -5113.1943 
24745000     141.0148   -6658.2861   -6295.5341   -6658.2861            0    8089.1331    23.160409    21.286735    21.413315    10556.967    7492.2603    8363.0016    8412.1376     185.2236    268.50787    401.04216   -5050.1106 
24746000    134.70641   -6675.4632   -6328.9392   -6675.4632            0    8703.1925    23.192465    21.229644    21.400767    10537.048    8218.3533    8465.5041      9425.72    -696.1017    722.83136    160.27422   -4991.5018 
24747000    137.51897   -6678.0346   -6324.2754   -6678.0346            0    6798.3574    23.158741    21.216126    21.571045     10598.69    6506.8182    6983.1017    6905.1522    -559.9674   -242.56145    721.86427   -5273.4463 
24748000    140.65734   -6671.6415   -6309.8091   -6671.6415            0    8916.1048    23.253636    21.135639    21.391504    10513.506    8798.0883    9373.4996    8576.7265   -672.93107   -178.36197    -1145.773   -4942.7143 
24749000    132.79226   -6663.6734   -6322.0734   -6663.6734            0    8546.4918    23.153012    21.168024     21.44678    10511.143     8814.214    8626.3232    8198.9382   -1111.8302   -1136.8912    729.27045   -5011.9455 
24750000    144.73407   -6658.7431   -6286.4235   -6658.7431            0    8564.9557    23.137194    21.228314    21.436239    10528.701    7293.9459    9977.0537    8423.8675   -476.92798    428.29299   -822.65829   -4971.2719 
Loop time of 534.818 on 64 procs for 250000 steps with 1296 atoms

Performance: 80.775 ns/day, 0.297 hours/ns, 467.449 timesteps/s
99.1% CPU use with 64 MPI tasks x 1 OpenMP threads

MPI task timing breakdown:
Section |  min time  |  avg time  |  max time  |%varavg| %total
---------------------------------------------------------------
Pair    | 30.42      | 41.753     | 53.668     | 109.3 |  7.81
Bond    | 0.28232    | 0.28964    | 0.29898    |   0.8 |  0.05
Kspace  | 269.11     | 281.35     | 292.88     |  42.5 | 52.61
Neigh   | 1.9179     | 1.9407     | 1.9693     |   0.8 |  0.36
Comm    | 90.279     | 92.92      | 96.287     |  18.3 | 17.37
Output  | 0.56702    | 0.56848    | 0.57004    |   0.1 |  0.11
Modify  | 102.31     | 105.21     | 108.82     |  16.2 | 19.67
Other   |            | 10.79      |            |       |  2.02

Nlocal:        20.2500 ave          29 max          14 min
Histogram: 8 6 10 5 10 3 14 3 3 2
Nghost:        2653.05 ave        2671 max        2628 min
Histogram: 2 2 3 8 11 5 12 7 8 6
Neighs:        6637.70 ave        9490 max        4575 min
Histogram: 8 8 8 6 9 6 11 3 3 2

Total # of neighbors = 424813
Ave neighs/atom = 327.78781
Ave special neighs/atom = 2.0000000
Neighbor list builds = 3517
Dangerous builds = 0

unfix		3
unfix		2
unfix		1

write_data	data.final.${pid}
write_data	data.final.0
System init for write_data ...
PPPM initialization ...
  extracting TIP4P info from pair style
  using 12-bit tables for long-range coulomb (../kspace.cpp:340)
  G vector (1/distance) = 0.36789985
  grid = 30 40 32
  stencil order = 5
  estimated absolute RMS force accuracy = 0.0044486093
  estimated relative force accuracy = 1.3396855e-05
  using double precision FFTW3
  3d grid and FFT values/proc = 5168 640
Last active /omp style is kspace_style pppm/tip4p/omp
WARNING: Not all mixed pair coeffs generated from mixing. Use write_data with 'pair ij' option to store all pair coeffs. (../write_data.cpp:312)

write_restart   restart.lmp.${pid}
write_restart   restart.lmp.0
System init for write_restart ...
PPPM initialization ...
  extracting TIP4P info from pair style
  using 12-bit tables for long-range coulomb (../kspace.cpp:340)
  G vector (1/distance) = 0.36789985
  grid = 30 40 32
  stencil order = 5
  estimated absolute RMS force accuracy = 0.0044486093
  estimated relative force accuracy = 1.3396855e-05
  using double precision FFTW3
  3d grid and FFT values/proc = 5168 640
Last active /omp style is kspace_style pppm/tip4p/omp
Total wall time: 0:08:54
