LAMMPS (30 Jul 2021)
Processor partition = 1
  using 2 OpenMP thread(s) per MPI task
using multi-threaded neighbor list subroutines
variable        pid world 0 1
variable        phase world IceII IceVI

shell cd ${phase}
shell cd IceVI
include Restart.lmp
echo both
log log.lammps
#include		in.partitions
include		in.temp
variable        temperature equal 82.99
variable	tempDamp equal 100.0
include		in.pressure
variable        pressure equal 8173.4
variable        pressureDamp equal 1000.0 # This is 1 ps
include		in.seed
variable        seed equal 745823

units		real
atom_style	full
read_restart	restart.lmp.${pid}
read_restart	restart.lmp.1
Reading restart file ...
  restart file = 30 Jul 2021, LAMMPS = 30 Jul 2021
  restoring atom style full from restart
  orthogonal box = (0.037456680 0.013942044 0.033900789) to (24.692544 24.716059 22.776099)
  4 by 4 by 2 MPI processor grid
  restoring pair style lj/cut/tip4p/long/omp from restart
  restoring bond style harmonic/omp from restart
  restoring angle style harmonic/omp from restart
  1920 atoms
  1280 bonds
  640 angles
Finding 1-2 1-3 1-4 neighbors ...
  special bond factors lj:    0        0        0       
  special bond factors coul:  0        0        0       
     2 = max # of 1-2 neighbors
     1 = max # of 1-3 neighbors
     1 = max # of 1-4 neighbors
     2 = max # of special neighbors
  special bonds CPU = 0.002 seconds
  read_restart CPU = 0.009 seconds
include 	in.setup
variable	out_freq equal 1000
variable	out_freq2 equal 10000
variable	out_freq3 equal 1000

timestep	2.0

neigh_modify    delay 7 every 1

include		in.tip4p
# This is TIP4P/Ice

# create groups ###
group ox type 2
640 atoms in group ox
group hy type 1
1280 atoms in group hy

# set charges - beside manually ###
set group ox charge -1.1794
Setting atom values ...
  640 settings made for charge
set group hy charge 0.5897
Setting atom values ...
  1280 settings made for charge

# ### TIP3P Potential Parameters ###
pair_style lj/cut/tip4p/long/omp 2 1 1 1 0.1577 8.5
pair_coeff 1 1*2 0.000 0.000
pair_coeff 2 2 0.21084 3.1668
bond_style  harmonic
bond_coeff  1 450 0.9572
angle_style harmonic
angle_coeff 1 55 104.52
kspace_style pppm/tip4p/omp 1.0e-5
pair_modify tail yes

thermo          ${out_freq}
thermo          1000
thermo_style    custom step temp pe etotal epair emol press lx ly lz vol pxx pyy pzz pxy pxz pyz enthalpy

restart 	${out_freq3} restart.lmp.${pid} restart2.lmp.${pid}
restart 	1000 restart.lmp.${pid} restart2.lmp.${pid}
restart 	1000 restart.lmp.1 restart2.lmp.${pid}
restart 	1000 restart.lmp.1 restart2.lmp.1


include         in.dump
dump            myDump all atom ${out_freq2} dump.water.${pid}
dump            myDump all atom 10000 dump.water.${pid}
dump            myDump all atom 10000 dump.water.1
dump            myDump2 all dcd ${out_freq2} dump.dcd
dump            myDump2 all dcd 10000 dump.dcd
dump_modify     myDump append yes
dump_modify     myDump2 append yes


variable natoms 	equal  "count(all)"                        # NUMBER ATOMS
variable H      	equal  "enthalpy/v_natoms"                 # ENTHALPY-per-atom
variable Vol      	equal  "vol/v_natoms"                 # volume-per-atom
fix AVG all 		ave/time ${out_freq} 1 ${out_freq} v_Vol v_H file vol_enthalpy.dat
fix AVG all 		ave/time 1000 1 ${out_freq} v_Vol v_H file vol_enthalpy.dat
fix AVG all 		ave/time 1000 1 1000 v_Vol v_H file vol_enthalpy.dat




fix 		1 all shake 1e-6 200 0 b 1 a 1
Finding SHAKE clusters ...
       0 = # of size 2 clusters
       0 = # of size 3 clusters
       0 = # of size 4 clusters
     640 = # of frozen angles
  find clusters CPU = 0.001 seconds
fix             2 all nph aniso ${pressure} ${pressure} ${pressureDamp}
fix             2 all nph aniso 8173.4 ${pressure} ${pressureDamp}
fix             2 all nph aniso 8173.4 8173.4 ${pressureDamp}
fix             2 all nph aniso 8173.4 8173.4 1000
fix             3 all temp/csvr ${temperature} ${temperature} ${tempDamp} ${seed}
fix             3 all temp/csvr 82.99 ${temperature} ${tempDamp} ${seed}
fix             3 all temp/csvr 82.99 82.99 ${tempDamp} ${seed}
fix             3 all temp/csvr 82.99 82.99 100 ${seed}
fix             3 all temp/csvr 82.99 82.99 100 745823


run             250000
PPPM initialization ...
  extracting TIP4P info from pair style
  using 12-bit tables for long-range coulomb (../kspace.cpp:340)
  G vector (1/distance) = 0.37530341
  grid = 30 30 30
  stencil order = 5
  estimated absolute RMS force accuracy = 0.0031727344
  estimated relative force accuracy = 9.5545954e-06
  using double precision FFTW3
  3d grid and FFT values/proc = 5400 960
Last active /omp style is kspace_style pppm/tip4p/omp
Neighbor list info ...
  update every 1 steps, delay 7 steps, check yes
  max neighbors/atom: 2000, page size: 100000
  master list distance cutoff = 10.8154
  ghost atom cutoff = 10.8154
  binsize = 5.4077, bins = 5 5 5
  1 neighbor lists, perpetual/occasional/extra = 1 0 0
  (1) pair lj/cut/tip4p/long/omp, perpetual
      attributes: half, newton on, omp
      pair build: half/bin/newton/omp
      stencil: half/bin/3d
      bin: standard
Setting up Verlet run ...
  Unit style    : real
  Current step  : 750000
  Time step     : 2
Per MPI rank memory allocation (min/avg/max) = 10.56 | 10.56 | 10.57 Mbytes
Step Temp PotEng TotEng E_pair E_mol Press Lx Ly Lz Volume Pxx Pyy Pzz Pxy Pxz Pyz Enthalpy 
  750000    86.053163   -9845.5843   -9517.5104   -9845.5843            0    8361.0681    24.655088    24.702117    22.742198    13850.746     8125.348     9028.993    7928.8632   -411.74385   -199.08688    993.46451   -7828.5837 
  751000     83.37771   -9846.3031   -9528.4292   -9846.3031            0    8231.6538    24.661332    24.686468    22.769732    13862.239    7942.5922     8792.327     7960.042   -486.99895   -560.21784     -260.307   -7864.2642 
  752000     84.78866   -9849.8435   -9526.5904   -9849.8435            0    8399.2745    24.621141     24.65871    22.822026    13855.835    8954.5245    8364.2034    7879.0955   -113.36525    342.73575    181.90066   -7829.3226 
  753000    82.149812   -9844.8187   -9531.6262   -9844.8187            0    7918.9168    24.622432    24.721842    22.816382    13888.602    8131.7709    7629.3654     7995.614   -312.53608    482.02154    230.87558   -7927.6415 
  754000    82.587475   -9856.2863   -9541.4252   -9856.2863            0    8112.2401    24.683679    24.696988    22.752824    13870.407    8548.6712    7907.6049    7880.4443   -183.35674   -294.29791    323.44756   -7900.4354 
  755000    81.508326   -9835.6345   -9524.8876   -9835.6345            0    8233.3775    24.723089    24.693102    22.729075    13875.868    7845.0077    8218.9961    8636.1289   -229.97937    114.17753    150.67377   -7858.7377 
  756000    81.558299   -9827.6018   -9516.6643   -9827.6018            0    7806.7229    24.735122     24.75396    22.670114    13880.734    7144.8271    7789.8423    8485.4994     75.39199   -76.994332   -285.71596   -7936.3005 
  757000    82.147312   -9848.2826   -9535.0996   -9848.2826            0    7957.7673    24.703087    24.717454    22.701629    13861.556    8079.0234    8046.6919    7747.5864   -100.36007   -958.58624   -273.85543   -7926.3847 
  758000    84.646311   -9859.7221   -9537.0117   -9859.7221            0    7655.3764    24.771999    24.716102    22.653359     13869.91    7375.8984    7870.9349     7719.296    284.23996   -1021.0219    -295.2487   -7988.4943 
  759000    85.937492   -9836.7726   -9509.1397   -9836.7726            0    9037.8259    24.747576    24.698915    22.627973    13831.083    8374.5125    9216.2557    9522.7095   -240.03083    177.62591   -111.41102   -7686.1003 
  760000    84.526505   -9844.3431   -9522.0895   -9844.3431            0    8387.3744    24.669294    24.687067    22.751744    13856.097      8615.99    8447.5666    8098.5666    249.76073   -304.45353   -348.11383   -7827.1944 
  761000    82.411527   -9843.9398   -9529.7494   -9843.9398            0    8354.0282    24.739929    24.623325    22.765731    13868.412    7883.3876    8754.2342    8424.4629   -199.89895    303.34942   -327.48359   -7840.0924 
  762000    84.810634   -9837.8008    -9514.464   -9837.8008            0    7997.7819    24.674729    24.697332     22.78125    13882.893    7905.8048    8469.8271    7617.7139     2.374874   -474.65566    459.52357    -7895.171 
  763000    82.775584   -9838.9118   -9523.3335   -9838.9118            0    7528.9034    24.614459    24.705759    22.863088    13903.476    7915.9273    7562.4483    7108.3345   -530.58939   -469.76821    108.05265   -7996.7133 
  764000    80.845827   -9852.7059   -9544.4847   -9852.7059            0    7796.9366    24.673617    24.682432    22.777741    13871.755    7584.3489    7919.7956    7886.6653   -226.88563     120.1354    87.816096    -7967.123 
  765000    83.481223    -9847.631   -9529.3625    -9847.631            0    8450.6036    24.720013    24.668335    22.722729    13856.356    7134.2571    9173.2893    9044.2643   -277.20034   -908.32408    36.605155   -7821.6583 
  766000    85.350693   -9848.4809   -9523.0851   -9848.4809            0    8260.4095     24.70422    24.767702    22.629755    13846.395    8185.1611     7841.266    8754.8013   -37.393044   -428.53079   -244.36681   -7855.0154 
  767000    84.972192   -9847.3803   -9523.4276   -9847.3803            0    8529.4029    24.697775    24.748858     22.65182    13845.738    8563.4742    7839.1751    9185.5593    136.86712   -456.89553   -88.988928   -7801.1204 
  768000    83.197539   -9860.2327   -9543.0457   -9860.2327            0    7735.8319     24.73669    24.667878    22.750948    13882.666    7442.7969     8118.358    7646.3407   -164.51611    815.65905    126.41372   -7976.8149 
  769000    82.565171    -9853.713   -9538.9369    -9853.713            0    6874.6523    24.655229    24.804617     22.77859    13930.554    7324.1881    6630.5379     6669.231   -391.19859   -685.67755    390.88019    -8142.263 
  770000    82.414845   -9850.6067   -9536.4037   -9850.6067            0    7781.6081    24.683516     24.70033    22.739764    13864.229    7630.2655    8323.3812    7391.1776   -79.880163    563.48987    774.01947   -7962.9971 
  771000    82.846642   -9844.5397   -9528.6905   -9844.5397            0    9218.0739    24.616811    24.693585    22.738083    13821.965    9492.7054    9184.5475    8976.9688   -51.660769   -184.06389   -194.98188   -7670.5188 
  772000     83.57364   -9833.8971   -9515.2763   -9833.8971            0     8646.464    24.656717    24.659624    22.790718    13857.334    8468.6586    9333.9042    8136.8293    63.572025   -771.35284   -586.11538   -7767.8691 
  773000    79.996961    -9848.805   -9543.8201    -9848.805            0    8270.0872    24.684913    24.699293    22.732894    13860.243    7813.9032    8940.6855    8055.6728   -258.97571    315.33599    72.287402    -7872.126 
  774000    87.369633   -9837.2453   -9504.1524   -9837.2453            0    8688.3578     24.67131    24.725399    22.717954    13858.133    8735.5056    8419.6975    8909.8703   -94.061414   -557.58903   -294.05306   -7748.1774 
  775000    84.732611   -9846.3626   -9523.3232   -9846.3626            0    8770.2872    24.674067    24.724314    22.683226    13837.888    8589.9508    8535.5188    9185.3921   -490.95672   -88.534508   -455.76503   -7753.3793 
  776000    81.817011   -9833.6922   -9521.7684   -9833.6922            0    7902.5274    24.753452    24.709706    22.704516    13887.229    7789.9829    8073.6825    7843.9167    11.973921    439.14178   -547.21798   -7921.2617 
  777000     83.17416    -9841.592   -9524.4942    -9841.592            0     8131.413     24.63296    24.756736    22.737752    13866.202    9041.2467    8038.3962    7314.5962   -24.934185   -1255.1844   -235.50661   -7880.1246 
  778000    83.099822   -9850.9219   -9534.1075   -9850.9219            0    7691.0486    24.688613    24.786635     22.67739    13877.375    7655.0198    7277.5387    8140.5873   -284.09843   -706.12301     733.7025    -7977.537 
  779000    81.661601   -9849.3791   -9538.0479   -9849.3791            0    7659.5588    24.669084    24.723265    22.764413    13884.023    7807.1663    7815.0612    7356.4489    279.57654    -164.8847    489.22672    -7987.108 
  780000    85.586244   -9849.4101   -9523.1163   -9849.4101            0    7619.0058     24.69648    24.709612    22.772041    13896.421    7418.5625    7771.4775    7666.9774    51.530129    -216.0396   -412.80517   -7979.0102 
  781000    85.255616    -9837.534   -9512.5007    -9837.534            0    8275.7533    24.746191    24.640424    22.727295    13858.119    6911.3453    8911.7621    9004.1524    -86.42785   -567.77169     682.9316   -7839.9176 
  782000    83.935123   -9836.1558   -9516.1568   -9836.1558            0    8539.8221    24.650033    24.756966    22.696417    13850.716    8341.4546    8422.8821    8855.1295    692.52619     274.7582    74.804003   -7791.1257 
  783000    82.309426   -9839.1451    -9525.344   -9839.1451            0    7572.3294    24.672477    24.768461    22.754539    13905.283    7549.6445    7417.7491    7749.5947   -25.392383   -425.93682    225.23985   -7989.7189 
  784000    80.814834   -9848.0874   -9539.9844   -9848.0874            0    8398.4734     24.72584     24.66896    22.716605    13856.237    7764.3034    8380.1683    9050.9484   -612.70512   -101.95292   -364.49063   -7842.8292 
  785000    79.815633   -9850.4378   -9546.1442   -9850.4378            0    8244.0335    24.644527    24.699256    22.783668    13868.452    7689.4378    8919.9192    8122.7435    5.7738676   -239.61712    39.372391   -7878.7295 
  786000    83.603999   -9852.7831   -9534.0465   -9852.7831            0    7100.7691    24.693637    24.734127    22.775752    13910.873    7247.1864    7251.7285    6803.3924   -43.885806    -171.4968    57.918894   -8093.4723 
  787000    83.472234   -9846.9229   -9528.6887   -9846.9229            0    8281.2462    24.657418    24.705753    22.742418    13854.228    7900.0736    9115.0427    7828.6223    131.44879   -1030.9119    585.47524   -7855.4654 
  788000    82.126751   -9829.4832   -9516.3785   -9829.4832            0    8744.4265    24.689478    24.677828    22.710934    13837.379    9533.5635    8987.0758    7712.6401    148.52859   -458.55841    438.27381   -7751.7184 
  789000    81.829113   -9850.2094   -9538.2395   -9850.2094            0    7918.6459    24.646104    24.723454     22.77924     13880.23    8255.1799     7673.962     7826.796    65.105996   -349.16566   -423.67488   -7935.2766 
  790000    81.519362    -9845.625    -9534.836    -9845.625            0    8056.3404    24.694553    24.668194    22.779851    13876.802      7718.43    8621.8474    7828.7439    156.43547   -66.256479   -433.41002   -7904.4025 
  791000    79.934709   -9853.4857   -9548.7381   -9853.4857            0    8027.4533    24.680019    24.715722    22.746321    13874.903    8528.7303    7313.3262    8240.3034   -108.06085   -238.15627    104.36744   -7924.3731 
  792000    83.677164   -9848.1944   -9529.1789   -9848.1944            0    8620.9396    24.646216    24.757004    22.684842     13841.53    8769.7208     7972.599    9120.4991    390.68555    493.74273    296.01705   -7788.9171 
  793000    82.713165   -9838.7691   -9523.4288   -9838.7691            0    7965.4147    24.662192    24.691622    22.802817    13885.765    8275.3395    7856.7617    7764.1428    551.90707    59.182696    569.30724   -7910.3556 
  794000    85.762914   -9855.2772   -9528.3098   -9855.2772            0    8866.8373    24.653149    24.624045    22.796002    13838.546    8464.1614    9661.5388    8474.8116    176.19576   -634.54558   -9.9827451   -7738.7958 
  795000    83.502855   -9862.5668   -9544.2159   -9862.5668            0    8887.4946    24.647671    24.713011     22.70089    13827.525      9085.07    8380.7979    9196.6158    273.50138   -118.64735    1281.1037   -7751.9614 
  796000    86.239116   -9841.4794   -9512.6965   -9841.4794            0    7791.0083    24.694315    24.758429     22.69949    13878.296    8165.6633     7339.363    7867.9986    323.74686    445.18538   -27.581485   -7935.7908 
  797000    82.487382   -9845.9163   -9531.4368   -9845.9163            0    8437.5335    24.725479    24.730883    22.642434    13845.462    8146.5873     7866.248    9299.7651   -32.800226     237.3914    559.52492   -7827.7143 
  798000    80.670521   -9841.0792   -9533.5264   -9841.0792            0    8130.7928    24.693894    24.679431     22.74157    13859.424     7780.493    8882.0017    7729.8838   -80.804335   -140.39649    56.407272    -7890.086 
  799000    82.788695   -9833.8559   -9518.2277   -9833.8559            0    8830.9707    24.585223    24.744707    22.752121    13841.347    9267.1136    8516.4149    8709.3837   -280.70309   -837.54937    790.24802   -7735.5916 
  800000    85.087877    -9841.325   -9516.9312    -9841.325            0    8612.9147    24.718271    24.692385    22.692465    13850.416    8220.5087    9050.6306    8567.6049   -421.62996   -437.35701    530.21851   -7777.1732 
  801000     83.21256   -9845.6166   -9528.3724   -9845.6166            0    8153.4147    24.680399    24.774778    22.687415    13872.252    8564.3216    7469.0855    8426.8369    71.918155   -611.04096   -91.203815   -7878.8341 
  802000    82.684923   -9844.4598   -9529.2272   -9844.4598            0      8129.54    24.724537    24.680528    22.725433    13867.391    7812.7877    8122.3418    8453.4907     461.3553    42.804681   -450.94854   -7885.0953 
  803000    82.101395   -9840.4198   -9527.4118   -9840.4198            0    8550.1049    24.685779    24.678868    22.743438    13855.691    8272.0414    8965.1407    8413.1326     483.7446    166.60757    701.04061   -7799.6833 
  804000    84.844878   -9845.5878   -9522.1204   -9845.5878            0     8197.735      24.5924    24.719453    22.818061    13871.342    9001.4656    8102.3888    7489.3507   -783.54806    16.282455    517.46362   -7863.7243 
  805000    87.244041   -9852.2168   -9519.6028   -9852.2168            0    8090.6547    24.647745    24.696804    22.778514    13865.749    8115.7361    8602.9476    7553.2806    85.822137   -347.50725    246.10036    -7883.529 
  806000     86.55633   -9846.4443   -9516.4521   -9846.4443            0    8069.1371    24.681929    24.720249    22.735099    13871.672    7769.3788    7991.4998    8446.5326    31.670196   -133.98113    110.14983   -7884.0325 
  807000    83.291806   -9847.0614    -9529.515   -9847.0614            0    7948.3553    24.680809    24.743989    22.726809      13879.3    7952.6889    7815.4329    8076.9441    632.02652   -240.18188   -463.52545   -7920.6459 
  808000    81.733883   -9844.1158    -9532.509   -9844.1158            0    8345.6954    24.744998    24.662267     22.70372    13855.348    7199.0427    9213.6855    8624.3582     -364.971   -39.007737    114.07727   -7846.1274 
  809000    81.639127   -9846.0982   -9534.8527   -9846.0982            0    7019.2714    24.783351    24.783891      22.6592    13917.913    6092.7376    6689.2084    8275.8682   -437.08235    669.52943    544.48999   -8110.0916 
  810000    79.471883   -9849.4267   -9546.4437   -9849.4267            0    7860.2398    24.629287    24.732235      22.7951    13885.346    9055.3455      7481.66    7043.7138   -645.86544   -677.46661    259.42391   -7954.7173 
  811000    83.859664   -9859.2312   -9539.5199   -9859.2312            0    8129.0057    24.711809    24.656853    22.759335    13867.614    7784.2402    8428.6043    8174.1728   -297.18899    234.91863   -316.62322   -7895.4697 
  812000    83.370553   -9843.7676    -9525.921   -9843.7676            0    8286.3941    24.584695     24.73167    22.785515    13854.062     8870.401    8385.5339    7603.2475    88.980189    44.895981     250.6259   -7851.6776 
  813000    86.710902   -9845.4089   -9514.8274   -9845.4089            0    7546.4795    24.753947     24.65769    22.759093    13891.585     6821.783    8487.8046     7329.851    489.34451   -411.14124   -299.94631   -7985.9521 
  814000    84.962309   -9856.7576   -9532.8426   -9856.7576            0    7023.8884    24.702746    24.758037    22.743257    13909.583    6731.7817    7067.8099    7272.0736   -132.94987   -341.40077    720.04324   -8107.9977 
  815000    81.838443   -9855.4475    -9543.442   -9855.4475            0    8642.2129    24.655463    24.730609    22.699362    13840.814    8915.8543    7924.8959    9085.8884    -604.2405   -299.31582   -434.76537   -7798.9762 
  816000    86.780914   -9832.1612   -9501.3127   -9832.1612            0    9021.3542     24.68701    24.664921    22.720761    13834.743    8701.6185    8897.1676    9465.2764   -109.53634   -172.22183    282.28458   -7681.1143 
  817000    80.911218   -9851.5009   -9543.0304   -9851.5009            0    7962.2994    24.625262    24.712275    22.807218    13879.247    8572.5256    7390.7441    7923.6286    -417.1569   -485.09039     204.6915   -7931.3449 
  818000    80.292004   -9845.1343   -9539.0246   -9845.1343            0    8160.5132    24.680967    24.669293    22.769427    13863.439    8397.8787    7817.0666    8266.5942    -150.4234    20.897663    433.69125   -7889.0991 
  819000    82.809991   -9855.1114    -9539.402   -9855.1114            0    8192.4184    24.646533    24.735688    22.730062    13857.359    8641.8408    7721.7937    8213.6206    152.45432    45.618537   -159.23411   -7883.7522 
  820000    80.390811   -9842.3221   -9535.8357   -9842.3221            0    8377.6997    24.671983     24.73168    22.716448    13861.113    8050.2541    8054.8765    9027.9684    -43.33295   -241.01093    509.61624   -7842.2827 
  821000    83.187696   -9844.3948   -9527.2454   -9844.3948            0    7695.2736    24.760784    24.742681    22.678673    13894.047    7631.0431    7334.0316    8120.7461   -407.43538    249.43063    69.143542   -7967.9488 
  822000    81.808601   -9829.8422   -9517.9506   -9829.8422            0    8671.9558    24.692592    24.749547    22.663002    13850.051    8238.3083    8375.9987    9401.5605    99.006571    201.00923   -134.01949   -7766.3127 
  823000    78.898908   -9850.4693   -9549.6707   -9850.4693            0    8471.3775    24.670534    24.712916    22.708946    13845.209     9319.393     8174.446    7920.2934     133.9077    113.33438   -93.235893   -7839.1456 
  824000    82.590212   -9836.2658   -9521.3942   -9836.2658            0    7682.9234    24.709965    24.759079    22.689778    13881.514    7664.3844    7511.3636    7873.0223   -20.577839   -976.16565    100.74892   -7966.0044 
  825000    83.396231    -9832.352   -9514.4076    -9832.352            0    8331.6083     24.78431    24.681059    22.674926    13870.321    7217.7504    8820.6803    8956.3942   -821.04206   -297.24077    1233.8078   -7829.0532 
  826000      81.8239   -9839.3843   -9527.4343   -9839.3843            0    8471.4884    24.623963    24.708069    22.762146    13848.731    8865.5844    8602.3868    7946.4942    391.91064   -275.35628   -571.24296   -7816.4517 
  827000    83.591246   -9857.6136   -9538.9257   -9857.6136            0    8851.9671    24.684711    24.676359    22.704483    13829.954    8734.1226    9155.6527     8666.126   -425.46805   -547.68343   -87.950912    -7753.522 
  828000     84.38993    -9835.743   -9514.0101    -9835.743            0    8877.3408    24.697944    24.690943    22.701772    13843.893    8640.1923    8872.2946    9119.5356   -238.48167   -718.95984   -42.668418   -7721.6841 
  829000    81.270507   -9844.0922    -9534.252   -9844.0922            0    7972.4817     24.66238    24.785762    22.687014    13868.024    8080.5345     7593.024    8243.8866     327.8836   -353.19698    886.54167   -7921.8103 
  830000    81.398985   -9838.2049   -9527.8748   -9838.2049            0    8693.0495    24.718755    24.714722    22.673294    13851.504     7972.288    9594.2937    8512.5669   -68.850196   -7.7719159    260.39672    -7771.792 
  831000    84.419051   -9836.9968   -9515.1529   -9836.9968            0    8803.3396    24.735603    24.714449    22.640989    13841.043    8362.2157    9233.1221    8814.6808   -348.15869    15.499737    599.04911   -7738.1335 
  832000    83.471903   -9851.2008   -9532.9678   -9851.2008            0    7903.5003    24.637611    24.745679    22.764673    13879.038    8901.4134    7512.2459    7296.8418    241.27709    326.21581   -348.24799   -7933.2082 
  833000    80.993715   -9855.1658   -9546.3808   -9855.1658            0    7726.4746    24.673846    24.667893    22.784598    13867.887    7818.3696    8131.1552    7229.8988    394.17657   -559.96059    1107.8538   -7983.7098 
  834000    83.931664   -9834.1341   -9514.1483   -9834.1341            0    8221.4657    24.612826    24.683169    22.842568    13877.375     8745.917    7960.1853    7958.2948    151.05446   -378.10757   -197.80979   -7850.2282 
  835000    80.393603   -9840.5225   -9534.0254   -9840.5225            0    8337.4917    24.648723    24.705978    22.770415    13866.519    8419.7028    8395.7259    8197.0463   -230.02818    538.33155     137.0678   -7847.9432 
  836000    82.155932   -9837.2265   -9524.0106   -9837.2265            0    8287.2516    24.651149    24.753767    22.709946    13857.809    8457.8931    8276.3428    8127.5188   -638.39996    1167.7638    153.73176   -7849.1411 
  837000    81.966809   -9841.9812   -9529.4863   -9841.9812            0    8277.3919    24.717843    24.684458    22.710395    13856.669    7897.0833    8819.7449    8115.3476    -427.7463    276.97554   -386.26557   -7856.7471 
  838000    85.262047   -9833.6926   -9508.6348   -9833.6926            0    9103.2081    24.648526    24.762415    22.649721    13824.416    9383.1963    8346.0898    9580.3383     60.02308   -734.56648   -306.68697   -7673.2921 
  839000    81.330995     -9857.53   -9547.4591     -9857.53            0    7717.3772    24.751263    24.671847    22.726132    13877.926    7282.8186    8245.1365    7624.1766    436.12703   -49.462864    304.09764   -7985.4982 
  840000    86.302554   -9850.3045   -9521.2798   -9850.3045            0    8359.9936     24.62109    24.741395    22.741112    13852.978    8738.5349    8100.6401    8240.8057    806.95204   -409.89214     180.2803   -7832.2979 
  841000     81.12577   -9849.0748   -9539.7864   -9849.0748            0     7953.729    24.676795    24.634962    22.803347    13862.426    8153.1622    8188.4158     7519.609   -428.12985   -54.796257    204.29772   -7931.7868 
  842000    83.614611   -9847.0684   -9528.2913   -9847.0684            0    7805.5556    24.593777    24.694364    22.870105    13889.648    8654.9628    7752.7567    7008.9472    1.8846257   -349.98763     88.20229    -7947.149 
  843000    85.245723   -9851.2118   -9526.2162   -9851.2118            0    7882.4408    24.638712    24.724439    22.785159    13880.225    8087.5383    7418.1355    8141.6485   -169.33008   -157.08868    370.97536   -7930.5828 
  844000    85.560493   -9861.9129   -9535.7173   -9861.9129            0    7552.1347     24.69536    24.764323    22.697935    13881.237    7000.7856    7356.1629    8299.4557    175.09274   -230.03553    970.73043   -8006.8359 
  845000    80.813027   -9851.7621    -9543.666   -9851.7621            0    8714.0821    24.676941    24.691473    22.709104    13836.885    8820.3899    8475.3282    8846.5282   -363.91756   -739.90377     451.4793   -7785.1923 
  846000    83.604572   -9845.1461   -9526.4073   -9845.1461            0    7752.4749    24.766323    24.696302     22.70029    13884.328    7075.3071    7887.8889    8294.2285   -66.935544   -502.11816    428.21331   -7956.6189 
  847000     81.61169    -9832.192    -9521.051    -9832.192            0    7971.4265    24.663513    24.755024    22.723093     13873.49    8638.5418    7058.8352    8216.9025   -472.56284     246.1443   -444.43788   -7908.1873 
  848000    77.933964   -9847.7043   -9550.5845   -9847.7043            0    7820.7642    24.692611    24.689434    22.780142    13887.836    7332.6596     7831.299     8298.334   -297.27089   -856.57534    303.73813   -7966.5681 
  849000    86.936384   -9851.3939   -9519.9527   -9851.3939            0    8498.4606    24.601145    24.646583    22.843906    13851.041    9156.4603    8746.7177    7592.2039   -465.01739    178.89867    188.59146   -7803.2363 
  850000    82.205136   -9855.8005    -9542.397   -9855.8005            0    7701.4104    24.695853    24.688535    22.777412    13887.489    7495.9027    8045.6191    7562.7094   -308.10432   -84.710736    837.18683   -7982.5936 
  851000     81.62082   -9842.5019   -9531.3262   -9842.5019            0    8796.3426    24.691544    24.668514    22.734216    13847.495    8446.9018    8938.9676    9003.1583    149.82973   -234.15393    299.13986   -7754.8914 
  852000    85.779331   -9841.2433   -9514.2134   -9841.2433            0    8585.9879    24.727092    24.682587    22.677073    13840.467    8261.5208    8828.4813    8667.9616    20.066565    502.32482   -523.26705   -7781.1402 
  853000    84.060184   -9843.7433   -9523.2676   -9843.7433            0    8609.6668    24.698888    24.744537    22.673517    13857.205    8301.1725    8125.3896    9402.4384    -26.41033    43.492699    1526.4896   -7783.3132 
  854000    84.878631    -9852.798   -9529.2019    -9852.798            0    8326.7392    24.714893    24.654255    22.720089     13843.97    8491.0347    8304.9142    8184.2686    151.56637   -438.05148    765.88951   -7848.0325 
  855000    85.069618   -9848.2658   -9523.9417   -9848.2658            0    8525.0583    24.593079    24.735909    22.780349    13858.019    8874.0824     8244.465    8456.6275   -440.67977   -187.68557    25.914054   -7800.9848 
  856000     81.70085   -9848.5801   -9537.0992   -9848.5801            0    8534.9723    24.636742    24.670801    22.789644    13851.732    8499.0048    8917.2468    8188.6654    -595.1347   -539.79753   -342.40152   -7812.9213 
  857000     85.12879   -9848.7826   -9524.2328   -9848.7826            0    8533.8152    24.636959    24.674905    22.778888    13847.619    8598.1093    8392.2593     8611.077     178.6122   -195.03462    138.46757   -7800.8005 
  858000    82.179403   -9840.9169   -9527.6115   -9840.9169            0    8376.5121    24.702662     24.72603    22.693005    13860.859    8118.0755    8097.2556    8914.2052   -273.41989   -367.21491   -306.41513   -7834.3297 
  859000    81.176703   -9839.3878   -9529.9052   -9839.3878            0    8800.2893    24.684025    24.701927    22.692938     13836.86     9019.014    8800.9068    8580.9471   -3.4112876   -444.40967    495.93378   -7754.0385 
  860000     82.60587   -9848.7774   -9533.8462   -9848.7774            0    8448.8824    24.625903    24.708246    22.768815    13853.978    8796.0246    8485.5457    8065.0768   -268.67242   -224.42593    104.97292   -7826.7827 
  861000    84.881897   -9847.2509   -9523.6423   -9847.2509            0    8361.8558    24.671517    24.681092    22.757225    13857.329    8553.0521    8173.3572     8359.158    337.73002   -553.92404    552.32038   -7833.7537 
  862000    85.006034   -9848.9064   -9524.8247   -9848.9064            0    8040.5225    24.638628    24.734169    22.757473    13868.768    8639.3232    7474.3515    8007.8927   -49.772321   -236.44315    457.07711   -7898.5345 
  863000    85.598671   -9864.4011   -9538.0599   -9864.4011            0     6777.254    24.640854    24.741146    22.838684    13923.443    7909.0861    6484.6879    5937.9879     663.5935   -782.49485    732.16955   -8161.8767 
  864000    87.402861   -9842.7637   -9509.5441   -9842.7637            0    8147.3619    24.717365    24.629523    22.800059    13880.149    7784.4252    8690.6533    7967.0073    -215.5865   -454.49865    1177.4276    -7860.292 
  865000    87.754579    -9849.215   -9514.6545    -9849.215            0    7918.6099    24.666909     24.70859    22.770233    13878.106    8130.0475    7904.8822       7720.9   -325.83738   -89.280195    156.93819   -7911.9443 
  866000    81.810217   -9848.5774   -9536.6795   -9848.5774            0    7981.8852    24.720512    24.724874    22.692948    13870.192    7592.7325    8383.6903    7969.2327   -344.56093    363.57767   -621.75588   -7922.0837 
  867000    82.416922   -9857.9375   -9543.7266   -9857.9375            0    9064.2819    24.659349    24.709398    22.687964    13824.177    8858.9986    9055.6921    9278.1549   -646.67051   -125.76714    1335.9827   -7716.2637 
  868000    82.084387   -9855.3496   -9542.4064   -9855.3496            0    8465.0088    24.729097    24.638109    22.736122    13852.623    8076.4276     8934.989    8383.6099   -1053.2171   -406.51432    413.64651    -7832.252 
  869000    82.805863   -9843.8991   -9528.2054   -9843.8991            0     7965.233    24.587774    24.793685    22.759013    13874.384     8855.339    6838.0501    8202.3098   -261.71783   -468.09439    107.21904    -7916.491 
  870000     80.67808   -9840.8104   -9533.2288   -9840.8104            0    8299.6742    24.695568    24.637738    22.765766     13851.67    7675.0156    9253.8468    7970.1601   -519.12235   -204.84066    1075.8082   -7856.5917 
  871000    78.999838   -9836.8227   -9535.6393   -9836.8227            0     7966.402    24.656896    24.703198    22.790883    13882.023    7792.3157    7901.0818    8205.8085   -518.65873   -717.06228    452.33149   -7922.8008 
  872000    83.501353   -9841.4944   -9523.1491   -9841.4944            0    8275.3765    24.657307    24.718016    22.758657     13870.94    8701.1685    8215.9218    7909.0392   -220.67464    217.94187     447.9841   -7849.0948 
  873000    82.885222     -9851.33   -9535.3337     -9851.33            0    8392.8591    24.693826    24.745088    22.669559    13852.255    8416.6498    7467.1505    9294.7768    284.98634   -679.76975    224.49166   -7839.8006 
  874000    86.362584   -9847.5226    -9518.269   -9847.5226            0    7978.3568     24.66812    24.725922    22.750697    13876.606    7931.4735    7509.3355    8494.2614   -417.91811    135.78886    29.773185   -7903.6406 
  875000    84.647385   -9841.8098   -9519.0953   -9841.8098            0    7392.8659    24.661909    24.725647    22.813417    13911.203     8145.627    6789.3922    7243.5787   -258.41061   -32.693972   -552.88179   -8019.2261 
  876000    82.540016   -9840.6762    -9525.996   -9840.6762            0    8649.2394    24.679725    24.601883    22.819936    13855.528    8222.1344    9356.7184    8368.8655    100.78692    -627.6486    164.25426   -7778.2557 
  877000     84.20231    -9845.988   -9524.9703    -9845.988            0    7959.2384    24.677577    24.762124    22.716998    13881.659    7970.2653    7497.7343    8409.7155    35.666119   -165.04229   -504.77241   -7913.6245 
  878000    83.392301   -9855.0999   -9537.1705   -9855.0999            0    7299.6428     24.68298    24.757297    22.733254    13891.925    7203.4288    7494.0113    7201.4884    396.31127    235.90807   -65.554605   -8058.2667 
  879000    81.725988   -9837.8657    -9526.289   -9837.8657            0    8326.6207    24.694029    24.705054    22.740457     13873.21    8348.6104     8169.893    8461.3586    189.06892   -195.53842    340.45894   -7841.5927 
  880000    80.853688   -9845.8785   -9537.6274   -9845.8785            0    8848.1143    24.622149    24.750309    22.690222    13827.553    9232.3023    8334.7581    8977.2824   -273.93284    218.51983    352.41454   -7753.3107 
  881000    81.399979   -9846.7691   -9536.4352   -9846.7691            0    8759.3557    24.659958    24.704162    22.717645    13839.671    8623.3329    8931.2043    8723.5298   -234.03015   -445.60666    715.55922   -7768.4697 
  882000    80.440308   -9836.6868   -9530.0117   -9836.6868            0    8724.4971    24.682092    24.661558    22.765558    13857.369    8052.6965    9045.0184    9075.7765    506.58329    -145.3278    243.40343     -7766.83 
  883000    82.298947   -9850.3129   -9536.5518   -9850.3129            0    7972.3407    24.712578    24.636095    22.795939    13878.656    6962.6691    9012.5059    7941.8472   -161.77568   -126.35943   -586.78413   -7922.9026 
  884000    83.020936   -9862.3284   -9545.8148   -9862.3284            0    7908.5751     24.64205    24.711006    22.779552    13871.149    8874.8253    7539.5529     7311.347   -249.67996    134.36006   -402.59505   -7945.9379 
  885000    82.849965   -9866.1284   -9550.2666   -9866.1284            0    7427.4603    24.634111    24.735781     22.79077    13887.419     7986.232    7348.6208    6947.5282   -262.59943    62.249395    -543.0487   -8045.9551 
  886000    83.294513   -9845.0377    -9527.481   -9845.0377            0     8132.907    24.673585    24.703982    22.747709    13865.542    8170.5602    7748.0886    8480.0722   -158.44336   -171.99586    148.28751   -7882.8876 
  887000    81.739334   -9848.7549   -9537.1273   -9848.7549            0    8257.7665    24.633262    24.774328    22.707956    13858.041    8950.5562    7421.6313     8401.112   -175.72016    141.77526    268.45215   -7868.1888 
  888000     83.56188   -9844.2077   -9525.6317   -9844.2077            0    8555.4047    24.753421    24.685878    22.651076    13841.165    7740.4921    8570.5567    9355.1652   -319.03353   -294.17916    330.21123   -7798.6446 
  889000     81.25371   -9853.9525   -9544.1763   -9853.9525            0    7609.2318    24.727448      24.7027    22.738352    13889.375    7244.9564     7779.476    7803.2631   -195.66229   -448.66965    685.85369   -8002.8329 
  890000    81.912053   -9842.8291    -9530.543   -9842.8291            0    8024.8423     24.63641    24.712374    22.795277    13878.316    8675.7492    8011.9694    7386.8084   -339.73512   -628.99119    213.45752   -7906.3068 
  891000    81.090927   -9849.0126    -9539.857   -9849.0126            0    8227.7773    24.652101    24.677735    22.779944    13858.361    7999.3294    8828.2604    7855.7421   -153.17045   -589.44331   -40.826929   -7876.9411 
  892000     78.73014   -9844.9501   -9544.7949   -9844.9501            0    7704.5367    24.633688    24.719767    22.799141    13883.287    8418.3157    7249.4549    7445.8394    209.35896   -882.71702    186.02202   -7984.8304 
  893000    80.856368   -9839.8976   -9531.6363   -9839.8976            0    8303.4668    24.596062    24.727286    22.800799    13867.306    9178.4797    8025.1578    7706.7629    -459.2448    245.12907    716.39325   -7852.3395 
  894000    83.453877   -9847.2151   -9529.0509   -9847.2151            0    8920.9787    24.623928    24.640599    22.799052    13833.287    8897.9047    9842.7165    8022.3149    217.26197    652.49896    474.50031   -7729.2942 
  895000    86.553066   -9843.4227   -9513.4429   -9843.4227            0    8205.1538    24.675516    24.707907    22.747312    13868.589    8464.3484    7809.9132    8341.1998    -752.1616    68.071451    128.99379   -7853.8755 
  896000    81.642128   -9843.5296   -9532.2726   -9843.5296            0    8152.5056    24.645425    24.720377    22.778681    13877.779    8512.5936    7642.4939    8302.4294    271.93596   -763.66159   -29.314722   -7882.2611 
  897000    82.397178   -9851.2595   -9537.1238   -9851.2595            0    7918.0681    24.698516    24.682124    22.760911    13875.321    7957.2517    8056.2287    7740.7239   -676.32885   -192.07905    386.05593   -7934.8448 
  898000    79.064274   -9842.0505   -9540.6214   -9842.0505            0    9093.0744    24.617771    24.708167    22.741102    13832.503    8913.8385     9235.733    9129.6519    318.38134    201.75446   -374.94942   -7706.2495 
  899000    83.012355   -9844.4969    -9528.016   -9844.4969            0    8075.4441    24.678713    24.649242    22.804191    13872.053    8487.0718    8457.0515    7282.2092    20.278534     122.1427    727.16966   -7894.2755 
  900000    80.451326   -9841.6228   -9534.9056   -9841.6228            0    8369.3606    24.607309    24.715086    22.779574    13853.894    8615.7257    8343.4102    8148.9458   -181.00061   -421.07311   -225.83303   -7843.9196 
  901000    85.740123   -9855.7263   -9528.8458   -9855.7263            0    7808.3095    24.718727    24.663683    22.768092    13880.678    7914.6068    8039.6247     7470.697   -100.54592     242.0842     417.7918   -7948.1672 
  902000     82.01281   -9853.6218   -9540.9516   -9853.6218            0    7819.9745    24.670682    24.735937    22.743621     13879.35    8334.2635     7350.292    7775.3681   -256.43866    -85.62568    362.18144    -7958.063 
  903000    84.747613   -9850.7607   -9527.6641   -9850.7607            0    7544.4645    24.645786    24.685564    22.839849    13895.653    8107.8646    7563.1736    6962.3552    308.88398   -138.27101    45.727458   -7998.7494 
  904000    80.327806   -9846.7905   -9540.5443   -9846.7905            0    8391.7502    24.624128    24.635721    22.846168    13859.243    7480.8108    10220.141    7474.2984   -271.02817    -705.3037    231.48866   -7844.3799 
  905000    80.624475   -9838.3051   -9530.9278   -9838.3051            0    8304.4108    24.638807    24.725764    22.767877    13870.493    8980.6745    7362.6739     8569.884   -370.66681    72.858341    359.18146   -7851.0542 
  906000      79.2992   -9864.8214   -9562.4967   -9864.8214            0    8074.9247    24.657154    24.764344    22.706961    13865.285    7614.2952    8037.9303    8572.5485    50.694625    653.89761    823.77078   -7929.6585 
  907000     81.76219   -9843.8675   -9532.1527   -9843.8675            0    8635.6654    24.709106    24.694044    22.708988    13856.292     8332.518    8186.1793     9388.299   -136.68958    429.29691     257.5273   -7787.0591 
  908000    84.505569   -9850.8317   -9528.6579   -9850.8317            0    8435.2462    24.668366    24.726049    22.696236    13843.597    8644.2968    7896.1362    8765.3055    26.686621   -23.248252    490.10302   -7825.6267 
  909000    83.448635   -9842.5111   -9524.3669   -9842.5111            0    8100.6204    24.682802    24.731329     22.73679    13879.412    8191.5963    7904.2571    8206.0077    575.84489     702.6091   -320.44452   -7884.6638 
  910000    81.619131   -9844.5435   -9533.3741   -9844.5435            0    7623.6851    24.688667    24.688216    22.788402    13889.967    7322.0354    8173.4113    7375.6086   -172.49935   -1039.6997   -370.24079   -7989.0372 
  911000    80.655846    -9854.917   -9547.4201    -9854.917            0    8467.0141    24.670536    24.722594    22.708632    13850.441    8942.9376    7805.1181    8652.9865   -248.80645    190.31353   -384.45806   -7837.1301 
  912000    81.217484   -9843.7517   -9534.1136   -9843.7517            0    8189.1016    24.688521    24.719179    22.714769    13862.369    7698.7515    8799.7774     8068.776   -320.93091   -394.74391    659.59797   -7878.5358 
  913000    82.493301   -9838.8781    -9524.376   -9838.8781            0    8625.8893    24.724224    24.706962     22.68451    13857.071    7777.2497     8780.786    9319.6321     92.76793   -124.98835    -623.2393     -7781.16 
  914000    81.831069   -9852.6316   -9540.6543   -9852.6316            0     8115.775    24.637921     24.74496    22.748856    13869.167    8674.2871    7468.9842    8204.0539    122.78229   0.66351728     17.96945   -7899.0961 
  915000    83.510179   -9848.4547   -9530.0758   -9848.4547            0    8471.8339    24.678907    24.691862    22.740182    13857.143    8310.8093    8850.4022    8254.2904   -221.22081   -138.32664    160.57387   -7817.9841 
  916000    83.212741   -9840.2055   -9522.9606   -9840.2055            0    7695.1442    24.675548     24.64991    22.850589    13898.871    7796.8256    7902.4493    7386.1576    86.857062   -726.07537    339.79769   -7963.1488 
  917000    82.748662   -9866.2749   -9550.7992   -9866.2749            0     7912.689    24.659768    24.702555    22.775802    13874.091    8559.0999    7506.3195    7672.6474    299.42266     113.2289   -502.04826   -7949.7506 
  918000    86.574074   -9840.9986   -9510.9387   -9840.9986            0    8486.7277    24.722263    24.668251    22.711133    13850.498    7497.4557    9237.8931    8724.8342   -495.98396   -402.00364    372.07337   -7796.6596 
  919000    80.164084   -9829.2701    -9523.648   -9829.2701            0    9065.0017    24.616322     24.75176    22.689071    13824.389    9695.4388     8542.869    8956.6974   -48.479845    153.69178    28.108149   -7696.0119 
  920000    81.158273    -9847.184   -9537.7717    -9847.184            0    7983.6585    24.696369    24.695926    22.757659    13879.889    7828.8203     8243.645    7878.5103   -91.246806    -579.9333    1634.0709    -7921.688 
  921000    82.894823   -9850.5474   -9534.5145   -9850.5474            0    8038.4181    24.670891    24.727658    22.739954    13872.585    8393.8017    7987.9103    7733.5423    80.192528   -63.982044    267.72144   -7908.2025 
  922000    82.748691   -9851.7807   -9536.3049   -9851.7807            0    7750.7778    24.668186    24.653994    22.833942    13886.903    7056.8344    8529.3107    7666.1883   -67.290563    207.94809   -325.46899   -7966.5691 
  923000    79.728618   -9837.1558    -9533.194   -9837.1558            0    7770.4503    24.640057    24.720085    22.818566    13898.887     7962.714    7917.2668      7431.37    67.355629   -14.818148    161.29588   -7958.1159 
  924000    84.682753   -9862.2347   -9539.3854   -9862.2347            0    7879.1495    24.646819    24.693898    22.798363    13875.677    7459.5164    8740.9525    7436.9796    197.63201   -294.77648   -307.49517   -7944.9409 
  925000    81.513103   -9842.4435   -9531.6783   -9842.4435            0     8708.455    24.662315    24.706011    22.752276    13863.131    9518.1406    8442.3544    8164.8699   -104.25439    -236.0308    644.10885   -7771.0069 
  926000    81.798819    -9845.084   -9533.2296    -9845.084            0    8212.6056      24.7148    24.729672    22.660111    13849.608     7961.064     8122.864    8553.8888    4.8816244    64.442829    -700.9456   -7874.4284 
  927000    82.671883   -9847.2931   -9532.1102   -9847.2931            0    7517.6646    24.772513    24.746526    22.659482    13891.024    6918.9617    7459.9225    8174.1096   -626.13086    316.38371    5.6538178    -8009.134 
  928000    83.261174   -9850.1841   -9532.7545   -9850.1841            0    7848.3463    24.671234    24.703929    22.752667    13867.214     7338.651    8008.9497    8197.4382   -412.47536   -34.335916    212.97933   -7945.5121 
  929000    82.749403   -9854.3424   -9538.8639   -9854.3424            0    7494.6038    24.703978    24.649047    22.813111    13891.576    6305.0828    9144.9357    7033.7928    71.193279    114.92947   -176.28933   -8020.4992 
  930000     83.50821   -9857.5578   -9539.1864   -9857.5578            0    8111.6442    24.668881    24.659711    22.798003    13868.652    7614.4738    8431.8697    8288.5891   -318.84198   -47.876847    698.71469   -7898.5248 
  931000    80.262474    -9839.125   -9533.1278    -9839.125            0    8049.4853     24.62121    24.740213    22.780492    13876.372    8744.7279    7566.9031    7836.8249    254.19597    -453.4587    40.786205   -7904.1322 
  932000    81.751041   -9829.8626   -9518.1903   -9829.8626            0    8084.6949    24.748395    24.721111    22.677381      13874.2    7166.6039    8433.9637    8653.5169   -187.53869   -424.34357    195.57835   -7882.3253 
  933000    82.702966   -9844.7324   -9529.4309   -9844.7324            0     8435.862    24.676945    24.710023    22.717759     13852.56    8344.6441    8325.0038     8637.938     477.8251   -35.542381    31.818994   -7825.1728 
  934000    82.907135   -9843.6742   -9527.5944   -9843.6742            0    8205.0543    24.711947    24.640043    22.761713    13859.685    7470.0155     8680.881    8464.2664   -312.25071    183.22221  -0.11192915   -7869.1125 
  935000     83.22435   -9832.8538   -9515.5646   -9832.8538            0    8267.4457    24.678294    24.675711      22.7882    13876.976    8745.2208    8611.4345    7445.6819    94.490859    832.95675   -73.011552   -7842.3869 
  936000    83.623693   -9831.9409   -9513.1293   -9831.9409            0    8938.1169    24.628399    24.739882    22.719319    13842.965    9328.3789    8286.9813    9198.9906   -100.56347   -211.34998   -801.46125   -7708.6536 
  937000    82.912829   -9864.4769   -9548.3754   -9864.4769            0    8018.9522    24.749585    24.700362    22.660368     13852.82    7756.0038    7611.1641    8689.6887   -207.94959   -837.92869    208.85595   -7928.3131 
  938000    84.457468    -9837.137   -9515.1467    -9837.137            0    8552.4112    24.716369    24.669888    22.728795    13858.884    7523.8488     9488.988    8644.3968    470.75684   -273.81222    643.84905   -7786.5537 
  939000    77.961617   -9849.5337   -9552.3085   -9849.5337            0    7076.2029    24.629721    24.767189    22.807143    13912.561    7878.3171     6327.167    7023.1245   -262.79849   -619.07365    260.65859   -8116.5439 
  940000    84.923544   -9838.5093    -9514.742   -9838.5093            0    8495.6756    24.675969    24.649787    22.779677    13855.907    8307.0238    9017.7844    8162.2186   -49.275939   -363.02057   -624.61872   -7797.9853 
  941000    83.317724   -9843.9798   -9526.3346   -9843.9798            0    8077.2499    24.649974    24.766986    22.727992    13875.565    8253.9355    7141.6059    8836.2083   -336.87178   -681.38588   -623.31664   -7891.8152 
  942000    84.802352   -9841.1419   -9517.8366   -9841.1419            0    8747.5834    24.677951    24.722015    22.684236    13839.395    8694.3922    8739.1829    8809.1753    152.76833   -684.02097    635.07353   -7752.2823 
  943000    83.521655   -9848.9928   -9530.5702   -9848.9928            0    8264.3704    24.729447    24.746153    22.658789    13866.242    7908.7665    7608.6661    9275.6786   -629.35967   -207.51147    390.31194   -7859.3085 
  944000     83.17162   -9852.1191    -9535.031   -9852.1191            0     7892.984     24.67889    24.676828    22.773572    13869.031    7637.3925    8127.9747    7913.5847   -313.39634    -430.0842    185.40629   -7938.5519 
  945000    79.905621   -9840.1681   -9535.5314   -9840.1681            0    7192.4512    24.673716    24.684831    22.847842    13915.855    8027.4493    7460.7512    6089.1531   -288.75161    677.51716   -229.96383   -8075.8344 
  946000    85.022864   -9851.5091   -9527.3631   -9851.5091            0    7892.3505    24.652901    24.687156    22.806311     13880.15    7763.5453    8186.6677    7726.8385    56.642429   -63.250235    303.27344   -7929.7324 
  947000    83.810616   -9845.1404   -9525.6161   -9845.1404            0    9327.4313     24.62089    24.735661    22.684837    13815.382    10297.588    8031.9422    9652.7641    218.98053    127.43213   -126.26886   -7646.2955 
  948000    83.023075   -9842.9618     -9526.44   -9842.9618            0    7749.8667    24.697763     24.72234    22.740152     13884.83    7696.2892    7978.8588    7574.4521    39.809296   -168.64524    240.54726    -7957.123 
  949000    84.298739   -9838.4498   -9517.0645   -9838.4498            0    8653.0362    24.676487    24.739221    22.683017    13847.462    8701.0204     8217.114    9040.9742    287.55267    81.128582    73.911016    -7769.575 
  950000    81.992714   -9843.4207   -9530.8271   -9843.4207            0    7972.2176     24.71411    24.764269    22.658328    13867.505    7757.9937    7652.9889    8505.6702   -27.140514   -646.42257    -219.7308   -7918.4992 
  951000    82.961309   -9828.5965   -9512.3102   -9828.5965            0    8749.3964    24.698708    24.651671     22.72918    13838.989    8340.9461    9307.0099    8600.2331   -226.24775   -980.93612     742.7687   -7746.4417 
  952000    85.155408   -9861.2075   -9536.5563   -9861.2075            0     7960.203     24.64533    24.739839    22.749137    13870.638    8519.3701    7138.7937    8222.4451    232.76221   -504.09931    5.8884378   -7926.2945 
  953000    81.854997   -9856.0567   -9543.9881   -9856.0567            0    8459.6187    24.584473    24.750642    22.756568    13846.951    9272.2426    7414.9613    8691.6521    474.02486   -289.45944    15.625524   -7835.6224 
  954000    83.876554   -9846.5096   -9526.7339   -9846.5096            0    7807.7541    24.704922     24.64135    22.803878    13882.149    7746.5795    8392.7421    7283.9406   -427.51323   -185.24748    213.96889   -7946.0002 
  955000    81.892882   -9850.4166   -9538.2036   -9850.4166            0    8844.2701    24.650259    24.679123    22.735369    13830.988    9135.1201    8909.6795    8488.0107   -165.38987   -251.12937     481.0092    -7754.219 
  956000    79.847855   -9859.0571   -9554.6406   -9859.0571            0    8440.6011     24.68983    24.663617    22.742274    13848.692    8502.8248    8407.4557    8411.5228   -124.55001    111.35204   -165.20975   -7849.9012 
  957000     82.68905   -9844.3765   -9529.1282   -9844.3765            0    8514.4099    24.675512    24.661222    22.764307    13852.725    8729.1774    8650.3539    8163.6983    43.489121   -31.914702    584.64747   -7808.9808 
  958000    81.640101   -9841.0213    -9529.772   -9841.0213            0    8005.9481    24.635408    24.764476    22.731407    13868.045    8487.0851    7473.9888    8056.7704   -193.89249    67.484926   -50.598547   -7910.5593 
  959000    83.211003   -9837.3092   -9520.0709   -9837.3092            0    7644.0243    24.672834    24.738077    22.751842     13886.78    7821.4381    7583.5112    7527.1237   -359.82031   -443.43185    176.21349   -7971.9692 
  960000    85.000093   -9848.8635   -9524.8044   -9848.8635            0    8233.0385    24.727571    24.647971    22.721029    13848.114    7985.1615    8534.0993    8179.8548   -172.61701    -512.3078    55.800515   -7862.0555 
  961000    82.710954   -9838.8766   -9523.5448   -9838.8766            0     7988.081    24.750251    24.682571    22.722172    13880.971    7166.1041    8561.6547    8236.4841   -350.98848   -790.45218    85.678325   -7906.4399 
  962000    81.403755   -9844.0195   -9533.6713   -9844.0195            0     8286.191    24.611983    24.759198    22.738157    13856.018    8874.2855    8120.0687    7864.2188    78.534699   -44.184624    274.50116   -7859.2325 
  963000    81.690625   -9850.5666   -9539.1247   -9850.5666            0    7733.5415    24.761552    24.650788    22.749942    13886.377    7150.4547    8220.1102    7830.0594    241.08391   -256.77756    123.59574   -7972.9389 
  964000    84.070813   -9846.8727   -9526.3565   -9846.8727            0    7927.8452    24.636642    24.789443    22.716023    13873.326    8117.9796    7576.6976    8088.8583    47.100705    846.58178     693.0741   -7922.3296 
  965000    83.060143   -9853.5775   -9536.9143   -9853.5775            0    7397.2699    24.742599    24.678673    22.745057    13888.462    6873.8606     8148.563    7169.3861    369.17526   -55.634446    466.71503   -8038.6049 
  966000    82.122879   -9851.1441   -9538.0542   -9851.1441            0    8287.0178    24.600121    24.725832    22.780926    13856.691    9178.1553    7657.0016    8025.8966   -282.51217   -195.78101    460.86254   -7863.3671 
  967000    85.150583   -9844.7689   -9520.1361   -9844.7689            0    8795.4864    24.664538    24.673019    22.730289    13832.486    9342.8062    8619.6251    8424.0279   -122.04469   -341.97398    150.29412   -7745.7995 
  968000    79.868561   -9835.4227   -9530.9273   -9835.4227            0    7926.4456    24.690544    24.695203    22.762581    13879.211    7764.1489    8196.8336    7818.3543   -442.07057   -64.693916   -560.45294   -7926.5033 
  969000    84.126049   -9861.0899    -9540.363   -9861.0899            0    8725.3502    24.718384    24.658001    22.702271    13837.169    7584.7835    9502.6373    9088.6299    319.81204    468.49097     1028.545   -7779.5793 
  970000    82.713725   -9844.7926   -9529.4502   -9844.7926            0    8660.1558     24.60835    24.758352    22.738867    13853.932    9471.2421    7867.5721    8641.6533    144.97594   -360.63966    53.267926   -7779.7056 
  971000    81.854003   -9846.7491   -9534.6843   -9846.7491            0    7856.6782    24.758377    24.648869    22.747031    13881.739    7120.7276    8512.5281    7936.7788   -443.32181   -910.32901   -107.87041   -7944.0925 
  972000    82.636382   -9855.7424   -9540.6949   -9855.7424            0    8054.2522    24.641432    24.763343    22.740783    13876.522    8761.0824     7637.448    7764.2261   -167.40534   -1120.0617   -5.1828944   -7910.7168 
  973000    81.544837   -9844.8706   -9533.9845   -9844.8706            0    7642.3448    24.694355    24.753435    22.726701    13892.153    7656.9869    7251.9169    8018.1306   -82.416278   -519.00786    206.11734   -7985.6241 
  974000    86.763266   -9840.3657   -9509.5845   -9840.3657            0     8365.464    24.745193    24.681149    22.703855    13866.148    7519.5794    9062.7677     8514.045    287.15462   -861.51712   -217.00353   -7817.8908 
  975000    80.291683   -9836.7944   -9530.6859   -9836.7944            0     8911.488    24.624287    24.697491    22.743637    13831.727    9135.1181    9081.4406    8517.9052   -147.79352   -793.66211    133.71384   -7733.0467 
  976000    82.632341   -9847.4193   -9532.3871   -9847.4193            0    8032.3439    24.689479    24.700985    22.753021    13876.031    7910.0607     8528.459    7658.5118    411.05974   -261.85589    1027.8847   -7906.9003 
  977000    82.672426   -9838.7199   -9523.5349   -9838.7199            0    7262.7782    24.785037    24.771244    22.659854    13912.158     6872.565    7412.1912    7503.5785   -350.80964   -154.64207    1114.9643   -8049.9568 
  978000    83.297386   -9838.8579   -9521.2903   -9838.8579            0    8257.5825    24.651884    24.737663    22.731735    13862.494    8324.9616    8624.4822    7823.3038   -816.40768   -821.47933    203.49068   -7851.8527 
  979000    81.604953   -9848.2707   -9537.1554   -9848.2707            0    7736.8038    24.711409    24.614525    22.811639    13875.398    6954.4441    8579.4039    7676.5634     262.4346     274.4115    -609.4662   -7971.5477 
  980000    83.494977   -9846.8551   -9528.5342   -9846.8551            0    8322.7753    24.593902    24.705354    22.819736    13865.295    9077.1767    8331.2336    7559.9156    481.42007   -302.28421   -303.66424   -7845.5765 
  981000    85.383673   -9840.0205    -9514.499   -9840.0205            0    8801.3529    24.662878    24.695566    22.729759    13843.872    8570.7688    9217.5281    8615.7618   -191.67541    549.96673    380.68035   -7737.5175 
  982000    83.174068   -9842.6758   -9525.5783   -9842.6758            0    7745.1334    24.639219    24.729819    22.787223    13884.789    8070.0127    7946.7171    7218.6705   -120.71877   -209.48942   -70.097664   -7957.2244 
  983000     82.27324   -9835.0314   -9521.3683   -9835.0314            0    7870.7633    24.697875     24.71804    22.728427     13875.32    8522.2047    6975.2622    8114.8231   -725.98653    245.41441    7.3087356   -7928.6618 
  984000    82.930989     -9843.58   -9527.4092     -9843.58            0    7498.0793    24.636237    24.830887    22.726421    13902.652    8235.5352    6551.1577    7707.5449   -628.73665   -735.64409    808.82492   -8007.1293 
  985000    81.339131   -9850.7682   -9540.6664   -9850.7682            0    8581.4572    24.710785    24.656936    22.729686    13849.022     8275.951    9312.5365     8155.884   -324.61051   -702.57652    100.10122   -7807.4371 
  986000    82.436332   -9832.7554   -9518.4705   -9832.7554            0    9180.3442    24.644325      24.6813    22.743342    13833.728    9645.4997    8826.1435    9069.3895   -470.39706    468.93202    504.41035   -7666.3293 
  987000    81.644528   -9849.0776   -9537.8114   -9849.0776            0    7651.9069    24.724283     24.68752    22.750981    13886.772     7169.575    8114.8524    7671.2934  -0.02535849   -68.901757   -5.2810324   -7988.1141 
  988000    85.638959   -9837.4954   -9511.0006   -9837.4954            0    8094.1509    24.650249     24.70975    22.786633    13879.372    8224.5353     7997.046    8060.8714    0.1226902   -43.036568    -157.7476   -7872.6117 
  989000    83.203462   -9840.4862   -9523.2767   -9840.4862            0    8207.6414    24.680767    24.674689    22.772345    13868.136    7915.5816    8201.9347    8505.4079    351.77755   -154.80245    320.39067   -7863.2604 
  990000    84.977064   -9843.4722   -9519.5009   -9843.4722            0    8280.3128    24.694713    24.692581    22.728868    13859.523    8442.5469    7838.9798    8559.4116    359.95301   -964.65959    134.28453   -7845.8267 
  991000    84.984806   -9848.1316   -9524.1308   -9848.1316            0    7655.6275    24.655011    24.810064     22.70461    13888.237    8613.3121    6638.2657    7715.3047   -263.64274    -75.27622    937.82348   -7973.5164 
  992000    85.067281   -9848.7684   -9524.4531   -9848.7684            0    7547.5785    24.734273    24.746506    22.703658     13896.61    7616.1519     7256.776    7769.8077   -229.71503   -200.54584    132.56468    -7994.802 
  993000    82.100307   -9845.1442   -9532.1404   -9845.1442            0    7537.7948    24.724235    24.720584     22.73613    13896.267    7276.1523    7707.7612    7629.4707   -273.38754   -582.65057     766.2069   -8004.5098 
  994000    82.152104   -9848.9988   -9535.7975   -9848.9988            0    8712.6462    24.655061    24.652311    22.773851    13842.043    8458.9401    9417.5591    8261.4394    158.55998    57.827116   -340.96725   -7776.9583 
  995000    84.752869    -9854.112   -9530.9955    -9854.112            0    8009.1188    24.731405    24.653158    22.764729     13879.82    7727.4836    8526.9522    7772.9207   -239.73125    415.71197   -622.03776   -7909.7661 
  996000    82.512301   -9849.0934   -9534.5189   -9849.0934            0    8494.3766    24.589426    24.674855    22.822943    13847.604    8718.4306    8637.9163    8126.7829   -191.41935   -70.964473    462.79565   -7819.0531 
  997000    83.118337    -9833.823    -9516.938    -9833.823            0    7719.2063    24.737279    24.668787    22.794408    13910.029    7050.6268    7963.7881     8143.204    -242.9497   -131.43702    507.84878   -7950.9927 
  998000    79.078917    -9845.463   -9543.9781    -9845.463            0    8606.5844    24.637298    24.766249    22.723726    13865.414    8847.3165    7970.5548    9001.8819   -145.97757   -1196.3215    69.786605   -7803.6161 
  999000    81.421614   -9856.9256   -9546.5093   -9856.9256            0    8535.0792     24.64092    24.728453    22.713426    13840.013    8350.8448    8465.0512    8789.3417     101.6055   -769.66595    250.75048   -7823.7684 
 1000000    84.087875   -9840.5045   -9519.9231   -9840.5045            0    7851.3737    24.757013    24.629981    22.754254    13874.742    7054.0237    8080.9953    8419.1021   -500.68408   -174.58932   -10.179739   -7931.2064 
Loop time of 520.617 on 64 procs for 250000 steps with 1920 atoms

Performance: 82.978 ns/day, 0.289 hours/ns, 480.199 timesteps/s
196.8% CPU use with 32 MPI tasks x 2 OpenMP threads

MPI task timing breakdown:
Section |  min time  |  avg time  |  max time  |%varavg| %total
---------------------------------------------------------------
Pair    | 71.505     | 73.872     | 82.811     |  27.8 | 14.19
Bond    | 0.86305    | 1.0634     | 2.0433     |  26.2 |  0.20
Kspace  | 238.52     | 251.07     | 257.21     |  22.3 | 48.23
Neigh   | 0.11887    | 0.13699    | 0.14612    |   1.6 |  0.03
Comm    | 73.754     | 79.82      | 85.802     |  31.9 | 15.33
Output  | 0.67427    | 0.67536    | 0.67698    |   0.1 |  0.13
Modify  | 85.933     | 92.845     | 103.02     |  40.2 | 17.83
Other   |            | 21.13      |            |       |  4.06

Nlocal:        60.0000 ave          63 max          58 min
Histogram: 4 0 4 0 15 0 7 0 1 1
Nghost:        3568.16 ave        3603 max        3539 min
Histogram: 3 1 5 4 4 7 3 1 2 2
Neighs:        21915.9 ave       22938 max       20683 min
Histogram: 1 2 1 3 3 9 6 4 1 2

Total # of neighbors = 701309
Ave neighs/atom = 365.26510
Ave special neighs/atom = 2.0000000
Neighbor list builds = 252
Dangerous builds = 0

unfix		3
unfix		2
unfix		1

write_data	data.final.${pid}
write_data	data.final.1
System init for write_data ...
PPPM initialization ...
  extracting TIP4P info from pair style
  using 12-bit tables for long-range coulomb (../kspace.cpp:340)
  G vector (1/distance) = 0.37525428
  grid = 30 30 30
  stencil order = 5
  estimated absolute RMS force accuracy = 0.0031784781
  estimated relative force accuracy = 9.5718925e-06
  using double precision FFTW3
  3d grid and FFT values/proc = 5400 960
Last active /omp style is kspace_style pppm/tip4p/omp
WARNING: Not all mixed pair coeffs generated from mixing. Use write_data with 'pair ij' option to store all pair coeffs. (../write_data.cpp:312)

write_restart   restart.lmp.${pid}
write_restart   restart.lmp.1
System init for write_restart ...
PPPM initialization ...
  extracting TIP4P info from pair style
  using 12-bit tables for long-range coulomb (../kspace.cpp:340)
  G vector (1/distance) = 0.37525428
  grid = 30 30 30
  stencil order = 5
  estimated absolute RMS force accuracy = 0.0031784781
  estimated relative force accuracy = 9.5718925e-06
  using double precision FFTW3
  3d grid and FFT values/proc = 5400 960
Last active /omp style is kspace_style pppm/tip4p/omp
Total wall time: 0:08:40
