LAMMPS (30 Jul 2021)
  using 1 OpenMP thread(s) per MPI task
package omp 0
using multi-threaded neighbor list subroutines
echo both

include		in.partitions
variable        pid world 0
include		in.temp
variable        temperature equal 261.81
variable	tempDamp equal 100.0
include		in.pressure
variable        pressure equal 7625.0
variable        pressureDamp equal 1000.0 # This is 1 ps
include		in.seed
variable        seed world 745823

units		real
atom_style	full

read_restart	restart.lmp.${pid}
read_restart	restart.lmp.0
Reading restart file ...
  restart file = 30 Jul 2021, LAMMPS = 30 Jul 2021
  restoring atom style full from restart
  orthogonal box = (0.014819270 0.024077169 0.022202458) to (19.985182 19.975924 20.677796)
  4 by 4 by 4 MPI processor grid
  restoring pair style lj/cut/tip4p/long/omp from restart
  restoring bond style harmonic/omp from restart
  restoring angle style harmonic/omp from restart
  972 atoms
  648 bonds
  324 angles
Finding 1-2 1-3 1-4 neighbors ...
  special bond factors lj:    0        0        0       
  special bond factors coul:  0        0        0       
     2 = max # of 1-2 neighbors
     1 = max # of 1-3 neighbors
     1 = max # of 1-4 neighbors
     2 = max # of special neighbors
  special bonds CPU = 0.638 seconds
  read_restart CPU = 0.989 seconds
include 	in.setup
variable	out_freq equal 1000
variable	out_freq2 equal 10000
variable	out_freq3 equal 1000

timestep	2.0

neigh_modify    delay 7 every 1

include		in.tip4p
# This is TIP4P/Ice

# create groups ###
group ox type 2
324 atoms in group ox
group hy type 1
648 atoms in group hy

# set charges - beside manually ###
set group ox charge -1.1794
Setting atom values ...
  324 settings made for charge
set group hy charge 0.5897
Setting atom values ...
  648 settings made for charge

# ### TIP3P Potential Parameters ###
pair_style lj/cut/tip4p/long/omp 2 1 1 1 0.1577 8.5
pair_coeff 1 1*2 0.000 0.000
pair_coeff 2 2 0.21084 3.1668
bond_style  harmonic
bond_coeff  1 450 0.9572
angle_style harmonic
angle_coeff 1 55 104.52
kspace_style pppm/tip4p/omp 1.0e-5
pair_modify tail yes

thermo          ${out_freq}
thermo          1000
thermo_style    custom step temp pe etotal epair emol press lx ly lz vol pxx pyy pzz pxy pxz pyz enthalpy

restart 	${out_freq3} restart.lmp.${pid} restart2.lmp.${pid}
restart 	1000 restart.lmp.${pid} restart2.lmp.${pid}
restart 	1000 restart.lmp.0 restart2.lmp.${pid}
restart 	1000 restart.lmp.0 restart2.lmp.0


include         in.dump
dump            myDump all atom ${out_freq2} dump.water.${pid}
dump            myDump all atom 10000 dump.water.${pid}
dump            myDump all atom 10000 dump.water.0
dump            myDump2 all dcd ${out_freq2} dump.dcd
dump            myDump2 all dcd 10000 dump.dcd
dump_modify     myDump append yes
dump_modify     myDump2 append yes


variable natoms 	equal  "count(all)"                        # NUMBER ATOMS
variable H      	equal  "enthalpy/v_natoms"                 # ENTHALPY-per-atom
variable Vol      	equal  "vol/v_natoms"                 # volume-per-atom
fix AVG all 		ave/time ${out_freq} 1 ${out_freq} v_Vol v_H file vol_enthalpy.dat
fix AVG all 		ave/time 1000 1 ${out_freq} v_Vol v_H file vol_enthalpy.dat
fix AVG all 		ave/time 1000 1 1000 v_Vol v_H file vol_enthalpy.dat


timer           timeout 02:55:00 every 1000
New timer settings: style=normal  mode=nosync  timeout=02:55:00

fix 		1 all shake 1e-6 200 0 b 1 a 1
       0 = # of size 2 clusters
       0 = # of size 3 clusters
       0 = # of size 4 clusters
     324 = # of frozen angles
  find clusters CPU = 0.561 seconds
fix             2 all nph aniso ${pressure} ${pressure} ${pressureDamp}
fix             2 all nph aniso 7625 ${pressure} ${pressureDamp}
fix             2 all nph aniso 7625 7625 ${pressureDamp}
fix             2 all nph aniso 7625 7625 1000
fix             3 all temp/csvr ${temperature} ${temperature} ${tempDamp} ${seed}
fix             3 all temp/csvr 261.81 ${temperature} ${tempDamp} ${seed}
fix             3 all temp/csvr 261.81 261.81 ${tempDamp} ${seed}
fix             3 all temp/csvr 261.81 261.81 100 ${seed}
fix             3 all temp/csvr 261.81 261.81 100 745823


run             250000
PPPM initialization ...
  extracting TIP4P info from pair style
  using 12-bit tables for long-range coulomb (../kspace.cpp:340)
  G vector (1/distance) = 0.37150512
  grid = 24 24 24
  stencil order = 5
  estimated absolute RMS force accuracy = 0.0035960817
  estimated relative force accuracy = 1.0829493e-05
  using double precision FFTW3
  3d grid and FFT values/proc = 2197 216
Last active /omp style is kspace_style pppm/tip4p/omp
Neighbor list info ...
  update every 1 steps, delay 7 steps, check yes
  max neighbors/atom: 2000, page size: 100000
  master list distance cutoff = 10.8154
  ghost atom cutoff = 10.8154
  binsize = 5.4077, bins = 4 4 4
  1 neighbor lists, perpetual/occasional/extra = 1 0 0
  (1) pair lj/cut/tip4p/long/omp, perpetual
      attributes: half, newton on, omp
      pair build: half/bin/newton/omp
      stencil: half/bin/3d
      bin: standard
Per MPI rank memory allocation (min/avg/max) = 9.223 | 9.225 | 9.227 Mbytes
Step Temp PotEng TotEng E_pair E_mol Press Lx Ly Lz Volume Pxx Pyy Pzz Pxy Pxz Pyz Enthalpy 
14500000    267.21475   -4667.6449   -4152.2988   -4667.6449            0    5978.6733    19.970362    19.951847    20.655593    8230.1304    7998.9184    3546.1977    6390.9038    347.09564    1730.1601    93.722598   -3434.6905 
14501000    257.16566   -4708.8452   -4212.8796   -4708.8452            0     6787.593    19.983954    19.968701    20.572015    8209.3371    6326.8945    6511.2908    7524.5937   -643.89593     316.2558    217.79254   -3400.2366 
14502000     272.0801   -4714.7799   -4190.0506   -4714.7799            0    6433.6432    19.765978    20.129104    20.473926      8145.99    5277.2065    6499.4953    7524.2278     324.8049    1719.9134    1110.2353   -3425.7279 
14503000    250.89225   -4685.9599   -4202.0931   -4685.9599            0    6992.5948    19.875573    19.855092    20.710791     8173.127    7624.9125    7411.4529    5941.4191    76.257251   -455.82549    28.451486    -3368.599 
14504000    241.46411   -4693.4272   -4227.7433   -4693.4272            0    7605.8446     20.08136    19.907003    20.285166     8109.192    8226.9603    5368.1923    9222.3812    -179.8679   -204.54041    1722.7167   -3328.2438 
14505000    261.04529   -4695.4341   -4191.9863   -4695.4341            0    6268.9117    19.974861    20.161581    20.358417    8198.8394    7517.0663    3371.9212    7917.7476   -1016.1873    533.52442   -2136.8033   -3442.4021 
14506000    271.10594   -4696.7876    -4173.937   -4696.7876            0    9350.5281    20.015671    19.729438    20.502171    8096.2654    9203.3677     10189.04     8659.177    217.82121   -466.16045    680.21245   -3069.8666 
14507000    251.81008   -4672.0353   -4186.3983   -4672.0353            0    7141.7051    19.997057    20.076317    20.284953    8143.7442    6124.4526    7443.9084    7856.7544    979.16544    388.51446    350.72538   -3338.1912 
14508000    267.18179   -4698.6416   -4183.3591   -4698.6416            0    6751.1287    19.731442    19.970395    20.671668    8145.5607    6534.7889    6522.5115    7196.0857     290.9942    191.20007   -122.07091   -3381.3611 
14509000    280.56874   -4701.5095   -4160.4091   -4701.5095            0    7556.3263    19.965125    19.568694     20.99895      8204.11    8274.5693    8539.9783    5854.4313   -496.29832    664.54709   -654.79818   -3256.3058 
14510000    253.50824   -4667.8485   -4178.9365   -4667.8485            0     7687.756    19.798675    20.139561    20.428678    8145.6615    6379.3119    8199.1982     8484.758    583.81492   -1724.5186    -787.4862   -3265.6609 
14511000    265.76158   -4713.4511   -4200.9075   -4713.4511            0    5737.3481    19.905226    20.077758    20.603156    8234.0989    4791.3058    5837.0622    6583.6764   -107.97955    2213.8127     1323.876    -3511.933 
14512000    271.76309   -4671.0848   -4146.9669   -4671.0848            0    7126.8976    19.809752    19.923114    20.666042    8156.3069    6576.4939    7742.2624    7061.9366   -407.04029    622.51012    331.44385   -3299.2126 
14513000    273.24742   -4688.2447   -4161.2641   -4688.2447            0    7683.3401    20.003047    19.770905    20.628659    8158.1877    9631.9575    5747.9331    7670.1298    423.28884    1802.1418   -212.46585   -3247.1095 
14514000    255.85444   -4702.8999   -4209.4631   -4702.8999            0    7939.9277    19.746743    19.874395    20.705998    8126.1634     8371.507    9132.9245    6315.3518   -7.0925635    359.37586     1705.992   -3268.4883 
14515000    256.56458   -4692.0569   -4197.2505   -4692.0569            0    8390.8848    19.900265    19.986075    20.584817     8187.162    6575.0114    11157.219    7440.4242   -122.41093   -863.73154   -808.75785   -3195.3674 
14516000    258.01113   -4682.0692    -4184.473   -4682.0692            0     9274.558    19.891188    19.890444     20.58132    8142.8872     8295.196     10151.72    9376.7581    734.80677    -307.8106    252.94829   -3083.0668 
14517000    253.13728   -4679.3746   -4191.1781   -4679.3746            0    7688.6449    20.006215    19.871333    20.534326    8163.4242    6837.2147    7922.6291    8306.0909   -184.75889    608.42489    1105.1802   -3275.8052 
14518000     245.7308   -4688.3207   -4214.4082   -4688.3207            0    8138.4105    20.156872    19.832234    20.312034    8119.8537    6783.9665    8205.4995    9425.7656    -64.47535    1362.9134    150.17176   -3250.6597 
14519000    253.93391   -4698.2706   -4208.5377   -4698.2706            0    6083.7554    19.905759    20.020526    20.690127    8245.5075    5874.3483    5919.6208    6457.2973    205.90545    262.19331    1317.7284   -3476.9523 
14520000    265.86879   -4724.2383    -4211.488   -4724.2383            0    6733.2978    19.994672    19.843136     20.61644     8179.717    7311.1548    6007.1277     6881.611    218.80994   -912.23478    1123.2197   -3408.2542 
14521000    260.61546   -4721.8846   -4219.2657   -4721.8846            0    7953.5616    19.825314    19.774613    20.779796    8146.4678    9027.5283    8917.0835    5916.0729   -520.46076   -1074.8649   -678.74353     -3274.32 
14522000     269.0234   -4710.6016   -4191.7674   -4710.6016            0     8460.837     19.99695    20.019216    20.328613    8138.0169    8042.3553    8666.6617    8673.4939   -105.62614    629.94864    1065.2792   -3187.5961 
14523000     266.9131   -4730.0912   -4215.3268   -4730.0912            0    8078.8083    20.000839    19.899388     20.37159    8107.9837    7376.9132    8120.3601    8739.1516   -493.16614   -350.83217    500.39514    -3260.035 
14524000    262.48801   -4646.6825   -4140.4523   -4646.6825            0    8250.7404    19.852558    19.868224    20.673143    8154.2128     7695.762    9074.2592    7982.2001   -1687.3557    331.85343    -717.7601   -3159.2674 
14525000    282.98014   -4707.6889   -4161.9379   -4707.6889            0    7564.1564    19.886151    19.735829    20.834968    8177.0933    6583.4112    8950.0692    7158.9889    510.23894    507.76393    1215.4452   -3259.8781 
14526000    260.68195   -4659.4902   -4156.7431   -4659.4902            0    8168.3351    20.010803    19.927387     20.34598    8113.2243    7657.7695    7574.8483    9272.3874    167.99166   -802.31219   -725.55295   -3190.2408 
14527000    280.60838   -4691.6336   -4150.4567   -4691.6336            0     7563.715    19.941493    19.828513    20.545559    8123.9226    7261.5016    7674.4581    7755.1853   -455.61154     552.0453   -14.303665   -3254.3148 
14528000    268.29308   -4718.5877   -4201.1619   -4718.5877            0    8852.5209    19.734451    19.946123    20.662326    8133.2242    8902.6767    10203.222     7451.664    160.90711    1887.0649    683.79003   -3151.1225 
14529000    266.19712   -4701.8413   -4188.4578   -4701.8413            0    6642.6702     20.17727    19.904969    20.343675     8170.588    5392.3199         6944    7591.6908    840.40448   -303.70871   -469.48117   -3396.9195 
14530000     261.8018   -4669.2091   -4164.3024   -4669.2091            0    8254.0519    19.916459    20.088736    20.392216    8158.8541    9246.3745     7066.511    8449.2702     -177.515    426.70539   -546.08585    -3182.165 
14531000    262.97523   -4669.1118   -4161.9419   -4669.1118            0    7456.9373    20.101936    19.734259    20.626806    8182.5881     5590.758    10424.546    6355.5078   -179.29784    1131.9499   -1602.3264   -3272.0709 
14532000    268.14438   -4697.9032   -4180.7642   -4697.9032            0    8727.6057    19.790815    20.047378    20.546126    8151.7569     11620.97    5883.7191    8678.1285    252.44111    980.45798   -216.17313   -3143.1827 
14533000    256.51107   -4670.2669   -4175.5637   -4670.2669            0    7604.4299    19.910822    19.886061     20.45163     8097.778    5414.0034    10001.026    7398.2604    439.83063    1652.0543    706.71492   -3277.4974 
14534000    262.77615   -4711.4755   -4204.6896   -4711.4755            0    8306.3136    20.058791    19.939097    20.381555    8151.6879    7975.0641    7256.2134    9687.6632    -311.0712    660.38454      -1054.6   -3217.2017 
14535000    243.40228   -4718.7833   -4249.3615   -4718.7833            0     8071.785    19.916779    19.784973    20.728579    8168.1576    6717.3389    9171.4509    8326.5652   -103.22524   -862.09538    76.850283   -3287.8166 
14536000    262.92039   -4734.5455   -4227.4814   -4734.5455            0    6279.8038    19.969124     19.93971    20.595966    8200.8719    4879.6216    7490.2662    6469.5235   -227.32808    54.949972    189.50926   -3476.4087 
14537000    263.72858   -4712.1339   -4203.5112   -4712.1339            0    6992.5232    20.051219    20.106156    20.251755    8164.5546    7162.3919     5818.042    7997.1356    1522.9202    486.61142   -699.87933   -3370.8999 
14538000    270.75449   -4695.3373   -4173.1645   -4695.3373            0    8171.3594    19.945419    19.897314    20.501842    8136.3667    7692.1444     8670.283    8151.6509   -439.58691    695.45389    480.72667   -3203.5464 
14539000    250.58479   -4694.5386   -4211.2648   -4694.5386            0    6684.7443    19.817806    19.698903    20.819458    8127.6881    6324.7695    8308.2095    5421.2539   -283.59767    1080.9297    926.66663   -3418.8953 
14540000    270.75628   -4728.7552    -4206.579   -4728.7552            0     7530.448    19.842458    20.142444    20.489238    8189.0486    7539.7905    6617.5003     8434.053   -4.1641529    444.74037    100.83336   -3307.2261 
14541000    261.68834   -4686.3572   -4181.6692   -4686.3572            0    8148.2798    20.047955    19.943612    20.352756    8137.6148    7348.1485     8909.475    8187.2159    212.58671    717.92796    885.83471   -3214.6414 
14542000    268.13248   -4717.6937   -4200.5777   -4717.6937            0    7398.1248    19.793939    19.970178    20.686264    8177.0415    7002.8028    7991.7227    7199.8489   -521.05813   -734.95725   -696.66654   -3318.3235 
14543000    257.83107   -4666.0537   -4168.8048   -4666.0537            0    8673.2073     19.78071    19.764476    20.645698    8071.5464    7703.0175    9442.5779    8874.0264    89.474585    536.34373   -531.12023   -3147.8363 
14544000    255.29944   -4693.0651   -4200.6987   -4693.0651            0    9341.9188    19.667003     19.47301    20.969058    8030.6406    10559.297    9758.1566    7708.3026   -37.654068    189.14724   -1802.0798   -3106.5857 
14545000    262.65418   -4742.5302   -4235.9795   -4742.5302            0     6892.095       19.931    19.986319    20.530844     8178.407    10026.352    4244.0056    6405.9268     67.40003    412.21844    1806.9934    -3413.934 
14546000    253.42387   -4698.8429   -4210.0936   -4698.8429            0    8100.3459    19.793073    19.984643    20.590171    8144.5963    9027.1309    8764.9938    6508.9129    259.47557    171.21214    1667.4683   -3247.9298 
14547000    272.96099   -4719.5341   -4193.1059   -4719.5341            0    9712.1446    19.751897     20.04693    20.494495    8115.1006    12916.491    6821.6285    9398.3149    479.87477     233.0159   -1605.8449   -3043.6695 
14548000    255.34019   -4718.3847   -4225.9397   -4718.3847            0    8755.3069      19.9021    19.990244    20.417382    8123.0114    8143.7061    9335.5812    8786.6334    -184.9819   -101.83802   -168.27964   -3188.7354 
14549000    265.84296   -4689.2198   -4176.5193   -4689.2198            0    6574.2353    20.025448     19.82818     20.54987    8159.6996    4756.2713    9061.6368    5904.7978    22.535839   -993.19041    487.80681   -3394.1797 
14550000    263.63612   -4723.4253   -4214.9809   -4723.4253            0     8095.763    19.797516    20.066414    20.503964    8145.5105     8328.138    6683.6787    9275.4722   -276.08035   -1158.2962     209.7319   -3253.2535 
14551000    273.25141   -4650.4261   -4123.4378   -4650.4261            0    9155.2092    19.877598    19.930686    20.607186    8164.0346    10213.996    7052.9508    10198.681    1087.0409   -871.41065   -434.07329   -3033.3813 
14552000    254.32265   -4701.8671   -4211.3845   -4701.8671            0    9341.0432    20.101464    19.695754    20.450299    8096.5494    7853.4587    11051.221    9118.4499    117.08296   -122.88428    447.94225   -3108.3954 
14553000    254.53912   -4722.6076   -4231.7076   -4722.6076            0    7814.5761    19.889536    19.973464    20.455614     8126.257    7331.9355    8432.5419     7679.251    375.11169   -231.30204    1061.0173   -3305.5777 
14554000     259.2093   -4666.5717   -4166.6648   -4666.5717            0    6946.5856    19.977124    19.812266    20.639107    8168.7952    8196.8227    6620.3933    6022.5407    99.694831    -920.2537    1768.0654   -3339.0937 
14555000     261.9311   -4687.0008   -4181.8447   -4687.0008            0    7130.0131    19.914927    19.987266    20.427146    8130.9222    7982.7484    5085.8019    8321.4889    -445.0478    136.98198   -489.13453   -3336.3595 
14556000    269.75277   -4665.6149    -4145.374   -4665.6149            0    9433.0612    19.814246    19.998008    20.387908    8078.6159    10229.737    8851.4297    9218.0163   -581.18247    1607.9687   -1516.9291   -3033.9865 
14557000    239.55279   -4702.5627    -4240.565   -4702.5627            0    6656.6192    19.774584     19.99818    20.662033    8170.9181     6957.024    6209.5952    6803.2384   -541.52908    992.79836     963.7366   -3447.3325 
14558000     268.7818   -4706.1406   -4187.7722   -4706.1406            0     7106.054    19.663125    19.815143     20.81263     8109.176    7346.4281    7240.5118    6731.2219   -856.24029    -150.8659    295.97779   -3347.3818 
14559000    261.46844    -4701.916   -4197.6521    -4701.916            0    8022.6865    19.923062    19.632564    20.750445    8116.3456    7781.7972    8550.9005    7735.3617     590.5064    1021.0166    50.139227   -3248.0182 
14560000    270.24648   -4730.9167   -4209.7236   -4730.9167            0     7090.724    19.907928     19.97238    20.623313    8200.0089     8686.875    5433.6502    7151.6467   -203.78437    196.55289    140.11162    -3361.753 
14561000    265.78237   -4687.1344   -4174.5508   -4687.1344            0     8056.337    19.828791    20.093382    20.236717     8062.864    8336.4397    6433.3022    9399.2691   -355.00684    271.91334    307.56754   -3227.2174 
14562000    273.54084      -4679.3   -4151.7535      -4679.3            0    7254.1571    19.986812    19.813734    20.720727     8205.685    8899.3225    7143.0254    5720.1234   -295.97953    785.77628    468.55679   -3283.6377 
14563000     275.9742   -4703.4982   -4171.2588   -4703.4982            0    6738.9494    19.972562    19.954323    20.691288    8246.2843    6844.0416    7578.2347     5794.572    254.33988    466.44719    96.677786   -3360.8085 
14564000    267.03261    -4707.768   -4192.7731    -4707.768            0    9191.5024    19.890493    19.739593    20.589185    8083.9366    9629.2667    9421.4338    8523.8069     359.7294   -370.62133   -227.97973   -3109.1325 
14565000     261.2843   -4698.0748   -4194.1661   -4698.0748            0    8413.2831    20.052403    19.879875    20.347934    8111.4853    5802.0203    10369.516    9068.3135    115.01632   -444.42414    285.86308   -3198.8941 
14566000    284.14089    -4700.646   -4152.6564    -4700.646            0    5999.2401    19.947877    20.147424     20.44571    8217.0966    5323.8107    5877.4476     6796.462    132.38283   -920.38307     89.03826   -3433.7199 
14567000    263.82636   -4717.5714   -4208.7601   -4717.5714            0    7194.5196    19.932123    19.959344    20.578998    8186.9862    8983.4357    5979.2814    6620.8416      469.933    744.14291   -936.50436   -3349.7431 
14568000    258.45409   -4699.0277   -4200.5772   -4699.0277            0    9129.6564    20.049644    19.673132    20.605275      8127.53    7913.6288    9730.3325    9745.0078   -332.47605    617.76718    541.19654   -3118.4236 
14569000    260.58787   -4721.5091   -4218.9435   -4721.5091            0    9564.7623    19.676742    20.017499    20.369603    8023.1623    9733.4931      9847.84    9112.9539    -725.5187    411.27372    83.656247   -3099.7746 
14570000    260.28362   -4682.6255   -4180.6467   -4682.6255            0    5857.7968    19.981137    19.721097    20.737688    8171.6844    6906.4511    5690.6507    4976.2888   -32.319746   -280.40296    841.54667     -3482.54 
14571000    262.88599   -4684.2564   -4177.2586   -4684.2564            0    8538.6981    19.709399    19.838424    20.826348    8143.1734    9365.8393    9069.4508    7180.8042    214.15247   -624.58016    641.06607   -3163.2043 
14572000    293.57179   -4701.5055   -4135.3276   -4701.5055            0     6759.124    20.083477    19.868676    20.588875     8215.622    5959.9202    7616.4918    6700.9599   -480.18331   -459.71497   -1422.9598   -3325.4736 
14573000    249.60269   -4703.2423   -4221.8626   -4703.2423            0    8156.1954    19.921932    19.853833    20.550107    8128.1161    8821.7061    8141.4237    7505.4564   -354.59117    445.44548   -677.76365   -3255.0252 
14574000    252.72943   -4705.6255   -4218.2155   -4705.6255            0    6911.1041    19.966561    20.238011    20.241188    8179.1297    4445.4111    8682.0156    7605.8856     9.317253    1756.5779    188.22365   -3393.8299 
14575000     260.3895   -4703.7202   -4201.5371   -4703.7202            0    6884.4709     19.91704     19.87033    20.658973    8175.9576    6608.4833     7343.061    6701.8685    764.38193    1230.7509   -1338.5851   -3380.6469 
14576000    272.12275   -4728.1682   -4203.3566   -4728.1682            0    7047.8359    19.966321    19.833919    20.596153     8156.291    6407.0512    8642.1115    6094.3448   -542.51284   -387.95543    -492.5363   -3365.0085 
14577000    239.33722   -4704.2406   -4242.6587   -4704.2406            0    6252.9419     19.98057    19.862406    20.616418    8181.8771    4608.5926    8375.1236    5775.1095    544.01815    1716.2043    1094.1756   -3496.5308 
14578000     262.7549   -4643.0274   -4136.2825   -4643.0274            0    10886.725    20.096899    19.621971    20.439868    8060.2735    11034.431    11490.389    10135.356    -340.3944    1512.7887    930.17713    -2856.539 
14579000    271.47041   -4728.9437   -4205.3902   -4728.9437            0    8430.4272    19.761341    19.987564    20.460088    8081.3474    8295.0022     8297.133    8699.1465    427.40063    1964.1218    1101.2754   -3211.7955 
14580000    271.61598   -4706.2334   -4182.3992   -4706.2334            0    7169.6224    19.810373    19.915516    20.873587    8235.3357     8983.318    7032.7496    5492.7998    181.19521    2039.4213    405.52239   -3321.2994 
14581000    263.62882   -4686.5083   -4178.0779   -4686.5083            0    7961.4621    19.704608    20.253834    20.361922    8126.3177    10179.294    5136.2596    8568.8324   -370.61403   -423.77921     558.3679   -3234.5331 
14582000    244.60787   -4696.7503   -4225.0035   -4696.7503            0    5895.8835    19.939202    20.023352    20.507381    8187.5649    6820.8931    5632.3228    5234.4346    64.702215    401.72903   -319.64673   -3520.9924 
14583000    272.27892    -4704.975   -4179.8622    -4704.975            0    5905.9316    20.019989    19.827493    20.698231    8216.0841    7072.7727    6436.6887    4208.3333    1080.1029   -234.48156    339.94461   -3472.1949 
14584000    275.47633   -4681.3247   -4150.0454   -4681.3247            0    6205.1586      20.1338    19.840262    20.526215    8199.3995    7061.6461    4875.3774    6678.4523    335.36975    1208.2131    -704.4161   -3408.0336 
14585000     251.5045   -4698.3091   -4213.2615   -4698.3091            0    7572.6217    19.912982    19.830729    20.702153    8175.0511    7550.4522    8389.2128    6778.2002   -247.43107    1170.8514   -875.44418   -3310.4177 
14586000    270.19773   -4726.9221   -4205.8231   -4726.9221            0    8588.6795    19.763462     19.96726    20.552038    8110.2903    7610.7303    8428.8106    9726.4976    250.46334   -101.95826    1233.0434   -3189.9518 
14587000    250.19242    -4687.413   -4204.8958    -4687.413            0    7554.6182    20.205985    19.768133    20.345062    8126.5218     4840.648    8847.1922    8976.0145   -955.46773    1294.6088   -270.75079   -3309.5453 
14588000    266.57694   -4707.5401   -4193.4241   -4707.5401            0    5828.2522    19.931607    19.904864    20.664204    8198.2323    8059.3514    4755.8219    4669.5833    810.42901   -2357.6423   -1476.3834   -3496.5819 
14589000    246.85995   -4717.3964   -4241.3063   -4717.3964            0    7481.0835    19.624205    19.855373    20.899419    8143.3728     9255.112    8023.7633    5164.3753   -319.61836   -1605.0813   -753.60543   -3352.8323 
14590000    251.65299   -4698.7005   -4213.3665   -4698.7005            0    8395.3819    20.061563    19.940682    20.460911    8185.2081    8817.2955    8430.0762    7938.7739    426.33568   -1320.4008   -603.62202   -3211.1857 
14591000    247.44829   -4686.9413   -4209.7165   -4686.9413            0    7441.3841    19.961518    19.885873    20.530181    8149.5006    6422.6587    7716.9403    8184.5532   -365.01065   -756.13413    400.63556   -3325.2923 
14592000    265.35253    -4720.061   -4208.3064    -4720.061            0    7852.9834    20.042275    19.629278    20.742321    8160.3484    7967.3933     9010.592     6580.965    342.84884   -276.50727   -372.41242   -3273.7204 
14593000    266.01412   -4684.3268   -4171.2962   -4684.3268            0    7197.3987    19.639332    19.979862    20.710579    8126.6479    7934.6012    6854.1287    6803.4661   -249.95955   -935.64878    135.51878    -3318.269 
14594000    253.66372   -4675.1791   -4185.9673   -4675.1791            0      9193.04    19.876808    19.713163    20.481699    8025.4413    11320.661    7116.9087    9141.5508   -388.10968    379.83292   -42.192935   -3109.9879 
14595000    259.47022   -4725.2842   -4224.8741   -4725.2842            0    8062.8957    19.715501    20.071643    20.400056    8072.7613    9480.6712    5958.8769     8749.139   -425.20838   -1039.1594    357.46601   -3275.6056 
14596000     269.8546   -4704.4872   -4184.0499   -4704.4872            0    5870.1241    20.044436    19.771063    20.698142    8202.6695    5269.5334     6898.187    5442.6519    184.01333    434.73648    900.67894   -3481.8215 
14597000    263.49297   -4678.7357   -4170.5674   -4678.7357            0    9801.0894    19.955465    19.795199    20.293097    8016.2282    10176.503    9710.6679    9516.0978    915.47355     276.0243   -1600.7912    -3024.737 
14598000    271.56253   -4723.3359   -4199.6047   -4723.3359            0    7155.6334    19.926436    19.873156    20.657589    8180.4293    6801.9257    8881.2269    5783.7478   -710.07465    1631.9484    -175.3923    -3345.915 
14599000    253.62556   -4695.3367   -4206.1984   -4695.3367            0    7371.8698    19.773045    20.109066    20.521199    8159.5871     6732.337     7764.224    7619.0484   -75.615471    -682.9383     528.5515   -3328.9518 
14600000    261.32096   -4700.4627   -4196.4833   -4700.4627            0    6679.9979     20.11151    19.820301    20.505998    8174.0227    6169.8989     7430.811    6439.2838   -701.15911    826.74379     183.2443   -3400.1625 
14601000    249.13181   -4715.4536   -4234.9819   -4715.4536            0    6872.9396    19.939073    19.877618    20.594759    8162.5528     6951.727    7029.1328     6637.959    543.26488    41.850978     647.8584   -3416.8103 
14602000    256.19266   -4684.1374   -4190.0483   -4684.1374            0    8237.6313    19.712306    19.764687    20.835444    8117.6466    9314.6333    7043.1445    8355.1161   -36.264952   -42.084038    251.52922   -3214.8153 
14603000    265.02455   -4676.0619   -4164.9398   -4676.0619            0    9616.3254    19.994903    19.849058    20.361204    8080.9545    10257.047    7843.3275    10748.602     849.6509   -469.15004    602.48425   -3031.6324 
14604000    271.80657   -4696.6377   -4172.4359   -4696.6377            0    8461.2232    19.773528    19.926944    20.558592    8100.6198    10219.045    7696.7103    7467.9143    535.25705     803.7866   -1435.0462   -3172.8335 
14605000    278.13708   -4687.3402   -4150.9294   -4687.3402            0      7551.67     19.88097    19.854624    20.801044    8210.7791    6575.2063    8489.8166     7589.987    525.67654    891.49849   -350.57387   -3246.6487 
14606000    252.26639     -4707.71   -4221.1931     -4707.71            0    7045.5726    20.190858    19.691792    20.523562     8160.049    4637.5436    7650.1296    8849.0447    551.36038   -65.179032    127.85621   -3382.7281 
14607000    268.29226   -4707.9649   -4190.5407   -4707.9649            0    6215.1424    19.752577    20.351664    20.339752    8176.5359    4804.3039    6850.0264    6991.0969    175.46417    274.76016    926.60147   -3449.4074 
14608000     259.9692   -4672.1642   -4170.7918   -4672.1642            0    6368.7342    20.111928    19.737097    20.654476    8198.8165    4949.3839    7314.3303    6842.4883   -246.38302   -876.77429   -437.28831   -3409.2738 
14609000    268.75881   -4719.5346   -4201.2106   -4719.5346            0    6821.0553    19.713737    20.074509    20.703613    8193.3222    7899.9937    6371.5736    6191.5984   -628.73171   -1457.6484    44.645197   -3386.1545 
14610000    261.05104   -4661.1927   -4157.7338   -4661.1927            0    7989.5885     20.31518    19.679572    20.413662    8161.2608    8084.9753    6900.8692    8982.9211   -226.89074   -343.13538   -374.91727   -3206.7841 
14611000    267.19384   -4677.2833   -4161.9775   -4677.2833            0    9824.0387    19.905939    19.991279    20.457354    8140.9056    10662.663    9539.4694    9269.9839   -150.92746   -344.80853   -273.31652   -2995.6013 
14612000    261.06971    -4680.154   -4176.6591    -4680.154            0    8136.7605    19.864296    19.727582    20.738696    8126.9669    6148.8252    9476.0877    8785.3686    285.42108   -531.82635    1014.5541   -3212.2619 
14613000     264.3768   -4723.5342   -4213.6613   -4723.5342            0    8377.1862    19.869074    19.836548    20.449209    8059.7253     9975.333    5799.9276    9356.2978    73.768437    787.82724    145.17195   -3228.9831 
14614000    265.97122    -4702.569   -4189.6211    -4702.569            0    7239.1162    20.112671    19.820872    20.484311    8166.0843    4163.5146    9725.8622    7827.9718    783.92303    577.30191   -519.67188   -3327.4861 
14615000    248.65604   -4677.7889   -4198.2348   -4677.7889            0     7589.832    19.931329     20.02951    20.368244    8131.3035    8611.6645    5652.1621    8505.6693    184.31485   -279.79423    623.85088   -3298.1816 
14616000    259.90863   -4731.2699   -4230.0142   -4731.2699            0    6632.3594    19.899606    20.042151    20.629343    8227.6198    6172.2316    6854.8304    6870.0163    716.90525    878.73702   -604.58954   -3434.1881 
14617000    247.60856   -4698.6377   -4221.1038   -4698.6377            0    8048.1333    19.861551    19.834921    20.592813    8112.5858    10331.251    5155.7972     8657.352   -150.57357    31.883256   -455.27007    -3268.899 
14618000    251.17365   -4689.5564   -4205.1469   -4689.5564            0    7434.6629    19.794388    19.846949    20.544348    8071.0158    7969.1391    6420.0278    7914.8218    493.77442    463.71591   -74.312709   -3330.0314 
14619000    254.82393   -4710.9252   -4219.4758   -4710.9252            0    7946.8573    19.679096    19.767696    20.951172    8150.2235    8710.2651     6257.427    8872.8796    758.20763    976.08126     440.3955   -3274.8913 
14620000    260.57281   -4693.8319   -4191.2953   -4693.8319            0     7711.751    19.734157    20.001952     20.59996    8131.2508    9080.6298    7119.8484    6934.7746    479.33564    487.50821   -285.19044     -3276.79 
14621000    254.42129   -4716.0467   -4225.3739   -4716.0467            0    7151.1046    19.956393    19.849087    20.603888    8161.5338    9138.4242    5236.2262    7078.6633   -282.52337   -919.39666    233.28881   -3374.1951 
14622000    267.24013   -4686.2028   -4170.8078   -4686.2028            0    7702.1517    20.026181    19.968991    20.407925     8161.183    7039.9956    7014.4243     9052.035   -393.36825   -488.75138    82.840144   -3254.0786 
14623000    250.02895   -4680.3112   -4198.1094   -4680.3112            0    7056.4026    19.968122    19.812211    20.659221    8173.0491    6743.6737    7772.0256    6653.5085    359.12617    546.38325    1649.2474   -3357.0177 
14624000    270.15728   -4708.2931    -4187.272   -4708.2931            0    8417.9869    19.745376    20.034622    20.566166    8135.7931    7037.5374    8958.0528    9258.3706    109.19534    1234.4842   -88.350656   -3188.4594 
14625000    265.78214   -4675.1486   -4162.5654   -4675.1486            0     7472.876    19.870628    19.950008    20.641526    8182.6969    5551.9113     9400.559    7466.1576   -307.46277   -359.34647    655.94094   -3270.7804 
14626000    251.26768   -4712.2172   -4227.6264   -4712.2172            0    8162.7227    19.964248    19.895351    20.408202    8106.0503    7454.3717    8105.5468    8928.2497    508.97895    1040.4243     888.0645   -3262.6421 
14627000    259.16763   -4700.5311   -4200.7046   -4700.5311            0    6957.1438    19.617648    19.913103    20.838837     8140.655    7974.7281     5986.558    6910.1453    61.757843    220.95807   -453.21744   -3374.7309 
14628000    252.87111   -4699.1322    -4211.449   -4699.1322            0    7858.1575    20.019356    19.928397    20.394454    8136.4423    7618.9734    8171.4573    7784.0417    181.24745    53.949153    252.66528    -3278.987 
14629000     268.2753   -4683.1548   -4165.7633   -4683.1548            0    4175.7623    20.067355    20.206702    20.424647    8282.0935    3877.7517    3726.8087    4922.7265   -856.98521    219.28211    1008.1789   -3661.3903 
14630000    242.18187   -4706.8372   -4239.7691   -4706.8372            0    6433.4742    19.858867    19.650176    20.913047    8160.9029    8192.4805     5767.539    5340.4031   -392.96219    831.74308   -151.07477   -3474.0673 
14631000    254.23572   -4727.0901   -4236.7751   -4727.0901            0    7660.5202    19.909149    19.846907    20.606652      8142.41    6582.6933     8884.106    7514.7612    8.7184794    1251.9672   -158.55576   -3327.0983 
14632000    266.83167   -4688.6148   -4174.0075   -4688.6148            0    4091.6246    20.190241    20.061282    20.520934    8311.8426    3052.1891    4608.3888    4614.2958   -364.33149    2015.5835   -347.09421    -3678.022 
14633000    269.88919   -4678.1455   -4157.6415   -4678.1455            0    9023.2439    19.968619      19.9042    20.422328    8117.0459    8289.6779    9809.4294    8970.6244    516.01364   -814.91566    -1720.925   -3089.4808 
14634000    265.17836   -4723.6835   -4212.2648   -4723.6835            0    8248.7688     19.86334    19.880425    20.622776    8143.7618     10787.25    6873.8848    7085.1715    370.89514    1093.4119    869.19898   -3232.5716 
14635000     262.0858   -4705.6768   -4200.2223   -4705.6768            0    8302.7361    19.963125    19.604991    20.779411    8132.5812    7212.8663    9427.1818    8268.1602   -498.15082   -755.89861   -106.69282   -3215.4733 
14636000    284.89374   -4732.0069   -4182.5653   -4732.0069            0    8992.2236    19.865293    20.032185     20.30933    8082.0007    8939.2496    7277.2162    10760.205   -1048.7514    1052.4393    542.79364   -3122.6727 
14637000    256.61536   -4724.5914   -4229.6871   -4724.5914            0    7115.7381    20.087445    19.927242    20.412367    8170.8131    7000.7575    7628.1118    6718.3449    513.41851   -570.60456    -785.7599   -3381.7549 
14638000    264.21273    -4711.019   -4201.4625    -4711.019            0    8405.1282    20.199172    19.813588    20.383938    8158.0202    5915.5975    9594.9738    9704.8134  -0.29722504    1017.7235   -2005.4021    -3201.451 
14639000    244.31354   -4714.7297   -4243.5505   -4714.7297            0    7026.6032    19.938799    19.970919     20.62239    8211.7561    9974.8325    4740.4219    6364.5553   -518.00036    50.901319   -183.44958   -3402.0442 
14640000    257.80421   -4686.8405   -4189.6434   -4686.8405            0    6033.4793    20.028871    20.027721    20.510391    8227.3872    4981.9003     6025.852    7092.6855      372.742   -202.58023    296.80153   -3465.6982 
14641000    258.52345    -4703.215   -4204.6308    -4703.215            0    7380.5283     20.03764    19.750113    20.597077    8151.2039    5719.2287    8705.2744    7717.0817   -446.83149    4.8770107    1178.4503   -3327.2561 
14642000    254.96548   -4700.0862   -4208.3638   -4700.0862            0     5111.588    19.850093    19.957944    20.776585    8230.9984    4347.1371    5991.5648     4996.062    70.658002   -746.48415    195.51735   -3594.7654 
14643000    265.95351   -4721.1776   -4208.2639   -4721.1776            0    7925.1489    19.987619       19.904    20.507879    8158.7229    7482.5924    7900.6991     8392.155    260.66003    903.30712   -552.19313   -3265.2773 
14644000    262.01316   -4692.9619   -4187.6475   -4692.9619            0    6222.3529    19.852095    19.809962    20.719666    8148.4074     6115.858    6458.1258    6093.0749    79.430624    382.56466   -523.42448    -3448.207 
14645000    265.40254   -4696.2442   -4184.3931   -4696.2442            0    7989.5918    20.013797    19.933541    20.318625    8106.0308    9240.7385    7123.5969    7604.4399   -885.88111   -464.85316   -1072.3543   -3239.8784 
14646000    245.57761   -4697.8289   -4224.2118   -4697.8289            0    6307.7434    19.937507    20.022844    20.590156    8219.7052    6776.9979    6262.4558    5883.7766    121.07017    949.42715    100.44583   -3468.0649 
14647000    252.31231   -4711.0979   -4224.4924   -4711.0979            0    6939.9925    19.906103     19.63513    20.759781    8114.1455    7407.4523    6874.7603    6537.7649    -47.87926    409.08438    676.93065   -3403.2381 
14648000    259.77777   -4731.5224   -4230.5191   -4731.5224            0     5116.712    20.043342    19.983124    20.525871    8221.1983    2696.8466    4655.5603    7997.7292    483.43808   -165.42645    1223.3546   -3617.0369 
14649000    269.86034   -4690.4115   -4169.9632   -4690.4115            0    9039.4007    19.902719    19.882622    20.535762    8126.3753    8976.3033    9285.7113    8856.1875    1171.5108   -1141.2153   -793.20292     -3098.66 
14650000     258.0045    -4697.642   -4200.0587    -4697.642            0     7523.701    19.898014    20.107366     20.39957    8161.7994    10166.985     4213.291    8190.8274    73.811696     40.39209   -853.25993   -3304.5015 
14651000     264.1784   -4671.7531   -4162.2628   -4671.7531            0    7102.9956    20.085066    19.914266    20.499343    8199.3139    6705.8308    7715.7203    6887.4358    -706.3606    601.66703   -281.58313   -3312.8967 
14652000    277.22354   -4704.4729   -4169.8239   -4704.4729            0    8089.4721    19.759566     19.92713    20.495831    8070.2629    9886.4138    6230.6265    8151.3761   -38.503763    992.00687    -28.59046   -3217.7213 
14653000    257.79817   -4693.1185   -4195.9331   -4693.1185            0    9423.6407    19.966271    19.737642    20.464274    8064.7067    9027.7324      9614.85    9628.3395    176.15073    1605.0389   -2340.5396   -3087.5671 
14654000    270.29251   -4715.7465   -4194.4647   -4715.7465            0    6770.4562    19.957334    19.995183    20.407937    8143.7983    6804.2766    6144.6089    7362.4831   -810.79753   -154.45747    2029.8275   -3390.3447 
14655000    250.51721   -4680.7522   -4197.6087   -4680.7522            0    7595.8903    20.071391    19.994375    20.333606    8160.1792    6570.4096    7209.4589    9007.8024    1116.8322   -343.29005   -846.31154   -3293.6382 
14656000    256.85787   -4721.3731   -4226.0011   -4721.3731            0    7962.4472    19.842973     20.09078    20.460722    8156.8881    8285.3594    6988.9064    8613.0758   -646.36461    254.09597    241.11962   -3278.7896 
14657000    261.43266   -4697.6509   -4193.4561   -4697.6509            0    6551.3665    20.013978    19.892249    20.555018    8183.4259    6845.0124      6340.25    6468.8372    579.12379   -952.88595      574.349   -3411.5709 
14658000    264.48095   -4738.9845   -4228.9107   -4738.9845            0    8191.7834    19.810736    19.866291    20.662424     8132.024    8988.9211    7641.7431     7944.686    183.16696    882.25909    2303.3414   -3257.3879 
14659000    252.88391   -4696.8075   -4209.0996   -4696.8075            0    8276.3314    19.812033    19.955036    20.509344    8108.3657    8053.5866    8138.7443    8636.6632   -371.03834     845.1617   -646.32527   -3230.4052 
14660000    269.75438   -4710.4528   -4190.2088   -4710.4528            0    5796.5899    19.941428     19.86601    20.618885    8168.3072    6927.9214    4909.6137    5552.2346   -417.12497    14.539682    -409.1349    -3499.682 
14661000    264.81038    -4731.513   -4220.8039    -4731.513            0    6288.2807    19.818467    19.977189    20.662716    8180.7257      7457.59    4633.3394    6773.9128    263.22299    1684.1718    1388.6837   -3470.5649 
14662000    266.21774   -4702.7508   -4189.3276   -4702.7508            0    9316.9541    19.989002     20.01181    20.368851    8147.8687    9483.9927    8257.8521    10209.017    365.07808     235.9921    508.94411   -3082.2097 
14663000     254.3991    -4677.557   -4186.9269    -4677.557            0     8420.605    19.995273    20.148393    20.303269    8179.6314    7807.0237    8170.3219    9284.4694   -304.72825   -89.676456   -232.89624   -3182.4201 
14664000    259.87883   -4716.1968   -4214.9987   -4716.1968            0    8130.9022     19.99435    19.791733    20.701743    8192.1527     8200.033    9673.8501    6518.8234    -217.7675   -194.19523    -1201.955   -3243.5661 
14665000    266.87827    -4719.377   -4204.6798    -4719.377            0    6640.0032    19.908048    19.869827    20.736156    8202.5901    6447.1592    7334.8008    6138.0498    166.18761    409.45852   -1574.1632   -3410.3604 
14666000    256.67739   -4669.6727   -4174.6487   -4669.6727            0     7682.823    20.030699    19.607387    20.756772    8152.2154    7904.6178     8635.414    6508.4373    631.28957    316.42484    -1700.546   -3261.2248 
14667000    258.81876   -4685.7433   -4186.5896   -4685.7433            0    7547.7502    19.971253    20.100251    20.269338    8136.6636    7004.1114    7308.7862    8330.3531    417.19489    659.47587    972.63447   -3290.9366 
14668000    259.55393   -4650.1189   -4149.5473   -4650.1189            0    9487.8868    19.767799    19.756993    20.657635    8067.8863    9739.8609    10345.024    8378.7758   -108.38175   -660.58376   -423.56729    -3033.185 
14669000     264.9523   -4671.8271   -4160.8443   -4671.8271            0      6536.32    20.076829    19.905754    20.419627    8160.5899    6631.0624    5614.0087    7363.8889   -907.97311   -272.44789   -45.767739   -3382.9318 
14670000    259.45589   -4684.4107   -4184.0282   -4684.4107            0    8309.0443    19.825157    19.814106    20.757134    8153.7712    8449.8035    8268.4754     8208.854     123.3264   -75.122075   -640.60243   -3195.9633 
14671000    263.79905   -4679.0214   -4170.2627   -4679.0214            0    7722.8589    19.727723    19.978626    20.666899    8145.5023    9506.5732    7449.7376    6212.2659   -424.72141     659.9394   -1109.3736    -3252.835 
14672000    258.80868   -4708.2548   -4209.1204   -4708.2548            0    7035.8333      20.0573    19.711873    20.701387    8184.6441    6719.7114    8582.1201    5805.6683   -835.39011    499.54667    848.91075   -3369.2908 
14673000    249.45317   -4713.3114     -4232.22   -4713.3114            0    6813.1966    19.898019    19.923764    20.660126    8190.5712    5086.3197    9113.5113    6239.7587    303.93484    261.74926    572.12737   -3418.3763 
14674000    260.88233    -4705.687   -4202.5535    -4705.687            0    6189.5559    20.230265    19.905617    20.447001    8233.9235    3876.4776    7429.8728    7262.3173   -152.06501    464.84506    417.60661    -3459.291 
14675000    259.63771   -4699.8673   -4199.1342   -4699.8673            0    7950.1603     19.96213    19.872325    20.421283    8100.9992     6958.427    7976.1537    8915.9001    797.95776   -1004.4114   -449.59528   -3259.8644 
14676000    260.89066        -4730   -4226.8504        -4730            0    7605.2467    19.643011    19.941386    20.854892    8169.0465    7692.7011     7861.374    7261.6649   -348.71639    1586.0135   -403.82058   -3320.7829 
14677000    263.69611   -4706.6188   -4198.0587   -4706.6188            0     6089.832    20.010915    20.043532    20.400437    8182.3992    6667.3456    4138.8455    7463.3047    263.83203   -854.29901   -750.40968   -3471.3475 
14678000    259.58005   -4686.4741   -4185.8522   -4686.4741            0    8105.6268    20.022361    20.122879    20.240625    8155.1007     9430.556    6450.4505     8435.874   -345.81742    36.914141    600.10922   -3221.8194 
14679000    273.20904   -4697.1185   -4170.2119   -4697.1185            0    6655.0491    19.803685    20.029677    20.600868    8171.5693    8290.5275     4484.467    7190.1527    82.775298    2131.2421   -14.090134   -3377.1034 
14680000    260.86015   -4686.2205   -4183.1298   -4686.2205            0     7612.267    20.056365    19.598033    20.811222    8180.1698     7501.689    8203.8713    7131.2408   -416.08454   -881.05511     909.4357    -3274.991 
14681000    261.63582   -4711.5547   -4206.9681   -4711.5547            0    8701.9934    19.872217    19.873815    20.527852    8107.2035    10036.084    7954.3967    8115.4999    571.32795    345.48441   -233.66125   -3178.0857 
14682000    261.66787   -4700.6235    -4195.975   -4700.6235            0    7153.1465    20.184056      19.9979    20.220807    8161.9012    6954.4211     5688.518    8816.5004   -98.411024    552.27295   -763.92605   -3344.5148 
14683000     254.5829   -4713.3513   -4222.3668   -4713.3513            0    8803.4381    19.669251    20.049263    20.503474    8085.6264    9928.8184    8586.5822    7894.9136   -251.71357   -464.62076     591.3116   -3184.2604 
14684000    255.35986    -4718.177   -4225.6941    -4718.177            0    8242.1007    19.880721    19.812028    20.697543    8152.2946    8912.5311     8537.792    7275.9792   -711.30427    -915.4047    1488.3317   -3245.7672 
14685000    266.66854   -4678.9312   -4164.6385   -4678.9312            0    8925.8747     19.77812    19.905871    20.576625    8101.0318    7695.2446    9483.7074    9598.6722    1235.2095   -258.47335    773.89987   -3110.0889 
14686000    270.74399   -4695.0097   -4172.8571   -4695.0097            0    6594.3116    19.917148    20.192265    20.408224     8207.623    8447.1926    2615.6665    8720.0756   -34.665035   -229.08661    2106.5494   -3383.5196 
14687000    250.64041   -4692.0031    -4208.622   -4692.0031            0    6771.9611    20.020165    19.842355    20.666729    8209.8003    5630.2363    8086.6632    6598.9838    1432.3822    149.53948   -1191.4933   -3397.8048 
14688000    273.15313   -4700.8405   -4174.0417   -4700.8405            0    6617.6772    19.907778    19.727617    20.736115    8143.7569    9006.0688    4695.6377    6151.3253    569.27668     71.80251    549.64963   -3388.0711 
14689000    248.33625   -4699.3148   -4220.3775   -4699.3148            0     6816.726    19.823164    20.100528    20.402517    8129.5064    7734.1588    5114.8613    7601.1579    348.71836    409.67642    425.03643   -3412.1829 
14690000    272.17596   -4685.1623   -4160.2481   -4685.1623            0    7901.8634    20.033095    19.942911    20.485032    8184.1439    5485.2507    8637.6081    9582.7314    167.60527    1676.6475   -939.16714   -3217.1027 
14691000    255.85857   -4679.3976   -4185.9528   -4679.3976            0    9635.5764    19.966682    19.805734    20.455922    8089.3924    7496.8475    12312.611    9097.2712    249.42327   -10.681983    451.65695   -3049.1909 
14692000    260.45253   -4691.2367   -4188.9321   -4691.2367            0    8100.1168    20.094938    19.932041    20.367646    8157.9167    9254.7412    7252.9181    7792.6911    81.674598    981.44506   -1758.2659   -3225.2219 
14693000    273.55223   -4731.2046   -4203.6362   -4731.2046            0    5788.4714    19.934771    19.850747      20.7249    8201.2591    6895.8111    6658.3292    3811.2738   -132.46583    1278.3185   -1325.7785   -3511.2947 
14694000    272.92497   -4708.6859   -4182.3271   -4708.6859            0    7928.1136    19.858597    20.003579    20.454428    8125.3789     8626.108    7585.5363    7572.6965   -535.73793   -399.43392     742.9924   -3242.8431 
14695000    274.27911   -4717.3337   -4188.3633   -4717.3337            0    8009.5549    19.704304    20.229864    20.442432    8148.6681    7958.0676    7377.3414    8693.2557    294.48382   -544.19721   -1177.6224   -3236.5081 
14696000    256.43752   -4688.0695   -4193.5082   -4688.0695            0    8659.1999    19.967655    19.820804     20.48354    8106.8725    6913.2646    9253.1648    9811.1703    536.32642       -4.447   -710.31678   -3169.7273 
14697000    267.77015   -4707.2752    -4190.858   -4707.2752            0    8034.0734    19.993184    19.920203    20.401079    8125.1023    8376.5918    7974.1166    7751.5116    867.44313   -597.96477   -752.80119   -3238.8501 
14698000    267.99687   -4712.4784   -4195.6239   -4712.4784            0    6977.1209    20.057272    19.829463    20.483003    8146.6009    5938.0118    8091.4875    6901.8633   -165.83954    846.38039    30.703831   -3366.6735 
14699000    271.13891   -4682.1809   -4159.2667   -4682.1809            0    7437.3944    19.925173      19.8434    20.569637    8132.8884    8749.6427    6339.6482    7222.8924   -488.02483    1060.5364   -454.35104   -3277.1186 
14700000    252.10233    -4689.875   -4203.6745    -4689.875            0    7999.3169    19.687067    20.106944    20.593167    8151.7383    8350.8473    8381.7254    7265.3781    72.094533   -1381.2172    239.21659   -3252.6778 
14701000    266.78707   -4719.4435   -4204.9222   -4719.4435            0    7268.5601     19.99671    19.844178    20.582411    8167.4767    6750.0062    9108.8267    5946.8475   -169.12725    84.526636    284.51895   -3339.1329 
14702000    249.32058   -4660.9012   -4180.0655   -4660.9012            0    8360.5454    19.889008    20.030064    20.318651    8094.5054    10063.521    6603.1657    8414.9497   -1348.6891   -1012.7394    -532.9287   -3193.1026 
14703000    257.40512   -4729.0528   -4232.6254   -4729.0528            0    6894.5972    20.163242    19.949217    20.358359    8188.9648    5809.6699    6891.2378     7982.884    247.05219    1476.0101    -716.1837   -3409.2198 
14704000     254.0469    -4707.915   -4217.9642    -4707.915            0    7979.5697    19.970427    19.919371    20.433657    8128.4748    7809.6474    7776.3896    8352.6723     -222.199   -16.026266   -1260.3297   -3272.0224 
14705000    246.21277   -4710.4796   -4235.6376   -4710.4796            0    7755.2479    20.129128    19.529729     20.65783    8120.9318    7503.7185    8313.8457    7448.1794   -226.29449     600.7263    1274.9265   -3317.1412 
14706000    242.02576   -4695.7466   -4228.9796   -4695.7466            0    7317.4636    19.878577    19.915295    20.678177    8186.2363    10233.582    5032.3237    6686.4856    9.2781779   -588.78252    -675.7698   -3355.3632 
14707000      270.574   -4712.1153   -4190.2906   -4712.1153            0    7863.6247    20.332525    19.870125     20.13236    8133.6709    4274.0105    11394.012    7922.8519    417.40515   -290.37278    273.09344   -3257.4976 
14708000    263.61858   -4694.7173   -4186.3066   -4694.7173            0    8063.9188     19.91671    19.980485     20.46749    8144.9458      9148.75    6812.5759    8230.4304   -109.99904   -806.31571   -1588.2773   -3228.4286 
14709000    256.62117   -4698.3444   -4203.4288   -4698.3444            0    9039.0425    19.942206    19.776152    20.666114    8150.3041      7370.32    12250.905    7495.9023     -492.175   -85.770225   -1203.7124   -3129.0137 
14710000     273.6835   -4695.5192   -4167.6975   -4695.5192            0    6821.3061     19.76817    19.931528    20.770751    8183.8802    7112.6435    6488.3398    6862.9351    -22.59577     610.3035    536.71579   -3353.5507 
14711000    259.65007   -4690.3129   -4189.5559   -4690.3129            0      7437.03    20.016644    19.895938    20.489231    8159.8346    6424.2057     8041.534    7845.3503    879.25139    1345.9115    525.45788   -3304.5284 
14712000    262.78637   -4706.3863   -4199.5807   -4706.3863            0    7005.9815    19.931763    20.307763    20.183943    8169.8451    6590.4107     6300.297    8127.2367    8.6148262   -898.90192    1338.5247   -3364.8264 
14713000     274.4841    -4693.437   -4164.0713    -4693.437            0    8743.8255    19.889194    19.737271    20.665518    8112.4229    8884.1922    8031.3385    9315.9459    -78.54189   -84.618364    1279.5174   -3129.5773 
14714000     266.5872   -4683.6513   -4169.5155   -4683.6513            0    8315.6545    19.655221    19.925896    20.611271    8072.3609    7768.0903    9523.7477    7655.1255    598.37852    1027.6908    192.64464   -3190.5376 
14715000    262.53634    -4741.252   -4234.9286    -4741.252            0    9355.7801      19.7376    20.040648     20.43598    8083.5392    9911.3373    8461.9514    9694.0517   -554.41071    92.537675   -559.44766   -3131.9745 
14716000    259.60609   -4713.6663   -4212.9941   -4713.6663            0    8129.1597    19.930006    19.856048    20.523383     8121.742    7515.0931    9304.6475    7567.7385    60.223764    1831.5857   -70.612356   -3250.1173 
14717000    253.54199   -4713.6229   -4224.6458   -4713.6229            0    8638.0351    19.768405    19.710768    20.626896    8037.2793    12601.268    5768.7898    7544.0477    67.925022   -513.04787    582.09912   -3212.1345 
14718000    277.46193   -4716.5394   -4181.4307   -4716.5394            0    5743.0648    19.860511    19.948937    20.657358    8184.3645    6956.1811    4301.3143     5971.699   -675.75158    222.03802    1189.5789   -3495.9353 
14719000    261.50228     -4685.48   -4181.1509     -4685.48            0    8459.8146    19.919675    19.791364    20.617731    8128.2829    8800.9613     8901.565    7676.9177   -104.62327    876.00831    58.779517   -3178.3019 
14720000    256.40778   -4716.6144   -4222.1104   -4716.6144            0       6776.4    19.822285    20.057246    20.473339    8139.7989    5239.0559    7512.6359    7577.5083   -1106.9291    630.61009    -365.0681   -3417.6798 
14721000      257.959   -4697.5569   -4200.0612   -4697.5569            0    9208.4801     20.02133    19.995571    20.294243     8124.555    7132.1817    10706.199    9787.0596   -447.92772    338.95741    1364.3931   -3108.9641 
14722000    254.53707   -4718.5011    -4227.605   -4718.5011            0    6069.5742    19.953452    20.059394    20.437138    8180.0494     6713.737     4700.997    6793.9885   -264.52963   -1685.6952   -37.378945   -3503.5192 
14723000    255.21086   -4693.5205   -4201.3249   -4693.5205            0    9261.5137     19.86122    19.593982    20.826214    8104.7372    9534.6073    10118.176    8131.7581   -511.73038    552.70235    947.68484   -3106.6206 
14724000    259.94061   -4702.4655   -4201.1482   -4702.4655            0    7419.2957    20.130373    19.753833    20.614975    8197.5869    6549.0726    8888.0467    6820.7677   -58.591663    312.86327    102.33784   -3314.1462 
14725000    250.95814   -4694.8668    -4210.873   -4694.8668            0    8603.1499    19.796711    19.950152     20.39259    8054.0006    9101.5313     7550.416    9157.5025    186.36737    691.04905    -709.4426   -3200.3527 
14726000     268.4457   -4720.7058   -4202.9857   -4720.7058            0    7885.1062    20.037464     19.84705    20.555785    8174.7181    6022.7955     9154.058    8478.4649   -258.44964    886.63391    167.86624   -3262.9243 
14727000    285.72676   -4679.9403   -4128.8922   -4679.9403            0    6920.9768    19.771892    20.099307    20.667881    8213.4434    7607.9577    6619.3426    6535.6302   -25.474333   -1836.2564    -82.91015   -3299.8655 
14728000    272.38991   -4681.7519   -4156.4251   -4681.7519            0    8623.6257    19.933494    19.878473    20.469324     8110.917    6608.5274    10537.662    8724.6873   -104.30931    1604.0451    1294.8457   -3136.3415 
14729000    274.92141   -4704.8114   -4174.6023   -4704.8114            0    9500.4187    19.943432     19.71912    20.540607    8077.9415    10257.464     9810.691    8433.1007   -499.17316    147.44928    168.76592   -3055.3723 
14730000      272.126    -4679.715   -4154.8971    -4679.715            0     7335.998    20.061635    20.003062    20.344295    8164.0461    6206.8478    8006.8086    7794.3377   -304.36465   -114.06649    303.84536   -3281.4421 
14731000    268.95623   -4698.4193   -4179.7146   -4698.4193            0    6499.9114    20.010942    19.897743    20.578267    8193.7019     7241.813    5412.1564    6845.7649   -122.99458   -144.38049    971.38497   -3402.9964 
14732000    260.10264   -4689.6697   -4188.0399   -4689.6697            0    7872.1579    19.944725    19.773682    20.807895    8206.2312    6131.5707    11309.866    6175.0374    302.01172    1129.5125   -376.35151   -3245.9043 
14733000    262.71738   -4719.3417   -4212.6692   -4719.3417            0    7141.7771    20.004912    19.854853    20.601102    8182.6464    6327.3519     7263.586    7834.3933   -323.36941    15.146233      -1592.4   -3360.4016 
14734000    274.56979   -4701.9591   -4172.4282   -4701.9591            0    8153.9291    20.104003    19.931699    20.342169    8151.2482    9237.9519    6222.6856    9001.1499   -458.37922    880.67565   -2324.8075   -3203.1087 
14735000    249.44164   -4690.7413   -4209.6721   -4690.7413            0    9081.3841    19.857506    19.853074    20.520032    8089.6643    8303.7958    9046.5594    9893.7972    253.96472    872.68187    480.69692   -3138.2554 
14736000    259.91234   -4709.6767   -4208.4139   -4709.6767            0    8918.1788    19.930517    19.744591    20.551934    8087.5949    5950.3471    11141.472    9662.7175   -1264.3049    494.61066    -238.9536   -3156.5211 
14737000    258.33056   -4694.9121   -4196.6999   -4694.9121            0    8784.7842    19.844536    19.813484    20.653368    8120.6855    8605.8766    9106.5296    8641.9464    95.754322    971.63372    1423.6445   -3156.3015 
14738000    258.30011   -4674.7472   -4176.5937   -4674.7472            0    8211.5101    19.952451    19.727189    20.690446     8143.879    8206.9843    8948.9666    7478.5793   -45.744356    464.46493    1229.8422   -3201.3117 
14739000    261.23575    -4706.525   -4202.7099    -4706.525            0    6655.5955    20.071469    19.973923    20.363495     8163.847    5430.2558    6864.1848     7672.346   -553.02655    196.21575    216.61327   -3410.2858 
14740000    269.38015    -4712.768   -4193.2457    -4712.768            0    7512.7957     19.87746    20.099856     20.51595    8196.8211     7088.267    7148.2535    8301.8666   -469.23982   -337.82423     874.1772   -3295.1494 
14741000    254.92386   -4702.0795   -4210.4374   -4702.0795            0    7129.0902    20.116582    19.781938    20.466541     8144.557    5877.5842    7070.1899    8439.4964   -562.58658      389.861    303.85988    -3363.644 
14742000     255.3673   -4695.1732   -4202.6759   -4695.1732            0     6584.924     19.89132    20.022447    20.611046    8208.8212    7332.2097     6495.676    5926.8864    218.67646    1903.0509   -178.03012    -3414.347 
14743000    265.64833   -4691.4771   -4179.1519   -4691.4771            0    7907.2357    20.045821     19.72674     20.68003    8177.6844    6404.4133    9081.0957     8236.198   -644.03212   -725.28909   -29.688112   -3236.1102 
14744000    265.28801   -4685.5838   -4173.9535   -4685.5838            0    7511.3004    19.890534    20.015299    20.486543         8156    7495.8177     6856.308    8181.7756   -197.99172    281.40769    59.748695   -3280.5077 
14745000    271.00112   -4685.9887   -4163.3403   -4685.9887            0     6738.543     19.98842    20.114196    20.409858    8205.8035    5956.5347    7092.3099    7166.7845    150.13369    -156.3634    384.64074   -3356.9171 
14746000    269.82421   -4697.8191   -4177.4405   -4697.8191            0    6864.3267    19.898037    19.985696    20.481234    8144.8974    8225.2044    6284.2241    6083.5515    482.07031    1527.4593    187.97651   -3362.0616 
14747000    269.99885   -4728.4045    -4207.689   -4728.4045            0    7264.1051    19.864233    20.054851    20.666817    8233.1277    8157.7576    6528.6434    7105.9143   -498.35021   -367.82676   -1072.7328   -3335.4754 
14748000    266.49214   -4693.6411   -4179.6886   -4693.6411            0    5734.2362    20.142717        19.91    20.558534    8244.8254    7241.3541    3660.7524    6300.6021   -80.058899   -1012.6139   -566.70473   -3490.1907 
14749000    241.39247   -4690.6638   -4225.1181   -4690.6638            0    5923.2055    19.872321    19.964213     20.79775    8251.2004    6023.5294    6654.1696    5091.9175   -454.01885    797.74319    786.66354   -3512.3474 
14750000    261.29334   -4651.5602    -4147.634   -4651.5602            0    7758.1126     19.92258    19.835126    20.620975    8148.7264    6501.7881    9408.4742    7364.0754    -1244.908   -1769.0554   -916.60603   -3225.6536 
Loop time of 488.4 on 64 procs for 250000 steps with 972 atoms

Performance: 88.452 ns/day, 0.271 hours/ns, 511.875 timesteps/s
99.1% CPU use with 64 MPI tasks x 1 OpenMP threads

MPI task timing breakdown:
Section |  min time  |  avg time  |  max time  |%varavg| %total
---------------------------------------------------------------
Pair    | 20.932     | 28.639     | 37.571     |  78.3 |  5.86
Bond    | 0.27144    | 0.27851    | 0.28821    |   0.7 |  0.06
Kspace  | 194.57     | 212.17     | 229.94     |  57.8 | 43.44
Neigh   | 3.1047     | 3.9395     | 4.916      |  28.3 |  0.81
Comm    | 99.729     | 112.81     | 126.53     |  76.1 | 23.10
Output  | 1.4935     | 1.4946     | 1.5071     |   0.1 |  0.31
Modify  | 121.8      | 123.16     | 124.44     |   5.8 | 25.22
Other   |            | 5.908      |            |       |  1.21

Nlocal:        15.1875 ave          20 max          10 min
Histogram: 2 1 6 9 5 9 12 9 8 3
Nghost:        2281.52 ave        2322 max        2243 min
Histogram: 4 2 6 15 8 5 11 6 4 3
Neighs:        4820.83 ave        6853 max        2982 min
Histogram: 3 3 9 8 9 16 8 3 4 1

Total # of neighbors = 308533
Ave neighs/atom = 317.42078
Ave special neighs/atom = 2.0000000
Neighbor list builds = 7951
Dangerous builds = 0

unfix		3
unfix		2
unfix		1

write_data	data.final.${pid}
write_data	data.final.0
System init for write_data ...
PPPM initialization ...
  extracting TIP4P info from pair style
  using 12-bit tables for long-range coulomb (../kspace.cpp:340)
  G vector (1/distance) = 0.37176823
  grid = 24 24 24
  stencil order = 5
  estimated absolute RMS force accuracy = 0.0035632422
  estimated relative force accuracy = 1.0730598e-05
  using double precision FFTW3
  3d grid and FFT values/proc = 2197 216
Last active /omp style is kspace_style pppm/tip4p/omp
WARNING: Not all mixed pair coeffs generated from mixing. Use write_data with 'pair ij' option to store all pair coeffs. (../write_data.cpp:312)

write_restart   restart.lmp.${pid}
write_restart   restart.lmp.0
System init for write_restart ...
PPPM initialization ...
  extracting TIP4P info from pair style
  using 12-bit tables for long-range coulomb (../kspace.cpp:340)
  G vector (1/distance) = 0.37176823
  grid = 24 24 24
  stencil order = 5
  estimated absolute RMS force accuracy = 0.0035632422
  estimated relative force accuracy = 1.0730598e-05
  using double precision FFTW3
  3d grid and FFT values/proc = 2197 216
Last active /omp style is kspace_style pppm/tip4p/omp
Total wall time: 0:08:12
