LAMMPS (30 Jul 2021)
Processor partition = 1
  using 2 OpenMP thread(s) per MPI task
using multi-threaded neighbor list subroutines
variable        pid world 0 1
variable        phase world IceIh IceIII

shell cd ${phase}
shell cd IceIII
include Restart.lmp
echo both
log log.lammps
#include		in.partitions
include		in.temp
variable        temperature equal 210.22
variable	tempDamp equal 100.0
include		in.pressure
variable        pressure equal 1643.2
variable        pressureDamp equal 1000.0 # This is 1 ps
include		in.seed
variable        seed equal 745823

units		real
atom_style	full

read_restart	restart.lmp.${pid}
read_restart	restart.lmp.1
Reading restart file ...
  restart file = 30 Jul 2021, LAMMPS = 30 Jul 2021
  restoring atom style full from restart
  orthogonal box = (-0.072273688 -0.040076033 -0.13529360) to (20.072275 20.040077 20.835292)
  4 by 2 by 4 MPI processor grid
  restoring pair style lj/cut/tip4p/long/omp from restart
  restoring bond style harmonic/omp from restart
  restoring angle style harmonic/omp from restart
  972 atoms
  648 bonds
  324 angles
Finding 1-2 1-3 1-4 neighbors ...
  special bond factors lj:    0        0        0       
  special bond factors coul:  0        0        0       
     2 = max # of 1-2 neighbors
     1 = max # of 1-3 neighbors
     1 = max # of 1-4 neighbors
     2 = max # of special neighbors
  special bonds CPU = 0.002 seconds
  read_restart CPU = 0.009 seconds
include 	in.setup
variable	out_freq equal 1000
variable	out_freq2 equal 10000
variable	out_freq3 equal 1000

timestep	2.0

neigh_modify    delay 7 every 1

include		in.tip4p
# This is TIP4P/Ice

# create groups ###
group ox type 2
324 atoms in group ox
group hy type 1
648 atoms in group hy

# set charges - beside manually ###
set group ox charge -1.1794
Setting atom values ...
  324 settings made for charge
set group hy charge 0.5897
Setting atom values ...
  648 settings made for charge

# ### TIP3P Potential Parameters ###
pair_style lj/cut/tip4p/long/omp 2 1 1 1 0.1577 8.5
pair_coeff 1 1*2 0.000 0.000
pair_coeff 2 2 0.21084 3.1668
bond_style  harmonic
bond_coeff  1 450 0.9572
angle_style harmonic
angle_coeff 1 55 104.52
kspace_style pppm/tip4p/omp 1.0e-5
pair_modify tail yes

thermo          ${out_freq}
thermo          1000
thermo_style    custom step temp pe etotal epair emol press lx ly lz vol pxx pyy pzz pxy pxz pyz enthalpy

restart 	${out_freq3} restart.lmp.${pid} restart2.lmp.${pid}
restart 	1000 restart.lmp.${pid} restart2.lmp.${pid}
restart 	1000 restart.lmp.1 restart2.lmp.${pid}
restart 	1000 restart.lmp.1 restart2.lmp.1


include         in.dump
dump            myDump all atom ${out_freq2} dump.water.${pid}
dump            myDump all atom 10000 dump.water.${pid}
dump            myDump all atom 10000 dump.water.1
dump            myDump2 all dcd ${out_freq2} dump.dcd
dump            myDump2 all dcd 10000 dump.dcd
dump_modify     myDump append yes
dump_modify     myDump2 append yes


variable natoms 	equal  "count(all)"                        # NUMBER ATOMS
variable H      	equal  "enthalpy/v_natoms"                 # ENTHALPY-per-atom
variable Vol      	equal  "vol/v_natoms"                 # volume-per-atom
fix AVG all 		ave/time ${out_freq} 1 ${out_freq} v_Vol v_H file vol_enthalpy.dat
fix AVG all 		ave/time 1000 1 ${out_freq} v_Vol v_H file vol_enthalpy.dat
fix AVG all 		ave/time 1000 1 1000 v_Vol v_H file vol_enthalpy.dat


timer           timeout 02:55:00 every 1000
New timer settings: style=normal  mode=nosync  timeout=02:55:00

fix 		1 all shake 1e-6 200 0 b 1 a 1
Finding SHAKE clusters ...
       0 = # of size 2 clusters
       0 = # of size 3 clusters
       0 = # of size 4 clusters
     324 = # of frozen angles
  find clusters CPU = 0.006 seconds
fix             2 all nph aniso ${pressure} ${pressure} ${pressureDamp}
fix             2 all nph aniso 1643.2 ${pressure} ${pressureDamp}
fix             2 all nph aniso 1643.2 1643.2 ${pressureDamp}
fix             2 all nph aniso 1643.2 1643.2 1000
fix             3 all temp/csvr ${temperature} ${temperature} ${tempDamp} ${seed}
fix             3 all temp/csvr 210.22 ${temperature} ${tempDamp} ${seed}
fix             3 all temp/csvr 210.22 210.22 ${tempDamp} ${seed}
fix             3 all temp/csvr 210.22 210.22 100 ${seed}
fix             3 all temp/csvr 210.22 210.22 100 745823


run             250000
PPPM initialization ...
  extracting TIP4P info from pair style
  using 12-bit tables for long-range coulomb (../kspace.cpp:340)
  G vector (1/distance) = 0.37186246
  grid = 24 24 25
  stencil order = 5
  estimated absolute RMS force accuracy = 0.003474557
  estimated relative force accuracy = 1.0463525e-05
  using double precision FFTW3
  3d grid and FFT values/proc = 3458 576
Last active /omp style is kspace_style pppm/tip4p/omp
Neighbor list info ...
  update every 1 steps, delay 7 steps, check yes
  max neighbors/atom: 2000, page size: 100000
  master list distance cutoff = 10.8154
  ghost atom cutoff = 10.8154
  binsize = 5.4077, bins = 4 4 4
  1 neighbor lists, perpetual/occasional/extra = 1 0 0
  (1) pair lj/cut/tip4p/long/omp, perpetual
      attributes: half, newton on, omp
      pair build: half/bin/newton/omp
      stencil: half/bin/3d
      bin: standard
Setting up Verlet run ...
  Unit style    : real
  Current step  : 8750000
  Time step     : 2
  Walltime left : 2:54:59.92
Per MPI rank memory allocation (min/avg/max) = 10.19 | 10.19 | 10.20 Mbytes
Step Temp PotEng TotEng E_pair E_mol Press Lx Ly Lz Volume Pxx Pyy Pzz Pxy Pxz Pyz Enthalpy 
 8750000    222.43103    -4796.112    -4367.135    -4796.112            0    1030.4197    20.144548    20.080153    20.970585    8482.7195    1002.7067     740.6176    1347.9349    344.73659   -192.56612   -558.42622     -4239.66 
 8751000    203.32665   -4803.2227   -4411.0901   -4803.2227            0     958.4836    20.035671    20.246684    20.964001    8504.1707    1079.8172    644.28242    1151.3511   -101.83512    484.29988    449.05362   -4292.2146 
 8752000    211.28942   -4797.4442   -4389.9547   -4797.4442            0    1717.0456    19.932219    20.182383    21.200473    8528.5198    3365.0959   -100.10347    1886.1444   -565.93829   -427.15877   -953.24658   -4176.3891 
 8753000    213.24612   -4811.9701   -4400.7071   -4811.9701            0    1629.4477    20.030349    20.107263    20.986371    8452.3762    1372.4955    1766.7292    1749.1183   -281.62024   -365.57824   -55.186833   -4199.8463 
 8754000    206.68238   -4827.8496   -4429.2453   -4827.8496            0    826.52204    20.247596    20.024172    20.914584    8479.6374    1278.6206   -97.549468     1298.495   -669.49163   -517.17836    1068.7512   -4327.0319 
 8755000    197.41329    -4782.349   -4401.6208    -4782.349            0    3065.0816    20.172781    20.116481    20.773802    8430.1204    3752.7663     2195.443    3247.0355   -10.817003    775.76697    1546.7474   -4024.7854 
 8756000    214.22521   -4797.4663   -4384.3149   -4797.4663            0    1552.6494    20.058089    20.094999    21.012545     8469.469    1364.7758    1883.1315     1410.041   -335.01927    1013.1485   -62.410648    -4192.534 
 8757000    202.57758   -4790.1547   -4399.4668   -4790.1547            0    633.93657    20.091397    20.032349    21.098351    8491.6198   -676.74364    1952.5476    626.00578   -274.37799   -481.18232   -380.94446   -4320.9591 
 8758000    212.70798   -4804.9094   -4394.6842   -4804.9094            0     2222.947    19.954379    20.145149    20.966897    8428.3557    2630.6951    2962.7938    1075.3522   -199.04017   -646.22492    485.73805   -4121.4419 
 8759000    221.73296    -4804.639   -4377.0083    -4804.639            0    2934.4971    20.023208    20.055836    20.961317    8417.6912    4251.8432    2402.4105    2149.2376    367.17801   -452.40913   -356.20567   -4016.7595 
 8760000    210.32688    -4791.675   -4386.0419    -4791.675            0    2345.4161    20.068862    19.980788    21.323529    8550.5575    3861.9971    1228.9878    1945.2634   -27.794129    691.37627    1645.6649   -4093.5659 
 8761000    209.75046   -4805.3238   -4400.8024   -4805.3238            0    2571.1264    20.164164    19.946327    20.919705    8413.9262    1234.8401    3417.7869    3060.7522   -181.28977    1011.9788   -778.18685   -4085.3034 
 8762000    224.34257   -4791.1767   -4358.5131   -4791.1767            0    2713.4689    20.110745    20.219829    20.799138    8457.6748     2515.766    2232.7431    3391.8974   -415.51968    150.93249    715.13258   -4023.8162 
 8763000    219.05617   -4788.9715   -4366.5032   -4788.9715            0    871.49431     19.87949    20.200031      21.1983    8512.5231    1623.4557    35.736632    955.29062   -186.16049   -1496.3128   -1175.4981   -4258.3103 
 8764000    212.58228   -4819.3108    -4409.328   -4819.3108            0    1619.1932    20.094136    20.148481    20.910946    8466.1374    1667.1329    1681.0381    1509.4084   -356.63311    335.76355    496.16928   -4209.4063 
 8765000    213.82879   -4820.6591   -4408.2723   -4820.6591            0    544.28489    20.197669    20.047802     21.03329    8516.7758    943.24696   -248.54121    938.14894   -911.02136    377.59938    -548.5297   -4340.6676 
 8766000    201.10952   -4787.5958   -4399.7391   -4787.5958            0    542.84402    20.171349     20.15188    21.112768    8582.1417     1714.258   -3.2404217   -82.485521   -549.10425   -6.1629247   -705.59569   -4331.7958 
 8767000     204.7979   -4800.8822   -4405.9122   -4800.8822            0    1386.4883    20.068102    20.160859    21.000579     8496.628    1854.2233     961.3107    1343.9311   -263.16082    978.67047   -767.64412    -4234.106 
 8768000    192.64183   -4790.9576   -4419.4316   -4790.9576            0    394.78403    20.115049    20.362992    20.625252    8448.1562    2129.3729   -1723.7213    778.70045    244.86403       -457.4    1180.7578   -4370.7912 
 8769000    206.13809   -4800.0583   -4402.5037   -4800.0583            0    852.89023    20.026209     19.97762    21.100901    8441.9637   -54.433457    2348.4312    264.67297    381.13536    764.01396     425.5421   -4297.4981 
 8770000    211.29344    -4818.794   -4411.2968    -4818.794            0      372.687    20.226243    20.154892    21.005743     8563.154    304.21229     68.66013    745.18859    703.79689   -1140.0291    272.59195   -4364.7539 
 8771000    203.65535   -4816.4426   -4423.6761   -4816.4426            0    4212.0305    19.995145    20.032945    20.908937     8375.318    3535.4619    3794.5859    5306.0438   -461.20531   -408.56455   -911.04567   -3909.1959 
 8772000    217.23868   -4814.8717   -4395.9087   -4814.8717            0    1655.1701    19.951382    20.102583    21.145961    8481.1018    2899.6093     830.7384    1235.1625   -35.454644    275.56797   -680.01423   -4191.1837 
 8773000    213.23283   -4829.4815   -4418.2441   -4829.4815            0    989.14092    20.113491    20.304016     20.94528    8553.7311     2680.929   -1264.6981    1551.1919    144.93892   -128.46491   -27.255434   -4294.8513 
 8774000    231.50802   -4808.5516   -4362.0689   -4808.5516            0    2572.6533    20.085615    19.934936    21.144257    8466.2759    1300.2205    4946.9845    1470.7548    196.50546    264.94662    1079.3303   -4044.4184 
 8775000    222.85873   -4806.4673   -4376.6655   -4806.4673            0    3146.8578    20.132461    20.049688    20.835024     8410.048    3435.1973    2042.4473    3962.9287    461.12947    704.48917    724.75516   -3990.6973 
 8776000    215.61543   -4787.1627   -4371.3302   -4787.1627            0    2465.5052    20.288017    19.966379     20.99531    8504.7431    2160.5127    3183.3195    2052.6834    233.40546   -268.87139   -95.611446   -4065.5264 
 8777000    230.96892   -4814.7961   -4369.3531   -4814.7961            0    985.16964    20.027599    20.063916    21.135026    8492.7316    1278.8516    1573.4019    103.25534    -165.4249   -1158.1739    -145.9961   -4247.3322 
 8778000    212.54545   -4822.0874   -4412.1757   -4822.0874            0    1439.7099    20.128938    20.168533    20.913612    8490.3231    2431.2032    438.22429    1449.7023   -437.02444    625.04679    319.28393    -4233.907 
 8779000    208.64701   -4797.7803    -4395.387   -4797.7803            0    329.06949    20.204732    20.207613    20.855815    8515.2084   -60.781431    822.77508    225.21482    -188.6051   -378.58423    655.32536   -4354.5213 
 8780000    214.03362   -4791.7617   -4378.9798   -4791.7617            0    2564.4066     20.18636    19.850639    21.007579    8417.9918    710.78249    5463.9537    1518.4835   -157.83073   -182.22878   -573.20824   -4064.1533 
 8781000    212.59337   -4786.0245   -4376.0203   -4786.0245            0    744.87227    20.169202    20.198915    20.958396    8538.3663    526.26044    1024.8296    683.52673   -51.410594   -508.16429   -133.06752   -4283.2663 
 8782000    207.73144   -4786.3314   -4385.7039   -4786.3314            0    1596.3752     20.12585    20.162509    20.933741    8494.6534    1344.4966    1155.6209    2289.0081    341.77615    119.25568   -730.26422   -4187.9356 
 8783000    205.46733   -4788.8387   -4392.5776   -4788.8387            0    2205.4365    20.144072    20.037532    21.193417    8554.4574    3159.8099    2195.2462    1261.2534    176.24766    221.60595     1170.952   -4117.4318 
 8784000    203.05687   -4804.0619   -4412.4497   -4804.0619            0    2217.1712    19.991896    19.958981    21.140334    8435.3712    1474.8324    4529.2837    647.39741   -171.50394   -359.02068     1086.267   -4139.6905 
 8785000    203.34513   -4829.5201   -4437.3519   -4829.5201            0    3114.5923    20.044164    20.144704    20.824562    8408.6198    3754.7849    2284.3806    3304.6115    181.61663   -363.56667    884.77784   -4055.4061 
 8786000    203.23865   -4814.5648   -4422.6019   -4814.5648            0    2734.4192    20.015248    20.088259    21.007687    8446.5919    2511.8044    3969.8757    1721.5777   -361.35964    162.06352   -770.15779   -4085.7628 
 8787000    217.26552   -4821.4438    -4402.429   -4821.4438            0    1443.0899    20.133429    20.128393    21.066279     8537.185     1230.815    1075.3167     2023.138    -291.2389    966.08684    679.35616   -4222.7555 
 8788000    203.09663   -4774.5101   -4382.8211   -4774.5101            0    983.52204    20.006799    19.974319    21.055061    8414.0697    415.14556    1539.4547    995.96586   -23.184793    812.60813   -1555.2249   -4262.1326 
 8789000    211.39343   -4822.5857   -4414.8956   -4822.5857            0    703.57129    20.199057    20.135955    21.014459    8547.1541     422.1571    1454.8903    233.66644   -692.64674   -648.80838   -175.94226   -4327.1944 
 8790000    210.82563   -4807.7812   -4401.1863   -4807.7812            0    1542.2763    20.208521    19.985503    20.905098    8443.0977    405.92482    1811.8975    2409.0065    75.947169    1309.8999   -1014.9706   -4211.2797 
 8791000    209.81964   -4795.8211   -4391.1663   -4795.8211            0    715.29588    20.105225    19.859104    21.218925    8472.1173   -364.40712    2338.8806    171.41412   -600.51473    510.66109   -877.32036   -4302.7863 
 8792000     216.8711   -4822.0019   -4403.7478   -4822.0019            0     1995.312    20.116125    20.103902    20.899842    8452.1598    2355.3508    2427.4014    1203.1839    820.94272   -933.44543    592.24737   -4157.7935 
 8793000    220.02525   -4805.9791   -4381.6419   -4805.9791            0    814.46933    20.224396    20.050797    21.108306    8559.7404     1887.425   -599.36077    1155.3438   -399.19244    224.52754   -1356.3148   -4279.9676 
 8794000     205.8168   -4821.5888   -4424.6538   -4821.5888            0    2475.5485    20.065373    19.955086    21.080797    8440.8826    2750.9072    3565.1426    1110.5958   -575.82576    371.12882   -816.57375   -4119.9098 
 8795000    199.50862   -4815.0395   -4430.2703   -4815.0395            0    2257.2911    20.153403    20.183854    20.814159    8466.6449     3019.867    584.42624      3167.58    140.61552    1573.1203   -72.524244   -4151.5461 
 8796000    211.53165   -4828.9148   -4420.9583   -4828.9148            0    1527.7057    20.161743    20.098258    20.885353    8463.0773    1186.3717    2402.3455    994.39987   -198.73165   -1212.2272   -797.24222   -4232.4007 
 8797000    207.02553   -4801.5273   -4402.2612   -4801.5273            0    2574.6372    20.062937    20.151595    20.920207    8458.0436    2963.3983    1640.2965    3120.2169     256.2666    577.40265    1053.5089   -4084.6748 
 8798000    210.18409   -4830.6079   -4425.2502   -4830.6079            0    1824.2446    20.010765    20.025113    21.132681     8468.242    2628.1754    1679.2936    1165.2647    457.43852   -197.24109   -62.981568   -4199.9549 
 8799000    217.49385   -4811.4141    -4391.959   -4811.4141            0    1329.5057     20.07058    20.003893    21.073615    8460.8402    319.41436    2599.9416    1069.1611    94.966804     866.3941    494.40128   -4227.9077 
 8800000    207.23126   -4817.9413   -4418.2784   -4817.9413            0    1893.2625    20.129291    20.090129    20.961437    8476.8061    2282.4408    1471.0909    1926.2557   -508.63941   -151.51914    976.90658   -4184.2228 
 8801000    218.17194   -4764.7778   -4344.0148   -4764.7778            0   -113.65894     20.10779    20.203535    21.202546    8613.5013    1495.4246   -1521.7462   -314.65519   -277.76842    398.10941   -350.79888   -4358.2925 
 8802000    200.13354   -4806.7816   -4420.8072   -4806.7816            0    836.74272    20.183373    20.055807    21.055694    8523.2149   -46.770391    966.52139    1590.4771    29.922147    1510.4117   -266.02498   -4316.7981 
 8803000    202.69122   -4820.9695   -4430.0624   -4820.9695            0    1896.5872    20.129655    20.030489    20.918222    8434.3702    1374.4208    2135.9878    2179.3531   -266.79105    233.44959   -63.444669   -4196.7696 
 8804000    211.27434   -4789.0321   -4381.5717   -4789.0321            0    3039.3213    20.007996    20.046054    20.952975    8403.8479     2274.927    3240.4233    3602.6137    121.38016    598.26872   -960.02309   -4009.0679 
 8805000     209.0272   -4800.0533   -4396.9268   -4800.0533            0    1569.2422    20.030263    20.190541    21.022411    8501.9222    1253.9713    2110.7252    1343.0301    604.23393    508.62174    657.13702   -4202.3536 
 8806000     215.6961    -4783.508   -4367.5199    -4783.508            0    1270.9915    19.980216    20.206763    20.873832    8427.5069    829.65671    1422.9413    1560.3767   -556.18421    365.87177   -759.12271   -4211.3067 
 8807000    201.46154   -4816.0498   -4427.5143   -4816.0498            0    990.77342    20.238379    20.082314    21.026254    8545.7735    398.18651    705.06366    1869.0701    -148.1999    131.12804   -378.30935   -4304.0329 
 8808000    212.75877   -4808.0996   -4397.7764   -4808.0996            0    1707.4529    20.257401      19.9075    21.050281    8489.0352    -107.7448    4614.5633    615.54031   -309.19767      627.991   -44.423514   -4186.3872 
 8809000    206.44816   -4808.4971   -4410.3444   -4808.4971            0    605.86431    20.203678     20.06475    20.998938    8512.5861    1297.0916   -183.15537    703.65667   -541.39145    108.92129   -52.582167    -4335.128 
 8810000    209.46518   -4807.6743   -4403.7031   -4807.6743            0    2000.4388    20.190463    20.197679    20.768193    8469.2793    1980.3335    1833.9825    2187.0004    196.49365   -256.01821   -120.26007   -4156.6174 
 8811000    215.00617   -4801.2805   -4386.6231   -4801.2805            0    2076.5705    19.936132    20.061511    21.048756    8418.4276    2684.0354    2388.5647    1157.1114     809.1792     984.5358   -947.03292   -4131.6739 
 8812000    215.83458   -4773.7231   -4357.4679   -4773.7231            0    1982.5032    20.032229     20.17681    21.045706    8506.3895     1291.634    1599.6574    3056.2182    410.52264   -905.55761    553.67123   -4111.5246 
 8813000     213.8625   -4791.0885   -4378.6366   -4791.0885            0    224.47915    20.456763     20.08114    20.813414     8550.049   -35.117244    376.90441     331.6503    70.493667   -259.53447    1110.1774   -4350.6455 
 8814000    216.53508   -4819.4716   -4401.8655   -4819.4716            0    1697.8124    20.118597    19.883638    21.102492     8441.649   -47.415779    2928.1948    2212.6582   -81.755455    193.45249   -810.70316    -4192.843 
 8815000    210.12411   -4813.8547   -4408.6126   -4813.8547            0    1677.2216    20.145116    19.871529    21.174826    8476.5844    2095.8118    1092.0472    1843.8057   -524.40597    -1485.732    224.20467   -4201.2707 
 8816000    212.69102   -4776.8332   -4366.6407   -4776.8332            0     1315.779    20.131152    20.143618    20.861702    8459.7172    888.43037    1220.0741    1838.8326    398.34871   -37.247497    503.55331   -4204.3048 
 8817000    209.57965   -4811.4201   -4407.2281   -4811.4201            0    1509.4583    20.053231    20.228047    20.784498    8430.9761    816.87959     2218.832    1492.6633    324.31035    552.91819    9.1962086   -4221.6294 
 8818000    204.50481   -4797.5006   -4403.0959   -4797.5006            0    878.52704    20.103069    20.141582    21.189256    8579.6912    1483.7008    620.84882    531.03147   -410.87504    131.26049   -206.41396   -4293.1693 
 8819000    202.46526    -4821.172   -4430.7007    -4821.172            0    1232.4583    20.159004    20.015699    20.992794    8470.5199   -157.23819    4041.5208   -186.90771   -816.36177   -62.558566   -614.78494   -4278.4504 
 8820000    206.41617    -4791.958   -4393.8671    -4791.958            0    922.31671     20.17748    20.207909    20.907429    8524.8924    267.22231    442.61543    2057.1124    285.84553    -291.4272     955.4343   -4279.1984 
 8821000    215.75396   -4812.1091   -4396.0094   -4812.1091            0    540.18779    20.035987    20.173639    21.181162       8561.4    1931.2139    183.31378   -493.96429   -705.37922   -79.705415   -984.30647    -4328.562 
 8822000    233.92276   -4801.0441   -4349.9044   -4801.0441            0    1465.8594    20.176518    20.160406    21.002373    8543.0676    3277.6633   -50.392228    1170.3072    108.81896    1144.9111    1158.8965   -4167.2702 
 8823000    196.31729   -4810.8991   -4432.2847   -4810.8991            0    2968.1206    20.141189    20.084196    20.779153    8405.5747    4122.6906    1878.8504    2902.8208    522.67728    655.21372    507.09786   -4068.4326 
 8824000    210.22006   -4826.9595   -4421.5324   -4826.9595            0    3515.2662    19.813067    20.058038    21.098872    8384.9288    3748.0477    2813.3959     3984.355   -160.91927     1261.728    1875.9717    -3991.666 
 8825000    201.19418   -4795.1222   -4407.1023   -4795.1222            0    2893.4727    20.111806    20.169344    20.881692    8470.4898     4348.848    1351.2446    2980.3256    -34.38226    387.64941    434.27878   -4049.6617 
 8826000    207.24676   -4803.5815   -4403.8887   -4803.5815            0     948.2222    20.162019    19.925416    21.133785    8490.2152    897.95875    2077.1876   -130.47977   -362.59611      -36.957    1115.0845   -4286.4788 
 8827000     194.5304   -4811.9389   -4436.7706   -4811.9389            0    1689.2381    20.123691    19.926029    21.090012    8456.7835     2763.329    872.44813    1431.9372   -550.71954    163.69746   -1354.5816    -4228.431 
 8828000    211.95283   -4779.8423   -4371.0734   -4779.8423            0    1048.7467    20.212263    20.243818    20.805488    8513.0517   -968.40566    1620.0846    2494.5612    285.51398    1.3587604   -253.74413   -4240.8672 
 8829000    200.69854   -4804.1093   -4417.0453   -4804.1093            0    3130.5079    19.987264    20.138536    20.914633    8418.4375    2497.1113    4360.7286    2533.6837    311.12617    760.70711    222.31866   -4032.6994 
 8830000    212.06233   -4792.1917   -4383.2117   -4792.1917            0   -288.68264    20.049528    20.146088     21.22743    8574.1744   -320.40558   -552.64277    7.0004419   -100.18081    908.78998   -234.42577   -4419.3102 
 8831000    210.27202   -4796.2534   -4390.7261   -4796.2534            0    966.08179    20.132825    20.233425    20.802646    8474.0826    928.27153    45.515419    1924.4584    522.61525    1211.3308     912.3385   -4271.3321 
 8832000    211.27471   -4827.9725   -4420.5115   -4827.9725            0    2532.6338    20.160949    19.945041    20.886266    8398.5966    887.10151    4266.4255    2444.3743    191.79931   -1612.5692    1273.5822    -4110.302 
 8833000    216.88667   -4805.5549   -4387.2708   -4805.5549            0     1065.285    20.058846    20.090151    21.183469    8536.6254    1549.3752    1059.8792    586.60046    -494.5503    -547.8565    720.97712    -4254.645 
 8834000     219.6689   -4791.0292   -4367.3793   -4791.0292            0    1591.5334    20.099222    20.142818    20.959201    8485.4369    2359.4033    939.17327    1476.0236   -192.63655      1122.86   -266.20123   -4170.4248 
 8835000    206.82832   -4822.7306   -4423.8448   -4822.7306            0    2594.3347    20.223436    20.114152    20.910102     8505.754    1379.6566    2911.1064    3492.2411    699.92218    974.33333    444.03326   -4102.0235 
 8836000    205.25172   -4809.3424   -4413.4972   -4809.3424            0    995.82433     20.08516     20.10262    20.918681    8446.2174    769.04476    1366.7183    851.70993    218.39657   -300.06217   -247.22356   -4290.8321 
 8837000    206.96455     -4805.84   -4406.6914     -4805.84            0    2171.0402    19.952014    20.079123    21.051423    8433.5985      2436.49    2192.8541    1883.7764   -444.01821   -9.1255568    148.04681   -4139.6635 
 8838000     206.3898   -4803.5447   -4405.5046   -4803.5447            0    1266.9193    20.129393    20.110557    20.990991    8497.4323    698.25543    866.90949    2235.5931    -467.4746    928.42732   -398.52706   -4248.4999 
 8839000    200.16735    -4828.091   -4442.0515    -4828.091            0    1397.1247    20.296696    19.908861    21.049995    8505.9682    224.32864    1765.3151    2201.7304    244.08436     202.1962    198.77128    -4268.737 
 8840000    203.75836   -4802.8657   -4409.9006   -4802.8657            0    41.054869    20.017429    20.155716    21.200199    8553.5517    844.21567    213.91536   -934.96642    402.27533   -314.77413     -536.423   -4404.7792 
 8841000    206.70764   -4810.7641   -4412.1111   -4810.7641            0    2786.2277    19.998082    20.274802    20.674522    8382.6327    2798.2169    1791.2914    3769.1748   -403.82471    670.03718   -716.45285   -4071.4889 
 8842000    208.32747   -4810.5512   -4408.7741   -4810.5512            0     1180.381    19.972698    20.215962    21.088934    8515.0222    2108.9997    527.60306    904.54026   -442.90967    1025.5258    400.96868    -4262.191 
 8843000    221.03125   -4805.4259   -4379.1485   -4805.4259            0    1384.9681    20.369408    19.940634    20.814413    8454.3758    238.93005    1737.4925    2178.4817   -142.18718    738.21644   -872.95735   -4208.3842 
 8844000    206.78035   -4805.8431   -4407.0498   -4805.8431            0    22.288244    20.191877    20.113516    21.074008    8558.7792   -968.24288    602.56859    432.53902   -516.22776    857.16357   -1108.2065   -4404.2677 
 8845000    203.58931    -4824.946   -4432.3069    -4824.946            0    2935.4162    19.858723    20.099817    21.077387    8413.1805    3065.6381    3350.8082    2389.8023    284.45699    950.82248    126.55669   -4072.1383 
 8846000    209.30174    -4798.432    -4394.776    -4798.432            0    2029.4097    20.288071    20.113587    20.943829    8546.4622    1058.3766    2161.8476     2868.005    461.42263    499.61646    486.07796   -4141.8276 
 8847000    204.49572   -4791.1416   -4396.7544   -4791.1416            0    2023.4779    20.064008     19.95373    21.175206    8477.5319    1825.6424    2843.3789    1401.4123    -429.0727    522.28733   -484.90277   -4146.5794 
 8848000    212.80462   -4812.2773   -4401.8657   -4812.2773            0    2090.4911     20.10935    19.884214     21.16687    8463.7556    159.80844    3610.0732    2501.5916   -325.98129     129.3055    19.278042   -4143.8256 
 8849000    206.35263    -4798.847   -4400.8787    -4798.847            0    1583.1377    20.080317    20.167434    20.886196    8458.2507    1172.1373    1246.0869    2331.1891    365.58348   -493.39832    437.30279   -4205.5908 
 8850000    208.53783   -4803.2094   -4401.0266   -4803.2094            0    2226.7124    20.028629    20.018229    21.032431    8432.6944     1588.602     3493.135    1598.4002    327.36806    504.94352   -0.8894737   -4127.1806 
 8851000    201.52346   -4826.7475   -4438.0925   -4826.7475            0   -1019.7916    20.115947    20.159217    21.181689    8589.6352    532.20894   -1564.1573   -2027.4265   -260.07468    296.59579   -1494.6912   -4565.8429 
 8852000    217.78503   -4817.5661   -4397.5494   -4817.5661            0    1850.8617    20.228158    20.023489    20.876155    8455.6421    2010.0569    1151.9925    2390.5357    232.84829    -1108.776   -202.20836   -4169.3069 
 8853000    215.41796   -4797.4352   -4381.9835   -4797.4352            0    1483.2941    20.224392    19.774224    21.220309    8486.4613    592.75769    3027.7714    829.35324    335.04015    35.527205    97.857389   -4198.4017 
 8854000    215.12295   -4805.8895   -4391.0068   -4805.8895            0     1650.843    20.224456    20.019377    20.873211    8451.1667    1108.8104    1450.0494    2393.6691   -21.180256    398.73766    440.29633   -4187.5377 
 8855000    214.90099   -4774.9291   -4360.4745   -4774.9291            0    2527.7703    20.155176    19.953463    20.912833    8410.4215    4316.0163      1059.11    2208.1847   -132.63673   -598.09603    139.68702   -4050.4248 
 8856000    204.75354   -4818.1387   -4423.2543   -4818.1387            0    2225.5408      19.9816    20.057386    21.109602    8460.2784    4193.4979    789.32192    1693.8025    281.65361   -698.41301    247.34261   -4148.6571 
 8857000    217.31673   -4814.6125   -4395.4989   -4814.6125            0    169.86924    19.894982    20.184205    21.079874     8464.927    400.54356   -187.17025    296.23441    140.50722   -1551.0041    1161.0054   -4374.5281 
 8858000    220.48559    -4808.214    -4382.989    -4808.214            0    1603.0359    20.178316    20.038356    20.974428    8480.8063    1276.4621      1981.05    1551.5956    504.63055    1281.8137   -1188.0478   -4184.7194 
 8859000     215.1983   -4816.8698   -4401.8418   -4816.8698            0    820.34706    20.295945    20.011755    20.958447    8512.4299   -157.02751    1908.3939    709.67478   -249.13594   -138.36316    318.60363   -4299.9997 
 8860000    216.32482   -4798.7169   -4381.5163   -4798.7169            0    1951.4379    20.073042    19.977552    21.208522    8504.8346    2698.3834    2728.2136    427.71681    -276.4668   -366.18521    730.58113   -4139.4711 
 8861000    219.76943   -4803.7577   -4379.9139   -4803.7577            0    2663.2744      20.2156    20.009941    20.902036    8455.1441    2028.4255    3481.1225    2480.2753   -474.36905    724.64389    82.046026   -4051.5066 
 8862000    209.38175   -4791.8633   -4388.0529   -4791.8633            0     1144.361    20.158108    20.134478    20.922884    8492.0332    405.99466    1015.9518    2011.1365    152.91803    245.17869   -668.33924   -4246.3266 
 8863000      205.621   -4826.3893   -4429.8319   -4826.3893            0    625.40411    20.087044    20.099667    20.985956    8472.9305   -18.754593    401.59485    1493.3721   -436.42272   -175.45672    -878.4901   -4352.5513 
 8864000    206.11901   -4786.6766   -4389.1588   -4786.6766            0    1256.1541    20.390875    19.898953    20.861291    8464.6163    60.267122    1708.6502     1999.545    158.35708   -575.62049    563.92174   -4234.0894 
 8865000    202.80899   -4789.5558   -4398.4216   -4789.5558            0    2420.3066    20.224271    20.002858     20.97413     8484.942    2410.8943    2185.1263    2664.8991    482.75291    691.26342   -140.31858   -4098.9227 
 8866000    203.64458   -4814.3756   -4421.6299   -4814.3756            0    2056.6676    19.879334     20.13402    20.994407    8403.0304    3632.7922    996.32059    1540.8901   -379.29043   -1091.9382    625.21791   -4169.5861 
 8867000    192.37433   -4794.8248   -4423.8147   -4794.8248            0    1173.0208    20.055376     20.19036    20.983183    8496.6209    998.42808     1465.703    1054.9314    288.07104   -320.05781   -778.83316   -4278.4604 
 8868000    203.60673   -4802.6914   -4410.0187   -4802.6914            0    3961.5973    19.984448    20.200069    20.793825    8394.2016      3299.13    3132.0471    5453.6146   -618.96534    129.84188   -615.45798   -3925.0367 
 8869000    206.21593   -4821.8813   -4424.1765   -4821.8813            0    970.29358    20.081813    20.067197    21.088086    8498.1973    1796.1171    -80.63535     1195.399   -411.20018   -1138.7975    334.22407   -4303.9207 
 8870000    207.26545    -4800.485   -4400.7561    -4800.485            0    1568.6387    20.060197    20.180154    20.922539    8469.8176     2281.333    826.12563    1598.4575    -183.3982   -870.97968   -326.31308   -4206.9922 
 8871000    208.29353   -4832.6259   -4430.9143   -4832.6259            0    2314.8669    20.307829    19.993919    20.783497    8438.7873    -107.4742      3496.91     3555.165    -930.2729    197.01956     1273.338   -4146.0212 
 8872000    214.60178   -4794.7005   -4380.8229   -4794.7005            0    2048.9852    20.072252     20.00985    21.155714     8497.039    1514.8324    2356.4587    2275.6645    348.34549    96.099466   -862.77251   -4126.9114 
 8873000    218.27443   -4819.5055   -4398.5449   -4819.5055            0    2662.8962    20.239743    20.049537    20.799518    8440.3923    556.04236    4456.6048    2976.0416   -290.51516    376.82887    132.56689   -4070.7571 
 8874000    211.60123   -4806.6339   -4398.5431   -4806.6339            0    1590.7468    20.354908    19.989519    20.913113    8509.2282    277.12738      2372.69     2122.423   -237.15721    1316.1185   -114.76525    -4201.134 
 8875000    214.94677   -4791.9383   -4377.3953   -4791.9383            0    2150.0676    20.124849     19.95991    21.054598    8457.4249    2044.8659    2651.7168      1753.62    419.45153   -480.41022   -549.66567   -4112.1998 
 8876000       199.39   -4810.8201   -4426.2797   -4810.8201            0    3015.0931    20.167631      20.0027    20.977069    8462.2979    3084.3361    3116.6101     2844.333   -526.49975   -1157.4963    692.55311   -4054.1752 
 8877000    209.99714   -4815.0885   -4410.0914   -4815.0885            0    1572.1759    20.147268    19.959365    20.929708    8416.3937    1380.4028    2109.9029    1226.2219    191.16953   -575.19704   -1779.1351   -4217.1155 
 8878000    210.61182   -4820.0294   -4413.8468   -4820.0294            0    912.68341    20.008729    20.065341    21.129322    8483.0419    480.01709    1420.4961    837.53703    636.71986    133.43076    1338.4991   -4300.9328 
 8879000    217.56933   -4787.6198    -4368.019   -4787.6198            0    733.58518    20.095499    20.080344    21.059195    8497.9017    641.87074   -162.54883    1721.4336   -483.12244   -188.23029   -794.06629   -4277.1035 
 8880000     194.9676   -4812.9869   -4436.9755   -4812.9869            0    358.47161    20.403336    20.070148    20.990516    8595.5735   -758.99648    873.36132       961.05    325.44242    995.41867    24.446412   -4392.0384 
 8881000    202.71763    -4830.751    -4439.793    -4830.751            0    1587.1707    20.135882    20.037019    21.110436     8517.281      858.392    1641.3707    2261.7493   -83.296397   -485.02746    834.84921   -4242.6413 
 8882000     218.0756   -4788.9214   -4368.3442   -4788.9214            0    1283.7864    20.150281    20.099385    20.907298    8467.6284    156.88045    2468.2803    1226.1984    -817.4405    269.87351   -731.51219   -4209.8073 
 8883000    213.90005   -4788.3139   -4375.7896   -4788.3139            0    765.45981    19.989868     20.23772      21.3173    8623.8997    1243.0463    679.34871    373.98438    2.9604498   -611.65601    5.9714054   -4279.5172 
 8884000    211.77656   -4825.3551   -4416.9262   -4825.3551            0    2192.1707    20.049925    20.138173    20.932515    8451.8976    1421.7266     3101.773    2053.0124   -169.60783    834.31037    439.48621   -4146.7143 
 8885000    209.28022    -4808.075   -4404.4605    -4808.075            0     1492.754    20.155166    19.981127    21.104792    8499.3837    600.74482    2101.0731    1776.4439   -6.3818744   -1088.3508   -361.48683   -4219.4265 
 8886000    208.96333   -4795.3566   -4392.3532   -4795.3566            0    2408.2222    20.245601    19.979187    21.011458     8498.938    1496.8299    2248.8676    3478.9692    709.52789   -21.218037    588.73333   -4093.8582 
 8887000    198.05921    -4793.564   -4411.5901    -4793.564            0    2493.1394    20.169921    20.272096    20.643033    8440.6593    3932.0133    361.42761    3185.9773    183.54266   -348.92207    617.87539   -4104.6888 
 8888000    207.25502   -4811.5026   -4411.7938   -4811.5026            0    3675.5189    19.930692     20.11298    20.949949    8398.1143    3408.1628    4344.3512    3274.0427   -370.85739   -357.81211   -1101.7458   -3961.6241 
 8889000    205.96916   -4836.6779   -4439.4491   -4836.6779            0    829.80925    19.984957    20.097784    21.201306    8515.5753    1134.9718    1723.2215   -368.76555    -162.5221    25.106457    607.90347   -4336.3943 
 8890000    207.95952   -4795.4661   -4394.3987   -4795.4661            0    2368.0717    20.036898    20.084612    20.868742    8398.2771    1687.7221    1796.7105    3619.7825    128.71025    439.43121    808.54641   -4104.3566 
 8891000     210.0604   -4812.9162   -4407.7971   -4812.9162            0    1658.6274    20.123584    20.220767    20.802992    8465.0352     1574.608    657.60059    2743.6737    66.289061    873.44754    1752.5094   -4203.0331 
 8892000    202.24388   -4794.5882   -4404.5438   -4794.5882            0    1489.4954    19.994745    20.031123    21.077596    8441.9395    914.63805    2023.2171     1530.631   -291.61753    467.22416    680.11169   -4221.1616 
 8893000    206.43412   -4809.3678   -4411.2422   -4809.3678            0    883.46206    20.192206    20.040638     20.97482    8487.7693   -20.284482    734.86334    1935.8073   -222.05805    463.13434    322.77222   -4301.8825 
 8894000    207.79144   -4801.8746   -4401.1313   -4801.8746            0     2846.106     20.20445    20.134803    20.653032    8401.9141    2108.1686    2796.4865    3633.6628    85.839023   -1395.4413    1401.8037   -4052.3886 
 8895000    212.16606   -4815.2156   -4406.0355   -4815.2156            0    1186.3782    20.086127    20.006393    21.093588    8476.4784    902.30807    1884.1689    772.65757    482.96375   -730.57027    16.891803   -4259.3745 
 8896000    204.62998   -4814.6239   -4419.9778   -4814.6239            0    1415.3161     20.04074    20.225185     21.02402     8521.617     1676.246    96.439571    2473.2628   -33.866147    120.36049    519.72038   -4244.0836 
 8897000    212.16442   -4838.6417   -4429.4648   -4838.6417            0    1096.0156    20.231663    20.134066    20.816513    8479.5156    2478.1686    212.34669    597.53156    784.11726   -217.46845    218.45653    -4293.926 
 8898000    205.62695   -4812.3575   -4415.7886   -4812.3575            0    1675.9693    20.252847    19.938348    21.100155     8520.418    666.24975    3367.5417    994.11645    116.14446   -172.99457   -815.66749   -4207.5301 
 8899000    217.93321   -4799.7248   -4379.4223   -4799.7248            0    3686.7416    20.046082    19.979934    21.052897    8432.0935    2470.9405    4643.2964    3945.9879    833.88609   -798.37898   -112.17482    -3926.051 
 8900000    199.86278   -4796.7743   -4411.3221   -4796.7743            0    1458.7946     20.13087    20.107785    21.006393    8503.1193   -62.491034    2313.6409    2125.2338   -297.96462    618.99888    -483.7139   -4230.4181 
 8901000    206.48181   -4768.1155   -4369.8979   -4768.1155            0    1919.7925    20.056261    20.182959    20.895384    8458.3404    1184.7327    3564.1167     1010.528   -452.29379    1737.1179    484.99595   -4133.0796 
 8902000    218.21548   -4812.2853   -4391.4384   -4812.2853            0    742.80879    20.051945    20.098154    21.262345    8568.8757    1048.7319    203.07285    976.62159   -254.07102   -466.30375   -830.36276   -4298.6108 
 8903000     209.5165   -4812.7352    -4408.665   -4812.7352            0    601.08496    20.114044    20.083946    21.080002    8515.6753     -79.8574    1096.7284    786.38388    14.678894    332.24255    706.35105   -4334.0148 
 8904000    211.84128    -4811.777   -4403.2233    -4811.777            0    1571.8626    20.343789    20.005203    20.830144    8477.4862   -416.66591    1895.3298    3236.9238   -338.12376    132.07381   -666.63086   -4208.8854 
 8905000    201.95141   -4794.8142   -4405.3339   -4794.8142            0    3272.1049    20.103435    19.793062    21.258925    8459.1072     2354.182    5108.1539    2353.9788    743.70645    1113.0711    1278.2528   -4001.6628 
 8906000    202.70609   -4809.6753   -4418.7396   -4809.6753            0    1771.8575     20.10656    20.080942     20.85568    8420.6617    802.97655    2936.3603    1576.2357   -303.24088    262.07042   -802.40613   -4201.1436 
 8907000    213.02849   -4808.9966   -4398.1532   -4808.9966            0    2197.7265    20.302652     19.97335    20.822305    8443.6938    1826.9878    1373.6873    3392.5044   -127.90257   -482.62373    1256.8774   -4127.5194 
 8908000    210.79657   -4833.2767   -4426.7377   -4833.2767            0     2862.477    20.045501    19.922778     21.16869    8453.9718    3838.3201    2749.9765    1999.1344   -513.49955    874.07322   -544.77135   -4073.8158 
 8909000    204.18125   -4816.2355   -4422.4548   -4816.2355            0    1384.9448    20.127123    20.065803     20.99085    8477.5089    1190.5488    1592.6196    1371.6659   -337.32079    565.75414   -327.46793   -4251.2261 
 8910000    211.37983   -4804.9332   -4397.2694   -4804.9332            0    1720.9173    20.052599    20.156907    20.892947    8444.8948    1625.8043     2261.095    1275.8526   -387.99804    176.43147    273.18088    -4185.321 
 8911000    203.00174   -4813.8804   -4422.3745   -4813.8804            0    2136.1922    20.126677    19.967043    21.033935    8452.9122    1863.9587    1880.5223    2664.0958    229.93153    192.93738   -421.09975    -4159.031 
 8912000     214.2247   -4810.8022   -4397.6518   -4810.8022            0    1453.0495    20.122883    20.161395    20.898748    8478.7345    1156.5996    864.68325    2337.8658   -1100.6638    -1017.172    469.11829    -4217.977 
 8913000    209.69579    -4802.447    -4398.031    -4802.447            0    217.93845    20.265919    20.085056    20.874544    8496.8186    1162.7663    -168.9243   -340.02662    86.711881    1314.8153    274.18645   -4371.0247 
 8914000    209.05976   -4818.7225   -4415.5332   -4818.7225            0    2457.5317    19.938982    19.966069    21.186157    8434.2749     3522.685    1981.4991     1868.411   -111.52672   -502.31428   -718.63455   -4113.2439 
 8915000    202.98546   -4794.2489   -4402.7744   -4794.2489            0    1413.8434     20.14325    20.165313    20.989297    8525.7463     2085.416    651.95298    1504.1611   -14.269008   -232.51175   -266.70376   -4226.9781 
 8916000    208.22804   -4788.0994   -4386.5141   -4788.0994            0    1995.6792    20.071637    20.107829    20.956778    8458.0936    2640.7711    823.53595    2522.7307    303.05193   -9.0390613   -425.52354   -4140.3418 
 8917000    214.13718   -4813.1977   -4400.2162   -4813.1977            0    897.17554     20.07986    20.020897    21.136313     8497.153    836.42446    753.21218      1101.89    506.76039   -795.39066    -1089.202   -4289.0362 
 8918000     213.6959   -4789.2479   -4377.1174   -4789.2479            0     1719.716    20.140085     20.29723    20.700813    8462.2429    4186.4773   -840.51793    1813.1886    38.559697    391.04259   -9.4921851   -4164.8819 
 8919000    216.10143   -4790.4521   -4373.6823   -4790.4521            0    633.78555     20.09341    20.142453    20.951612    8479.7577    -343.8465    1660.6387    584.56444   -327.97097    118.05197   -869.21634    -4295.303 
 8920000    209.28429   -4795.9196   -4392.2973   -4795.9196            0     1325.815    20.003264    20.083024    21.277741    8547.8226    2243.2842     1170.327    563.83387     341.5685    679.88032   -716.76768   -4227.0195 
 8921000    205.32666   -4783.8469   -4387.8572   -4783.8469            0    1060.9429    20.178311    20.274524    20.830036    8521.6856    -875.8221     2576.939    1481.7119    451.45377    892.90669   -8.0197952   -4256.0032 
 8922000    215.74342     -4822.47   -4406.3906     -4822.47            0    1661.1607    20.024642    20.226927     20.98081    8498.0039    2281.3971    730.28176    1971.8032   -274.80355   -180.27549    517.73261   -4200.5152 
 8923000    199.03123   -4812.7343   -4428.8858   -4812.7343            0    1371.2005    20.309889    19.929372    21.039796    8516.1381   -123.45632    2100.4424    2136.6156   -153.11798   -430.05877    863.74436   -4258.5839 
 8924000    207.51291   -4801.0177   -4400.8116   -4801.0177            0    805.29158    20.077812    20.191204    21.122652    8563.0216    1902.0265   -931.03122    1444.8795   -576.40778   -122.24851     425.8242   -4300.2445 
 8925000     207.4601   -4810.7945   -4410.6902   -4810.7945            0     713.5258    20.229875    19.879312    21.129547    8497.3742    995.02466    483.04487    662.50787    50.124695    1151.1108   -1223.1494   -4322.2662 
 8926000    209.58954   -4825.7091   -4421.4981   -4825.7091            0    3231.2803    19.927905    19.900463    20.933655    8301.7543    3137.0936    3665.9244    2890.8229   -1.6634213   -31.632178   -91.181332   -4030.2787 
 8927000    208.28873    -4805.185   -4403.4826    -4805.185            0    1098.4467     20.22638    20.054587    21.008734    8521.8087     1095.091    152.83143    2047.4175   -168.81156    67.002894   -65.424838   -4266.9656 
 8928000    207.56375   -4805.9559   -4405.6518   -4805.9559            0    3158.6994    20.201598    19.862738    20.999059    8426.0621    2170.5071    2893.6027    4411.9884    227.42402    157.58709   -154.56644   -4017.4935 
 8929000    229.06949   -4816.3169   -4374.5372   -4816.3169            0    3001.3592    19.951748    20.089168    21.074832    8447.0883    3528.0795    1901.3734    3574.6247   -401.90704    484.25177   -1387.8107   -4004.7934 
 8930000    220.31975    -4804.718   -4379.8128    -4804.718            0    2361.5498    20.138784    20.182352    20.759852    8437.8011    1697.2994    2219.9897    3167.3602   -127.03396   -172.27922   -1171.5551   -4089.2084 
 8931000    201.00581   -4800.8936    -4413.237   -4800.8936            0     1592.353    20.239531    20.060492     20.97806    8517.4062   -153.27892    2956.8635    1973.4744    -155.7103   -442.43659   -45.285529   -4215.4387 
 8932000    201.98639   -4791.4453   -4401.8976   -4791.4453            0    1467.9447    20.093401     20.06742    21.061886    8492.6309    1915.5163    2048.3489    439.96886   -528.52334    1287.9042   -741.42882   -4220.0834 
 8933000    202.36854   -4816.7873   -4426.5025   -4816.7873            0    1137.4234    20.156221     20.25857    20.753795    8474.5262    544.89033    1961.8966    905.48317   -553.62636   -49.074463   -354.51532   -4285.9258 
 8934000    203.52208   -4826.3765    -4433.867   -4826.3765            0    2495.9601    19.959287    20.174125     20.99644    8454.4505    4236.7401    393.31702    2857.8231   -136.83506   -509.91897    1043.0284   -4126.1164 
 8935000    211.96875   -4783.0711   -4374.2716   -4783.0711            0     2803.134    20.035503    20.111795    20.918172    8428.9762    4175.8822     2414.945    1818.5749   -239.67429    387.95657   -97.639937    -4029.688 
 8936000    222.77687   -4809.0323   -4379.3884   -4809.0323            0    1807.1475    20.014713    20.059208    21.156952    8494.0781     2295.462    1167.4486     1958.532   -145.97766     -206.965    635.05679   -4155.5236 
 8937000    208.02893   -4813.8504   -4412.6491   -4813.8504            0    2976.0809    20.138187    20.045691    20.749819    8376.3674    2419.5757    3279.6208     3229.046    226.89581   -24.818317    890.28064   -4049.0889 
 8938000    213.61696   -4801.0413    -4389.063   -4801.0413            0    488.93733    20.009382     20.15774    21.014451    8476.0511    1387.1092    747.92132   -668.21857   -50.340762   -178.74601    625.85452   -4328.6233 
 8939000    202.88686   -4818.6952   -4427.4108   -4818.6952            0   -424.63145    20.194754    20.094459    20.968704    8509.1557   -1128.5045   -64.681463   -80.708363   -643.11372    546.01315     787.4684   -4480.1065 
 8940000    213.32878    -4785.628   -4374.2055    -4785.628            0    2065.5973    20.137883    19.926194    20.929108     8398.252    962.29201    3673.4918     1561.008    31.175834    279.22036   -745.37264   -4121.2114 
 8941000    206.75241   -4798.0599   -4399.3205   -4798.0599            0    732.54232    20.205024    20.164942    21.010877    8560.5276   -634.13015    1120.8839    1710.8732     382.1928   -187.41067   -529.31533   -4307.8652 
 8942000     210.7147   -4797.7014   -4391.3204   -4797.7014            0    2198.1848    20.086388     20.15812    20.911121    8466.9928    2522.6204    2304.1813    1767.7528   -293.68221   -116.02202    318.26864   -4119.8832 
 8943000     206.5293   -4798.5931   -4400.2839   -4798.5931            0    483.34298     20.18028    20.183146    21.101286    8594.5859   -527.61051    1238.4679    739.17155    221.80495   -470.83841   -926.04139   -4339.7002 
 8944000    216.31585   -4799.0299   -4381.8466   -4799.0299            0    126.20652    20.266276    20.004779    21.052288    8535.0684    469.12189   -114.38742    23.885092    858.12359    575.59653    254.10338    -4366.137 
 8945000    210.85247   -4813.7296   -4407.0829   -4813.7296            0    259.37537    20.151853    20.221046     20.92808    8528.0155   -726.04274     383.5403    1120.6285   -602.90509   -69.948043    258.63999   -4374.8237 
 8946000    202.40331   -4790.7856   -4400.4338   -4790.7856            0    864.91986    19.898309    20.198475    21.126583    8491.1015      2724.91   -219.37784     89.22737    204.33066   -567.48986     396.4523   -4293.3273 
 8947000    203.74424   -4792.5609    -4399.623   -4792.5609            0    3586.2447    19.980831    19.994615    20.937882    8364.8727    2827.5302    4209.8283    3721.3756    147.50195   -40.930535   -703.79606   -3962.1259 
 8948000    205.11533   -4789.2815   -4393.6993   -4789.2815            0    3308.7943    20.186942     20.09571    20.929315    8490.4149    2389.8159     3181.097      4355.47    94.155769    291.67189    227.98794   -3983.9912 
 8949000    209.02587   -4782.2674   -4379.1434   -4782.2674            0    2337.0999    20.053494    19.945915    21.234385    8493.4417    2384.7264    3078.0114    1548.5619   -282.82616    203.80367   -78.695075   -4089.6512 
 8950000    203.58815   -4805.8991   -4413.2623   -4805.8991            0    608.06063    20.171062    20.167666    20.951997    8523.3401   -888.74158    2166.0599     546.8636   -399.11392   -9.3514813   -265.52955   -4337.6778 
 8951000    198.14463   -4792.9347   -4410.7961   -4792.9347            0    1703.8425    20.166749    20.199709    20.944796    8532.1238    1169.5398    2256.9988     1684.989   -90.770999   -24.649055     723.5174   -4198.7831 
 8952000    208.90927   -4808.0692   -4405.1701   -4808.0692            0    376.13289    20.104874    19.969817    21.210617    8515.8642    836.00984    1782.1627   -1489.7739   -192.61033    39.473119   -657.62293   -4358.4562 
 8953000    207.63662   -4825.7472   -4425.3025   -4825.7472            0    1699.7422    20.234048    19.960408    21.029992    8493.5898    2056.4854    1679.2658    1363.4753   -520.33643    394.59761   -227.89779   -4214.7549 
 8954000    200.31301   -4809.4719   -4423.1514   -4809.4719            0    985.74176      20.1871    20.071943    20.909773    8472.5214     2559.013    447.82214   -49.609838     88.34811    267.09616   -364.20095   -4301.3502 
 8955000    203.32992   -4818.3872   -4426.2484   -4818.3872            0    1530.7699     19.87679    20.123124    21.105539     8441.859    2381.6763    620.69254    1589.9408    -679.2878   -148.49328    635.17202   -4237.7863 
 8956000    199.92738   -4811.9884   -4426.4116   -4811.9884            0    966.40347    20.219039    20.054761    20.979184    8506.8071     1199.259     1180.345    519.60641    -172.4403    835.49659    238.78488   -4306.5166 
 8957000    210.29665   -4809.2524   -4403.6776   -4809.2524            0    2388.3204    20.238556    19.933565      20.9845     8465.705    2453.0883     2037.809    2674.0637    52.995544   -311.71652    -591.8669   -4108.8069 
 8958000    207.33546   -4792.0612   -4392.1973   -4792.0612            0    622.72682    20.126854    19.769147    21.249338    8454.9147    2826.4248    555.54634   -1513.7907   -893.72381    902.03239   -83.939204   -4315.4112 
 8959000    203.29449   -4800.8338   -4408.7633   -4800.8338            0     3069.678    19.961644     20.15923     20.94611    8428.9528     5148.207    1339.9205    2720.9066   -60.094168   -149.26618   -716.85823    -4031.415 
 8960000    212.15148   -4787.4875   -4378.3355   -4787.4875            0    2827.1196    20.046839    20.046282    20.942216    8415.9352    1985.6418    3064.7544    3430.9626   -433.11071    -946.9642    438.55633   -4031.3411 
 8961000    208.68256   -4793.1742   -4390.7123   -4793.1742            0    1920.9014    20.020358    20.053531      21.1439    8488.8288    2789.4725    2204.0367      769.195   -638.53176   -324.03702    203.24536    -4152.903 
 8962000    208.20135   -4803.1119   -4401.5781   -4803.1119            0    1292.4892    20.249351    20.220814    20.680431    8467.7752    262.98218    1702.1145    1912.3708    332.30417    547.12922   -646.44404   -4241.9637 
 8963000    219.49364   -4804.3563   -4381.0443   -4804.3563            0    2061.3861    19.973402    20.056034    21.050637    8432.6163     3565.077    1386.7699    1232.3115     15.18267   -53.194123     1122.291   -4127.5329 
 8964000    217.54874   -4813.0512   -4393.4902   -4813.0512            0    566.15833    20.172883    20.121299    21.112853    8569.8049     1385.146   -376.68039    690.00939   -248.04362    572.06035   -101.27049   -4322.7307 
 8965000    201.69082    -4831.254   -4442.2763    -4831.254            0    4189.3289    20.202043    19.918515     20.79938    8369.5604    3336.5177    5137.6088    4093.8603    82.840244    354.39602     780.8373   -3930.9207 
 8966000    209.01402   -4814.7847   -4411.6836   -4814.7847            0    2836.0291    20.022869    19.951563    21.110041    8433.1983    3040.1549     2768.792    2699.1404   -96.413081   -1243.1785   -1042.0824   -4062.8817 
 8967000    199.44968   -4821.0046   -4436.3491   -4821.0046            0    526.84569    20.339417    20.091337      20.7677    8486.6391    1398.4834    423.15062   -241.09694    27.547173   -61.733755   -15.708944    -4371.142 
 8968000    207.74983   -4787.4047   -4386.7417   -4787.4047            0    2528.3684    20.092509    19.893515    21.289345    8509.5774    2662.2828    2549.6292    2373.1933   -31.219704    770.60329    157.97112   -4072.9624 
 8969000    214.91357   -4808.5375   -4394.0586   -4808.5375            0    1770.7067    20.105857    20.116978    21.035599    8508.2494    1738.5584    2122.5833    1450.9785   -216.24593    450.72839    1019.6116    -4174.342 
 8970000    206.63953   -4826.3287    -4427.807   -4826.3287            0    981.20868    20.306344    19.953906    20.963165    8494.0832   -34.602848    1011.0465    1967.1824    370.84335   -846.12602     884.0969   -4306.2573 
 8971000    207.00826    -4808.496   -4409.2631    -4808.496            0     1409.248    20.044901    20.057218    21.134438    8496.9939    2007.7198    1145.8031    1074.2211   -297.81292    120.61723    845.21803   -4234.6292 
 8972000    205.91636   -4818.4557   -4421.3287   -4818.4557            0    2224.5139    20.269246    19.942871    20.813466    8413.3643    2319.5434    1946.3734    2407.6249    366.01128   -876.30702   -436.28125   -4148.3802 
 8973000    209.77126   -4826.5852   -4422.0237   -4826.5852            0   -199.40439     20.27466    19.998204    21.059925    8538.8894   -773.75758    622.51354   -446.96915   -494.40908    193.34805   -707.32881   -4446.8557 
 8974000    206.50012   -4799.2824   -4401.0295   -4799.2824            0    851.10864    19.970892    20.164303    21.014984    8462.7155    1111.2886    1018.9169    423.12047    4.9166605    119.30889    474.64766   -4295.9857 
 8975000    207.20083   -4823.4428   -4423.8386   -4823.4428            0    340.50171     20.19296    20.179473    20.951722    8537.4767    628.84119   -607.70512    1000.3691   -18.461486    326.47733   -712.07398   -4381.4426 
 8976000    207.59141   -4804.4438   -4404.0863   -4804.4438            0    2180.8126    20.136154    19.960373    21.206891    8523.5832    831.03128    3228.7877     2482.619    24.142121    1224.3768   -1077.1075   -4132.9945 
 8977000    223.69544   -4781.5558   -4350.1403   -4781.5558            0    2197.4484    20.177113    20.069665     20.82101    8431.4243    792.94227    3486.4101    2312.9928   -585.72103    432.41773    156.29868    -4079.934 
 8978000    227.00397   -4823.1312   -4385.3349   -4823.1312            0    1527.9635    20.109659    19.995152    21.131867    8497.0329    1123.9809    1463.8464    1996.0631    503.98175    1536.0213    349.11865   -4195.9889 
 8979000    212.93621   -4795.4236   -4384.7582   -4795.4236            0    2046.7835    20.074677    20.201271    20.829698    8447.1507    905.61319    1873.1142    3361.6231    567.79719     14.99188    1226.6011   -4132.6087 
 8980000    211.17282   -4784.4907   -4377.2261   -4784.4907            0     1023.513    20.209092    20.057959     21.11944    8560.8313    793.11942    1328.1353    949.28431   -123.55977     674.0201    13.073278   -4249.4395 
 8981000    220.56581   -4811.8743   -4386.4945   -4811.8743            0    2797.9725    20.200489     20.11187    20.838441    8466.0253    2269.8576    3451.6722    2672.3877   -292.59494   -723.24146   -418.87362   -4041.0336 
 8982000    221.01849   -4831.3186   -4405.0659   -4831.3186            0    192.68734    20.213584    20.036251    21.099929    8545.5653    314.77636   -151.29591    414.58157   -315.11902   -231.84428    573.15703   -4381.0516 
 8983000    214.43515   -4829.8066   -4416.2503   -4829.8066            0     993.3356    20.071282    20.074315    21.089652    8497.3844    1367.3166    1350.7183    261.97185   -431.34908    224.34058    680.67485   -4293.1506 
 8984000    219.18688   -4806.7529   -4384.0325   -4806.7529            0     2333.424    20.138039    20.122286    20.722501    8397.2421    568.08819    3458.6233    2973.5604   -42.402534   -223.54344    1001.5232   -4098.2694 
 8985000     210.0235   -4833.4273   -4428.3793   -4833.4273            0    2550.4753    20.088422    19.949003    21.134828    8469.6553    3306.8121    2581.2945    1763.3193   -17.927727   -606.37344    515.80011   -4113.3415 
 8986000    207.05754   -4816.9343   -4417.6065   -4816.9343            0   -16.152134     20.08217    20.128444    21.003165    8489.9588   -760.94156    52.494188    659.99097   -464.24081   -361.25543   -1115.7524   -4419.6064 
 8987000    208.31198   -4807.7126   -4405.9654   -4807.7126            0    1166.1262    20.302587    20.139333    20.780388     8496.697     83.40323    1665.6626    1749.3128    50.862886    600.23548    -328.0581   -4261.4642 
 8988000    215.26321   -4810.4386   -4395.2854   -4810.4386            0    909.90291    20.081604    20.061771     21.29187    8577.9095   -541.12748    1791.5289    1479.3073    449.88283    769.87961    237.03134   -4281.4566 
 8989000    206.63062     -4800.21   -4401.7055     -4800.21            0    1591.2648    20.015268    19.997991    21.110653    8449.8586    3129.1634    611.59679    1033.0343    28.664957    140.15254   -590.85292   -4205.6099 
 8990000    211.75777   -4799.8623   -4391.4696   -4799.8623            0    1357.5892    20.192869    20.177952    20.782071    8467.6701    1676.3612    438.20152    1958.2048    90.103237    193.60558   -60.317122   -4223.8178 
 8991000    203.79499   -4821.3036   -4428.2678   -4821.3036            0    359.61198    20.137295    20.093517    21.156003    8560.3338   -663.79384    894.69365    847.93613    37.686906   -36.549422   -760.55828   -4383.3725 
 8992000     199.9695   -4789.1635   -4403.5055   -4789.1635            0    1384.8835    20.112985    19.984505    21.192763      8518.39    2391.6416    456.33944    1306.6696    707.38522    216.80167    626.74281   -4231.4587 
 8993000    214.81049   -4799.5014   -4385.2213   -4799.5014            0     3156.945    19.900699    19.996507    21.182307     8429.382    3489.8352    3788.4093    2192.5906   -436.68943    1080.2994   -382.50292   -3997.1257 
 8994000    214.80671    -4803.157   -4388.8842    -4803.157            0     3320.757    20.029357    20.237506    20.791784    8427.8301     3810.454     2036.846     4114.971    434.50692   -589.66348   -703.21513   -3980.7258 
 8995000    219.04483   -4787.3386   -4364.8923   -4787.3386            0    1872.8532    20.036301    20.212775    20.900837    8464.6139    2272.6161    2268.0723    1077.8711    62.224204    542.40146   -600.78056   -4133.6928 
 8996000    215.67245   -4808.4197   -4392.4772   -4808.4197            0    1143.8692    20.019702    20.317877    20.790692    8456.7771    1123.3628     143.0652    2165.1797    328.58435   -936.88552   -528.91238   -4251.3999 
 8997000    213.71258   -4819.6619   -4407.4992   -4819.6619            0    728.50567    20.073513    20.164632    21.146694     8559.653    1135.7275    466.48467    583.30485   -518.52421   -1735.1019   -353.16505   -4316.5571 
 8998000    210.10874   -4788.0469   -4382.8345   -4788.0469            0    1081.3298    20.141779    20.052732    20.933573     8455.022    781.71268    1275.0691    1187.2075    491.11293    1139.8636    173.17473   -4249.4981 
 8999000    207.31333    -4820.393   -4420.5718    -4820.393            0    866.77498    20.045067    20.261028    20.940092    8504.4763    459.60148    940.33367    1200.3898    787.41759     817.0304    536.98234   -4313.0665 
 9000000    223.27105   -4795.2446   -4364.6476   -4795.2446            0    2638.2959    19.995749    19.991785    21.031875    8407.5071    3732.0113    2170.8516    2012.0246   -264.74977    417.16166    298.63675   -4041.1533 
Loop time of 413.075 on 64 procs for 250000 steps with 972 atoms

Performance: 104.581 ns/day, 0.229 hours/ns, 605.216 timesteps/s
192.6% CPU use with 32 MPI tasks x 2 OpenMP threads

MPI task timing breakdown:
Section |  min time  |  avg time  |  max time  |%varavg| %total
---------------------------------------------------------------
Pair    | 25.014     | 35.339     | 51.548     |  82.7 |  8.56
Bond    | 1.0456     | 1.2466     | 2.1032     |  19.0 |  0.30
Kspace  | 180.91     | 200.12     | 209.98     |  42.8 | 48.45
Neigh   | 1.9199     | 2.0955     | 2.3591     |   7.9 |  0.51
Comm    | 65.829     | 73.561     | 77.33      |  32.5 | 17.81
Output  | 0.63239    | 0.63272    | 0.63414    |   0.0 |  0.15
Modify  | 75.413     | 78.134     | 83.821     |  21.0 | 18.92
Other   |            | 21.95      |            |       |  5.31

Nlocal:        30.3750 ave          35 max          23 min
Histogram: 1 2 1 2 4 4 4 6 2 6
Nghost:        2591.59 ave        2633 max        2555 min
Histogram: 3 1 4 2 10 2 5 4 0 1
Neighs:        9372.78 ave       12045 max        6615 min
Histogram: 1 4 1 2 6 8 4 2 2 2

Total # of neighbors = 299929
Ave neighs/atom = 308.56893
Ave special neighs/atom = 2.0000000
Neighbor list builds = 5549
Dangerous builds = 0

unfix		3
unfix		2
unfix		1

write_data	data.final.${pid}
write_data	data.final.1
System init for write_data ...
PPPM initialization ...
  extracting TIP4P info from pair style
  using 12-bit tables for long-range coulomb (../kspace.cpp:340)
  G vector (1/distance) = 0.37211785
  grid = 24 24 25
  stencil order = 5
  estimated absolute RMS force accuracy = 0.0034424025
  estimated relative force accuracy = 1.0366693e-05
  using double precision FFTW3
  3d grid and FFT values/proc = 3458 576
Last active /omp style is kspace_style pppm/tip4p/omp
WARNING: Not all mixed pair coeffs generated from mixing. Use write_data with 'pair ij' option to store all pair coeffs. (../write_data.cpp:312)

write_restart   restart.lmp.${pid}
write_restart   restart.lmp.1
System init for write_restart ...
PPPM initialization ...
  extracting TIP4P info from pair style
  using 12-bit tables for long-range coulomb (../kspace.cpp:340)
  G vector (1/distance) = 0.37211785
  grid = 24 24 25
  stencil order = 5
  estimated absolute RMS force accuracy = 0.0034424025
  estimated relative force accuracy = 1.0366693e-05
  using double precision FFTW3
  3d grid and FFT values/proc = 3458 576
Last active /omp style is kspace_style pppm/tip4p/omp
Total wall time: 0:06:53
