LAMMPS (30 Jul 2021)
  using 1 OpenMP thread(s) per MPI task
package omp 0
using multi-threaded neighbor list subroutines
echo both

include		in.partitions
variable        pid world 0
include		in.temp
variable        temperature equal 269.44
variable	tempDamp equal 100.0
include		in.pressure
variable        pressure equal 11375.0
variable        pressureDamp equal 1000.0 # This is 1 ps
include		in.seed
variable        seed world 745823

units		real
atom_style	full
read_restart    restart.lmp.${pid}
read_restart    restart.lmp.0
Reading restart file ...
  restart file = 30 Jul 2021, LAMMPS = 30 Jul 2021
  restoring atom style full from restart
  triclinic box = (-3.1273010 -0.16947204 0.013881097) to (14.737300 22.749471 19.216117) with tilt (-0.70185409 -6.4452447 0.26204916)
  4 by 4 by 4 MPI processor grid
  restoring pair style lj/cut/tip4p/long/omp from restart
  restoring bond style harmonic/omp from restart
  restoring angle style harmonic/omp from restart
  1008 atoms
  672 bonds
  336 angles
Finding 1-2 1-3 1-4 neighbors ...
  special bond factors lj:    0        0        0       
  special bond factors coul:  0        0        0       
     2 = max # of 1-2 neighbors
     1 = max # of 1-3 neighbors
     1 = max # of 1-4 neighbors
     2 = max # of special neighbors
  special bonds CPU = 0.948 seconds
  read_restart CPU = 1.174 seconds

include 	in.setup
variable	out_freq equal 1000
variable	out_freq2 equal 10000
variable	out_freq3 equal 1000

timestep	2.0

neigh_modify    delay 7 every 1

include		in.tip4p
# This is TIP4P/Ice

# create groups ###
group ox type 2
336 atoms in group ox
group hy type 1
672 atoms in group hy

# set charges - beside manually ###
set group ox charge -1.1794
Setting atom values ...
  336 settings made for charge
set group hy charge 0.5897
Setting atom values ...
  672 settings made for charge

# ### TIP3P Potential Parameters ###
pair_style lj/cut/tip4p/long/omp 2 1 1 1 0.1577 8.5
pair_coeff 1 1*2 0.000 0.000
pair_coeff 2 2 0.21084 3.1668
bond_style  harmonic
bond_coeff  1 450 0.9572
angle_style harmonic
angle_coeff 1 55 104.52
kspace_style pppm/tip4p/omp 1.0e-5
pair_modify tail yes

thermo          ${out_freq}
thermo          1000
thermo_style    custom step temp pe etotal epair emol press lx ly lz vol pxx pyy pzz pxy pxz pyz enthalpy

restart 	${out_freq3} restart.lmp.${pid} restart2.lmp.${pid}
restart 	1000 restart.lmp.${pid} restart2.lmp.${pid}
restart 	1000 restart.lmp.0 restart2.lmp.${pid}
restart 	1000 restart.lmp.0 restart2.lmp.0


include         in.dump
dump            myDump all atom ${out_freq2} dump.water.${pid}
dump            myDump all atom 10000 dump.water.${pid}
dump            myDump all atom 10000 dump.water.0
dump            myDump2 all dcd ${out_freq2} dump.dcd
dump            myDump2 all dcd 10000 dump.dcd
dump_modify     myDump append yes
dump_modify     myDump2 append yes


variable natoms 	equal  "count(all)"                        # NUMBER ATOMS
variable H      	equal  "enthalpy/v_natoms"                 # ENTHALPY-per-atom
variable Vol      	equal  "vol/v_natoms"                 # volume-per-atom
fix AVG all 		ave/time ${out_freq} 1 ${out_freq} v_Vol v_H file vol_enthalpy.dat
fix AVG all 		ave/time 1000 1 ${out_freq} v_Vol v_H file vol_enthalpy.dat
fix AVG all 		ave/time 1000 1 1000 v_Vol v_H file vol_enthalpy.dat



fix 		1 all shake 1e-6 200 0 b 1 a 1
       0 = # of size 2 clusters
       0 = # of size 3 clusters
       0 = # of size 4 clusters
     336 = # of frozen angles
  find clusters CPU = 0.257 seconds
fix             2 all nph tri ${pressure} ${pressure} ${pressureDamp}
fix             2 all nph tri 11375 ${pressure} ${pressureDamp}
fix             2 all nph tri 11375 11375 ${pressureDamp}
fix             2 all nph tri 11375 11375 1000
fix             3 all temp/csvr ${temperature} ${temperature} ${tempDamp} ${seed}
fix             3 all temp/csvr 269.44 ${temperature} ${tempDamp} ${seed}
fix             3 all temp/csvr 269.44 269.44 ${tempDamp} ${seed}
fix             3 all temp/csvr 269.44 269.44 100 ${seed}
fix             3 all temp/csvr 269.44 269.44 100 745823


run             250000
PPPM initialization ...
  extracting TIP4P info from pair style
  using 12-bit tables for long-range coulomb (../kspace.cpp:340)
  G vector (1/distance) = 0.38070838
  grid = 24 27 32
  stencil order = 5
  estimated absolute RMS force accuracy = 0.0022727183
  estimated relative force accuracy = 6.8442236e-06
  using double precision FFTW3
  3d grid and FFT values/proc = 3825 384
Last active /omp style is kspace_style pppm/tip4p/omp
Neighbor list info ...
  update every 1 steps, delay 7 steps, check yes
  max neighbors/atom: 2000, page size: 100000
  master list distance cutoff = 10.8154
  ghost atom cutoff = 10.8154
  binsize = 5.4077, bins = 5 5 4
  1 neighbor lists, perpetual/occasional/extra = 1 0 0
  (1) pair lj/cut/tip4p/long/omp, perpetual
      attributes: half, newton on, omp
      pair build: half/bin/newton/tri/omp
      stencil: half/bin/3d/tri
      bin: standard
Per MPI rank memory allocation (min/avg/max) = 9.313 | 9.327 | 9.337 Mbytes
Step Temp PotEng TotEng E_pair E_mol Press Lx Ly Lz Volume Pxx Pyy Pzz Pxy Pxz Pyz Enthalpy 
17500000    269.70634   -4768.2093   -4228.7634   -4768.2093            0    10907.935    17.864601    22.918943    19.202236    7862.1207    8079.0025    12219.556    12425.248    25.766878    1072.2721   -551.75073    -2978.049 
17501000    268.08636   -4802.9753   -4266.7694   -4802.9753            0     12427.26    17.769478    22.947106    19.122962    7797.5426    11797.628    12731.849    12752.301    1854.8231    36.782765   -2072.1106   -2853.5519 
17502000    268.61039   -4792.9393   -4255.6853   -4792.9393            0     13004.49    17.820522    22.974187    19.103829    7821.3369    10718.047    14485.884    13809.539    2853.3455    516.01558    327.03577   -2772.3128 
17503000    260.13287   -4793.0153   -4272.7174   -4793.0153            0     11220.18    17.836827    22.727044    19.391307    7860.8165    10673.088    11736.644    11250.808   -844.33563    835.97122    -992.5687   -2986.4142 
17504000    266.01944   -4840.2997   -4308.2279   -4840.2997            0    9176.0766    18.016216    22.904642     19.12961    7893.9288    9613.4944    9044.4101    8870.3254    213.21935    85.090228    118.05374   -3251.8334 
17505000    265.74095   -4805.2854   -4273.7706   -4805.2854            0    10912.934    17.777956    22.758925    19.384734    7843.2023    11955.791    11770.996    9012.0148    705.55744    527.24252   -1137.0982    -3025.494 
17506000    267.58483   -4786.5782   -4251.3755   -4786.5782            0    10835.231    17.900306    22.995088    19.110128    7866.0941    11608.437    11700.372    9196.8851   -485.49966    628.21834    291.97908   -3008.3695 
17507000    261.24318   -4777.5995   -4255.0808   -4777.5995            0    13723.729    17.534045     22.87595    19.417425    7788.4831    12775.667    14057.138    14338.382   -1438.6324   -1367.8088   -1665.1237   -2696.2431 
17508000    269.77792    -4796.516   -4256.9268    -4796.516            0    10733.102    18.080386    22.679626    19.134682    7846.2987    10551.292    10097.942    11550.071   -1403.4314    214.86901    1600.6597   -3028.7357 
17509000    275.08108   -4780.1679   -4229.9718   -4780.1679            0    11870.965     17.71581    22.940524    19.274701    7833.4307    11046.291    13191.288    11375.317   -632.03929    1002.7128   -204.02045   -2873.8024 
17510000    271.91248   -4799.7908   -4255.9322   -4799.7908            0    9868.9874    17.777548    23.147677    19.181192     7893.232    9951.6795      9422.83    10232.453    1382.9092    872.42524    250.18639   -3119.8668 
17511000    264.39406   -4803.5683   -4274.7475   -4803.5683            0    11913.294    17.614835    23.176863    19.142533    7815.0659    11743.378    11797.188    12199.316   -494.98233   -1234.2748   -1417.5953   -2916.9331 
17512000    272.33822   -4749.7894   -4205.0793   -4749.7894            0    11613.856    17.574739    23.405408    19.039978    7831.9793    9943.8125    10589.196    14308.558    603.82187   -418.24106   -502.28338   -2878.5287 
17513000    274.84112   -4770.6088   -4220.8926   -4770.6088            0     11581.32    17.638778    23.333561    19.037545    7835.3874    13567.505    10489.446    10687.008   -484.02588    535.99352    -246.0335   -2897.4826 
17514000    265.17848   -4801.4185   -4271.0288   -4801.4185            0    11556.271    17.767701    23.062204    19.151787    7847.6813    12267.235    11077.291    11324.289   -550.17027    739.45293   -189.57108   -2948.4091 
17515000    268.62113   -4786.7348   -4249.4594   -4786.7348            0    12757.046    17.728547    23.180955    19.041146    7825.2381    14652.892    11818.857     11799.39    1285.1265    1538.6893    441.72791    -2793.586 
17516000    259.07109   -4766.7558   -4248.5816   -4766.7558            0    12373.858    17.509835    23.290982    19.142403    7806.6785    13370.791    11116.885    12633.899   -769.37603     649.9728   -2490.3545   -2839.7881 
17517000     265.3815   -4798.0636   -4267.2678   -4798.0636            0    9790.3217    17.807058    23.292227     18.90912    7842.8608    9018.7265    9637.8926    10714.346   -445.27316   -984.21838   -907.38811     -3147.45 
17518000    267.87548   -4833.7114   -4297.9273   -4833.7114            0    8938.5446    17.649031    23.150824    19.364173    7911.9998    10455.964    8791.9529    7567.7171    1237.3322    651.82553   -140.86809   -3266.5229 
17519000    268.43519   -4799.2895   -4262.3859   -4799.2895            0    12168.032     17.85136    22.908015    19.088064    7805.8579    12163.574    10729.365    13611.159   -118.89306   -106.59507   -2812.7274   -2877.1719 
17520000    274.78856   -4818.0398   -4268.4287   -4818.0398            0    11884.759    17.742507    22.871858    19.279998     7823.902     12885.56    11944.093    10824.624     583.7836    614.93051    709.75336   -2912.3351 
17521000    277.87709   -4856.1405    -4300.352   -4856.1405            0    9115.1056      17.8441    23.015577    19.250019    7905.8338    8943.6043    8673.4124    9728.3001   -805.84546   -31.737667   -432.14714   -3249.3942 
17522000    268.76381    -4807.381   -4269.8202    -4807.381            0    10347.045    18.014566    22.706939    19.187129    7848.6035    8981.6538    10630.016    11429.466    2208.8107    163.86879   -784.33558   -3085.4577 
17523000    261.60327   -4821.4803   -4298.2414   -4821.4803            0    12317.049    17.744476    22.907796    19.223078    7813.9277    14374.486     11489.16    11087.502   -293.12648    10.116335   -2701.6027   -2894.6137 
17524000     267.6278   -4744.1061   -4208.8174   -4744.1061            0    10604.863    17.896071    22.864623    19.190996    7852.7042    9848.7176    10725.712    11240.158   -537.39809   -597.95672   -1358.8484     -2994.31 
17525000     275.5039    -4794.701   -4243.6591    -4794.701            0    10415.714    17.809553    22.830337    19.394614    7885.8131    12239.707    10178.888    8828.5463   -521.62851   -2199.3766   -2992.6698   -3045.7844 
17526000    268.15778   -4782.0175   -4245.6688   -4782.0175            0    11386.351    17.897806    22.835296    19.220905    7855.6166    13500.057     11255.47    9403.5252     1457.562    1963.4489    1376.4728   -2941.1789 
17527000    274.15377   -4780.2244    -4231.883   -4780.2244            0    12255.268    17.833552    22.903294    19.150825    7822.0984    11184.235     13646.99    11934.578   -51.261875    826.33893   -2274.4231   -2833.8354 
17528000    260.48088   -4808.3001   -4287.3061   -4808.3001            0    11591.706    17.837754    22.951863    19.159119    7843.9288    9862.3195    12341.373    12571.425   -441.88635    660.47038   -1604.1375   -2961.2654 
17529000     270.7724   -4800.4793   -4258.9011   -4800.4793            0    11976.552     17.75278    22.910406    19.202114    7809.9491    13301.003    11798.725    10829.929    1770.0802    635.51305   -172.97234   -2894.7706 
17530000     280.0648   -4794.0137   -4233.8495   -4794.0137            0     11384.36    17.751591    22.816352    19.312974    7822.2675    10637.806    12045.483     11469.79    820.05953   -97.830812   -125.05136   -2935.1246 
17531000    282.46221   -4806.5809   -4241.6215   -4806.5809            0    8660.0069    18.034315    22.818895    19.250355    7921.9668    8396.1768    8219.8864    9363.9576    924.72946   -2354.4807    1163.3666   -3241.0984 
17532000    274.48209   -4802.1144   -4253.1164   -4802.1144            0    10894.945    18.007481    22.642598      19.2662    7855.5263    11639.187    10406.394    10639.253   -1446.7732   -1333.7259   -193.92608   -3004.9393 
17533000    268.54408   -4806.6036   -4269.4823   -4806.6036            0    12688.405    17.841277     22.76046    19.270631    7825.3344    13611.505    12458.387    11995.322      1151.36    319.99121    895.58201   -2821.4247 
17534000    254.04951   -4804.6252   -4296.4948   -4804.6252            0    11525.376    17.789166     22.92937    19.144503    7808.9348    12506.613    12099.712     9969.803    10.571318    1159.3256    1105.5086   -2983.9239 
17535000    264.43704   -4814.6934   -4285.7867   -4814.6934            0    11715.266     17.59342    23.127583    19.127191    7782.7252    11723.947    11743.656    11678.195    406.86992     1376.391    1332.4049   -2956.0681 
17536000    258.73919   -4818.3225   -4300.8122   -4818.3225            0    9758.7145    17.651444    23.362479    19.121269    7885.2577    11275.374    8454.2228    9546.5469    196.12945   -1290.5326   -136.47543   -3178.5757 
17537000    278.47485   -4812.9192   -4255.9351   -4812.9192            0    12369.432    17.835785    23.075912    18.974163     7809.329    13707.049    11524.867    11876.379   -1169.7482   -787.38804   -1097.3674   -2847.1675 
17538000    263.90887   -4792.2894    -4264.439   -4792.2894            0    12232.971    17.693518    23.110586    19.145557    7828.7635    12869.412    12032.876    11796.626    291.99528    180.83002    474.18671   -2867.7458 
17539000    267.36927   -4804.3586    -4269.587   -4804.3586            0    10806.268    17.687123     23.31555    18.983029    7828.3163    12445.714    10515.674    9457.4167   -355.44907    -1367.307    2282.8176   -3035.8574 
17540000    260.82903   -4778.7259   -4257.0356   -4778.7259            0    12199.177    17.671768    22.977236    19.292844    7833.8282     13260.18    10906.867    12430.483    1310.9155   -1709.1643    471.92759   -2863.2998 
17541000    264.03944   -4802.8482   -4274.7366   -4802.8482            0    10447.048    18.073149    22.854073    19.107457    7892.2411    8508.7145    10420.022    12412.409   -844.87232    674.61941   -1543.6286   -3072.2789 
17542000    266.61914      -4782.9   -4249.6288      -4782.9            0    12131.608    17.720454    23.007735    19.099679    7787.0827    12805.685    11216.544    12372.594   -1357.6018    -1357.009    1928.5957   -2871.8832 
17543000    275.59983   -4791.7957    -4240.562   -4791.7957            0    10915.983    17.709976    23.013008     19.24357    7842.9059    9332.4816    11203.537     12211.93   -948.44377   -12.939279   -235.88899   -2991.9838 
17544000    264.54076   -4820.4037   -4291.2895   -4820.4037            0    11695.803    17.720622    22.955648    19.218624    7817.9128    11182.158    13493.633    10411.619   -1960.6834   -61.907344   -1472.7597    -2957.778 
17545000    271.44042    -4843.178   -4300.2636    -4843.178            0    10462.645    17.798174    23.110228    19.049009    7835.2357    10607.808    10996.052    9784.0763   -226.37402     417.9937      -682.77   -3104.7089 
17546000    267.86087   -4812.9904   -4277.2355   -4812.9904            0    13744.699    17.593266    23.323673    18.980173    7788.3162    15606.746    12252.882    13374.468   -691.84013    1223.4733    1332.7043   -2716.0494 
17547000    270.74719   -4798.0628    -4256.535   -4798.0628            0     12654.22    17.535002    23.142949    19.171061    7779.8401    13016.838    12797.282     12148.54   -29.217362   -1005.8188   -1485.2246   -2820.7747 
17548000    253.05905   -4786.7106   -4280.5613   -4786.7106            0    11830.246    17.565941    23.353827    19.009768     7798.414    10647.421    11658.106     13185.21    93.529059    677.60566    -333.1688   -2935.0853 
17549000    273.87977   -4803.5419   -4255.7485   -4803.5419            0    10549.809    17.889851    23.135061    19.052855     7885.649    10785.565    9858.8688    11004.994   -1082.5017    915.66947    1254.3297   -3042.4772 
17550000    262.98501   -4819.5305    -4293.528   -4819.5305            0    13418.399    17.651642    22.880087    19.243237    7771.7874    13903.371    13681.626      12670.2   -1602.6876    461.21756   -1046.0655   -2772.6391 
17551000    285.49566   -4769.2808   -4198.2542   -4769.2808            0    11162.115    18.037065    22.984069    18.961713    7860.8655    10965.493    10898.469    11622.384   -206.48747   -356.32502    1183.1985   -2918.5996 
17552000    267.44671   -4827.3676   -4292.4411   -4827.3676            0    10728.732    17.674515    22.994626    19.269654    7831.5508    10559.352    11017.251    10609.592   -755.26199   -794.88035    -335.3466   -3067.0576 
17553000    256.59181   -4820.4989   -4307.2836   -4820.4989            0    11223.164    17.830108     23.09842    18.988252    7820.2607    12553.596    9979.1063    11136.791   -319.60863    322.09715    1068.8826   -3027.2763 
17554000    271.56712   -4781.2052   -4238.0374   -4781.2052            0    10381.441    17.674168    23.125886    19.283004    7881.5574    12282.299    9307.4052    9554.6192    277.58408     243.8044    1020.6285   -3044.7486 
17555000    275.79287   -4794.9095   -4243.2896   -4794.9095            0    11869.584    17.773983    23.181285    19.034213    7842.5481    11050.587    12645.733    11912.431   -475.45272    679.43959    194.70435   -2885.6998 
17556000    293.65376   -4805.9271   -4218.5833   -4805.9271            0    12473.464     17.63611     23.11982     19.18018    7820.5977    14149.369    11658.394    11612.629    841.62736   -1503.6944    1318.2707   -2795.9175 
17557000    255.25668   -4823.4296   -4312.8847   -4823.4296            0     10582.23    17.802574    23.071969    19.173606    7875.3755     10261.66    12065.803     9419.228    886.36714    784.45358     3142.963   -3097.4704 
17558000    272.69497   -4802.9562   -4257.5326   -4802.9562            0    12736.174    17.837393    22.920698      19.0918    7805.5965    11808.855    13797.574    12602.092   -435.76418    632.58467   -2770.5349   -2807.6896 
17559000     271.1183   -4808.8804   -4266.6103   -4808.8804            0    10527.803    17.822535    22.930802    19.248203    7866.4523    10007.329      10349.1    11226.981    1124.9502   -117.89684     1917.946   -3058.8171 
17560000    274.75884   -4811.6568   -4262.1052   -4811.6568            0    10429.671    17.892818    22.675791    19.292186    7827.4917     10330.66    10689.907    10268.445   -932.46143     519.9397   -1942.1576   -3071.4964 
17561000    287.57092   -4808.7305   -4233.5531   -4808.7305            0    11724.683    17.873949     22.89127     19.12276    7824.2189    10416.553    11915.841    12841.654    682.01312    11.792059    586.19304   -2895.6706 
17562000    291.41149   -4788.0701   -4205.2111   -4788.0701            0     12070.83    17.701021    22.976916    19.212029    7813.8177    15000.689    11410.424    9801.3771   -1023.0337     1092.389   -1435.4089   -2829.6614 
17563000    276.99778   -4793.2973   -4239.2675   -4793.2973            0    10189.897    17.946661    23.020262     19.05301    7871.5006    9229.5646    10086.706    11253.421    330.16896   -525.34386   -24.140921   -3069.4901 
17564000    258.53745   -4793.5054   -4276.3986   -4793.5054            0    10982.869    17.751166    22.957405    19.297408     7864.093    10625.177     11054.63      11268.8   -1426.5161   -487.44523   -633.54679   -3016.7763 
17565000    258.83772    -4803.744   -4286.0366    -4803.744            0    12942.062    17.884997    22.877957    19.097826    7814.2996    10727.186      13225.7    14873.302    390.08596    721.30347    563.00452   -2811.1133 
17566000    265.91971   -4768.9195   -4237.0472   -4768.9195            0     9861.227    17.596136    23.196891    19.334253    7891.7713    10585.919    9755.8908    9241.8718    289.67171    158.35537    166.18325   -3102.0852 
17567000    263.71087   -4817.0966   -4289.6423   -4817.0966            0    10239.252    17.774754    23.140101     19.13032    7868.4846    10271.964    9798.5145    10647.277   -1889.0844    -55.03436    117.11221   -3114.6495 
17568000    267.11521   -4791.2376   -4256.9742   -4791.2376            0     12268.37    17.710508    22.967908    19.231786    7822.9774    13632.321    11772.169    11400.619    27.388219   -361.98104   -995.70291   -2857.2746 
17569000    261.74889   -4822.5409   -4299.0108   -4822.5409            0    11823.177    17.845636    22.873201    19.117013    7803.3127    11082.871     12296.92    12089.739   -775.57053    48.616342   -1613.8352   -2953.4941 
17570000    268.52535   -4791.0173   -4253.9334   -4791.0173            0    12297.739      17.9293    22.683471    19.285328    7843.3193    13264.718    12394.643    11233.857   -1126.4399    425.93695    1349.0798   -2847.2347 
17571000    268.87219   -4802.4778   -4264.7002   -4802.4778            0     11619.72    17.825351    22.654961    19.419366    7842.1736    12579.423    11740.084    10539.654   -1008.5311   -91.116185   -775.88222   -2935.7522 
17572000    275.84642   -4766.6876   -4214.9607   -4766.6876            0      10415.9    17.974452    22.909575     19.18284    7899.2456    10570.852    12050.368    8626.4813   -376.99939    1842.4465    125.16547    -3015.024 
17573000    261.45686   -4827.2785   -4304.3325   -4827.2785            0    10444.792    17.775689    22.927801    19.229925    7837.2992     9617.083    11518.484     10198.81   -1163.0291    116.92739    794.77501   -3110.5035 
17574000    263.11345   -4829.7806   -4303.5212   -4829.7806            0    10526.395    17.841819    22.987035    19.123648    7843.1916    9661.1243    10997.736    10920.325    665.77016   -300.92899    400.90273   -3099.4605 
17575000    267.85655   -4814.7736   -4279.0274   -4814.7736            0    10921.772    17.732185    22.931546    19.319064    7855.6419    12552.427    11477.402    8735.4875    -1265.995   -128.82345     473.0974   -3027.7584 
17576000    264.20678   -4784.9544   -4256.5082   -4784.9544            0    10950.925    17.970516    22.930039    19.049505    7849.6271    8630.4652    12088.918    12133.393   -1540.1222    94.961131    199.61253   -3002.8598 
17577000    264.05204   -4848.4876   -4320.3509   -4848.4876            0    9681.5879      17.7848    22.921366    19.292737    7864.7208     9590.844    9447.0056    10006.914   -299.61801    220.29002    830.71442   -3209.8836 
17578000    292.78544   -4784.2538   -4198.6468   -4784.2538            0    12793.907    17.823486     22.91826    19.089467    7797.7283    12827.632    12420.215    13133.873    820.67067    26.245671    776.20596   -2743.6998 
17579000    262.28234   -4796.8563   -4272.2592   -4796.8563            0    11331.475    17.597808    22.902913    19.379313    7810.6586    13240.069    10645.607    10108.749   -2117.6731   -979.03577   -1782.1081   -2981.4859 
17580000    266.15602   -4768.3738   -4236.0288   -4768.3738            0    11004.791    17.998917    23.039618      18.9966     7877.665    11273.182      10509.9    11231.292    1150.2882    1313.0331    1139.0499   -2971.7141 
17581000    264.35816   -4788.9594   -4260.2104   -4788.9594            0    11026.121    17.687805    23.019171    19.283642    7851.5005    10323.206    11953.754    10801.402   -1129.4729   -377.14267    -432.7222   -2997.6526 
17582000    265.86646   -4829.6503   -4297.8845   -4829.6503            0    10983.366    17.844763    23.034259    19.077562    7841.6582    11243.189     10831.42     10875.49    -664.6703   -934.37611   -6.0057864   -3041.7988 
17583000    266.34153   -4781.3228   -4248.6069   -4781.3228            0    12436.385    17.897907    22.888292    19.096069    7822.7527    12470.156    12042.053    12796.945   -1737.4979     771.2404   -1210.0099   -2829.7792 
17584000    272.15906    -4775.741   -4231.3893    -4775.741            0    12167.001    17.835467     22.94826    19.197378    7857.3512    11690.276    11860.803    12949.923     557.1143   -160.25032    675.00359   -2837.1556 
17585000    275.40088   -4837.6095   -4286.7737   -4837.6095            0    12540.158     17.82648    22.865074    19.135288    7799.6159    11721.345    13372.736    12526.392    80.355217   -275.60076    1076.9271   -2860.3383 
17586000    269.23542     -4807.75   -4269.2459     -4807.75            0    13537.994    17.689618    22.832765    19.177162    7745.7113    14491.183    12193.656    13929.144     386.7969    -896.5653   -122.53392     -2739.95 
17587000    266.55075   -4804.9609   -4271.8265   -4804.9609            0    12230.533    17.670002    22.894201    19.321285    7816.2438    12528.683    12980.996    11181.919   -322.20849   -104.27445   -1787.6832   -2877.6448 
17588000    275.05287   -4817.3518   -4267.2121   -4817.3518            0    11431.467    17.928874    22.927558     19.10139    7851.9187    10549.733    11141.252    12603.416    202.68787    124.76868     984.8391   -2958.1699 
17589000    253.52216   -4828.9698   -4321.8941   -4828.9698            0    12115.257    17.820822     22.80336    19.245256    7820.7834    12659.806    11309.622    12376.342    969.85144   -715.28943   -876.92198   -2940.0509 
17590000     261.0976    -4796.699   -4274.4715    -4796.699            0    12455.219    17.888856    22.551311    19.366468    7812.7652    11211.995    13882.444    12271.218    988.46423    123.79794    556.41779   -2855.3093 
17591000    253.04204   -4788.3629   -4282.2475   -4788.3629            0    9957.6333    17.848114    22.941967    19.238569    7877.6329    9949.5971    10352.935    9570.3683    -1240.869   -429.57183   -1860.5039   -3138.2429 
17592000    263.31016    -4806.233   -4279.5802    -4806.233            0    11024.041    17.901931    22.827914    19.253266    7868.1119    10156.858    10854.344    12060.921  -0.43807544   -691.87388   -564.86925   -3014.5898 
17593000    276.71859   -4795.9155   -4242.4442   -4795.9155            0     12565.45    17.843765    22.664414    19.395186    7843.7714    10227.383    14487.752    12981.214    82.127082    883.07034    597.03511   -2805.0401 
17594000    257.70164   -4777.8262   -4262.3911   -4777.8262            0    12203.141    18.046524    22.523407      19.2274    7815.3458     12646.06    11605.992    12357.372    740.82158    25.076043    1386.2582   -2871.4916 
17595000    248.80552    -4805.998   -4308.3562    -4805.998            0    11092.956    17.822866    22.728574    19.273156    7807.3307    11014.765    11607.724    10656.377    509.19919   -43.026705    270.57588   -3045.2911 
17596000    276.14661   -4808.8152   -4256.4879   -4808.8152            0    11008.352    17.991084    22.823102    19.140892    7859.4865    8939.2503    12775.903    11309.904     -531.982   -218.01016   -1196.0926   -2994.6825 
17597000    272.09044   -4812.6782   -4268.4637   -4812.6782            0    12125.779    17.700667    22.962115    19.202758      7804.86    14442.125    12242.238    9692.9727   -958.35755   -342.14311   -2110.3522   -2888.2363 
17598000    267.30962   -4802.6713    -4268.019   -4802.6713            0    10912.927    17.781852    23.058927    19.074747    7821.2264    10743.212     11649.16    10346.408    1070.2674   -148.82809    1372.0525   -3023.2408 
17599000    264.59111   -4800.9624   -4271.7475   -4800.9624            0    12179.066    17.509227    23.113271    19.292681    7807.6614    12121.248    14468.032    9947.9171   -554.24389      301.155    843.33533   -2884.9571 
17600000    271.04596   -4803.7421   -4261.6167   -4803.7421            0    12869.261    17.879976    23.049798      18.8926    7786.2042    10874.585    11857.874    15875.323   -816.16837   -844.32737   -1627.0226   -2800.2633 
17601000    266.37855     -4849.11     -4316.32     -4849.11            0    8615.2757    17.632502    23.120384    19.365976    7894.9314    10394.521    8282.8824    7168.4235    370.77961    223.55515    2.2788174   -3324.3617 
17602000    262.56358   -4792.7152   -4267.5556   -4792.7152            0    9739.7209    17.919081    23.248311    18.961433    7899.1127    10924.431    9008.8496    9285.8815   -903.47315   -1212.1835   -2018.8703   -3145.5353 
17603000    274.59299   -4796.1662   -4246.9463   -4796.1662            0    11907.306     17.57784    22.848728    19.418189     7798.952    14000.994    12213.257    9507.6674    23.405233    245.62634    648.32138   -2892.6127 
17604000    277.67134   -4793.8801   -4238.5031   -4793.8801            0    13707.567    17.899333     23.00594    18.898386    7782.1852    12235.248    12666.583    16220.872    735.92303   -227.16871    485.70645   -2682.7602 
17605000    276.43062   -4756.5831   -4203.6877   -4756.5831            0    13259.075    17.581226    22.913742    19.379268    7806.9706     13111.85    13554.096    13111.279   -813.17276    2054.7157   -1743.1687   -2694.0537 
17606000    257.10584   -4808.6655   -4294.4221   -4808.6655            0    11404.436    17.909573    22.934395    19.122846    7854.6175      10203.4    11069.583    12940.324    672.39735   -284.78663   -572.85876   -2988.0264 
17607000    284.75635   -4827.7296   -4258.1817   -4827.7296            0    11572.214    17.653537    23.105475    19.225697    7842.0342     12249.67    11810.386    10656.585    1278.2827    932.90977   -1172.0645   -2934.6904 
17608000    273.13462   -4798.9449   -4252.6419   -4798.9449            0    9322.2009    17.898666    23.006905    19.229441    7918.5474    11103.993    9132.6074     7730.002    768.31555    21.202566    553.00349   -3176.0779 
17609000    266.58948   -4822.4869    -4289.275   -4822.4869            0    10172.229    17.787215    23.059825    19.172058    7863.8045    9698.2281    11443.836    9374.6238    256.55011    80.786973   -3.5233947   -3122.6676 
17610000    271.32622   -4780.5408   -4237.8549   -4780.5408            0    12381.076    17.607023     23.23617    19.128047    7825.6622    14007.356     11496.64    11639.231   -4.8701351   -972.20221   -1022.4818   -2824.8119 
17611000    276.26105   -4782.0145   -4229.4582   -4782.0145            0    12067.908    17.732356    23.259126    19.017821     7843.693    13217.103    11758.651     11227.97    437.50174    47.604454   -308.77945   -2848.9835 
17612000    268.17458   -4801.1662   -4264.7839   -4801.1662            0    10966.062    17.787569    23.187542    19.058189    7860.5501    9992.3259    10930.422    11975.439    1920.6683    96.920985    112.12726   -3007.6558 
17613000    277.04839   -4837.4073   -4283.2763   -4837.4073            0    11251.364    17.421866    23.301079    19.225015    7804.3615    12366.562    10543.119    10844.413    490.55755    985.08902    1086.8556   -3002.6617 
17614000    262.56337   -4772.1182    -4246.959   -4772.1182            0    10040.623     17.87434    23.211516    19.037922     7898.654    7989.6479    10574.485    11557.735   -228.09778    31.143502   -151.13594   -3090.3419 
17615000    265.18593   -4808.9213   -4278.5167   -4808.9213            0     8596.037    17.623083    22.930753    19.592781    7917.6496    9667.9173     9316.499    6803.6948   -1486.6617   -442.81365    321.11869   -3285.9255 
17616000    265.85431   -4848.0589   -4316.3174   -4848.0589            0    8003.5602    17.951792    23.088992     19.15439    7939.2801    8215.4362    7229.3983     8565.846   -541.31716   -139.71234   -1019.2126   -3389.6152 
17617000    257.49736   -4825.3267   -4310.3001   -4825.3267            0    10019.812    17.814525    23.071124    19.171901     7879.673    7909.2532      10062.5    12087.683    1128.9047   -207.49643    1189.6023   -3158.8539 
17618000    260.26687   -4804.9115   -4284.3456   -4804.9115            0    12012.784    17.780027    23.011093    19.124392    7824.5126    11089.194    13177.139     11772.02    857.53697    407.57155    501.68332   -2913.5369 
17619000    266.15045   -4822.8758    -4290.542   -4822.8758            0    11808.403    17.953866    22.824272    19.117075    7833.8699    10673.494    11302.782    13448.933   -1622.1267   -556.43095    430.90281   -2941.4443 
17620000    262.37262   -4800.0529   -4275.2752   -4800.0529            0    10658.797    17.861571    23.034802    19.103531    7859.9139     12039.87    11197.662    8738.8595   -463.11134    239.51575    65.541511   -3053.4703 
17621000    268.64428   -4839.0914   -4301.7696   -4839.0914            0    10990.149    17.899523    22.845613    19.247281    7870.7058    11070.699     10946.86    10952.889    -890.1847   -300.84457     -1853.29   -3040.2524 
17622000    285.99821    -4799.235   -4227.2032    -4799.235            0    9674.4618    17.839096    22.924579    19.220092    7860.1291     7942.358    10352.883    10728.144    286.90584    230.50585   -349.63728   -3118.2011 
17623000    263.02899   -4796.3618   -4270.2713   -4796.3618            0    11010.918    17.728498    23.043531    19.179234    7835.2386    9073.3583    12201.068    11758.326     863.2888   -1086.0346    457.22892   -3012.0656 
17624000    273.45253   -4795.7738    -4248.835   -4795.7738            0    13061.938    17.803163    23.041255    19.003546    7795.3917    11258.651    13506.929    14420.234    433.76896    1178.1044    1413.3947   -2763.8521 
17625000    272.94275   -4779.0075   -4233.0882   -4779.0075            0    13929.397    17.777107    23.004382    19.116924    7817.8921    14382.636    13120.122    14285.434    881.63084    159.97724    2734.2349   -2644.9149 
17626000    264.93715   -4808.5441   -4278.6371   -4808.5441            0     12455.68    17.836865    22.570054    19.468539    7837.6253    13549.351    12782.788    11034.901   -306.24005    1873.9282   -3655.7952   -2854.9065 
17627000    259.85358   -4798.2212    -4278.482   -4798.2212            0    10873.967    17.865366    22.909471    19.192554    7855.2448    11289.716    10639.928    10692.258    566.83006    -638.4259    22.526521   -3032.7528 
17628000    259.79489    -4810.153   -4290.5311    -4810.153            0    10131.326    17.842491    22.859722    19.305368    7874.1654    10509.537    10992.015    8892.4256   -7.0533868   -250.75889   -71.735271   -3127.0839 
17629000    281.58327   -4783.3178   -4220.1165   -4783.3178            0    9580.9772    17.751018    23.177842    19.246521    7918.6018     11377.58    8517.6656    8847.6857    340.96606   -413.55516     -899.751   -3113.6604 
17630000    261.73044   -4824.6914   -4301.1981   -4824.6914            0    9727.9728    17.660408    23.344478    18.958483    7816.0708    6737.1129    10008.608    12438.198    1310.2393   -856.17489   -1099.4613   -3192.3126 
17631000    263.18137   -4826.9478   -4300.5526   -4826.9478            0    11607.516      17.6068    23.125859    19.145616    7795.5657    12732.993    11599.237    10490.317      1196.95   -573.10466    608.68618   -2980.8903 
17632000    275.06432   -4797.5825   -4247.4199   -4797.5825            0     9655.995    17.898875    22.939889    19.214095     7889.273    10623.831    9241.3937    9102.7602    1170.2663    103.17661   -85.773176   -3136.4305 
17633000    270.77012   -4777.8804   -4236.3067   -4777.8804            0    10614.973    17.859302    23.078418    19.056995    7854.6157    10562.046    9390.7667    11892.105   -162.37135   -830.07051   -2099.7862   -3020.3455 
17634000    264.82074   -4822.2703   -4292.5961   -4822.2703            0    11319.191    17.636394    22.909519    19.318172    7805.3394    12691.674    11905.688    9360.2112   -1323.7973    265.50616     -1424.36   -3004.1001 
17635000    264.51145   -4808.2183   -4279.1627   -4808.2183            0    11820.841    17.773992    22.982079    19.083741    7795.3891    10433.505    12009.746    13019.273   -1043.0723   -1148.4664   -899.75456   -2935.2778 
17636000    272.58459   -4781.8825   -4236.6796   -4781.8825            0    14485.544    17.762156    22.921348    19.159668    7800.5249    15347.373    14876.409    13232.851    278.98919   -246.73482   -258.73727   -2588.7656 
17637000    266.14408    -4807.716    -4275.395    -4807.716            0    11709.417    17.817051    22.782133    19.238073    7808.9345    10455.665    11897.422    12775.163   -2387.5128   -474.90081   -2381.1481   -2941.8645 
17638000    270.13111   -4814.6791   -4274.3835   -4814.6791            0    11684.056    17.747185    22.872202    19.273376    7823.3949    11944.069    13131.763    9976.3345     1600.374    629.71572     1840.232   -2941.2773 
17639000    256.75738   -4819.5157   -4305.9692   -4819.5157            0    11021.726    17.866563    23.095873    19.046288    7859.3339    11662.392    9621.4598    11781.325   -482.16571   -212.03049    485.19118   -3042.6555 
17640000    274.23245   -4805.4974   -4256.9986   -4805.4974            0    9747.2311    17.781519    23.011621    19.254344    7878.5226     10100.34    10050.313    9091.0404    1077.3918   -309.75916    920.03893   -3137.0401 
17641000    266.32947   -4804.9561   -4272.2643   -4804.9561            0    10952.459    17.835971    22.907821    19.121987    7812.9232    10063.465    10812.281    11981.631    539.50307    549.29176   -1792.8883   -3024.3031 
17642000    267.08905   -4797.9719   -4263.7608   -4797.9719            0    12702.878    17.708442    22.982372    19.216076    7820.5971    12942.043    11950.923    13215.667    1809.0967     55.30311    1514.4673   -2814.9291 
17643000    262.52271   -4812.7998   -4287.7219   -4812.7998            0    9656.1606    17.852988    22.897079    19.297019      7888.26    10969.054    8602.7791    9396.6483   -2022.5239    1313.3977   -2501.7845   -3176.8561 
17644000    267.17561   -4813.4264   -4279.0422   -4813.4264            0    10512.164    18.020811     23.07084    19.010499    7903.7146     8775.163    10903.238    11858.092   -408.17908    754.62103    1659.7459   -3067.3305 
17645000    267.34373   -4803.4805     -4268.76   -4803.4805            0    10041.355    17.756629    22.882284     19.32459    7851.8172    10454.415    10644.115    9025.5346    806.90174   -691.48749   -1528.8041   -3118.9174 
17646000    273.76517   -4840.1895   -4292.6253   -4840.1895            0    9972.0065    17.813827    23.149447    19.086171    7870.7603    10478.169    9628.5914     9809.259    219.09537    138.46168   -611.21931    -3147.969 
17647000     253.4026   -4818.1753   -4311.3388   -4818.1753            0    11284.316    17.710172    23.161971    19.078796    7826.1697    11211.501    11517.449    11123.997   -1201.2117    329.91291   -1114.5487   -3023.3847 
17648000    270.57984   -4826.0596   -4284.8664   -4826.0596            0     10301.03      17.7231    23.277842    19.026842    7849.6283    9879.0264    10602.656    10421.408    871.64128    214.08401     -70.1165   -3105.6171 
17649000    278.98754   -4803.2068   -4245.1973   -4803.2068            0    10100.246    17.747982    23.116865    19.209404    7881.1902     8931.529    10871.112    10498.096   -308.50598   -787.29674   -490.17092   -3084.2844 
17650000    259.81426    -4811.122   -4291.4614    -4811.122            0    10365.589    17.818428    23.045304    19.139588    7859.3101    10393.991    11796.961    8905.8146   -493.61044   -426.50578    1432.7216   -3103.3579 
17651000    271.13246   -4773.8784     -4231.58   -4773.8784            0    9781.6334    17.818853    23.101484    19.182807    7896.4478    10625.009    9201.4162    9518.4755   -49.836731    268.12267   -1080.5573   -3105.1116 
17652000    266.75424   -4798.2276   -4264.6862   -4798.2276            0    10064.687    17.825603    23.105202    19.109471    7870.5063    11173.954     10404.61    8615.4972    1113.2238    916.91246    -1083.799   -3109.4286 
17653000    280.73943   -4817.6979   -4256.1843   -4817.6979            0    10268.815    17.686335    23.335199    19.081806    7875.3311    9214.0197    9625.7228    11966.702    294.38445    382.59763    221.75448   -3076.7737 
17654000    263.60693   -4805.5888   -4278.3424   -4805.5888            0    11134.049    17.675309    23.113624    19.189542    7839.7042    11422.094    11519.997    10460.056    628.22651   -53.133121   -373.80649   -3005.3416 
17655000    267.64668   -4816.9178   -4281.5914   -4816.9178            0     10232.41    17.703641    23.206482    19.096595    7845.6301    13069.589    8826.5719    8801.0684    1263.0302    -1572.454    1360.6279   -3110.7943 
17656000    264.61695   -4843.9123   -4314.6457   -4843.9123            0    8841.1674    17.609728    23.132847    19.365866      7888.94    11053.225    7036.6701    8433.6075    341.38195   -424.15012   -283.25739   -3297.4508 
17657000    267.43361   -4817.1457   -4282.2454   -4817.1457            0    11083.166    17.766825    23.168056    19.086856    7856.5848    9983.8116    11446.361    11819.326   -92.080766    727.22838    1489.9907   -3012.3337 
17658000    259.04988   -4820.0705   -4301.9388   -4820.0705            0    10713.909    17.707771    23.244038    19.015296     7826.698    10663.569    10506.102    10972.056   -732.62572    979.39883    2382.7401   -3079.0064 
17659000    269.37846   -4826.4845   -4287.6943   -4826.4845            0    9992.3546    17.381577    23.698774    19.022977     7835.984    12997.114    7940.6302    9039.3194   -665.27064    -1408.154    1225.2898   -3145.7701 
17660000    273.28945   -4799.3971   -4252.7844   -4799.3971            0    12454.775    17.690111    23.081334     19.06419    7784.1255    13141.929    12888.971    11333.424   -1847.8382   -1505.7746    1065.7196   -2838.8749 
17661000    260.01727    -4816.342   -4296.2754    -4816.342            0     10045.69    17.721941    23.204659    19.076824    7844.9929     10685.65    8978.3069    10473.113    -63.09002    401.38545    1605.4245   -3146.9362 
17662000    275.53435   -4839.0463   -4287.9435   -4839.0463            0    7784.2704    17.903499    23.116346    19.215938    7952.7751    7596.7123    6825.0591    8931.0397   -1635.3708   -305.76205   -149.03865      -3385.1 
17663000    264.85594   -4802.6191   -4272.8745   -4802.6191            0    12067.115    17.822006     22.88095    19.159411    7812.9092    10147.206    13364.358    12689.782   -310.82178    1929.3162    448.18372   -2897.9079 
17664000     267.0259   -4822.0707    -4287.986   -4822.0707            0    10524.769    17.814099    22.951125    19.177695    7840.8699    8086.4193    11896.958    11590.931   -848.31369    208.96955    1270.8784   -3084.4676 
17665000    266.07005   -4809.4011   -4277.2281   -4809.4011            0    11880.796     17.75353    22.962505    19.119137    7794.2131    13096.581    10752.713    11793.092   -671.36624   -1009.8042   -56.804186   -2926.7309 
17666000    285.44155   -4788.9145   -4217.9962   -4788.9145            0    10761.714    17.682653    23.099797    19.304055    7885.0439    11650.708     10615.75    10018.684   -346.72618    1943.4157   -45.576319   -2980.4499 
17667000    267.26852   -4811.9568   -4277.3867   -4811.9568            0    11347.392    17.810087    22.888809    19.237655    7842.2622    11266.125    11745.209    11030.843   -660.89309   -35.507786    189.03258   -2979.5702 
17668000    274.82147   -4804.4325   -4254.7556   -4804.4325            0    11433.513    17.796211    22.795958    19.308609    7833.1491    11183.809    10697.085    12419.646    638.86112   -778.76082   -1263.4549   -2948.6088 
17669000    274.30514   -4780.2051   -4231.5609   -4780.2051            0    11163.719    17.733703    23.022082    19.287331    7874.3761    11576.006    11094.697    10820.453   -628.14907   -472.89619     -742.029   -2949.5228 
17670000    271.31522   -4787.8347   -4245.1707   -4787.8347            0    13577.563    17.799529     22.90048    19.095227    7783.5539    13168.988     14117.67    13446.033    229.00976   -485.36369    303.45609   -2703.9116 
17671000    267.51613   -4787.7052   -4252.6399   -4787.7052            0    12278.875    17.863168     22.98037    19.090847     7836.835    12476.183    12385.209    11975.233    1490.1728   -501.79234    647.62051   -2849.2602 
17672000    270.61841   -4834.3031   -4293.0329   -4834.3031            0    11654.797    17.784516    23.048941    19.075768    7819.4291    13271.317    10289.403    11403.671    987.91729    44.704807   -1180.4806    -2963.939 
17673000    272.56619   -4825.2603   -4280.0942   -4825.2603            0    13150.903    17.677565    22.953903    19.091452    7746.7217    13572.952    12717.044    13162.712    -389.2879   -1129.2549   -1161.2751   -2794.3317 
17674000    266.52768    -4811.678   -4278.5897    -4811.678            0    10863.926    17.710743    23.215018    19.131942    7866.1976    11520.637    10260.171     10810.97   -879.10941    16.134482   -2054.5852   -3032.2756 
17675000     254.8764   -4775.7221   -4265.9378   -4775.7221            0    12774.697    17.420065    23.389239    19.133109    7795.6336     14926.03    12142.365    11255.696     1394.475   -84.516446    1526.3472   -2813.5656 
17676000    268.14782   -4811.8415   -4275.5128   -4811.8415            0    13703.491    17.668197     23.14681     19.02363    7779.9491    12043.369    13532.506    15534.598    30.423306    114.35848    731.91543   -2720.6794 
17677000    275.28721   -4790.1622   -4239.5538   -4790.1622            0    13372.543    17.727421    23.026708    19.073332    7785.8131    13608.949    13466.362    13042.318    314.86232    1607.9547   -948.08211   -2721.1269 
17678000     264.4386   -4784.2055   -4255.2956   -4784.2055            0    11735.387    17.673274    23.132684    19.192025    7846.2806    12599.706    11164.779    11441.675    107.04021    389.17709   -2174.8142   -2912.4158 
17679000    275.39513   -4801.3938   -4250.5696   -4801.3938            0     10614.77     17.83293    22.906521    19.213805    7848.6548    10910.109    11216.486    9717.7154    2214.1615    1308.5641   -108.51808   -3035.5543 
17680000    262.97957   -4791.6576    -4265.666   -4791.6576            0    10342.585    17.887694    22.926606    19.216142    7880.6187    8905.9172    12191.865    9929.9729    -662.5152     980.0402    1432.5206   -3076.9851 
17681000    262.46306   -4827.5093   -4302.5508   -4827.5093            0    10334.318    17.738473    23.084537    19.244414     7880.288      11364.9    10119.911    9518.1418    1092.6607   -301.96372   -168.43311   -3114.8698 
17682000    268.52302   -4795.8096   -4258.7304   -4795.8096            0    11133.361    17.804636    22.998546    19.156644    7844.2767    10048.041      11864.4    11487.642   -293.26359   -117.33696   -1235.6833   -2985.0658 
17683000    250.89502   -4804.1443   -4302.3233   -4804.1443            0    9823.2828    17.871659    22.861606      19.2955    7883.6556    10008.663    10207.458    9253.7278    -577.7195    814.37892    362.54505    -3172.891 
17684000    260.00362   -4831.1925   -4311.1531   -4831.1925            0    9615.9068     17.88325    23.005174    19.174308    7888.4499     9576.849    9530.8071    9740.0642   -239.80373   -119.35988   -18.893688   -3204.8916 
17685000    276.87085   -4781.4731   -4227.6972   -4781.4731            0    12628.433    17.634429    22.851512    19.337424    7792.4669    11928.727    14159.628    11796.945   -1271.6234    880.85965    428.75631   -2792.5372 
17686000    276.26184   -4802.6284   -4250.0706   -4802.6284            0     10399.28    18.079862    22.824108     19.05726    7864.1064    8348.6109    11180.866    11668.363    946.88427    256.10469    1560.9186    -3057.378 
17687000    272.02312   -4833.7311   -4289.6513   -4833.7311            0    10183.559    17.649654    22.917762    19.446601    7865.9667    11134.462    10090.892    9325.3214    -1977.297   -602.88448    23.773722   -3121.4234 
17688000     277.6125    -4789.757   -4234.4977    -4789.757            0    13449.531    17.818137    22.957039    19.009326    7775.7965    11414.932    13492.108    15441.553    640.28524   -154.68221    1823.8288   -2709.2938 
17689000    256.69631   -4817.4319   -4304.0076   -4817.4319            0    12511.647    17.813024    22.874256    19.224054    7833.0269    10610.608    13981.941    12942.391   -1216.4923    1243.2219   -2219.0623   -2874.7189 
17690000    282.56407   -4782.3759   -4217.2129   -4782.3759            0      11980.1    17.712987     23.09321    19.197697    7852.8129    11342.354    12063.352    12534.593   -50.270863    987.05294   -140.15434   -2845.1893 
17691000    261.81215   -4782.7303   -4259.0736   -4782.7303            0    10871.964    17.814723    22.942864      19.2278    7858.8009     11339.64    11618.123    9658.1277   -1836.1922   -571.10115    362.91547   -3013.0101 
17692000     271.4683    -4815.441   -4272.4708    -4815.441            0    9307.8051    17.907408    22.992866    19.248358    7925.3699    7797.6406    10343.078    9782.6972    245.90816   -487.91508    1457.3292   -3196.6431 
17693000    263.10025    -4805.074    -4278.841    -4805.074            0    12317.498    17.691073    23.014181    19.237704    7832.5457    13476.921    10960.699    12514.873   -29.570971    50.521734    197.98657   -2871.8176 
17694000    265.46597   -4796.3255   -4265.3607   -4796.3255            0    10286.285    17.832507    23.073555    19.148834    7878.9662    9182.1506    11033.433     10643.27    867.43002   -369.64452   -926.53634   -3083.3983 
17695000    274.94707   -4820.9896   -4271.0615   -4820.9896            0    11109.075    17.718486    23.110663    19.164086    7847.4244    10546.241    11420.523    11360.463    270.10754   -868.60722   -1054.6995   -2999.6652 
17696000    267.61765   -4824.4594   -4289.1911   -4824.4594            0    10872.173    17.826072    23.075342    19.162301    7882.2731    10003.388     10760.09    11853.042   -31.627283    445.64715   -1174.7486   -3039.3819 
17697000    274.93082   -4831.1007   -4281.2051   -4831.1007            0     10318.86    17.900675    22.970295    19.185423    7888.7347    11341.889    9451.1879    10163.502    715.57173    -1304.576    1225.8959   -3094.0295 
17698000    263.99892   -4793.1624    -4265.132   -4793.1624            0    10103.265    17.668703    22.937083    19.364461    7847.8063     10947.57    9264.7186    10097.508    1319.8341   -752.65246    753.75839    -3108.791 
17699000    270.29436   -4787.9644   -4247.3423   -4787.9644            0    9758.5704    17.810283    23.172085    19.102193    7883.5019    11342.417    9308.5462    8624.7477    119.41203   -620.28071    945.19333   -3125.3723 
17700000    270.20846   -4827.4664   -4287.0161   -4827.4664            0     8695.425    17.728748    23.096794    19.326531    7913.7746    8593.8134    8951.9182    8540.5435   -884.76773     201.3394    336.72285   -3283.4399 
17701000    271.24941   -4816.0574   -4273.5251   -4816.0574            0    10874.164    17.910632    23.045103    19.032245     7855.604    9769.3002     10781.24    12071.951    301.45309    670.38747    -2515.332   -3027.7165 
17702000    262.60165   -4798.9854   -4273.7496   -4798.9854            0    10361.338    17.759975    23.119856    19.220017     7891.894    10356.389    10640.841    10086.782   -370.08596    462.69046   -19.073582   -3081.2096 
17703000     271.1848   -4846.0808   -4303.6777   -4846.0808            0    10843.544    17.694038    23.204525     19.12512    7852.4255    10467.713    10417.828    11645.093    318.74393    3.7959551   -1972.2868   -3061.8796 
17704000    260.40383   -4827.7769   -4306.9371   -4827.7769            0    10910.132    17.714749    23.060926    19.145337    7821.2249    10583.583    10807.495    11339.318    147.91872     969.1675   -1113.2274   -3062.4778 
17705000    260.00071    -4820.319   -4300.2855    -4820.319            0     11661.49    17.761641    22.992432    19.157006    7823.4016    11933.588    12480.695    10570.188   -236.58038    396.44863   -2649.4975   -2969.7528 
17706000    260.06447   -4802.3042   -4282.1431   -4802.3042            0     12230.86    17.705953    22.981496     19.09667    7770.6122     12286.28    12669.047    11737.255   -52.203381    551.52986   -2163.8502   -2896.0636 
17707000    266.32317   -4807.9494   -4275.2701   -4807.9494            0    8597.9606     17.75119    23.149552     19.19274    7886.9127    6639.5913    8578.9088    10575.382    609.71575   -1471.8139    703.08667   -3286.3109 
17708000    271.78436   -4796.3334   -4252.7311   -4796.3334            0    9493.2938    18.157542    22.777917    19.085183    7893.4598    7893.6104    8956.6907     11629.58   -1121.4055   -657.21885   -3729.7471    -3159.882 
17709000    261.55441   -4800.2347   -4277.0935   -4800.2347            0     10696.23    17.814231    22.864978    19.259418    7844.7847    11347.086    10693.456     10048.15    427.90198   -147.02292   -30.451039   -3053.3577 
17710000    270.53351   -4795.9227   -4254.8222   -4795.9227            0    10165.601     18.00012    22.881156    19.122627    7875.9133    9541.0266    9592.7319    11363.045   -355.35569   -2020.9248   -1558.7467   -3087.1797 
17711000    269.80136   -4814.5224   -4274.8863   -4814.5224            0    9312.5545    17.790151    23.085361    19.220545    7893.7253    8739.7355     9910.971     9286.957    337.16822    844.02682   -1522.5003   -3202.8075 
17712000     259.2428   -4788.2431   -4269.7255   -4788.2431            0    12195.618    17.802615    22.883066    19.223259    7831.1404    10839.075    13451.223    12296.555    -193.5121     1480.432     485.3712   -2876.8744 
17713000    274.34246   -4819.5381   -4270.8193   -4819.5381            0     13883.57    17.830285    22.806174    19.209947    7811.5441    13291.399    15081.518    13277.794    267.32022    1460.1029    -22.74315   -2689.1563 
17714000    261.38722   -4799.1331   -4276.3264   -4799.1331            0    9575.9473    17.808374    23.127633    19.160454    7891.5307    6602.6758    10765.491    11359.676   -507.55153    994.10793     987.4261   -3174.2317 
17715000    256.89617   -4822.0844   -4308.2603   -4822.0844            0    12018.394    17.664871    23.022658    19.129608    7779.8638    11621.234    13158.772    11275.176   -675.43467    827.12697    805.26395   -2944.6373 
17716000    266.48915    -4804.291   -4271.2798    -4804.291            0    12324.416    17.691828    22.977538    19.189825    7800.9448    11888.183    12852.092    12232.972   -18.879846    371.21135    -1119.382   -2869.1461 
17717000    261.18861   -4826.1568   -4303.7473   -4826.1568            0    10826.377    17.746122    22.972812    19.190894    7823.7114    9415.9531    11127.629    11935.549   -1218.8308    46.359719    979.30296    -3068.449 
17718000    272.24599   -4789.1334   -4244.6078   -4789.1334            0    11203.705    17.815578    23.230463    18.952901    7843.9258    9947.1574    11864.023    11799.935   -1631.7642    1424.5228    107.24199   -2962.9531 
17719000    270.72669   -4818.0871   -4276.6003   -4818.0871            0    10048.753    17.613864      23.4402    19.022685    7853.9432    10261.267    10366.058    9518.9343    444.16271    565.84598   -1738.7714    -3125.599 
17720000    261.58819   -4838.2067    -4314.998   -4838.2067            0    10635.078     17.55246    23.412608    19.073044     7838.046    10135.907    10810.965    10958.362   -1969.1831    620.05937   -962.10158   -3099.3038 
17721000    258.99366   -4795.7701   -4277.7508   -4795.7701            0    10710.192    17.517217    23.555338    18.964762    7825.3152    11784.909    9675.1124    10670.555   -1544.1597   -161.10479   -537.94055   -3055.4587 
17722000    260.53201   -4841.1687   -4320.0725   -4841.1687            0    9392.2376     17.74229    23.322978    19.006556    7864.9706    8795.9064     9558.733    9822.0733   -1399.4457    875.56162   -950.20099    -3242.759 
17723000    260.13832   -4825.9046   -4305.5958   -4825.9046            0    12683.823     17.52207    23.195366    19.176323    7793.8488    13423.645    13214.766    11413.058    419.57927    125.23752    1703.8152   -2863.8854 
17724000    269.28897   -4796.0401   -4257.4289   -4796.0401            0    13019.128     17.64667    23.180617    18.986367    7766.5765    10838.173    13330.982    14888.228   -212.26644   -985.48126    458.32907   -2782.7842 
17725000    267.60623   -4820.9415    -4285.696   -4820.9415            0    11373.504    17.497354     23.41435     19.04414    7802.1777     12264.72    10405.884    11449.908    170.79654   -725.94165    2692.3588   -2991.5418 
17726000    269.17304   -4813.7939   -4275.4145   -4813.7939            0    11496.808    17.667768    23.133275    19.183435    7840.5257    11422.796    11350.341    11717.288    1010.0513    1177.7672    1804.5665   -2960.8002 
17727000    274.52731    -4757.595   -4208.5065    -4757.595            0    10355.563    17.857873    23.145674    19.058746    7877.5991    9537.0749    10759.697    10769.917    1041.9381    646.40404    187.34831     -3018.79 
17728000    271.21008   -4775.4952   -4233.0416   -4775.4952            0    13449.006    17.657612    23.190155    19.080011    7812.9355    13297.256    12044.941    15004.821   -1164.5982   -1106.4425    24.779148   -2700.6128 
17729000    279.74366   -4807.8325   -4248.3106   -4807.8325            0    9578.5391    17.684633    23.124575    19.237487    7867.1631    9133.4547    8976.9748    10625.188      1419.91   -575.12762    1981.1195   -3149.3216 
17730000    276.09065   -4773.9163   -4221.7009   -4773.9163            0    10375.125    17.711554    23.219388    19.223717    7905.7813    10760.302    11008.166    9356.9055    1487.1775     118.2653   -234.38367   -3025.4728 
17731000    279.46094   -4815.5497   -4256.5933   -4815.5497            0    11161.612    17.844367    22.942423    19.243762    7878.2621    11681.307    10548.669    11254.862   -401.57477    1181.0536   -329.46181   -2974.1645 
17732000    271.81366    -4818.373   -4274.7121    -4818.373            0     10901.22    18.094078    22.721208     19.09353    7849.7187    8642.1315    12755.997    11305.531    1552.6399    1025.2306    56.618618   -3026.7394 
17733000    269.57125   -4824.7069   -4285.5311   -4824.7069            0    10956.856     17.85376    22.905636    19.135589    7825.5325    8360.0724    12268.365    12242.131   -96.026081   -27.845743   -463.75159   -3035.0539 
17734000    287.52653   -4819.5139   -4244.4254   -4819.5139            0    11519.758    17.927822    22.889563    19.132813    7851.3415    9481.5716     12162.93    12914.772    1381.5636    925.61768    714.37076   -2925.3697 
17735000    251.50608   -4795.9217   -4292.8785   -4795.9217            0    11795.641    17.766903    23.000173    19.222037    7854.9285    11237.809    12001.092    12148.023    304.16004    -32.79902   -1885.2157   -2941.6161 
17736000    274.56926   -4828.1872   -4279.0148   -4828.1872            0     10057.11    17.850063    23.037488    19.072242    7842.8988    10097.475    11184.329    8889.5249   -462.96904    39.980917   -1112.7925   -3128.6762 
17737000    264.03724   -4810.9856   -4282.8785   -4810.9856            0    9541.4914    17.658495    23.128011    19.226358    7852.1576     10359.05      9976.79    8288.6343   -270.21127   -94.883383   -215.34484   -3190.2283 
17738000    270.57073   -4787.2749      -4246.1   -4787.2749            0    10904.781     17.76193    23.144917    19.058564    7834.9448    10972.569    11152.992    10588.783    1322.9442    779.66962    1020.3467   -3000.0692 
17739000    267.70848   -4794.7696   -4259.3196   -4794.7696            0    12528.461    17.729602    23.056384    19.069579    7795.2723    11757.712    12544.192    13283.481   0.54747494    437.93962    811.68672   -2835.0083 
17740000    274.34506   -4786.4612   -4237.7372   -4786.4612            0    14139.615    17.632493    23.119774    19.058107    7769.2133    12218.954    14820.444    15379.448    195.08923   -650.99336    766.01637   -2635.6339 
17741000    263.98041   -4817.3706   -4289.3772   -4817.3706            0    12491.354      17.7876    23.036741    19.069936    7814.2555    10922.311    13163.328    13388.424    1265.4334    162.46732    1172.4236   -2865.8262 
17742000    275.48033   -4837.1184   -4286.1238   -4837.1184            0     9862.129    17.615731    22.972333    19.422562    7859.8145    11418.805    10159.221    8008.3608   -1004.1682   -1422.9681   -118.22366   -3155.6542 
17743000    271.84649   -4775.9402   -4232.2136   -4775.9402            0    12001.285    17.882663    23.203282    18.879024    7833.5956    10377.199    11439.743    14186.913    -1249.758   -95.577738   -868.48257   -2861.1274 
17744000    268.90138   -4791.5675   -4253.7315   -4791.5675            0      11165.9    17.687966    22.935177    19.370292    7858.0745    10579.815    10857.027    12060.857    627.89853    780.25576    1844.9253   -2974.0975 
17745000    261.73264   -4763.0128   -4239.5152   -4763.0128            0    12031.889    17.965824    23.079376    19.047598    7897.8963    11678.258    11484.106    12933.304   -2410.9665   -34.881373    -3039.666   -2853.6495 
17746000    264.56952   -4821.7661   -4292.5944   -4821.7661            0    8744.2517    17.891007    22.911818    19.358169    7935.2136    7400.1523    10231.384    8601.2186     566.4481   -161.69629    2865.9555   -3280.6488 
17747000    268.43337    -4819.076   -4282.1761    -4819.076            0    9830.7361     18.00196    22.791241    19.240668    7894.1964    8417.5188    10791.906    10282.783    1033.1287     63.81781    978.30758   -3150.3756 
17748000    272.94157   -4787.3811   -4241.4643   -4787.3811            0    10614.542    17.897004    22.765702    19.269739    7851.2216    11481.517    11154.709    9207.3991    3012.8548    346.63214    356.86019   -3026.0779 
17749000    270.10989   -4828.3719   -4288.1188   -4828.3719            0     10828.37    17.895214    22.889751    19.152529    7845.2015    12240.203     11542.16    8702.7462    878.78658   -281.93721   -972.23454   -3049.1994 
17750000    285.59741   -4805.9729   -4234.7428   -4805.9729            0    10805.841    17.668298    23.038579    19.269327    7843.6275    11245.521    11070.478    10101.524   -899.97087    576.44188   -2033.5672    -2998.649 
Loop time of 535.694 on 64 procs for 250000 steps with 1008 atoms

Performance: 80.643 ns/day, 0.298 hours/ns, 466.684 timesteps/s
99.1% CPU use with 64 MPI tasks x 1 OpenMP threads

MPI task timing breakdown:
Section |  min time  |  avg time  |  max time  |%varavg| %total
---------------------------------------------------------------
Pair    | 28.195     | 32.68      | 36.371     |  32.1 |  6.10
Bond    | 0.28838    | 0.29557    | 0.31052    |   0.8 |  0.06
Kspace  | 241.13     | 253.9      | 271.89     |  38.0 | 47.40
Neigh   | 4.6514     | 5.6095     | 7.0734     |  22.1 |  1.05
Comm    | 95.989     | 112.61     | 127.95     |  59.7 | 21.02
Output  | 1.3793     | 1.381      | 1.3865     |   0.1 |  0.26
Modify  | 117.28     | 121.96     | 126.09     |  22.4 | 22.77
Other   |            | 7.265      |            |       |  1.36

Nlocal:        15.7500 ave          19 max          11 min
Histogram: 1 1 4 6 0 17 12 14 7 2
Nghost:        2513.06 ave        2540 max        2491 min
Histogram: 2 10 6 9 7 9 12 5 3 1
Neighs:        5321.39 ave        6538 max        3770 min
Histogram: 1 1 4 6 17 7 8 11 7 2

Total # of neighbors = 340569
Ave neighs/atom = 337.86607
Ave special neighs/atom = 2.0000000
Neighbor list builds = 10054
Dangerous builds = 0

unfix		3
unfix		2
unfix		1

write_data	data.final.${pid}
write_data	data.final.0
System init for write_data ...
PPPM initialization ...
  extracting TIP4P info from pair style
  using 12-bit tables for long-range coulomb (../kspace.cpp:340)
  G vector (1/distance) = 0.38405116
  grid = 24 30 32
  stencil order = 5
  estimated absolute RMS force accuracy = 0.0018916642
  estimated relative force accuracy = 5.6966905e-06
  using double precision FFTW3
  3d grid and FFT values/proc = 4080 384
Last active /omp style is kspace_style pppm/tip4p/omp
WARNING: Not all mixed pair coeffs generated from mixing. Use write_data with 'pair ij' option to store all pair coeffs. (../write_data.cpp:312)

write_restart   restart.lmp.${pid}
write_restart   restart.lmp.0
System init for write_restart ...
PPPM initialization ...
  extracting TIP4P info from pair style
  using 12-bit tables for long-range coulomb (../kspace.cpp:340)
  G vector (1/distance) = 0.38405116
  grid = 24 30 32
  stencil order = 5
  estimated absolute RMS force accuracy = 0.0018916642
  estimated relative force accuracy = 5.6966905e-06
  using double precision FFTW3
  3d grid and FFT values/proc = 4080 384
Last active /omp style is kspace_style pppm/tip4p/omp
Total wall time: 0:08:58
