LAMMPS (30 Jul 2021)
  using 1 OpenMP thread(s) per MPI task
package omp 0
using multi-threaded neighbor list subroutines
echo both

include		in.partitions
variable        pid world 0
include		in.temp
variable	temperature equal 255
variable	melttemp equal 450.0
variable	tempDamp equal 100.0
include		in.pressure
variable        pressure equal 1000
variable        pressureDamp equal 1000.0 # This is 1 ps
include		in.seed
variable        seed world 745823

units		real
atom_style	full



include 	in.box

read_data       ice.data
Reading data file ...
  orthogonal box = (0.0000000 0.0000000 0.0000000) to (18.207572 23.629178 22.213196)
  2 by 7 by 3 MPI processor grid
  reading atoms ...
  864 atoms
  reading velocities ...
  864 velocities
  scanning bonds ...
  2 = max bonds/atom
  scanning angles ...
  1 = max angles/atom
  reading bonds ...
  576 bonds
  reading angles ...
  288 angles
Finding 1-2 1-3 1-4 neighbors ...
  special bond factors lj:    0        0        0       
  special bond factors coul:  0        0        0       
     2 = max # of 1-2 neighbors
     1 = max # of 1-3 neighbors
     1 = max # of 1-4 neighbors
     2 = max # of special neighbors
  special bonds CPU = 0.003 seconds
  read_data CPU = 0.031 seconds
include 	in.setup
variable	out_freq equal 500
variable	out_freq2 equal 500

timestep	1.0

neigh_modify    delay 5 every 1

include		in.tip4p
# This is TIP4P/Ice

# create groups ###
group ox type 2
288 atoms in group ox
group hy type 1
576 atoms in group hy

# set charges - beside manually ###
set group ox charge -1.1794
Setting atom values ...
  288 settings made for charge
set group hy charge 0.5897
Setting atom values ...
  576 settings made for charge

# ### TIP3P Potential Parameters ###
pair_style lj/cut/tip4p/long 2 1 1 1 0.1577 8.5
pair_coeff 1 1*2 0.000 0.000
pair_coeff 2 2 0.21084 3.1668
bond_style  harmonic
bond_coeff  1 450 0.9572
angle_style harmonic
angle_coeff 1 55 104.52
kspace_style pppm/tip4p 1.0e-5
pair_modify tail yes

thermo          ${out_freq}
thermo          500
thermo_style 	custom step temp pe etotal epair emol press lx ly lz xy xz yz vol pxx pyy pzz pxy pxz pyz cella cellb cellc cellalpha cellbeta cellgamma

restart 	${out_freq} restart.lmp.${pid} restart2.lmp.${pid}
restart 	500 restart.lmp.${pid} restart2.lmp.${pid}
restart 	500 restart.lmp.0 restart2.lmp.${pid}
restart 	500 restart.lmp.0 restart2.lmp.0

include         in.dump
dump            myDump all atom ${out_freq2} dump.water.${pid}
dump            myDump all atom 500 dump.water.${pid}
dump            myDump all atom 500 dump.water.0
dump_modify     myDump append yes


timer           timeout 23:50:00 every 1000
New timer settings: style=normal  mode=nosync  timeout=23:50:00


fix 		0 all shake 1e-6 200 0 b 1 a 1
       0 = # of size 2 clusters
       0 = # of size 3 clusters
       0 = # of size 4 clusters
     288 = # of frozen angles
  find clusters CPU = 0.011 seconds
fix             1 all nph aniso ${pressure} ${pressure} ${pressureDamp}
fix             1 all nph aniso 1000 ${pressure} ${pressureDamp}
fix             1 all nph aniso 1000 1000 ${pressureDamp}
fix             1 all nph aniso 1000 1000 1000
fix             2 all temp/csvr ${temperature} ${temperature} ${tempDamp} ${seed}
fix             2 all temp/csvr 255 ${temperature} ${tempDamp} ${seed}
fix             2 all temp/csvr 255 255 ${tempDamp} ${seed}
fix             2 all temp/csvr 255 255 100 ${seed}
fix             2 all temp/csvr 255 255 100 745823
velocity        all create ${temperature} ${seed}
velocity        all create 255 ${seed}
velocity        all create 255 745823

run             500000
PPPM initialization ...
  extracting TIP4P info from pair style
  using 12-bit tables for long-range coulomb (../kspace.cpp:340)
  G vector (1/distance) = 0.37089722
  grid = 24 27 25
  stencil order = 5
  estimated absolute RMS force accuracy = 0.0032495733
  estimated relative force accuracy = 9.7859934e-06
  using double precision FFTW3
  3d grid and FFT values/proc = 4032 480
Last active /omp style is kspace_style pppm/tip4p/omp
Neighbor list info ...
  update every 1 steps, delay 5 steps, check yes
  max neighbors/atom: 2000, page size: 100000
  master list distance cutoff = 10.8154
  ghost atom cutoff = 10.8154
  binsize = 5.4077, bins = 4 5 5
  1 neighbor lists, perpetual/occasional/extra = 1 0 0
  (1) pair lj/cut/tip4p/long/omp, perpetual
      attributes: half, newton on, omp
      pair build: half/bin/newton/omp
      stencil: half/bin/3d
      bin: standard
Per MPI rank memory allocation (min/avg/max) = 9.274 | 9.285 | 9.299 Mbytes
Step Temp PotEng TotEng E_pair E_mol Press Lx Ly Lz Xy Xz Yz Volume Pxx Pyy Pzz Pxy Pxz Pyz Cella Cellb Cellc CellAlpha CellBeta CellGamma 
       0          255   -5396.4194   -4959.3581   -5396.4194            0   -7060.0817    18.207572    23.629178    22.213196            0            0            0    9556.7825   -3900.7257   -8634.3822   -8645.1373   -2746.5097    -6316.555    2564.5862    18.207572    23.629178    22.213196           90           90           90 
     500    249.80642   -4286.8459   -3858.6862   -4286.8459            0    72.805256    18.134964    23.502988    22.150484            0            0            0    9441.1088   -462.25309   -638.09049    1318.7593    398.21192    772.93176    1291.9455    18.134964    23.502988    22.150484           90           90           90 
    1000    245.81497   -4232.9619   -3811.6435   -4232.9619            0     1162.832     18.09571    23.425866    21.944858            0            0            0    9302.5933    477.78698    1094.0195    1916.6895    934.35032   -191.42934   -348.55951     18.09571    23.425866    21.944858           90           90           90 
    1500     249.5964   -4255.7754   -3827.9757   -4255.7754            0    1268.0207    18.079565    23.435148    22.022442            0            0            0    9330.8486   -355.85292    2405.7628    1754.1522    119.98561    255.25901    158.63728    18.079565    23.435148    22.022442           90           90           90 
    2000    247.29864   -4232.0412   -3808.1798   -4232.0412            0     806.9955    18.037707     23.52981    22.179843            0            0            0    9413.6539    -302.9594    2642.7548    81.191133   -533.87544   -725.58323    664.06223    18.037707     23.52981    22.179843           90           90           90 
    2500     263.3636   -4250.2349   -3798.8387   -4250.2349            0    667.48518    18.152864    23.607497    22.038779            0            0            0    9444.5796    1303.5656    976.99465   -278.10468    367.26261     563.8122    169.77485    18.152864    23.607497    22.038779           90           90           90 
    3000    262.56757   -4259.1606   -3809.1288   -4259.1606            0    81.336452    18.157893    23.445198    22.210944            0            0            0    9455.5408   -105.61339    453.25488   -103.63213     149.9036   -720.64947    -622.1775    18.157893    23.445198    22.210944           90           90           90 
    3500    254.10685   -4275.2329   -3839.7025   -4275.2329            0    2117.0692    18.056304    23.278863    22.046342            0            0            0    9266.7444     2381.947    2533.2467    1436.0141    713.41189    449.21813   -40.586717    18.056304    23.278863    22.046342           90           90           90 
    4000    233.85841   -4250.7549   -3849.9296   -4250.7549            0    1507.8436    18.109118    23.578702    21.920966            0            0            0    9360.0227    676.47942    2202.7362    1644.3153   -701.57389    212.25337   -233.65376    18.109118    23.578702    21.920966           90           90           90 
    4500    249.86476   -4258.0885   -3829.8288   -4258.0885            0    741.19102    17.893523    23.527198    22.357666            0            0            0    9412.2301    1668.7372      411.266    143.56992   -275.76823   -103.68188    201.06946    17.893523    23.527198    22.357666           90           90           90 
    5000       261.98   -4242.9008   -3793.8761   -4242.9008            0    638.03537    18.233486    23.444416    22.078202            0            0            0    9437.8448    844.66613   -335.45816    1404.8982   -122.53353    751.03035   -301.75034    18.233486    23.444416    22.078202           90           90           90 
    5500    255.25035   -4287.7043    -3850.214   -4287.7043            0   -432.60819    18.203539    23.575548    22.064107            0            0            0    9468.9975    167.42693   -783.92225   -681.32925    -483.7962    696.08296    114.93457    18.203539    23.575548    22.064107           90           90           90 
    6000    252.97368   -4229.3891   -3795.8009   -4229.3891            0     1788.861    17.872462    23.536967    22.342209            0            0            0    9398.5525    2138.6167   -624.52765    3852.4939   -332.27168    105.08459    494.77334    17.872462    23.536967    22.342209           90           90           90 
    6500    247.17896   -4255.3646   -3831.7083   -4255.3646            0    1842.3418    18.145591    23.640322    21.781808            0            0            0    9343.6901    612.90443    1541.0186    3373.1025   -407.64053    168.99509    520.95727    18.145591    23.640322    21.781808           90           90           90 
    7000     261.2525   -4237.7183   -3789.9405   -4237.7183            0     1286.243    18.262728    23.426291    22.054302            0            0            0    9435.4473     1717.612     1490.707    650.40993    443.64559   -466.49175    56.500304    18.262728    23.426291    22.054302           90           90           90 
    7500    254.15867   -4259.0337   -3823.4144   -4259.0337            0    1575.3371    17.955085    23.458761    22.374362            0            0            0    9424.1719    1870.7286    788.68219    2066.6005   -469.72674   -327.52021   -452.78295    17.955085    23.458761    22.374362           90           90           90 
    8000    259.36554   -4245.9794   -3801.4358   -4245.9794            0    1918.8555    18.034317    23.583648    21.970979            0            0            0    9344.5865    2730.3194    644.39353    2381.8536    32.224236    325.63931    -93.71398    18.034317    23.583648    21.970979           90           90           90 
    8500    246.32312   -4237.2522   -3815.0628   -4237.2522            0     2238.412      18.1026    23.317968    22.081601            0            0            0    9320.9939    2205.8621    2903.5233    1605.8505   -503.76865   -310.85311    -405.2458      18.1026    23.317968    22.081601           90           90           90 
    9000    247.74888   -4208.6746   -3784.0415   -4208.6746            0     1621.475    18.073177    23.416273    22.116863            0            0            0    9359.9989    1990.6115    1694.9872    1178.8261   -383.02927   -326.54508   -171.59293    18.073177    23.416273    22.116863           90           90           90 
    9500     252.9797   -4230.8709   -3797.2724   -4230.8709            0    377.29901    18.166269    23.698752    21.990213            0            0            0    9467.1804   -225.83554    230.59616    1127.1364   -60.303552   -169.36841   -284.69044    18.166269    23.698752    21.990213           90           90           90 
   10000    248.46617   -4221.2834   -3795.4209   -4221.2834            0   -1109.8989    18.177466     23.58715    22.329593            0            0            0     9573.916   -1903.6436    41.744057   -1467.7972   -137.83897   -117.62127    27.116599    18.177466     23.58715    22.329593           90           90           90 
   10500    276.84525    -4224.114   -3749.6107    -4224.114            0    491.95565    18.154303    23.539778    22.115827            0            0            0    9451.1608    1764.8288   -473.59977    184.63792    436.89686   -382.49238    34.768615    18.154303    23.539778    22.115827           90           90           90 
   11000    262.61621   -4255.7525   -3805.6373   -4255.7525            0    1114.2198    18.089631    23.545962    22.032741            0            0            0    9384.5765   -423.70306    3317.2851    449.07728   -359.27972    145.20889    -7.151217    18.089631    23.545962    22.032741           90           90           90 
   11500    242.89228   -4252.8801    -3836.571   -4252.8801            0    2118.4215    17.945459    23.398462    22.223349            0            0            0    9331.4987     2529.584    986.49232    2839.1882   -135.35954   -99.139264    1077.1286    17.945459    23.398462    22.223349           90           90           90 
   12000     263.9532   -4222.7437    -3770.337   -4222.7437            0    1153.4215     18.19367    23.573056    22.031567            0            0            0    9448.9075    2425.9689    350.89474      683.401    956.08333   -453.06711   -760.39986     18.19367    23.573056    22.031567           90           90           90 
   12500    250.87924   -4213.8478   -3783.8494   -4213.8478            0    146.63544    18.233079      23.6716    21.975503            0            0            0    9484.7621     800.0479   -1322.9771    962.83548   -1314.3234    -663.5051     16.37528    18.233079      23.6716    21.975503           90           90           90 
   13000    253.24618   -4200.2907   -3766.2354   -4200.2907            0    689.07808    17.952235    23.382108    22.511218            0            0            0    9449.3332    1266.9728    2496.7007   -1696.4393    442.04181    295.24474      421.828    17.952235    23.382108    22.511218           90           90           90 
   13500    244.05295   -4244.5571   -3826.2587   -4244.5571            0    1515.6555    18.135184    23.609804    21.846781            0            0            0     9354.096    585.87441   -322.12641    4283.2186   -235.15059   -203.95092    291.65566    18.135184    23.609804    21.846781           90           90           90 
   14000    238.12005   -4228.0084   -3819.8788   -4228.0084            0    1158.2503    18.212777    23.457039    21.981668            0            0            0    9390.9602    167.97375     2152.139    1154.6381   -576.82073    276.30292   -377.39233    18.212777    23.457039    21.981668           90           90           90 
   14500    249.44321   -4273.0441    -3845.507   -4273.0441            0    603.01703    18.071813    23.474778    22.319496            0            0            0    9468.6398     1568.376    1589.8747   -1349.1996    799.68704    173.64943   -404.81707    18.071813    23.474778    22.319496           90           90           90 
   15000    251.40262   -4241.8268   -3810.9313   -4241.8268            0   -110.91685    18.156107    23.671563    22.104044            0            0            0    9499.9518   -37.854235    -1454.905    1160.0087   -120.54882    41.240436    259.37659    18.156107    23.671563    22.104044           90           90           90 
   15500    245.99806   -4236.6488   -3815.0165   -4236.6488            0    877.78963    18.176605    23.508746    22.058268            0            0            0    9425.7007    696.49794    1037.9913    898.87964   -194.53807    203.61361      558.897    18.176605    23.508746    22.058268           90           90           90 
   16000    260.93921   -4248.5057   -3801.2648   -4248.5057            0    1662.0913     18.03752    23.433905    22.238568            0            0            0    9400.0102    1916.0218    680.31136    2389.9409   -548.80284   -406.60191    859.75941     18.03752    23.433905    22.238568           90           90           90 
   16500    264.79016   -4243.4272   -3789.5859   -4243.4272            0      3905.86    18.028021    23.489366    21.865953            0            0            0    9259.5051    4640.0943    4430.5984    2646.8872   -1401.6377    562.81399     617.2987    18.028021    23.489366    21.865953           90           90           90 
   17000    263.76068   -4255.0976   -3803.0208   -4255.0976            0    2197.5053    18.064836    23.380644    22.017043            0            0            0    9299.2832    492.25294    4023.0701     2077.193    179.00376   -1098.1547   -49.021102    18.064836    23.380644    22.017043           90           90           90 
   17500    251.94169   -4229.4258   -3797.6063   -4229.4258            0    1550.4833    18.053695    23.445766    22.154625            0            0            0      9377.67    2674.5689    1054.4011    922.48001    354.99559    87.643117   -605.63549    18.053695    23.445766    22.154625           90           90           90 
   18000    235.17349   -4242.5299   -3839.4506   -4242.5299            0    541.84155    18.117667    23.672023    21.988401            0            0            0    9430.4257    148.70445    210.41875    1266.4014   -227.38375    327.90577    446.58849    18.117667    23.672023    21.988401           90           90           90 
   18500    245.07176   -4252.6126    -3832.568   -4252.6126            0   -223.65233    18.169058    23.389651    22.274572            0            0            0    9465.9786   -650.57641    329.72572    -350.1063   -936.37699   -433.09082    244.74618    18.169058    23.389651    22.274572           90           90           90 
   19000     251.3252      -4238.7   -3807.9373      -4238.7            0   -81.855994    18.232441    23.338785    22.165088            0            0            0    9431.7553    447.50872   -711.20057    18.123865    -68.07436   -817.31032     -185.533    18.232441    23.338785    22.165088           90           90           90 
   19500     253.9735   -4230.9542   -3795.6523   -4230.9542            0     1458.514    18.024997     23.82559    21.803679            0            0            0    9363.7249    2410.0303    516.63003    1448.8818   -739.24009    832.53082   -703.31115    18.024997     23.82559    21.803679           90           90           90 
   20000    243.79452   -4260.7095    -3842.854   -4260.7095            0   -62.920395    17.955356    23.426264    22.423168            0            0            0    9431.7878    1328.0376   -384.98174   -1131.8171    -439.3204    307.88915    367.57561    17.955356    23.426264    22.423168           90           90           90 
   20500    258.20767   -4258.7401   -3816.1809   -4258.7401            0    1044.8485    18.317539    23.211184    22.178098            0            0            0    9429.5011   -535.21027     2888.585    781.17095   -609.96309    335.19725    77.021564    18.317539    23.211184    22.178098           90           90           90 
   21000    246.85638   -4241.6896   -3818.5862   -4241.6896            0    519.68634    18.134247    23.673443    21.910329            0            0            0    9406.1059    134.61341    513.39514    911.05046   -108.97937    47.189571    1125.0006    18.134247    23.673443    21.910329           90           90           90 
   21500    254.95327   -4279.8002    -3842.819   -4279.8002            0    1610.8578    17.981537    23.452587    22.155573            0            0            0    9343.3057    1927.2932    1813.5847    1091.6955   -1128.2109   -1050.4743   -518.45827    17.981537    23.452587    22.155573           90           90           90 
   22000    263.92546   -4253.4626   -3801.1034   -4253.4626            0    930.94893    18.165112    23.354668    22.060568            0            0            0    9358.9789    -230.5091    1297.3826    1725.9733   -416.90551   -189.24342    -230.5042    18.165112    23.354668    22.060568           90           90           90 
   22500    235.21057   -4225.3696   -3822.2267   -4225.3696            0   -334.78852    18.154485    23.654983    22.004769            0            0            0    9449.8173   -393.17153   -940.32562    329.13159    511.45458     193.6689    81.296373    18.154485    23.654983    22.004769           90           90           90 
   23000    245.32014   -4260.8991   -3840.4288   -4260.8991            0    383.32721     18.02628    23.503034    22.280618            0            0            0    9439.6803    930.37902   -1099.1777    1318.7803   -318.22845   -567.26933   -144.15715     18.02628    23.503034    22.280618           90           90           90 
   23500    270.06296   -4254.9186   -3792.0399   -4254.9186            0    1808.5596    18.207289    23.382567    22.051645            0            0            0    9388.1165    2368.9873    2673.9381    382.75338   -409.48189   -110.59785    180.56283    18.207289    23.382567    22.051645           90           90           90 
   24000    260.99815   -4210.1212   -3762.7793   -4210.1212            0    1115.0019    18.180146    23.558144    21.926679            0            0            0    9390.9882    910.84609    1048.2263    1385.9332    99.221535    384.98686    534.17259    18.180146    23.558144    21.926679           90           90           90 
   24500    254.02501   -4248.6441   -3813.2539   -4248.6441            0    448.53897    17.840958    23.525492    22.313406            0            0            0    9365.3228    681.90142    672.75866   -9.0431552   -78.893315    60.823562   -152.95077    17.840958    23.525492    22.313406           90           90           90 
   25000     261.5082   -4244.3058   -3796.0897   -4244.3058            0   -210.37173    18.265798    23.502049    21.991252            0            0            0    9440.4859   -269.08916    -1137.712    775.68595   -1389.4916    287.86603    77.157456    18.265798    23.502049    21.991252           90           90           90 
   25500    260.93672   -4253.7534   -3806.5168   -4253.7534            0    -15.54172    18.179267     23.53982    22.110957            0            0            0    9462.0898    74.593951    455.78914   -577.00825   -282.37775   -63.814608   -132.39191    18.179267     23.53982    22.110957           90           90           90 
   26000    258.72915   -4221.9202   -3778.4673   -4221.9202            0    1212.7012    17.891025    23.525362    22.373927            0            0            0    9417.0253    3318.6675    1321.7852   -1002.3491    508.12552   -568.54684   -157.20555    17.891025    23.525362    22.373927           90           90           90 
   26500    236.17609   -4251.7324   -3846.9346   -4251.7324            0    1945.0445    18.118332    23.545814    21.886361            0            0            0    9336.9598    1952.7017    1028.9732    2853.4585   -575.06227    123.85428   -1068.9177    18.118332    23.545814    21.886361           90           90           90 
   27000    251.48395   -4212.0301   -3780.9952   -4212.0301            0    774.33639    18.104451    23.374071     22.11811            0            0            0    9359.8251   -31.068052     1941.218    412.85921    1529.4433   -566.06857   -194.19168    18.104451    23.374071     22.11811           90           90           90 
   27500    266.42663   -4250.4774   -3793.8313   -4250.4774            0    1299.9486    17.980562    23.489193    22.201339            0            0            0     9376.711    1736.8367    2411.1855   -248.17631    928.08517   -230.78089   -740.81986    17.980562    23.489193    22.201339           90           90           90 
   28000     261.2256   -4270.2594   -3822.5277   -4270.2594            0    1077.4747     18.13729    23.467999    21.932316            0            0            0    9335.4004    201.83033    2046.4557    984.13807    886.76878   -1.4872731   -763.77348     18.13729    23.467999    21.932316           90           90           90 
   28500    257.43201   -4250.1284   -3808.8988   -4250.1284            0    482.70096    18.167593    23.394007    22.152641            0            0            0     9415.156   -387.85864     896.6241    939.33742    702.30022   -405.45071    409.23174    18.167593    23.394007    22.152641           90           90           90 
   29000    246.90727   -4251.0562   -3827.8656   -4251.0562            0   -91.943108    18.055618    23.564445    22.340302            0            0            0     9505.142    846.00179   -266.75336   -855.07776    400.89672   -576.81734   -336.83388    18.055618    23.564445    22.340302           90           90           90 
   29500    249.74717    -4236.243   -3808.1849    -4236.243            0    377.07969    18.153237    23.716435     22.04124            0            0            0    9489.4168   -60.584588    301.30715    890.51652   -552.70417   -102.70831     309.2459    18.153237    23.716435     22.04124           90           90           90 
   30000    267.37408    -4226.093    -3767.823    -4226.093            0   -597.79855    18.225036     23.43551    22.182371            0            0            0    9474.3797   -47.318273    -245.2281   -1500.8493    -371.1084    466.38261    578.70176    18.225036     23.43551    22.182371           90           90           90 
   30500     256.9312   -4246.4069   -3806.0357   -4246.4069            0    993.83891    18.113191    23.532029    22.168563            0            0            0    9449.1313   -47.955298    1386.2608    1643.2112    285.28073    111.90594   -43.887163    18.113191    23.532029    22.168563           90           90           90 
   31000    267.16334   -4234.3007   -3776.3919   -4234.3007            0    574.96041     18.09673    23.758542    21.990414            0            0            0    9454.8207    1542.8657   -942.68453    1124.7001   -417.11998   -175.69492    682.68941     18.09673    23.758542    21.990414           90           90           90 
   31500    250.24199   -4230.9946   -3802.0884   -4230.9946            0   -185.42287    18.216685    23.314892    22.295347            0            0            0    9469.2805   -694.07081    1074.3131   -936.51087    -251.0547   -487.35019   -638.03636    18.216685    23.314892    22.295347           90           90           90 
   32000    254.77515   -4246.4535   -3809.7777   -4246.4535            0    515.82405    18.177974    23.387015    22.265876            0            0            0    9465.8596   -169.28377    1236.0819    480.67403   -248.57859   -352.73572    462.85469    18.177974    23.387015    22.265876           90           90           90 
   32500    251.73203   -4224.9578   -3793.4977   -4224.9578            0    271.90084    18.042749    23.840148    21.791735            0            0            0    9373.5361   -301.28762    190.77842    926.21173   -682.05566   -1241.2346   -383.64673    18.042749    23.840148    21.791735           90           90           90 
   33000    255.79988   -4246.5697   -3808.1375   -4246.5697            0    1653.0016    18.005146    23.389347    22.204811            0            0            0    9351.0811    2330.0484    1970.8566    658.09987    2.3114089    309.19817    219.87822    18.005146    23.389347    22.204811           90           90           90 
   33500    244.10913   -4240.0349   -3821.6402   -4240.0349            0    1286.1094    18.173203    23.447373     22.10951            0            0            0    9421.1692    1861.0823    1921.5096     75.73635   -929.73288   -386.76494    867.98344    18.173203    23.447373     22.10951           90           90           90 
   34000    237.21825   -4251.2996   -3844.7156   -4251.2996            0    417.54776    18.097481    23.620536    22.028946            0            0            0    9416.7621   -129.88998   -817.23355    2199.7668    645.81366    199.29256    982.41452    18.097481    23.620536    22.028946           90           90           90 
   34500    242.52227    -4268.771   -3853.0961    -4268.771            0   -154.15159    18.053947    23.488185    22.302142            0            0            0    9457.3224     544.3557    734.07638   -1740.8869   -117.58377   -378.18903    -481.1076    18.053947    23.488185    22.302142           90           90           90 
   35000    250.67509   -4279.9773   -3850.3288   -4279.9773            0   -573.15379    18.309447    23.514704    21.991749            0            0            0    9468.3546   -1604.4859    631.98832   -746.96377    640.18931   -1158.1195   -279.09712    18.309447    23.514704    21.991749           90           90           90 
   35500    250.16923   -4264.8772   -3836.0957   -4264.8772            0     2305.125    17.880472     23.57574    22.080593            0            0            0    9307.9709    1068.3058    1335.6914    4511.3778    507.44208    211.03167    233.63156    17.880472     23.57574    22.080593           90           90           90 
   36000    256.04543   -4270.8902   -3832.0371   -4270.8902            0    2373.5411    17.874511    23.408889    22.174481            0            0            0    9278.3005    3188.7992    1221.0054    2710.8188   -676.91153   -52.863125    477.13249    17.874511    23.408889    22.174481           90           90           90 
   36500    253.98782   -4221.5582   -3786.2318   -4221.5582            0    2019.9614    18.230824    23.416022    21.893569            0            0            0    9346.2198    1442.8352     2033.675    2583.3741   -568.20219    497.64616    323.57194    18.230824    23.416022    21.893569           90           90           90 
   37000    261.63177   -4257.6112   -3809.1833   -4257.6112            0     1369.367    18.004905    23.544542    22.135871            0            0            0    9383.7773    1410.2921    1681.5741    1016.2347   -262.05371   -727.29672   -88.240502    18.004905    23.544542    22.135871           90           90           90 
   37500    251.09605    -4246.454    -3816.084    -4246.454            0    1338.3912    17.949836    23.514337    22.192286            0            0            0    9366.8868    2394.8104    1263.1517    357.21148    -684.3381   -701.24403   -357.17572    17.949836    23.514337    22.192286           90           90           90 
   38000    262.68976   -4254.0789   -3803.8376   -4254.0789            0   -630.65035    18.354405    23.393227     22.02978            0            0            0    9458.8993   -2039.0772   -1159.7494    1306.8755     9.347859   -118.39135    37.005938    18.354405    23.393227     22.02978           90           90           90 
   38500    250.73575   -4237.5485    -3807.796   -4237.5485            0    206.71443    18.160616    23.423823    22.223531            0            0            0    9453.6914    1067.3734    1172.0417   -1619.2718    245.26973    -539.0677    813.88991    18.160616    23.423823    22.223531           90           90           90 
   39000    256.34071   -4245.3114   -3805.9522   -4245.3114            0    1005.7294    17.856154    23.808657    22.196093            0            0            0    9436.2485    1303.4859    17.567753    1696.1345    923.15575    215.54195     93.99129    17.856154    23.808657    22.196093           90           90           90 
   39500    258.06576    -4244.299   -3801.9831    -4244.299            0    544.03975    18.307247    23.409218    21.948291            0            0            0    9406.1232   -834.71424    1255.4409    1211.3926    474.00488    55.715532    226.67024    18.307247    23.409218    21.948291           90           90           90 
   40000    245.84854   -4239.7533   -3818.3774   -4239.7533            0    1675.8022    18.249175    23.101191     22.24712            0            0            0    9378.8891    3398.1629     2201.872    -572.6284   -724.26717   -37.623269   -105.47428    18.249175    23.101191     22.24712           90           90           90 
   40500    248.91839   -4266.4488   -3839.8112   -4266.4488            0    1235.4106    17.854719    23.692887    22.110214            0            0            0    9353.2805    1390.8513    1758.5553    556.82513   -112.09307   -108.40544     581.1493    17.854719    23.692887    22.110214           90           90           90 
   41000    250.10569   -4240.3966   -3811.7241   -4240.3966            0    561.43832    18.078864    23.634969    22.103877            0            0            0    9444.8407    1440.6578    1951.5881   -1707.9309   -742.43797   -298.31005    424.21143    18.078864    23.634969    22.103877           90           90           90 
   41500    262.21225   -4259.9411   -3810.5183   -4259.9411            0    1093.2603    18.221957    23.308292    22.141258            0            0            0    9403.8943   -168.05652    1531.2111    1916.6263      1307.99    352.55146     231.5476    18.221957    23.308292    22.141258           90           90           90 
   42000    250.13349    -4238.782   -3810.0618    -4238.782            0    1892.8655    18.093929    23.532499    22.099858            0            0            0    9410.0168    314.15382    2960.4161    2404.0265   -170.05232    12.338419    288.70554    18.093929    23.532499    22.099858           90           90           90 
   42500    251.36364   -4248.3723   -3817.5436   -4248.3723            0    1620.5577    18.044997    23.534996    22.091021            0            0            0    9381.8122    1312.6963    488.86835    3060.1084   -372.33841    434.75217   -359.03859    18.044997    23.534996    22.091021           90           90           90 
   43000    258.02919   -4237.8169   -3795.5637   -4237.8169            0    1363.9603    18.139879    23.422089    22.113594            0            0            0    9395.4884    487.56818    1175.8294    2428.4832    81.577815    78.636594   -547.47562    18.139879    23.422089    22.113594           90           90           90 
   43500    242.05074   -4240.2083   -3825.3416   -4240.2083            0    1567.4963    18.072505    23.605911    22.014694            0            0            0    9391.8635    2192.6748    885.17566    1624.6384   -1355.6045   -57.239422    1103.6618    18.072505    23.605911    22.014694           90           90           90 
   44000    270.98866   -4282.7779   -3818.3127   -4282.7779            0    2439.4605      17.9744    23.480675    22.181301            0            0            0    9361.6413    3230.4485    1548.9294    2539.0034    158.09483   -580.84281   -98.325631      17.9744    23.480675    22.181301           90           90           90 
   44500    266.36565   -4255.9951   -3799.4535   -4255.9951            0    1426.4073     18.22529    23.364668    22.051013            0            0            0    9389.9357    2269.7505    1180.7485    828.72278   -892.90277    507.00061   -1028.8811     18.22529    23.364668    22.051013           90           90           90 
   45000    234.47077   -4254.4287   -3852.5538   -4254.4287            0    2084.1844    18.192854    23.444895    21.892425            0            0            0    9337.7662    1505.5539    1939.8437    2807.1555     198.0336   -78.602859    323.65035    18.192854    23.444895    21.892425           90           90           90 
   45500    251.71226   -4271.8968   -3840.4706   -4271.8968            0    1504.5396    17.797544    23.692183    22.327965            0            0            0    9414.8696    2901.8273     1383.474    228.31734    507.50721   -504.37209    656.31366    17.797544    23.692183    22.327965           90           90           90 
   46000    266.32683   -4264.6005   -3808.1254   -4264.6005            0   -506.98386    18.268614    23.534016    22.199465            0            0            0    9544.3014   -2139.7448    837.46809   -218.67491    608.99795    388.62879    650.76748    18.268614    23.534016    22.199465           90           90           90 
   46500    252.28399   -4256.4428   -3824.0367   -4256.4428            0    945.01072    18.317909    23.426314    21.949621            0            0            0    9419.0454    1878.2958    577.15375    379.58261    126.93587   -256.06441   -884.07199    18.317909    23.426314    21.949621           90           90           90 
   47000    265.10412   -4271.7003   -3817.3209   -4271.7003            0    2131.1641    17.872392    23.594814    22.216387            0            0            0    9368.5566    3098.0786    1575.0591    1720.3548   -820.37467   -277.78804    662.96593    17.872392    23.594814    22.216387           90           90           90 
   47500    258.39467    -4236.695   -3793.8154    -4236.695            0    1692.9748    18.063335    23.539986    22.069512            0            0            0    9384.1916    173.68138    2206.8946    2698.3485   -620.78657    457.81615    46.136064    18.063335    23.539986    22.069512           90           90           90 
   48000    265.22217   -4257.1675   -3802.5857   -4257.1675            0     1262.712    18.196189    23.452841    22.031828            0            0            0    9402.1338    1139.3153    2322.4634    326.35748   -152.89734    614.78289   -248.60223    18.196189    23.452841    22.031828           90           90           90 
   48500    242.53121   -4223.7445   -3808.0543   -4223.7445            0    472.93829     18.05541    23.532297    22.293985            0            0            0    9472.3858   -242.64098    306.01331    1355.4425    -665.8815   -625.07726    56.727552     18.05541    23.532297    22.293985           90           90           90 
   49000    266.46877   -4241.9552   -3785.2368   -4241.9552            0    297.28174    18.114913    23.646207    22.101083            0            0            0    9466.9762    1341.3947   -358.10209   -91.447433   -21.121295   -726.92581   -26.452898    18.114913    23.646207    22.101083           90           90           90 
   49500    285.32067   -4225.6523   -3736.6224   -4225.6523            0   -385.14638    18.124253    23.612147    21.993233            0            0            0    9412.0594   -1377.7458   -19.171146    241.47784    -599.0185   -640.45594   -501.25689    18.124253    23.612147    21.993233           90           90           90 
   50000    259.87428   -4254.4235   -3809.0079   -4254.4235            0    2377.8056    18.088308    23.083098    22.294665            0            0            0    9308.7843    3284.3866    1923.2449    1925.7854   -772.78695   -512.57497   -161.62134    18.088308    23.083098    22.294665           90           90           90 
   50500    257.12478   -4231.8929   -3791.1898   -4231.8929            0    2905.7826    18.042499     23.47128    21.907628            0            0            0    9277.4541    2664.1205    2826.4227    3226.8045   -1069.4533   -884.06114     324.9939    18.042499     23.47128    21.907628           90           90           90 
   51000    258.34033   -4225.4222   -3782.6357   -4225.4222            0    897.86212    18.018482    23.656858    21.953411            0            0            0    9357.8756   -373.71493    1572.1287    1495.1726   -1223.2994    244.17731     520.5147    18.018482    23.656858    21.953411           90           90           90 
   51500    244.94958   -4219.9237   -3800.0885   -4219.9237            0    1518.1018    18.118332     23.35051    22.263602            0            0            0    9419.1135    1574.2763    1393.8514    1586.1777    1095.4617   -253.40065   -961.34461    18.118332     23.35051    22.263602           90           90           90 
   52000    248.27049   -4255.2312   -3829.7041   -4255.2312            0    1990.7698    18.189894    23.429363    22.054509            0            0            0    9399.1387    2303.4467    2423.2998     1245.563   -1069.9558    203.90386   -2.4022555    18.189894    23.429363    22.054509           90           90           90 
   52500    265.13003   -4238.0662   -3783.6424   -4238.0662            0    1304.1349    18.032646    23.664698    22.015254            0            0            0     9394.726    1589.1948    805.80635    1517.4035    696.80701   -148.45931   -386.88775    18.032646    23.664698    22.015254           90           90           90 
   53000    250.76073   -4252.2317   -3822.4364   -4252.2317            0    718.19851    18.033656    23.359879    22.246272            0            0            0    9371.5538    45.919556    1516.1618    592.51421   -773.24023    144.88092    365.98339    18.033656    23.359879    22.246272           90           90           90 
   53500    253.97307   -4257.0565   -3821.7554   -4257.0565            0   -140.15887    18.272948    23.600954    21.900059            0            0            0     9444.598    496.33355   -813.56282   -103.24733   -704.25994   -494.98766    6.0938517    18.272948    23.600954    21.900059           90           90           90 
   54000    258.21249   -4233.3404   -3790.7731   -4233.3404            0   -740.54055    17.929476     23.73599    22.180797            0            0            0    9439.5671   -1479.3497    93.959306   -836.23129   -351.94992    355.81074    765.72574    17.929476     23.73599    22.180797           90           90           90 
   54500    240.64876   -4259.0226   -3846.5588   -4259.0226            0    324.76354     17.97177    23.423151     22.30223            0            0            0    9388.2459    1055.9924    587.94392   -669.64572   -266.69867   -276.97682   -699.40239     17.97177    23.423151     22.30223           90           90           90 
   55000    241.53451   -4227.6573   -3813.6754   -4227.6573            0    1204.2208    18.364977    23.352171    21.890125            0            0            0    9387.8447   -9.4614353    280.97274    3341.1511    817.04666   -394.27314   -244.37672    18.364977    23.352171    21.890125           90           90           90 
   55500    243.61095   -4259.4461   -3841.9052   -4259.4461            0    161.93249    18.001666    23.557914    22.226699            0            0            0    9425.9363   -458.55461    531.24952    413.10256   -71.797897   -207.89933    -188.5758    18.001666    23.557914    22.226699           90           90           90 
   56000    270.44281    -4239.599   -3776.0693    -4239.599            0    593.58957    18.060668    23.538548    22.176542            0            0            0    9427.7334    1143.9636    85.070104    551.73497   -1678.4558    208.56505   -14.535764    18.060668    23.538548    22.176542           90           90           90 
   56500    255.25053   -4240.5706   -3803.0799   -4240.5706            0    488.05043    18.341081    23.396822    21.900976            0            0            0     9398.213   -969.53711    1091.2771    1342.4113    502.96308   -162.65227   -279.60278    18.341081    23.396822    21.900976           90           90           90 
   57000    266.09015   -4270.5225   -3814.4531   -4270.5225            0    1308.7499     17.95286    23.428521    22.323315            0            0            0    9389.3863     1858.328     2730.903   -662.98135    336.94893    682.61118    174.12269     17.95286    23.428521    22.323315           90           90           90 
   57500    268.02375   -4262.0867   -3802.7032   -4262.0867            0    1389.6839    17.980683    23.699799    21.961784            0            0            0    9358.7636    2513.1149    630.99591    1024.9408   -829.00166    571.36079    430.70239    17.980683    23.699799    21.961784           90           90           90 
   58000    250.68734   -4232.5208   -3802.8513   -4232.5208            0    1599.8483    18.332668    23.253769    21.891332            0            0            0    9332.3542    625.85998    2248.9742    1924.7106   -68.193906   -1183.8647    1209.8666    18.332668    23.253769    21.891332           90           90           90 
   58500    254.17436   -4235.7845   -3800.1383   -4235.7845            0    641.44556    17.996287     23.29812    22.452545            0            0            0    9413.8953   -753.62422    1789.6512    888.30974   -264.76006    322.52446       151.95    17.996287     23.29812    22.452545           90           90           90 
   59000     258.9555   -4242.4312   -3798.5903   -4242.4312            0    611.14439     17.94333    23.852915     22.08934            0            0            0    9454.2535    1556.6223   -479.67362    756.48446   -190.55012    569.84005    370.28165     17.94333    23.852915     22.08934           90           90           90 
   59500    257.58138   -4244.6176   -3803.1319   -4244.6176            0    110.33218    18.261427    23.511977    22.112702            0            0            0    9494.3593   -1611.0872    1025.2729    916.81086    409.66801   -163.00147    138.55856    18.261427    23.511977    22.112702           90           90           90 
   60000    243.58161   -4252.2582   -3834.7677   -4252.2582            0    622.15105    18.170003    23.365335    22.272084            0            0            0    9455.5731    1132.8407    905.54626   -171.93378   -1225.8053    533.06562    6.9602954    18.170003    23.365335    22.272084           90           90           90 
   60500    262.65633   -4282.4504   -3832.2664   -4282.4504            0    1787.9395    18.016602    23.678853    21.975781            0            0            0    9375.1426    2357.2227    1182.7869    1823.8089    -684.7213    -259.7805    40.371306    18.016602    23.678853    21.975781           90           90           90 
   61000    253.14489   -4248.5231   -3814.6414   -4248.5231            0    1780.4639    18.048875    23.449573     22.17849            0            0            0    9386.7889    1252.2557    1832.2991    2256.8368    334.19201   -991.01713   -202.20254    18.048875    23.449573     22.17849           90           90           90 
   61500    259.48891   -4244.8821    -3800.127   -4244.8821            0   -276.81446    18.204945     23.41306    22.257331            0            0            0     9486.819   -573.05554   -943.03154    685.64369   -435.86038    697.73295   -660.97574    18.204945     23.41306    22.257331           90           90           90 
   62000    254.32186   -4227.5367   -3791.6378   -4227.5367            0   -77.322016      18.3236    23.727975    22.013095            0            0            0    9570.8956    281.61261   -584.47606    70.897401   -174.28372   -44.074721   -469.33486      18.3236    23.727975    22.013095           90           90           90 
   62500    238.75724   -4217.4801   -3808.2583   -4217.4801            0    -358.2037    17.893374    23.661295    22.353938            0            0            0    9464.2191    1641.2748    -1075.433   -1640.4529    1449.5694    199.73594   -9.2649795    17.893374    23.661295    22.353938           90           90           90 
   63000      278.644   -4245.9548   -3768.3685   -4245.9548            0    1219.3027    18.109504    23.492572      22.0712            0            0            0    9389.9451    1920.2186   -239.44726    1977.1367    81.951475    442.25587    12.334984    18.109504    23.492572      22.0712           90           90           90 
   63500    244.71063   -4253.9387    -3834.513   -4253.9387            0    950.86384    18.199226    23.483957    22.005732            0            0            0     9405.026    106.22305     -342.289    3088.6575    412.34541    102.06303    509.17608    18.199226    23.483957    22.005732           90           90           90 
   64000     256.1839   -4236.6383   -3797.5479   -4236.6383            0    235.75781    18.017409    23.509654    22.233555            0            0            0    9417.7567    822.15839   -76.114138   -38.770828    955.95438   -419.35727    403.56992    18.017409    23.509654    22.233555           90           90           90 
   64500    245.98113   -4256.7163   -3835.1131   -4256.7163            0    1676.6266    18.092579      23.4551    22.063935            0            0            0    9363.1232    2052.2855    1345.6403     1631.954   -882.66682   -143.55431   -306.93466    18.092579      23.4551    22.063935           90           90           90 
   65000    245.08397   -4260.9574   -3840.8918   -4260.9574            0     1803.501    18.113821    23.496858     21.94902            0            0            0    9341.8952    865.19555    2870.3896    1674.9178    301.45864    26.569526    43.623897    18.113821    23.496858     21.94902           90           90           90 
   65500    236.94301   -4233.7171   -3827.6049   -4233.7171            0    1488.6309    17.941667    23.451625    22.298242            0            0            0    9382.2358    2165.1651    1788.5831    512.14444   -927.88838   -640.17872    958.83003    17.941667    23.451625    22.298242           90           90           90 
   66000    265.46378   -4234.6056   -3779.6098   -4234.6056            0   -893.45213    18.218764    23.621437    22.142882            0            0            0    9529.2641   -2127.9908    -851.1658    298.80023    -135.2689    143.85839    929.63663    18.218764    23.621437    22.142882           90           90           90 
   66500    264.54991   -4247.8323   -3794.4028   -4247.8323            0   -441.00128    18.336665    23.465633    22.042601            0            0            0    9484.5225   -2171.3597    696.49255     151.8633    749.97659   -268.85261    212.93325    18.336665    23.465633    22.042601           90           90           90 
   67000    248.88727   -4261.6379   -3835.0537   -4261.6379            0   -5.0052019    17.975519    23.475059    22.351805            0            0            0    9431.9332    1359.6428    623.55657   -1998.2149   -188.47558   -577.63133   -462.67958    17.975519    23.475059    22.351805           90           90           90 
   67500    252.28458   -4257.7051    -3825.298   -4257.7051            0    1305.8818    18.102563    23.633471    21.838082            0            0            0    9342.9079    174.30712    841.75074    2901.5876   -29.624027   -196.53165    101.98751    18.102563    23.633471    21.838082           90           90           90 
   68000    252.80599    -4247.117   -3813.8162    -4247.117            0    1050.2319    18.157429    23.392651    22.124025            0            0            0    9397.1883    849.24348    144.90512    2156.5472    911.54848    71.631065    18.354839    18.157429    23.392651    22.124025           90           90           90 
   68500    257.19128   -4236.7433   -3795.9263   -4236.7433            0    1479.5724    17.988552    23.473357    22.184761            0            0            0    9367.5533    1973.2617    1541.5297    923.92587   -113.87429    1263.1034      1452.62    17.988552    23.473357    22.184761           90           90           90 
   69000    253.90829   -4285.6487   -3850.4586   -4285.6487            0    1453.0003    18.100424    23.613967    21.867584            0            0            0    9346.7043    833.90852    1861.5928    1663.4995    173.85987   -17.380937    398.65706    18.100424    23.613967    21.867584           90           90           90 
   69500    246.52819   -4255.5941   -3833.0532   -4255.5941            0    599.96522    18.220156    23.158537    22.330329            0            0            0    9422.3304    311.60156    1231.7873    256.50683    81.745516     -137.083   -494.09925    18.220156    23.158537    22.330329           90           90           90 
   70000    251.61438   -4236.9154    -3805.657   -4236.9154            0   -787.89421    18.111331    23.365671    22.481472            0            0            0    9513.7854   -1549.6683    183.00045   -997.01476   -163.44067    483.36361    345.64549    18.111331    23.365671    22.481472           90           90           90 
   70500    251.12804   -4241.4767   -3811.0518   -4241.4767            0    1639.5904    18.007306    23.812418    21.743165            0            0            0    9323.4146    1700.8866    1766.0018    1451.8827   -1121.6602    -63.58239    361.39696    18.007306    23.812418    21.743165           90           90           90 
   71000    241.55368   -4234.0717   -3820.0569   -4234.0717            0    2336.8671    18.046108    23.332202     22.14143            0            0            0    9322.7694    2363.0326    2386.1524    2261.4163   -8.4623814   -519.93242    378.38884    18.046108    23.332202     22.14143           90           90           90 
   71500    242.91848   -4238.4917   -3822.1377   -4238.4917            0    422.23258     18.09006    23.356483    22.263017            0            0            0     9406.574     165.7199    1893.4424   -792.46456     -240.072   -232.29857    40.631196     18.09006    23.356483    22.263017           90           90           90 
   72000    267.46513   -4207.4632   -3749.0371   -4207.4632            0    517.08894    18.189725    23.696721    21.883233            0            0            0    9432.4796    995.18257   -403.25257    959.33683   -27.220844    304.18959    548.89322    18.189725    23.696721    21.883233           90           90           90 
   72500    246.64189    -4225.085   -3802.3493    -4225.085            0    147.30704     18.02649    23.518677    22.294492            0            0            0    9451.9547    961.50303    -426.7662   -92.815715   -804.71236    79.423315   -835.62551     18.02649    23.518677    22.294492           90           90           90 
   73000    243.52945    -4247.358   -3829.9568    -4247.358            0    397.97804     18.10268    23.371756    22.179483            0            0            0     9383.949   -1112.7553    1430.2327    876.45667   -196.25891    703.04839    555.07596     18.10268    23.371756    22.179483           90           90           90 
   73500    263.26765   -4239.5211   -3788.2893   -4239.5211            0    1888.8555    18.159697    23.711495    21.770675            0            0            0    9374.3125    835.70217    1652.4123     3178.452    248.70484   -64.798948    406.20453    18.159697    23.711495    21.770675           90           90           90 
   74000    261.70574   -4271.0244   -3822.4697   -4271.0244            0    2691.6668     17.85132    23.395874    22.297136            0            0            0    9312.3372     4216.173    4494.0906   -635.26316    95.319194   -92.280374    414.52322     17.85132    23.395874    22.297136           90           90           90 
   74500    254.62042   -4244.7649   -3808.3542   -4244.7649            0    2031.7476    18.112122    23.340866    22.137545            0            0            0    9358.7048    1967.7422    1777.6033    2349.8973   -848.36615    -675.9691    159.85651    18.112122    23.340866    22.137545           90           90           90 
   75000    259.18361   -4254.4247   -3810.1928   -4254.4247            0    1529.8874    18.171357     23.54846    21.912795            0            0            0    9376.6489    1685.3516    1108.5672    1795.7433   -63.223046    246.30282     41.74643    18.171357     23.54846    21.912795           90           90           90 
   75500    253.74779   -4272.5452   -3837.6301   -4272.5452            0    1688.4756    18.004227    23.397491     22.20188            0            0            0     9352.625    555.86639     2752.998    1756.5625   -960.91418     121.0524    772.62578    18.004227    23.397491     22.20188           90           90           90 
   76000    244.83615   -4228.4491   -3808.8083   -4228.4491            0    812.81697    18.048781    23.461297    22.145951            0            0            0    9377.6547      1981.53    1696.4476   -1239.5267    796.73135   -707.39335   -273.38552    18.048781    23.461297    22.145951           90           90           90 
   76500    240.62229   -4297.4713    -3885.053   -4297.4713            0    1441.1795    18.116647    23.497987    21.913437            0            0            0    9328.6537    1545.1561    1691.1945     1087.188    6.6778765    187.28688    667.02212    18.116647    23.497987    21.913437           90           90           90 
   77000    242.31177   -4264.3348   -3849.0208   -4264.3348            0    572.71172    17.975325     23.43385      22.3644            0            0            0    9420.5799    1363.1761    1154.7967   -799.83763   -460.27357   -216.79924   -188.15089    17.975325     23.43385      22.3644           90           90           90 
   77500    256.45036   -4247.3111   -3807.7639   -4247.3111            0   -299.82855    18.236421    23.559153    21.999467            0            0            0    9451.7333   -1135.7709    595.98602   -359.70075   -377.85975   -295.18847    -432.1488    18.236421    23.559153    21.999467           90           90           90 
   78000    260.68001   -4214.1576    -3767.361   -4214.1576            0   -102.01943    18.244879    23.606384    21.959728            0            0            0    9457.9585    59.012725   -475.41298    110.34196    955.87553   -337.66878    357.34434    18.244879    23.606384    21.959728           90           90           90 
   78500    246.55664   -4263.4649   -3840.8753   -4263.4649            0    1198.5221    17.911605    23.396672    22.445028            0            0            0    9406.0815    1110.2206    1118.4278    1366.9179    261.59694    84.511839   -201.12312    17.911605    23.396672    22.445028           90           90           90 
   79000     253.6309    -4269.149   -3834.4343    -4269.149            0    390.53202    18.140388    23.491346    22.026059            0            0            0    9386.2318    387.46093    1014.8859   -230.75078    531.81793   -478.65201   -393.77005    18.140388    23.491346    22.026059           90           90           90 
   79500    260.02595   -4235.5574   -3789.8819   -4235.5574            0    1519.2757    18.123448      23.5298    21.926615            0            0            0      9350.41   -420.39236    1122.7855     3855.434   -787.41074    116.01336    650.18263    18.123448      23.5298    21.926615           90           90           90 
   80000    270.55369   -4233.2692   -3769.5495   -4233.2692            0    2076.7801    17.932087    23.427138     22.23814            0            0            0    9342.1866    2106.5438    2829.0696    1294.7269   -336.11895   -814.40357    38.523156    17.932087    23.427138     22.23814           90           90           90 
   80500     248.1216   -4224.9684   -3799.6964   -4224.9684            0    1950.3225    18.103231    23.448029    21.972812            0            0            0    9327.1309    1154.4502    924.39811    3772.1193    306.52549    -25.90514    81.567712    18.103231    23.448029    21.972812           90           90           90 
   81000    257.18383     -4252.67   -3811.8657     -4252.67            0    2106.3078    18.120453    23.368764    22.001688            0            0            0    9316.6715     1845.983    2808.0766    1664.8639   -265.56259   -909.81288    658.93458    18.120453    23.368764    22.001688           90           90           90 
   81500    252.42857   -4257.1657   -3824.5118   -4257.1657            0    1007.9102    17.877317    23.478662    22.341401            0            0            0     9377.479    3202.2817    2451.3016   -2629.8527    -122.0765   -351.35745   -350.82369    17.877317    23.478662    22.341401           90           90           90 
   82000    237.46908   -4244.2216   -3837.2077   -4244.2216            0    363.91686    18.244573     23.62035     21.84003            0            0            0    9411.8124   -692.81498    1634.8776    149.68797   -133.69661    99.852858    156.52924    18.244573     23.62035     21.84003           90           90           90 
   82500    270.68667   -4220.2084   -3756.2607   -4220.2084            0   -593.52161    18.210737    23.373289    22.341663            0            0            0    9509.6132   -1690.1211   -739.05463    648.61089    -624.3508   -460.39893    1070.3019    18.210737    23.373289    22.341663           90           90           90 
   83000    255.54358   -4248.5938   -3810.6009   -4248.5938            0     254.6296    17.979978    23.542447    22.226416            0            0            0    9408.2788    564.30239    61.453613    138.13278    720.11767    668.64624    475.96381    17.979978    23.542447    22.226416           90           90           90 
   83500    248.88038   -4234.0562   -3807.4838   -4234.0562            0     1327.177    18.109007    23.683288     21.83452            0            0            0    9364.4072    1221.4389    268.44828    2491.6439   -377.69182    293.11918    453.59865    18.109007    23.683288     21.83452           90           90           90 
   84000    264.27939   -4219.6155   -3766.6497   -4219.6155            0    351.69832    18.191942     23.35307    22.281847            0            0            0    9466.1686   -183.35249    555.11209    683.33537    64.124583   -283.39833   -332.10056    18.191942     23.35307    22.281847           90           90           90 
   84500    258.74458   -4262.7239   -3819.2446   -4262.7239            0    829.97075    18.004117    23.590308    22.144802            0            0            0    9405.3994    2197.4955    729.94003    -437.5233    202.34756   -28.181105    418.97812    18.004117    23.590308    22.144802           90           90           90 
   85000     257.9698   -4256.4317   -3814.2803   -4256.4317            0     28.47639    18.137012    23.743079    21.846044            0            0            0    9407.5292   -739.44103   -957.36014    1782.2303    328.71546    220.97515   -113.50243    18.137012    23.743079    21.846044           90           90           90 
   85500    254.59196   -4216.6716   -3780.3097   -4216.6716            0    1133.7372    18.101885    23.239386    22.383723            0            0            0     9416.311    2242.4978    1526.8179   -368.10417    19.085483     1173.856    373.12793    18.101885    23.239386    22.383723           90           90           90 
   86000     252.3359   -4238.6275   -3806.1324   -4238.6275            0   -335.00059    18.117829    23.533756    22.155481            0            0            0    9446.6664   -689.68409    501.92566   -817.24334    449.97375    651.09998    582.90293    18.117829    23.533756    22.155481           90           90           90 
   86500     251.5212   -4262.6903   -3831.5916   -4262.6903            0    365.14254    18.068337    23.714512    21.924038            0            0            0    9394.0511    316.65352   -36.413779    815.18789   -129.02157   -763.71903   -644.56242    18.068337    23.714512    21.924038           90           90           90 
   87000    254.32815   -4270.9578   -3835.0481   -4270.9578            0    952.62451    18.119652    23.289194    22.251831            0            0            0    9390.0968    721.43961    1052.4633    1083.9707    178.52515    278.50589    1085.5389    18.119652    23.289194    22.251831           90           90           90 
   87500    267.20084   -4267.0082   -3809.0351   -4267.0082            0    773.27157    18.211075    23.519157    22.053452            0            0            0     9445.695   -454.74057    1657.9356    1116.6197    1884.0796   -869.74724      426.524    18.211075    23.519157    22.053452           90           90           90 
   88000    254.03407    -4225.869   -3790.4632    -4225.869            0    56.120818    18.057468    23.659164     22.18721            0            0            0    9478.9216    1874.5189   -503.31709   -1202.8394   -739.26628    159.51031    -465.9233    18.057468    23.659164     22.18721           90           90           90 
   88500    245.10487   -4245.8597   -3825.7583   -4245.8597            0   -1666.7877    18.155338    23.461808    22.389916            0            0            0    9537.1429   -1864.6128   -2278.5418   -857.20855    870.65853   -47.562904    840.67854    18.155338    23.461808    22.389916           90           90           90 
   89000    237.67832   -4260.1317   -3852.7592   -4260.1317            0    1073.0522     18.29365    23.439222     21.88357            0            0            0    9383.4328   -140.70691    2589.8977    769.96576    108.43154   -233.04031    90.217522     18.29365    23.439222     21.88357           90           90           90 
   89500    252.57676   -4281.9509   -3849.0429   -4281.9509            0     1390.474    17.966605     23.56389    22.085217            0            0            0    9350.0661    1417.5365    2055.6686    698.21695    524.13246    169.95091    241.22157    17.966605     23.56389    22.085217           90           90           90 
   90000    258.18685   -4268.7037   -3826.1802   -4268.7037            0    606.41024    17.997123    23.457352    22.249144            0            0            0     9392.806    1413.3903    405.64946   0.19096516   -1439.8632   -184.71477   -523.64256    17.997123    23.457352    22.249144           90           90           90 
   90500    258.00849   -4246.0973   -3803.8795   -4246.0973            0    2123.2884    18.166299    23.412267     21.91532            0            0            0    9320.8981     3519.513    1515.0878    1335.2645   -825.18663    574.15826    301.12353    18.166299    23.412267     21.91532           90           90           90 
   91000    246.67473   -4255.1878   -3832.3958   -4255.1878            0    1447.6687    17.982501      23.5332    22.115118            0            0            0    9358.8035    1333.3012    546.62985    2463.0749   -1107.1301   -398.53735    860.81452    17.982501      23.5332    22.115118           90           90           90 
   91500    241.16155    -4284.501   -3871.1584    -4284.501            0    1106.9064    18.051846       23.433    22.198229            0            0            0    9390.0483    2758.9188    549.67864     12.12168   -31.763371     -289.025   -210.45464    18.051846       23.433    22.198229           90           90           90 
   92000    264.90905   -4252.9514   -3798.9064   -4252.9514            0    1078.4127    18.295504    23.449576    21.916185            0            0            0    9402.5211    1086.7355    1344.3732    804.12944   -519.91202   -279.72854    141.77831    18.295504    23.449576    21.916185           90           90           90 
   92500    254.40697   -4272.1241   -3836.0792   -4272.1241            0   -481.44299    17.957891    23.799678    22.217053            0            0            0    9495.3911   -453.06886    197.78088    -1189.041   -384.93112     134.5768   -622.88606    17.957891    23.799678    22.217053           90           90           90 
   93000     243.3494   -4246.7893   -3829.6967   -4246.7893            0   -348.29989    17.897231    23.630618    22.464591            0            0            0    9500.7838    29.546461    180.91598   -1255.3621   -506.64223    172.33968    48.154944    17.897231    23.630618    22.464591           90           90           90 
   93500    259.41473   -4282.5687   -3837.9407   -4282.5687            0    1094.7665    18.303553    23.376215    21.957353            0            0            0    9394.8446    1412.2906    553.65612    1318.3528   -170.07763    468.51622   -162.91148    18.303553    23.376215    21.957353           90           90           90 
   94000    249.66496   -4266.0945   -3838.1773   -4266.0945            0    58.825847    18.075174    23.489295    22.179804            0            0            0    9416.9481   -256.27374    542.08068    -109.3294    537.68475   -954.87084   -733.17228    18.075174    23.489295    22.179804           90           90           90 
   94500    260.59475   -4266.0913   -3819.4408   -4266.0913            0    882.87357    17.938453    23.681526     22.18281            0            0            0    9423.4781    755.13329   -179.05729    2072.5447   -16.976611    662.82871    1007.3732    17.938453    23.681526     22.18281           90           90           90 
   95000     249.9032   -4277.9448   -3849.6192   -4277.9448            0    1234.3386    18.284068    23.372231    21.846252            0            0            0    9335.7655   -146.98936     1698.981     2151.024   -324.73836   -533.94679    160.67214    18.284068    23.372231    21.846252           90           90           90 
   95500    248.79133   -4248.4233   -3822.0034   -4248.4233            0    1946.1261    18.128995    23.272611    22.166514            0            0            0    9352.2526    1750.8415    2102.6326    1984.9044   -740.60402   -132.84378   -252.18019    18.128995    23.272611    22.166514           90           90           90 
   96000    265.48492   -4250.8533   -3795.8213   -4250.8533            0     1676.133    17.823413    23.567132     22.24376            0            0            0    9343.4188    2807.1575    719.49636    1501.7451    396.85957   -319.59504   -821.07313    17.823413    23.567132     22.24376           90           90           90 
   96500    263.58972   -4228.4451   -3776.6613   -4228.4451            0    2056.4502    18.200735    23.536435    21.838376            0            0            0    9355.1324    1670.2061    1937.6075    2561.5369    525.50838    907.74137    450.19486    18.200735    23.536435    21.838376           90           90           90 
   97000    263.09295   -4268.6391   -3817.7068   -4268.6391            0    590.74271    18.187366    23.309969    22.230261            0            0            0    9424.4515    1147.8442    179.94825    444.43563   -532.51465     214.2605   -381.15283    18.187366    23.309969    22.230261           90           90           90 
   97500    265.95453   -4260.5357   -3804.6988   -4260.5357            0    616.77368    17.945967      23.5622    22.247483            0            0            0    9407.2693    852.12048    847.31439    150.88616   -873.83094    634.55615    247.15006    17.945967      23.5622    22.247483           90           90           90 
   98000     235.5537    -4244.041     -3840.31    -4244.041            0    1723.0815    18.129465    23.590821    21.988059            0            0            0    9404.0502    264.60866    2900.8966    2003.7391   -244.17798   -895.92423    900.74161    18.129465    23.590821    21.988059           90           90           90 
   98500    249.49763   -4245.7161   -3818.0857   -4245.7161            0     854.5064    18.168842    23.382433    22.210221            0            0            0    9435.6066    1304.0169    -171.0591    1430.5614   -603.48479   -177.63904    840.19803    18.168842    23.382433    22.210221           90           90           90 
   99000    255.08095   -4254.0882   -3816.8882   -4254.0882            0    2184.7171    18.043683    23.528067    22.133121            0            0            0      9396.24    2803.8621    2580.1302    1170.1589    117.21164   -164.73206    43.698335    18.043683    23.528067    22.133121           90           90           90 
   99500    272.79018   -4236.0668   -3768.5137   -4236.0668            0     2910.721    18.009921    23.556977    21.956995            0            0            0    9315.4594     3679.381    1958.7643    3094.0177   -125.96478   -94.342972    55.776893    18.009921    23.556977    21.956995           90           90           90 
  100000    259.46689   -4264.7289   -3820.0115   -4264.7289            0    2579.9536    18.109894    23.319289    22.094554            0            0            0     9330.748    1830.4716    3322.6474    2586.7418    364.73416     -578.029    281.99823    18.109894    23.319289    22.094554           90           90           90 
  100500    251.47135   -4232.9358   -3801.9226   -4232.9358            0    1022.4387    18.146501    23.509011    22.131034            0            0            0    9441.2385    2929.2219   -59.609721    197.70396    612.13418   -124.91113    106.43276    18.146501    23.509011    22.131034           90           90           90 
  101000    255.74785   -4272.4642   -3834.1212   -4272.4642            0    1152.0664    18.043292    23.680603    22.048263            0            0            0    9420.6942    1245.3743    775.35672    1435.4684   -468.78642    144.18963     -485.187    18.043292    23.680603    22.048263           90           90           90 
  101500    256.96483   -4260.2366   -3819.8076   -4260.2366            0   -347.93212    18.151164    23.393953    22.296363            0            0            0    9467.6481   -779.26611    269.41893   -533.94918    540.04376    35.258911   -70.024255    18.151164    23.393953    22.296363           90           90           90 
  102000    248.07282   -4225.7103    -3800.522   -4225.7103            0    1012.5917    18.195509    23.515828    21.962668            0            0            0    9397.4407    1776.8004    758.48497    502.48966   -380.36028   -103.62504   -14.851156    18.195509    23.515828    21.962668           90           90           90 
  102500    250.85031   -4266.2203   -3836.2715   -4266.2203            0     1875.843    17.910799    23.576988    21.955021            0            0            0    9271.2253     2587.969    1205.7093    1833.8506   -1042.5356   -357.51751    44.773942    17.910799    23.576988    21.955021           90           90           90 
  103000    253.24946   -4240.3972   -3806.3363   -4240.3972            0    2691.0773    17.960669    23.270674    22.292984            0            0            0    9317.5053    3273.4165     2896.233    1903.5825    1105.4472    251.21245   -510.99196    17.960669    23.270674    22.292984           90           90           90 
  103500    251.63302    -4254.058   -3822.7676    -4254.058            0    1787.8254    18.276878    23.406934    21.858086            0            0            0    9351.0129    2359.4166    2975.3887     28.67111   -679.98547    34.401256   -147.66574    18.276878    23.406934    21.858086           90           90           90 
  104000    250.99954   -4232.7755   -3802.5709   -4232.7755            0    865.55181    18.032147    23.611157    22.063164            0            0            0    9393.6093     1384.265    1755.1845   -542.79401    373.53044    714.75193    74.836494    18.032147    23.611157    22.063164           90           90           90 
  104500    260.67435   -4264.0142   -3817.2273   -4264.0142            0    400.93882    17.970758    23.528566    22.309989            0            0            0     9433.247    1203.2922    -668.6397    668.16393   -272.64305    144.49207   -62.300039    17.970758    23.528566    22.309989           90           90           90 
  105000    263.21286   -4232.6432   -3781.5054   -4232.6432            0    999.22036    18.198876    23.444117    21.956492            0            0            0    9367.8813   -609.12266    380.94096    3225.8428    322.76048    10.294454   -143.62604    18.198876    23.444117    21.956492           90           90           90 
  105500    265.97158   -4237.4582   -3781.5921   -4237.4582            0    317.76203    18.131353    23.528423    22.110223            0            0            0    9432.2683   -92.349747    950.54633    95.089516    204.58543    872.12198    106.72383    18.131353    23.528423    22.110223           90           90           90 
  106000    250.96957   -4266.9825   -3836.8293   -4266.9825            0    944.76201    18.012504    23.469403    22.231669            0            0            0    9398.2766    1345.4685    962.72136    526.09618     74.48431   -619.75068   -312.76995    18.012504    23.469403    22.231669           90           90           90 
  106500    258.36891   -4256.3645    -3813.529   -4256.3645            0   -63.355151    18.161497    23.569713    21.954832            0            0            0    9398.0129    -1427.499    24.833389    1212.6001   -346.75064   -1175.4973    223.56832    18.161497    23.569713    21.954832           90           90           90 
  107000    253.94462   -4271.5664    -3836.314   -4271.5664            0    1160.2811    17.949992    23.449885    22.197917            0            0            0    9343.6643    2125.2302    1309.2395    46.373505    404.18415   -157.61869   -63.245842    17.949992    23.449885    22.197917           90           90           90 
  107500    262.79055   -4258.0138   -3807.5998   -4258.0138            0    886.09727    18.200473    23.327663    22.156764            0            0            0     9407.197   -326.97941    2118.2832    866.98809    286.63074    159.55353    222.03889    18.200473    23.327663    22.156764           90           90           90 
  108000    263.39475    -4244.565   -3793.1154    -4244.565            0   -2.8540597    18.264377    23.641739    21.749641            0            0            0    9391.5301   -1208.3001   -356.86139    1556.5994    512.56195   -114.27734   -425.03219    18.264377    23.641739    21.749641           90           90           90 
  108500    274.94067   -4257.6945   -3786.4556   -4257.6945            0    1354.5645     17.78089    23.490666    22.360631            0            0            0    9339.6988    2942.5431    680.77759    440.37281   -245.48388   -32.380603    1052.9313     17.78089    23.490666    22.360631           90           90           90 
  109000     259.0294   -4261.1859   -3817.2184   -4261.1859            0    1407.5797    18.138404    23.359778    22.031743            0            0            0    9335.0499    1497.9073    981.60047    1743.2313   -276.70195    307.51854     802.7919    18.138404    23.359778    22.031743           90           90           90 
  109500     253.4145   -4236.0713   -3801.7276   -4236.0713            0    1593.0435    18.235647    23.382743    21.941409            0            0            0    9355.8047    1552.6796    1476.8362    1749.6148    464.81251   -646.05612   -158.64121    18.235647    23.382743    21.941409           90           90           90 
  110000    257.23232   -4254.8231   -3813.9357   -4254.8231            0   -699.52284    17.959227    23.593191    22.396867            0            0            0    9489.8991    1181.3519   -2406.7267   -873.19376    411.55556   -306.38071   -613.13904    17.959227    23.593191    22.396867           90           90           90 
  110500    253.18967   -4257.4294    -3823.471   -4257.4294            0    347.68101    18.083746    23.644842    22.060561            0            0            0    9432.8161    446.77338    902.14813   -305.87849    1556.0528     900.8581    218.75971    18.083746    23.644842    22.060561           90           90           90 
  111000    262.48711   -4255.1798   -3805.2859   -4255.1798            0    1607.2978     18.12963    23.578897    22.007318            0            0            0    9407.6153    643.18211    1566.0974    2612.6138   -250.92165    -78.62036    343.34049     18.12963    23.578897    22.007318           90           90           90 
  111500    256.16499   -4237.0895   -3798.0315   -4237.0895            0    1401.0184    18.104094    23.510378    22.230904            0            0            0    9462.2305   -58.510457    1183.0776    3078.4881    859.52236    168.78047   -444.57476    18.104094    23.510378    22.230904           90           90           90 
  112000    254.78376   -4253.7667   -3817.0761   -4253.7667            0    2084.6536    18.095839    23.587949    21.957311            0            0            0    9372.3404    790.09943    2810.4384    2653.4228   -1019.5036    561.12547   -247.92685    18.095839    23.587949    21.957311           90           90           90 
  112500     245.3792   -4259.5862   -3839.0146   -4259.5862            0    3100.9712    17.967877    23.356379    22.131372            0            0            0    9287.7522     1567.438    3383.7849    4351.6907    1049.0463      880.178    610.68927    17.967877    23.356379    22.131372           90           90           90 
  113000    254.10189   -4270.4169   -3834.8949   -4270.4169            0    2472.7938    18.012711    23.310839    22.198282            0            0            0    9320.8676     2796.234    2356.2236    2265.9239   -671.79427   -35.766063    381.27344    18.012711    23.310839    22.198282           90           90           90 
  113500    248.86819   -4242.9018   -3816.3502   -4242.9018            0    756.61077    18.236019    23.594537    21.863918            0            0            0    9407.3974   -942.34224    1390.2933    1821.8812    452.99455    682.77502    65.221306    18.236019    23.594537    21.863918           90           90           90 
  114000    246.23076   -4215.6957   -3793.6646   -4215.6957            0    240.26168      17.9726    23.642359    22.322718            0            0            0    9485.2501    452.20366     1454.628   -1186.0466   -560.13569   -375.62738    1164.6319      17.9726    23.642359    22.322718           90           90           90 
  114500    265.43285   -4259.9708    -3805.028   -4259.9708            0    1012.7929    18.075863    23.542198    22.138847            0            0            0    9421.0875    1282.4972    -52.32118    1808.2028   -39.505208    163.01851    181.38798    18.075863    23.542198    22.138847           90           90           90 
  115000    254.82276   -4236.6716   -3799.9141   -4236.6716            0    2657.3823    18.172759    23.382087    21.932596            0            0            0    9319.5335    2434.2084     3913.326    1624.6125    101.21141   -127.59127    759.60096    18.172759    23.382087    21.932596           90           90           90 
  115500    249.21683   -4235.3916   -3808.2425   -4235.3916            0    1688.2939    18.027547    23.501024    22.145908            0            0            0     9382.464    3765.8844    1318.0834   -19.086148   -19.420882      232.949    509.94316    18.027547    23.501024    22.145908           90           90           90 
  116000    251.66194   -4265.9098   -3834.5698   -4265.9098            0    2130.6582    18.046168    23.450716    22.034525            0            0            0    9324.9134    2182.7258     2215.234    1994.0148   -1353.7695    878.80511    308.85931    18.046168    23.450716    22.034525           90           90           90 
  116500    254.21752    -4240.861   -3805.1409    -4240.861            0    2072.3463    18.154327    23.488591    22.039436            0            0            0    9398.0471    1246.5666    931.07968    4039.3926    -185.3975   -462.22539   -211.74796    18.154327    23.488591    22.039436           90           90           90 
  117000    245.05675   -4275.7921   -3855.7732   -4275.7921            0    793.31414    18.055568    23.510503    22.185217            0            0            0    9417.5247    1789.4322    2277.3392    -1686.829   -709.79723   -285.73371    686.38725    18.055568    23.510503    22.185217           90           90           90 
  117500    247.42534   -4262.5423   -3838.4637   -4262.5423            0    267.19118    18.135987    23.626097     22.04356            0            0            0    9445.2816    903.70441   -2089.2792    1987.1483   -405.63824   -560.17358    1118.5992    18.135987    23.626097     22.04356           90           90           90 
  118000     247.4113   -4263.9012   -3839.8467   -4263.9012            0   -451.87045    18.168391    23.536797    22.282108            0            0            0    9528.4025   -83.831592   -190.85454   -1080.9252   -1065.0548    187.87215   -398.88793    18.168391    23.536797    22.282108           90           90           90 
  118500    258.24062   -4248.9009   -3806.2853   -4248.9009            0   -160.54843    18.151317    23.460342    22.281817            0            0            0    9488.4018    59.018441   -67.796559   -472.86718   -838.69492    302.27691    -69.19479    18.151317    23.460342    22.281817           90           90           90 
  119000    257.97752   -4259.1339   -3816.9693   -4259.1339            0   -21.793413    18.185487    23.588036    21.991839            0            0            0    9433.6176   -106.09637    437.62532   -396.90919   -300.81764    361.40621    555.40744    18.185487    23.588036    21.991839           90           90           90 
  119500    244.90379   -4222.8853   -3803.1286   -4222.8853            0    1157.5604    18.088336     23.37701     22.23524            0            0            0    9402.1978    286.58599    1754.7137    1431.3816   -58.082676   -522.79281    377.44858    18.088336     23.37701     22.23524           90           90           90 
  120000    247.20099   -4245.2492   -3821.5551   -4245.2492            0    4.5240163    17.982118    23.567716     22.25732            0            0            0    9432.5955    1071.3347   -34.130533   -1023.6321    110.28346    609.90401    586.88816    17.982118    23.567716     22.25732           90           90           90 
  120500    264.25949    -4244.977   -3792.0453    -4244.977            0    219.54701    18.189645    23.791376    21.810326            0            0            0    9438.5643    242.37359    574.71295   -158.44553    1736.8649     383.6112    324.42608    18.189645    23.791376    21.810326           90           90           90 
  121000    243.54526   -4241.7685   -3824.3402   -4241.7685            0    1728.0026    18.147026    23.173423    22.246358            0            0            0    9355.2319   -486.10653    3062.5427    2607.5715    102.27506   -63.662825   -540.73588    18.147026    23.173423    22.246358           90           90           90 
  121500    245.73695   -4246.2457   -3825.0609   -4246.2457            0    982.94949    17.991384    23.505198     22.18818            0            0            0    9383.1821    1107.0167    1918.7609   -76.929123    803.35816    535.21208    584.52523    17.991384    23.505198     22.18818           90           90           90 
  122000    268.86197   -4244.3506   -3783.5304   -4244.3506            0    544.12684    18.066521    23.754849    21.924289            0            0            0    9409.1919    81.754854    115.56655    1435.0591    216.46331   -23.849821   -313.48853    18.066521    23.754849    21.924289           90           90           90 
  122500    264.74506   -4228.8653   -3775.1014   -4228.8653            0    654.15297    18.222074    23.251556    22.216471            0            0            0    9412.9317   -213.29379    1059.4293    1116.3234   -554.97659   -22.951321   -57.272423    18.222074    23.251556    22.216471           90           90           90 
  123000    256.53978   -4275.9022   -3836.2018   -4275.9022            0    1752.5725     17.98563     23.52276    22.106157            0            0            0    9352.4885    1969.3319    1480.0961    1808.2894    50.922302    324.16919   -18.780342     17.98563     23.52276    22.106157           90           90           90 
  123500    247.26843   -4238.2162   -3814.4066   -4238.2162            0    1339.5534    18.036108    23.748383    21.872698            0            0            0    9368.6975    1638.6177    153.34441    2226.6981   -1321.0319   -112.67207    23.101971    18.036108    23.748383    21.872698           90           90           90 
  124000    263.10359   -4246.1689   -3795.2183   -4246.1689            0    1607.5196    18.213795    23.165825    22.226056            0            0            0    9378.0083    1024.0035    2877.1428    921.41255    309.58961   -43.881345   -443.12397    18.213795    23.165825    22.226056           90           90           90 
  124500    241.71466   -4216.6986   -3802.4079   -4216.6986            0    1757.8736    18.055082    23.501161    22.123022            0            0            0    9387.1388    510.08558    1846.4335    2917.1018   -708.71681   -398.07721    135.75691    18.055082    23.501161    22.123022           90           90           90 
  125000    266.99109   -4219.3433   -3761.7297   -4219.3433            0    1160.0434    18.054369    23.696253     22.01723            0            0            0     9419.431    698.16005    449.53438    2332.4358   -108.49724   -830.79312   -49.898158    18.054369    23.696253     22.01723           90           90           90 
  125500    256.27373   -4247.6736   -3808.4292   -4247.6736            0    956.40152    18.180912    23.340743    22.177662            0            0            0    9411.2239    566.99049    1268.3806    1033.8335   -61.875093    1035.9289    915.34952    18.180912    23.340743    22.177662           90           90           90 
  126000       257.02   -4248.1232   -3807.5997   -4248.1232            0     1940.757    18.160409    23.535021    22.092156            0            0            0    9442.3118    3057.7864    1023.1657    1741.3189   -180.03919    159.41473    581.62845    18.160409    23.535021    22.092156           90           90           90 
  126500     252.6809   -4296.0527   -3862.9663   -4296.0527            0    1247.1802    17.983001    23.567215    22.090992            0            0            0    9362.3665    1982.5932    2141.8947   -382.94733   -66.574088    -942.3012   -343.05825    17.983001    23.567215    22.090992           90           90           90 
  127000     257.8006   -4238.9357   -3797.0743   -4238.9357            0    1384.4682    18.178632    23.336217    22.182253            0            0            0    9410.1665    1641.1245    1163.6027    1348.6772    964.22075   -263.96143   -419.97807    18.178632    23.336217    22.182253           90           90           90 
  127500    266.74856   -4256.1343   -3798.9364   -4256.1343            0    877.24461    18.231935    23.501121     22.03146            0            0            0    9439.8396   -3.9731286    654.77808    1980.9289   -624.81104    -280.7517   -10.314328    18.231935    23.501121     22.03146           90           90           90 
  128000    246.93903   -4234.7899   -3811.5448   -4234.7899            0    447.18548    17.867369     23.81112    22.107452            0            0            0    9405.4402    826.35746   -714.68536    1229.8843   -224.86282    24.459434    560.49607    17.867369     23.81112    22.107452           90           90           90 
  128500    257.14857   -4265.3795   -3824.6357   -4265.3795            0    398.81186    18.109377    23.273981    22.378582            0            0            0    9432.0642     1268.464    671.73531    -743.7637   -367.96004    177.91351    318.79096    18.109377    23.273981    22.378582           90           90           90 
  129000    255.44792   -4222.5522   -3784.7232   -4222.5522            0   -9.2673699    18.394224    23.294536     22.02226            0            0            0    9436.2061   -472.27326   -450.79491    895.26605    208.87303   -421.54452   -308.19361    18.394224    23.294536     22.02226           90           90           90 
  129500    250.59303   -4236.5992   -3807.0914   -4236.5992            0    315.96489    17.903359    23.848193    22.101698            0            0            0     9436.602    704.04613   -889.22229    1133.0708   -112.80236   -100.49352   -603.63732    17.903359    23.848193    22.101698           90           90           90 
  130000    241.10918   -4256.7357   -3843.4828   -4256.7357            0   -71.959461    18.022357    23.493047    22.249406            0            0            0    9420.4006    -121.9414   -518.32369    424.38671   -118.92041   -132.18559    3.2125335    18.022357    23.493047    22.249406           90           90           90 
  130500    274.21411   -4266.8939   -3796.9002   -4266.8939            0    1037.3489    18.321267    23.312116    22.026861            0            0            0    9407.8378   -477.98279    1618.2678    1971.7617   -128.99923   -875.53249   -180.63797    18.321267    23.312116    22.026861           90           90           90 
  131000    253.46528    -4276.875   -3842.4442    -4276.875            0     2702.498    17.928994    23.537035     22.03221            0            0            0    9297.4905     1977.094    1629.1473    4501.2529   -70.763855   -198.61345   -433.72147    17.928994    23.537035     22.03221           90           90           90 
  131500    249.40269   -4245.6411   -3818.1734   -4245.6411            0    1508.3584    17.950472    23.633529    22.093743            0            0            0    9372.8948    1763.2053    115.64538    2646.2246     672.1358    114.29152   -443.98322    17.950472    23.633529    22.093743           90           90           90 
  132000    249.15941   -4207.4321   -3780.3814   -4207.4321            0    1715.6017    18.300474    23.361087    22.001169            0            0            0    9405.9165    1614.9497    3584.9941   -53.138608   -569.29066   -77.040495    1249.2336    18.300474    23.361087    22.001169           90           90           90 
  132500      261.589   -4229.7736    -3781.419   -4229.7736            0    455.90611    18.023384    23.502453    22.281743            0            0            0    9438.4068    614.04411    511.41388    242.26033   -250.30204    23.227396     -293.527    18.023384    23.502453    22.281743           90           90           90 
  133000    250.05702   -4238.2946   -3809.7054   -4238.2946            0   -138.88047     18.09404    23.653205    22.131457            0            0            0    9471.8663    1079.1968   -619.64489   -876.19336    377.23157    202.96853    190.98187     18.09404    23.653205    22.131457           90           90           90 
  133500    264.24542   -4246.2546    -3793.347   -4246.2546            0    1021.0046    18.291586    23.482894    21.970133            0            0            0    9437.0372    846.69239    1401.6725    814.64881    -1342.948   -343.54366   -568.11325    18.291586    23.482894    21.970133           90           90           90 
  134000    253.49797    -4291.887   -3857.4002    -4291.887            0    701.02247    17.902096    23.462896    22.332842            0            0            0    9380.5758    1037.1882    845.21051    220.66868   -38.489428   -227.06535    729.20452    17.902096    23.462896    22.332842           90           90           90 
  134500    252.13277   -4244.4695   -3812.3226   -4244.4695            0    1376.1143    18.154692    23.586085    21.969085            0            0            0    9407.1207   -732.95071    744.20304    4117.0906    546.67185   -79.799365    495.52232    18.154692    23.586085    21.969085           90           90           90 
  135000    240.16881   -4262.0533   -3850.4122   -4262.0533            0    2021.7524     18.31384    23.408297     21.92213            0            0            0    9397.9253    2428.5747    1754.3845    1882.2979   -85.935793   -262.23655    532.61763     18.31384    23.408297     21.92213           90           90           90 
  135500    263.14333   -4272.2474   -3821.2288   -4272.2474            0    619.61956    17.854707    23.476536    22.451569            0            0            0    9410.9492    1042.2841    1001.8377   -185.26313   -690.55411    396.18257   -616.21191    17.854707    23.476536    22.451569           90           90           90 
  136000    257.82721   -4252.1824   -3810.2753   -4252.1824            0    1035.0419    18.037646    23.669659    22.076664            0            0            0    9425.5195    1360.4476    -200.4959     1945.174    761.53214   -609.65083   -40.962405    18.037646    23.669659    22.076664           90           90           90 
  136500    266.07388   -4254.9867   -3798.9452   -4254.9867            0    1833.7246    18.240092    23.407937     21.97685            0            0            0    9383.3001    1204.5434    2410.5076    1886.1228    614.21603   -345.30665   -517.64709    18.240092    23.407937     21.97685           90           90           90 
  137000    246.78774   -4255.1939   -3832.2081   -4255.1939            0    1673.1786    18.032188    23.460325    22.256522            0            0            0    9415.4209    3210.9145    738.74276    1069.8784   -542.16266    241.82088   -741.52935    18.032188    23.460325    22.256522           90           90           90 
  137500    266.67205   -4217.6719   -3760.6051   -4217.6719            0    871.78927    18.063302    23.537465    22.144901            0            0            0    9415.2221    796.27796    1262.8135     556.2763    1028.6376    307.55261    51.559601    18.063302    23.537465    22.144901           90           90           90 
  138000    266.00898   -4263.8552   -3807.9249   -4263.8552            0   -353.95101    18.283121       23.601    22.054248            0            0            0    9516.4066   -1180.1024    190.82105   -72.571662   -68.860234    25.661821   -162.49262    18.283121       23.601    22.054248           90           90           90 
  138500    244.41921   -4227.0079   -3808.0818   -4227.0079            0    745.55755    18.129372    23.339887     22.36263            0            0            0    9462.4669    1173.4236    2102.6479   -1039.3988    743.75497   -556.70345   -308.24806    18.129372    23.339887     22.36263           90           90           90 
  139000    246.17944   -4288.6974   -3866.7542   -4288.6974            0    1100.5155    18.052692    23.754065    21.904658            0            0            0    9393.2612    584.73276    -28.95943     2745.773    169.50727    465.92736   -686.17329    18.052692    23.754065    21.904658           90           90           90 
  139500    270.96466   -4268.6914   -3804.2672   -4268.6914            0    2391.8325    17.980269    23.451425    22.129567            0            0            0    9331.2182    3552.2294    1463.5312    2159.7369   -286.54676   -413.68549    371.55702    17.980269    23.451425    22.129567           90           90           90 
  140000    255.48935   -4243.4152   -3805.5152   -4243.4152            0    1361.3946    18.289588    23.106404     22.18617            0            0            0    9376.0218    1159.9586    758.07656    2166.1488    144.85301   -552.22615    504.04708    18.289588    23.106404     22.18617           90           90           90 
  140500     255.6676   -4232.2236   -3794.0181   -4232.2236            0    1106.5304    18.068051    23.709882    21.921748            0            0            0    9391.0878    267.00963    970.68628    2081.8952    79.879025    590.32638    156.68377    18.068051    23.709882    21.921748           90           90           90 
  141000    253.77403   -4267.0623   -3832.1023   -4267.0623            0    400.50578    17.955651    23.622712    22.215675            0            0            0    9423.0267    741.42225   -675.88394     1135.979   -199.25399   -908.93445   -135.23693    17.955651    23.622712    22.215675           90           90           90 
  141500    245.13978   -4244.2535   -3824.0923   -4244.2535            0    577.09318     18.27731    23.256983    22.104488            0            0            0    9396.0671    376.95682    1306.5179    47.804816    628.93946   -866.16213   -209.90173     18.27731    23.256983    22.104488           90           90           90 
  142000    239.96238   -4233.8133    -3822.526   -4233.8133            0    329.76349    18.248768    23.605522    21.996021            0            0            0    9475.2629     600.9168    544.48794   -156.11427    -355.4477    99.214815    967.88209    18.248768    23.605522    21.996021           90           90           90 
  142500    272.49608   -4255.6036   -3788.5547   -4255.6036            0   -127.57982    17.963305    23.740865    22.286532            0            0            0    9504.4123    90.533534   -738.69299    265.41998   -105.08151    398.97476   -42.189694    17.963305    23.740865    22.286532           90           90           90 
  143000    247.84617   -4240.3385   -3815.5387   -4240.3385            0    678.86063    18.207543    23.370933    22.162033            0            0            0     9430.549    893.78788    73.341253    1069.4528    438.60357   -74.214082    9.2669871    18.207543    23.370933    22.162033           90           90           90 
  143500    250.56091   -4251.8992   -3822.4464   -4251.8992            0    1146.2983    18.226378     23.41652    22.036385            0            0            0    9405.0929     766.9107     459.2409    2212.7434   -108.45293    -677.9089   -154.27224    18.226378     23.41652    22.036385           90           90           90 
  144000    255.18333   -4247.6591   -3810.2836   -4247.6591            0       906.76    17.824317     23.72484    22.227981            0            0            0    9399.7477     887.0857    426.47339    1406.7209    342.88462   -581.97377   -63.831542    17.824317     23.72484    22.227981           90           90           90 
  144500    250.57474   -4239.2016   -3809.7251   -4239.2016            0    723.83897    18.268353     23.44426    22.090199            0            0            0    9460.9681   -12.864719    934.50484    1249.8768    246.38521    530.40678   -223.23978    18.268353     23.44426    22.090199           90           90           90 
  145000    272.98498   -4252.3017   -3784.4147   -4252.3017            0    736.26804    18.325688    23.315501    22.162162            0            0            0    9469.2843   -1.1690265    690.40355    1519.5696   -804.17335   -44.537187    444.26886    18.325688    23.315501    22.162162           90           90           90 
  145500      260.873   -4235.2448   -3788.1174   -4235.2448            0    807.89343    17.969755    23.722585    22.165414            0            0            0    9448.8731    1727.8747   -74.062252    769.86782   -784.12508     285.5919    640.77442    17.969755    23.722585    22.165414           90           90           90 
  146000    255.70892   -4270.2887   -3832.0124   -4270.2887            0    1120.6209    18.088478    23.445583    22.131501            0            0            0    9385.8569    116.42263    1498.0346    1747.4054    252.62751   -864.60235   -479.49729    18.088478    23.445583    22.131501           90           90           90 
  146500    263.28721     -4272.71   -3821.4447     -4272.71            0    1816.6285    18.203948     23.39631    22.047342            0            0            0    9390.0778      1952.27     2527.232    970.38352    16.875047   -684.09486   -1239.2417    18.203948     23.39631    22.047342           90           90           90 
  147000    238.45242   -4239.6687   -3830.9694   -4239.6687            0    1714.9762    17.920439    23.737901    22.049436            0            0            0    9379.6891    3565.1402    1015.5747    564.21362    718.20936    46.629363    818.80912    17.920439    23.737901    22.049436           90           90           90 
  147500    256.87788   -4259.4638   -3819.1839   -4259.4638            0    1468.1822    18.121423    23.447221    22.170894            0            0            0    9420.3466     889.7153    1006.9429    2507.8885   -35.438255    242.72695    261.62879    18.121423    23.447221    22.170894           90           90           90 
  148000    249.17712   -4269.5706   -3842.4896   -4269.5706            0   -341.21107    18.412784    23.284938    22.216978            0            0            0     9525.319   -1459.3173    1514.2457   -1078.5616   -275.94691    388.87208   -300.07746    18.412784    23.284938    22.216978           90           90           90 
  148500    257.79946   -4261.9227   -3820.0633   -4261.9227            0    681.78584    17.918276    23.939033    21.999304            0            0            0    9436.5178    505.89288   -339.10689    1878.5715    174.92697     524.8645    243.14618    17.918276    23.939033    21.999304           90           90           90 
  149000    260.35285    -4222.578   -3776.3421    -4222.578            0    1563.9664    18.088962    23.493462    22.152286            0            0            0    9414.1089    2050.0538    1312.2932     1329.552    177.88976   -265.89988     688.1488    18.088962    23.493462    22.152286           90           90           90 
  149500    256.87705   -4218.9819   -3778.7034   -4218.9819            0    2195.6235    18.203828    23.291381    22.107072            0            0            0    9373.2281    1919.2798    2700.2727    1967.3179   -16.675643    912.51987    432.89394    18.203828    23.291381    22.107072           90           90           90 
  150000    247.79693   -4249.0347   -3824.3193   -4249.0347            0    1742.4939    18.025298    23.568222    21.996814            0            0            0    9344.7799      1553.22    1249.0789    2425.1829    925.76711   -547.62813     419.7352    18.025298    23.568222    21.996814           90           90           90 
  150500    261.70181   -4272.7393   -3824.1914   -4272.7393            0    1420.1833    18.078194     23.49294    22.076659            0            0            0    9376.1765    1273.0235    2316.7433    670.78314    187.03166   -57.707091    336.57189    18.078194     23.49294    22.076659           90           90           90 
  151000    258.34357   -4237.7016   -3794.9096   -4237.7016            0    350.22846    18.195936    23.345166    22.197288            0            0            0     9429.123    757.87395    -71.45981    364.27125    315.11121   -410.24236    236.57162    18.195936    23.345166    22.197288           90           90           90 
  151500    253.49756   -4253.2865   -3818.8004   -4253.2865            0    2036.8568    18.012129    23.614356    21.987439            0            0            0    9352.2434    4051.3185    766.09492     1293.157   -83.592228   -138.99855   -90.813311    18.012129    23.614356    21.987439           90           90           90 
  152000    243.15237   -4241.0811   -3824.3263   -4241.0811            0    2038.1621     18.01664    23.531058    22.028906            0            0            0     9339.168    1733.4802    2447.5714    1933.4346   -189.96846    85.358107    780.92152     18.01664    23.531058    22.028906           90           90           90 
  152500    262.23453   -4286.0092   -3836.5482   -4286.0092            0    1541.4651     18.19414     23.15093    22.219123            0            0            0     9358.945    1121.4694    3558.3807   -55.454853    338.60266    85.174658    662.65404     18.19414     23.15093    22.219123           90           90           90 
  153000    257.99261   -4260.3387   -3818.1482   -4260.3387            0    1384.4159    18.075671    23.648659    22.015145            0            0            0    9410.7125    720.58825    1614.9522    1817.7074   -23.265684    508.08373    167.65532    18.075671    23.648659    22.015145           90           90           90 
  153500    246.80844   -4234.9564   -3811.9351   -4234.9564            0    1878.9978    18.027294    23.524736     22.20953            0            0            0    9418.7804    2697.6773    2543.9298    395.38627    17.666036   -56.759426   -146.50055    18.027294    23.524736     22.20953           90           90           90 
  154000    249.86834   -4259.4398    -3831.174   -4259.4398            0    1166.6794    18.207271    23.345465    22.126487            0            0            0    9405.0226    1074.1816    1712.4267    713.42988    374.11055   -952.41755   -396.30801    18.207271    23.345465    22.126487           90           90           90 
  154500    240.67631    -4251.046    -3838.535    -4251.046            0    979.66849    18.097318    23.506718     22.07176            0            0            0    9389.5157    1725.3949    1027.1166      186.494   -545.10199   -809.98229    140.99196    18.097318    23.506718     22.07176           90           90           90 
  155000    246.37772   -4250.2968   -3828.0138   -4250.2968            0    1179.7542    17.819571    23.669175    22.123896            0            0            0    9331.2961    2789.3655   -411.24345    1161.1407    808.78108    812.49636   -235.64418    17.819571    23.669175    22.123896           90           90           90 
  155500    251.60751   -4261.0181   -3829.7714   -4261.0181            0    182.28865     18.29117    23.304124    22.076444            0            0            0    9410.2983   -252.46883    469.77839     329.5564    -223.8327   -333.53285    462.49499     18.29117    23.304124    22.076444           90           90           90 
  156000    241.74044   -4266.1163   -3851.7814   -4266.1163            0    73.282523    18.179984     23.50231    22.040298            0            0            0    9417.1937   -324.85731   -135.03942     679.7443   -1502.8444   -730.90527    -561.5153    18.179984     23.50231    22.040298           90           90           90 
  156500    260.18383   -4269.9439   -3823.9977   -4269.9439            0    334.49583    17.836364    23.795092    22.213008            0            0            0    9427.5987    2026.0412   -1504.6875    482.13382    387.35169   -524.65172   -272.53147    17.836364    23.795092    22.213008           90           90           90 
  157000    239.77524   -4248.0963   -3837.1297   -4248.0963            0    175.57198    18.285942    23.347836    22.139158            0            0            0    9452.0292   -259.32247    1988.0348   -1201.9964   -80.180795    165.97673    307.24914    18.285942    23.347836    22.139158           90           90           90 
  157500     226.0128   -4233.7631   -3846.3849   -4233.7631            0    1753.4955    18.253131    23.307246    22.001177            0            0            0    9359.9653    2475.7198    1178.7499    1606.0167    663.00573   -63.670363   -0.4632449    18.253131    23.307246    22.001177           90           90           90 
  158000    243.74901   -4239.7046   -3821.9271   -4239.7046            0    1110.9796    17.843641    23.750927    22.131573            0            0            0    9379.4276    2706.9445    353.43821    272.55622   -766.30928   -111.92057    291.43384    17.843641    23.750927    22.131573           90           90           90 
  158500    253.96032   -4257.5842   -3822.3049   -4257.5842            0    1232.9816    18.089467    23.451178    22.132205            0            0            0    9388.9084     988.0187    2741.1937   -30.267523     47.97764   -410.75953   -464.73251    18.089467    23.451178    22.132205           90           90           90 
  159000    251.39034   -4257.7478   -3826.8733   -4257.7478            0    1018.7904    18.252591    23.381057    21.993112            0            0            0    9385.8875   -445.46144    617.04341    2884.7892    56.409918    110.11369   -376.41761    18.252591    23.381057    21.993112           90           90           90 
  159500    263.75713   -4251.7306   -3799.6599   -4251.7306            0    292.64897    18.073566    23.573902    22.166374            0            0            0     9444.305   -605.95214    578.70224    905.19679    -189.7604    95.366928   -357.81691    18.073566    23.573902    22.166374           90           90           90 
  160000    252.58298    -4218.535   -3785.6164    -4218.535            0    406.63099    18.107995    23.644954    22.052159            0            0            0     9441.912    -488.9497    642.86607    1065.9766    124.04691   -632.60308    146.66327    18.107995    23.644954    22.052159           90           90           90 
  160500    261.81068   -4252.0213   -3803.2868   -4252.0213            0    933.95102    18.211864    23.304861    22.068493            0            0            0    9366.4192   -293.63242    418.43723    2677.0482    171.02024   -518.31679   -486.62094    18.211864    23.304861    22.068493           90           90           90 
  161000    249.28023   -4263.6462   -3836.3884   -4263.6462            0    1769.7293    18.181058     23.21393    22.209042            0            0            0    9373.4109    562.73224    1790.9549    2955.5008   -405.16901    755.44571    925.95365    18.181058     23.21393    22.209042           90           90           90 
  161500    256.42509   -4265.7777   -3826.2739   -4265.7777            0    943.60537    17.895725     23.76829    22.121658            0            0            0    9409.4641     2757.238    1386.1103   -1312.5322   -817.30315    -319.2702   -155.15079    17.895725     23.76829    22.121658           90           90           90 
  162000    243.96764   -4233.4093   -3815.2571   -4233.4093            0    329.26171    18.165674    23.494788    22.055294            0            0            0    9413.1698    559.14795   -528.37911    957.01628    717.15958    1228.0084   -269.57012    18.165674    23.494788    22.055294           90           90           90 
  162500    248.15316    -4248.718    -3823.392    -4248.718            0    25.737033    18.163336    23.339283    22.197068            0            0            0    9409.7644    373.63581    447.52157   -743.94628    959.09671   -520.60905   -5.9754441    18.163336    23.339283    22.197068           90           90           90 
  163000    248.04041     -4238.71   -3813.5772     -4238.71            0    65.795251    18.047992    23.585811    22.123848            0            0            0    9417.6032   -35.244653   -652.34083    884.97124   -820.04264   -566.08775    176.83937    18.047992    23.585811    22.123848           90           90           90 
  163500    234.59318   -4258.2984   -3856.2137   -4258.2984            0   -592.41059    17.976241    23.741409    22.116149            0            0            0    9438.7584   -646.99923    327.28959   -1457.5221    928.68489    160.99978   -609.80003    17.976241    23.741409    22.116149           90           90           90 
  164000    249.88905   -4244.9178   -3816.6165   -4244.9178            0   -316.57873    18.313118     23.27471    22.221959            0            0            0    9471.7216   -479.60049    9.4972019   -479.63289    68.667761    -419.1103    598.35704    18.313118     23.27471    22.221959           90           90           90 
  164500    257.36598   -4252.8755    -3811.759   -4252.8755            0    156.64019    18.190597    23.389144    22.125493            0            0            0    9413.5679   -13.165145   -9.0145875     492.1003   -298.24872    882.67457   -126.90472    18.190597    23.389144    22.125493           90           90           90 
  165000    251.73095   -4243.6269   -3812.1687   -4243.6269            0    1344.7493    17.981595    23.653463    22.036178            0            0            0    9372.5816    2128.0621   -1076.0364    2982.2223    16.180824   -140.15989   -711.53139    17.981595    23.653463    22.036178           90           90           90 
  165500    252.64888   -4249.7428   -3816.7112   -4249.7428            0    1162.7868    18.040878    23.436632    22.095552            0            0            0    9342.3843    1033.5867    2066.8883    387.88546    -667.3458    234.44336   -372.93868    18.040878    23.436632    22.095552           90           90           90 
  166000    251.31578   -4219.9061   -3789.1595   -4219.9061            0    53.601843    18.131849    23.384192    22.143299            0            0            0    9388.7284    816.33387    19.830104   -675.35845    332.89831    185.39906    384.37595    18.131849    23.384192    22.143299           90           90           90 
  166500    244.15271   -4260.3474    -3841.878   -4260.3474            0    1084.5838    17.965608     23.53619    22.119627            0            0            0    9353.1065    792.18889   -538.41863     2999.981   -891.98158    228.01561     696.3022    17.965608     23.53619    22.119627           90           90           90 
  167000    234.12969    -4248.743   -3847.4528    -4248.743            0   -414.08718    18.113843    23.668886     21.95293            0            0            0    9411.9784   -1696.5099    342.54186    111.70651    45.749561    -193.4742    425.40712    18.113843    23.668886     21.95293           90           90           90 
  167500      251.827   -4264.2099    -3832.587   -4264.2099            0    140.40217    18.293621    23.195133    22.233202            0            0            0    9434.0585   -803.88114    424.52243    800.56523   -282.28637   -400.18998   -40.508134    18.293621    23.195133    22.233202           90           90           90 
  168000    261.01488    -4237.714   -3790.3434    -4237.714            0    248.62131     17.99205    23.531669    22.174197            0            0            0    9388.1773     763.0946    676.28073    -693.5114    339.75854    52.785243   -482.34736     17.99205    23.531669    22.174197           90           90           90 
  168500    264.94025   -4261.7013   -3807.6028   -4261.7013            0    1292.3046    17.937931         23.8    21.852744            0            0            0    9329.4336     954.7017    1598.8927    1323.3193     496.4508   -207.60149   -293.65735    17.937931         23.8    21.852744           90           90           90 
  169000    255.44365   -4225.1748   -3787.3532   -4225.1748            0    618.02977    18.105168    23.149304    22.242644            0            0            0    9322.3822    972.56311    2086.8994   -1205.3732    633.77942    985.49841   -663.30958    18.105168    23.149304    22.242644           90           90           90 
  169500    259.15295   -4273.7746   -3829.5953   -4273.7746            0    -596.7179     18.16983    23.434774    22.166596            0            0            0    9438.6662    310.62747   -656.71922    -1444.062    127.19165     591.0288   -52.882441     18.16983    23.434774    22.166596           90           90           90 
  170000    257.84591   -4221.8118   -3779.8727   -4221.8118            0    464.84697    18.027125    23.780861    21.911053            0            0            0    9393.2807   -1975.0996    1635.7675     1733.873   -233.99434   -205.63484    166.42508    18.027125    23.780861    21.911053           90           90           90 
  170500    246.33038   -4275.5717   -3853.3699   -4275.5717            0    2895.6239    18.013772    23.266104    22.131647            0            0            0    9275.6008    2334.8181    3789.6392    2562.4143   -338.25227    481.32805   -927.42373    18.013772    23.266104    22.131647           90           90           90 
  171000    260.03287   -4268.5211   -3822.8337   -4268.5211            0    1616.7083    18.073875    23.346849    22.044719            0            0            0    9302.1664    674.97566    2376.0813    1799.0681    195.68993   -226.50329    70.778761    18.073875    23.346849    22.044719           90           90           90 
  171500    257.73014   -4260.7784   -3819.0378   -4260.7784            0     228.0764     18.03565    23.576987    22.020453            0            0            0    9363.6749   -57.751862   -269.76906    1011.7501   -1299.3109    -707.3549    875.12929     18.03565    23.576987    22.020453           90           90           90 
  172000    243.30381   -4240.9165   -3823.9021   -4240.9165            0    12.177527    18.086058    23.426579    22.191696            0            0            0    9402.4988   -356.65468    1935.0231   -1541.8359    698.04833    444.33369    270.12026    18.086058    23.426579    22.191696           90           90           90 
  172500     252.0436   -4226.1942   -3794.2001   -4226.1942            0    1328.1361    18.199372    23.511538     22.02617            0            0            0    9424.8928    2150.2702    577.68178    1256.4565    142.82329   -341.67529    458.05553    18.199372    23.511538     22.02617           90           90           90 
  173000    244.69605   -4250.9709   -3831.5702   -4250.9709            0    555.09362    17.942609    23.591681    22.185712            0            0            0    9391.1305    1042.8925    1333.7811   -711.39268   -76.470814   -1111.5722   -161.21375    17.942609    23.591681    22.185712           90           90           90 
  173500    239.23628   -4218.2824   -3808.2396   -4218.2824            0    715.98403    18.077122    23.447552     22.23921            0            0            0    9426.4067    2559.1787    150.82265    -562.0493   -441.66446    394.25602    305.88938    18.077122    23.447552     22.23921           90           90           90 
  174000    237.79102   -4236.2921   -3828.7265   -4236.2921            0     624.4941    18.415606    23.408527    21.816459            0            0            0    9404.6871   -910.12953    1691.8201    1091.7917    756.14065    809.77859   -499.93787    18.415606    23.408527    21.816459           90           90           90 
  174500    259.75274   -4250.6057   -3805.3984   -4250.6057            0    2160.8265    17.885323    23.432371     22.29251            0            0            0    9342.6911    3692.8219    1929.7754    859.88221   -271.57765   -52.484865   -604.01894    17.885323    23.432371     22.29251           90           90           90 
  175000    257.63439   -4249.7975    -3808.221   -4249.7975            0     427.8921    17.967226    23.602704    22.169635            0            0            0    9401.5905   -721.97314    360.81292    1644.8365    296.66634    442.42704      699.842    17.967226    23.602704    22.169635           90           90           90 
  175500    242.38242   -4275.4137   -3859.9785   -4275.4137            0    814.74857    18.262812    23.383117    21.924894            0            0            0    9362.8392   -576.20753    1280.0357    1740.4175   -796.18801   -691.06582   -907.45877    18.262812    23.383117    21.924894           90           90           90 
  176000    252.88563   -4272.3582   -3838.9209   -4272.3582            0    1097.3454    17.989989    23.434998    22.291522            0            0            0    9398.0022    1251.1285    1170.7448    870.16307    557.38741    298.82063    625.66962    17.989989    23.434998    22.291522           90           90           90 
  176500    253.34958   -4251.7949   -3817.5624   -4251.7949            0    947.30454    18.052648    23.646558    22.110651            0            0            0    9438.6608    1658.0956    10.467961    1173.3501   -323.96974    390.88043    453.43376    18.052648    23.646558    22.110651           90           90           90 
  177000    265.30598    -4250.709   -3795.9837    -4250.709            0    776.03885    18.187566    23.454211    21.984769            0            0            0    9378.1532    613.67573    2160.6681   -446.22728   -126.51971   -672.93759   -331.40551    18.187566    23.454211    21.984769           90           90           90 
  177500    244.46944   -4238.5233   -3819.5111   -4238.5233            0    1028.7328    18.002014    23.292377    22.323325            0            0            0    9360.3866    220.95762    2066.5583    798.68232    42.029016   -641.00266    1118.3746    18.002014    23.292377    22.323325           90           90           90 
  178000     253.0686   -4234.2166   -3800.4657   -4234.2166            0    646.52758    17.967375    23.781023    21.990401            0            0            0    9396.1148    413.71456   -51.472328    1577.3405   -857.06527    481.81657   -85.500754    17.967375    23.781023    21.990401           90           90           90 
  178500    247.27076   -4281.2963   -3857.4827   -4281.2963            0    430.29144    18.272074    23.612241    21.803529            0            0            0    9407.0152    811.52309   -306.63903    785.99025    472.49243    -710.8072    89.967934    18.272074    23.612241    21.803529           90           90           90 
  179000    250.86202   -4243.3126   -3813.3437   -4243.3126            0    535.00172    18.101696    23.171293    22.456221            0            0            0     9419.031    136.12301    529.09278    939.78936    -900.8709    388.20055   -605.55251    18.101696    23.171293    22.456221           90           90           90 
  179500    245.82282   -4251.0453   -3829.7134   -4251.0453            0    1349.3653    18.005632    23.594335    21.988967            0            0            0    9341.5928    1731.4357    1157.7055    1158.9548    147.31974    105.20129      422.096    18.005632    23.594335    21.988967           90           90           90 
  180000    258.85753   -4258.1153   -3814.4424   -4258.1153            0    1930.4954     18.08251    23.507584    21.934727            0            0            0    9323.9285    2324.6018    2191.2637    1275.6208   -231.92904   -35.789364    777.24715     18.08251    23.507584    21.934727           90           90           90 
  180500    256.90616   -4252.3698   -3812.0415   -4252.3698            0    1202.5971    18.085108    23.333173    22.258401            0            0            0    9392.6658    1547.7018    1465.4811    594.60842    483.09321   -194.59594   -1036.0412    18.085108    23.333173    22.258401           90           90           90 
  181000    254.08471   -4249.5447   -3814.0522   -4249.5447            0    705.78174    18.087052    23.632905    22.002473            0            0            0    9404.9479    151.08439    498.17137    1468.0895   -3.5734327    -472.7427   -340.29564    18.087052    23.632905    22.002473           90           90           90 
  181500     248.8616   -4245.4879   -3818.9477   -4245.4879            0   -428.65649    18.040088    23.744109    22.091357            0            0            0    9462.7404    1412.5723   -2081.3864   -617.15545   -60.625305   -55.295996   -864.62227    18.040088    23.744109    22.091357           90           90           90 
  182000    259.44178   -4232.0843     -3787.41   -4232.0843            0    489.66604    18.205994    23.297482    22.284293            0            0            0     9451.968    523.75177    648.68381    296.56253   -604.30991   -75.981158   -377.58056    18.205994    23.297482    22.284293           90           90           90 
  182500    253.38056   -4248.9961   -3814.7105   -4248.9961            0    1236.4025    18.150297    23.381012    21.988376            0            0            0    9331.2577    776.39089    975.70174    1957.1148    1699.2227    413.85102     174.6207    18.150297    23.381012    21.988376           90           90           90 
  183000    255.62367   -4267.7085   -3829.5782   -4267.7085            0      1691.46    18.015102    23.549572    22.032403            0            0            0    9347.2014    1151.1504    1795.4828    2127.7468   -916.81585   -157.77029    174.07003    18.015102    23.549572    22.032403           90           90           90 
  183500     256.5708   -4249.3064   -3809.5529   -4249.3064            0    1432.1482    18.066313    23.394707    22.134288            0            0            0    9355.1916    1094.3671    1871.4823    1330.5952   -646.55676   -1342.5082    1158.1853    18.066313    23.394707    22.134288           90           90           90 
  184000    240.54929   -4236.5432   -3824.2499   -4236.5432            0    2128.2444    18.193454    23.330025    21.893802            0            0            0    9292.9064    2136.5539    1605.1984    2642.9811   -636.96106   -157.21546    -75.20999    18.193454    23.330025    21.893802           90           90           90 
  184500    256.27579   -4219.7265   -3780.4786   -4219.7265            0    1103.1668     18.03644    23.452831    22.213091            0            0            0    9396.2615    337.23417    2046.8325    925.43368   -75.173566   -1310.3954   -587.15548     18.03644    23.452831    22.213091           90           90           90 
  185000    261.01315   -4248.9044   -3801.5368   -4248.9044            0    1687.0997    18.022564    23.549379    22.144136            0            0            0    9398.4185    2050.0992     362.1195    2649.0803   -889.70993    299.39394   -142.65502    18.022564    23.549379    22.144136           90           90           90 
  185500    259.02263   -4246.6549    -3802.699   -4246.6549            0    884.04132    18.257531    23.447809     21.94192            0            0            0    9393.3161    538.16128    924.29216    1189.6705    -1853.487    197.92618   -195.01617    18.257531    23.447809     21.94192           90           90           90 
  186000    270.03056   -4237.6169   -3774.7938   -4237.6169            0    1627.6738    17.968248    23.359987    22.270242            0            0            0    9347.6679    1764.0834    2577.4008    541.53723    428.34293   -445.41553    1161.7941    17.968248    23.359987    22.270242           90           90           90 
  186500    243.26528   -4254.2583     -3837.31   -4254.2583            0    911.92745    17.828161    23.758287    22.035518            0            0            0    9333.5085    1394.2305    913.78906    427.76275    545.13638   -939.17857   -245.08749    17.828161    23.758287    22.035518           90           90           90 
  187000    252.31948   -4252.0598   -3819.5929   -4252.0598            0    1359.6526    18.251583    23.408129    21.788302            0            0            0    9308.7339    1048.2966    310.04325    2720.6179    149.14809    910.83905    74.556044    18.251583    23.408129    21.788302           90           90           90 
  187500     262.7432   -4266.7808    -3816.448   -4266.7808            0     484.3654    18.216818     23.17717    22.306256            0            0            0    9418.0199    570.83834    639.34139    242.91646   -360.92343   -1466.5946    213.33026    18.216818     23.17717    22.306256           90           90           90 
  188000     265.7127   -4243.1769   -3787.7544   -4243.1769            0    1704.2424    17.955878    23.681742     22.08235            0            0            0    9389.9997    2405.5109    2045.1203    662.09607    -15.24973    79.012527   -141.29223    17.955878    23.681742     22.08235           90           90           90 
  188500    241.60775     -4229.95   -3815.8426     -4229.95            0    704.93194    18.068366    23.599895    22.014423            0            0            0    9387.2043    1488.0416    4.8856876    621.86851   -141.90941    750.30422   -60.817225    18.068366    23.599895    22.014423           90           90           90 
  189000     242.5834   -4254.1833   -3838.4036   -4254.1833            0    445.72201    18.225838    23.219873    22.205817            0            0            0    9397.5384    278.82976    492.67666    565.65959   -543.67296   -1139.8073    370.15279    18.225838    23.219873    22.205817           90           90           90 
  189500    248.46291   -4256.0085   -3830.1516   -4256.0085            0    1871.6328    17.958358    23.616098    22.048374            0            0            0    9350.8553    2002.1482     247.9808    3364.7694     79.60159   -597.08344    486.64321    17.958358    23.616098    22.048374           90           90           90 
  190000    266.08959   -4227.6875    -3771.619   -4227.6875            0    1629.7648    17.961431    23.638537    21.981659            0            0            0    9333.0156    1149.9073      1537.92    2201.4671    850.55081    519.43128    283.41216    17.961431    23.638537    21.981659           90           90           90 
  190500    265.45592   -4237.2238   -3782.2414   -4237.2238            0    839.39486    18.162351    23.216625     22.27106            0            0            0     9391.004    1449.4871    847.27808    221.41942    160.70661    101.54185    -152.1548    18.162351    23.216625     22.27106           90           90           90 
  191000    257.12036   -4237.6425    -3796.947   -4237.6425            0    1109.0783    18.288176    23.590226    21.943375            0            0            0    9466.8592    -149.1774    1622.0747    1854.3377    -87.74857   -98.527293   -19.702051    18.288176    23.590226    21.943375           90           90           90 
  191500    256.16611   -4264.7465   -3825.6866   -4264.7465            0   -5.4560959    17.908173    23.766801    22.157948            0            0            0    9430.8655    342.58114    419.74473   -778.69417   -962.47086   -138.03868   -469.75815    17.908173    23.766801    22.157948           90           90           90 
  192000    248.85584   -4234.7938   -3808.2634   -4234.7938            0    361.93851    18.110673    23.301138    22.342072            0            0            0     9428.339   -842.92152    2369.7596   -441.02251    468.57428  -0.76480932   -410.75333    18.110673    23.301138    22.342072           90           90           90 
  192500    281.51438   -4257.8336   -3775.3276   -4257.8336            0    419.56123    18.296881    23.395593     21.99849            0            0            0    9416.8141    550.26622   -406.88614    1115.3036    259.21044   -533.66543   -532.21461    18.296881    23.395593     21.99849           90           90           90 
  193000    255.19044   -4236.5068   -3799.1191   -4236.5068            0    2128.3043    18.022383    23.601018    22.041361            0            0            0    9375.2174    2364.9186    1155.7852    2864.2092    281.59134   -632.27581   -110.44779    18.022383    23.601018    22.041361           90           90           90 
  193500    240.11262   -4240.2346   -3828.6898   -4240.2346            0    220.55696    18.073095    23.511512    22.213423            0            0            0    9439.0563    1069.1257    303.69062   -711.14544    330.56047   -68.125561    -287.7299    18.073095    23.511512    22.213423           90           90           90 
  194000    259.88019   -4254.6739   -3809.2481   -4254.6739            0    983.77735    18.198541    23.439106    22.059028            0            0            0    9409.4446    216.22743    1092.2023    1642.9023   -505.93109   -34.412068    729.45825    18.198541    23.439106    22.059028           90           90           90 
  194500    264.90232   -4259.5799   -3805.5463   -4259.5799            0    131.73061    18.082636    23.657841    22.138246            0            0            0     9470.656    1149.3498   -400.27639   -353.88158   -444.70115   -324.49907    11.341279    18.082636    23.657841    22.138246           90           90           90 
  195000    249.98333   -4249.1537   -3820.6908   -4249.1537            0    777.80474    18.032162    23.512085    22.285064            0            0            0    9448.2816    1346.7871    509.40842    477.21874    49.492445   -833.34847    22.513316    18.032162    23.512085    22.285064           90           90           90 
  195500    265.93168   -4234.7867   -3778.9889   -4234.7867            0    1238.7917     18.24437     23.47529     21.95883            0            0            0    9404.7882    927.07673    1244.3966    1544.9019    -322.0351    393.14776   -427.24744     18.24437     23.47529     21.95883           90           90           90 
  196000    270.42955   -4260.7007   -3797.1937   -4260.7007            0    946.57389    18.003404    23.602573    22.080392            0            0            0    9382.5475    1352.7257    732.96739    754.02858   -431.94242   -118.98616    423.24575    18.003404    23.602573    22.080392           90           90           90 
  196500    253.25516   -4221.7423   -3787.6716   -4221.7423            0   -97.664774    18.006504    23.542349    22.379805            0            0            0    9487.1441     532.2608    472.39011   -1297.6452    476.78978    390.80812    465.86401    18.006504    23.542349    22.379805           90           90           90 
  197000    260.13327   -4256.3898   -3810.5302   -4256.3898            0    839.38047     18.24781    23.466391    22.044817            0            0            0    9439.8164    666.35787    948.97582    902.80773    350.89694   -494.71068   -1099.8826     18.24781    23.466391    22.044817           90           90           90 
  197500    265.41328   -4265.5242   -3810.6149   -4265.5242            0    998.56506    18.073177    23.590484    22.044268            0            0            0    9398.6841    401.24588    1542.5835    1051.8658    42.195971    108.28974    364.43814    18.073177    23.590484    22.044268           90           90           90 
  198000    268.16566   -4253.9128    -3794.286   -4253.9128            0    852.14916    17.987078    23.573768    22.105499            0            0            0    9373.2442    831.11216    426.77649    1298.5588    187.56201   -303.19085   -625.22134    17.987078    23.573768    22.105499           90           90           90 
  198500    255.39122   -4254.0916   -3816.3598   -4254.0916            0    1959.7547    18.248864    23.195558     22.09361            0            0            0    9352.0614      959.571    3517.7437    1401.9494    450.31407    325.06717    487.27332    18.248864    23.195558     22.09361           90           90           90 
  199000     256.2811   -4231.9753   -3792.7182   -4231.9753            0    938.07566    18.180858    23.409599    22.065791            0            0            0    9391.3458    327.47487    606.18015     1880.572   -708.44702   -332.89698   -604.64148    18.180858    23.409599    22.065791           90           90           90 
  199500    260.21434   -4237.3836   -3791.3851   -4237.3836            0    1271.2543    17.838924    23.884666    22.043727            0            0            0    9392.3194    1792.2997    619.11018     1402.353    496.87227    111.50338    318.17972    17.838924    23.884666    22.043727           90           90           90 
  200000    258.81422   -4250.3266   -3806.7278   -4250.3266            0    737.59632    18.210549    23.262283    22.184819            0            0            0    9397.9096   -292.81581     1623.265    882.33977    466.33463   -671.14797    1070.4014    18.210549    23.262283    22.184819           90           90           90 
  200500    240.80613   -4252.7357   -3840.0022   -4252.7357            0    -80.80984    18.274255    23.414655    22.111137            0            0            0    9461.0321     1038.483     -1471.24    190.32755   -473.62982     263.2517    549.59584    18.274255    23.414655    22.111137           90           90           90 
  201000    248.70574   -4251.3419   -3825.0687   -4251.3419            0   -38.855676    17.989039    23.751223     22.12877            0            0            0    9454.7753    529.82651    4.7180194   -651.11156    202.37148    297.59519   -228.50315    17.989039    23.751223     22.12877           90           90           90 
  201500    251.70585   -4240.5367   -3809.1215   -4240.5367            0    777.02255    18.190893    23.521247     22.09936            0            0            0    9455.7084   -993.47413    714.94845    2609.5933   -884.84141   -283.04162    678.89146    18.190893    23.521247     22.09936           90           90           90 
  202000    261.16868   -4241.4748   -3793.8406   -4241.4748            0   -252.70301    18.208526    23.389872    22.206511            0            0            0     9457.644    87.990692    597.84906   -1443.9488   -307.12721   -809.90899    38.562623    18.208526    23.389872    22.206511           90           90           90 
  202500    252.53658   -4245.1467   -3812.3077   -4245.1467            0    2410.4159    17.966671    23.587155    22.000327            0            0            0    9323.3572    2015.4644    2647.5813    2568.2021    674.89229   -529.57917   -135.88934    17.966671    23.587155    22.000327           90           90           90 
  203000    245.36186    -4267.218   -3846.6762    -4267.218            0    920.69447    18.025431    23.447771      22.1108            0            0            0    9345.2661    21.508548    868.38845    1872.1864   -54.450429   -373.70231   -41.581897    18.025431    23.447771      22.1108           90           90           90 
  203500    262.00618   -4257.8646    -3808.795   -4257.8646            0         1499    18.266909    23.264101    22.069646            0            0            0    9378.7877    1450.3885    1436.1863    1610.4252   -900.76592   -852.24122    607.95784    18.266909    23.264101    22.069646           90           90           90 
  204000    250.66572   -4256.7917   -3827.1593   -4256.7917            0   -93.204596     18.01006    23.673647    22.197575            0            0            0    9464.2427    494.90253    -879.8918    105.37548    -22.77879    103.44772   -229.84628     18.01006    23.673647    22.197575           90           90           90 
  204500    251.00982   -4262.9093   -3832.6871   -4262.9093            0    344.86506    18.042782     23.63841    22.212851            0            0            0    9473.8399    1154.6949     579.2934   -699.39316    311.19696    193.33569   -55.771587    18.042782     23.63841    22.212851           90           90           90 
  205000    259.01136   -4288.3002   -3844.3635   -4288.3002            0    382.00561    18.220471    23.378889    22.067525            0            0            0    9400.2002    718.29229   -106.92711    534.65166   -84.473596   -285.16186    329.58287    18.220471    23.378889    22.067525           90           90           90 
  205500    262.21236   -4236.7761   -3787.3531   -4236.7761            0    152.82406    18.077708    23.453101    22.087461            0            0            0    9364.6042    -603.5467    527.66933    534.34957    505.11931     205.9246    591.37219    18.077708    23.453101    22.087461           90           90           90 
  206000     254.5713   -4264.1244   -3827.7979   -4264.1244            0    2087.7325    17.930339    23.425725    22.150971            0            0            0    9304.0991    4542.1262    1571.6804    149.39084   -569.26466    66.351582    971.91518    17.930339    23.425725    22.150971           90           90           90 
  206500    260.31622   -4256.2942   -3810.1211   -4256.2942            0    2350.8026    18.191137    23.421942    21.841963            0            0            0    9306.2435    1703.0591    1681.9949    3667.3539    288.11666    14.443724   -37.939278    18.191137    23.421942    21.841963           90           90           90 
  207000    256.64049   -4251.0753   -3811.2023   -4251.0753            0    1580.5369    18.049404    23.197787    22.198742            0            0            0    9294.7515    1205.5692    1891.2552    1644.7861   -590.75422   -138.01682    754.56819    18.049404    23.197787    22.198742           90           90           90 
  207500    255.16072   -4248.6044   -3811.2677   -4248.6044            0    1345.1418    17.912449    23.546043    22.219278            0            0            0     9371.365    614.97684    866.34482    2554.1038   -52.942727   -229.88391    31.671977    17.912449    23.546043    22.219278           90           90           90 
  208000    258.24634   -4235.3361   -3792.7107   -4235.3361            0    996.08499    18.186949    23.638449    21.783945            0            0            0    9365.1634    2114.0428    1249.6663   -375.45407   -1708.9454   -102.03316    156.57634    18.186949    23.638449    21.783945           90           90           90 
  208500    255.41536   -4266.6742    -3828.901   -4266.6742            0    1151.6605    18.051764      23.3066    22.285584            0            0            0    9376.1076    487.73603    2033.6222    933.62342    1014.7769    744.17869   -171.37983    18.051764      23.3066    22.285584           90           90           90 
  209000    243.24559   -4248.3789   -3831.4642   -4248.3789            0    2031.6957    18.024199    23.400501    22.174537            0            0            0    9352.6712    2029.6631    1914.5959    2150.8282    737.53191   -427.58098    566.75228    18.024199    23.400501    22.174537           90           90           90 
  209500    252.38874   -4246.7413   -3814.1556   -4246.7413            0   -199.27773     18.22966    23.694158    21.907711            0            0            0    9462.7386   -585.26697   -1608.9273     1596.361    897.44979    1666.1396    278.81711     18.22966    23.694158    21.907711           90           90           90 
  210000    255.92842   -4223.0896   -3784.4371   -4223.0896            0    1036.2366    18.070774     23.34458    22.388244            0            0            0    9444.5847     1226.619    2691.8203   -809.72939    288.12073   -532.49241   -10.916745    18.070774     23.34458    22.388244           90           90           90 
  210500    261.86052   -4235.5513   -3786.7313   -4235.5513            0    579.86985    18.070676    23.555158    22.078237            0            0            0    9397.7704   -352.08309     1299.589    792.10365   -308.39679    589.47615    -462.9249    18.070676    23.555158    22.078237           90           90           90 
  211000    248.26714   -4254.3911   -3828.8697   -4254.3911            0     1303.528    18.060822    23.630549    21.895363            0            0            0    9344.6591    838.72207    896.77477    2175.0871   -462.11399    94.409705   -229.18737    18.060822    23.630549    21.895363           90           90           90 
  211500    250.09795   -4244.2913   -3815.6319   -4244.2913            0    1750.0146    18.053309    23.193089    22.289677            0            0            0    9332.9552     333.9574    1729.9681    3186.1184   -247.24529   -982.31727     829.2295    18.053309    23.193089    22.289677           90           90           90 
  212000    256.13562    -4259.446   -3820.4383    -4259.446            0    62.293346      18.2318    23.532882    22.061405            0            0            0    9465.3752    117.42809    629.05994   -559.60799   -126.77896    582.38242    814.91135      18.2318    23.532882    22.061405           90           90           90 
  212500    281.13185   -4255.0532   -3773.2028   -4255.0532            0    921.80456    18.126637    23.798664    21.892475            0            0            0    9444.1889    686.56166    992.15347    1086.6986   -477.29435    404.35321    -1195.618    18.126637    23.798664    21.892475           90           90           90 
  213000    267.49126   -4244.2285   -3785.7576   -4244.2285            0    687.25501    17.997871    23.236035     22.46859            0            0            0    9396.3454    2191.4265    2130.5051   -2260.1666   -1031.1767    184.47413    442.82318    17.997871    23.236035     22.46859           90           90           90 
  213500    257.80006   -4259.3888   -3817.5283   -4259.3888            0    1787.2737    18.101431     23.43823    21.914321            0            0            0    9297.4903     1285.669    1967.3275    2108.8246    14.452487   -336.87215    541.69193    18.101431     23.43823    21.914321           90           90           90 
  214000    260.08664   -4264.1838   -3818.4042   -4264.1838            0    637.57481    18.033242    23.597321    22.077582            0            0            0    9394.8103    2008.4587   -613.09234    517.35801   -1030.7108   -534.00176    -143.4183    18.033242    23.597321    22.077582           90           90           90 
  214500    244.43036   -4239.9919   -3821.0466   -4239.9919            0   -461.08981    18.047393    23.452079    22.307423            0            0            0    9441.5918    -18.11072   -292.73352   -1072.4252    685.87908   -194.60446   -13.916929    18.047393    23.452079    22.307423           90           90           90 
  215000     234.8015   -4280.7781   -3878.3364   -4280.7781            0    1040.4059    18.206518    23.559247    21.964135            0            0            0    9421.1172    438.95828     709.4301    1972.8293    -358.7075    375.66294   -433.98026    18.206518    23.559247    21.964135           90           90           90 
  215500    266.20798   -4265.2503   -3808.9789   -4265.2503            0    1444.7725    18.017896    23.435573    22.197912            0            0            0    9373.2842    1380.1873    2181.7262     772.4041   -185.42522    516.94865    419.06657    18.017896    23.435573    22.197912           90           90           90 
  216000    252.59155   -4253.6126   -3820.6793   -4253.6126            0    3262.4742    17.945866    23.412574    22.067389            0            0            0    9271.8099    3557.8854    4253.7572    1975.7799   -188.10106    220.75637    223.92085    17.945866    23.412574    22.067389           90           90           90 
  216500    247.46296   -4240.1545   -3816.0114   -4240.1545            0    2618.1235    18.120394    23.452708    21.881599            0            0            0    9299.0738    1905.5011    1735.2458    4213.6237    8.8578056    -29.92677    121.75373    18.120394    23.452708    21.881599           90           90           90 
  217000    247.64466   -4261.5892   -3837.1347   -4261.5892            0     857.8733    18.074302    23.426249    22.212933            0            0            0    9405.2467    603.09872     552.2594    1418.2618    838.23867   -398.83427   -65.341487    18.074302    23.426249    22.212933           90           90           90 
  217500     262.5674   -4243.2068   -3793.1753   -4243.2068            0    1063.7356    18.170543    23.483074       22.129            0            0            0    9442.4492    36.001444      2187.11    968.09529   -438.60428   -329.65666    417.82942    18.170543    23.483074       22.129           90           90           90 
  218000    243.93823   -4222.1581   -3804.0564   -4222.1581            0   -94.934011    18.238184     23.71729    21.929548            0            0            0     9485.852   -840.24638   -674.82299    1230.2673   -15.325699    -781.0412   -828.26634    18.238184     23.71729    21.929548           90           90           90 
  218500    254.77587   -4227.1515   -3790.4744   -4227.1515            0    723.31364    17.989239    23.381007    22.368578            0            0            0    9408.3698    1220.2548    2217.0328   -1267.3467   -99.115441     177.3657   -473.61729    17.989239    23.381007    22.368578           90           90           90 
  219000     271.6876   -4252.4427   -3786.7794   -4252.4427            0    1885.3018    18.160017    23.539615      21.9761            0            0            0    9394.3388    2247.9338   -27.636451     3435.608   -420.24242    147.84843     395.9055    18.160017    23.539615      21.9761           90           90           90 
  219500    254.56519   -4224.2567   -3787.9407   -4224.2567            0    328.73601    18.169109     23.67811    22.100616            0            0            0    9507.9095   -1286.8652    1053.3825    1219.6907    783.98724   -601.87432     535.6183    18.169109     23.67811    22.100616           90           90           90 
  220000    242.01272   -4261.8994   -3847.0979   -4261.8994            0    1584.4705     18.05735    23.433368     22.27219            0            0            0    9424.3551    2465.8025     2397.023   -109.41405   -712.56358    8.6782259    171.08667     18.05735    23.433368     22.27219           90           90           90 
  220500    243.08494   -4256.8891   -3840.2498   -4256.8891            0    1607.0333    18.132114    23.475547     21.95707            0            0            0    9346.2747      1982.55     908.7621    1929.7878   -526.52721   -176.44556    16.692658    18.132114    23.475547     21.95707           90           90           90 
  221000    260.59085   -4263.1616   -3816.5178   -4263.1616            0     1308.209    18.065426    23.680553    21.988866            0            0            0    9406.8214    2115.8612    2286.9263    -478.1604   -449.05041   -200.73895   -184.84782    18.065426    23.680553    21.988866           90           90           90 
  221500    245.90648   -4286.4246   -3864.9493   -4286.4246            0   -87.882935    18.073134    23.275165    22.424937            0            0            0    9433.1654    490.92929    298.37069   -1052.9488   -260.94957    513.77708    241.50767    18.073134    23.275165    22.424937           90           90           90 
  222000    261.39017   -4283.9979   -3835.9841   -4283.9979            0    134.39892    18.440074    23.428451    21.906165            0            0            0    9463.9532   -460.83487   -214.64903    1078.6807    -280.8975    -283.7869   -193.36258    18.440074    23.428451    21.906165           90           90           90 
  222500    251.70983   -4235.0487   -3803.6266   -4235.0487            0    1093.5144    18.131968    23.776407    22.018801            0            0            0    9492.5925    277.35333    1567.4852    1435.7047    262.98294   -287.82943   -510.67353    18.131968    23.776407    22.018801           90           90           90 
  223000     244.2887   -4247.7868   -3829.0843   -4247.7868            0    936.81353    17.993586    23.489694    22.339665            0            0            0    9442.1684    1740.8685    930.03602    139.53613    82.913608   -592.46898     496.5968    17.993586    23.489694    22.339665           90           90           90 
  223500    247.68805   -4224.8233   -3800.2944   -4224.8233            0    1203.4813     18.24732    23.527174    21.973421            0            0            0    9433.3629    317.52247    1736.7495    1556.1719   -273.80133    178.95206     232.1912     18.24732    23.527174    21.973421           90           90           90 
  224000    260.74297   -4250.1986   -3803.2941   -4250.1986            0    685.86609    18.060149    23.554134    22.134325            0            0            0    9415.7464    1001.3367    1822.4201   -766.15858    142.50702    389.12119    103.83441    18.060149    23.554134    22.134325           90           90           90 
  224500    256.96894   -4266.8357   -3826.3997   -4266.8357            0    2210.4839    17.968243    23.471843      22.1596            0            0            0    9345.7619    1359.6308    2366.5576    2905.2633   -29.940101    641.73053    952.11534    17.968243    23.471843      22.1596           90           90           90 
  225000    258.97687   -4271.3751   -3827.4977   -4271.3751            0    1746.4757    18.226949    23.448942    21.875537            0            0            0    9349.6634    1996.1377    2962.9685    280.32093    296.28688    16.776642   -327.69598    18.226949    23.448942    21.875537           90           90           90 
  225500    268.23083   -4223.4991   -3763.7607   -4223.4991            0    1371.8672    18.051351    23.367181    22.277648            0            0            0     9396.917    1392.3284    2336.9642    386.30906   -637.99604   -351.64451    163.54362    18.051351    23.367181    22.277648           90           90           90 
  226000    254.48698   -4241.5057   -3805.3237   -4241.5057            0    633.30194    18.032225    23.673525    22.112468            0            0            0      9439.51    1630.9499   -77.520035    346.47593   -353.42431    231.56585    12.809744    18.032225    23.673525    22.112468           90           90           90 
  226500     266.3815   -4272.3471   -3815.7783   -4272.3471            0    1460.5588    18.285585    23.500437    21.869443            0            0            0    9397.7207    643.46197    1267.5974     2470.617    6.3141707    430.09681   -269.79492    18.285585    23.500437    21.869443           90           90           90 
  227000    272.39575   -4218.3349   -3751.4579   -4218.3349            0    792.77207    18.164198      23.0659    22.581094            0            0            0    9460.8815    1869.8513    1779.3294   -1270.8646   -174.91913   -659.53791   -100.35789    18.164198      23.0659    22.581094           90           90           90 
  227500    260.81403   -4258.8798   -3811.8535   -4258.8798            0   -808.02354    18.061535    23.791599    22.079221            0            0            0    9487.7239   -765.26145   -955.80615   -703.00303   -2135.7284   -14.017424    344.96221    18.061535    23.791599    22.079221           90           90           90 
  228000    253.91583   -4227.6309   -3792.4279   -4227.6309            0     1907.289    18.125429    23.607373     21.95862            0            0            0    9395.9564     1629.378    2861.3672    1231.1218    974.94435   -90.098464   -445.03315    18.125429    23.607373     21.95862           90           90           90 
  228500    258.41334   -4232.8973   -3789.9857   -4232.8973            0    1310.4953    18.089311    23.272712    22.328526            0            0            0    9400.0266    963.35515    1617.2008      1350.93   -781.03009   -449.60108    1164.5548    18.089311    23.272712    22.328526           90           90           90 
  229000    254.11292   -4239.8493   -3804.3084   -4239.8493            0    452.74739    18.128558    23.628288    21.995551            0            0            0    9421.7231     1134.561    926.63063   -702.94945   -360.21572    231.81553   -550.02632    18.128558    23.628288    21.995551           90           90           90 
  229500    257.81875    -4263.249   -3821.3565    -4263.249            0    1235.8142    18.118134    23.617031    22.013316            0            0            0    9419.4214    896.77373    394.84636    2415.8225    895.68896    558.76608    489.63195    18.118134    23.617031    22.013316           90           90           90 
  230000    261.15677   -4220.0606   -3772.4468   -4220.0606            0    1065.6009    18.158518    23.266413     22.41569            0            0            0    9470.2609    1103.1475    2154.8555   -61.200321   -43.540259   -213.15965   -425.74357    18.158518    23.266413     22.41569           90           90           90 
  230500    275.44636   -4273.0805   -3800.9749   -4273.0805            0    552.17061    18.226166     23.69217    21.869248            0            0            0     9443.522    969.25115   -404.09303    1091.3537    307.90673   -280.59135      138.149    18.226166     23.69217    21.869248           90           90           90 
  231000    259.06518   -4245.9481   -3801.9193   -4245.9481            0    1645.3812    17.960483    23.614297    22.171733            0            0            0    9403.5679    2901.8328    1975.6837    58.626975   -539.75301   -572.73343   -798.91818    17.960483    23.614297    22.171733           90           90           90 
  231500    253.99989   -4220.2882   -3784.9411   -4220.2882            0    1985.3738    18.048797    23.327655     22.24013            0            0            0    9363.8979    2460.6674    2458.1102    1037.3438    1280.0864    300.32648    374.20511    18.048797    23.327655     22.24013           90           90           90 
  232000    261.17159   -4257.4239   -3809.7848   -4257.4239            0    970.00592    18.128872    23.530056    22.008168            0            0            0    9388.0983    660.12627    9.6198036    2240.2717   -589.35991    109.50448    543.99069    18.128872    23.530056    22.008168           90           90           90 
  232500    268.70598   -4288.7543   -3828.2015   -4288.7543            0    959.80406       18.029    23.570494    22.122241            0            0            0    9400.9003    1547.3727   -90.472812    1422.5123    805.67573   -1.0694894   -339.79157       18.029    23.570494    22.122241           90           90           90 
  233000    247.05613   -4237.4584   -3814.0127   -4237.4584            0    493.75365    18.098142    23.366873    22.209535            0            0            0    9392.3456    856.10519    1835.4461   -1210.2903   -466.62984    209.97046    422.30792    18.098142    23.366873    22.209535           90           90           90 
  233500     248.5284   -4246.7301   -3820.7609   -4246.7301            0    2495.2964    18.055062    23.489407    22.011473            0            0            0    9335.1254    1961.6692    2865.3473    2658.8728   -31.886507   -587.90372    375.82345    18.055062    23.489407    22.011473           90           90           90 
  234000    250.53338   -4221.2976   -3791.8919   -4221.2976            0    1584.0492    17.999334    23.776311    22.013134            0            0            0    9420.6918    1221.4631    465.49571    3065.1888    -310.8468   -693.72312    182.91476    17.999334    23.776311    22.013134           90           90           90 
  234500    262.31861   -4246.5058   -3796.9007   -4246.5058            0    233.69271    18.205494    23.397585    22.305726            0            0            0    9501.4495    874.80091    1245.3871   -1419.1098   -117.06927   -354.18011   -480.70637    18.205494    23.397585    22.305726           90           90           90 
  235000    243.35307   -4241.4066   -3824.3078   -4241.4066            0   -435.88405    18.381681    23.421973    22.058977            0            0            0    9497.1668   -1544.8516    214.90411    22.295333    -375.8003    389.75967    78.116865    18.381681    23.421973    22.058977           90           90           90 
  235500    252.44452   -4279.4175   -3846.7362   -4279.4175            0    242.05847    17.954013    23.766294     22.07102            0            0            0    9417.7121   -676.20458   -643.44919    2045.8292    7.1717428    -363.7743   -177.09552    17.954013    23.766294     22.07102           90           90           90 
  236000    249.74772   -4229.9425   -3801.8835   -4229.9425            0    1765.7929    18.040175    23.458702    22.119358            0            0            0    9360.8922    1856.8752    2578.7981    861.70546   -419.70325    968.19403   -283.23873    18.040175    23.458702    22.119358           90           90           90 
  236500    244.32031   -4260.8936    -3842.137   -4260.8936            0    1133.2814    18.275169    23.275034    22.140055            0            0            0    9417.3872     1433.089    1188.4665    778.28864    371.24095   -892.71869     718.6734    18.275169    23.275034    22.140055           90           90           90 
  237000    244.75234   -4219.1546   -3799.6574   -4219.1546            0   -372.93566    18.057798    23.682096    22.240845            0            0            0    9511.2192   -57.501494   -70.722291   -990.58321   -135.46535   -828.17914    -259.0644    18.057798    23.682096    22.240845           90           90           90 
  237500    248.45208   -4273.6798   -3847.8414   -4273.6798            0    932.55911    17.998444    23.651059    22.137041            0            0            0    9423.3455    2070.5844    398.45242    328.64052   -1279.1363    613.94918    783.29822    17.998444    23.651059    22.137041           90           90           90 
  238000    261.21256   -4253.9622   -3806.2528   -4253.9622            0    521.64449    18.249215    23.360969    22.130975            0            0            0     9434.863    100.79481   -858.34616    2322.4848    613.12381   -125.67868    405.29918    18.249215    23.360969    22.130975           90           90           90 
  238500    258.86719   -4258.1107   -3814.4212   -4258.1107            0    577.89125    18.068581    23.466145    22.296588            0            0            0    9453.7519    1815.8797    132.54741   -214.75332     302.6992    188.60004    519.51571    18.068581    23.466145    22.296588           90           90           90 
  239000    249.41467   -4264.4894   -3837.0012   -4264.4894            0    1277.8175    17.918907    23.849211    21.942529            0            0            0    9377.1791   -121.75112    1517.9925    2437.2111   -36.049065   -850.43458   -479.12815    17.918907    23.849211    21.942529           90           90           90 
  239500    262.65526   -4232.1077   -3781.9256   -4232.1077            0    1162.5175    18.298435    23.294688    22.022659            0            0            0    9387.2978    1559.6012    1116.1326    811.81855   -113.84141    312.36631   -575.91187    18.298435    23.294688    22.022659           90           90           90 
  240000    253.39529    -4230.673   -3796.3622    -4230.673            0    482.71787    18.131333    23.287395    22.269666            0            0            0    9402.9545    1357.1173   -446.24729     537.2836    859.91065    561.49712    520.87341    18.131333    23.287395    22.269666           90           90           90 
  240500     263.9275   -4250.2921   -3797.9294   -4250.2921            0    1976.4342    17.986508    23.644286    22.105575            0            0            0    9401.0178    2485.3666     1420.368     2023.568   -1125.0045    206.23178    617.41739    17.986508    23.644286    22.105575           90           90           90 
  241000    249.07087   -4260.2545   -3833.3555   -4260.2545            0    942.81341    18.164952    23.554323    22.057205            0            0            0    9437.4654    349.24073    910.65221    1568.5473   -372.55186   -658.24894   -45.314708    18.164952    23.554323    22.057205           90           90           90 
  241500    271.79806   -4237.9543   -3772.1018   -4237.9543            0    1434.5089    18.147252    23.185101     22.21541            0            0            0     9347.042    1824.8006    1561.3102    917.41601   -1350.9294    109.93703   -332.07905    18.147252    23.185101     22.21541           90           90           90 
  242000    256.98621   -4232.9219   -3792.4564   -4232.9219            0    1074.0029    17.964177    23.759807    22.005947            0            0            0    9392.6968    711.72235   -75.726459    2586.0128    -644.3724   -1111.7866    112.53078    17.964177    23.759807    22.005947           90           90           90 
  242500     254.7249   -4214.7956   -3778.2058   -4214.7956            0    2005.3888    18.027984     23.63053    22.004423            0            0            0    9374.1218    2883.4014    1333.0004    1799.7645    -906.1691   -239.55036    972.47241    18.027984     23.63053    22.004423           90           90           90 
  243000    264.42699   -4226.4493   -3773.2305   -4226.4493            0    333.01493    18.316877    23.168019    22.251538            0            0            0    9442.7902    422.93954    797.92115    -221.8159     76.29091    74.356449   -452.87938    18.316877    23.168019    22.251538           90           90           90 
  243500    265.31476   -4263.1296   -3808.3892   -4263.1296            0   -709.78124    18.171047    23.629437    22.108841            0            0            0    9492.9087   -1296.8589   -1144.9718    312.48695   -476.44854   -10.547584    314.76048    18.171047    23.629437    22.108841           90           90           90 
  244000    257.20065   -4245.5533   -3804.7202   -4245.5533            0    70.684643    17.968555     23.85824    22.061935            0            0            0    9457.9096    844.74294    -1669.787     1037.098    545.41355   -587.29938    105.85204    17.968555     23.85824    22.061935           90           90           90 
  244500    264.88012   -4244.3861   -3790.3907   -4244.3861            0    1715.0759    18.147372    23.305391    22.206041            0            0            0    9391.6363    1325.8068    2656.9869    1162.4341   -663.80743    498.99481    1169.1606    18.147372    23.305391    22.206041           90           90           90 
  245000    266.30799   -4225.2293   -3768.7866   -4225.2293            0    1462.8469    18.124587    23.403872    22.099399            0            0            0    9374.2446     1461.148    1054.7526    1872.6402   -427.53557    -158.3691    673.28296    18.124587    23.403872    22.099399           90           90           90 
  245500    262.31925   -4238.0509   -3788.4447   -4238.0509            0    2371.3058    17.962447    23.578927    22.018577            0            0            0    9325.6429    2575.7372    2577.0077    1961.1724   -382.19824    372.81967    404.46438    17.962447    23.578927    22.018577           90           90           90 
  246000    265.25573   -4260.8432    -3806.204   -4260.8432            0    2295.7503    18.085424    23.344713    22.022084            0            0            0    9297.7023    2198.3026    2010.8582    2678.0902    381.83297   -206.17515   -132.73292    18.085424    23.344713    22.022084           90           90           90 
  246500    259.99748   -4260.5564   -3814.9296   -4260.5564            0    3034.4609    18.142845    23.202138    22.004263            0            0            0    9262.7559    1817.0609    3803.8969    3482.4248   -613.99525   -518.91326    147.93405    18.142845    23.202138    22.004263           90           90           90 
  247000    250.25272   -4241.7115   -3812.7869   -4241.7115            0    1021.4304     17.78856    23.714033    22.130897            0            0            0    9335.6643    2662.0628   -320.40469    722.63294    234.41717    -432.4602   -650.75185     17.78856    23.714033    22.130897           90           90           90 
  247500    246.07851   -4222.8961    -3801.126   -4222.8961            0   -186.54511    18.087276    23.755331    22.110115            0            0            0    9500.0362   -404.03283    757.63069    -913.2332   -137.39774   -999.87384    43.640228    18.087276    23.755331    22.110115           90           90           90 
  248000     272.8871   -4254.6222    -3786.903   -4254.6222            0    775.90639    18.254327    23.406021       22.171            0            0            0    9472.8075     796.1801    169.51008     1362.029    325.53425   -178.86198    465.66636    18.254327    23.406021       22.171           90           90           90 
  248500    242.76798   -4274.0983   -3858.0022   -4274.0983            0    909.06056     18.06209    23.454411    22.109672            0            0            0    9366.4464    492.15288    990.40922    1244.6196    425.21567   -314.33188    532.48911     18.06209    23.454411    22.109672           90           90           90 
  249000    246.45036   -4251.6684    -3829.261   -4251.6684            0    685.77134    18.031661     23.51702    22.023877            0            0            0    9339.2456    343.48988    1944.1728   -230.34865   -1586.2155   -594.54122    738.57102    18.031661     23.51702    22.023877           90           90           90 
  249500    253.36155   -4244.7965   -3810.5435   -4244.7965            0    1354.7644    18.149051    23.351165    22.080458            0            0            0     9357.731    2196.6108    1543.1621     324.5205    267.29993    -322.1326   -810.39159    18.149051    23.351165    22.080458           90           90           90 
  250000    253.40504   -4219.4991   -3785.1715   -4219.4991            0   -555.07084    18.210954    23.422331    22.214087            0            0            0    9475.2634   -1252.7193     1619.307   -2031.8003   -1205.6494    215.76783    520.99586    18.210954    23.422331    22.214087           90           90           90 
  250500    262.49035   -4236.2871   -3786.3876   -4236.2871            0   -819.11825    17.901065    23.862638    22.220593            0            0            0    9491.8959    1.5426521   -1495.7734   -963.12401    573.44594   -174.05586    51.024813    17.901065    23.862638    22.220593           90           90           90 
  251000    271.84891   -4222.0901   -3756.1504   -4222.0901            0    1633.8649    18.154796    23.357615    22.006308            0            0            0    9331.8349   -8.8508606    2806.4171    2104.0285    151.04747   -136.29919   -316.36989    18.154796    23.357615    22.006308           90           90           90 
  251500    253.25789   -4244.5781   -3810.5027   -4244.5781            0    2646.8147     18.21058    23.192274    22.028265            0            0            0    9303.5224    2996.5712    3578.0635    1365.8092   -623.00631    886.88474    264.77697     18.21058    23.192274    22.028265           90           90           90 
  252000    252.06392   -4259.9817   -3827.9528   -4259.9817            0    2516.6245    17.946284    23.543246    22.041017            0            0            0    9312.6333    1651.9045     568.2439     5329.725    77.436003   -212.19034    588.82259    17.946284    23.543246    22.041017           90           90           90 
  252500    249.33749   -4237.8306   -3810.4747   -4237.8306            0    286.43363    18.072861    23.603997    22.081826            0            0            0    9419.9252    1247.6143   -409.02111    20.707707    -171.3522   -1057.7909    105.48325    18.072861    23.603997    22.081826           90           90           90 
  253000    264.23704   -4252.2672    -3799.374   -4252.2672            0    676.80615     18.30915    23.367987     22.04631            0            0            0    9432.4694   -627.38214    1326.2117    1331.5889   -708.95142   -725.44129    650.01577     18.30915    23.367987     22.04631           90           90           90 
  253500    269.46681   -4243.6195   -3781.7626   -4243.6195            0    1523.8713    17.985232    23.529231    22.227191            0            0            0    9406.0733    898.57309    1609.6231    2063.4178    164.70092    -460.6285   -520.63772    17.985232    23.529231    22.227191           90           90           90 
  254000    268.41649   -4233.3214   -3773.2647   -4233.3214            0    1048.1536     17.93081    23.703146    22.027956            0            0            0    9362.2476    1405.0983    2360.2337   -620.87117   -224.42893    510.39423   -141.59424     17.93081    23.703146    22.027956           90           90           90 
  254500    269.31356   -4251.7696   -3790.1754   -4251.7696            0     2834.498    18.268269    23.223857    21.978375            0            0            0    9324.5381     2789.406    3691.0979      2022.99    999.26663    8.2233127   -87.424555    18.268269    23.223857    21.978375           90           90           90 
  255000    249.43859   -4273.1513   -3845.6221   -4273.1513            0    2291.4767    17.946431    23.366121    22.164004            0            0            0    9294.2201     2714.818    1744.8279    2414.7841    820.64174   -968.67501     379.3168    17.946431    23.366121    22.164004           90           90           90 
  255500    248.21324   -4256.7347   -3831.3057   -4256.7347            0     441.8767    17.928037    23.729149    22.011075            0            0            0    9363.8867    1982.0869   -22.184977   -634.27188    -222.2308   -644.44786   -85.335775    17.928037    23.729149    22.011075           90           90           90 
  256000    272.03794   -4246.0327   -3779.7689   -4246.0327            0    2261.4176    18.229463    23.369064    21.933895            0            0            0    9343.9596    819.35068    3780.6337    2184.2685   -1310.5179    639.64754   -4.3604906    18.229463    23.369064    21.933895           90           90           90 
  256500    266.52103   -4238.8407   -3782.0328   -4238.8407            0    3172.0101    18.055902    23.214698    22.127181            0            0            0    9274.8805    1686.0406    3610.2447    4219.7451    948.65588    316.48484   -346.53518    18.055902    23.214698    22.127181           90           90           90 
  257000    256.51598   -4262.0903   -3822.4306   -4262.0903            0    1937.7951      17.9007    23.675322    22.010725            0            0            0     9328.252    3528.3071    1281.1346    1003.9437   -76.609987    229.63475   -793.81665      17.9007    23.675322    22.010725           90           90           90 
  257500    252.75725   -4249.8475   -3816.6303   -4249.8475            0    430.09107    18.144425    23.481364    22.036587            0            0            0    9388.8163     191.9534    574.23903    524.08078   -1338.7583    405.09447     925.2953    18.144425    23.481364    22.036587           90           90           90 
  258000    271.57534    -4269.823   -3804.3522    -4269.823            0    146.81312    18.164406    23.436444    22.197116            0            0            0    9449.5139   -384.64228     983.2626   -158.18095    489.22046   -112.28817   -918.04887    18.164406    23.436444    22.197116           90           90           90 
  258500    264.31147   -4236.5363   -3783.5155   -4236.5363            0    745.45015    18.068943    23.595545    22.136866            0            0            0    9437.9766    1957.5704    697.05285   -418.27283   -402.73459    90.227731    534.83657    18.068943    23.595545    22.136866           90           90           90 
  259000    247.92865   -4291.1137   -3866.1725   -4291.1137            0   -569.52595    18.085753    23.613359    22.109246            0            0            0     9442.093   -142.40545   -1026.6735   -539.49891   -661.21929   -376.65425    339.66365    18.085753    23.613359    22.109246           90           90           90 
  259500    249.26021   -4255.3237   -3828.1002   -4255.3237            0    1163.0406    18.126157    23.401195    22.143072            0            0            0    9392.5094    443.29262    1049.8261    1996.0031   -663.94063    166.01958   -188.99548    18.126157    23.401195    22.143072           90           90           90 
  260000    236.55619   -4243.7648   -3838.3156   -4243.7648            0    1395.2396    18.072629    23.560908    22.014398            0            0            0    9373.8968    2550.6451    1062.3417    572.73194   -855.50453   -212.39494   -247.85756    18.072629    23.560908    22.014398           90           90           90 
  260500    259.39075   -4242.7782   -3798.1913   -4242.7782            0    1278.4038     18.06227    23.501721    22.106129            0            0            0    9383.9285    2241.7037    231.07461    1362.4332    198.53477    763.64345   -338.05211     18.06227    23.501721    22.106129           90           90           90 
  261000     243.8349   -4260.4549   -3842.5302   -4260.4549            0    316.00511    18.306962    23.358438    22.066974            0            0            0    9436.3241   -359.01309    675.95073     631.0777   -605.44078    280.58076   -250.59518    18.306962    23.358438    22.066974           90           90           90 
  261500    234.64427   -4225.3544   -3823.1822   -4225.3544            0   -208.94633    18.036327    23.820133    21.977945            0            0            0    9442.3338   -845.40477   -133.52601    352.09178   -1298.5416    366.51945    244.58659    18.036327    23.820133    21.977945           90           90           90 
  262000    259.87492   -4267.5751   -3822.1583   -4267.5751            0    432.96858    17.823694    23.668538     22.38093            0            0            0     9441.637    1669.2269    491.50418   -861.82536   -129.17066   -567.79175    468.90445    17.823694    23.668538     22.38093           90           90           90 
  262500    248.69126   -4234.1707   -3807.9224   -4234.1707            0     862.3417    18.332309    23.246513    22.110894            0            0            0    9422.8289    361.46957    704.86918    1520.6864   -36.634065    -547.7326    392.17827    18.332309    23.246513    22.110894           90           90           90 
  263000    252.19787   -4225.9067   -3793.6481   -4225.9067            0     697.4502    18.158794    23.608389    22.096901            0            0            0    9472.9387   -94.935351    163.62748    2023.6585     314.3545    430.56403    531.79067    18.158794    23.608389    22.096901           90           90           90 
  263500    265.10316   -4216.4419   -3762.0642   -4216.4419            0    531.58827    18.022118      23.6985    22.296401            0            0            0    9522.7296    1148.5106    642.07981   -195.82565   -182.18728   -349.44643    459.15609    18.022118      23.6985    22.296401           90           90           90 
  264000    252.05271   -4230.5042   -3798.4945   -4230.5042            0    2143.0285    18.172478    23.368042    22.064424            0            0            0    9369.7728    1172.2602    1630.9027    3625.9224   -191.43216    166.64799   -530.45973    18.172478    23.368042    22.064424           90           90           90 
  264500    246.90186   -4267.9354   -3844.7541   -4267.9354            0    2906.9763    18.124413    23.413841    21.940482            0            0            0    9310.7098    4364.8065    2393.5593    1962.5629     530.0877    282.58055    657.72785    18.124413    23.413841    21.940482           90           90           90 
  265000    248.58275   -4222.6175   -3796.5552   -4222.6175            0    384.54341    17.903756    23.660497     22.18733            0            0            0    9398.8143    824.92266   -613.67214     942.3797   -851.09016   -1009.2028    292.41947    17.903756    23.660497     22.18733           90           90           90 
  265500    248.67681   -4270.7476    -3844.524   -4270.7476            0    182.73586    18.176645    23.458507    22.232236            0            0            0    9479.7577   -215.67003     658.1526      105.725   -627.82677   -218.18457    103.07164    18.176645    23.458507    22.232236           90           90           90 
  266000     255.7848   -4278.3547   -3839.9483   -4278.3547            0    970.16782     18.29029    23.542129    22.012338            0            0            0     9478.345   -743.19224    1901.0097     1752.686   -338.08819    2.9823536     176.7446     18.29029    23.542129    22.012338           90           90           90 
  266500    267.55907   -4243.0271     -3784.44   -4243.0271            0   -297.90346    17.976485      23.6783     22.30518            0            0            0    9494.2576    -706.8293   -786.96376    600.08268   -451.48555    670.65867    151.78917    17.976485      23.6783     22.30518           90           90           90 
  267000    257.84568   -4271.8569   -3829.9182   -4271.8569            0    806.17304    18.080871    23.445968    22.161463            0            0            0    9394.7656    1414.2744    440.85567    563.38907   -649.67885   -236.82804   -756.53427    18.080871    23.445968    22.161463           90           90           90 
  267500    263.60103   -4250.7349   -3798.9317   -4250.7349            0    2140.5793    18.319138    23.401328    21.838489            0            0            0     9361.989    124.23523    2612.0082    3685.4944    844.83439    -272.3544     -60.8249    18.319138    23.401328    21.838489           90           90           90 
  268000    261.96253   -4251.7316   -3802.7367   -4251.7316            0    879.20558    17.934984    23.603738    22.272274            0            0            0    9428.5815    1164.9457    620.19687    852.47415    545.47847   -101.79374    466.66039    17.934984    23.603738    22.272274           90           90           90 
  268500    248.89532   -4274.3081     -3847.71   -4274.3081            0    1296.8573     18.09025    23.563722     22.05056            0            0            0    9399.5719    1509.6773    1484.6794    896.21519   -489.44446    33.856093   -29.720725     18.09025    23.563722     22.05056           90           90           90 
  269000    255.68884   -4262.9287   -3824.6868   -4262.9287            0    1736.3014    18.394464    23.326128    21.845915            0            0            0    9373.4623   -313.06996     2013.928    3508.0463    623.81699    183.46056    96.349709    18.394464    23.326128    21.845915           90           90           90 
  269500    256.75116   -4228.8445   -3788.7818   -4228.8445            0    1223.5722    17.837338    23.476832    22.391196            0            0            0    9376.6311    3540.7795   -620.15022    750.08737   -58.459437     595.0156    378.77515    17.837338    23.476832    22.391196           90           90           90 
  270000    260.97032   -4240.6762    -3793.382   -4240.6762            0    1806.9254    18.014881    23.681311    21.989391            0            0            0    9381.0261    1319.5385    2269.5759    1831.6617   -324.77598    66.285979     -69.3831    18.014881    23.681311    21.989391           90           90           90 
  270500    264.90862   -4268.4834   -3814.4391   -4268.4834            0     94.35274    18.338657    23.446959    22.019891            0            0            0    9468.2389    10.392798   -273.35307    546.01849   -390.98929   -583.37126   -323.80543    18.338657    23.446959    22.019891           90           90           90 
  271000    255.90427   -4261.0957   -3822.4846   -4261.0957            0    1402.5476    18.083715    23.303847    22.228778            0            0            0    9367.6546    338.87275    1173.0293    2695.7407    363.87168    376.70581    4.0721445    18.083715    23.303847    22.228778           90           90           90 
  271500    258.22577   -4258.8361    -3816.246   -4258.8361            0    1114.2743    18.032588    23.640977    22.090521            0            0            0     9417.366    2096.2198    1285.1215   -38.518199   -598.71466   -1028.6327   -304.64874    18.032588    23.640977    22.090521           90           90           90 
  272000     259.8446   -4226.4671   -3781.1023   -4226.4671            0    1240.4034    18.142959    23.528207    22.135761            0            0            0    9449.1209    247.93563     1091.639    2381.6355   -338.79976    763.56275   -1009.2983    18.142959    23.528207    22.135761           90           90           90 
  272500    267.57645   -4238.0137   -3779.3968   -4238.0137            0    2184.1434    18.083509     23.42073    22.135494            0            0            0    9375.0228    3075.2231    1548.7301    1928.4769    55.506769    217.86816    474.52067    18.083509     23.42073    22.135494           90           90           90 
  273000    255.68441   -4253.5762   -3815.3418   -4253.5762            0    1113.0018    18.104451      23.5304    21.996223            0            0            0    9370.5003    602.30613     1991.876    744.82329    954.90875   -327.78464    223.48013    18.104451      23.5304    21.996223           90           90           90 
  273500    250.03187   -4243.0122   -3814.4661   -4243.0122            0    1790.9235    17.991697    23.360342    22.194377            0            0            0    9328.1238    1673.8278    2874.3361    824.60661    1101.0828   -458.80161   -188.47194    17.991697    23.360342    22.194377           90           90           90 
  274000    282.89028   -4249.2508   -3764.3865   -4249.2508            0    1918.1825    18.080401    23.438001    22.041166            0            0            0    9340.3511    2186.6208    1042.9426    2524.9842   -628.63095     921.1373    109.61311    18.080401    23.438001    22.041166           90           90           90 
  274500    266.05625   -4231.1981   -3775.1868   -4231.1981            0     74.30516    18.349195    23.578418    21.848163            0            0            0    9452.4984    -664.9175    898.95367     -11.1207    268.80712   -219.45748   -747.71792    18.349195    23.578418    21.848163           90           90           90 
  275000     258.7752   -4254.1575   -3810.6256   -4254.1575            0    15.350824     17.94525    23.486818    22.489997            0            0            0    9479.0124    1826.7096   -31.781799   -1748.8753    285.91033    479.14308     86.13626     17.94525    23.486818    22.489997           90           90           90 
  275500     244.3307    -4257.856   -3839.0815    -4257.856            0    567.11489    18.152949    23.598241    22.029127            0            0            0    9436.7859   -425.33383    442.34881    1684.3297   -872.80975    229.77849    201.09879    18.152949    23.598241    22.029127           90           90           90 
  276000    265.51309   -4237.7469   -3782.6665   -4237.7469            0    661.03178    18.203845    23.602221    21.935865            0            0            0    9424.7702    873.37734    582.24136    527.47663    218.30415    272.92066   -385.84696    18.203845    23.602221    21.935865           90           90           90 
  276500     262.0912   -4247.3098   -3798.0945   -4247.3098            0    294.05724    18.023071    23.342531    22.402598            0            0            0    9424.8645    346.56743    1114.5928   -578.98846   -57.440828    270.15224    233.39282    18.023071    23.342531    22.402598           90           90           90 
  277000    263.07147   -4244.1733   -3793.2779   -4244.1733            0     1607.741    18.077315    23.598346    21.980105            0            0            0    9376.5967    2868.1159    -653.7917    2608.8989   -1050.9219    -303.2631    804.13984    18.077315    23.598346    21.980105           90           90           90 
  277500    261.77701   -4240.6233   -3791.9465   -4240.6233            0    1894.9826    18.181638    23.538559    21.947492            0            0            0    9392.8585    499.73266    2645.3341    2539.8809    761.21415    -488.0279    240.60073    18.181638    23.538559    21.947492           90           90           90 
  278000    260.76262   -4244.3259   -3797.3877   -4244.3259            0    973.40501    17.881027    23.318943    22.486452            0            0            0    9376.1006      2205.62    2643.6063   -1929.0113   -1077.3145   -229.91459   -24.903764    17.881027    23.318943    22.486452           90           90           90 
  278500    261.04061    -4255.639   -3808.2243    -4255.639            0    745.34942    18.246177    23.569135    21.828447            0            0            0    9387.2498   -153.91755    740.94537    1649.0204   -91.773932    287.07479   -187.92823    18.246177    23.569135    21.828447           90           90           90 
  279000    261.44034   -4276.6394   -3828.5396   -4276.6394            0     1311.231    18.161005    23.441552    21.978636            0            0            0     9356.792    441.64322    873.50357    2618.5464   -617.81698    495.62765   -815.20047    18.161005    23.441552    21.978636           90           90           90 
  279500    263.15508   -4259.5184   -3808.4796   -4259.5184            0    1279.3981    17.923161    23.337454    22.291731            0            0            0    9324.2065    1781.2753    1737.3222     319.5967   -400.87711    179.94664   -239.50399    17.923161    23.337454    22.291731           90           90           90 
  280000     245.5233   -4236.2271   -3815.4085   -4236.2271            0    1954.2851    18.080335    23.508554    21.924786            0            0            0    9318.9661    3411.5638    329.30932    2121.9821   -453.88466    340.83135   -219.08339    18.080335    23.508554    21.924786           90           90           90 
  280500    253.10527   -4240.4604   -3806.6466   -4240.4604            0    1495.2804    18.094754    23.468556      22.0859            0            0            0    9378.9485    2576.7633    1015.1573    893.92063   -966.75578   -980.41303    442.86342    18.094754    23.468556      22.0859           90           90           90 
  281000    261.37579   -4235.7405   -3787.7513   -4235.7405            0    717.99945    18.106496    23.525333    22.173744            0            0            0    9445.1579   -61.063628   -346.90492    2561.9669   -564.73998    377.32661    77.704304    18.106496    23.525333    22.173744           90           90           90 
  281500    261.36717   -4243.1268   -3795.1524   -4243.1268            0    1124.8303    18.113522     23.60189    22.054909            0            0            0    9428.7681    914.04746    2239.5483    220.89508    -613.0828     614.4663    19.515339    18.113522     23.60189    22.054909           90           90           90 
  282000    257.61784   -4247.4166   -3805.8684   -4247.4166            0    1304.2746    18.067463    23.454163    22.032647            0            0            0    9336.4935    1497.7046   -188.42062    2603.5399    -203.3198   -92.054434   -77.520421    18.067463    23.454163    22.032647           90           90           90 
  282500    256.79536   -4242.3853   -3802.2468   -4242.3853            0    2519.2104    18.052973    23.255587    22.248355            0            0            0    9340.5823    626.75317    4088.6009    2842.2771   -344.48501    262.16782    -622.7962    18.052973    23.255587    22.248355           90           90           90 
  283000    250.92551   -4274.4069   -3844.3291   -4274.4069            0    979.89961    18.189136    23.598789    21.841837            0            0            0    9375.4242    1430.0816    920.78716    588.83003    753.22384   -634.01562   -45.173968    18.189136    23.598789    21.841837           90           90           90 
  283500    257.48272   -4274.0438   -3832.7273   -4274.0438            0   -53.597698    17.909314    23.635795    22.235238            0            0            0    9412.1958    909.26226   -620.40265    -449.6527   -432.68376    -22.21579    925.84558    17.909314    23.635795    22.235238           90           90           90 
  284000    248.95275   -4255.5227   -3828.8262   -4255.5227            0     559.8923    18.092733    23.323776    22.237342            0            0            0    9383.9545   -95.701763    2016.9005   -241.52181   -388.67978    456.82355    243.33989    18.092733    23.323776    22.237342           90           90           90 
  284500     270.0614   -4204.9759   -3742.0999   -4204.9759            0    1140.3875    18.267715    23.487193    21.893301            0            0            0    9393.4815   -308.18927    1266.3937    2462.9581    -350.5213    468.24537   -15.034416    18.267715    23.487193    21.893301           90           90           90 
  285000    253.70213    -4249.147   -3814.3103    -4249.147            0    616.16464    17.950522     23.52619    22.313466            0            0            0    9423.1417    2126.4717    237.14018   -515.11795   -178.02434   -593.87429   -271.10761    17.950522     23.52619    22.313466           90           90           90 
  285500    254.92545    -4240.874   -3803.9405    -4240.874            0    119.47708    18.197739    23.517178    22.098876            0            0            0    9457.4234    327.45959   -456.27596    487.24761    896.68375    113.23444   -721.62922    18.197739    23.517178    22.098876           90           90           90 
  286000    239.43194   -4256.5565   -3846.1784   -4256.5565            0    1442.2178    18.164343    23.463734    22.013071            0            0            0     9382.044    695.85189    1724.9109    1905.8906   -335.80459     579.6618    32.125646    18.164343    23.463734    22.013071           90           90           90 
  286500    257.83708   -4224.8238   -3782.8998   -4224.8238            0    481.99367    18.000779    23.573493    22.192332            0            0            0    9417.1218   -272.31318     1274.938     443.3562   -590.85269    34.210151    125.64604    18.000779    23.573493    22.192332           90           90           90 
  287000    245.17035    -4247.976   -3827.7625    -4247.976            0    1429.2445    18.153847    23.429357    22.054952            0            0            0    9380.6984    535.32181    1477.3656     2275.046    -424.6709   -740.48302   -129.73582    18.153847    23.429357    22.054952           90           90           90 
  287500    265.62494   -4243.8603   -3788.5882   -4243.8603            0    1415.6418      18.1202     23.41489    21.931089            0            0            0    9304.9771    1840.4553    945.41232    1461.0579   -209.04184    105.09005    51.983346      18.1202     23.41489    21.931089           90           90           90 
  288000    233.66398   -4273.8322   -3873.3401   -4273.8322            0    1535.9137    17.873906     23.52199    22.270953            0            0            0    9363.3734    2269.9551    1812.4084    525.37754   -445.06085    734.49601     405.2951    17.873906     23.52199    22.270953           90           90           90 
  288500    237.29648   -4268.4078   -3861.6897   -4268.4078            0    461.95265    18.201544    23.440274    22.024572            0            0            0    9396.7657    295.85964    1578.8874   -488.88907    75.720373    208.27584    323.53711    18.201544    23.440274    22.024572           90           90           90 
  289000    259.31349   -4224.4591   -3780.0047   -4224.4591            0    1509.0288    18.383284    23.262274    21.826502            0            0            0    9333.8192   -35.750105    2873.3213    1689.5152    -218.8768   -325.58993   -939.68282    18.383284    23.262274    21.826502           90           90           90 
  289500    251.81562   -4261.2137   -3829.6104   -4261.2137            0    2358.6583    17.784263    23.459383    22.269573            0            0            0    9291.0403     4692.737    2388.2241   -4.9861372   -1585.5127    769.87787   -173.43616    17.784263    23.459383    22.269573           90           90           90 
  290000    265.02677   -4243.1407   -3788.8938   -4243.1407            0    847.22613    18.020897    23.494632     22.09023            0            0            0    9352.8784    1255.2484    1635.5734   -349.14346   -61.070588    833.53778   -334.83916    18.020897    23.494632     22.09023           90           90           90 
  290500    240.67039    -4242.675   -3830.1741    -4242.675            0    23.777307    18.281731    23.405025    22.040118            0            0            0    9430.6223   -376.08878    457.57357   -10.152874   -516.02186    -175.6205   -2.4832132    18.281731    23.405025    22.040118           90           90           90 
  291000    276.64485   -4240.6742   -3766.5144   -4240.6742            0    237.23451    18.068077    23.449062    22.294385            0            0            0     9445.673    473.16011    400.30029   -161.75687    75.340195   -288.59879   -64.496731    18.068077    23.449062    22.294385           90           90           90 
  291500    249.94646    -4220.088   -3791.6883    -4220.088            0    -117.0902    18.061968    23.687975    22.072258            0            0            0    9443.6474    720.90151   -918.75982   -153.41228    92.497833    340.11584    329.40265    18.061968    23.687975    22.072258           90           90           90 
  292000    252.82783   -4260.8061   -3827.4678   -4260.8061            0    2030.8296    18.159674    23.336196    21.970667            0            0            0    9310.6789    1495.2211    3557.9242    1039.3433   -305.55894   -967.16998   -387.07554    18.159674    23.336196    21.970667           90           90           90 
  292500    254.35506   -4257.6403   -3821.6844   -4257.6403            0    1783.1509    17.957932    23.227532    22.360186            0            0            0     9326.846    1997.1191    2086.8074    1265.5262    185.49547   -225.42221   -725.56037    17.957932    23.227532    22.360186           90           90           90 
  293000    232.18607   -4271.7918   -3873.8328   -4271.7918            0    732.54531    18.026717    23.927024     21.69861            0            0            0    9359.1678    1929.1971   -1705.3527    1973.7915   -42.778645   -221.66356    230.57067    18.026717    23.927024     21.69861           90           90           90 
  293500    252.72277   -4234.0998   -3800.9416   -4234.0998            0     1267.864    18.074415    23.461003    22.141821            0            0            0    9389.1043   -319.41048    2987.6059    1135.3967     707.7728    -330.5493   -822.15267    18.074415    23.461003    22.141821           90           90           90 
  294000    255.26905   -4263.9701   -3826.4477   -4263.9701            0    61.851356    18.124558    23.306464    22.243363            0            0            0    9396.0276   -1000.7252    688.58221    497.69705    -19.87929   -90.193089    354.00102    18.124558    23.306464    22.243363           90           90           90 
  294500    265.24058   -4254.0374   -3799.4242   -4254.0374            0    1808.1366    18.108781    23.564647    21.808456            0            0            0    9306.2575    1835.9566    1032.6314    2555.8219    -361.1719    739.52124     740.9394    18.108781    23.564647    21.808456           90           90           90 
  295000    261.01092   -4251.2261   -3803.8623   -4251.2261            0     2165.252    17.981619    23.483977     22.06008            0            0            0    9315.5289    2355.8804     2684.243    1455.6325    -419.6647    -1094.478   -930.62454    17.981619    23.483977     22.06008           90           90           90 
  295500     248.6386   -4235.5706   -3809.4125   -4235.5706            0   -64.120549    18.107103    23.332068    22.265427            0            0            0     9406.612   -502.51853    854.07132   -543.91443    425.08259    150.00565    408.01224    18.107103    23.332068    22.265427           90           90           90 
  296000    253.54669   -4246.7235   -3812.1531   -4246.7235            0    273.34999    18.254345     23.58839    21.909513            0            0            0    9434.0307   -419.87514    -187.5928    1427.5179   -361.84856   -650.52043    391.56096    18.254345     23.58839    21.909513           90           90           90 
  296500    254.02089   -4265.8655   -3830.4824   -4265.8655            0    469.82928    17.976297    23.575883    22.195273            0            0            0    9406.5136    883.26723   -188.06797    714.28859    554.45686   -336.53767     141.0809    17.976297    23.575883    22.195273           90           90           90 
  297000    263.67415   -4271.0108   -3819.0823   -4271.0108            0    734.43915    18.048929    23.341421     22.14321            0            0            0     9328.661    133.27151    2326.4581   -256.41221   -11.152977    218.16417    472.25393    18.048929    23.341421     22.14321           90           90           90 
  297500    249.56534   -4217.1072   -3789.3608   -4217.1072            0     747.7345    18.172431    23.466412    22.080811            0            0            0    9416.1799     392.5414    586.42649    1264.2356    -495.2122     1482.373     178.6065    18.172431    23.466412    22.080811           90           90           90 
  298000     253.7712   -4243.1721   -3808.2169   -4243.1721            0    1058.0481    18.051092     23.52583    22.123745            0            0            0    9395.2226    1803.5624    -629.5035    2000.0853   -315.91733   -366.37991    396.34105    18.051092     23.52583    22.123745           90           90           90 
  298500    255.77113   -4257.8631   -3819.4801   -4257.8631            0    1076.1048    18.101968    23.446595    22.111121            0            0            0    9384.6123      267.519    1457.3471    1503.4482    388.36747    507.32219    458.36579    18.101968    23.446595    22.111121           90           90           90 
  299000    254.38802   -4253.1445   -3817.1322   -4253.1445            0    653.02819    18.151122    23.499589    22.091573            0            0            0     9423.026    1978.4308     1096.673   -1116.0193    248.74063   -426.23347   -137.42007    18.151122    23.499589    22.091573           90           90           90 
  299500    261.31922    -4259.098   -3811.2058    -4259.098            0    1418.0832    18.051434    23.658985    21.986686            0            0            0    9390.0432    1266.0794     2404.733    583.43733   -662.09878    181.74757    -445.9327    18.051434    23.658985    21.986686           90           90           90 
  300000    263.36935   -4276.3211   -3824.9151   -4276.3211            0    1059.9663    17.985944    23.482642    22.249058            0            0            0    9397.0558    1354.8332    1697.8404    127.22528    39.675947    487.90211    468.62648    17.985944    23.482642    22.249058           90           90           90 
  300500    251.67482   -4259.9094   -3828.5473   -4259.9094            0    1641.5129    18.304651    23.279369    21.975896            0            0            0     9364.385    1820.6082    817.57845     2286.352     672.0459    103.00202    233.22523    18.304651    23.279369    21.975896           90           90           90 
  301000    256.51808   -4270.4491   -3830.7859   -4270.4491            0     1744.802    18.045149    23.519701    22.029669            0            0            0     9349.755    2412.0925    805.85153     2016.462    550.31311    278.75889    -236.3399    18.045149    23.519701    22.029669           90           90           90 
  301500    250.81213   -4237.1055   -3807.2221   -4237.1055            0    1669.8642    17.780068    23.740235    22.221947            0            0            0    9379.9504    3290.1636    1731.5373   -12.108283    632.57797     753.9646    321.16919    17.780068    23.740235    22.221947           90           90           90 
  302000    249.76717   -4242.4966   -3814.4043   -4242.4966            0    1490.2402    18.320042     23.33907     22.05404            0            0            0    9429.7064    1119.1194    1926.8577    1424.7435   -801.59622    609.88884    1138.2418    18.320042     23.33907     22.05404           90           90           90 
  302500    253.32835   -4271.9106   -3837.7144   -4271.9106            0    503.73541    18.212304    23.409449    22.154388            0            0            0    9445.3019    448.03326    314.39269    748.78027    686.91561    349.21783    97.633839    18.212304    23.409449    22.154388           90           90           90 
  303000    255.65535   -4233.2398   -3795.0553   -4233.2398            0    -198.1621    17.945912    23.826957    22.224489            0            0            0    9503.1134    1036.6253   -632.55609   -998.55551    103.43425   -111.53217    57.893953    17.945912    23.826957    22.224489           90           90           90 
  303500    243.64449   -4228.6946   -3811.0962   -4228.6946            0     645.7202    18.170863    23.544472    22.066666            0            0            0    9440.6353      1021.64    1059.6297   -144.10909    26.073379   -688.49583    967.95365    18.170863    23.544472    22.066666           90           90           90 
  304000    256.07951   -4278.4886   -3839.5771   -4278.4886            0    846.98843    18.194629    23.338417    22.199601            0            0            0    9426.7017    1565.6885    621.31837    353.95839   -1290.7205    73.050895   -204.78064    18.194629    23.338417    22.199601           90           90           90 
  304500    264.83682   -4242.3434   -3788.4222   -4242.3434            0    1108.6155     17.91935    23.698319    22.123143            0            0            0    9394.7803    1893.4996    806.56816    625.77854   -73.507147    384.52407   -31.243006     17.91935    23.698319    22.123143           90           90           90 
  305000    262.84188   -4262.8292   -3812.3272   -4262.8292            0    1597.9298    18.123963    23.683393    21.956103            0            0            0    9424.3706    629.39964    1104.4184    3059.9713   -932.95864   -534.93972   -251.00093    18.123963    23.683393    21.956103           90           90           90 
  305500    256.71251   -4243.9958   -3803.9994   -4243.9958            0    1732.4194    18.344399    22.910328    22.282442            0            0            0      9364.78    1826.6413     2364.433     1006.184   -146.43126    357.81228    350.30817    18.344399    22.910328    22.282442           90           90           90 
  306000    249.36768   -4242.7638   -3815.3561   -4242.7638            0    1135.0818    18.046213    23.575765    22.022187            0            0            0    9369.4119    1147.9671    1320.4116    936.86673   -237.91719   -1008.9425   -359.69944    18.046213    23.575765    22.022187           90           90           90 
  306500    253.68092   -4241.3906   -3806.5902   -4241.3906            0    1987.2669    17.947906    23.736727    22.005936            0            0            0    9375.0689    2773.7491    1543.4231    1644.6285   -849.82978    44.776855    79.020086    17.947906    23.736727    22.005936           90           90           90 
  307000    267.33172   -4258.2175   -3800.0201   -4258.2175            0    1853.3312    18.119723    23.275431    22.167079            0            0            0    9348.8407    655.08553    2791.4495    2113.4586   -617.76682   -639.12116    697.83065    18.119723    23.275431    22.167079           90           90           90 
  307500    241.68287   -4240.4853   -3826.2492   -4240.4853            0    2023.2024    18.175074    23.442652    22.011603            0            0            0    9378.5266      1490.31     2419.532    2159.7653   -831.09129   -773.53257   -96.803497    18.175074    23.442652    22.011603           90           90           90 
  308000    247.82343   -4236.4742   -3811.7133   -4236.4742            0    562.58158    17.893253    23.680418    22.249796            0            0            0    9427.6768    1398.0023   -136.55535    426.29775   -200.18986    -397.7923    407.97567    17.893253    23.680418    22.249796           90           90           90 
  308500    266.18458   -4246.9376   -3790.7064   -4246.9376            0   -360.27394    18.266863    23.551536    22.087005            0            0            0    9502.1095   -164.21895    1189.5058   -2106.1086   -1170.6203   -126.21158    34.007034    18.266863    23.551536    22.087005           90           90           90 
  309000     255.1851   -4240.9052   -3803.5267   -4240.9052            0   -483.55605    18.384057    23.260424    22.131465            0            0            0    9463.8786   -1004.7969    248.22035   -694.09156   -528.70498   -361.17714    344.74421    18.384057    23.260424    22.131465           90           90           90 
  309500    256.98199   -4237.8674    -3797.409   -4237.8674            0    1423.8543    17.871466    23.678639    22.235371            0            0            0    9409.3863    3198.9126    30.381104    1042.2692    109.52852    462.10665   -402.40164    17.871466    23.678639    22.235371           90           90           90 
  310000    259.10456   -4241.4025   -3797.3062   -4241.4025            0    1257.1088    18.007285    23.615694     22.06336            0            0            0    9382.5437    2127.9562    1273.5833    369.78685   -135.17299      39.6015    893.26766    18.007285    23.615694     22.06336           90           90           90 
  310500    277.34137   -4229.0615   -3753.7079   -4229.0615            0    1147.2269    18.213097      23.3816    22.018546            0            0            0    9376.6277    427.81673    1595.8602    1418.0038    284.56616    1039.0191    808.62341    18.213097      23.3816    22.018546           90           90           90 
  311000    263.62569   -4259.8126   -3807.9672   -4259.8126            0    1074.4586    18.003863    23.430366    22.215233            0            0            0    9371.2098    2430.0006     1009.303   -215.92791    636.73511    597.73984   -70.276789    18.003863    23.430366    22.215233           90           90           90 
  311500    253.59048    -4259.368   -3824.7226    -4259.368            0    1244.2627    17.995483    23.707927    22.062679            0            0            0    9412.7246    763.27833   -79.537532    3049.0473   -139.64786    820.40107    93.614661    17.995483    23.707927    22.062679           90           90           90 
  312000    261.89403   -4243.9699   -3795.0925   -4243.9699            0    435.94128    18.344953    23.412128    22.107704            0            0            0    9495.1346   -302.45474    843.51121    766.76738   -437.07785    809.11773   -283.84872    18.344953    23.412128    22.107704           90           90           90 
  312500    246.31237   -4259.0572   -3836.8863   -4259.0572            0   -621.45797    18.154852    23.377716    22.353467            0            0            0    9487.2354    -2039.897    896.46259   -720.93946    554.87783    261.51835    18.728845    18.154852    23.377716    22.353467           90           90           90 
  313000     254.3024   -4247.4067   -3811.5411   -4247.4067            0    498.84841    18.081877     23.68749    21.993093            0            0            0    9419.9557    219.28527    694.20312    583.05683    830.29419   -265.16807   -336.02706    18.081877     23.68749    21.993093           90           90           90 
  313500    249.00921   -4253.1778   -3826.3845   -4253.1778            0    828.55777    18.153403    23.451917    22.170222            0            0            0    9438.5754     964.3926     2153.848   -632.56731   -290.30857   -273.39367    123.28967    18.153403    23.451917    22.170222           90           90           90 
  314000    258.78591   -4222.8733   -3779.3231   -4222.8733            0     657.9437    18.196532    23.405542     22.23825            0            0            0    9471.2638     218.7405    1986.1062   -231.01555    149.97357    305.96076    561.63686    18.196532    23.405542     22.23825           90           90           90 
  314500    258.79228   -4244.5628   -3801.0017   -4244.5628            0    716.12863    18.078625    23.753798    22.019184            0            0            0    9455.8304    2061.1963    -56.35898    143.54858   -267.39019   -851.37339   -182.01227    18.078625    23.753798    22.019184           90           90           90 
  315000    256.58908   -4256.6425   -3816.8576   -4256.6425            0     1478.719    18.061268    23.452973    22.139855            0            0            0    9378.2309    984.83959    2628.5005    822.81691   -75.135493    395.11655   -754.47553    18.061268    23.452973    22.139855           90           90           90 
  315500    261.17634   -4230.7729   -3783.1256   -4230.7729            0     1270.426    18.242383    23.254886    22.119977            0            0            0     9383.837    1413.8928     1187.801    1209.5841    58.057318    43.704648    471.51594    18.242383    23.254886    22.119977           90           90           90 
  316000    261.71488   -4227.0338   -3778.4634   -4227.0338            0    1108.7438    18.122198    23.725375    21.970013            0            0            0    9446.1381    519.35666   -248.46972    3055.3445    876.84455   -190.37207    781.79978    18.122198    23.725375    21.970013           90           90           90 
  316500    253.57274   -4221.6769   -3787.0619   -4221.6769            0    578.14694    17.853211    23.682514    22.302024            0            0            0    9429.4944    1564.6185  -0.36777397     170.1901    764.80999   -272.20636   -180.26426    17.853211    23.682514    22.302024           90           90           90 
  317000     252.1708    -4259.732   -3827.5199    -4259.732            0    1851.2355    18.264375    23.299369    22.113682            0            0            0    9410.4428   -534.31246    2950.6923    3137.3265    19.209672    158.10739    15.105185    18.264375    23.299369    22.113682           90           90           90 
  317500    242.11547   -4265.0114   -3850.0337   -4265.0114            0    431.40227    18.302701    23.522873    21.936708            0            0            0    9444.4575   -1089.1609    166.26535    2217.1023    541.06199    389.91693   -558.35585    18.302701    23.522873    21.936708           90           90           90 
  318000    249.54187   -4251.4667   -3823.7604   -4251.4667            0    1205.9312    17.825206    23.727554    22.251396            0            0            0    9411.1952    612.14434    1022.3343    1983.3149    893.77312   -189.95623    507.64171    17.825206    23.727554    22.251396           90           90           90 
  318500    254.26951   -4255.0375   -3819.2282   -4255.0375            0    572.89613     18.18429     23.48166    22.100943            0            0            0    9437.0429     292.2775    1926.8572   -500.44625   -201.00394   -663.45736   -19.410303     18.18429     23.48166    22.100943           90           90           90 
  319000    270.07423   -4244.6772   -3781.7792   -4244.6772            0    1456.9511     18.24686    23.363944    22.047264            0            0            0    9399.1586    682.80495      2491.28    1196.7682   -210.16221    39.321136   -66.515705     18.24686    23.363944    22.047264           90           90           90 
  319500    261.33409   -4265.5537    -3817.636   -4265.5537            0    656.13671    17.949502    23.650624    22.207774            0            0            0    9427.5763    2097.5291   -983.01517    853.89621    240.25345    205.12696    211.19123    17.949502    23.650624    22.207774           90           90           90 
  320000    253.98896    -4248.658   -3813.3296    -4248.658            0     792.5146    18.094023    23.727441    22.039344            0            0            0    9462.0384    1169.3099    640.60342    567.63044    12.016249    412.34017      -175.26    18.094023    23.727441    22.039344           90           90           90 
  320500    256.92112   -4260.8116   -3820.4576   -4260.8116            0    1030.0019     18.37657    23.209129    22.127067            0            0            0    9437.2865   -76.423356   -54.198874    3220.6279   -1407.2041    429.94557    392.75208     18.37657    23.209129    22.127067           90           90           90 
  321000    249.82644   -4278.3174   -3850.1234   -4278.3174            0    923.59685    17.947018     23.37268    22.473334            0            0            0    9426.8871     1301.531    1693.5451   -224.28551   -272.76293   -1179.6058    339.65503    17.947018     23.37268    22.473334           90           90           90 
  321500    257.06953   -4263.7182   -3823.1098   -4263.7182            0     1102.907    17.922119     23.96753    21.784615            0            0            0    9357.5581    861.61121    1409.5894    1037.5203   -128.06994     265.9245     58.03992    17.922119     23.96753    21.784615           90           90           90 
  322000    253.16172   -4235.4578   -3801.5473   -4235.4578            0    1695.0579     18.13085    23.443263    22.007288            0            0            0     9354.116    494.64756    2642.0715    1948.4546   -278.42629   -396.76576    987.15982     18.13085    23.443263    22.007288           90           90           90 
  322500    243.07976   -4246.4825   -3829.8521   -4246.4825            0    1960.2195    18.112659    23.311554    22.185656            0            0            0    9367.5435    2392.8071    2222.5118    1265.3396   -674.04546   -42.146477    67.472582    18.112659    23.311554    22.185656           90           90           90 
  323000    262.52183   -4237.8768   -3787.9234   -4237.8768            0    1786.4408     18.02483    23.638322    22.016232            0            0            0    9380.6044    2329.9852    967.59385    2061.7434   -137.33147    84.249336    873.75566     18.02483    23.638322    22.016232           90           90           90 
  323500    256.72915    -4257.337   -3817.3121    -4257.337            0    1033.9765    18.074265    23.646288    21.937237            0            0            0    9375.7398    621.22744    869.83533    1610.8667   -572.42691    81.561091   -362.18843    18.074265    23.646288    21.937237           90           90           90 
  324000    258.36791   -4282.8808    -3840.047   -4282.8808            0    700.50447    18.151867    23.097872      22.3618            0            0            0    9375.6204    657.67688    2448.2204   -1004.3838    110.73043   -612.22374    421.47328    18.151867    23.097872      22.3618           90           90           90 
  324500    259.32843   -4240.9177   -3796.4377   -4240.9177            0    1348.4938    18.192366    23.580257    21.909708            0            0            0    9398.8408    2057.5899    518.26217    1469.6293   -631.34311   -129.98557   -564.15061    18.192366    23.580257    21.909708           90           90           90 
  325000    251.14498   -4234.1456   -3803.6917   -4234.1456            0   -343.53723    18.050839    23.808922    21.982029            0            0            0    9447.2388   -768.71905   -569.53021    307.63755   -1043.5024   -469.71357    412.39144    18.050839    23.808922    21.982029           90           90           90 
  325500    258.70035    -4240.048   -3796.6445    -4240.048            0     214.0099     17.99867    23.336003    22.487386            0            0            0    9445.0848    776.03791    1406.2955   -1540.3037    267.92261    393.04115    129.53152     17.99867    23.336003    22.487386           90           90           90 
  326000    258.46998   -4276.2051   -3833.1964   -4276.2051            0    778.57407    18.226704    23.516184    21.969057            0            0            0    9416.4329    1.7448079    344.36037     1989.617    1255.2876    242.13276    509.58972    18.226704    23.516184    21.969057           90           90           90 
  326500    249.38405   -4236.3425   -3808.9068   -4236.3425            0    53.020826    18.067223    23.577926    22.127449            0            0            0    9426.0203     308.6996    1095.3691   -1245.0062   -361.36403    85.689334    249.98577    18.067223    23.577926    22.127449           90           90           90 
  327000    252.30764   -4213.0648   -3780.6182   -4213.0648            0    967.45491    18.036507    23.415071    22.302158            0            0            0    9418.7831    1769.4758    963.28381    169.60513    175.15387    489.61478    425.29778    18.036507    23.415071    22.302158           90           90           90 
  327500     251.0873   -4265.9076   -3835.5526   -4265.9076            0    1052.0881    18.212103     23.52602     21.84188            0            0            0    9358.3346    998.27429    204.08237    1953.9077    711.19281   -30.152431    457.89077    18.212103     23.52602     21.84188           90           90           90 
  328000     252.7265   -4243.8766    -3810.712   -4243.8766            0    1090.6785    18.038669    23.512621    22.185626            0            0            0    9409.7314    1079.2706    593.94946    1598.8155   -897.27189   -134.17844    239.42513    18.038669    23.512621    22.185626           90           90           90 
  328500    263.62827   -4241.3934   -3789.5436   -4241.3934            0    3035.5289    17.863151    23.425373    22.235232            0            0            0     9304.354    3538.8944    3721.5891    1846.1032   -258.04648   -104.10123   -196.95658    17.863151    23.425373    22.235232           90           90           90 
  329000    245.26594   -4224.4246   -3804.0472   -4224.4246            0     2872.576    18.237662    23.380825     21.73416            0            0            0    9267.6977    1613.7573     3257.328    3746.6428   -684.76712   -160.61145    318.75772    18.237662    23.380825     21.73416           90           90           90 
  329500    239.53038   -4248.8609    -3838.314   -4248.8609            0    1853.2857    18.047288    23.385531    22.110252            0            0            0    9331.5305    1982.3578    1902.0656    1675.4338   -1682.6728     24.87819    1070.1378    18.047288    23.385531    22.110252           90           90           90 
  330000    258.68671   -4253.3237   -3809.9435   -4253.3237            0    976.84777    18.027854    23.622072    22.137205            0            0            0    9427.2452    1178.9531    1081.8228     669.7674   -609.53933   -674.24621    155.43259    18.027854    23.622072    22.137205           90           90           90 
  330500    254.79337   -4243.6961   -3806.9889   -4243.6961            0    425.76825    18.213005    23.589516     21.97391            0            0            0    9440.7821    129.48418    502.69223    645.12835    240.17472    33.800988    468.93512    18.213005    23.589516     21.97391           90           90           90 
  331000    248.84485   -4261.9741   -3835.4625   -4261.9741            0    980.17712    18.017014    23.337447    22.303391            0            0            0    9377.9313    1542.9421    128.23312    1269.3561    1005.0371    34.381818    36.817678    18.017014    23.337447    22.303391           90           90           90 
  331500     242.6795   -4216.5054    -3800.561   -4216.5054            0    1104.9545    18.106221    23.519737    22.018223            0            0            0    9376.5382    1749.1685    1261.1039    304.59103   -42.243843    464.65442    694.88189    18.106221    23.519737    22.018223           90           90           90 
  332000    269.07258   -4240.5911   -3779.4099   -4240.5911            0    940.08461    18.235566    23.631407    21.893183            0            0            0    9434.4745    857.98745     62.58322    1899.6832   -210.04274   -121.01384    -520.0961    18.235566    23.631407    21.893183           90           90           90 
  332500    264.60115   -4217.4698   -3763.9525   -4217.4698            0    714.35016    18.021018    23.389541    22.471126            0            0            0    9471.6548    1247.2435    1090.1219   -194.31491   -1017.7584   -658.27561    556.63758    18.021018    23.389541    22.471126           90           90           90 
  333000    256.91217   -4249.6029   -3809.2643   -4249.6029            0    1242.0546     18.13339    23.569154    22.011975            0            0            0    9407.6686    1722.6804    801.21469    1202.2689   -164.08081    594.96651   -862.32824     18.13339    23.569154    22.011975           90           90           90 
  333500    272.34027   -4228.0719     -3761.29   -4228.0719            0    475.01236    18.219164    23.528688    22.027078            0            0            0    9442.4143   -1189.4507    1602.2945    1012.1933    945.25299    49.983435    148.05811    18.219164    23.528688    22.027078           90           90           90 
  334000    264.31276   -4249.3997   -3796.3767   -4249.3997            0    1494.9531    18.016121    23.417503     22.28315            0            0            0    9401.0952     1499.244     1421.171    1564.4443    0.2571019    774.85451     -510.092    18.016121    23.417503     22.28315           90           90           90 
  334500    267.79522   -4264.7669    -3805.775   -4264.7669            0    635.79416    18.073987    23.801463    21.965632            0            0            0    9449.3368    407.31337   -474.56979    1974.6389   -468.71866   -35.366629    259.37763    18.073987    23.801463    21.965632           90           90           90 
  335000    249.86614   -4272.6933   -3844.4313   -4272.6933            0   -166.42052    18.357245    23.457298     22.07532            0            0            0     9505.884   -1220.4003    185.21773    535.92104   -1096.3172    -437.7123    837.82827    18.357245    23.457298     22.07532           90           90           90 
  335500    261.07264   -4225.4724   -3778.0029   -4225.4724            0    -189.7331    18.147959    23.339793    22.505552            0            0            0    9532.6677    1340.3808    324.19163   -2233.7717     994.8909    -180.0873    145.74363    18.147959    23.339793    22.505552           90           90           90 
  336000    276.15346    -4227.081   -3753.7634    -4227.081            0    886.48247    18.136332    23.680907    22.056568            0            0            0     9472.961    287.54606    1216.0403     1155.861   -114.57491   -224.49485     520.1182    18.136332    23.680907    22.056568           90           90           90 
  336500    261.59171   -4251.4352    -3803.076   -4251.4352            0    714.66703    18.119453    23.618368     22.13694            0            0            0    9473.5461    853.53277    229.57839    1060.8899   -216.22481     179.1707    -321.9682    18.119453    23.618368     22.13694           90           90           90 
  337000    261.81192   -4257.8489   -3809.1122   -4257.8489            0    966.51168    18.167707    23.363047    22.276771            0            0            0    9455.4419     759.4376    1278.5136    861.58384    500.48817    189.89901    999.86415    18.167707    23.363047    22.276771           90           90           90 
  337500    265.25368   -4257.9979   -3803.3621   -4257.9979            0    320.66719    18.201419    23.659294    21.934806            0            0            0    9445.8455   -1049.6665   -2.8947179    2014.5628   -850.31165    438.44727   -541.92981    18.201419    23.659294    21.934806           90           90           90 
  338000    247.99886   -4266.9843   -3841.9228   -4266.9843            0   -249.25484    17.997588    23.893398      22.0737            0            0            0    9492.2108   -580.09187   -1560.4929    1392.8203    79.270815   -560.54101    262.40781    17.997588    23.893398      22.0737           90           90           90 
  338500    252.63638   -4249.2616   -3816.2515   -4249.2616            0     192.3387    18.132506    23.152492     22.57794            0            0            0    9478.5062   -649.52911     3656.882   -2430.3368   -55.432795   -280.85158    706.18219    18.132506    23.152492     22.57794           90           90           90 
  339000    268.77231   -4265.6089   -3804.9423   -4265.6089            0    624.70396    18.283487    23.625405    21.984471            0            0            0    9496.2973    392.48178   -288.33216    1769.9623    129.41261   -487.49363   -23.604674    18.283487    23.625405    21.984471           90           90           90 
  339500    245.64085   -4250.4119   -3829.3919   -4250.4119            0    302.72319    18.052868    23.711737    22.120404            0            0            0    9468.9674    762.38158   -562.25004    708.03804   -105.66539   -715.26937    379.25532    18.052868    23.711737    22.120404           90           90           90 
  340000     262.5727   -4243.9601   -3793.9195   -4243.9601            0    710.41174    18.147074    23.339654    22.335073            0            0            0    9459.9404   -151.94344    2120.5002    162.67846    934.20414    -22.99962     42.12647    18.147074    23.339654    22.335073           90           90           90 
  340500    258.96601   -4207.5746   -3763.7157   -4207.5746            0   -803.08049    18.268154    23.603939    22.001804            0            0            0    9487.1863   -448.51239   -512.30561   -1448.4235    313.77629    67.936242    213.13415    18.268154    23.603939    22.001804           90           90           90 
  341000    247.54661   -4219.9675   -3795.6811   -4219.9675            0    795.52504    17.946952    23.679889    22.255168            0            0            0    9458.0425    1262.8481    913.99728    209.72977    945.12951    856.59331    -764.9594    17.946952    23.679889    22.255168           90           90           90 
  341500    258.14461   -4276.0399   -3833.5889   -4276.0399            0    924.72862    18.132369    23.471051    22.207659            0            0            0    9451.2633    292.34808    2138.9126     342.9252    1461.0474   -347.95376   -812.95135    18.132369    23.471051    22.207659           90           90           90 
  342000    258.82101   -4264.5325   -3820.9222   -4264.5325            0     491.9594    18.361793    23.411009    21.925637            0            0            0    9425.1322   -683.08166    757.29825    1401.6616     249.6216   -825.64116    224.65276    18.361793    23.411009    21.925637           90           90           90 
  342500    244.81264   -4249.2942   -3829.6937   -4249.2942            0    2418.0854    17.815547    23.485103    22.180071            0            0            0    9280.1409    2483.1026    1744.4937    3026.6599   -245.74615    -396.0151   -279.67165    17.815547    23.485103    22.180071           90           90           90 
  343000    250.17762   -4246.4217   -3817.6258   -4246.4217            0    2866.9875    17.893702    23.566176    22.083898            0            0            0    9312.4735    3717.0172    3184.2899    1699.6553    65.221561    343.64925    103.25212    17.893702    23.566176    22.083898           90           90           90 
  343500    251.25706    -4262.795    -3832.149    -4262.795            0     2754.991    18.169529    23.428479    21.976419            0            0            0    9355.0195     1712.543    2914.5138    3637.9162   -363.70887    -934.7178   -49.162588    18.169529    23.428479    21.976419           90           90           90 
  344000       247.53   -4246.9018   -3822.6438   -4246.9018            0    -67.43756     18.06101    23.532735    22.295698            0            0            0    9476.2278   -321.08267   -101.74776    220.51774    70.763596   -849.69439    1031.6353     18.06101    23.532735    22.295698           90           90           90 
  344500    248.81625   -4255.7433   -3829.2808   -4255.7433            0    1259.7856    18.092686    23.560888    22.109934            0            0            0    9425.0172     877.6236    1094.7052    1807.0279    412.25358    9.1858141    978.08616    18.092686    23.560888    22.109934           90           90           90 
  345000    241.07639    -4220.651   -3807.4543    -4220.651            0    966.68384    18.169875    23.528174    21.977452            0            0            0    9395.4481    1014.1299    653.41172      1232.51    315.94545    106.45859   -674.64587    18.169875    23.528174    21.977452           90           90           90 
  345500    243.32606   -4239.4411   -3822.3886   -4239.4411            0    1462.4211    17.988549    23.405495    22.318325            0            0            0    9396.7042    2761.7027     1024.461    601.09966    167.05491    264.61981    1202.3384    17.988549    23.405495    22.318325           90           90           90 
  346000    258.38531    -4260.734   -3817.8704    -4260.734            0    1049.3127    18.114436    23.737506    21.939841            0            0            0    9433.9456    616.26873    680.02298    1851.6464   -312.46917    794.58191   -57.518269    18.114436    23.737506    21.939841           90           90           90 
  346500    246.74801   -4271.8196   -3848.9019   -4271.8196            0    991.41304    18.231336    23.535071    21.981633            0            0            0    9431.7863    946.49025    830.29929    1197.4496   -433.03823    195.91444    286.27975    18.231336    23.535071    21.981633           90           90           90 
  347000    250.05297     -4238.25   -3809.6678     -4238.25            0    1005.6833     17.98021    23.335794    22.492429            0            0            0    9437.4292    1302.0165    1119.7415    595.29188   -239.82537    75.512674     133.0766     17.98021    23.335794    22.492429           90           90           90 
  347500    244.16727    -4230.421   -3811.9267    -4230.421            0    1319.9259    18.162481    23.645063    21.844859            0            0            0    9381.3403    1255.4981   -55.494879    2759.7744   -1508.5831   -144.08214   -252.09423    18.162481    23.645063    21.844859           90           90           90 
  348000    233.83426   -4246.8013   -3846.0174   -4246.8013            0    1212.1976    18.103249    23.585118    22.041735            0            0            0    9411.0992    128.81334    1760.0757    1747.7038   -148.45556   -466.55782   -783.42852    18.103249    23.585118    22.041735           90           90           90 
  348500    260.45956   -4287.8845   -3841.4657   -4287.8845            0    1008.9403    18.062629    23.452902    22.233133            0            0            0    9418.4238    719.43137    53.136365     2254.253    425.04446    288.20078    534.92486    18.062629    23.452902    22.233133           90           90           90 
  349000    215.24039   -4233.4237    -3864.509   -4233.4237            0    492.56384    18.239921    23.485973    22.046719            0            0            0    9444.4242    469.95381    431.83919    575.89854   -352.61192   -149.23982   -258.11243    18.239921    23.485973    22.046719           90           90           90 
  349500    276.23649     -4246.91   -3773.4501     -4246.91            0     312.7653    18.100709    23.765437    22.051023            0            0            0    9485.7163    340.57623   -1202.2217    1799.9414   -583.68637    639.63516    178.19764    18.100709    23.765437    22.051023           90           90           90 
  350000    265.28796   -4246.4509   -3791.7564   -4246.4509            0    434.03713    18.000591    23.364062    22.501253            0            0            0    9463.2828    665.05006    680.70447   -43.643151    496.18144    177.16436    106.86494    18.000591    23.364062    22.501253           90           90           90 
  350500    256.72847   -4228.9618    -3788.938   -4228.9618            0    670.60728    18.380828    23.391229    21.892509            0            0            0     9412.688    1596.3103    69.180685    346.33088    1459.3743     1121.827   -41.566911    18.380828    23.391229    21.892509           90           90           90 
  351000    250.83571   -4239.6921   -3809.7682   -4239.6921            0    1320.9383    18.070421    23.551478    22.056787            0            0            0    9387.0405    1866.2817   -95.223639    2191.7567   -1186.9958     181.2743   -662.13935    18.070421    23.551478    22.056787           90           90           90 
  351500    252.85138   -4238.7652   -3805.3866   -4238.7652            0    1115.4667    17.948265     23.54464    22.232933            0            0            0    9395.3137    995.31947    995.15263    1355.9279    308.23391   -1213.5747    636.81481    17.948265     23.54464    22.232933           90           90           90 
  352000     256.7437   -4245.5521   -3805.5022   -4245.5521            0    1139.0301    18.295042    23.446412    21.998064            0            0            0    9436.1376    886.45109    1428.0339    1102.6052   -1.7616582   -872.90725    426.97318    18.295042    23.446412    21.998064           90           90           90 
  352500    252.06832   -4260.4017   -3828.3652   -4260.4017            0    766.76963    18.105158    23.536958     22.16425            0            0            0     9445.081    779.89858    860.34364    660.06666    746.05254     93.68217    152.73741    18.105158    23.536958     22.16425           90           90           90 
  353000    238.87284   -4256.2736   -3846.8537   -4256.2736            0    1751.0951    17.860302    23.609483    22.138617            0            0            0    9335.2459    1879.5282    1454.9115    1918.8455    944.67253    989.33848    695.62542    17.860302    23.609483    22.138617           90           90           90 
  353500    259.60059   -4305.5778   -3860.6312   -4305.5778            0    1994.9908    18.198125    23.456849     21.78044            0            0            0    9297.4309    2955.4037    1505.8449    1523.7239    458.33174    453.16259    373.50299    18.198125    23.456849     21.78044           90           90           90 
  354000    252.18687   -4246.6417    -3814.402   -4246.6417            0    1286.2467     18.11045    23.229697    22.193292            0            0            0    9336.7241    1689.3048    1486.3622    683.07311   -340.84241     196.5075   -263.71721     18.11045    23.229697    22.193292           90           90           90 
  354500    249.91435   -4219.3165   -3790.9718   -4219.3165            0    1470.4488    17.969777    23.643359    22.067847            0            0            0    9375.8752    3117.0638   -128.68246    1422.9652   -329.81984    1408.0307    -553.3152    17.969777    23.643359    22.067847           90           90           90 
  355000    264.48625   -4243.5108   -3790.1904   -4243.5108            0     -344.492    18.162487    23.567763     22.10223            0            0            0    9460.8416    191.82981   -371.00137   -854.30445    400.74986   -172.49457    38.285912    18.162487    23.567763     22.10223           90           90           90 
  355500    255.90202    -4262.296   -3823.6887    -4262.296            0    1025.4798    18.143986    23.372036    22.091488            0            0            0    9368.1584   -597.96646    2393.4458    1280.9601   -784.12011   -172.09962     675.8263    18.143986    23.372036    22.091488           90           90           90 
  356000    264.67974   -4257.3857   -3803.7337   -4257.3857            0    827.34331    18.055363    23.488333    22.145698            0            0            0     9391.777    794.40916     873.2841    814.33667    -672.5363   -56.547749    821.50559    18.055363    23.488333    22.145698           90           90           90 
  356500    253.05739   -4249.6027   -3815.8709   -4249.6027            0    886.86669    18.054785     23.82613    21.853541            0            0            0    9400.8612    775.54971    645.28204    1239.7683   -430.71147   -70.029013     810.9233    18.054785     23.82613    21.853541           90           90           90 
  357000    268.94213   -4259.0385   -3798.0809   -4259.0385            0    501.37237     18.22361    23.252185    22.307522            0            0            0    9452.5616   -85.261968    1560.0724    29.306668   -1080.2268   -324.91476   -397.62353     18.22361    23.252185    22.307522           90           90           90 
  357500    269.76527   -4236.5562   -3774.1877   -4236.5562            0    942.64695    18.173242    23.427554    22.181977            0            0            0     9444.079    607.39051    285.88549    1934.6649    928.76141   -650.12041   -528.49439    18.173242    23.427554    22.181977           90           90           90 
  358000     245.4885   -4234.9399    -3814.181   -4234.9399            0    1329.4927    17.913128     23.81126     21.80307            0            0            0    9299.7536    1435.8211    1547.1538    1005.5034    73.975864   -200.12223    315.66859    17.913128     23.81126     21.80307           90           90           90 
  358500    255.68133   -4246.6692   -3808.4401   -4246.6692            0    2641.4797    18.049566    23.294816    22.235342            0            0            0    9349.1013    2487.3948    3173.5975    2263.4469    738.02373    25.854975    109.59866    18.049566    23.294816    22.235342           90           90           90 
  359000    251.72476   -4253.0753   -3821.6277   -4253.0753            0    780.62138    18.227678    23.345167    22.108509            0            0            0    9407.7938    559.82439    1341.2546     440.7852    514.10818   -179.36012    430.00583    18.227678    23.345167    22.108509           90           90           90 
  359500    268.60212   -4252.6414   -3792.2666   -4252.6414            0    908.30574    18.082028    23.676617    21.909193            0            0            0    9379.7913    561.57428    944.56783    1218.7751     652.2878    488.22733   -108.95338    18.082028    23.676617    21.909193           90           90           90 
  360000    252.56372   -4245.0241   -3812.1386   -4245.0241            0     757.4579     17.96393    23.499843    22.353581            0            0            0    9436.5536    1775.9554   -294.15919    790.57751   -969.38031    564.27305   -433.42676     17.96393    23.499843    22.353581           90           90           90 
  360500    257.80237   -4256.6024   -3814.7379   -4256.6024            0    969.81521    18.310063    23.389755    21.938888            0            0            0    9395.7208   -1093.3631    1798.8523    2203.9564    236.89152    610.65704    149.64892    18.310063    23.389755    21.938888           90           90           90 
  361000    254.35339   -4246.5116   -3810.5586   -4246.5116            0    2339.4795     18.01089    23.479092      21.9328            0            0            0    9274.9284    2123.4913    1672.2385    3222.7087    1195.3088   -148.16053    224.40111     18.01089    23.479092      21.9328           90           90           90 
  361500    256.71052   -4238.7455   -3798.7524   -4238.7455            0    2571.9451    17.892333    23.452439    22.231092            0            0            0    9328.5854    1728.4729    3970.8931    2016.4694   -131.00525   -16.479817     202.1883    17.892333    23.452439    22.231092           90           90           90 
  362000    244.40137   -4240.5593   -3821.6637   -4240.5593            0     1561.325    18.218722    23.509711    22.033382            0            0            0    9437.2693    2104.2025    1495.8933    1083.8794   -469.67866     -263.256    301.98607    18.218722    23.509711    22.033382           90           90           90 
  362500    256.63841   -4232.4175   -3792.5481   -4232.4175            0    -20.60983    18.187329    23.513846    22.203176            0            0            0    9495.2782     630.5302    958.54491   -1650.9046    1065.9135    535.32599     514.2016    18.187329    23.513846    22.203176           90           90           90 
  363000    256.59708    -4233.353   -3793.5544    -4233.353            0    1164.4981     17.99968    23.563264    22.227813            0            0            0     9427.509     404.1177    2179.0184    910.35807   -55.142884    653.89878   -127.99331     17.99968    23.563264    22.227813           90           90           90 
  363500    258.60387   -4210.5183   -3767.2801   -4210.5183            0      2004.67     18.08687     23.54083    21.857049            0            0            0    9306.2933      477.756    1865.4723    3670.7818   -119.87194   -154.64797   -145.19775     18.08687     23.54083    21.857049           90           90           90 
  364000    259.84316   -4244.5898   -3799.2275   -4244.5898            0    2526.5644    18.037582    23.375222    22.136726            0            0            0    9333.5623    1684.1874    2983.7337    2911.7721    1057.4252    285.85966   -56.948873    18.037582    23.375222    22.136726           90           90           90 
  364500    251.09085   -4257.4769   -3827.1158   -4257.4769            0    1251.0491     18.04286    23.462058     22.17178            0            0            0     9385.816    1079.4586    1937.2254    736.46319   -230.52416   -47.964113    1205.8015     18.04286    23.462058     22.17178           90           90           90 
  365000    253.29398   -4250.0136   -3815.8764   -4250.0136            0    1189.4405    18.127786     23.63763    22.007561            0            0            0    9430.1937    3572.7514    439.41542   -443.84523    433.16926   -483.93579     -350.627    18.127786     23.63763    22.007561           90           90           90 
  365500    250.56644   -4243.8796   -3814.4173   -4243.8796            0   -1039.8461    18.196378    23.464701    22.260765            0            0            0    9504.7362   -1987.7543   -424.93842   -706.84567   -159.27671   -318.75486   -167.47694    18.196378    23.464701    22.260765           90           90           90 
  366000    261.21915   -4223.4123   -3775.6916   -4223.4123            0    278.08733    18.149425    23.369991    22.280544            0            0            0    9450.3355     1085.016    427.62974   -678.38379    170.46092   -236.68767   -817.09657    18.149425    23.369991    22.280544           90           90           90 
  366500    261.69363   -4262.0857   -3813.5518   -4262.0857            0    1634.6949    18.059844    23.774638     21.76492            0            0            0    9345.1222    892.65054    439.36199     3572.072    13.204481   -79.081875    408.13856    18.059844    23.774638     21.76492           90           90           90 
  367000    253.58339   -4256.7502   -3822.1169   -4256.7502            0    1786.2973    18.003126    23.542773    22.143475            0            0            0    9385.3681    1030.3196    2250.5733    2077.9991    439.29383    -375.0372   -631.21644    18.003126    23.542773    22.143475           90           90           90 
  367500    253.81023   -4236.4946   -3801.4725   -4236.4946            0     1084.198    18.225816    23.269348    22.293841            0            0            0    9454.8818    2493.3175    1276.2455   -516.96905    70.010956   -897.92481   -429.32478    18.225816    23.269348    22.293841           90           90           90 
  368000    245.88856   -4217.7675   -3796.3229   -4217.7675            0    508.17218     18.19244     23.67209    21.974359            0            0            0    9463.3253   -286.91743    488.67995     1322.754     284.1955    790.62156   -229.27071     18.19244     23.67209    21.974359           90           90           90 
  368500    254.30473     -4246.49   -3810.6204     -4246.49            0    1870.2105    17.939222    23.565597    22.185735            0            0            0    9378.9856    1352.8832    2602.2406    1655.5077   -391.33165   -141.40659    495.65941    17.939222    23.565597    22.185735           90           90           90 
  369000    267.36461   -4259.8327   -3801.5789   -4259.8327            0    912.82955     18.14311    23.480223    22.100635            0            0            0    9414.9648    243.62482    1101.7107    1393.1531   -646.08646    150.01279    615.56288     18.14311    23.480223    22.100635           90           90           90 
  369500    241.85432   -4231.0356   -3816.5056   -4231.0356            0    1032.7503    18.202977    23.514187    22.116098            0            0            0    9466.3132    629.96851     441.4479    2026.8345   -93.490522   -792.67936    391.56085    18.202977    23.514187    22.116098           90           90           90 
  370000    259.80836   -4239.5022   -3794.1996   -4239.5022            0    1300.6454    17.789477    23.621592    22.293215            0            0            0    9367.9603    2325.6744    980.38805    595.87365   -180.89155     492.1235    132.70643    17.789477    23.621592    22.293215           90           90           90 
  370500    250.77675   -4263.0828   -3833.2601   -4263.0828            0    1416.9615    18.022517    23.573595    21.789689            0            0            0    9257.4696    500.11458    547.65656    3203.1135   -1076.9558    2.3765018    759.68942    18.022517    23.573595    21.789689           90           90           90 
  371000    255.55158    -4256.291   -3818.2843    -4256.291            0    1100.5541    18.370087    23.338824    21.913575            0            0            0    9395.1434    725.13713    1549.6695    1026.8557    469.22492   -490.81814    87.211735    18.370087    23.338824    21.913575           90           90           90 
  371500    247.89624   -4254.5487    -3829.663   -4254.5487            0      273.977    18.000851    23.530172    22.404624            0            0            0    9489.7723    511.86099    17.588209     292.4818   -1471.4991   -357.09117    282.47895    18.000851    23.530172    22.404624           90           90           90 
  372000    254.30657    -4258.083   -3822.2103    -4258.083            0    396.27696    18.133835    23.741049    21.963665            0            0            0    9455.7153    981.27681   -1304.6121    1512.1661   -84.013867    -688.6704   -328.30792    18.133835    23.741049    21.963665           90           90           90 
  372500    242.56409   -4262.4831   -3846.7365   -4262.4831            0    474.94109    18.200462    23.451903    22.229106            0            0            0     9488.171     471.8373    835.32416    117.66183   -21.493623   -88.597155     812.7575    18.200462    23.451903    22.229106           90           90           90 
  373000    241.27463   -4281.9334    -3868.397   -4281.9334            0    1342.2295    18.108118    23.318194    22.161482            0            0            0    9357.6552    1137.3269    1406.7615    1482.6001   -252.89605    891.74886     349.9682    18.108118    23.318194    22.161482           90           90           90 
  373500    244.27525   -4245.1334   -3826.4539   -4245.1334            0    1551.9902    18.057196    23.684074     21.89177            0            0            0    9362.4088    2420.4546    352.93054    1882.5855    535.09881    224.76788    620.32916    18.057196    23.684074     21.89177           90           90           90 
  374000     258.1482   -4224.9196   -3782.4624   -4224.9196            0    1812.8847    18.043682    23.370312    22.127087            0            0            0    9330.6935    2188.2461    538.27911    2712.1289    535.66607    17.677324   -491.76659    18.043682    23.370312    22.127087           90           90           90 
  374500    275.90701   -4227.3469   -3754.4517   -4227.3469            0    1805.4285    18.149848    23.410163    22.127408            0            0            0    9401.7342    1548.6745     1926.809     1940.802    397.65745   -16.804151   -211.66156    18.149848    23.410163    22.127408           90           90           90 
  375000    272.28615    -4241.031   -3774.3418    -4241.031            0   -303.18009    18.229251    23.651321    22.071574            0            0            0    9516.0677   -1268.5598   -1129.9694    1488.9889    322.07576    531.31758    406.81367    18.229251    23.651321    22.071574           90           90           90 
  375500     264.6402   -4262.0978   -3808.5135   -4262.0978            0    1297.7795    18.099348    23.474799    22.179455            0            0            0    9423.5751    1527.4501    856.98163    1508.9066    663.09425   -449.59211   -316.71151    18.099348    23.474799    22.179455           90           90           90 
  376000    264.36531   -4240.4266   -3787.3135   -4240.4266            0    1723.0437    18.053206    23.519502    22.119178            0            0            0    9391.8564    3168.1449    729.54124    1271.4449   -335.76383   -812.29618   -47.788888    18.053206    23.519502    22.119178           90           90           90 
  376500    264.01983   -4233.1334   -3780.6125   -4233.1334            0     1847.034    18.073934    23.452154    22.034191            0            0            0    9339.6918    2344.6769    1735.2813    1461.1439   -47.134826   -582.63807    262.67198    18.073934    23.452154    22.034191           90           90           90 
  377000    244.89973   -4267.7632   -3848.0134   -4267.7632            0    1257.9349    18.125492     23.37225    22.003967            0            0            0    9321.6181    2721.4545     1300.287   -247.93675   -237.24593    443.67782   -165.77391    18.125492     23.37225    22.003967           90           90           90 
  377500     261.4707   -4280.9314   -3832.7796   -4280.9314            0   -205.58054    18.089808    23.486762      22.3052            0            0            0    9476.8328   -422.73992    269.09667   -463.09838   -222.27335    215.65677    1039.2989    18.089808    23.486762      22.3052           90           90           90 
  378000    245.00112   -4238.5389   -3818.6153   -4238.5389            0    380.61113    18.179582    23.686068    22.079974            0            0            0    9507.6992    885.35743    359.47421   -102.99824   -127.51799   -327.97069     748.9413    18.179582    23.686068    22.079974           90           90           90 
  378500    254.98827   -4270.3848   -3833.3437   -4270.3848            0    931.18421    18.174479     23.44008    22.083611            0            0            0    9407.8665    -197.6788    1228.0314    1763.2001     90.31757    -104.6305    140.78481    18.174479     23.44008    22.083611           90           90           90 
  379000    251.05536    -4248.776   -3818.4757    -4248.776            0    2265.2748    18.058497    23.400014    22.108666            0            0            0    9342.4385    3542.8687    2199.9221    1053.0337    454.06817    105.28416    324.99414    18.058497    23.400014    22.108666           90           90           90 
  379500    246.93769   -4250.9703   -3827.7275   -4250.9703            0    2118.0084    17.993996    23.534484    21.989439            0            0            0    9312.0747    1005.6919    2108.3943     3239.939    131.78072     302.6937    19.838406    17.993996    23.534484    21.989439           90           90           90 
  380000    249.11104   -4272.9022   -3845.9344   -4272.9022            0    1545.1289     18.03419    23.486315    21.990636            0            0            0    9314.2802   -373.92791     3482.167    1527.1476    329.36043    304.39939    152.29826     18.03419    23.486315    21.990636           90           90           90 
  380500    276.49868   -4267.5831   -3793.6739   -4267.5831            0    690.58547    18.075401    23.413776    22.191168            0            0            0    9391.5991     1307.356    915.91373   -151.51336   -313.11046   -95.550678   -336.88501    18.075401    23.413776    22.191168           90           90           90 
  381000     257.3333   -4262.5018   -3821.4413   -4262.5018            0    484.33875    18.141694    23.614711    22.119804            0            0            0    9476.3643    1220.8092    988.79422   -756.58722    420.01015   -12.417255     -252.448    18.141694    23.614711    22.119804           90           90           90 
  381500    266.72075   -4221.6948   -3764.5446   -4221.6948            0   -474.44564    18.184177    23.661122    22.269874            0            0            0    9581.7919   -475.85841    411.81917   -1359.2977    214.00258   -272.09902    525.20452    18.184177    23.661122    22.269874           90           90           90 
  382000    255.33898   -4260.0799   -3822.4376   -4260.0799            0     1082.945    18.029486    23.506797    22.229533            0            0            0    9421.2198    1409.8196    2126.9193   -287.90399    245.16554    397.98712   -504.79217    18.029486    23.506797    22.229533           90           90           90 
  382500    262.40553   -4232.0626   -3782.3085   -4232.0626            0    1318.7564    18.144377    23.441237    21.943221            0            0            0    9333.0366    1582.9034    483.73374     1889.632   -338.98067     608.4313    90.657671    18.144377    23.441237    21.943221           90           90           90 
  383000    256.88683   -4224.0358   -3783.7406   -4224.0358            0    2808.0106    17.999445    23.466061    21.991072            0            0            0    9288.5022    1340.7272    2079.5105    5003.7942   -28.218785   -431.27197    282.85666    17.999445    23.466061    21.991072           90           90           90 
  383500    265.88209   -4215.0566   -3759.3438   -4215.0566            0    2206.4289    17.940624    23.337967    22.345008            0            0            0    9355.8034    1093.6344    3206.2378    2319.4146   -854.66651   -613.05302   -316.77861    17.940624    23.337967    22.345008           90           90           90 
  384000    256.86412   -4275.9809   -3835.7246   -4275.9809            0    2121.3722    18.227741    23.462751    21.771052            0            0            0      9310.89    1443.2286    2418.6538    2502.2342    44.071929    1086.1449     655.7693    18.227741    23.462751    21.771052           90           90           90 
  384500    249.08033   -4239.5005   -3812.5853   -4239.5005            0    1423.8128    18.110979    23.543607    21.994815            0            0            0    9378.5398    997.51158    1062.4055    2211.5213   -535.97901    87.059015   -327.37926    18.110979    23.543607    21.994815           90           90           90 
  385000    248.82914   -4244.1808   -3817.6962   -4244.1808            0    941.58949    17.937264    23.429492      22.2564            0            0            0    9353.4969    1810.3432    1747.7983   -733.37294    193.29332    316.53823   -151.04656    17.937264    23.429492      22.2564           90           90           90 
  385500    260.72544   -4259.5792   -3812.7047   -4259.5792            0    1265.1205    18.132821    23.555722     21.95326            0            0            0    9376.9331    619.27158    791.83764    2384.2522   -1216.7872   -611.97745    455.83905    18.132821    23.555722     21.95326           90           90           90 
  386000    257.41609   -4246.9626   -3805.7602   -4246.9626            0    227.69361    18.125021    23.520996    22.160471            0            0            0    9447.4199    1276.1972    212.47518   -805.59159    456.54481    524.37469   -496.17407    18.125021    23.520996    22.160471           90           90           90 
  386500    265.28901    -4262.801   -3808.1047    -4262.801            0    59.450718     18.08233    23.481005    22.267179            0            0            0    9454.4499   -771.21989    1302.2876   -352.71554   -5.0803857   -319.27927   -668.22631     18.08233    23.481005    22.267179           90           90           90 
  387000    258.71136   -4262.7583   -3819.3358   -4262.7583            0    1097.2508    18.113394    23.500144    22.055238            0            0            0    9388.1952    1859.8526    1145.4897    286.41004    626.09503   -598.85321    280.14096    18.113394    23.500144    22.055238           90           90           90 
  387500    256.27402   -4237.3702   -3798.1253   -4237.3702            0    1553.9144    17.995055     23.59456    21.947845            0            0            0    9318.7347    2561.3276   -390.77389    2491.1895    656.68437   -23.041427   -767.53853    17.995055     23.59456    21.947845           90           90           90 
  388000     245.3106   -4261.0013   -3840.5474   -4261.0013            0    1307.3976    18.008713    23.340926    22.236601            0            0            0    9346.9336     1363.965    1615.2303    942.99749    223.30706    383.92384    1030.3607    18.008713    23.340926    22.236601           90           90           90 
  388500    246.15054   -4283.0322   -3861.1386   -4283.0322            0    299.24166    18.269954    23.570805    21.935807            0            0            0    9446.3814   -599.98656   -463.80876    1961.5203    718.92584    486.36008    171.27687    18.269954    23.570805    21.935807           90           90           90 
  389000    264.56211   -4279.9942   -3826.5438   -4279.9942            0    557.56623        18.01    23.561614    22.219628            0            0            0    9428.7811     387.8285   -985.57112    2270.4413    365.20248     -56.9452   -115.46534        18.01    23.561614    22.219628           90           90           90 
  389500    253.03985   -4268.2985   -3834.5968   -4268.2985            0    1238.6086    18.065851    23.460473     22.14545            0            0            0    9385.9814     1371.513    1444.5268    899.78589    557.90231     217.6193    235.12607    18.065851    23.460473     22.14545           90           90           90 
  390000    239.98148   -4276.6956   -3865.3755   -4276.6956            0    1302.8443    18.222872    23.409762    21.894726            0            0            0    9340.1391    2290.9139    636.17943    981.43946    95.795116    632.46117   -70.028082    18.222872    23.409762    21.894726           90           90           90 
  390500    248.20769   -4216.9705    -3791.551   -4216.9705            0    1668.6965    17.931718    23.512626    22.318777            0            0            0    9410.0824    2517.3419    968.74238    1520.0051   -199.97379    92.872076   -888.66109    17.931718    23.512626    22.318777           90           90           90 
  391000     255.9919   -4249.2355   -3810.4741   -4249.2355            0    764.60836    17.909862     23.74016    22.179712            0            0            0    9430.4361     891.4691    518.20069    884.15529    196.29326   -153.30792    367.55271    17.909862     23.74016    22.179712           90           90           90 
  391500    263.97676   -4235.2613   -3782.8142   -4235.2613            0    272.61304    18.404705    23.527117    21.815051            0            0            0    9446.1276   -1610.4828    1298.9097    1129.4122   -208.44672    403.87322   -37.137945    18.404705    23.527117    21.815051           90           90           90 
  392000    230.58969   -4273.1938    -3877.971   -4273.1938            0    1172.6452    18.059833    23.354671    22.263292            0            0            0    9390.2441    1886.3024   -88.693165    1720.3265   -223.02399    -301.5738   -212.73884    18.059833    23.354671    22.263292           90           90           90 
  392500    243.20486   -4243.2486   -3826.4038   -4243.2486            0    1202.0988    18.031565    23.609539    22.102251            0            0            0    9409.3026    1949.1336    2478.8628   -821.70002    1530.9633   -188.95861    345.41466    18.031565    23.609539    22.102251           90           90           90 
  393000    256.40596   -4231.9486   -3792.4776   -4231.9486            0    1124.1476    18.197949    23.596463    21.937855            0            0            0    9420.2735    1020.2055    1472.9663    879.27115   -755.71866   -350.15935   -237.56096    18.197949    23.596463    21.937855           90           90           90 
  393500    263.90763   -4235.1393   -3782.8106   -4235.1393            0    843.18941    18.064695    23.423548    22.427639            0            0            0    9490.0142    563.66109    1153.6304     812.2768   -123.93002   -552.09991   -142.90915    18.064695    23.423548    22.427639           90           90           90 
  394000    250.33948   -4273.2479   -3844.1746   -4273.2479            0    489.96339    18.128715    23.620861    22.054286            0            0            0    9443.9954   -6.8162309    474.26137     1002.445   -582.25529    592.22127   -140.62478    18.128715    23.620861    22.054286           90           90           90 
  394500    252.35487   -4257.1016    -3824.574   -4257.1016            0    850.83468    18.193709    23.607203     21.94593            0            0            0    9425.8337    1356.9725   -272.14241    1467.6739    691.68438   -917.07856   -304.87427    18.193709    23.607203     21.94593           90           90           90 
  395000    244.01582   -4224.9451   -3806.7104   -4224.9451            0    1675.1207    18.028042    23.245118    22.316582            0            0            0    9352.0751    979.27785    2270.6999    1775.3843    1525.1921    192.39958    13.888924    18.028042    23.245118    22.316582           90           90           90 
  395500    239.62585   -4263.0646   -3852.3541   -4263.0646            0    2005.7762    18.076502    23.545499    21.909262            0            0            0    9325.0261    2924.2945    1550.4812    1542.5529    -456.8847   -506.68282    194.44149    18.076502    23.545499    21.909262           90           90           90 
  396000    251.84289   -4264.9308   -3833.2807   -4264.9308            0    1894.7793    18.116855    23.461539     21.97609            0            0            0    9340.9215    1472.3231     2576.982     1635.033    795.07076    138.18449    739.26998    18.116855    23.461539     21.97609           90           90           90 
  396500    236.58179   -4240.1264   -3834.6333   -4240.1264            0    1173.9913    17.955812     23.17858    22.543901            0            0            0    9382.5512    2161.4541    1511.4451   -150.92523   -667.67568    62.376384   -466.81076    17.955812     23.17858    22.543901           90           90           90 
  397000    259.81984   -4286.4475   -3841.1252   -4286.4475            0    271.56056    18.283755    23.819886    21.572518            0            0            0    9395.1972    541.30703   -2357.5129    2630.8876   -406.35652    1237.3158   -124.92821    18.283755    23.819886    21.572518           90           90           90 
  397500    256.18776   -4247.1863   -3808.0893   -4247.1863            0    796.34102    18.091475    23.587863    22.042216            0            0            0    9406.2786    1755.1594    1034.1513   -400.28766   -496.36913    795.75237    700.14578    18.091475    23.587863    22.042216           90           90           90 
  398000    261.27209   -4267.7559   -3819.9445   -4267.7559            0    613.88717     17.99978    23.394329    22.343279            0            0            0    9408.5934    830.43209    287.16985    724.05957    788.17942   -263.35926   -45.332058     17.99978    23.394329    22.343279           90           90           90 
  398500    265.34198   -4242.7151    -3787.928   -4242.7151            0    1610.9671    18.149087    23.617841    21.913892            0            0            0    9393.2202    850.65583    2122.9789    1859.2667   -338.74488   -350.13364    118.71057    18.149087    23.617841    21.913892           90           90           90 
  399000     237.5963   -4277.0909   -3869.8589   -4277.0909            0      1062.29    18.064686    23.492716    22.115015            0            0            0    9385.3587    1744.9937    1043.6919    398.18428    834.89087    806.15424     940.6719    18.064686    23.492716    22.115015           90           90           90 
  399500    259.00659   -4287.0697   -3843.1412   -4287.0697            0    1922.6972    18.028058    23.301441     22.26616            0            0            0    9353.5626    2553.9607    2259.7918    954.33902    64.991017   -876.56684   -167.62722    18.028058    23.301441     22.26616           90           90           90 
  400000    253.61936   -4248.2227   -3813.5278   -4248.2227            0    1649.8649    18.155284    23.625051     21.84005            0            0            0    9367.6238    550.66243    399.74115    3999.1911     441.1884    94.620234   -153.97847    18.155284    23.625051     21.84005           90           90           90 
  400500    251.02177   -4222.8212   -3792.5784   -4222.8212            0    2100.0425    18.020513    23.361877    22.202017            0            0            0    9346.8939    2241.1649    2506.7623    1552.2003   -943.58265    125.71821    305.12656    18.020513    23.361877    22.202017           90           90           90 
  401000    260.96556   -4268.1464   -3820.8604   -4268.1464            0     1092.171    18.119795     23.39099    22.173386            0            0            0    9397.9662    1291.7711    1603.0588    381.68292   -168.94832   -1278.0225   -863.38438    18.119795     23.39099    22.173386           90           90           90 
  401500    259.45764   -4248.8673   -3804.1658   -4248.8673            0    686.08295    18.180281     23.69859    21.873929            0            0            0    9424.3168    318.70794   -274.09876    2013.6397    479.23795    253.63902    181.30887    18.180281     23.69859    21.873929           90           90           90 
  402000    252.69472    -4233.253   -3800.1429    -4233.253            0   -284.72804     17.94043    23.515787    22.388433            0            0            0    9445.3071    531.83385    412.76934   -1798.7873   -770.22551    307.80412   -286.66681     17.94043    23.515787    22.388433           90           90           90 
  402500    266.01355   -4268.1027   -3812.1646   -4268.1027            0    1252.4115    18.183749    23.384806    21.949642            0            0            0    9333.5026     976.2818    1291.6301    1489.3228    222.96474   -65.521273    159.80902    18.183749    23.384806    21.949642           90           90           90 
  403000    259.08955   -4251.3606     -3807.29   -4251.3606            0    1825.6848    18.209336    23.463989    21.829128            0            0            0    9326.7927    2021.5485    1165.6597    2289.8463    139.32897    254.21734    741.77506    18.209336    23.463989    21.829128           90           90           90 
  403500    260.80087   -4260.6783   -3813.6746   -4260.6783            0    638.68219        17.87    23.474877    22.317061            0            0            0    9361.9189    605.05964    496.23403    814.75291   -178.06162    9.2196738    1020.9552        17.87    23.474877    22.317061           90           90           90 
  404000    246.16745   -4274.6396   -3852.7171   -4274.6396            0    354.72719    18.156129    23.531085    22.053121            0            0            0    9421.8302    711.20078    362.71749   -9.7367076      106.458   -954.73426   -854.55434    18.156129    23.531085    22.053121           90           90           90 
  404500    253.41699   -4269.1315   -3834.7835   -4269.1315            0    1214.8772    18.132923    23.441898    22.040206            0            0            0    9368.6336    1331.7316     584.4157    1728.4844    690.59101    147.42595    278.91648    18.132923    23.441898    22.040206           90           90           90 
  405000    265.16622   -4265.7607   -3811.2749   -4265.7607            0    357.49112     18.00939    23.473682    22.130455            0            0            0    9355.5768    931.06927   -130.88481    272.28889    121.21679   -291.70582    351.94231     18.00939    23.473682    22.130455           90           90           90 
  405500    260.82083   -4223.1417   -3776.1037   -4223.1417            0    1386.4666    18.138222    23.531003    22.001503            0            0            0    9390.4736    1283.6126     422.5158    2453.2714    158.83192     572.6516    802.46823    18.138222    23.531003    22.001503           90           90           90 
  406000     260.6444   -4241.4282   -3794.6926   -4241.4282            0    473.85983    18.304408    23.442367    21.915858            0            0            0    9404.0651   -134.85837    2005.8103   -449.37241    470.97762    1032.8937     -157.785    18.304408    23.442367    21.915858           90           90           90 
  406500    277.56727    -4270.231   -3794.4903    -4270.231            0   -202.41027     17.92211    23.423686    22.543735            0            0            0    9463.9024    227.50948    193.21596   -1027.9563     224.4501   -288.53007   -54.536042     17.92211    23.423686    22.543735           90           90           90 
  407000    259.70502   -4279.0777   -3833.9522   -4279.0777            0    563.67703    18.079744    23.671571    22.029678            0            0            0    9428.1723   -864.03587    13.760873    2541.3061    133.87219    -220.8082   -93.656689    18.079744    23.671571    22.029678           90           90           90 
  407500    263.22927   -4248.1504   -3796.9845   -4248.1504            0   -42.010893    18.263877    23.423608    22.015348            0            0            0    9418.2954    215.85757    677.24511   -1019.1354    955.48382   -363.58048    235.35673    18.263877    23.423608    22.015348           90           90           90 
  408000    248.12193   -4236.3725      -3811.1   -4236.3725            0    1958.7206    17.957901    23.359619    22.209346            0            0            0    9316.5921    790.61931    3071.2204     2014.322   -107.82674   -24.869192   -155.04397    17.957901    23.359619    22.209346           90           90           90 
  408500    251.88616   -4246.6041   -3814.8798   -4246.6041            0    2173.7651    17.983252    23.601387    21.900447            0            0            0    9295.1999     2206.253    2780.5698    1534.4726    139.09524   -399.00565   -108.62713    17.983252    23.601387    21.900447           90           90           90 
  409000    246.12487   -4217.2384   -3795.3888   -4217.2384            0    1741.8578    18.162771     23.49731    22.013727            0            0            0    9394.9359     1525.841    1578.7975     2120.935    52.143118    19.320732    357.60651    18.162771     23.49731    22.013727           90           90           90 
  409500    250.83587   -4243.6638   -3813.7397   -4243.6638            0   -558.92696    18.054131    23.446475    22.383099            0            0            0    9474.8944   -1033.7001    859.05531   -1502.1361    512.57277    236.80987    215.98244    18.054131    23.446475    22.383099           90           90           90 
  410000    247.97301   -4239.4095   -3814.3923   -4239.4095            0      792.984    18.112998    23.582796    22.002691            0            0            0    9398.5627    98.480678    1193.5433    1086.9281    224.69735    375.83927    476.93623    18.112998    23.582796    22.002691           90           90           90 
  410500    248.69722   -4258.7259   -3832.4674   -4258.7259            0     1930.798    18.115745    23.448521    22.063634            0            0            0    9372.3539    4049.7456     236.9484    1505.7001   -145.25849    828.36792   -460.96676    18.115745    23.448521    22.063634           90           90           90 
  411000    263.79067   -4246.7568   -3794.6287   -4246.7568            0    1080.0366    18.058523    23.398673    22.270965            0            0            0    9410.4955    1602.3833    1853.4022   -215.67572   -183.05043   -545.20309    511.34678    18.058523    23.398673    22.270965           90           90           90 
  411500    255.41668   -4243.2347   -3805.4592   -4243.2347            0    826.70869    18.162193    23.660837    21.843799            0            0            0    9386.9946    408.59229    -229.3894    2300.9232    518.49207    70.042298   -34.039809    18.162193    23.660837    21.843799           90           90           90 
  412000    245.26866   -4216.1609   -3795.7788   -4216.1609            0    1017.7679    17.958441    23.540298    22.251407            0            0            0     9406.717    2383.5302      448.713    221.06051   -669.16695    18.047636   -858.28912    17.958441    23.540298    22.251407           90           90           90 
  412500    257.41331   -4229.4851   -3788.2875   -4229.4851            0   -1244.8109    18.258205    23.284672    22.310028            0            0            0    9484.8029   -1450.2117   -1168.5433   -1115.6778    214.97844   -40.925654    703.17492    18.258205    23.284672    22.310028           90           90           90 
  413000    255.00001   -4288.0524   -3850.9911   -4288.0524            0   -344.91132    18.279244    23.668225    21.812054            0            0            0    9436.7069   -1432.0719    -544.0364    941.37436    763.53067    297.52732   -531.37013    18.279244    23.668225    21.812054           90           90           90 
  413500    251.18582   -4256.0923   -3825.5684   -4256.0923            0    1560.5837    17.905505    23.540153    22.355273            0            0            0    9422.7104    3379.7658    1420.7104   -118.72501     178.2639    738.45364     124.1747    17.905505    23.540153    22.355273           90           90           90 
  414000    253.97338   -4268.5913   -3833.2896   -4268.5913            0    352.69288    18.098874    23.444884    22.157562            0            0            0    9402.0293   -833.37738    1138.6369     752.8191   -656.90765    453.47631    581.06489    18.098874    23.444884    22.157562           90           90           90 
  414500    247.36966   -4265.9577   -3841.9746   -4265.9577            0    1962.5178    18.151289    23.518259    21.901121            0            0            0    9349.2977    2354.7479    1025.6048    2507.2007    -530.9332    86.648396    897.93954    18.151289    23.518259    21.901121           90           90           90 
  415000    246.23888   -4242.6781   -3820.6331   -4242.6781            0    1901.3946     17.96892     23.48478    22.180898            0            0            0    9360.2532    1573.5053    2618.6822    1511.9962   -230.45676    370.16104   -315.04179     17.96892     23.48478    22.180898           90           90           90 
  415500    262.26906   -4250.8123   -3801.2921   -4250.8123            0      1913.22    18.023412    23.414356    22.124971            0            0            0    9336.8834     1620.232      1050.45    3068.9779    98.842852   -280.53149   -70.225034    18.023412    23.414356    22.124971           90           90           90 
  416000    260.48362   -4247.0111   -3800.5511   -4247.0111            0    968.37586     18.22538    23.589372      21.9042            0            0            0    9417.1689    2155.5448    491.10236    258.48047   -438.31872   -642.28963    270.84585     18.22538    23.589372      21.9042           90           90           90 
  416500    260.75944   -4248.8375   -3801.9048   -4248.8375            0    1299.2489    18.027205    23.565412     22.23236            0            0            0    9444.7181    1755.4348    2109.6307    32.681187   -125.14883    -271.7294   -348.49287    18.027205    23.565412     22.23236           90           90           90 
  417000    243.84702   -4235.1137   -3817.1683   -4235.1137            0    185.92017    18.116131     23.47516    22.224064            0            0            0    9451.4294   -684.12707    472.79074    769.09683   -190.68194    407.22356    1076.1539    18.116131     23.47516    22.224064           90           90           90 
  417500    259.85762   -4230.4273   -3785.0402   -4230.4273            0    1172.4027    18.254586    23.506232    21.912947            0            0            0    9402.7696    1493.6685    576.87188    1446.6678    293.06818    994.54534    353.08432    18.254586    23.506232    21.912947           90           90           90 
  418000    257.14995   -4265.8665   -3825.1202   -4265.8665            0    1722.0578    17.878197    23.514111    22.087226            0            0            0    9285.2471    1135.7333    2739.9431    1290.4969    243.20176   -616.67873    212.29608    17.878197    23.514111    22.087226           90           90           90 
  418500    258.31516   -4218.0207   -3775.2773   -4218.0207            0    2171.5893    17.987867    23.556861    22.142966            0            0            0     9382.809    1720.0475    2306.4412    2488.2791    -48.54111   -156.82105    -183.7609    17.987867    23.556861    22.142966           90           90           90 
  419000    253.91188    -4236.612   -3801.4157    -4236.612            0    302.69844    18.333173    23.367104    21.990763            0            0            0    9420.6924   -763.52909    15.113937    1656.5105    1152.7073   -282.47231   -584.12029    18.333173    23.367104    21.990763           90           90           90 
  419500    259.04374   -4242.5818   -3798.5897   -4242.5818            0    779.95547    18.082649    23.519102    22.128393            0            0            0    9410.9329    250.01887    2162.1747   -72.327111    68.600404   -307.68233   -427.45129    18.082649    23.519102    22.128393           90           90           90 
  420000    258.48157   -4270.6465    -3827.618   -4270.6465            0    846.23105    18.042526    23.551733      22.0655            0            0            0    9376.3534     1035.447    246.13325    1257.1129   -115.55333   -33.893543     557.7073    18.042526    23.551733      22.0655           90           90           90 
  420500    259.20397   -4244.6828    -3800.416   -4244.6828            0    771.24814     18.17118    23.428916    22.038085            0            0            0    9382.2973    309.62154    646.87879    1357.2441    82.246814   -169.99354    107.94182     18.17118    23.428916    22.038085           90           90           90 
  421000    267.65472   -4211.7746   -3753.0236   -4211.7746            0    1122.9162    18.022673    23.366286    22.243248            0            0            0     9367.142    1293.1546    2317.1433    -241.5492   -416.40304    386.49439   -161.27998    18.022673    23.366286    22.243248           90           90           90 
  421500    265.85656   -4252.9508   -3797.2818   -4252.9508            0    1632.6702    17.977034    23.598321    21.943127            0            0            0    9308.8847    2441.2531    38.432746    2418.3248    70.484696     402.1295    371.16534    17.977034    23.598321    21.943127           90           90           90 
  422000    261.57383   -4242.8078   -3794.4792   -4242.8078            0    1436.5969    18.062469    23.533503    21.983873            0            0            0    9344.7548    2042.4029    1211.9371    1055.4507    -291.3326   -249.23051     513.4525    18.062469    23.533503    21.983873           90           90           90 
  422500    247.89288   -4257.2352   -3832.3553   -4257.2352            0    1299.4507    18.042583    23.109008    22.395046            0            0            0    9337.5293    1559.2498    577.60956    1761.4926   -436.04432   -635.32327    696.80539    18.042583    23.109008    22.395046           90           90           90 
  423000    265.98845   -4242.5461    -3786.651   -4242.5461            0    2261.6428    18.070509    23.628695    21.845604            0            0            0    9327.6918    2220.4078    2013.0494    2551.4711   -958.38354    17.490752   -252.78062    18.070509    23.628695    21.845604           90           90           90 
  423500    257.73779   -4246.2517   -3804.4979   -4246.2517            0    948.17219    18.030985    23.699123    21.956813            0            0            0    9382.5534    1372.7819    438.14472      1033.59   -631.75439   -718.68298    -862.7725    18.030985    23.699123    21.956813           90           90           90 
  424000    256.65854   -4273.7502   -3833.8463   -4273.7502            0    48.127532    18.105205    23.361466    22.379984            0            0            0    9465.9305   -618.15788    907.75777   -145.21729    935.10021    -248.7411   -574.30343    18.105205    23.361466    22.379984           90           90           90 
  424500    263.46643   -4238.8562   -3787.2837   -4238.8562            0    409.81694    18.130855    23.597894    22.046282            0            0            0    9432.5014     545.9547   -519.57232    1203.0684   -374.40456    15.888066   -257.84125    18.130855    23.597894    22.046282           90           90           90 
  425000    257.24935   -4212.8855   -3771.9689   -4212.8855            0    1188.7601    18.051266    23.582137     22.10254            0            0            0    9408.7737    1961.9702    615.40647    988.90361    488.04035   -65.326601    658.33779    18.051266    23.582137     22.10254           90           90           90 
  425500    257.64248    -4256.159   -3814.5686    -4256.159            0     868.5801    18.007123    23.333505    22.333067            0            0            0    9383.6688   -413.04523    1609.9179    1408.8676      1050.08    298.28976   -950.94455    18.007123    23.333505    22.333067           90           90           90 
  426000     241.1874   -4216.9321   -3803.5452   -4216.9321            0    1941.9431    18.287055    23.280441    21.929291            0            0            0    9335.9728    1840.6033    2583.8673    1401.3587   -1515.0583    589.99429   -1359.6578    18.287055    23.280441    21.929291           90           90           90 
  426500    248.11123   -4235.1686   -3809.9145   -4235.1686            0    1190.5574    17.949197       23.752    21.881228            0            0            0    9328.6093    1635.6952    902.38888     1033.588   -92.117113     119.4415   -199.83363    17.949197       23.752    21.881228           90           90           90 
  427000    251.62188   -4252.2141   -3820.9428   -4252.2141            0    1432.5461    17.843495    23.491826    22.388179            0            0            0    9384.5939    2051.2534    1740.9179    505.46706    186.09064   -1118.0686   -279.04087    17.843495    23.491826    22.388179           90           90           90 
  427500    255.23341   -4226.8436   -3789.3822   -4226.8436            0    -27.31439    18.292241    23.387451    22.021984            0            0            0    9421.2004   -529.56775   -828.90895    1276.5335   -270.45855    818.44287   -149.76655    18.292241    23.387451    22.021984           90           90           90 
  428000    263.29985   -4246.4475   -3795.1606   -4246.4475            0    1931.0658    18.073232     23.53881    22.072854            0            0            0    9390.2859    1598.9051    2020.9809    2173.3113    450.56626     189.0992   -54.499438    18.073232     23.53881    22.072854           90           90           90 
  428500    267.73577   -4230.3023   -3771.4123   -4230.3023            0    2095.2406    17.791579    23.555903    22.258637            0            0            0    9328.5216    3849.4729    510.94671    1925.3023   -899.68309    349.09385   -42.149773    17.791579    23.555903    22.258637           90           90           90 
  429000    243.25331   -4227.3402   -3810.4124   -4227.3402            0    1919.0502    18.181635    23.378586    21.990832            0            0            0    9347.4429    1536.8142    2318.0187    1902.3176    825.88514    46.181415   -442.17157    18.181635    23.378586    21.990832           90           90           90 
  429500    265.90979   -4258.0063    -3802.246   -4258.0063            0    295.10722     18.12052    23.414587    22.172631            0            0            0    9407.5037    563.76988    942.17746   -620.62568   -586.66058    841.89613   -355.64885     18.12052    23.414587    22.172631           90           90           90 
  430000    257.20287   -4269.5745   -3828.7376   -4269.5745            0    1265.0792    17.814385    23.661398    22.235553            0            0            0    9372.5802    2638.1172    778.86856    378.25173    229.19492    418.30656   -401.85438    17.814385    23.661398    22.235553           90           90           90 
  430500    248.43504   -4244.1599   -3818.3507   -4244.1599            0    704.54236    18.145314    23.545459    21.984885            0            0            0    9392.8168    1057.6588    114.56408    941.40425   -39.717711   -378.04592    415.78386    18.145314    23.545459    21.984885           90           90           90 
  431000    252.32339   -4206.2656    -3773.792   -4206.2656            0    318.76453    18.281151    23.270399    22.213355            0            0            0    9449.7763    1485.3835    1020.1015   -1549.1914    559.75084   -18.259408    166.60441    18.281151    23.270399    22.213355           90           90           90 
  431500    267.84222   -4262.1587   -3803.0863   -4262.1587            0    443.61629    17.860103    23.792047     22.22451            0            0            0    9443.8259    835.35969   -442.73626    938.22544    569.71932    52.270742    646.20114    17.860103    23.792047     22.22451           90           90           90 
  432000    259.60501   -4252.6538   -3807.6996   -4252.6538            0   -183.22626    18.073265    23.757522     21.99826            0            0            0    9445.5245   -608.77628   -506.02749      565.125    249.70982    102.03237   -855.41467    18.073265    23.757522     21.99826           90           90           90 
  432500     251.0807    -4242.219   -3811.8753    -4242.219            0    2105.8917    18.255959    23.069299    22.141429            0            0            0    9324.9115    1340.8371    3270.4252    1706.4128   -18.640406   -497.23383   -402.46657    18.255959    23.069299    22.141429           90           90           90 
  433000     258.0166   -4254.9766   -3812.7449   -4254.9766            0    778.95668    18.001882    23.571687    22.048136            0            0            0    9355.7899    1144.3279   -355.18397    1547.7261   -347.87551   -136.08198    78.750508    18.001882    23.571687    22.048136           90           90           90 
  433500    255.71432   -4255.4148   -3817.1292   -4255.4148            0    571.08397    18.062367    23.614952    22.155743            0            0            0    9450.3533    972.23454    447.89065    293.12671    523.42624   -529.42014    773.27425    18.062367    23.614952    22.155743           90           90           90 
  434000    252.38896   -4237.3599   -3804.7738   -4237.3599            0    501.16766    18.249684    23.358102    22.180822            0            0            0     9455.196    1547.4043   -39.533585   -4.3677403   -508.53877     44.44286   -117.91952    18.249684    23.358102    22.180822           90           90           90 
  434500    262.00975   -4230.0847   -3781.0089   -4230.0847            0    1669.3921    18.087244    23.518826    22.035508            0            0            0    9373.7012    930.79359    1840.8623    2236.5204   -390.10255     4.448318   -62.622766    18.087244    23.518826    22.035508           90           90           90 
  435000     246.8191   -4240.4762   -3817.4367   -4240.4762            0    1261.4876    17.850456    23.607067    22.158969            0            0            0    9337.7209    1779.0958   -670.58896    2675.9561    54.958576   -206.88467    611.96131    17.850456    23.607067    22.158969           90           90           90 
  435500    232.00078    -4260.607   -3862.9656    -4260.607            0    72.749902    18.242656    23.343098    22.108289            0            0            0    9414.5962   -1123.9561    226.58753    1115.6183    279.34053   -410.40171    -695.0967    18.242656    23.343098    22.108289           90           90           90 
  436000     239.1511   -4244.1364   -3834.2396   -4244.1364            0    1030.8252    18.213097     23.39722    22.039608            0            0            0    9391.8669    1071.2263      1874.63    146.61938   -656.75505    226.71125   -288.20147    18.213097     23.39722    22.039608           90           90           90 
  436500    262.65509    -4264.995   -3814.8131    -4264.995            0    401.44368    17.985659    23.665871    22.145538            0            0            0    9426.1657    26.392742    781.39839    396.53989     1169.934     213.1091    869.25752    17.985659    23.665871    22.145538           90           90           90 
  437000    256.72309   -4249.9816    -3809.967   -4249.9816            0    1649.4809    18.065156    23.530804    22.089762            0            0            0     9390.085     1759.943     3233.722   -45.222366   -775.72986    -576.3603    484.73739    18.065156    23.530804    22.089762           90           90           90 
  437500    260.55995   -4251.6006   -3805.0098   -4251.6006            0    698.70872    18.145196    23.376355    22.132644            0            0            0    9387.9716    416.12672    376.70095    1303.2985    206.03587   -2.6167783    609.54532    18.145196    23.376355    22.132644           90           90           90 
  438000    258.07015   -4273.7227   -3831.3993   -4273.7227            0    1758.3769    18.082992    23.512488    22.073889            0            0            0    9385.2904     1834.568    2076.6738     1363.889    1443.8845   -90.620303    29.450189    18.082992    23.512488    22.073889           90           90           90 
  438500    264.41351   -4248.5735   -3795.3778   -4248.5735            0    1068.0818    18.017705    23.722533    22.070153            0            0            0     9433.348    1479.1623    1437.6549    287.42819   -346.62851   -642.25145    797.92571    18.017705    23.722533    22.070153           90           90           90 
  439000     256.6556   -4211.7795   -3771.8805   -4211.7795            0    1766.9014     18.13106    23.312744    22.210245            0            0            0    9387.9326    3391.6214    1211.9501    697.13277   -68.020293    78.932292    515.98081     18.13106    23.312744    22.210245           90           90           90 
  439500    271.06024    -4263.874    -3799.286    -4263.874            0    2143.4754    18.146806    23.409782    21.972903            0            0            0    9334.3697    3499.8982    575.42086    2355.1073    590.07045    196.83118    36.947905    18.146806    23.409782    21.972903           90           90           90 
  440000    249.78568   -4247.3055   -3819.1814   -4247.3055            0    1062.4498    17.912939    23.760567    22.103123            0            0            0    9407.5662    2254.1583     502.4026    430.78849   -689.61059    679.26278     1219.664    17.912939    23.760567    22.103123           90           90           90 
  440500    234.44211   -4261.7351   -3859.9094   -4261.7351            0    1010.3289     18.12657    23.336403    22.320786            0            0            0    9441.8921    50.154127    3313.9459   -333.11344     1165.538   -380.33929    919.13141     18.12657    23.336403    22.320786           90           90           90 
  441000     242.1392   -4275.2915   -3860.2732   -4275.2915            0    422.26184    18.309674    23.488813    22.059891            0            0            0    9487.3524    1667.9453   -411.27224    10.112428    179.44558   -975.03655    760.69857    18.309674    23.488813    22.059891           90           90           90 
  441500    248.65874   -4286.5351   -3860.3425   -4286.5351            0    1225.2578    17.959507    23.667409    22.154398            0            0            0    9416.8375    1802.2914    1490.3931    383.08898    269.57517    886.66638   -173.31975    17.959507    23.667409    22.154398           90           90           90 
  442000    247.56319   -4244.5612   -3820.2464   -4244.5612            0    145.50698    18.089756    23.526246    22.191776            0            0            0    9444.4657    584.80537    1086.9765    -1235.261    694.87059   -748.16105    378.64162    18.089756    23.526246    22.191776           90           90           90 
  442500    248.18008   -4241.9966   -3816.6245   -4241.9966            0     574.2023    18.198592    23.459978      22.0743            0            0            0    9424.3695   -321.58857    1810.4754     233.7201   -79.605623    282.53879    782.44704    18.198592    23.459978      22.0743           90           90           90 
  443000    259.11802   -4252.6741   -3808.5547   -4252.6741            0    1019.2248     18.11467    23.523067    22.068857            0            0            0    9403.8179    1629.8638    645.96234     781.8481   -354.39724   -820.83301    379.08093     18.11467    23.523067    22.068857           90           90           90 
  443500    264.24524   -4259.9514   -3807.0441   -4259.9514            0   -94.014273    17.954753    23.599237    22.251794            0            0            0    9428.4964    -289.6024   -18.256544    25.816127    44.414176    13.117201    164.96182    17.954753    23.599237    22.251794           90           90           90 
  444000    244.06061    -4260.061   -3841.7495    -4260.061            0    1304.6691    18.132036    23.323739    22.029096            0            0            0    9316.2565    1843.6044    1500.9508    569.45196    702.61919    443.01662   -1064.8527    18.132036    23.323739    22.029096           90           90           90 
  444500    240.78399   -4275.1632   -3862.4677   -4275.1632            0    2177.8077     18.17705    23.292671     21.90322            0            0            0     9273.649     2128.907    1979.6597    2424.8563     -553.431   -23.150594   -215.62748     18.17705    23.292671     21.90322           90           90           90 
  445000    250.51706   -4265.5521   -3836.1744   -4265.5521            0    1756.2049    17.876204    23.621672     22.17049            0            0            0      9361.84    3143.2654    630.58113    1494.7682   -425.05662    189.01534   -399.55136    17.876204    23.621672     22.17049           90           90           90 
  445500    263.91777   -4244.5577   -3792.2117   -4244.5577            0   -75.488047    18.135825    23.527402    22.132372            0            0            0    9443.6366    519.30237    392.06128   -1137.8278   -394.21388   -392.97791   -502.89025    18.135825    23.527402    22.132372           90           90           90 
  446000    258.40277   -4240.1588   -3797.2653   -4240.1588            0    592.19733     18.32901    23.289441     22.05776            0            0            0     9415.849    750.14233     205.6227    820.82695   -437.50383    545.10947   -75.690585     18.32901    23.289441     22.05776           90           90           90 
  446500    256.85925    -4244.943    -3804.695    -4244.943            0    942.21752    17.870943    23.714858    22.228672            0            0            0    9420.6639    2523.8063    391.69816   -88.851913   -175.93974     545.0866    309.39102    17.870943    23.714858    22.228672           90           90           90 
  447000    266.69715   -4250.6736   -3793.5638   -4250.6736            0    1269.2412    17.875788    23.797922      22.0786            0            0            0     9392.382    1905.4848    511.35835    1390.8804    1662.3462    285.30122    50.267908    17.875788    23.797922      22.0786           90           90           90 
  447500    265.02399   -4238.0906   -3783.8486   -4238.0906            0    1849.0708    18.345176    23.162764    22.024156            0            0            0    9358.6143    524.30618    4030.6561    992.25016    547.34559    1347.2726    621.66591    18.345176    23.162764    22.024156           90           90           90 
  448000    260.35547   -4267.9125   -3821.6721   -4267.9125            0    1103.5122    18.128971    23.486285    22.150352            0            0            0    9431.2253    1224.1589    385.15535    1701.2223    873.83885    160.35342    77.050008    18.128971    23.486285    22.150352           90           90           90 
  448500    243.86728   -4256.4988   -3838.5186   -4256.4988            0    1338.8741    17.955659     23.62304    22.116001            0            0            0    9380.8837     1746.981    378.17823     1891.463   -1179.0872    1341.5018    385.56719    17.955659     23.62304    22.116001           90           90           90 
  449000    257.71092   -4262.5081   -3820.8003   -4262.5081            0    2067.8611    18.130855    23.324253    22.041358            0            0            0    9321.0402    2249.0274    2126.4083    1828.1475    783.69754     172.4484    395.89391    18.130855    23.324253    22.041358           90           90           90 
  449500    257.95447   -4241.5972   -3799.4721   -4241.5972            0    3095.5105    18.031004    23.320771    22.114111            0            0            0    9298.9154      3461.09    2792.1847    3033.2567   -176.75178    -1310.859   -946.36087    18.031004    23.320771    22.114111           90           90           90 
  450000    243.29718   -4241.6903   -3824.6872   -4241.6903            0    925.14796    17.949675    23.767208    21.910409            0            0            0    9347.2793    1151.7325   -406.17788    2029.8893    511.11181     270.6742    1016.4113    17.949675    23.767208    21.910409           90           90           90 
  450500    255.71023   -4252.5717   -3814.2931   -4252.5717            0   -4.5233096    18.173762    23.691816    22.020843            0            0            0    9481.5015   -93.340461   -800.17515    879.94568   -350.27562   -321.23206    62.364701    18.173762    23.691816    22.020843           90           90           90 
  451000    252.49814   -4265.0706   -3832.2975   -4265.0706            0   -458.94702    18.231203    23.227895    22.404219            0            0            0    9487.5699   -788.31776    146.48292   -735.00624     229.1356   -525.47466   -287.53795    18.231203    23.227895    22.404219           90           90           90 
  451500    258.93383   -4241.6303   -3797.8266   -4241.6303            0    1075.3947    18.075751    23.695854    22.004894            0            0            0    9425.1443    892.89486    2132.2635    201.02582   -234.37651    302.23583     282.6241    18.075751    23.695854    22.004894           90           90           90 
  452000    246.73816    -4233.954   -3811.0532    -4233.954            0    536.87975    18.030108    23.643485    22.107712            0            0            0     9424.398    943.81473    883.65408   -216.82957   -543.15901    151.46132   -169.64436    18.030108    23.643485    22.107712           90           90           90 
  452500    256.72723    -4240.014   -3799.9923    -4240.014            0     1272.506    18.087257    23.340576    22.194978            0            0            0    9369.9874    2700.7692    348.56137    768.18734    69.344992    189.89584    233.41886    18.087257    23.340576    22.194978           90           90           90 
  453000    265.74874   -4290.1806   -3834.6963   -4290.1806            0    2132.1964    18.145417    23.377231    21.951055            0            0            0    9311.4093    1996.5256    2700.4075    1699.6562    186.66722    676.50081    -232.5314    18.145417    23.377231    21.951055           90           90           90 
  453500    258.04897    -4241.523   -3799.2359    -4241.523            0    543.51729    17.969001    23.710712    22.174444            0            0            0    9447.5952    867.14556    951.45872   -188.05242    447.82235    185.03043   -482.20376    17.969001    23.710712    22.174444           90           90           90 
  454000    274.49145   -4222.7093   -3752.2403   -4222.7093            0    1235.8033    17.975862    23.391368    22.411036            0            0            0    9423.3927    1963.4508    580.54113    1163.4179   -523.53796   -1255.4428    415.08581    17.975862    23.391368    22.411036           90           90           90 
  454500    254.87113   -4237.8565   -3801.0161   -4237.8565            0    1379.2157    18.366556    23.465242    21.783068            0            0            0    9387.9726    1229.5515      1239.64    1668.4557    27.012251    522.66209   -331.07378    18.366556    23.465242    21.783068           90           90           90 
  455000    259.57524   -4265.0914   -3820.1883   -4265.0914            0    1804.6341    17.995481    23.475152    22.178951            0            0            0    9369.4234    1855.5294    2411.0057    1147.3672    224.29143   -229.15112    385.65618    17.995481    23.475152    22.178951           90           90           90 
  455500    252.22669   -4284.4822   -3852.1743   -4284.4822            0    1746.5859     17.85645    23.479121    22.186659            0            0            0      9301.84    1870.4723    2955.2625     414.0229   -1144.3557    100.34554   -369.38316     17.85645    23.479121    22.186659           90           90           90 
  456000    243.88183   -4238.9812   -3820.9761   -4238.9812            0    2138.8029     18.15445    23.434067    21.889793            0            0            0    9312.6315    1418.0541    1078.1823    3920.1725     69.25932    334.04066    437.19922     18.15445    23.434067    21.889793           90           90           90 
  456500    255.26433   -4264.6258   -3827.1115   -4264.6258            0    1451.0199    18.067629    23.410375    22.173064            0            0            0    9378.5406    1849.9403    1590.1396    912.97982    650.72837    737.56419   -388.55047    18.067629    23.410375    22.173064           90           90           90 
  457000     252.2961   -4266.3468   -3833.9199   -4266.3468            0   -97.497965    18.083968    23.601475    22.168677            0            0            0    9461.7756   -634.18159   -377.16343    718.85112     48.72748   -605.01376   -146.65688    18.083968    23.601475    22.168677           90           90           90 
  457500    265.37398   -4271.7292   -3816.8873   -4271.7292            0     577.5954    18.162101    23.503065    22.074196            0            0            0    9422.7023    19.554851    515.57392    1197.6574    9.1311004    354.35451    70.689107    18.162101    23.503065    22.074196           90           90           90 
  458000    256.18886   -4264.4334   -3825.3345   -4264.4334            0    896.19328    18.111776     23.44708    22.137406            0            0            0    9401.0538    1550.7813    1210.0564   -72.257868   -534.56868   -179.92562    605.28346    18.111776     23.44708    22.137406           90           90           90 
  458500    255.10918   -4255.8029   -3818.5545   -4255.8029            0    44.651568    17.969172    23.645773    22.204954            0            0            0    9434.7728    405.07732    485.65582   -756.77844    -104.2968   -1211.0907   -120.85292    17.969172    23.645773    22.204954           90           90           90 
  459000    257.36918   -4255.9052   -3814.7832   -4255.9052            0    1745.5166    18.088242    23.463804    21.926386            0            0            0    9305.9743    632.31438    1357.4271    3246.8083    437.39774    961.91145    635.56012    18.088242    23.463804    21.926386           90           90           90 
  459500    250.02605   -4299.0826   -3870.5465   -4299.0826            0    1922.7769    18.110087    23.200502    22.040803            0            0            0    9260.7318    939.29337    3403.4442    1425.5932     165.4481   -301.09576   -1.6922626    18.110087    23.200502    22.040803           90           90           90 
  460000    271.13627   -4239.3777   -3774.6594   -4239.3777            0    2593.9523    17.848362    23.566498    22.054801            0            0            0     9276.765    2566.7191    2892.0198    2323.1179   -507.46331     -455.062    21.784525    17.848362    23.566498    22.054801           90           90           90 
  460500    253.12064    -4235.453   -3801.6129    -4235.453            0     665.6478    18.095506    23.513867    21.996753            0            0            0    9359.5153   -191.00017    761.20681    1426.7368   -967.20676    372.97672    301.78755    18.095506    23.513867    21.996753           90           90           90 
  461000    257.94259   -4242.7044   -3800.5997   -4242.7044            0    867.57517    18.292544    23.151227     22.19092            0            0            0      9397.74   -344.97999    2508.6185    439.08699   -190.13517   -216.75719    515.57804    18.292544    23.151227     22.19092           90           90           90 
  461500    252.70744   -4246.1465   -3813.0146   -4246.1465            0    68.860258    18.014672    23.680575    22.120341            0            0            0    9436.4882     133.5999    3.5343522    69.446523    815.87755   -28.967703    139.73416    18.014672    23.680575    22.120341           90           90           90 
  462000    263.62765   -4237.3113   -3785.4626   -4237.3113            0   -188.56705     18.04323    23.732086    22.062774            0            0            0    9447.3569   -628.89411    716.15283   -652.95987   -98.297934   -65.912128   -154.98701     18.04323    23.732086    22.062774           90           90           90 
  462500    260.63861   -4214.0269   -3767.3013   -4214.0269            0    1017.6501    18.201344    23.359763    22.176366            0            0            0    9428.9271    161.02235    1834.1175    1057.8106    -74.92146    625.37808    8.8827006    18.201344    23.359763    22.176366           90           90           90 
  463000     259.9041   -4263.4066   -3817.9399   -4263.4066            0    163.75192    18.100443    23.539651    22.135953            0            0            0    9431.6446   -92.590639    1202.2248   -618.37842    96.648824    543.95186    486.52709    18.100443    23.539651    22.135953           90           90           90 
  463500    252.48784   -4216.2644   -3783.5089   -4216.2644            0    420.63608    18.000098    23.682615    22.183837            0            0            0    9456.7349     734.4276   -281.54018    809.02082    1202.8017    -418.3163   -141.66287    18.000098    23.682615    22.183837           90           90           90 
  464000    277.71007   -4265.3317   -3789.3461   -4265.3317            0    358.25301    18.207372    23.344549     22.20231            0            0            0    9436.9341     1461.748    374.51444   -761.50342   -351.10376   -59.252088   -125.57498    18.207372    23.344549     22.20231           90           90           90 
  464500    247.79017   -4290.7145   -3866.0106   -4290.7145            0    2607.5691    18.026398    23.512398    21.895516            0            0            0    9280.2795    2470.0645    2570.3283    2782.3144   -522.41532   -667.00193   -388.46994    18.026398    23.512398    21.895516           90           90           90 
  465000    254.38445   -4269.7665   -3833.7603   -4269.7665            0    3334.4898    17.793659    23.583865    21.964692            0            0            0    9217.3347    3484.1941    3279.0464    3240.2289   -986.13872    576.88929    492.49701    17.793659    23.583865    21.964692           90           90           90 
  465500    235.58854   -4225.4112   -3821.6205   -4225.4112            0    2134.7265    18.079936    23.305177     22.17555            0            0            0    9343.8034    1673.1604    2695.7765    2035.2426   -251.27095   -317.37452   -476.49944    18.079936    23.305177     22.17555           90           90           90 
  466000    267.96959   -4275.9757    -3816.685   -4275.9757            0    1081.0999    18.197716    23.468198    21.938139            0            0            0    9369.0684    975.90759    380.32344    1887.0688   -41.124656   -185.25062   -500.22149    18.197716    23.468198    21.938139           90           90           90 
  466500    245.68134   -4261.9747   -3840.8853   -4261.9747            0    2129.6546    17.959769    23.628694    22.083597            0            0            0    9371.5249    1838.9766    1168.8115    3381.1757    399.47215   -167.90871    157.57474    17.959769    23.628694    22.083597           90           90           90 
  467000     243.2684   -4221.6421   -3804.6884   -4221.6421            0    439.90341    18.013125    23.448057    22.192968            0            0            0    9373.7058     1525.452   -4.1171589   -201.62462   -348.20503   -370.42496   -29.101092    18.013125    23.448057    22.192968           90           90           90 
  467500     253.2397   -4256.8893   -3822.8451   -4256.8893            0    2185.1264    18.307591     23.29087    21.929214            0            0            0    9350.6105    195.88299    3561.7694    2797.7268   -45.884685   -600.19508    889.72102    18.307591     23.29087    21.929214           90           90           90 
  468000     247.0532   -4248.9512   -3825.5105   -4248.9512            0    356.59741    17.900889    23.856935    22.152181            0            0            0    9460.3184    1502.6931    792.24555   -1225.1465   -1175.2288    30.468292    1129.3822    17.900889    23.856935    22.152181           90           90           90 
  468500    262.19625   -4276.2447   -3826.8493   -4276.2447            0    953.83185    17.912453    23.545822    22.296269            0            0            0    9403.7509     1576.992   -200.17628    1484.6798   -467.93598   -571.35178   -334.35328    17.912453    23.545822    22.296269           90           90           90 
  469000    256.03915   -4238.8258   -3799.9835   -4238.8258            0    1411.2988    18.461442    23.205639    21.912349            0            0            0      9387.46    8.4262289    2658.4921     1566.978     911.4386   -372.11941   -15.989514    18.461442    23.205639    21.912349           90           90           90 
  469500    251.63359   -4238.7819   -3807.4905   -4238.7819            0    1547.4806    17.988464    23.501922    22.135663            0            0            0    9358.1497    2949.0769    1455.2325    238.13241   -1592.7975   -155.85973    22.681443    17.988464    23.501922    22.135663           90           90           90 
  470000     259.6659   -4245.9273   -3800.8688   -4245.9273            0    2074.2471    18.013395    23.700827    22.050197            0            0            0    9413.9425    2031.9769    1997.6901    2193.0745    188.72989    200.71677   -702.67578    18.013395    23.700827    22.050197           90           90           90 
  470500    257.06958   -4260.6016   -3819.9932   -4260.6016            0    1289.6035    18.172136    23.389171    22.063023            0            0            0    9377.4731    1324.6277    273.48326    2270.6994     137.0951    88.910236    585.79692    18.172136    23.389171    22.063023           90           90           90 
  471000    269.64129   -4225.0116   -3762.8557   -4225.0116            0    985.66278    18.083981    23.602209     22.15961            0            0            0    9458.2071    1598.3209   0.45584463    1358.2116    858.97276    257.11743    609.99391    18.083981    23.602209     22.15961           90           90           90 
  471500     264.4552   -4229.5557   -3776.2885   -4229.5557            0   -182.81437    18.025043    23.761121     22.13172            0            0            0      9478.91    872.52608   -1740.0583    319.08914   -853.16173    28.593992   -79.569358    18.025043    23.761121     22.13172           90           90           90 
  472000    265.66235   -4212.9644   -3757.6282   -4212.9644            0    162.07102    18.392051    23.318624    22.110772            0            0            0    9482.8086    767.07598    596.95947   -877.82238    1183.8516    229.82102   -463.03842    18.392051    23.318624    22.110772           90           90           90 
  472500    256.97108   -4222.7203   -3782.2807   -4222.7203            0    760.09257    18.167127    23.375669    22.254552            0            0            0    9450.8122    -406.4254    2391.0084    295.69476   -192.76868   -111.20946   -247.22403    18.167127    23.375669    22.254552           90           90           90 
  473000    255.28852   -4230.7836   -3793.2278   -4230.7836            0    1417.8631    17.880109     23.83256    21.989287            0            0            0    9370.2681    3144.8313    394.87559    713.88243    228.75214    106.06459    272.15036    17.880109     23.83256    21.989287           90           90           90 
  473500    262.16076   -4264.0294   -3814.6948   -4264.0294            0    1487.4565    18.247563     23.39453     22.00744            0            0            0    9394.8255    -99.10623     1250.006    3311.4698   -799.02976    -134.2897   -835.65144    18.247563     23.39453     22.00744           90           90           90 
  474000    251.27299     -4263.98   -3833.3067     -4263.98            0    1442.8789    18.125183     23.27049    22.178282            0            0            0    9354.3974    1520.2197    2905.7871    -97.37022   -96.205667    -373.7507   -14.682696    18.125183     23.27049    22.178282           90           90           90 
  474500     268.7411   -4259.8086   -3799.1955   -4259.8086            0    1926.8958    17.879234     23.62766    22.007743            0            0            0    9297.0494    2199.9665    1131.9973    2448.7236   -766.28436    58.619817   -119.42803    17.879234     23.62766    22.007743           90           90           90 
  475000    262.78908   -4250.2887   -3799.8772   -4250.2887            0    980.12562    18.195782    23.487117    21.956622            0            0            0    9383.5234    1265.4279    1733.5488   -58.599929   -163.97216   -394.60919   -299.55938    18.195782    23.487117    21.956622           90           90           90 
  475500    240.45168   -4267.9541   -3855.8282   -4267.9541            0    1224.7108    18.110823    23.313538    22.186109            0            0            0     9367.582   -213.87601    1510.9111    2377.0972    559.20508   -483.53714    115.65148    18.110823    23.313538    22.186109           90           90           90 
  476000    266.26754   -4248.9939   -3792.6204   -4248.9939            0     639.3935    17.983629    23.757256    22.148598            0            0            0    9462.8042    1996.7371    701.63535     -780.192    84.448734   -507.37506   -136.76613    17.983629    23.757256    22.148598           90           90           90 
  476500    247.46399    -4264.837   -3840.6922    -4264.837            0    -81.24153    18.161071    23.487192     22.10396            0            0            0     9428.501    176.21827   -128.19203   -291.75084    801.73883   -383.16548    698.22948    18.161071    23.487192     22.10396           90           90           90 
  477000    262.00485   -4245.0874   -3796.0201   -4245.0874            0    493.37401     18.30133     23.21384    22.166657            0            0            0    9417.3744    760.06223    -196.9935    917.05331   -38.494695   -296.49853    515.68752     18.30133     23.21384    22.166657           90           90           90 
  477500    258.81258   -4235.8985   -3792.3025   -4235.8985            0    450.39386    17.600226    23.865652    22.312585            0            0            0    9372.1979     2696.471   -150.17267   -1195.1168    1398.0305   -1320.7894   -130.24236    17.600226    23.865652    22.312585           90           90           90 
  478000     249.7823    -4248.077   -3819.9587    -4248.077            0    1037.6346    17.936946    23.729385    21.983178            0            0            0    9356.7592     1600.603    1348.0036    164.29707   -684.41538   -405.41687    92.609496    17.936946    23.729385    21.983178           90           90           90 
  478500    251.72586    -4233.882   -3802.4325    -4233.882            0   -551.73272    18.286299    23.366542    22.144298            0            0            0    9461.9835   -365.51485    152.94172    -1442.625    500.23879    228.15293    609.20628    18.286299    23.366542    22.144298           90           90           90 
  479000    250.15458   -4243.8823   -3815.1259   -4243.8823            0    1092.4992    18.010202    23.484599     22.23825            0            0            0    9405.9435    2080.2146     923.2387    274.04423   -643.15627   -78.428272    551.53797    18.010202    23.484599     22.23825           90           90           90 
  479500    240.18064    -4296.937   -3885.2756    -4296.937            0    191.73317    18.040992    23.644043    22.005037            0            0            0    9386.5121   -666.30648   -790.11106    2031.6171    246.60526    136.28945   -82.596351    18.040992    23.644043    22.005037           90           90           90 
  480000    256.79644   -4258.0036   -3817.8633   -4258.0036            0    1894.1583    18.167294    23.313506    21.988559            0            0            0    9313.1067    2226.1584    2851.7853    604.53105    395.71981   -664.18864    -311.9502    18.167294    23.313506    21.988559           90           90           90 
  480500    266.77569   -4251.0624    -3793.818   -4251.0624            0    1653.3049     18.07643    23.323046    22.161512            0            0            0     9343.236    556.22055    3067.8825    1335.8116    931.77227    8.2247827   -260.07784     18.07643    23.323046    22.161512           90           90           90 
  481000    243.35381   -4264.0693   -3846.9692   -4264.0693            0   -172.51243    17.861184    23.844826    22.153821            0            0            0     9435.242   -340.63927   -1331.8996    1155.0016   -494.29926   -200.17733   -330.03861    17.861184    23.844826    22.153821           90           90           90 
  481500    243.49859   -4256.3483        -3839   -4256.3483            0   -503.92933     18.33081    23.669851    21.958058            0            0            0     9527.328   -357.60483   -1256.9121    102.72895    571.04479   -17.736948    91.045867     18.33081    23.669851    21.958058           90           90           90 
  482000    243.00235   -4271.3697    -3854.872   -4271.3697            0   -241.61822    18.249292    23.333647    22.284196            0            0            0    9489.1125   -199.35504    292.94928   -818.44889   -745.04314   -419.70445    458.76605    18.249292    23.333647    22.284196           90           90           90 
  482500    247.00872   -4219.2783   -3795.9138   -4219.2783            0    810.69274    17.964919    23.674252    22.170721            0            0            0    9429.3413    606.05735   -334.94113     2160.962    535.04782    659.91042   -9.7030243    17.964919    23.674252    22.170721           90           90           90 
  483000    243.96855   -4250.3159   -3832.1621   -4250.3159            0    710.14946    18.086156    23.498534     22.00123            0            0            0     9350.482    2483.3707   -53.121447   -299.80092   -640.39095   -984.54415    650.72913    18.086156    23.498534     22.00123           90           90           90 
  483500    265.65451   -4260.8711   -3805.5483   -4260.8711            0    2183.4331    18.183294    23.437845    22.047684            0            0            0    9396.2209     670.1127    2667.6526    3212.5341    41.961748     361.3536    -85.11724    18.183294    23.437845    22.047684           90           90           90 
  484000    263.44847   -4270.4713   -3818.9296   -4270.4713            0   -105.75695    18.105985    23.463843     22.20948            0            0            0    9435.3866    384.53443    38.386471   -740.19174    23.127788   -287.37559    231.47141    18.105985    23.463843     22.20948           90           90           90 
  484500    263.25756   -4249.4402   -3798.2258   -4249.4402            0    493.18858    18.127964    23.711303    21.950763            0            0            0     9435.264    1589.2073   -1171.0232    1061.3816   -24.244372   -594.35128    463.56854    18.127964    23.711303    21.950763           90           90           90 
  485000    270.23684    -4259.832   -3796.6553    -4259.832            0    1288.5687    18.087242    23.509009    22.116459            0            0            0    9404.2088    1248.5854    2553.8814    63.239203   -1455.4765   -970.42621   -29.909157    18.087242    23.509009    22.116459           90           90           90 
  485500    265.89107   -4236.9874   -3781.2592   -4236.9874            0    1447.0599    18.022793    23.173151    22.267663            0            0            0    9299.9756    1579.9357    2131.0587    630.18523   -30.182937     -1062.69   -131.71616    18.022793    23.173151    22.267663           90           90           90 
  486000    257.29793   -4259.7323   -3818.7324   -4259.7323            0    1897.6794     18.06858     23.56681    21.874512            0            0            0    9314.5784    3403.8762    1560.8367    728.32543   -310.80386   -53.078091    438.33464     18.06858     23.56681    21.874512           90           90           90 
  486500     248.4386    -4255.939   -3830.1237    -4255.939            0    1777.7399    18.075894    23.562453    22.030942            0            0            0    9383.2515    2574.6601    3182.3184   -423.75867    856.96061   -248.55674    357.45494    18.075894    23.562453    22.030942           90           90           90 
  487000     259.4605   -4231.7022   -3786.9957   -4231.7022            0    1024.8242    18.071605    23.405971    22.256039            0            0            0    9413.9363    1801.6279    1098.3243    174.52043    814.09672    14.132383   -190.62477    18.071605    23.405971    22.256039           90           90           90 
  487500    244.16501   -4249.2054   -3830.7149   -4249.2054            0   -147.35977    18.273696    23.524984    22.102564            0            0            0    9501.6363    -229.1665   -495.59905    282.68624   -373.11788    596.30497       780.13    18.273696    23.524984    22.102564           90           90           90 
  488000    263.48361   -4244.2335   -3792.6316   -4244.2335            0   -776.76648    18.114331     23.78792    22.100075            0            0            0    9522.9725    -494.6088   -1423.7835   -411.90713    225.38765   -531.73545     607.7616    18.114331     23.78792    22.100075           90           90           90 
  488500    265.19864   -4244.4873   -3789.9459   -4244.4873            0    1004.6157     18.03979    23.408952    22.217532            0            0            0    9382.2987    703.95281    1539.1035    770.79061   -113.85702    323.19903    729.90862     18.03979    23.408952    22.217532           90           90           90 
  489000    249.49074   -4266.5561   -3838.9375   -4266.5561            0    762.57929     18.19498    23.448911    21.982662            0            0            0    9378.9567   -912.18697    806.61127    2393.3136   -688.00086    818.80267   -237.51601     18.19498    23.448911    21.982662           90           90           90 
  489500    254.03056    -4229.163   -3793.7633    -4229.163            0    1665.5708    17.938336    23.601434    22.012936            0            0            0    9319.6266    2852.4011    1758.7876     385.5236   -658.08938   -699.52723    87.248817    17.938336    23.601434    22.012936           90           90           90 
  490000    255.10787   -4234.8805   -3797.6344   -4234.8805            0    2344.4225    17.950984    23.344262     22.19422            0            0            0    9300.5428    1967.0254    3468.5325    1597.7095   -376.35945   -364.34215    435.25341    17.950984    23.344262     22.19422           90           90           90 
  490500    246.79742   -4245.8733   -3822.8709   -4245.8733            0   -503.57755     18.48956     23.24761    22.007102            0            0            0    9459.4904   -1460.8416   -212.92356    163.03251    799.95824    299.15475    206.04349     18.48956     23.24761    22.007102           90           90           90 
  491000    261.49445   -4243.1193   -3794.9268   -4243.1193            0   -977.39101    18.118125    23.687226    22.083948            0            0            0    9477.7263   -98.344345    -1179.714   -1654.1147   -349.23257   -105.67248    57.906147    18.118125    23.687226    22.083948           90           90           90 
  491500    258.84253   -4250.3839   -3806.7367   -4250.3839            0    350.22259    18.016717    23.534093    22.143421            0            0            0    9388.9677    634.36918    122.94334    293.35527    702.00349    29.434596   -165.48508    18.016717    23.534093    22.143421           90           90           90 
  492000    255.08958   -4219.4167   -3782.2019   -4219.4167            0    880.51164    18.262247    23.482733    21.946652            0            0            0    9411.7663   -749.14479    130.67925    3260.0005    730.95902    16.477468    76.420648    18.262247    23.482733    21.946652           90           90           90 
  492500     244.8397   -4253.8441   -3834.1972   -4253.8441            0   -106.27732    18.053907     23.41342    22.248037            0            0            0    9404.3278   -800.98907    775.69598   -293.53887    385.36309    283.72697    385.72945    18.053907     23.41342    22.248037           90           90           90 
  493000     242.1364   -4242.0626   -3827.0491   -4242.0626            0   -377.11978    17.984545    23.736067    22.145413            0            0            0    9453.4862    2165.8524   -1487.3769   -1809.8348   -255.94289   -116.90939   -248.31463    17.984545    23.736067    22.145413           90           90           90 
  493500     244.4984    -4241.092   -3822.0301    -4241.092            0    833.32245    18.311664    23.522312    21.954189            0            0            0    9456.3861    1144.4951    478.14091    877.33131   -338.56821   -469.67458    318.91103    18.311664    23.522312    21.954189           90           90           90 
  494000    255.11295   -4248.6028   -3811.3479   -4248.6028            0    195.61027    18.107164     23.27934    22.388197            0            0            0    9437.1359    956.95162    145.25731   -515.37814   -558.27203    247.89324   -167.91973    18.107164     23.27934    22.388197           90           90           90 
  494500    270.65601   -4243.4944   -3779.5992   -4243.4944            0    1562.5584    17.944305    23.691866      22.0481            0            0            0    9373.3989    2426.1808     899.5791    1361.9153   -368.17585     86.56014   -262.17276    17.944305    23.691866      22.0481           90           90           90 
  495000    260.40263   -4257.9488   -3811.6276   -4257.9488            0    2580.7024    18.121262    23.491833    21.865983            0            0            0    9308.3848    2657.8861    1254.2731    3829.9479   -308.97645   -464.35411   -313.41743    18.121262    23.491833    21.865983           90           90           90 
  495500    239.87181   -4266.2862   -3855.1541   -4266.2862            0     952.4764    18.131025    23.262699    22.186405            0            0            0    9357.7059    1959.7965    947.16055   -49.527873    974.59636   -699.28975   -828.98628    18.131025    23.262699    22.186405           90           90           90 
  496000    259.94936   -4237.5449   -3792.0006   -4237.5449            0     935.2283    18.055778    23.519806    22.112951            0            0            0    9390.6708    1057.9328    1423.6791    324.07305    842.74273   -491.75079   -682.82269    18.055778    23.519806    22.112951           90           90           90 
  496500    265.97787   -4247.8376   -3791.9606   -4247.8376            0     856.9521    18.163875    23.590806    21.964833            0            0            0    9411.9406    1534.2578    19.339542     1017.259   -773.03192     426.4402   -1431.3383    18.163875    23.590806    21.964833           90           90           90 
  497000    250.84743   -4250.5467   -3820.6028   -4250.5467            0    -2.553448    18.090492    23.410513    22.272713            0            0            0    9432.6657   -260.87508     1073.107   -819.89226   -484.34724    246.74559   -228.46777    18.090492    23.410513    22.272713           90           90           90 
  497500    260.91844    -4279.517   -3832.3117    -4279.517            0    833.85353    18.027173    23.678612    22.067119            0            0            0    9419.5358    359.36951    1498.6117    643.57936     166.9902    -583.1318   -633.07816    18.027173    23.678612    22.067119           90           90           90 
  498000    250.58392   -4249.8744   -3820.3822   -4249.8744            0     651.2845    18.181642    23.472821    22.023044            0            0            0    9398.8718    782.78402   -1092.4642    2263.5337   -458.18161   -530.37619    760.78293    18.181642    23.472821    22.023044           90           90           90 
  498500    242.58337    -4211.105   -3795.3255    -4211.105            0    2011.9715    18.048438    22.945348    22.345869            0            0            0    9254.0435     1661.577    3876.7899    497.54744   -674.24035    1210.0871    436.43031    18.048438    22.945348    22.345869           90           90           90 
  499000    249.52837   -4243.5069   -3815.8238   -4243.5069            0    414.72555    18.031908    23.743726    22.041455            0            0            0     9436.932    2097.4157    487.38551   -1340.6245    70.969743   -74.133271    1108.2822    18.031908    23.743726    22.041455           90           90           90 
  499500    248.02935   -4230.7399   -3805.6261   -4230.7399            0    -518.3097    18.178059    23.780638    22.021214            0            0            0    9519.4588   -856.51084   -641.12846    -57.28979    329.35954   -228.93387   -580.35422    18.178059    23.780638    22.021214           90           90           90 
  500000    260.59607   -4275.8934   -3829.2406   -4275.8934            0   -185.08311     18.21119    23.385927    22.298146            0            0            0     9496.458   -814.84121     226.1275    33.464384   -746.83483   -230.62685   -393.04473     18.21119    23.385927    22.298146           90           90           90 
Loop time of 3032.61 on 42 procs for 500000 steps with 864 atoms

Performance: 14.245 ns/day, 1.685 hours/ns, 164.874 timesteps/s
96.1% CPU use with 42 MPI tasks x 1 OpenMP threads

MPI task timing breakdown:
Section |  min time  |  avg time  |  max time  |%varavg| %total
---------------------------------------------------------------
Pair    | 48.083     | 65.593     | 95.984     | 125.4 |  2.16
Bond    | 0.59999    | 0.63966    | 0.74731    |   5.4 |  0.02
Kspace  | 1524.5     | 1552.2     | 1574.1     |  31.5 | 51.18
Neigh   | 7.872      | 8.2799     | 8.4792     |   4.8 |  0.27
Comm    | 371.15     | 406.98     | 440.56     |  78.8 | 13.42
Output  | 31.377     | 31.442     | 31.714     |   1.2 |  1.04
Modify  | 826.71     | 844.51     | 868.02     |  29.8 | 27.85
Other   |            | 122.9      |            |       |  4.05

Nlocal:        20.5714 ave          25 max          16 min
Histogram: 2 2 8 4 4 3 8 7 2 2
Nghost:        2042.38 ave        2140 max        1954 min
Histogram: 6 4 8 0 0 7 6 5 1 5
Neighs:        4879.62 ave        6364 max        3463 min
Histogram: 1 3 4 8 9 4 6 3 1 3

Total # of neighbors = 204944
Ave neighs/atom = 237.20370
Ave special neighs/atom = 2.0000000
Neighbor list builds = 6555
Dangerous builds = 0


write_restart   restart.equil
System init for write_restart ...
PPPM initialization ...
  extracting TIP4P info from pair style
  using 12-bit tables for long-range coulomb (../kspace.cpp:340)
  G vector (1/distance) = 0.37103342
  grid = 24 27 25
  stencil order = 5
  estimated absolute RMS force accuracy = 0.003236104
  estimated relative force accuracy = 9.7454312e-06
  using double precision FFTW3
  3d grid and FFT values/proc = 4032 480
Last active /omp style is kspace_style pppm/tip4p/omp
write_data   	water.equil.data nocoeff
System init for write_data ...
PPPM initialization ...
  extracting TIP4P info from pair style
  using 12-bit tables for long-range coulomb (../kspace.cpp:340)
  G vector (1/distance) = 0.37103342
  grid = 24 27 25
  stencil order = 5
  estimated absolute RMS force accuracy = 0.003236104
  estimated relative force accuracy = 9.7454312e-06
  using double precision FFTW3
  3d grid and FFT values/proc = 4032 480
Last active /omp style is kspace_style pppm/tip4p/omp
Total wall time: 0:50:32
