LAMMPS (30 Jul 2021)
Processor partition = 0
  using 2 OpenMP thread(s) per MPI task
using multi-threaded neighbor list subroutines
variable        pid world 0 1
variable        phase world IceVI Liquid

shell cd ${phase}
shell cd IceVI
include Restart.lmp
echo both
log log.lammps
#include		in.partitions
include		in.temp
variable        temperature equal 288.68
variable	tempDamp equal 100.0
include		in.pressure
variable        pressure equal 12500.0
variable        pressureDamp equal 1000.0 # This is 1 ps
include		in.seed
variable        seed equal 745823

units		real
atom_style	full
read_restart	restart.lmp.${pid}
read_restart	restart.lmp.0
Reading restart file ...
  restart file = 30 Jul 2021, LAMMPS = 30 Jul 2021
  restoring atom style full from restart
  orthogonal box = (-0.11762602 -0.025505589 -0.093354650) to (24.847627 24.755507 22.903355)
  4 by 4 by 2 MPI processor grid
  restoring pair style lj/cut/tip4p/long/omp from restart
  restoring bond style harmonic/omp from restart
  restoring angle style harmonic/omp from restart
  1920 atoms
  1280 bonds
  640 angles
Finding 1-2 1-3 1-4 neighbors ...
  special bond factors lj:    0        0        0       
  special bond factors coul:  0        0        0       
     2 = max # of 1-2 neighbors
     1 = max # of 1-3 neighbors
     1 = max # of 1-4 neighbors
     2 = max # of special neighbors
  special bonds CPU = 0.002 seconds
  read_restart CPU = 0.009 seconds
include 	in.setup
variable	out_freq equal 1000
variable	out_freq2 equal 10000
variable	out_freq3 equal 1000

timestep	2.0

neigh_modify    delay 7 every 1

include		in.tip4p
# This is TIP4P/Ice

# create groups ###
group ox type 2
640 atoms in group ox
group hy type 1
1280 atoms in group hy

# set charges - beside manually ###
set group ox charge -1.1794
Setting atom values ...
  640 settings made for charge
set group hy charge 0.5897
Setting atom values ...
  1280 settings made for charge

# ### TIP3P Potential Parameters ###
pair_style lj/cut/tip4p/long/omp 2 1 1 1 0.1577 8.5
pair_coeff 1 1*2 0.000 0.000
pair_coeff 2 2 0.21084 3.1668
bond_style  harmonic
bond_coeff  1 450 0.9572
angle_style harmonic
angle_coeff 1 55 104.52
kspace_style pppm/tip4p/omp 1.0e-5
pair_modify tail yes

thermo          ${out_freq}
thermo          1000
thermo_style    custom step temp pe etotal epair emol press lx ly lz vol pxx pyy pzz pxy pxz pyz enthalpy

restart 	${out_freq3} restart.lmp.${pid} restart2.lmp.${pid}
restart 	1000 restart.lmp.${pid} restart2.lmp.${pid}
restart 	1000 restart.lmp.0 restart2.lmp.${pid}
restart 	1000 restart.lmp.0 restart2.lmp.0


include         in.dump
dump            myDump all atom ${out_freq2} dump.water.${pid}
dump            myDump all atom 10000 dump.water.${pid}
dump            myDump all atom 10000 dump.water.0
dump            myDump2 all dcd ${out_freq2} dump.dcd
dump            myDump2 all dcd 10000 dump.dcd
dump_modify     myDump append yes
dump_modify     myDump2 append yes


variable natoms 	equal  "count(all)"                        # NUMBER ATOMS
variable H      	equal  "enthalpy/v_natoms"                 # ENTHALPY-per-atom
variable Vol      	equal  "vol/v_natoms"                 # volume-per-atom
fix AVG all 		ave/time ${out_freq} 1 ${out_freq} v_Vol v_H file vol_enthalpy.dat
fix AVG all 		ave/time 1000 1 ${out_freq} v_Vol v_H file vol_enthalpy.dat
fix AVG all 		ave/time 1000 1 1000 v_Vol v_H file vol_enthalpy.dat




fix 		1 all shake 1e-6 200 0 b 1 a 1
Finding SHAKE clusters ...
       0 = # of size 2 clusters
       0 = # of size 3 clusters
       0 = # of size 4 clusters
     640 = # of frozen angles
  find clusters CPU = 0.001 seconds
fix             2 all nph aniso ${pressure} ${pressure} ${pressureDamp}
fix             2 all nph aniso 12500 ${pressure} ${pressureDamp}
fix             2 all nph aniso 12500 12500 ${pressureDamp}
fix             2 all nph aniso 12500 12500 1000
fix             3 all temp/csvr ${temperature} ${temperature} ${tempDamp} ${seed}
fix             3 all temp/csvr 288.68 ${temperature} ${tempDamp} ${seed}
fix             3 all temp/csvr 288.68 288.68 ${tempDamp} ${seed}
fix             3 all temp/csvr 288.68 288.68 100 ${seed}
fix             3 all temp/csvr 288.68 288.68 100 745823


run             250000
PPPM initialization ...
  extracting TIP4P info from pair style
  using 12-bit tables for long-range coulomb (../kspace.cpp:340)
  G vector (1/distance) = 0.37459466
  grid = 30 30 30
  stencil order = 5
  estimated absolute RMS force accuracy = 0.0032534206
  estimated relative force accuracy = 9.7975795e-06
  using double precision FFTW3
  3d grid and FFT values/proc = 5400 960
Last active /omp style is kspace_style pppm/tip4p/omp
Neighbor list info ...
  update every 1 steps, delay 7 steps, check yes
  max neighbors/atom: 2000, page size: 100000
  master list distance cutoff = 10.8154
  ghost atom cutoff = 10.8154
  binsize = 5.4077, bins = 5 5 5
  1 neighbor lists, perpetual/occasional/extra = 1 0 0
  (1) pair lj/cut/tip4p/long/omp, perpetual
      attributes: half, newton on, omp
      pair build: half/bin/newton/omp
      stencil: half/bin/3d
      bin: standard
Setting up Verlet run ...
  Unit style    : real
  Current step  : 10000000
  Time step     : 2
Per MPI rank memory allocation (min/avg/max) = 10.54 | 10.55 | 10.56 Mbytes
Step Temp PotEng TotEng E_pair E_mol Press Lx Ly Lz Volume Pxx Pyy Pzz Pxy Pxz Pyz Enthalpy 
10000000    291.70576   -8979.0383   -7866.9229   -8979.0383            0    11706.707    24.965253    24.781012    22.996709    14227.242     11297.39    12597.956    11224.776   -253.85031    1345.8544    317.70605   -5437.9014 
10001000    289.03574   -9010.9508   -7909.0147   -9010.9508            0    11109.651    25.089592    24.939341    22.755377    14238.447    9505.3337    10810.987    13012.631   -673.23728    149.79473   -75.216014   -5602.0608 
10002000    293.50401   -9003.1762    -7884.205   -9003.1762            0    12347.757    24.772143    24.827332    23.102216    14208.469    12065.891    13343.332    11634.049    296.24432    219.18393    993.77159   -5325.5528 
10003000    289.71445   -8993.6976    -7889.174   -8993.6976            0    13418.002    24.887844    24.956138    22.845693    14189.562    12775.947    12950.455    14527.603    412.51274    973.09556   -517.59309     -5112.45 
10004000    281.36926   -9010.1059    -7937.398   -9010.1059            0    11987.574    24.844954    24.835713    23.023818    14206.666    12167.861    11258.824    12536.038    291.05368   -545.75702     946.5509   -5453.6966 
10005000    287.88263   -8974.0822   -7876.5423   -8974.0822            0    11516.368    25.048945    24.856728    22.892754    14253.825    10906.171    10909.135    12733.797   -882.00828     81.02398   -1092.3837   -5482.5496 
10006000     294.2851   -8975.3914   -7853.4424   -8975.3914            0    11604.748    24.913556     24.85644    23.000538    14243.366    11851.382    12415.656    10547.206    32.742455   -971.64473    406.20658   -5442.8474 
10007000    284.49981   -9005.6365   -7920.9935   -9005.6365            0     11967.82    24.840532    24.931995     22.97025    14226.027    12292.816    12076.507    11534.136   -311.43533    1286.1527   -637.06934   -5438.0058 
10008000    278.82857   -8990.7578   -7927.7361   -8990.7578            0    10683.606    24.868522     25.03413    22.931672    14276.383    12598.367    8792.9053    10659.546    415.06617    21.779661   -24.116774   -5703.3409 
10009000    291.12373   -8945.5712   -7835.6748   -8945.5712            0      12335.6    24.885189    24.916153    22.915066     14208.33    12351.734    11711.549    12943.518    203.60322   -102.57113   -682.08756   -5279.5667 
10010000    296.46458    -9012.397   -7882.1388    -9012.397            0    12383.838    24.732955    24.895006    23.060603    14199.037    12433.386    12533.782    12184.345    166.28277   -714.54241   -28.030721   -5317.7136 
10011000    284.51895    -8983.047    -7898.331    -8983.047            0    13641.544    24.844299    24.976097     22.81115    14154.629    15278.814    12113.406    13532.411   -458.71841   -842.16007    525.06929   -5082.2969 
10012000    292.07236   -8962.5773   -7849.0643   -8962.5773            0    10770.907    24.755923    24.977575    23.101789    14284.828    12698.629    10219.807    9394.2847   -305.64461   -1197.2271    663.30233    -5605.166 
10013000    297.64344   -9009.9888   -7875.2363   -9009.9888            0    10976.128    24.934608    24.872717    22.996155    14262.019    10437.283    12289.623    10201.478    -208.9418    224.51372    257.70622   -5592.2356 
10014000    287.08185   -9044.5882   -7950.1012   -9044.5882            0    11922.332    24.845181    24.964556    22.853925    14175.122    12532.061    10940.128    12294.809    -885.6067    -597.8401   -981.44446   -5485.4021 
10015000    290.23607   -8992.9848   -7886.4726   -8992.9848            0    12724.581    24.738853    24.949903    23.012087    14203.796    13078.914    12331.165    12763.665   -364.54345   -594.54161   -101.20556   -5250.6036 
10016000    291.65372   -8988.5235   -7876.6065   -8988.5235            0    12437.872    24.902273    25.051689    22.778537    14210.253    12384.971     11200.06    13728.586   -995.58684    120.10075   -954.51838   -5298.9574 
10017000    290.85358   -8985.7104   -7876.8439   -8985.7104            0     12767.09    24.778105    24.846663     23.01399    14168.637    13313.494    13177.201    11810.575    403.92418   -2411.4452    600.20002   -5238.7158 
10018000    287.42379   -9009.2135   -7913.4229   -9009.2135            0    12434.202    24.836735    25.005505    22.793238    14155.856    12331.619    11545.046    13425.941    269.29156    250.75194   -23.317006   -5346.3988 
10019000    284.99709   -8986.0258   -7899.4869   -8986.0258            0    13778.559    24.796691    24.837402    22.973335    14148.941    14577.043    13799.629    12959.006    59.029438   -172.04793   -883.61152   -5056.3116 
10020000    293.59525   -9027.7604   -7908.4414   -9027.7604            0     12971.92    24.862282    24.840384    22.902178    14144.125    12884.852    13509.064    12521.845   -417.26398    153.92439    209.18557   -5232.6254 
10021000    296.75167   -9049.3725   -7918.0198   -9049.3725            0    11701.142    24.948097    24.894802    22.880287    14210.441    10760.144    12002.446    12340.834   -1078.7622    22.640693    -39.52955   -5493.0201 
10022000    292.49482   -8964.3505   -7849.2269   -8964.3505            0     13180.66    24.885013     24.73502     23.06841    14199.328    13270.713    13865.152    12406.115    801.87569    208.21541    979.21344   -5119.7411 
10023000    282.96019   -9025.9815   -7947.2082   -9025.9815            0    12647.616     24.91327    24.845538    22.873185    14158.127    12421.323    12591.765    12929.761   -1115.6261   -235.13986   -309.79966   -5335.7062 
10024000    301.28687   -8962.9105   -7814.2675   -8962.9105            0    12948.759    24.885344    24.793339    23.024567    14205.945    12459.159     13276.47    13110.647     -217.191   -905.21082   -53.229098   -5131.5548 
10025000    292.49896   -9002.9553   -7887.8159   -9002.9553            0    11516.667    24.903838    24.997704    22.867874    14236.139    11447.771    11228.408    11873.822    207.63732   -1110.0868    92.186179   -5496.7315 
10026000     287.0984   -8961.7977   -7867.2477   -8961.7977            0    10380.667    24.994676    24.952061     22.94109     14307.64    9380.1885    11299.006    10462.807   -42.808325    -734.8438    161.01527   -5701.1944 
10027000    287.36059   -8984.6967   -7889.1471   -8984.6967            0    10951.783    24.865001    24.957216    23.000998    14273.527    12288.434    10032.077    10534.838   -538.63408   -629.66365   -912.73687   -5609.3719 
10028000    284.26581   -9009.7773   -7926.0264   -9009.7773            0    9720.7414    24.902314    24.993961    23.011748    14322.684    9885.0121    9384.8067    9892.4054     68.52689   -468.20498   -1216.4088   -5895.5419 
10029000    284.04789   -9018.1502   -7935.2301   -9018.1502            0    10536.619    24.908579    24.956652    22.982879    14286.956     9631.085    12851.101    9127.6717   -502.34293   -1388.0576    159.35204   -5739.8137 
10030000    292.94289   -8973.0789    -7856.247   -8973.0789            0    10814.932    25.049915     24.77604    23.036152    14297.104    8814.7266    12630.944    10999.127    758.16946    23.562907   -632.42738   -5601.2406 
10031000    293.42287   -8970.8182   -7852.1565   -8970.8182            0     11792.78    25.009747    24.910755    22.915735    14276.771    12031.911    11813.868    11532.562    567.22867   -807.16173     1774.392   -5396.7575 
10032000    292.69273   -8983.9032    -7868.025   -8983.9032            0    11279.834    24.803776    24.932626    23.087109    14277.605     11551.18     10247.87    12040.451   -465.92772   -1563.7013    274.11477   -5519.2904 
10033000    290.57435   -8998.5437   -7890.7418   -8998.5437            0    11413.762    24.899744    24.957709    22.971445    14275.388    12828.847    10947.638    10464.802   -673.47263   -514.75694   -325.13371   -5514.4889 
10034000    283.56903   -9027.2792   -7946.1848   -9027.2792            0    11552.798    24.852642     24.96672    22.912335    14216.851     11677.17    11334.025    11647.198    152.18282   -1629.4855    80.725589   -5550.8487 
10035000     283.5867   -9042.3786   -7961.2168   -9042.3786            0     11630.84    24.723432    25.006479     22.95368     14191.02    13482.089    10487.219    10923.213    450.19163   -137.41067    310.30847    -5554.081 
10036000    289.13083   -9013.1114   -7910.8128   -9013.1114            0    11832.759    24.838452    25.034463    22.886158    14231.009    13802.072    10085.357    11610.848   -876.94971     353.3278    520.18941   -5454.9867 
10037000    283.33847   -8982.7509   -7902.5354   -8982.7509            0    12067.546    24.839127    24.932202    22.978206    14230.268    13636.952    10883.054    11682.632   -335.30581    -487.1147    1193.7129    -5398.111 
10038000    299.73651   -9004.5839   -7861.8516   -9004.5839            0    13203.521    24.963548    24.972786    22.716307    14161.558    10918.898    13532.215    15159.451   -707.28972   -829.70981    252.42255   -5134.9047 
10039000    284.94731   -9022.2662   -7935.9171   -9022.2662            0    11804.646    24.928164    24.803697    23.011812    14228.448    12018.384     12962.99    10432.565    -443.6849    95.215646   -862.65538   -5486.3666 
10040000    287.34487   -9003.7045   -7908.2149   -9003.7045            0    13329.701    24.956835    24.773059    22.858123    14132.198    12646.079    14185.613     13157.41       147.56   -1121.9132   -462.96164   -5160.9154 
10041000    285.82065   -9039.4591   -7949.7805   -9039.4591            0    12694.624    25.078709    24.854056     22.72332    14163.619    10438.955    13414.774    14230.144    610.66291    350.72183    -1073.191   -5327.5553 
10042000    291.03808   -9028.2068    -7918.637   -9028.2068            0    11693.291    24.939256    24.809455    22.979205    14217.909    9847.0087    13868.288    11364.575    232.41456   -537.48274    402.72661   -5493.9909 
10043000    299.94057   -9017.6448   -7874.1345   -9017.6448            0    11998.521    25.042865    24.817356    22.863888    14209.854    10582.869    12833.211    12579.484   -212.42045    289.96388   -506.30644   -5387.6073 
10044000    285.52519   -8992.9686   -7904.4163   -8992.9686            0    12426.753    24.978389    24.850792    22.881707    14203.424    12589.138      12100.3     12590.82   -810.00896    942.17295     1498.187   -5330.3092 
10045000    271.09344   -9002.8775   -7969.3457   -9002.8775            0    12363.033    24.747129    24.876221    23.049623    14189.695    13490.062    12220.302    11378.735   -680.01606   -505.55355   -147.90482   -5410.9132 
10046000    287.24501   -8934.2966   -7839.1876   -8934.2966            0     13305.06    24.734455    25.053263    22.914772    14199.798    13622.515    12769.941    13522.723    193.63539   -1267.0516    1126.2626   -5083.8495 
10047000    288.39922   -9012.7465   -7913.2372   -9012.7465            0    12974.653    24.780717    24.976232    22.884928    14164.144    14547.631    11941.761    12434.566    211.51323    1244.1011    843.15753   -5233.0695 
10048000    285.45897   -8995.7779   -7907.4781   -8995.7779            0    12519.485    24.739489    24.852673    23.096237    14200.546    13469.669    13156.315    10932.472   -369.73874   -537.10061   -467.78774   -5314.6877 
10049000    295.12033    -8990.385   -7865.2517    -8990.385            0    11611.915    24.965495    24.946053    22.822801    14213.825    11447.438    11074.111    12314.195   -1143.3028   -286.24024     517.4315   -5458.1708 
10050000    287.58816   -8942.2146   -7845.7974   -8942.2146            0    13998.368    24.857557    24.677346    23.096244    14167.664    13378.088    15211.678    13405.337    468.32372   -568.07457    311.52646   -4953.4429 
10051000    295.04634   -9011.1347   -7886.2835   -9011.1347            0     11175.17    25.101424    24.849714    22.862498    14260.785    11381.652    11326.118    10817.742   -272.81832    646.87639    214.89235   -5562.0836 
10052000    288.15233   -9003.4043   -7904.8362   -9003.4043            0    12523.222    24.997317    24.751998    22.962588    14207.723    12129.947    13244.719        12195    621.81389   -52.053289    509.36266   -5309.9611 
10053000    293.79057   -9039.7812   -7919.7176   -9039.7812            0    10654.099    24.916408    24.830132    23.054238    14263.143    10589.445    11795.214     9577.637    813.35277   -801.41351    596.10331   -5703.5233 
10054000    284.48312   -8962.2162   -7877.6368   -8962.2162            0    11870.238    24.907056    25.006925    22.885433    14254.166    10927.767    11453.768    13229.177    -611.3801    689.00604    496.42057   -5410.0234 
10055000     283.2867   -8944.0666   -7864.0485   -8944.0666            0    12757.456    24.747074    24.966582    22.968768     14191.25    14213.985    11868.203    12190.181    118.16546   -826.70386    68.904243   -5223.7039 
10056000    287.23119   -8936.1645   -7841.1082   -8936.1645            0    12433.315    24.770998    25.020743     22.92617    14209.383    13385.126     11029.37     12885.45   -701.37571   -979.92122    109.49232   -5264.5613 
10057000    288.54792   -8995.4667   -7895.3905   -8995.4667            0    11662.459    24.765781    25.013204    22.965655     14226.57    12771.284    10278.761    11937.332   -173.12256    -313.7522   -754.83293   -5475.6643 
10058000    289.41921   -9021.5065   -7918.1084   -9021.5065            0    12025.742    24.760214     25.02156    22.912378    14195.116    12816.453    10784.828    12475.946    66.975422    1364.2917    132.72476   -5428.5248 
10059000    285.15383   -8975.4731   -7888.3366   -8975.4731            0    13474.856    24.701245    24.997407    22.901605    14140.988    13746.917    13544.067    13133.583    600.50974    136.73636    877.42521   -5109.3929 
10060000    285.97472   -9027.3721    -7937.106   -9027.3721            0    13183.377     24.82789    24.868427    22.880696    14127.241    13925.315    12861.847    12762.969     105.7237    488.33223   -18.841993   -5220.9174 
10061000     285.8915   -8988.7941   -7898.8453   -8988.7941            0    14135.207    24.806334    24.776883    22.996843    14134.403    15521.202    13785.986    13098.433   -141.31329    1995.4272   -832.85654   -4985.0735 
10062000    291.66492    -8988.661   -7876.7013    -8988.661            0    13964.046    24.926921    24.836664    22.836501    14138.114    13238.667    13531.276    15122.196   -694.63479     332.7746    59.085262   -4997.4561 
10063000     301.0221   -8976.0148   -7828.3813   -8976.0148            0    13371.172    24.882359    24.785188    22.973251    14167.924    11633.989    15173.472    13306.053    631.27429     254.6686   -49.408984   -5065.5678 
10064000    301.04624   -8993.9256   -7846.2001   -8993.9256            0    15129.394    24.749059     24.94528    22.802822    14077.828    15532.166    15070.139    14785.876   -375.85172    399.41984   -1.1278539   -4739.9739 
10065000    281.67729    -9028.759   -7954.8767    -9028.759            0    11530.477    24.733323    24.961263    23.048437    14229.528    13584.022    9753.3572    11254.051   -338.48927    536.94777   -798.71471   -5562.0367 
10066000    293.77406   -8928.1673   -7808.1666   -8928.1673            0    12698.288    24.851813     24.95559    22.930655    14221.401    13086.549     12627.38    12380.934    504.20535   -512.63045    395.78407    -5174.484 
10067000    291.78624   -9042.3661   -7929.9439   -9042.3661            0    12181.638    24.836544    24.919473     22.89173    14168.002    11961.744    13021.526    11561.646   -810.86251    -449.1272    1050.3483   -5412.9034 
10068000    292.92985   -9046.5298   -7929.7476   -9046.5298            0    11920.597    24.842028    24.859405    22.993008    14199.516    12064.032    12676.855    11020.904    196.92198     2307.155    1001.2734   -5461.1662 
10069000    296.78851   -9052.3799   -7920.8868   -9052.3799            0    12995.642    24.882132    24.931828     22.78318    14133.706    11739.726    13127.552    14119.649   -125.56864    275.08123    149.61937   -5242.1521 
10070000    285.93333    -9005.817   -7915.7087    -9005.817            0    12857.683    24.713745    24.815202     23.10318    14168.639    13897.502     12595.51    12080.039    422.85519    773.44086    1860.4311   -5258.8605 
10071000    291.99102   -8995.9566   -7882.7537   -8995.9566            0    12719.681    24.901696    24.906655    22.921377    14216.249    12286.576    12022.802    13849.665    524.71456   -63.753579   -446.15343   -5245.5896 
10072000    302.30164   -8989.7832   -7837.2715   -8989.7832            0    12557.229    24.948794    24.875722    22.876648    14197.688    11613.787    13450.159     12607.74   -55.689504    307.83231   -546.66198   -5237.1879 
10073000    272.47911   -9012.7808   -7973.9662   -9012.7808            0    12737.658    24.793967    24.817528    23.009785    14158.496    13781.225     13287.38    11144.368   -199.15131   -1359.4247    676.53933   -5343.8037 
10074000    293.99163   -8982.0263   -7861.1961   -8982.0263            0    13390.348      24.9679    25.114829    22.583349    14161.217    13760.091    11439.462     14971.49    47.579117   -1194.2994   -248.48252   -5095.7301 
10075000    289.45431   -8950.2014   -7846.6696   -8950.2014            0    13358.458    24.837254     24.83165    23.027001    14201.903    12785.727    14227.607    13062.041   -575.01553   -976.25077   -867.35538   -5079.8632 
10076000    286.47134   -8984.3224    -7892.163   -8984.3224            0    13437.784    24.889709    24.880421    22.840941    14144.628     13225.09    13453.229    13635.034    686.96987   -298.04853     286.4008   -5120.1511 
10077000    286.29403   -9033.2704    -7941.787   -9033.2704            0    13067.272    24.734314    24.976909    22.893831    14143.504    13810.582    12815.868    12575.367   -538.97198   -285.20523   -235.75821   -5246.4202 
10078000     300.3449   -8995.0281   -7849.9763   -8995.0281            0    12749.726    24.854525    24.833165     23.04241    14222.156     12393.24    12967.467    12888.472    -504.2291    41.640983   -761.03416   -5205.4847 
10079000    281.27889   -8998.7616   -7926.3982   -8998.7616            0    12849.218    24.976857    24.944148    22.756391    14177.833    12084.406    12635.099    13828.151   -61.568045   -590.65474   -86.227204   -5269.5762 
10080000    281.19817   -8975.1916   -7903.1359   -8975.1916            0    12069.321    24.879233    24.932479    22.930663    14223.912    12626.358    10831.089    12750.515   -894.56472   -98.877227   -689.53055   -5399.4619 
10081000    300.24543   -9002.0741   -7857.4016   -9002.0741            0    12442.775    24.806174    24.919094    22.972819    14200.587    12780.529    12030.661    12517.135   -655.29748   -633.31173    925.72317   -5280.4905 
10082000    287.14885   -8998.5702   -7903.8278   -8998.5702            0    11427.769    24.937405    24.802495    22.997915    14224.437    12849.072    11659.172    9775.0631    743.09363    366.79791   -95.280179   -5533.1505 
10083000    285.28496   -9047.9157   -7960.2794   -9047.9157            0    11894.728    25.024625    24.800249    22.848508    14180.171    11860.692    12145.122    11678.372    248.06933    1323.7312     770.6695   -5500.4109 
10084000    293.23473    -8965.494   -7847.5495    -8965.494            0    11305.607     24.98584    24.948008    22.872339    14257.403    10014.153    11941.325    11961.344    723.36323   -327.39705   -281.25226   -5496.7791 
10085000    285.45236   -8997.8962   -7909.6216   -8997.8962            0    11987.353      24.8308    24.858139     23.00567    14200.192    12537.798    12114.762    11309.501    -102.0673    450.21291    1514.0559   -5427.0979 
10086000    292.82784   -9002.1254   -7885.7322   -9002.1254            0    11237.849    24.907606    24.988929    22.906499    14257.334    11397.493    10753.882    11562.171   -607.74818   -588.01952   -189.37144   -5549.0621 
10087000    286.95772   -8987.9827    -7893.969   -8987.9827            0    12736.989    24.779374    24.927979    22.898846     14144.61    13536.939    12624.698    12049.331    117.30813    346.87279    137.13911   -5266.5238 
10088000    295.86577   -8955.9859   -7828.0107   -8955.9859            0    13463.606    24.899104    24.759117    22.941001    14142.665    13667.791    13683.362    13039.664    474.91409     -763.169    46.774893   -5051.0578 
10089000    277.60099   -9000.9042   -7942.5626   -9000.9042            0    14408.974    24.742008    24.779069    22.971245    14083.301    15252.583    14817.852    13156.488    504.91894   -298.39473    453.70045   -4983.0963 
10090000    296.17097   -8994.9613   -7865.8225   -8994.9613            0     13791.46    24.913245    24.908708    22.797331    14147.037    12548.293    15542.244    13283.845    756.57009     1156.832     1251.876    -5020.368 
10091000    289.14504   -9026.4812   -7924.1284   -9026.4812            0    12890.371    24.825041    24.811738     23.00626    14170.761    12687.685    13754.056    12229.372     90.41898     671.7622    850.37866   -5260.1269 
10092000    299.12178   -9028.4073   -7888.0187   -9028.4073            0    12859.529    24.987684     24.89873    22.805036    14188.418    10723.088    13284.694    14570.805   -592.77984   -481.98644    319.56815   -5227.0797 
10093000    287.80786   -8986.5009   -7889.2461   -8986.5009            0    11409.524    24.922137    24.852198    23.007147    14249.934    10119.953    11918.857    12189.764   -111.69327   -935.94311   -814.61274    -5518.111 
10094000    295.08802   -9037.0703   -7912.0601   -9037.0703            0    10659.227    24.849718     24.94396    22.999521    14256.262      10884.4     11086.87    10006.412   -401.24562   -269.94969     877.2956   -5695.8687 
10095000    278.71747   -9038.3439   -7975.7458   -9038.3439            0    11875.259    24.859191    24.974586    22.878168    14203.865    12205.499     11791.93    11628.347   -538.64786   -231.61573    1212.3899   -5515.8001 
10096000    288.19194   -9001.9348   -7903.2156   -9001.9348            0    10795.485    24.774395    24.985702    23.033009    14257.563    12901.302    9543.1782    9941.9744   -247.88559   -176.53744    110.49191   -5658.4896 
10097000    295.58494   -8999.6912   -7872.7866   -8999.6912            0    11634.821    24.934235    24.915953    22.907073    14231.253    11067.017    11378.664    12458.784    331.39318    168.62833   -789.32536   -5457.9999 
10098000    272.93914   -9008.5159   -7967.9474   -9008.5159            0    10904.591    24.882368    24.914523    22.969075    14239.273    11002.054    10155.848     11555.87   -504.59203   -165.26121    211.12483   -5703.4436 
10099000    286.28606   -8978.2686   -7886.8156   -8978.2686            0    10124.405    25.025672    24.885653    22.996386    14321.693    9147.9818    11036.274    10188.958   -323.35659    876.19383    1293.2672   -5772.1595 
10100000    279.83952   -9000.1558   -7933.2799   -9000.1558            0    12603.672    24.839949    24.910442    22.917681    14180.868    12742.445    12541.297    12527.276   -402.77078   -1112.2403   -592.07267   -5326.6714 
10101000    282.39821   -8984.1177   -7907.4869   -8984.1177            0    13708.186    24.714375    24.982089    22.888014    14131.442    14171.594    13566.451    13386.513   -225.56979    143.16181   -865.58517   -5082.3314 
10102000    295.55876   -8982.3803   -7855.5755   -8982.3803            0    12994.054    24.788946    25.033066    22.855486    14182.819    14960.071     11492.29    12529.802    1189.3617   -6.9470207    476.60982    -5167.861 
10103000    293.72102   -9013.3495    -7893.551   -9013.3495            0    11660.086    24.794424    24.918623    23.011706     14217.62    11676.328    12660.759    10643.171    176.08929    281.84105    315.19375   -5475.8392 
10104000    291.56853    -9022.666   -7911.0738    -9022.666            0    10838.848    24.951719    25.003544    22.856029    14259.451    10483.941    11765.535    10267.068   -210.51541    1005.7743    564.66081   -5657.0327 
10105000    287.95361   -8986.0686   -7888.2582   -8986.0686            0     11402.15     24.88098    24.853938      23.0761    14270.037    10736.019    13029.042    10441.388    388.05745   -1250.9646    186.31378   -5515.3128 
10106000    283.77469   -9017.0519   -7935.1733   -9017.0519            0    12613.988    24.938731    24.855861    22.861819    14171.439    12473.467    12347.347    13021.151   -21.566033     843.4758   -414.03678    -5328.166 
10107000    298.12697   -9020.3507   -7883.7548   -9020.3507            0    13198.823    24.909239    24.647904     23.03814    14144.508     13087.75    13725.441    12783.278   -601.14404    -469.3836     870.9444     -5161.06 
10108000    293.55649   -9014.3117   -7895.1404   -9014.3117            0    12577.804    24.920844    24.889959    22.840805    14167.667    12270.333    13053.527    12409.552   -547.98968    1090.4847   -284.34597   -5296.3035 
10109000    282.74265   -8987.1554   -7909.2115   -8987.1554            0    12954.042    24.753579    24.890571    23.033098    14191.399     12916.99    13217.563    12727.575   -426.42827   -1638.8007    935.17642   -5228.1523 
10110000    284.01677   -8998.7407   -7915.9392   -8998.7407            0    11625.157    24.841573    24.992986    22.902228    14219.194    11507.856     11872.35    11495.264   -487.53554   -849.19959   -276.64649    -5505.203 
10111000    290.17977   -8997.4695   -7891.1719   -8997.4695            0    12230.804    24.757475    25.156122    22.841287    14225.601     13763.39    10345.161    12583.861    809.78405   -1277.4648   -649.63656   -5353.6983 
10112000    293.05133   -8998.6589   -7881.4136   -8998.6589            0    12892.431     24.86589    24.873579    22.976844    14211.263    12908.222     12652.86     13116.21   -759.44298   -1142.4276    380.49141   -5209.3711 
10113000    284.50968   -8992.5917    -7907.911   -8992.5917            0    10173.246    24.782328    25.014308    23.062926    14297.003    11423.533    9241.2959    9854.9088   -568.69271   -1299.6027   -382.29856   -5786.7168 
10114000    296.73498    -8970.645    -7839.356    -8970.645            0    11095.856    24.941817    24.858984    23.046653    14289.575    10979.473    11392.454    10915.641    150.70332   -92.264149   -444.06015   -5526.9929 
10115000    295.46595   -8962.4276   -7835.9767   -8962.4276            0    12766.596    24.960882    24.865642    22.874887    14197.719    11333.607    13463.006    13503.175   -405.56335   -802.31176   -252.76496    -5192.536 
10116000    287.47152   -8998.8542   -7902.8816   -8998.8542            0    13959.838     24.94748    24.753006     22.87381    14125.152    13073.657    15239.533    13566.323    208.87896   -902.95508     1049.293   -5027.1432 
10117000    275.28405   -9002.9836   -7953.4753   -9002.9836            0    13972.723    24.857698    24.762687    22.902029    14097.193    14721.279    13205.519    13991.372    196.50963   -968.31552   -1407.0418   -5080.7798 
10118000    285.94159   -9044.4384   -7954.2987   -9044.4384            0    13072.845    24.895189    24.853196    22.861919    14145.241    12380.728    13908.084    12929.723   -199.46302   -453.04549    1081.1078   -5257.4514 
10119000    301.26211    -9037.831   -7889.2824    -9037.831            0    14373.776    24.903875    24.742911    22.877981    14097.283    12985.961    16226.225    13909.142    -397.3196   -687.22106   -544.82076   -4934.1144 
10120000    293.65112   -9027.7281   -7908.1961   -9027.7281            0    12203.904    24.909716    24.864472    22.928162    14200.946    11661.248    12734.605    12215.859   -700.42616   -313.08441    74.133062   -5380.6916 
10121000    289.41069   -9029.9724   -7926.6068   -9029.9724            0    12407.643    24.840563    24.805986    23.025751    14188.345    11766.488    13549.902     11906.54   -554.63027    384.97174    240.14307   -5359.1868 
10122000     277.7042   -8935.7024   -7876.9673   -8935.7024            0    11889.104    24.969615    25.060735     22.75988    14242.152    12100.545    11620.225    11946.542   -162.76525   -693.71994    683.07381    -5407.515 
10123000    285.95204    -9027.019   -7936.8394    -9027.019            0    11630.525    24.885098    24.951166    22.923524    14233.496    11301.253    11351.831     12238.49    677.90481    1016.2277   -409.25422   -5522.5643 
10124000    278.23351   -8922.2191   -7861.4661   -8922.2191            0    11765.367    24.939726    24.772947    23.076529    14257.384    11264.679    12795.296    11236.125    406.59539   -120.33855   -708.06256   -5415.1014 
10125000    291.93646   -8952.0599    -7839.065   -8952.0599            0    13306.243    24.971513    24.875896    22.799558    14162.829    11993.365      13797.9    14127.465     486.7324   -1405.8676   -328.38234   -5090.6559 
10126000    294.58717   -9022.1258   -7899.0252   -9022.1258            0    13450.215    24.896166    24.828657    22.903873    14157.763    13456.809    13466.457     13427.38    223.31601    21.619681   -830.47944   -5121.8726 
10127000    287.80788   -8966.4186   -7869.1637   -8966.4186            0    14622.012    24.827444    24.808472    22.886451    14096.473    15205.872    15086.005    13574.159     528.6062   -343.97465   -353.35138   -4863.1325 
10128000    291.25156   -9002.9445   -7892.5608   -9002.9445            0    14624.757    24.951943    24.794118    22.770807     14087.42    14190.062    15136.508    14547.701   -5.7706413    620.53335    -699.0405   -4887.8961 
10129000    289.95625    -8982.093   -7876.6475    -8982.093            0     13221.23    24.832784    24.723612    23.062266    14159.219    13412.251    15176.607    11074.833   -421.45389    146.97665    146.97474    -5146.494 
10130000    287.83958   -9023.8644   -7926.4886   -9023.8644            0    13141.467    24.912393    24.941056    22.729467    14122.759    11813.086    12938.943    14672.372    100.52514    1547.6496   -720.62404   -5219.7939 
10131000    285.55269   -9018.8296   -7930.1725   -9018.8296            0     13605.52    24.689638    24.874564    23.014846    14134.429    14138.351    14088.388    12589.819   -972.64284   -901.00344     43.81332   -5125.5831 
10132000     286.5165   -8985.5466    -7893.215   -8985.5466            0    11748.013    24.760475    25.147301    22.861515    14234.931    12047.787    10281.721    12914.529    -922.3237    79.462257    544.09079   -5454.3057 
10133000    290.38497   -9024.3654   -7917.2854   -9024.3654            0    11301.551    24.864601    24.958498    22.943931    14238.616    11949.921    9615.1908    12339.542     325.0473   -17.558807    293.75579    -5570.455 
10134000    286.57954   -9046.8852   -7954.3133   -9046.8852            0    11208.898    24.858196    24.910675    23.009252    14248.122    12329.233    10599.572     10697.89   -429.26826   -208.10331    -1275.369   -5625.1688 
10135000    279.20172   -9035.4537   -7971.0094   -9035.4537            0    10893.266    24.859098    24.973682    22.860753    14192.486    11122.753    10428.456     11128.59   -270.18623    56.970974   -68.562302     -5716.29 
10136000    288.44702   -8990.9278   -7891.2362   -8990.9278            0    11905.863    24.756459     24.95361    23.037257    14231.566    13015.106     11337.17    11365.312   -13.720701    385.87855    133.31325   -5420.1411 
10137000     283.6022    -9011.883   -7930.6621    -9011.883            0    13040.714    24.842425    25.009144    22.803313     14167.42    11802.451     13631.99    13687.701    577.77398    574.69186   -474.90964   -5236.2252 
10138000    294.06164   -9007.8122   -7886.7151   -9007.8122            0    13361.736    24.711502    24.904762     22.97609    14140.269    13742.536    12945.208    13397.465   -452.16414    885.78875    383.06615   -5131.2404 
10139000    283.28255   -9021.2893   -7941.2871   -9021.2893            0    12975.619    24.839014    24.956449    22.831627    14153.179     12798.66    12816.509    13311.688    779.06547    584.90908   -1742.6565   -5262.9947 
10140000    294.55752   -8998.4088   -7875.4212   -8998.4088            0    12970.095    24.874488    24.847882    22.918639    14165.514    13560.534    13435.812    11913.941    507.27897   -770.90089    974.56388   -5195.9358 
10141000    286.39311   -9022.0677   -7930.2066   -9022.0677            0    12416.431    24.875636    24.843425    22.942875    14178.605    12365.548    13186.772    11696.974    411.87887    784.78837    -864.3702   -5362.7319 
10142000    290.38888   -9032.0413   -7924.9464   -9032.0413            0    13390.534    24.964387    24.707394    22.912866     14132.77    12550.073    14547.608    13073.921   -496.89442    44.701515    1085.7138   -5164.9974 
10143000     283.9391   -8972.6265   -7890.1211   -8972.6265            0    12689.048    25.004594    24.838913    22.861799    14199.164    12597.142    12434.885    13035.117    137.41134    262.90416    218.55064     -5262.47 
10144000    293.57019    -9020.665   -7901.4415    -9020.665            0    13420.878    24.921681    24.840492    22.868701    14157.254    13718.658    13363.216    13180.761   -529.19083   -621.23461    365.78431   -5130.4458 
10145000    299.30531   -8978.8953   -7837.8069   -8978.8953            0     11858.06    24.859085    24.914779    23.023261    14259.654    11450.389    12284.443    11839.347   -649.73012   -370.17668   -1088.8416    -5371.776 
10146000    287.52824   -9017.3378    -7921.149   -9017.3378            0    11078.344    24.809611    25.018307    22.954049    14247.451    12620.512    8969.8412    11644.679   -778.71423   -511.82863   -239.87111   -5619.2413 
10147000    290.88993   -9028.4869   -7919.4818   -9028.4869            0    11162.142    24.796063    25.072058    22.854135    14208.149    11002.321    11075.944    11408.162   -761.66044    443.33395   -174.15859     -5606.56 
10148000    283.12554   -9022.8809   -7943.4772   -9022.8809            0    13523.242     24.71384    24.916426     22.97176    14145.563    15478.911    12664.328    12426.487    166.72285   -186.07249    730.44403   -5153.6522 
10149000    294.25227   -9009.6516   -7887.8277   -9009.6516            0    11777.398    24.863095    24.930571    22.929939    14213.149    11712.109    12205.519    11414.564   -46.890938   -310.52916    728.88188   -5446.5593 
10150000    280.76553   -8989.3854   -7918.9792   -8989.3854            0    13570.464    24.865847    24.789635    22.956246     14150.58     13631.94    14781.802    12297.649    302.59885     413.9717    327.28453   -5118.4195 
10151000    290.47298   -8980.7714   -7873.3559   -8980.7714            0    14225.825    24.966184    24.762901    22.853507    14128.841    13868.216    15262.559    13546.702   -988.59974   -471.89941     68.96013   -4942.0584 
10152000    287.01345   -9011.8232   -7917.5971   -9011.8232            0    13422.755    24.753681    24.713614    23.102018    14132.727    14047.872    14324.841    11895.551     -10.9943    1737.8832    79.600993   -5151.0152 
10153000    293.42368   -9001.8774   -7883.2125   -9001.8774            0    12467.575    24.955794    24.929491    22.841953    14210.784    11956.634    11936.721     13509.37    -85.31069    758.00848   -200.25658   -5299.3111 
10154000    279.74133   -9009.0146   -7942.5131   -9009.0146            0    12269.173    24.974578    24.680201    23.061163    14214.385    11693.569    13740.019    11373.931   -181.00624   -211.20213    485.42882   -5399.0863 
10155000    289.27694   -9012.1123   -7909.2567   -9012.1123            0    11722.607      24.9302    24.956506    22.896872    14245.762    10303.283     12503.02    12361.517    32.323944    1173.9486     103.6605   -5473.7699 
10156000    269.97166   -9032.9319   -8003.6768   -9032.9319            0    11437.934    24.883062    24.952156    22.856998    14191.591    11347.148    11396.502    11570.153    110.38498   -1051.0132   -417.16459   -5636.3698 
10157000    287.47757    -9005.071   -7909.0754    -9005.071            0     12072.83    24.816084    24.870554    23.025343    14211.006    12889.028    12056.147    11273.315    291.89578   -1168.7239   -114.82417   -5406.9458 
10158000    288.41287   -9005.5359   -7905.9746   -9005.5359            0    11796.451    24.929884    24.923536    22.884863    14219.301    11474.343    12245.069     11669.94   -567.92993    272.93108    750.69413   -5459.6984 
10159000    289.17092   -8982.5913   -7880.1399   -8982.5913            0    11902.592    24.757542    24.831753    23.170798    14244.785    13399.396    12173.333    10135.046    -1607.453   -355.70294     1492.767   -5407.4291 
10160000    281.41603   -8971.3941   -7898.5079   -8971.3941            0    13468.257    24.885197    24.899658    22.844563    14155.243    14518.698    12416.631    13469.441    132.15185   -1249.7879    210.36329    -5118.125 
10161000    284.15568   -9042.8107   -7959.4797   -9042.8107            0    12928.978    24.883379    24.806116    22.890223    14129.219    13327.858    12222.788    13236.287    -1290.404   -819.46607   -471.63577   -5295.3324 
10162000    287.36224    -8997.931   -7902.3751    -8997.931            0    12967.142     25.10054    24.789918    22.749804    14155.845    11764.835    13379.328    13757.264   -925.23591    -376.8571   -163.19141   -5225.3282 
10163000    295.59704   -9013.1191   -7886.1683   -9013.1191            0    13468.378    24.939694    24.878246    22.813339     14154.67    12943.968    12826.934    14634.232   -472.63478    249.76388   -288.37092   -5105.8731 
10164000    281.37918   -9002.4933   -7929.7475   -9002.4933            0    13584.775    24.801025    24.878966    22.942466    14156.049    14357.012    12660.132    13737.181    657.86311   -451.90564    1837.7826    -5125.151 
10165000    285.29916   -8991.5188   -7903.8282   -8991.5188            0    13287.726    24.787575    25.083347    22.787189    14168.057     13971.93    11332.353    14558.893    11.173583   -556.01075   -413.75937    -5158.231 
10166000    286.88891   -8960.1507   -7866.3993   -8960.1507            0    12067.958    24.815624    24.930277    22.975285    14213.898    13445.747    11351.128    11406.998   -390.96932   -849.57147    308.15831   -5364.7705 
10167000    282.21969    -9054.128   -7978.1779    -9054.128            0    10395.034    24.944004    24.932225    22.921108    14254.855    10928.721    10450.818    9805.5637   -527.27456   -294.66944    846.78741   -5817.1289 
10168000    290.65566   -8956.7629   -7848.6509   -8956.7629            0    11995.075    24.922117     24.89906    22.961593    14248.525    10778.919    12804.708    12401.598    418.98498    413.66395   -651.72822   -5356.0729 
10169000    289.99455   -9019.1636   -7913.5721   -9019.1636            0    10120.918    24.911501    24.927653    23.022178    14296.433     10385.81    9821.3561    10155.589    552.76643   -215.49348   -1131.4613   -5803.3726 
10170000    295.69317   -9044.0601   -7916.7428   -9044.0601            0    12044.683    24.891232    24.900958    22.948328    14223.729    12134.804    11337.703    12661.543    62.968441    765.04086    471.29458   -5418.2117 
10171000    284.40897   -8994.5163   -7910.2196   -8994.5163            0    12838.093    24.867794    24.875074     22.91837    14177.034    13015.063    12809.473    12689.743     256.4377   -85.270097    822.81738   -5255.8476 
10172000    279.44527   -8978.0671   -7912.6943   -8978.0671            0    11727.327    25.106069    24.660231    22.973993    14223.692    10755.307    14024.978    10401.698    223.04505   -1507.5576    -227.3263   -5480.0015 
10173000    291.70459   -9008.8649    -7896.754   -9008.8649            0    13733.092    24.939059     24.71424    22.942435    14140.567    12756.074    13982.427    14460.774    375.25066    1065.9261    -243.6872    -5064.638 
10174000     287.4489   -9017.3817   -7921.4955   -9017.3817            0    13580.347    24.973076     24.85641    22.733781     14111.79    11786.666    13905.136    15049.238   -663.52578   -651.63031    621.33512   -5126.5788 
10175000    286.75864    -9009.259   -7916.0043    -9009.259            0     10721.49    24.893002    24.808593    23.055423    14238.115    9897.4386    12211.817    10055.214    -483.9366   -297.23953   -1182.7487   -5689.7051 
10176000    287.42795   -9029.8275   -7934.0211   -9029.8275            0    12355.884    24.834345    24.960312    22.898953    14194.442    12001.375    11727.883    13338.394   -442.37537    282.05959    263.02942   -5376.2125 
10177000     280.2636   -8975.3922   -7906.8996   -8975.3922            0    12268.631    24.878223    24.898829    22.985606    14238.172    11591.743    12195.447    13018.703    593.22807    6.1702393    909.96331   -5359.3289 
10178000    290.12606   -9018.1779    -7912.085   -9018.1779            0    11048.483    24.861043    24.894104    23.023216    14248.916    11098.984    12093.689    9952.7747    52.430297   -685.20162    51.026319   -5616.1459 
10179000    290.71497   -9021.1772   -7912.8392   -9021.1772            0     11885.95    24.942917    25.094966    22.710374    14215.369    11762.159    9868.7645    14026.925    230.73923   -548.83497   -965.64055   -5448.6848 
10180000    284.02275   -9014.9739   -7932.1497   -9014.9739            0    12739.066    24.877394    24.887213    22.929924    14196.581    13656.014    12714.209    11846.973    575.49498      1474.32    343.34349   -5294.6208 
10181000    293.64179   -9021.5497   -7902.0533   -9021.5497            0    12450.016    24.808908    24.902304    22.944606    14175.154    12505.674    13535.881    11308.494   -1244.8367     1515.565    -105.1693   -5328.2603 
10182000     299.4166   -8977.7022   -7836.1896   -8977.7022            0    15136.326    24.673745    25.055874    22.791091    14089.959    16296.935    13511.197    15600.848    432.26525   -115.31008   -233.77845   -4725.8621 
10183000    287.81823   -8995.1938   -7897.8995   -8995.1938            0      11819.2    24.756225    25.001273    22.964528    14213.599    13724.423    10546.192    11186.986    -720.1101    732.86566   -43.809232   -5447.8884 
10184000    293.97879   -9011.3991   -7890.6179   -9011.3991            0     12220.86    24.758386    25.038028    22.894398    14192.264    12680.047    11944.157    12038.377   -335.12057     139.4829   -301.70787    -5361.149 
10185000    298.27023    -8965.622   -7828.4799    -8965.622            0    13174.653    24.804078    24.904113    22.963181    14184.898    14893.445    12748.339    11882.177   -233.45672   -1152.8696   -547.29461   -5103.0105 
10186000    300.84778    -9000.503   -7853.5341    -9000.503            0    11721.485    24.929936    25.009133    22.818383    14226.716    12897.666    10025.687    12241.103   -162.04186    870.64658      40.7674   -5421.5361 
10187000     283.6134   -9051.5741   -7970.3105   -9051.5741            0    11643.127    24.856422    24.857433    23.029185     14228.97    11033.712     12349.34     11546.33     465.4737   -128.33337    1171.9761   -5554.1877 
10188000    292.09608   -8988.5682   -7874.9648   -8988.5682            0    10798.434    24.943715    24.860037    22.994803    14259.116    9587.0888    11623.858    11184.355   -308.77474    -860.2115    353.72558    -5629.381 
10189000    283.23257   -9050.1095   -7970.2978   -9050.1095            0     11168.46    24.918646    24.879893    22.949161    14227.866    10985.738    11236.308    11283.336      113.104    384.67518    1336.3444   -5652.8553 
10190000    286.65473   -8952.6661   -7859.8076   -8952.6661            0    11768.698    24.966677    24.898796    22.967169    14277.316    11761.407     11031.38    12513.306    1476.8521    720.62132    644.57805   -5409.3293 
10191000    287.12131   -8991.2912   -7896.6539   -8991.2912            0    11769.182    24.952698    24.877281    22.950793    14246.826    10989.805    12410.028    11907.713    1261.7132   -834.56823    257.52147   -5451.3081 
10192000    289.83973   -8981.7362    -7876.735   -8981.7362            0    11997.921     24.89429    24.890178    22.917883    14200.455    11273.042    12553.507    12167.216    630.56887   -1228.6054    -353.6787   -5391.9767 
10193000    279.55474   -8970.5376   -7904.7474   -8970.5376            0     12237.45    24.817619    24.931126    22.945935    14197.365    13547.571    11091.906    12072.873   -413.28299    578.21798   -1109.5811   -5370.9344 
10194000    286.12839   -9012.1148   -7921.2629   -9012.1148            0    10893.515    24.869999    24.947437    22.995102    14267.144    11255.389    11204.037    10221.119   -1083.7629   -1401.5039   -721.48176   -5654.6312 
10195000    287.09484   -8992.0637   -7897.5272   -8992.0637            0    11286.131     24.77475    24.987201     23.01195    14245.586    11901.456    10350.472    11606.464   -388.32289    539.37325    102.52715   -5552.7516 
10196000    288.02658   -8969.5994   -7871.5108   -8969.5994            0    12300.494    24.764333    25.079388    22.871005    14204.594    13280.148    10678.035      12943.3   -259.64913   -1448.0546   -598.32975   -5323.3473 
10197000    286.15802   -8993.2482   -7902.2834   -8993.2482            0    11023.343    24.919969    24.954546    22.941834    14266.758    11391.418    11243.545    10435.067      35.0253    525.35076   -240.87841   -5608.7001 
10198000    288.58877   -8988.4148   -7888.1828   -8988.4148            0    11714.678    24.901065    24.932216    22.961437     14255.35    11201.578    11398.159    12544.295    318.56565    792.20267   -178.08402   -5452.7055 
10199000    282.28867   -8931.1803   -7854.9672   -8931.1803            0    12766.143     24.96112    24.830345    22.921256    14206.439    11755.169    13243.729    13299.531   -531.45965    245.90592    843.56567   -5209.9966 
10200000    288.49847   -8989.7148   -7889.8271   -8989.7148            0    12793.268    24.962493    24.812099    22.851651    14153.669    11176.083    13943.687    13260.034     -196.233    -458.3138   -683.27936   -5249.0823 
10201000    288.85432   -8955.9154    -7854.671   -8955.9154            0    13185.727    24.933111    24.751599    22.981048    14182.395     13523.58    13336.749    12696.853    94.236529    -803.2003    884.65019   -5127.3921 
10202000    282.96942   -8993.9526   -7915.1441   -8993.9526            0     11522.74    24.987656    24.875088    22.875779    14218.901    10842.785    12394.299    11331.135   -753.40018    54.481682   -250.05639   -5525.6956 
10203000    286.79599    -9056.264   -7962.8669    -9056.264            0    11537.553    24.943252    24.811217     22.96004    14209.336    10572.818    11585.253    12454.587    -461.1295   -17.082242   -535.76182   -5571.9561 
10204000    290.60119   -8995.6609   -7887.7567   -8995.6609            0    11721.448    24.991561    24.822724    22.960335    14243.642    10374.324    14158.006    10632.015    769.02311   -956.62234   -396.16071   -5452.8731 
10205000    286.54948   -9027.5909   -7935.1336   -9027.5909            0    12021.416    24.845982    24.877215    22.927544    14171.489    12563.266    12716.564    10784.418   -79.990688    593.92965   -334.62701    -5450.588 
10206000     276.6559   -9054.1792   -7999.4407   -9054.1792            0    11020.658    24.792293    24.884122    23.061324    14227.326    11962.656    10320.344    10778.974   -11.477902    -245.4025    10.303495   -5712.7539 
10207000    289.96775   -9001.8846   -7896.3953   -9001.8846            0    12367.708    24.874959    24.972751    22.818052    14174.486    12045.996    12041.719    13015.409    483.97683     6.500026    610.03729   -5339.7384 
10208000    290.58908    -9005.132   -7897.2739    -9005.132            0    11979.364    24.817629    24.913851    22.999689     14220.77    12190.614    11548.602    12198.875   -515.00664    53.804694    375.22378   -5412.8096 
10209000    285.46611   -8949.6836   -7861.3566   -8949.6836            0    12180.188    24.848659    25.056481    22.873005    14241.189    12345.716    11948.576    12246.274    1014.4097    529.96774    493.13421   -5331.6151 
10210000    291.00891   -8988.4021   -7878.9434   -8988.4021            0    12193.244    24.746494    24.919465    23.053909     14216.64    13121.206    11892.481    11566.046    219.51956   -275.79213   -887.56723   -5350.8557 
10211000    294.42081   -8997.8095    -7875.343   -8997.8095            0    11438.868     24.85267    24.932188    22.972306    14234.363    11136.197    11350.759    11829.648    699.38772    41.054015   -421.94911   -5500.7075 
10212000    294.39414   -9049.1436   -7926.7788   -9049.1436            0     11392.36    25.006773    24.964308    22.839585    14258.222    10322.902    9968.4541    13885.725    100.90341    1101.0538   -1130.7317   -5557.8338 
10213000    291.64598   -9035.7164   -7923.8289   -9035.7164            0    12343.981    24.912548    24.824162    22.941088    14187.529    11906.482     12936.49    12188.972   -156.95294   -632.19563    700.53973   -5369.7289 
10214000    291.49254   -8986.3287   -7875.0261   -8986.3287            0    12812.948    25.078043    24.809965    22.810166    14192.151    11360.142    13190.786    13887.917    561.05579   -487.23634    380.39412   -5223.0281 
10215000    289.22836   -9019.7143   -7917.0439   -9019.7143            0    13093.577    24.903626    24.761819    22.934251    14142.614    11543.382    14092.938    13644.413   -993.98557   -233.29645    734.65508   -5216.4212 
10216000    284.44102   -9035.4423   -7951.0235   -9035.4423            0    11460.826    24.887149    24.808389    23.034942    14222.005    10875.818    12593.885    10912.774    353.22982   -168.65487   -497.87306    -5573.895 
10217000    297.94799   -9017.9014   -7881.9878   -9017.9014            0     11364.48    24.915642    24.968148    22.872412    14228.869    11728.088    11092.107    11273.246    135.90093    739.41626    232.45058   -5523.7052 
10218000    279.28234   -8960.4682   -7895.7165   -8960.4682            0    12919.259    24.784451     24.91639    22.968061    14183.675    12981.727    12079.304    13696.748    145.18235   -186.28701    -345.9932   -5223.3115 
10219000     281.8054    -9007.942   -7933.5713    -9007.942            0    12141.146     24.74704    25.088137    22.866978    14197.127    12945.851    10816.971    12660.617   -285.88909   -842.34545    351.64655   -5419.7405 
10220000    277.89462   -8968.7526   -7909.2915   -8968.7526            0    12975.874    24.792733    24.890601    22.995586    14190.715    14158.449    11939.151    12830.023    760.73352    765.43669    117.53639   -5223.8432 
10221000    287.73396   -9007.4907   -7910.5176   -9007.4907            0    12277.509    24.787142    25.027902    22.951473    14238.409    12555.901    12444.858    11831.769   -334.80101    210.31093    206.03094   -5361.0611 
10222000    287.12672   -9019.9067   -7925.2487   -9019.9067            0    13733.371    24.854121    24.847576    22.838803    14104.438    12798.506    14357.892    14043.716   -1142.6352   -169.50973    31.800772   -5100.3112 
10223000    282.71721   -8971.4341   -7893.5871   -8971.4341            0     13970.64    24.816411    24.791053    22.992773    14145.728    14160.826    13994.929    13756.165   -1304.6403    356.85305    495.42859   -5011.4311 
10224000    296.39526   -8943.3698   -7813.3759   -8943.3698            0    14131.051    24.922418    24.881377    22.808458    14143.618    13438.427    13072.092    15882.634    -756.7874    1591.1913    144.34976   -4898.5617 
10225000    289.96514   -9031.3085   -7925.8292   -9031.3085            0    12072.661    24.934899    24.891069    22.901033     14213.67    11256.413    12966.478    11995.091   -1055.5846   -1625.6616   -410.77652   -5423.2655 
10226000    294.23278   -9016.7489   -7894.9994   -9016.7489            0    12503.989    25.006377    24.795328    22.854128    14170.504    12162.131    11854.441    13495.395    455.88875    1112.6351   -473.73106   -5310.8968 
10227000    289.71318   -8975.3867   -7870.8679   -8975.3867            0    11531.829    25.020954    24.842538     22.92106    14247.364    10200.663    12445.223    11949.602    917.92225   -1352.1871   -130.98506   -5474.7477 
10228000    285.68865   -8950.6493   -7861.4739   -8950.6493            0    12373.039    24.945121    24.756621    23.062775    14242.576    12555.177    13587.403    10976.537   -324.91034    258.99775     310.8327   -5291.4282 
10229000    283.00746   -9001.4492   -7922.4957   -9001.4492            0    11741.284    25.009932    24.952115    22.767931    14208.344    10685.599    12300.003    12238.249      -353.34    1106.2388    612.43183    -5489.536 
10230000    292.89971   -9004.6261   -7887.9588   -9004.6261            0    12258.174    24.865566    24.912404    22.938394    14209.441    11265.127    13001.026     12508.37   -293.77575   -492.95056    852.28717   -5347.6959 
10231000    294.95644   -8974.7605   -7850.2521   -8974.7605            0    13945.212    24.668435    24.950936    23.004671    14159.388    15084.888    13057.357    13693.392    417.28718   -163.22788   -274.98094   -4970.5637 
10232000    284.54018   -8957.9957   -7873.1988   -8957.9957            0     12996.03    24.884158     24.90431    22.874224    14175.678    13953.911    12223.958    12810.221   -97.523973    230.36929    1085.3544   -5186.4292 
10233000    289.38485    -8959.764    -7856.497    -8959.764            0    14314.244    24.802637    24.778752    23.009946    14141.416    14235.194    15133.197    13574.342    165.00021   -557.46537    436.68419   -4904.3552 
10234000     297.2639   -9008.9367   -7875.6311   -9008.9367            0    12129.284    24.846631    25.023543    22.862442     14214.74    12062.148    12111.019    12214.684   -1098.6043    1041.7709   -168.01959   -5361.1408 
10235000    281.12203   -9000.4661   -7928.7007   -9000.4661            0    12591.237    24.886617    24.905579     22.86862    14174.328    12671.692    12258.094    12843.925   -708.67111   -1276.9195    576.01867   -5325.8651 
10236000    293.77037   -8983.4933   -7863.5067   -8983.4933            0    14050.165     24.84832    24.793654    22.900586    14108.608    12838.161    15058.407    14253.926   -807.72684   -205.20652    1334.4454   -4972.5507 
10237000    286.30182   -9003.3683   -7911.8552   -9003.3683            0    13192.401    24.833172    24.831702    22.925346    14136.913    11468.731    14168.973    13939.499   -449.16421    846.22789    629.33323   -5191.9465 
10238000    300.60977   -8979.8585    -7833.797   -8979.8585            0    12866.802    24.892581     25.02879    22.742198    14169.099    13568.408    11282.441    13749.557    355.47093   -427.97274    414.66684   -5174.9782 
10239000    292.39573   -8999.3813   -7884.6354   -8999.3813            0    11811.826    24.886279    24.873987    22.984755    14228.045    11602.322    11862.841    11970.313    197.85379    72.272059   -366.51437   -5433.6645 
10240000    286.92668   -8952.7323   -7858.8369   -8952.7323            0     12227.26    24.886012    24.823204    22.996915    14206.357    10003.155    14777.061    11901.563    279.95218    424.93102   -24.727627   -5325.5303 
10241000     283.6351   -8966.4119   -7885.0655   -8966.4119            0    11941.181    24.970781    24.926063    22.831625    14210.934     11655.05    11743.248    12425.245   -283.97815   -428.11296   -642.65715   -5410.2332 
10242000    299.36098   -8998.9138   -7857.6132   -8998.9138            0    12687.833    24.831914    24.773126    23.028298    14166.183    13520.759    12910.549     11632.19    398.30904    45.909732    688.79743   -5236.3165 
10243000    291.81352   -9000.4104   -7887.8841   -9000.4104            0    13865.219    24.955376    24.922003    22.697321    14116.326    11727.662    13721.899    16146.095   -425.48782    803.35963    294.37257    -5033.422 
10244000    284.80412   -9019.8519   -7934.0488   -9019.8519            0    11445.812    24.813206    24.890191    23.013807    14213.452    11930.641    11087.429    11319.368    279.97806   -913.76976    745.96633   -5561.4621 
10245000    293.54915   -9003.8928   -7884.7496   -9003.8928            0    11706.291    24.761514    24.960133    22.978129    14201.648    13193.501    11001.502    10923.868   -244.55048    715.55535   -366.24145    -5460.184 
10246000    291.43522   -9011.0336   -7899.9496   -9011.0336            0      13387.1    24.906503    24.888314    22.780741    14121.346     11689.44    14672.857    13799.002   -11.907545    -902.3376   -334.84823   -5142.9388 
10247000     301.4189   -8982.6877   -7833.5414   -8982.6877            0    13216.326    24.773134    24.853604     23.00349    14163.288     14224.84    13107.388    12316.751   -951.18354   -1206.3981    358.04304   -5103.6163 
10248000    282.67359    -9036.362   -7958.6814    -9036.362            0    10905.788    25.040193     24.93507    22.815886    14245.759    9733.9936     10995.05    11988.322    1282.2857   -889.15218    302.15951   -5692.8972 
10249000    281.56963   -9036.4332   -7962.9613   -9036.4332            0    13012.958    24.857944    24.865371    22.887719    14146.945     12192.77    13527.499    13318.604    922.20884     656.7416    613.84297   -5278.1452 
10250000    299.96124   -9000.4551    -7856.866   -9000.4551            0    13487.486    24.596534    25.087658    22.959115    14167.368    16067.395    11389.698    13005.364   -248.51865    751.22012     460.3099   -5070.1284 
Loop time of 524.839 on 64 procs for 250000 steps with 1920 atoms

Performance: 82.311 ns/day, 0.292 hours/ns, 476.336 timesteps/s
193.4% CPU use with 32 MPI tasks x 2 OpenMP threads

MPI task timing breakdown:
Section |  min time  |  avg time  |  max time  |%varavg| %total
---------------------------------------------------------------
Pair    | 70.536     | 74.893     | 81.288     |  32.7 | 14.27
Bond    | 0.8369     | 1.1561     | 1.6716     |  19.9 |  0.22
Kspace  | 230.87     | 237.12     | 249.67     |  28.2 | 45.18
Neigh   | 6.0099     | 6.8971     | 8.2583     |  21.9 |  1.31
Comm    | 83.099     | 93.985     | 103.47     |  51.2 | 17.91
Output  | 0.64899    | 0.64923    | 0.65091    |   0.0 |  0.12
Modify  | 89.287     | 94.051     | 98.431     |  27.0 | 17.92
Other   |            | 16.09      |            |       |  3.07

Nlocal:        60.0000 ave          65 max          55 min
Histogram: 1 0 3 5 8 3 2 4 3 3
Nghost:        3417.91 ave        3444 max        3389 min
Histogram: 2 0 5 2 4 7 3 5 2 2
Neighs:        21455.2 ave       23206 max       19785 min
Histogram: 1 1 7 7 3 2 3 2 4 2

Total # of neighbors = 686568
Ave neighs/atom = 357.58750
Ave special neighs/atom = 2.0000000
Neighbor list builds = 14244
Dangerous builds = 1

unfix		3
unfix		2
unfix		1

write_data	data.final.${pid}
write_data	data.final.0
System init for write_data ...
PPPM initialization ...
  extracting TIP4P info from pair style
  using 12-bit tables for long-range coulomb (../kspace.cpp:340)
  G vector (1/distance) = 0.37468858
  grid = 30 30 30
  stencil order = 5
  estimated absolute RMS force accuracy = 0.0032437114
  estimated relative force accuracy = 9.7683406e-06
  using double precision FFTW3
  3d grid and FFT values/proc = 5400 960
Last active /omp style is kspace_style pppm/tip4p/omp
WARNING: Not all mixed pair coeffs generated from mixing. Use write_data with 'pair ij' option to store all pair coeffs. (../write_data.cpp:312)

write_restart   restart.lmp.${pid}
write_restart   restart.lmp.0
System init for write_restart ...
PPPM initialization ...
  extracting TIP4P info from pair style
  using 12-bit tables for long-range coulomb (../kspace.cpp:340)
  G vector (1/distance) = 0.37468858
  grid = 30 30 30
  stencil order = 5
  estimated absolute RMS force accuracy = 0.0032437114
  estimated relative force accuracy = 9.7683406e-06
  using double precision FFTW3
  3d grid and FFT values/proc = 5400 960
Last active /omp style is kspace_style pppm/tip4p/omp
Total wall time: 0:08:44
