LAMMPS (30 Jul 2021)
Processor partition = 1
  using 2 OpenMP thread(s) per MPI task
using multi-threaded neighbor list subroutines
variable        pid world 0 1
variable        phase world IceIII Liquid

shell cd ${phase}
shell cd Liquid
include Restart.lmp
echo both
log log.lammps
#include		in.partitions
include		in.temp
variable        temperature equal 248.83
variable	tempDamp equal 100.0
include		in.pressure
variable        pressure equal 875.0
variable        pressureDamp equal 1000.0 # This is 1 ps
include		in.seed
variable        seed equal 745823

units		real
atom_style	full
read_restart	restart.lmp.${pid}
read_restart	restart.lmp.1
Reading restart file ...
  restart file = 30 Jul 2021, LAMMPS = 30 Jul 2021
  restoring atom style full from restart
  orthogonal box = (0.13713550 1.2530588 0.16730499) to (18.070437 22.376119 22.045891)
  2 by 4 by 4 MPI processor grid
  restoring pair style lj/cut/tip4p/long/omp from restart
  restoring bond style harmonic/omp from restart
  restoring angle style harmonic/omp from restart
  864 atoms
  576 bonds
  288 angles
Finding 1-2 1-3 1-4 neighbors ...
  special bond factors lj:    0        0        0       
  special bond factors coul:  0        0        0       
     2 = max # of 1-2 neighbors
     1 = max # of 1-3 neighbors
     1 = max # of 1-4 neighbors
     2 = max # of special neighbors
  special bonds CPU = 0.003 seconds
  read_restart CPU = 0.009 seconds
include 	in.setup
variable	out_freq equal 1000
variable	out_freq2 equal 10000
variable	out_freq3 equal 1000

timestep	2.0

neigh_modify    delay 7 every 1

include		in.tip4p
# This is TIP4P/Ice

# create groups ###
group ox type 2
288 atoms in group ox
group hy type 1
576 atoms in group hy

# set charges - beside manually ###
set group ox charge -1.1794
Setting atom values ...
  288 settings made for charge
set group hy charge 0.5897
Setting atom values ...
  576 settings made for charge

# ### TIP3P Potential Parameters ###
pair_style lj/cut/tip4p/long/omp 2 1 1 1 0.1577 8.5
pair_coeff 1 1*2 0.000 0.000
pair_coeff 2 2 0.21084 3.1668
bond_style  harmonic
bond_coeff  1 450 0.9572
angle_style harmonic
angle_coeff 1 55 104.52
kspace_style pppm/tip4p/omp 1.0e-5
pair_modify tail yes

thermo          ${out_freq}
thermo          1000
thermo_style    custom step temp pe etotal epair emol press lx ly lz vol pxx pyy pzz pxy pxz pyz enthalpy

restart 	${out_freq3} restart.lmp.${pid} restart2.lmp.${pid}
restart 	1000 restart.lmp.${pid} restart2.lmp.${pid}
restart 	1000 restart.lmp.1 restart2.lmp.${pid}
restart 	1000 restart.lmp.1 restart2.lmp.1


include         in.dump
dump            myDump all atom ${out_freq2} dump.water.${pid}
dump            myDump all atom 10000 dump.water.${pid}
dump            myDump all atom 10000 dump.water.1
dump            myDump2 all dcd ${out_freq2} dump.dcd
dump            myDump2 all dcd 10000 dump.dcd
dump_modify     myDump append yes
dump_modify     myDump2 append yes


variable natoms 	equal  "count(all)"                        # NUMBER ATOMS
variable H      	equal  "enthalpy/v_natoms"                 # ENTHALPY-per-atom
variable Vol      	equal  "vol/v_natoms"                 # volume-per-atom
fix AVG all 		ave/time ${out_freq} 1 ${out_freq} v_Vol v_H file vol_enthalpy.dat
fix AVG all 		ave/time 1000 1 ${out_freq} v_Vol v_H file vol_enthalpy.dat
fix AVG all 		ave/time 1000 1 1000 v_Vol v_H file vol_enthalpy.dat


timer           timeout 23:50:00 every 1000
New timer settings: style=normal  mode=nosync  timeout=23:50:00

fix 		1 all shake 1e-6 200 0 b 1 a 1
Finding SHAKE clusters ...
       0 = # of size 2 clusters
       0 = # of size 3 clusters
       0 = # of size 4 clusters
     288 = # of frozen angles
  find clusters CPU = 0.001 seconds
fix             2 all nph iso ${pressure} ${pressure} ${pressureDamp}
fix             2 all nph iso 875 ${pressure} ${pressureDamp}
fix             2 all nph iso 875 875 ${pressureDamp}
fix             2 all nph iso 875 875 1000
fix             3 all temp/csvr ${temperature} ${temperature} ${tempDamp} ${seed}
fix             3 all temp/csvr 248.83 ${temperature} ${tempDamp} ${seed}
fix             3 all temp/csvr 248.83 248.83 ${tempDamp} ${seed}
fix             3 all temp/csvr 248.83 248.83 100 ${seed}
fix             3 all temp/csvr 248.83 248.83 100 745823

run             250000
PPPM initialization ...
  extracting TIP4P info from pair style
  using 12-bit tables for long-range coulomb (../kspace.cpp:340)
  G vector (1/distance) = 0.37270848
  grid = 24 25 25
  stencil order = 5
  estimated absolute RMS force accuracy = 0.003165547
  estimated relative force accuracy = 9.5329508e-06
  using double precision FFTW3
  3d grid and FFT values/proc = 4116 672
Last active /omp style is kspace_style pppm/tip4p/omp
Neighbor list info ...
  update every 1 steps, delay 7 steps, check yes
  max neighbors/atom: 2000, page size: 100000
  master list distance cutoff = 10.8154
  ghost atom cutoff = 10.8154
  binsize = 5.4077, bins = 4 4 5
  1 neighbor lists, perpetual/occasional/extra = 1 0 0
  (1) pair lj/cut/tip4p/long/omp, perpetual
      attributes: half, newton on, omp
      pair build: half/bin/newton/omp
      stencil: half/bin/3d
      bin: standard
Setting up Verlet run ...
  Unit style    : real
  Current step  : 4750000
  Time step     : 2
  Walltime left : 23:49:59.94
Per MPI rank memory allocation (min/avg/max) = 10.20 | 10.21 | 10.22 Mbytes
Step Temp PotEng TotEng E_pair E_mol Press Lx Ly Lz Volume Pxx Pyy Pzz Pxy Pxz Pyz Enthalpy 
 4750000    251.90062   -3913.5822   -3481.8331   -3913.5822            0    121.27182    17.933301     21.12306    21.878586    8287.7441    102.78847   -242.82756    503.85455    667.08841   -1169.2685   -1396.8615   -3467.1752 
 4751000    255.29539   -3934.5463   -3496.9787   -3934.5463            0    1054.5995    17.829758    21.001099    21.752263    8145.0152    457.79082    2398.6067    307.40112   -465.54725    819.05346    138.78803   -3371.7064 
 4752000    250.48173   -3932.4979   -3503.1808   -3932.4979            0    493.86522    17.877613    21.057466    21.810646    8210.7754    1125.1823    827.58131   -471.16798    488.60516    78.668735    664.87954   -3444.0425 
 4753000    251.84207   -3947.5628   -3515.9141   -3947.5628            0    34.875846    17.955902    21.149681    21.906159    8319.1183    304.69063   -247.72894    47.665845    187.71403    970.60421   -423.11734   -3511.6828 
 4754000    216.90382   -3904.3892   -3532.6234   -3904.3892            0    1184.0655    17.794353    20.959397    21.709069    8096.5903    838.67542    1105.2666    1608.2545    -58.45258   -574.49308      -829.03   -3392.8084 
 4755000    253.73618     -3902.15   -3467.2549     -3902.15            0    949.94009    17.751455    20.908869    21.656734    8038.1751    1279.1387    1715.5842   -144.90272    8.4675682   -850.93598    921.25031   -3355.8948 
 4756000     257.1266   -3919.0009   -3478.2947   -3919.0009            0    241.50378    17.774831    20.936403    21.685252    8069.9719    381.07354    490.83256   -147.39477    797.56426   -244.95989   -866.30001   -3449.8716 
 4757000    250.21451   -3900.7947   -3471.9356   -3900.7947            0    62.344208    17.856857    21.033019    21.785324    8182.2109    851.76512      64.3848   -729.11729    420.98691    946.94252   -174.01298   -3464.4961 
 4758000    265.10316   -3950.2284   -3495.8506   -3950.2284            0    277.27541    17.873418    21.052525    21.805528    8204.9967   -426.31308    1962.5154   -704.37607    475.72322   -502.03732   -92.866841   -3462.6715 
 4759000    261.55305   -3909.0558   -3460.7628   -3909.0558            0    1422.8952    17.853533    21.029104    21.781269    8177.6421    2738.9571    1722.0006   -192.27203    -439.8557   -72.664981    413.72451   -3291.0648 
 4760000    254.13627   -3910.4675   -3474.8866   -3910.4675            0    995.35233    17.868563    21.046807    21.799605    8198.3127    2846.5015    20.908116    118.64734   -578.85944   -984.16889   -920.59618   -3355.8783 
 4761000    247.80894   -3899.7878   -3475.0517   -3899.7878            0    1860.4516    17.958261    21.152459    21.909036    8322.3968      3279.96     1578.008    723.38675    561.42841   -491.62548    92.728464    -3249.242 
 4762000    243.91838   -3864.1484   -3446.0806   -3864.1484            0   -102.82909    17.978508    21.176308    21.933738    8350.5783    164.21152    352.64047   -825.33927   -144.46985    -107.1583   -1077.0046   -3458.6036 
 4763000    242.56752   -3875.4229   -3459.6705   -3875.4229            0    732.07392    18.032981    21.240469    22.000194    8426.7117   -398.41472    656.36837    1938.2681   -917.54471    886.19138    681.05742   -3369.7023 
 4764000    239.50411    -3907.692   -3497.1901    -3907.692            0    1439.0826    17.987995    21.187482    21.945311    8363.8038    705.12168    2245.9193    1366.2069   -630.00407    408.95286   -171.40808   -3321.6544 
 4765000     246.7599   -3907.8837   -3484.9457   -3907.8837            0     600.6955    17.988666    21.188272    21.946131    8364.7404    2007.5751   -177.21308   -28.275527   -1368.3636    398.83861   -212.40218   -3411.6662 
 4766000    259.99631    -3921.939   -3476.3142    -3921.939            0    678.42824    18.018976    21.223974    21.983109    8407.0941    1655.8342    115.77283    263.67769   -1483.1789   -354.66257   -254.47565   -3393.1329 
 4767000    257.74156   -3916.2822    -3474.522   -3916.2822            0    848.30828    18.014454    21.218647    21.977591    8400.7657    303.89245    631.27416    1609.7582   -677.41139   -444.49968    435.64798   -3370.5902 
 4768000    240.96501   -3919.8881   -3506.8823   -3919.8881            0     67.33292    18.019561    21.224663    21.983823    8407.9135    1540.2183   -1411.8636    73.644027    1592.3576   -535.40826   -793.23934   -3498.6259 
 4769000    260.74986   -3928.9501   -3482.0338   -3928.9501            0     624.9633    18.058922    21.271024    22.031842    8463.1303    114.22892    1371.8716    388.78936     640.0341   -398.19527    1237.3303    -3404.897 
 4770000    245.35736   -3923.6867   -3503.1526   -3923.6867            0    878.77274    18.024537    21.230523    21.989893    8414.8797    1510.2518   -411.14923    1537.2156   -274.88678   -224.14095   -829.06695   -3395.3075 
 4771000    235.56855   -3893.9465   -3490.1901   -3893.9465            0    1865.0394    17.913795    21.100085    21.854789    8260.7299    1508.4547    1052.2983    3034.3652     391.7325    1021.2544    1074.1168   -3265.5008 
 4772000     260.5138   -3924.0806   -3477.5689   -3924.0806            0    1817.0111    17.982647    21.181183    21.938788    8356.3469    1835.6806    2299.7492    1315.6035    1319.3568   -210.14791    166.26998    -3256.132 
 4773000    240.49809   -3930.8924   -3518.6869   -3930.8924            0    81.799437    18.068184    21.281935    22.043143    8476.1597    536.21011   -181.60229   -109.20951    976.78873   -216.81859    411.38022   -3508.5752 
 4774000    265.10642   -3901.6373   -3447.2539   -3901.6373            0    1124.9771    18.016865    21.221487    21.980533    8404.1393   -324.86527    995.60448    2704.1921     31.18708    27.155142    674.12099   -3309.3703 
 4775000    245.24084   -3909.1025   -3488.7681   -3909.1025            0    196.26601    18.042414     21.25158    22.011702    8439.9426    30.242781     960.8738   -402.31857    895.20877    124.97416    262.28221   -3464.6102 
 4776000    252.03023   -3878.3004   -3446.3293   -3878.3004            0    960.93903    18.100672    21.320201    22.082778    8521.9639   -422.04618    2260.8572    1044.0061    1019.3201    740.53392     -1069.38   -3326.8998 
 4777000    252.79615   -3899.2101   -3465.9261   -3899.2101            0   -170.21349    18.064116    21.277143     22.03818    8470.4355   -608.60957    580.15708   -482.18799    -911.4734   -668.68083   -182.29319    -3486.953 
 4778000    246.13883   -3900.2038   -3478.3302   -3900.2038            0    1064.1219    17.962075    21.156952     21.91369    8327.7011   -137.44695    1822.3689    1507.4437    -1942.094    879.74052    371.86716   -3349.0916 
 4779000    249.69152   -3938.7381   -3510.7754   -3938.7381            0    192.85774    17.907584    21.092768     21.84721    8252.1395    1243.3561   -154.45818    -510.3247    117.81255    428.00725    1197.9839   -3487.5651 
 4780000    250.82095    -3889.066   -3459.1675    -3889.066            0    235.95698    18.003303    21.205513    21.963988    8385.1762   -590.16535   -176.24338    1474.2797   -728.19218   -961.34296    57.042899   -3430.3125 
 4781000    253.93259   -3914.1341   -3478.9023   -3914.1341            0    512.42912    18.066975     21.28051    22.041667    8474.4574    186.33895    905.62692    445.32148     12.94029    838.83087   -349.49087   -3415.5706 
 4782000    249.99424   -3919.0253   -3490.5437   -3919.0253            0    2385.0292    17.912498    21.098557    21.853206    8258.9356    3298.1987    3506.8951    349.99373    758.29061   -630.21876   -1054.3462   -3203.2715 
 4783000    238.95776   -3912.2747   -3502.7092   -3912.2747            0    2564.7004    17.857566    21.033853    21.786188    8183.1847    1827.4823     4186.464     1680.155     190.0033   -476.46258    213.12741   -3196.6293 
 4784000    245.72022    -3971.431   -3550.2749    -3971.431            0   -827.97857      17.9595    21.153919    21.910548    8324.1198    -230.3925    -1698.393    -555.1502    771.88626   -339.70111    -1118.438   -3650.7905 
 4785000    225.71214   -3937.5446   -3550.6818   -3937.5446            0    1784.0197    17.914647    21.101088    21.855828    8261.9081    2249.8022    2369.0116    733.24529    727.26591   -612.64098   -1204.8757   -3335.7226 
 4786000    245.07043   -3965.6157   -3545.5734   -3965.6157            0    708.65442    17.917729    21.104718    21.859587    8266.1725   -202.02379    1504.2738    823.71329    568.88284   -506.89883    239.63244   -3460.1425 
 4787000    258.36644   -3954.4315   -3511.6002   -3954.4315            0    992.00817    17.982693    21.181237    21.938844    8356.4112    465.41123    2682.9247   -172.31147    296.04936    491.26949    145.38997   -3390.7045 
 4788000    244.80261   -3918.6147   -3499.0314   -3918.6147            0    2765.7908    17.916013    21.102697    21.857495    8263.7987    2706.8026    2987.1751    2603.3947     -230.386    -716.0869   -789.79233    -3165.701 
 4789000    245.74138   -3941.6103    -3520.418   -3941.6103            0   -434.63914    18.017031    21.221682    21.980735    8404.3714   -731.22307    -322.4671   -250.22725   -356.75137   -1135.5479   -1272.2961   -3573.6913 
 4790000    242.86582   -3936.4917   -3520.2279   -3936.4917            0    979.64332     17.91943    21.106722    21.861663    8268.5274    86.093224    2081.7878    771.04897   -157.14928   -210.21872   -427.96437   -3402.0947 
 4791000    239.64265   -3930.9588   -3520.2195   -3930.9588            0    44.132397    17.927074    21.115725    21.870988    8279.1128    431.16534    10.681615   -309.44977    471.67569    428.63558    -1123.659   -3514.8908 
 4792000    246.74974   -3938.1453   -3515.2247   -3938.1453            0    1630.8307    17.906242    21.091188    21.845574     8250.285    1846.8291    1265.5497    1780.1133   -593.64488    1527.5366   -787.73712        -3319 
 4793000    245.26138   -3917.2341   -3496.8645   -3917.2341            0    1021.1812    17.945764    21.137739     21.89379    8305.0342    712.26351    2785.8794   -434.59935   -58.153142   -60.986801   -866.30361   -3373.1786 
 4794000     251.0477   -3934.7828   -3504.4956   -3934.7828            0    1226.2914    17.980172    21.178268    21.935768    8352.8972    2314.4209    451.13253    913.32081    423.48294    877.17909     163.8268   -3355.1107 
 4795000    244.22306   -3987.3012   -3568.7112   -3987.3012            0    767.57378    17.947759     21.14009    21.896225    8307.8052   0.79530959    2701.5905   -399.66448   -126.76269    568.56172   -705.04342   -3475.7114 
 4796000    256.09552   -3941.2423   -3502.3033   -3941.2423            0    546.01675    17.991319    21.191397    21.949367    8368.4411     1001.137    1393.7959   -756.88263    -609.6019    713.01913   -1210.3717   -3435.6647 
 4797000    249.89486    -3945.049   -3516.7378    -3945.049            0   -148.79567    17.931604    21.121061    21.876516    8285.3916    1018.8847   -786.15422   -679.11745    583.00434    553.31339   -705.45786   -3534.7173 
 4798000    261.76251   -3944.1147   -3495.4627   -3944.1147            0     683.5777    17.940848    21.131949    21.887792    8298.2107    904.33416     292.5748    853.82413    173.36813   -428.09768     750.8593   -3412.7356 
 4799000    260.78287   -3952.8274   -3505.8545   -3952.8274            0    447.36947    17.971883    21.168505    21.925656    8341.3504     584.6617   -598.38138    1355.8281    1360.4367    536.97053   -259.93401    -3451.432 
 4800000    238.58877   -3920.6085   -3511.6755   -3920.6085            0    1541.3888    18.086606    21.303633    22.065617    8502.1119   -137.88718     1796.671    2965.3825    180.20637    -260.1183   -216.59916   -3320.5516 
 4801000    261.15991   -3940.4051   -3492.7859   -3940.4051            0    1216.6446    18.055593    21.267104    22.027782    8458.4517    1406.3182    524.55871    1719.0569    443.23865   -277.14417   -613.75641   -3342.7033 
 4802000    251.24067   -3952.5855   -3521.9676   -3952.5855            0    938.85844    18.037275    21.245527    22.005433    8432.7331    1185.1076    88.294223    1543.1734    79.423613    603.94798    12.727219   -3406.5042 
 4803000    250.41816   -3957.9513   -3528.7431   -3957.9513            0   -9.3007092    18.021688    21.227169    21.986418    8410.8914   -313.69742     942.8001   -657.00481   -647.00844   -623.05617    763.88653    -3529.884 
 4804000    247.12666   -3930.3771   -3506.8104   -3930.3771            0    2294.2024    18.034296    21.242019      22.0018    8428.5565    2084.3246    2756.3908    2041.8917    519.04233    833.44415    666.83456   -3224.8028 
 4805000    241.38713   -3946.4983    -3532.769   -3946.4983            0     2451.757    17.977435    21.175044    21.932429     8349.083    2250.1715     3446.319    1658.7804   -1147.6684    144.14025   -1518.9933   -3234.2362 
 4806000    263.03874   -3945.2318   -3494.3924   -3945.2318            0    975.22695    18.042415    21.251582    22.011704    8439.9447    737.99936    602.35534    1585.3261    815.30613    993.18427   -113.83829   -3374.3537 
 4807000    260.74041   -3968.6599   -3521.7597   -3968.6599            0   -51.023096    17.993715     21.19422    21.952291    8371.7861   -492.59899    1412.0576   -1072.5279    172.91211    597.75472    -509.4247   -3527.9893 
 4808000    242.76801   -3948.0639   -3531.9678   -3948.0639            0    270.34945    18.045522    21.255242    22.015495    8444.3059    237.06265    1637.9635   -1063.9778    923.74425   -562.74257     307.9016   -3498.6739 
 4809000    253.81839   -3954.3117   -3519.2757   -3954.3117            0    375.22342    18.023752    21.229599    21.988935    8413.7805   -1465.3994    486.99829    2104.0713    1296.2441    565.19556    117.44002   -3473.2334 
 4810000     234.7528   -3950.7975   -3548.4393   -3950.7975            0    1087.8728    18.057516    21.269369    22.030128    8461.1549    1458.3083    1733.1007    72.209306   -374.96816    461.93301   -142.80914   -3414.1988 
 4811000    240.11297   -3943.6638   -3532.1184   -3943.6638            0    917.67475    18.113111    21.334852    22.097953    8539.5451    1782.8991    481.02049     489.1047    57.730749    210.53065   -92.336672   -3417.8307 
 4812000    255.78624   -3954.1646   -3515.7557   -3954.1646            0    1566.8955    18.086752    21.303805    22.065795     8502.318    1193.1975     1180.921    2326.5679    686.71876   -130.42274    560.52501   -3321.4645 
 4813000    258.39196   -3930.2712   -3487.3962   -3930.2712            0   -464.78799    18.139698    21.366168    22.130389    8577.2038    -696.0474   -1308.8649    610.54839    -261.5774   -214.66044   -565.00871   -3545.5364 
 4814000      250.565    -3960.594   -3531.1342    -3960.594            0    1250.5318    18.110629    21.331929    22.094926    8536.0356    528.80277    1350.8355    1871.9573    6.3371964    354.05748    951.16968   -3375.4563 
 4815000    251.41894   -3988.6335   -3557.7101   -3988.6335            0    1327.5313    18.070862    21.285088    22.046409    8479.9282    1007.0649    2563.0355    412.49342    190.47934    594.17438    -30.54177   -3393.5329 
 4816000     261.8329   -3957.2305   -3508.4578   -3957.2305            0   -274.91721    18.069934    21.283995    22.045277    8478.6222    1027.2422   -91.080899   -1760.9129   -736.93315   -1257.6659    707.22833   -3542.4519 
 4817000     240.3798   -3985.3383   -3573.3355   -3985.3383            0    583.44024    18.130553    21.355397    22.119233    8564.2386    399.43514     1245.689    105.19663    -692.0815    466.70425     477.9202   -3500.4634 
 4818000    251.36063   -3954.2638   -3523.4403   -3954.2638            0   -1105.6609    18.073505    21.288202    22.049634    8483.6506   -1970.8681   -599.10146   -747.01324   -607.23979   -390.21336    572.55168   -3660.2386 
 4819000    241.78303    -3976.077   -3561.6692    -3976.077            0    1803.0245    17.990004    21.189848    21.947762    8366.6065     1170.546     2184.926    2053.6016   -1169.5866   -740.75295    1171.1534    -3341.667 
 4820000    252.53058   -3947.5583   -3514.7295   -3947.5583            0    598.94133    18.085342    21.302144    22.064074     8500.329    621.66523    295.77231    879.38647   -520.35018   -546.28774     751.8609   -3440.4796 
 4821000    247.80261   -3945.6679   -3520.9427   -3945.6679            0    953.43193    17.960531    21.155134    21.911806    8325.5538   -401.07981    1925.1523    1336.2234   -452.40305    448.53025     572.2698   -3405.1773 
 4822000    275.44503   -3914.8813   -3442.7779   -3914.8813            0    454.15193    18.033403    21.240967     22.00071    8427.3039    1985.5507    35.412706   -658.50759    520.83918   -28.423718    411.92056    -3386.961 
 4823000    230.58621    -3930.071   -3534.8541    -3930.071            0    2171.8531    17.966093    21.161685    21.918592    8333.2909    2586.7038    2256.3166    1672.5388    131.75044    1251.2568   -151.48948   -3270.9034 
 4824000    250.62153   -3945.7069   -3516.1502   -3945.7069            0     663.3306    18.110657    21.331962     22.09496     8536.075   -316.28839    856.99377    1449.2864   -1747.9308    -113.0532     102.1745   -3433.5722 
 4825000    248.93869    -3952.734   -3526.0616    -3952.734            0    1046.3287    18.097511    21.316478    22.078922    8517.5005    1387.0482    912.63698    839.30075   -1329.1786   -27.303212   -1332.9796   -3396.0877 
 4826000    242.43054   -3964.1107   -3548.5931   -3964.1107            0   -177.34239    18.154245    21.383302    22.148136    8597.8556     1142.615    152.24284    -1826.885     498.5073    662.77344   -206.23323   -3570.8302 
 4827000    244.57727   -3963.0723   -3543.8752   -3963.0723            0    172.05309    18.065365    21.278613    22.039703    8472.1918     722.0645    95.850124   -301.75535    7.5178311    94.673157   -769.81227   -3522.6166 
 4828000    268.89089   -3951.1233   -3490.2535   -3951.1233            0    2658.2532     18.04101    21.249926     22.00999    8437.9727     2455.798    2766.0582    2752.9034    695.02145   -27.496801    152.16227   -3163.1311 
 4829000     262.5345   -3992.4313   -3542.4561   -3992.4313            0    726.92217    18.062103    21.274772    22.035724    8467.6044   -63.803708     1170.633    1073.9373    659.02875    554.22091   -153.57652   -3452.6876 
 4830000    252.23053   -3916.4201   -3484.1056   -3916.4201            0    1720.2289    18.068568    21.282386    22.043611    8476.6996    970.17622    3221.8852    968.62535    -258.9159    1122.5724   -809.34067   -3271.4441 
 4831000    245.72808   -3940.3352   -3519.1656   -3940.3352            0    2025.8424    18.025461    21.231612     21.99102    8416.1742    2407.7085    2001.8666    1667.9521    2139.7251   -943.66823    123.27315   -3270.5112 
 4832000     260.3947   -3990.8492   -3544.5416   -3990.8492            0    978.64678    18.019018    21.224023    21.983159    8407.1523    2607.8532    -608.4616     936.5487    -276.8818    25.819194   -190.90119     -3424.55 
 4833000    248.94308   -3953.8588   -3527.1789   -3953.8588            0    76.151008    18.003565    21.205821    21.964307    8385.5416   -935.49742    1981.1709    -817.2205   -584.07814    510.46491   -728.63934    -3517.866 
 4834000    256.66515   -3910.4577   -3470.5425   -3910.4577            0    1904.9017    18.066709    21.280197    22.041343    8474.0832    1993.2365    1615.8521    2105.6166   -223.34933    419.23226    324.46762   -3235.1236 
 4835000    258.90582     -3954.67   -3510.9143     -3954.67            0    1346.2633    18.071658    21.286026    22.047381    8481.0495     583.2587    2583.5807    871.95033    1326.8036   -1166.0232   -228.87731   -3344.3985 
 4836000    247.39442   -3939.2434   -3515.2178   -3939.2434            0    1384.3432     17.98262    21.181151    21.938754    8356.3091    1530.5917    1512.8441    1109.5938    -147.3213   -1208.8859     126.8652   -3346.5104 
 4837000    249.79553   -3945.9923   -3517.8513   -3945.9923            0    504.65901    17.937497    21.128003    21.883705    8293.5629    -41.50367    1051.2436    504.23709   -1186.9428    210.40642   -12.343152   -3456.8113 
 4838000     261.5001    -3931.615   -3483.4128    -3931.615            0    2575.5095    17.938678    21.129393    21.885145    8295.2008    1934.1839    3057.9719    2734.3727    604.27447   -799.72643   -684.96151   -3171.8354 
 4839000    237.05134   -3950.9577   -3544.6598   -3950.9577            0    931.32735    17.983325    21.181981    21.939614    8357.2915     -734.004    578.42088    2949.5652   -654.90572    595.55423     613.1056   -3431.1473 
 4840000    255.60976   -3946.3038   -3508.1974   -3946.3038            0    1128.2437    17.975226    21.172442    21.929733    8346.0051    576.31752     1073.699    1734.7147   -29.812963    693.16181    246.01675   -3370.8699 
 4841000    240.21661   -3937.7881    -3526.065   -3937.7881            0    1305.5998     17.92155    21.109219     21.86425    8271.4629    2961.2228   -139.88809    1095.4645    116.28639   -23.408832    214.18925   -3368.5695 
 4842000    268.26122   -3937.2064   -3477.4159   -3937.2064            0    203.48805    17.921555    21.109225    21.864255    8271.4693     309.4204    833.74411   -532.70036    -437.6698   -728.47557    1316.0944   -3452.8689 
 4843000    249.68294   -3949.0901   -3521.1421   -3949.0901            0    2511.2571    17.764699    20.924469    21.672892    8056.1801    1987.8219    2757.4633     2788.486    248.44909    907.45065    590.28919   -3226.0917 
 4844000    248.78908   -3932.8569   -3506.4409   -3932.8569            0     279.9102    17.966945    21.162688    21.919631    8334.4765   -209.38503    629.65189    419.46373    789.71829   -1534.4428    944.91815   -3472.4179 
 4845000    254.04308   -3954.3824   -3518.9613   -3954.3824            0    30.813669    17.909569    21.095106    21.849632     8254.884    828.47214   -714.32986   -21.701267   -1471.2107   -530.03826    -1216.576   -3515.2516 
 4846000    260.03393   -3924.5512   -3478.8619   -3924.5512            0    677.16419    17.964163    21.159411    21.916237    8330.6051    690.95122    476.77912    863.76222    319.45011    276.47154    489.90317    -3396.591 
 4847000    249.51388   -3927.9782     -3500.32   -3927.9782            0     1364.551    17.998355    21.199684    21.957951    8378.2633    2843.4776    854.43205    395.74319    901.79626    118.13347   -470.95806   -3333.5877 
 4848000    243.72852   -3954.9699   -3537.2275   -3954.9699            0    85.004984    17.928758    21.117709    21.873043    8281.4472    1152.8535   -182.69938   -715.13913    860.22797   -734.66761   -605.03299   -3526.9609 
 4849000    250.84982   -3931.8682   -3501.9202   -3931.8682            0    1764.6676    17.864164    21.041625    21.794238    8192.2587    915.76414     723.8641    3654.3747    837.29399    -731.4595     898.6708   -3291.0853 
 4850000    258.73413   -3966.6655   -3523.2041   -3966.6655            0    1740.5797    17.846374    21.020671    21.772534    8167.8081    1647.0718    3528.7703     45.89698    579.50165   -1227.0778   -575.53224   -3315.8678 
 4851000    244.83033   -3943.2693   -3523.6385   -3943.2693            0   -126.03828    17.980262    21.178374    21.935878    8353.0229   -342.57917    519.73609   -555.27175   -912.02619  -0.96575652    682.07211   -3538.9925 
 4852000    257.42616   -3920.0119   -3478.7922   -3920.0119            0    1580.2595    18.064563    21.277669    22.038725     8471.064    1418.0779     1860.198    1462.5026    668.15178     562.9059   -747.58949   -3283.5642 
 4853000    257.32998    -3940.497   -3499.4422    -3940.497            0    1334.0656    18.066868    21.280384    22.041537    8474.3069    663.41655    1920.2519    1418.5284    509.90242   -1161.6412   -304.29259   -3334.5663 
 4854000    238.58393   -3919.3662   -3510.4415   -3919.3662            0    839.00576    18.002882    21.205017    21.963473    8384.5868   -455.77205    340.56589    2632.2234    1621.0045   -32.450408    280.94518   -3407.8474 
 4855000    246.29672   -3883.6642     -3461.52   -3883.6642            0   -719.55444    17.957168    21.151172    21.907703    8320.8778   -1105.6013    -510.5446   -542.51741     29.31711   -1332.6504    359.55468    -3548.839 
 4856000    246.23016   -3954.2336   -3532.2036   -3954.2336            0    202.56165    18.033345    21.240898    22.000638    8427.2221    1031.4731   -1344.1176    920.32939   -582.10658   -1369.9324   -93.257548   -3507.3083 
 4857000    247.50174   -3942.5431   -3518.3336   -3942.5431            0   -107.21606    18.063232    21.276101    22.037101     8469.192    54.653809    -14.30525   -361.99673   -1048.7994    440.84498   -418.59574   -3531.5764 
 4858000    250.70973   -3940.4018   -3510.6939   -3940.4018            0     1834.234    17.970117    21.166424    21.923501    8338.8909    2771.1139    1252.0483    1479.5397    -842.0534   -83.625841   -326.03687   -3287.6251 
 4859000    246.51962   -3923.1724   -3500.6462   -3923.1724            0    1483.5445    17.840764    21.014063     21.76569    8160.1086    1071.0637    1917.0434    1462.5263   -641.26514   -1142.5041    467.55205   -3324.0943 
 4860000    242.28485    -3923.013    -3507.745    -3923.013            0   -23.883684    17.942869    21.134329    21.890258    8301.0156    792.23788    574.89555   -1438.7845   -677.69613    -699.4253   -139.89777   -3510.6364 
 4861000    246.76239   -3908.4054   -3485.4631   -3908.4054            0    1228.5623    17.976132    21.173509    21.930839    8347.2677    1799.9896    435.65188    1450.0454   -430.94311   -1134.0488    440.03206   -3335.9025 
 4862000    248.40078   -3905.4139   -3479.6635   -3905.4139            0   -353.41435    17.923205    21.111168    21.866268    8273.7537   -203.77496   -260.11239   -596.35569   -956.18327    207.28473     330.2067    -3522.308 
 4863000    240.46303   -3916.2372   -3504.0918   -3916.2372            0   -236.08744    17.959302    21.153685    21.910306    8323.8443   -519.78206   -619.95239    431.47214   -1004.3609   -375.02897    502.93407   -3532.7516 
 4864000    261.06037   -3916.2473   -3468.7988   -3916.2473            0    1531.3312    17.897881     21.08134    21.835373    8238.7336    1782.9183    887.79381    1923.2814   -229.53095   -715.27259    112.25918    -3284.804 
 4865000    249.16136   -3916.8162   -3489.7621   -3916.8162            0    1292.0368    17.927912    21.116712     21.87201    8280.2737    1191.6911    1513.4026    1171.0168    204.55696    454.79185    174.74984   -3333.7367 
 4866000     237.7343   -3920.1553   -3512.6868   -3920.1553            0    1693.7558    17.906827    21.091877    21.846287    8251.0935    898.84327    1735.6652     2446.759    634.64884   -981.32073   -376.07622   -3308.8709 
 4867000    239.12726   -3950.1595   -3540.3035   -3950.1595            0    1007.5823    17.983902    21.182661    21.940318    8358.0957    1658.2533    1229.4617    135.03188    1134.7248   -1138.0846    617.12475    -3417.485 
 4868000    244.50762   -3957.5265   -3538.4488   -3957.5265            0    709.63404    17.980555    21.178719    21.936235    8353.4309    1734.2516    273.63266    121.01787    188.03032   -730.21171    283.62618   -3451.9968 
 4869000    251.46561   -3958.4185    -3527.415   -3958.4185            0    1050.5454    18.028934    21.235703    21.995258    8421.0407    1266.7889    117.58325    1767.2641   -1317.8689    72.003927   -155.75062   -3398.3952 
 4870000    242.64302   -3948.7203   -3532.8385   -3948.7203            0    2779.0596      17.9677    21.163578    21.920552    8335.5273    2376.1678    4066.4697    1894.5412    403.86646    79.401701    7.5484013   -3195.0018 
 4871000    237.92207   -3942.9981   -3535.2078   -3942.9981            0    623.39309    18.066057    21.279429    22.040548    8473.1664    1325.3855   -999.81166    1544.6054    562.31328   -518.92969    691.44093   -3458.1736 
 4872000    263.99179   -3941.9918   -3489.5189   -3941.9918            0   -705.93136    18.108069    21.328913    22.091802    8532.4159    488.71348   -606.60033   -1999.9072    835.38799    1409.8128    452.56129   -3577.3625 
 4873000    237.03051   -3959.8921     -3553.63   -3959.8921            0    37.545262    18.016737    21.221336    21.980377      8403.96   -306.48337     1372.571   -953.45187    706.66346   -5.1782279   -1092.6853   -3549.0283 
 4874000    258.22074   -3954.5864   -3512.0049   -3954.5864            0    125.42179    18.091246    21.309098    22.071277    8508.6568   -156.04389    937.61255    -405.3033   -181.73563    828.64263   -798.04803   -3496.4413 
 4875000    265.88702   -3934.6095   -3478.8883   -3934.6095            0   -32.144276    18.120491    21.343545    22.106957    8549.9877    1249.3872    111.78651   -1457.6065    -581.4756   -89.452139   -80.487719   -3482.8964 
 4876000    245.57117    -3951.838   -3530.9374    -3951.838            0    495.28071    18.025117    21.231207    21.990601    8415.6932    1867.1876    1617.9245     -1999.27    460.92488    283.78176   -963.23875   -3470.1495 
 4877000    249.85164   -3947.5356   -3519.2984   -3947.5356            0    742.87521    18.007977    21.211018    21.969689    8391.7076    1660.1717   -334.05212    902.50602   -1363.6106    327.64986   -1524.6353   -3428.3821 
 4878000    250.69235   -3938.2986   -3508.6205   -3938.2986            0   -741.96393    18.135748    21.361515     22.12557    8571.6017    519.77464    -884.2673   -1861.3991   -604.64618   -355.08628    64.914927   -3601.3719 
 4879000    264.58513   -3954.1655   -3500.6757   -3954.1655            0    2035.1039    18.060487    21.272869    22.033752    8465.3318    2469.1421    1447.8083    2188.3614    521.00503   -1193.0421    933.18807   -3249.4254 
 4880000    250.90353   -3989.2769   -3559.2369   -3989.2769            0    859.77214    18.075229    21.290232    22.051737    8486.0782   -703.55875    61.633059    3221.2421    469.63203    -331.0459   -193.64162   -3452.8308 
 4881000    236.32588   -3957.5598   -3552.5053   -3957.5598            0    1270.0622    18.044446    21.253973    22.014181    8442.7945    1601.6974    2063.5812     144.9081   -175.27409    2391.0537   -576.69956   -3396.1232 
 4882000    262.44847   -3955.4613   -3505.6336   -3955.4613            0    1897.6673    18.015788    21.220219    21.979219    8402.6328     1445.026    3197.2372    1050.7387   -853.07642    13.941828    242.76893   -3273.0863 
 4883000    242.02319   -3964.2086   -3549.3891   -3964.2086            0    1468.0331    18.059171    21.271318    22.032146    8463.4809   -524.73508    2548.1294    2380.7049   -948.11668   -578.21487   -520.84325    -3368.188 
 4884000    236.26954   -3979.2348   -3574.2769   -3979.2348            0   -1002.3152    18.111576    21.333044     22.09608    8537.3739   -783.87758   -411.91978   -1811.1483    169.71485    927.39567   -233.48798    -3699.074 
 4885000    236.58971   -3995.0938   -3589.5871   -3995.0938            0    582.27586    18.076643    21.291898    22.053462    8488.0694   -132.76669    426.67644    1452.9178    85.050436   -132.53426    896.21456   -3517.5073 
 4886000    243.35545   -3941.2449    -3524.142   -3941.2449            0    103.25609     18.07215    21.286606    22.047981    8481.7424    2438.7517     62.37372   -2191.3571    692.45963   -1559.6085     29.78206   -3511.3695 
 4887000    236.73573   -3969.5242   -3563.7672   -3969.5242            0    1275.9121    18.044995    21.254621    22.014852    8443.5658    1497.2211    1780.9696    549.54574   -267.05176   -923.18738     677.5212   -3406.6505 
 4888000    250.22034    -3953.002    -3524.133    -3953.002            0   -22.390642     18.01458    21.218795    21.977745    8400.9421    261.69685   -22.327737   -306.54104    327.98399   -565.47386    319.45281   -3526.8762 
 4889000    233.30892   -3974.2675   -3574.3839   -3974.2675            0     669.9798    18.009832    21.213203    21.971953    8394.3014    602.34787    412.05294    995.53859    122.97601    253.99252     -766.297   -3492.3635 
 4890000    241.85674   -3924.4731   -3509.9389   -3924.4731            0   -852.28333    18.189645    21.424999    22.191324    8648.2505   -1537.6751   -719.70738   -299.46747    264.84277   -639.81333    1338.3648   -3617.4339 
 4891000    241.71624   -3944.8944    -3530.601   -3944.8944            0   -276.28627    18.076908     21.29221    22.053786    8488.4433   -967.17686    924.36694   -786.04889   -217.42095   -220.34233    211.63585   -3564.8039 
 4892000    231.94763   -3917.0645   -3519.5142   -3917.0645            0    -1273.906    18.145268    21.372729    22.137185    8585.1081   -1665.6529   -1439.6332   -716.43176   -51.384247   -290.92769     1328.305   -3679.0136 
 4893000    246.88625   -3967.0348   -3543.8802   -3967.0348            0   -528.64919    18.092016    21.310005    22.072217    8509.7433    228.81153   -1659.9548   -154.80432    643.60585   -288.68219    49.324512   -3609.4887 
 4894000    245.51204   -3965.5509   -3544.7516   -3965.5509            0     203.9772    18.083898    21.300444    22.062314    8498.2943   -90.887972   -501.09556    1203.9151    801.98689   -774.69522    59.264459   -3519.4709 
 4895000    270.78756     -3981.79   -3517.6694     -3981.79            0    1005.2717    18.029653    21.236549    21.996134    8422.0473    1226.2318    1404.4944    385.08885   -204.69748   -216.95052   -396.55063   -3394.1949 
 4896000    238.33819   -3974.0287   -3565.5252   -3974.0287            0    1697.3714    18.042812    21.252049    22.012188    8440.5014    65.273216     2226.094    2800.7469   -206.02234   -896.98212    -1573.893   -3356.5855 
 4897000    230.58375   -3965.4168   -3570.2041   -3965.4168            0    1590.3824    18.050955     21.26164    22.022122    8451.9343    617.84974     3036.984    1116.3135    289.56214    329.13173    332.79402   -3374.1691 
 4898000    242.05241    -3998.904   -3584.0345    -3998.904            0    1199.1021    17.972415    21.169131    21.926305    8342.0912    1542.6473    1840.3038    214.35515    687.11832    -676.8037   -1138.1703   -3438.1507 
 4899000    258.20841   -3943.9591   -3501.3987   -3943.9591            0    1268.2104    17.987946    21.187425    21.945252    8363.7362    2304.3704    998.10256    502.15808     475.5954   -527.28258    39.495723   -3346.7068 
 4900000    241.03455   -3963.3681   -3550.2431   -3963.3681            0    2150.9332     18.00569    21.208324    21.966899    8388.5107    2334.7297    3497.9179    620.15185   -66.936336   -708.70529   -1176.2293   -3287.1027 
 4901000    258.31943   -3958.7931   -3516.0424   -3958.7931            0    900.34512    17.939464    21.130319    21.886104    8296.2908    2421.3434    797.45599   -517.76401    2087.2884   -522.75242     -985.188   -3407.1071 
 4902000    241.86637   -3962.9145   -3548.3638   -3962.9145            0   -1379.5057    18.105663    21.326079    22.088866    8529.0146   -2167.3393   -1142.4918   -828.68612    1166.2854    181.19972   -236.53646   -3719.9563 
 4903000    248.87576   -3953.3018   -3526.7373   -3953.3018            0   -181.36918    18.024939    21.230997    21.990384    8415.4434   -274.16234    419.99363   -689.93883    319.70279    656.46899    -662.2906   -3548.9968 
 4904000    234.43451    -3946.342   -3544.5293    -3946.342            0   -345.50975     18.07092    21.285157     22.04648    8480.0103   -691.59089   -1355.1217    1010.1833    -698.0539    686.75926     1155.802   -3587.2592 
 4905000     250.0735   -3964.5665   -3535.9491   -3964.5665            0    630.78543     18.03054    21.237595    21.997217    8423.2911   -98.923677    18.723826    1972.5561    1341.4355   -752.24226    411.05755   -3458.4602 
 4906000    235.30096   -3967.1326   -3563.8348   -3967.1326            0    438.00408    18.030769    21.237864    21.997496     8423.612    644.17009    826.80098   -156.95881    445.00785   -741.39776   -95.460611   -3510.0261 
 4907000    236.49422   -3948.5155   -3543.1725   -3948.5155            0     1844.151    18.018003    21.222827    21.981921    8405.7316    1554.8175    1391.4728    2586.1627   -445.75714    -254.2377   -66.605512   -3317.0999 
 4908000    244.39162   -3961.5675   -3542.6886   -3961.5675            0    2316.5489    18.023446    21.229239    21.988562    8413.3529    1051.4275    1854.2504    4043.9688    852.02309    281.72393   -1018.9049   -3258.4478 
 4909000    255.48845   -3977.2205    -3539.322   -3977.2205            0      813.558    18.064029     21.27704    22.038074    8470.3134    51.617449    1634.1105    754.94606    574.42028   -686.66153   -1400.3989   -3438.8225 
 4910000    260.61669   -3939.5375   -3492.8494   -3939.5375            0    1592.3111    18.068464    21.282264    22.043484    8476.5531    515.46582    2140.9026    2120.5649    1480.1382   -132.69097   -1398.4567    -3296.005 
 4911000    236.06245    -3976.703      -3572.1    -3976.703            0   -323.39082      18.1916    21.427302     22.19371    8651.0399    785.99754   -728.61984   -1027.5501    1697.1628   -1153.1275   -345.89107   -3612.9011 
 4912000    243.74445   -3967.0686   -3549.2989   -3967.0686            0    882.70524     18.04007    21.248819    22.008843    8436.6538    791.21077     863.8539    993.05106    523.69466   -771.05165   -718.37718   -3440.6909 
 4913000     248.9864    -3945.097   -3518.3429    -3945.097            0     1027.747    18.056532    21.268209    22.028927    8459.7708      2077.77    872.63074    132.84023   -389.61116    192.15645    220.33364   -3391.5425 
 4914000    250.14712     -3958.36   -3529.6164     -3958.36            0    2174.9678    17.967392    21.163215    21.920177    8335.0984    2651.6073    2682.7743    1190.5216   -1183.7121   -596.35922    1058.4304   -3265.2298 
 4915000    250.71556   -3930.0893   -3500.3714   -3930.0893            0    2953.4966    17.992778    21.193116    21.951147    8370.4779    3487.1187    2140.6507    3232.7203    617.83619    -799.4623     515.6487   -3139.8238 
 4916000    266.78465    -3938.392   -3481.1322    -3938.392            0    784.01277    18.084634    21.301311    22.063212    8499.3319    923.01986    837.45811    591.56035    832.62558    511.83993   -663.26507   -3383.9507 
 4917000    234.21191   -3947.5086   -3546.0774   -3947.5086            0   -277.55643    18.125605    21.349568    22.113195    8557.2278    828.40976   -1715.7345      54.6555    1125.2993   -764.88972     146.7617    -3580.716 
 4918000    261.15997    -3914.886   -3467.2667    -3914.886            0    55.333138    18.070052    21.284134    22.045421    8478.7884    129.73643   -467.32534    503.58832    125.69634    847.16872    434.14256   -3460.4245 
 4919000    242.25243   -3914.8504    -3499.638   -3914.8504            0    1456.5089    18.062676    21.275446    22.036422    8468.4097    3472.6263   -284.92561    1181.8261    1179.9926    233.34948    177.85638   -3319.7547 
 4920000    242.64848    -3909.703   -3493.8118    -3909.703            0    2180.9991    17.915539    21.102139    21.856916    8263.1422    4390.6896    1359.7238    792.58396    1117.0921    131.13392    614.34142   -3230.9808 
 4921000    241.27479    -3925.655   -3512.1183    -3925.655            0    923.33513    17.939528    21.130394    21.886182    8296.3795   -189.66967      1479.19    1480.4851     236.0069    239.66442   -467.08095   -3400.4001 
 4922000    254.21216    -3946.958   -3511.2471    -3946.958            0    170.68492    18.016892    21.221519    21.980566    8404.1775     1235.378    -108.9047   -614.41853    136.83429    1685.9459    754.44338   -3490.3269 
 4923000    255.51847   -3946.4948   -3508.5449   -3946.4948            0    1158.1008    18.038604    21.247093    22.007054    8434.5972    1950.2971    854.45131    669.55398   -675.81387   -60.557154   -1323.0355    -3366.087 
 4924000    239.62329    -3942.294   -3531.5879    -3942.294            0    335.14674    18.022653    21.228304    21.987594    8412.2416    365.03622    9.7942698    630.60973   -749.95913    425.98581    474.60076   -3490.4708 
 4925000    257.26053   -3929.7302   -3488.7945   -3929.7302            0    404.29858    17.996952    21.198032    21.956239    8376.3041    50.473801    691.74067    470.68126   -675.94214    -360.1068    983.97799   -3439.4054 
 4926000    245.05866   -3942.2343   -3522.2122   -3942.2343            0   -271.96347    18.031466    21.238685    21.998346    8424.5881   -546.46592     227.7717   -497.19618   -1639.5453    1587.0918    654.23658   -3555.6267 
 4927000    257.39671   -3944.0626   -3502.8934   -3944.0626            0     193.6271    18.017066    21.221724    21.980779    8404.4214    419.22216     1129.409   -967.74985    303.21962    372.16067    124.79788   -3479.1606 
 4928000    256.80497   -3950.4423   -3510.2874   -3950.4423            0    1447.6179     17.91436     21.10075    21.855477    8261.5107    3377.4491    684.40727    280.99722    287.15047   -127.04695    953.91201   -3335.8702 
 4929000    246.93664   -3956.6839   -3533.4429   -3956.6839            0    1179.6241    17.914397    21.100793    21.855522    8261.5616     1670.721    1234.4186    633.73265    1215.4787   -445.95925    2077.6984   -3391.3143 
 4930000    245.47079   -3964.0656   -3543.3371   -3964.0656            0   -514.49598    18.005746     21.20839    21.966967    8388.5889   -943.10981   -1597.1899    996.81173   -75.894785    93.767127    -300.5675     -3606.28 
 4931000    248.58542   -3939.6455   -3513.5786   -3939.6455            0    299.35225    18.026307    21.232608    21.992052    8417.3591   -881.45495     165.0569    1614.4548   -92.488475   -1160.9487    826.37927   -3476.8305 
 4932000    261.72363   -3930.8439   -3482.2586   -3930.8439            0    832.49153    17.998628    21.200007    21.958285    8378.6456    -173.1717    564.21896    2106.4273    -14.56619    992.56857    463.82684   -3380.5332 
 4933000     248.1448   -3965.8095   -3540.4978   -3965.8095            0    1152.9426    18.010311    21.213767    21.972537    8394.9714    490.48218    2134.8665    833.47904   -159.57705   -757.87653   -40.635069   -3399.3407 
 4934000    243.37511   -3956.1175   -3538.9809   -3956.1175            0   -158.01506    18.079616      21.2954     22.05709    8492.2586    503.86899   -681.54286   -296.37132    404.30296   -1131.9839   -324.24755   -3558.5512 
 4935000    261.16799   -3958.6991   -3511.0661   -3958.6991            0    435.70018    18.036026    21.244056    22.003909    8430.9815    1155.0521   -35.563346    187.61177   -135.33323    782.37262    1010.1282   -3457.4936 
 4936000    255.42693   -3932.8237   -3495.0307   -3932.8237            0    1275.2653    18.043647    21.253032    22.013207    8441.6729    890.40381   -308.25288    3243.6449   -902.28305   -1099.6595   -1350.8205   -3338.0288 
 4937000    251.91977   -3958.6109    -3526.829   -3958.6109            0    1606.4486    17.983475    21.182158    21.939797    8357.5005    1622.4848    1601.2001    1595.6609   -976.10062     316.1051    1055.5817   -3331.0261 
 4938000    253.12012   -3900.5939   -3466.7546   -3900.5939            0    2286.2189     17.96072    21.155356    21.912037    8325.8166    523.40112    4171.9127    2163.3429   -1635.9586   -661.84742    540.91776    -3189.154 
 4939000    249.44321   -3969.8127   -3542.2756   -3969.8127            0    1384.9135    17.960294    21.154854    21.911517    8325.2235    563.71353    1485.3344    2105.6927    105.97269   -644.32819    1827.1371   -3374.1265 
 4940000    258.60574   -3913.1779   -3469.9365   -3913.1779            0     1195.917    17.992251    21.192495    21.950504     8369.742    460.14531    190.26261    2937.3431   -350.55444   -471.25511    82.587484    -3323.958 
 4941000    246.59615   -3911.5611   -3488.9038   -3911.5611            0    1105.7822    17.972029    21.168676    21.925833    8341.5532   -417.25243    804.58178    2930.0172   -734.22282    384.38079    676.87735    -3354.382 
 4942000    252.97007   -3917.4494   -3483.8674   -3917.4494            0    1864.1277     18.02928    21.236111     21.99568    8421.5256    2620.6667    1928.1048    1043.6116    710.02927   -299.01053    415.52312   -3254.9165 
 4943000    248.94126   -3918.0998    -3491.423   -3918.0998            0   -662.88098    18.086692    21.303734    22.065722    8502.2332    -1408.672   -202.15496   -377.81596   -1099.8103   -45.590939     35.94647   -3573.6178 
 4944000    261.47095     -3938.73   -3490.5778     -3938.73            0    1469.4925     18.05346    21.264591    22.025179    8455.4538    1031.3017    1794.1291    1583.0467   -819.81599    128.41014    943.74859   -3309.3686 
 4945000     253.4451     -3950.52   -3516.1238     -3950.52            0    328.41386    18.093996    21.312337    22.074632    8512.5372    262.88543    222.90026     499.4559    -89.04621    349.72818    264.90349   -3475.3523 
 4946000    246.06614    -3940.357   -3518.6081    -3940.357            0   -413.62079    18.211457    21.450691    22.217936    8679.3999   -937.15942    237.97407   -541.67703    444.97133   0.62798482    1221.8875   -3570.9643 
 4947000     256.2996   -3964.9211   -3525.6324   -3964.9211            0     717.9358    18.101244    21.320875    22.083476    8522.7723    630.06975    657.74513    865.99253    -217.5336    1085.2128   -369.25258   -3436.3959 
 4948000    245.75569   -3938.6812   -3517.4643   -3938.6812            0     1011.006    18.124846    21.348674     22.11227    8556.1533    1339.6159    1107.9143    585.48797   -27.088966   -172.80371   -411.12498   -3391.3082 
 4949000     258.0494   -3935.0442   -3492.7563   -3935.0442            0   -253.50564    18.199724    21.436871     22.20362    8662.6342   -152.36532   -245.25669   -362.89492    488.35261    1628.8332    535.91219   -3524.7831 
 4950000     249.6246   -3937.2004   -3509.3524   -3937.2004            0    680.94299    18.150413    21.378789    22.143462    8592.4127    754.81043    813.26314     474.7554    460.56732    731.13845   -30.783006   -3424.0224 
 4951000    240.22603   -3915.5716   -3503.8324   -3915.5716            0   -504.48499    18.285237    21.537594    22.307947     8785.316   -431.50659   -392.32719   -689.62119   -892.76148   -220.53022    1020.6368   -3568.4694 
 4952000    240.43308   -3889.1432   -3477.0491   -3889.1432            0   -518.43281    18.188227    21.423329    22.189595    8646.2284     129.1217   -129.40628   -1555.0139    78.696227   -127.52897    308.29692   -3542.4216 
 4953000     240.0212   -3929.3268   -3517.9386   -3929.3268            0    357.18785    18.123025     21.34653    22.110048    8553.5752    472.19251    589.65393    9.7171015    1374.3187   -1338.3575   -945.91649   -3473.3812 
 4954000    234.13616   -3917.8449   -3516.5435   -3917.8449            0   -128.16685    18.049346    21.259746     22.02016     8449.675    114.80681   -1477.1829    977.87555   -702.06823    579.23665   -311.02351   -3532.3375 
 4955000    235.86438   -3923.0184   -3518.7549   -3923.0184            0    560.00642    18.109947    21.331125    22.094093    8535.0704     900.9521    519.79185     259.2753    -1081.809    93.698525    1518.9386    -3449.048 
 4956000    241.10725   -3934.2104   -3520.9608   -3934.2104            0   -1727.7349    18.124802    21.348623    22.112216    8556.0913   -1192.2388    -1329.796   -2661.1698   -996.71174   -1152.9721   -316.02289   -3736.5507 
 4957000    247.36451   -3929.9213    -3505.947   -3929.9213            0     695.8292    18.030149    21.237134     21.99674    8422.7434    1056.4778    389.12497    641.88486    390.66119    170.82728    -40.69843   -3420.4734 
 4958000     246.5103   -3918.2328   -3495.7226   -3918.2328            0    1859.0726    18.015342    21.219693    21.978675    8402.0086    1506.8876    2389.5777    1680.7524    494.05229   -286.52749    1141.8349   -3267.9217 
 4959000    236.77464    -3924.151   -3518.3274    -3924.151            0    2650.7455    17.858654    21.035135    21.787516    8184.6809    3437.5535      2712.46     1802.223    237.25993   -1107.1814   -523.74026   -3201.9207 
 4960000    252.22468   -3905.6123   -3473.3079   -3905.6123            0    1195.7999    17.894956    21.077894    21.831804    8234.6941     2830.851    1092.5047   -335.95609    1057.2816   -622.13641    855.47285   -3329.6988 
 4961000    252.27416   -3932.5917   -3500.2025   -3932.5917            0    1507.0574    17.920767    21.108296    21.863294    8270.3778    1133.8358    3350.5049     36.83151    875.99542    1146.8139     295.7543   -3318.4288 
 4962000    260.26067   -3917.3624   -3471.2846   -3917.3624            0    854.63822    18.010402    21.213875    21.972649    8395.0991    2263.5893    424.35887   -124.03356    -402.1747    492.45487    931.56521   -3366.6479 
 4963000    272.71828   -3941.2581   -3473.8283   -3941.2581            0    729.92674    17.944149    21.135837    21.891819    8302.7921    163.81535    1276.6357    749.32918   -1021.6342   -191.51372    838.97695   -3385.4432 
 4964000    252.62595    -3922.379   -3489.3868    -3922.379            0   -650.43819    17.984163    21.182968    21.940636    8358.4597   -993.33711    -753.8197   -204.15776    -26.63093    143.73403   -391.21352   -3568.6749 
 4965000     237.3122   -3970.5304   -3563.7854   -3970.5304            0    1239.9414    17.991315    21.191392    21.949362    8368.4358    827.61206    2279.1863    613.02592    226.64366   -312.07858   -465.54665   -3412.4567 
 4966000    244.39026   -3941.0804   -3522.2039   -3941.0804            0   -34.196421    17.951582    21.144592    21.900888    8313.1146    1046.6655    162.32585   -1311.5806   -397.43479    501.09777   -440.69825   -3526.3498 
 4967000    242.03207   -3958.3469   -3543.5122   -3958.3469            0    1192.3761    17.995765    21.196634    21.954791    8374.6475     635.6812     944.6307    1996.8165    716.49373   -331.94697    232.63978   -3397.8806 
 4968000    244.12121   -3900.8788   -3482.4634   -3900.8788            0    664.01088    18.040026    21.248768     22.00879    8436.5928    554.48377    753.32164    684.22723    1256.5215    152.09452    636.66913   -3400.7642 
 4969000    251.98447   -3901.1572   -3469.2644   -3901.1572            0   -197.06819    18.139232    21.365619    22.129821    8576.5433    537.24334    -879.1997   -249.24822   -571.31753    339.41428     527.5534   -3493.9137 
 4970000    242.66748   -3928.5326   -3512.6089   -3928.5326            0   -1200.6559    18.173684    21.406199    22.171852    8625.5045   -1117.9813   -1293.9779   -1190.0085    856.95511    220.01236    366.70336   -3663.6443 
 4971000    258.21387   -3941.4521   -3498.8824   -3941.4521            0    856.25383    18.050243    21.260802    22.021254     8450.935    258.52615    192.43494    2117.8004   -752.45065    185.56414   -1358.5016   -3393.3506 
 4972000    245.51878   -3940.7526   -3519.9418   -3940.7526            0    1242.4289    18.071025     21.28528    22.046608    8480.1582    1294.9757    326.20539    2106.1057   -689.19281    880.63833   -48.296819   -3366.2852 
 4973000    235.67734   -3926.5798   -3522.6369   -3926.5798            0    1676.9906     18.06149     21.27405    22.034976    8466.7421    510.07357    3048.4976    1472.4007    643.48289    239.62983   -121.76696   -3315.5642 
 4974000    246.25355   -3938.1193   -3516.0491   -3938.1193            0    1688.7302    18.057967    21.269899    22.030677    8461.7876    3067.0154    -849.4191    2848.5943    1128.5958   -440.05136    608.31238   -3307.6489 
 4975000    239.45068   -3944.5941   -3534.1839   -3944.5941            0    464.39823    18.120014    21.342983    22.106374    8549.3117    446.68182   -224.63703    1171.1499    590.28216    552.21003    190.24439   -3476.2813 
 4976000    263.05524   -3953.0203   -3502.1527   -3953.0203            0    872.20021    18.184343    21.418754    22.184856    8640.6897    573.50006     1747.419    295.68154     302.7476    188.92267    340.33364   -3392.2418 
 4977000    265.82053   -3898.2024   -3442.5951   -3898.2024            0    1633.9456    18.131682    21.356726     22.12061    8565.8381    2534.6123    1534.8045    832.42003   -1020.2263    498.67931    -1179.709   -3238.4762 
 4978000    250.85591   -3920.6549   -3490.6965   -3920.6549            0    779.43143    18.110346    21.331595     22.09458    8535.6349    1415.9947    1189.1315   -266.83189   -1445.5067    259.80086   -408.38863   -3393.6702 
 4979000    257.49333   -3956.9431   -3515.6084   -3956.9431            0    974.65424     18.08868    21.306076    22.068147    8505.0373    108.12852    3154.2068   -338.37261   -1805.0997   -85.113562   -964.16633   -3394.7149 
 4980000    245.71905   -3899.7978   -3478.6437   -3899.7978            0    944.21559    18.076826    21.292113    22.053686    8488.3277    479.92281    1080.2796    1272.4444     65.53007   -1482.0518    141.75821   -3361.7559 
 4981000    253.92239   -3941.1242   -3505.9099   -3941.1242            0     1753.348    18.126064    21.350109    22.113756    8557.8786    1084.2562    3109.5923    1066.1954   -746.94397    238.27884    935.13898   -3287.0783 
 4982000     257.0591   -3936.6532   -3496.0627   -3936.6532            0   -671.62636    18.195399    21.431777    22.198344    8656.4603   -1188.6865   -470.25343    -355.9391    -348.8909    -555.3013     -943.209   -3580.8526 
 4983000    243.30115   -3933.3482   -3516.3384   -3933.3482            0     972.2032      18.1021    21.321882    22.084519    8523.9806   -126.36981    1425.9768    1617.0026   -578.39352    172.34781   -359.32264   -3395.4804 
 4984000    258.78607   -3921.2705     -3477.72   -3921.2705            0    1519.8542    18.073203    21.287846    22.049266    8483.2249     345.2062    2246.6147    1967.7415   -731.74749   -3.9344588   -471.85455    -3289.685 
 4985000    242.05153   -3942.3862   -3527.5182   -3942.3862            0   -89.284287    18.148401    21.376419    22.141007    8589.5554   -140.13072   -242.92205    115.19991   -1449.0009   -2412.6636   -452.61694   -3538.7028 
 4986000    247.01741   -3934.5542   -3511.1748   -3934.5542            0    460.45979    18.070985    21.285234     22.04656    8480.1024    670.55891    1976.4894    -1265.669   -192.65709    563.75492   -699.88872   -3454.2281 
 4987000    256.02194   -3948.3499    -3509.537   -3948.3499            0    1.4103008    18.101779    21.321504    22.084128    8523.5272   -77.379118   -274.00328     355.6133    546.31971    176.94502   -260.85641   -3509.3617 
 4988000      255.908   -3935.6805    -3497.063   -3935.6805            0    1111.9054    18.056888    21.268629    22.029361    8460.2719    1490.9009    993.74566    851.06959   -68.485231    370.00616   -511.42661   -3359.8712 
 4989000    246.08207   -3938.3091   -3516.5329   -3938.3091            0    335.55588    18.005659    21.208288    21.966862    8388.4676    444.41434   -500.22066     1062.474    699.62937    -26.36119   -413.77259   -3475.4819 
 4990000    243.54813   -3929.6603   -3512.2271   -3929.6603            0   -432.88735    17.961124    21.155831    21.912529    8326.3773   -1638.6616    408.28102   -68.281449    557.73333   -481.87132    1054.7344   -3564.7934 
 4991000    239.58859   -3976.5439   -3565.8973   -3976.5439            0    1137.0227     18.01591    21.220362    21.979368    8402.8028    1200.5732    544.41452    1666.0805   -42.032991    388.89713    602.33794   -3426.5594 
 4992000    249.02838   -3955.3068   -3528.4807   -3955.3068            0   -28.017148    18.037417    21.245694    22.005606    8432.9322   -1190.4246    120.46107    985.91213    1139.3701     624.8997   -339.56669   -3531.9264 
 4993000    237.18973    -3904.388   -3497.8529    -3904.388            0    734.81148    18.084201      21.3008    22.062683    8498.7213   -125.31546   -210.80978    2540.5597     675.5171   -1185.4994    805.21386   -3406.7766 
 4994000    239.27702   -3928.3671   -3518.2545   -3928.3671            0    3459.4098     17.96059    21.155203    21.911878     8325.636    2089.4388    5157.9981    3130.7925    1676.2652   -445.41733    459.15244   -3098.2099 
 4995000     260.9608   -3941.0163   -3493.7384   -3941.0163            0    731.59917      18.0196    21.224709     21.98387    8407.9675    1524.9175    951.18657   -281.30659    348.03164   -87.831867     881.2772   -3404.0286 
 4996000    241.75641    -3917.736   -3503.3737    -3917.736            0   -1608.6406    18.072855    21.287436    22.048841     8482.735   -1833.4367   -912.64239   -2079.8426    744.25008   -67.061698    572.60256   -3702.3819 
 4997000    246.80235   -3947.3451   -3524.3343   -3947.3451            0    621.13178    17.902501    21.086782     21.84101    8245.1154   -1009.8244    843.97152    2029.2482   -144.47341   -481.86255    176.45921   -3449.6453 
 4998000    254.71497   -3913.2402   -3476.6674   -3913.2402            0    1057.8432    17.887444    21.069046     21.82264    8224.3285    755.85465    631.06582    1786.6093    464.14685    -207.0057   -538.97222   -3349.7861 
 4999000    240.36242    -3944.146    -3532.173    -3944.146            0   -92.179086    17.986676    21.185928    21.943703    8361.9644   -1546.3523    352.80515    917.00984   -902.87771   -151.28273   -1160.8936   -3543.4143 
 5000000    257.05732   -3909.4525   -3468.8651   -3909.4525            0     443.5471    17.913438    21.099664    21.854353    8260.2359      -469.09   -36.489928    1836.2212   -845.67554   -172.61941   -349.78589   -3415.4323 
Loop time of 350.788 on 64 procs for 250000 steps with 864 atoms

Performance: 123.151 ns/day, 0.195 hours/ns, 712.680 timesteps/s
195.1% CPU use with 32 MPI tasks x 2 OpenMP threads

MPI task timing breakdown:
Section |  min time  |  avg time  |  max time  |%varavg| %total
---------------------------------------------------------------
Pair    | 24.426     | 27.246     | 30.781     |  29.4 |  7.77
Bond    | 0.79643    | 1.1335     | 1.5344     |  15.4 |  0.32
Kspace  | 169.3      | 176.43     | 182.42     |  21.0 | 50.29
Neigh   | 2.5762     | 3.2363     | 3.6465     |  18.0 |  0.92
Comm    | 58.441     | 64.453     | 71.36      |  43.9 | 18.37
Output  | 0.56356    | 0.56427    | 0.56646    |   0.1 |  0.16
Modify  | 63.629     | 66.321     | 73.035     |  21.7 | 18.91
Other   |            | 11.41      |            |       |  3.25

Nlocal:        27.0000 ave          35 max          20 min
Histogram: 1 1 8 1 7 3 6 2 2 1
Nghost:        2297.94 ave        2337 max        2259 min
Histogram: 3 2 4 2 5 5 3 3 3 2
Neighs:        7475.72 ave        9556 max        5123 min
Histogram: 1 1 5 2 6 7 3 2 3 2

Total # of neighbors = 239223
Ave neighs/atom = 276.87847
Ave special neighs/atom = 2.0000000
Neighbor list builds = 11834
Dangerous builds = 0

unfix		3
unfix		2
unfix		1

write_data	data.final.${pid}
write_data	data.final.1
System init for write_data ...
PPPM initialization ...
  extracting TIP4P info from pair style
  using 12-bit tables for long-range coulomb (../kspace.cpp:340)
  G vector (1/distance) = 0.37280019
  grid = 24 25 25
  stencil order = 5
  estimated absolute RMS force accuracy = 0.0031551316
  estimated relative force accuracy = 9.5015852e-06
  using double precision FFTW3
  3d grid and FFT values/proc = 4116 672
Last active /omp style is kspace_style pppm/tip4p/omp
WARNING: Not all mixed pair coeffs generated from mixing. Use write_data with 'pair ij' option to store all pair coeffs. (../write_data.cpp:312)

write_restart   restart.lmp.${pid}
write_restart   restart.lmp.1
System init for write_restart ...
PPPM initialization ...
  extracting TIP4P info from pair style
  using 12-bit tables for long-range coulomb (../kspace.cpp:340)
  G vector (1/distance) = 0.37280019
  grid = 24 25 25
  stencil order = 5
  estimated absolute RMS force accuracy = 0.0031551316
  estimated relative force accuracy = 9.5015852e-06
  using double precision FFTW3
  3d grid and FFT values/proc = 4116 672
Last active /omp style is kspace_style pppm/tip4p/omp
Total wall time: 0:05:50
