LAMMPS (30 Jul 2021)
Processor partition = 0
  using 4 OpenMP thread(s) per MPI task
using multi-threaded neighbor list subroutines
variable        pid world 0 1
variable        phase world IceIh Liquid

shell cd ${phase}
shell cd IceIh
include Restart.lmp
echo both
log log.lammps
#include		in.partitions
include		in.temp
variable        temperature equal 278.53
variable	tempDamp equal 100.0
include		in.pressure
variable        pressure equal -1750.0
variable        pressureDamp equal 1000.0 # This is 1 ps
include		in.seed
variable        seed equal 745823

units		real
atom_style	full
#include		in.box
read_restart	restart.lmp.${pid}
read_restart	restart.lmp.0
Reading restart file ...
  restart file = 30 Jul 2021, LAMMPS = 30 Jul 2021
  restoring atom style full from restart
  orthogonal box = (-0.039960491 -0.00076198679 -0.11663291) to (18.247533 23.629940 22.329829)
  2 by 4 by 2 MPI processor grid
  restoring pair style lj/cut/tip4p/long/omp from restart
  restoring bond style harmonic/omp from restart
  restoring angle style harmonic/omp from restart
  864 atoms
  576 bonds
  288 angles
Finding 1-2 1-3 1-4 neighbors ...
  special bond factors lj:    0        0        0       
  special bond factors coul:  0        0        0       
     2 = max # of 1-2 neighbors
     1 = max # of 1-3 neighbors
     1 = max # of 1-4 neighbors
     2 = max # of special neighbors
  special bonds CPU = 0.001 seconds
  read_restart CPU = 0.005 seconds
include 	in.setup
variable	out_freq equal 1000
variable	out_freq2 equal 10000
variable	out_freq3 equal 1000

timestep	2.0

neigh_modify    delay 7 every 1

include		in.tip4p
# This is TIP4P/Ice

# create groups ###
group ox type 2
288 atoms in group ox
group hy type 1
576 atoms in group hy

# set charges - beside manually ###
set group ox charge -1.1794
Setting atom values ...
  288 settings made for charge
set group hy charge 0.5897
Setting atom values ...
  576 settings made for charge

# ### TIP3P Potential Parameters ###
pair_style lj/cut/tip4p/long/omp 2 1 1 1 0.1577 8.5
pair_coeff 1 1*2 0.000 0.000
pair_coeff 2 2 0.21084 3.1668
bond_style  harmonic
bond_coeff  1 450 0.9572
angle_style harmonic
angle_coeff 1 55 104.52
kspace_style pppm/tip4p/omp 1.0e-5
pair_modify tail yes

thermo          ${out_freq}
thermo          1000
thermo_style    custom step temp pe etotal epair emol press lx ly lz vol pxx pyy pzz pxy pxz pyz enthalpy

restart 	${out_freq3} restart.lmp.${pid} restart2.lmp.${pid}
restart 	1000 restart.lmp.${pid} restart2.lmp.${pid}
restart 	1000 restart.lmp.0 restart2.lmp.${pid}
restart 	1000 restart.lmp.0 restart2.lmp.0


include         in.dump
dump            myDump all atom ${out_freq2} dump.water.${pid}
dump            myDump all atom 10000 dump.water.${pid}
dump            myDump all atom 10000 dump.water.0
dump            myDump2 all dcd ${out_freq2} dump.dcd
dump            myDump2 all dcd 10000 dump.dcd
dump_modify     myDump append yes
dump_modify     myDump2 append yes


variable natoms 	equal  "count(all)"                        # NUMBER ATOMS
variable H      	equal  "enthalpy/v_natoms"                 # ENTHALPY-per-atom
variable Vol      	equal  "vol/v_natoms"                 # volume-per-atom
fix AVG all 		ave/time ${out_freq} 1 ${out_freq} v_Vol v_H file vol_enthalpy.dat
fix AVG all 		ave/time 1000 1 ${out_freq} v_Vol v_H file vol_enthalpy.dat
fix AVG all 		ave/time 1000 1 1000 v_Vol v_H file vol_enthalpy.dat


timer           timeout 23:50:00 every 1000
New timer settings: style=normal  mode=nosync  timeout=23:50:00

fix 		1 all shake 1e-6 200 0 b 1 a 1
Finding SHAKE clusters ...
       0 = # of size 2 clusters
       0 = # of size 3 clusters
       0 = # of size 4 clusters
     288 = # of frozen angles
  find clusters CPU = 0.000 seconds
fix             2 all nph aniso ${pressure} ${pressure} ${pressureDamp}
fix             2 all nph aniso -1750 ${pressure} ${pressureDamp}
fix             2 all nph aniso -1750 -1750 ${pressureDamp}
fix             2 all nph aniso -1750 -1750 1000
fix             3 all temp/csvr ${temperature} ${temperature} ${tempDamp} ${seed}
fix             3 all temp/csvr 278.53 ${temperature} ${tempDamp} ${seed}
fix             3 all temp/csvr 278.53 278.53 ${tempDamp} ${seed}
fix             3 all temp/csvr 278.53 278.53 100 ${seed}
fix             3 all temp/csvr 278.53 278.53 100 745823


run             250000
PPPM initialization ...
  extracting TIP4P info from pair style
  using 12-bit tables for long-range coulomb (../kspace.cpp:340)
  G vector (1/distance) = 0.37305536
  grid = 24 27 27
  stencil order = 5
  estimated absolute RMS force accuracy = 0.0028695302
  estimated relative force accuracy = 8.6415048e-06
  using double precision FFTW3
  3d grid and FFT values/proc = 6615 1296
Last active /omp style is kspace_style pppm/tip4p/omp
Neighbor list info ...
  update every 1 steps, delay 7 steps, check yes
  max neighbors/atom: 2000, page size: 100000
  master list distance cutoff = 10.8154
  ghost atom cutoff = 10.8154
  binsize = 5.4077, bins = 4 5 5
  1 neighbor lists, perpetual/occasional/extra = 1 0 0
  (1) pair lj/cut/tip4p/long/omp, perpetual
      attributes: half, newton on, omp
      pair build: half/bin/newton/omp
      stencil: half/bin/3d
      bin: standard
Setting up Verlet run ...
  Unit style    : real
  Current step  : 7250000
  Time step     : 2
  Walltime left : 23:49:59.96
Per MPI rank memory allocation (min/avg/max) = 12.26 | 12.29 | 12.31 Mbytes
Step Temp PotEng TotEng E_pair E_mol Press Lx Ly Lz Volume Pxx Pyy Pzz Pxy Pxz Pyz Enthalpy 
 7250000    293.46759   -4145.4987   -3642.5053   -4145.4987            0    -2023.629    18.287493    23.630702    22.446462    9700.1554   -1542.8293   -2406.7188    -2121.339   -502.90394    756.13312    191.70276   -3928.7816 
 7251000    278.30288   -4160.9968   -3683.9952   -4160.9968            0   -1996.2776    18.644182    23.579077    22.176608    9749.1164   -3266.4775   -481.36997   -2240.9853   -481.26723    302.86221   -149.49679   -3967.8277 
 7252000    282.84911   -4173.3004   -3688.5067   -4173.3004            0   -1866.9076    18.320152    23.728387    22.383589    9730.3175   -1648.3965   -2181.2349   -1771.0915   -623.45759    330.23147   -682.22549   -3953.4334 
 7253000    286.99724   -4186.3727   -3694.4693   -4186.3727            0   -2421.1958    18.103196    23.945779    22.425701    9721.4321   -1628.7568   -2511.6461   -3123.1844   -41.265185   -304.70064    10.746648   -4037.7394 
 7254000    267.53391   -4193.3166   -3734.7727   -4193.3166            0   -1841.7388    18.265347    23.896427    22.117756    9653.8813   -1524.2134   -2555.0615   -1445.9414    246.36259    288.95994    85.536139   -3994.0747 
 7255000    289.73062   -4174.9294   -3678.3411   -4174.9294            0   -309.35258     18.39905    23.365488    22.262501    9570.7107   -212.44527   -677.25616    -38.35631    485.80784    769.72507    -388.4865   -3721.5202 
 7256000     279.8244   -4146.2618   -3666.6524   -4146.2618            0   -1498.8695    18.433184    23.558025    22.276961    9673.7571    -2623.399   -364.01055   -1509.1988   -926.26691    50.789054    250.72449   -3878.1156 
 7257000    280.09301   -4177.2885   -3697.2187   -4177.2885            0   -1503.5261    18.107105    23.792313    22.322758    9616.8655   -1300.5501    -1580.436   -1629.5924   -558.11616    97.126771   -23.498127   -3908.0914 
 7258000    289.11921   -4171.1675   -3675.6271   -4171.1675            0   -2071.4556    18.197352    23.872207    22.385839    9724.6535   -1431.6484   -1993.7742   -2788.9443    764.33498    61.203269    807.98704   -3969.4094 
 7259000    301.21656   -4181.5816   -3665.3067   -4181.5816            0   -1979.3577    18.429768    23.817496    22.021179    9666.2171   -2832.2565   -2129.6148   -976.20185    905.58254   -332.48876    277.54342   -3944.3405 
 7260000    267.62292   -4140.9481   -3682.2516   -4140.9481            0   -994.28657    18.387478    23.382307    22.282506    9580.1778   -1972.1447    188.81655   -1199.5315    718.70304   -493.73844    308.67404   -3821.1704 
 7261000    281.11664    -4174.834   -3693.0097    -4174.834            0    307.58605    18.203197    23.406137     22.36657    9529.6469    918.26184    543.79788   -539.30159    289.29057    -1174.662    186.11576   -3650.2613 
 7262000    282.28533   -4121.2423   -3637.4149   -4121.2423            0    -1667.254    18.339643    23.837845    22.332864    9763.4276   -2763.7304   -1229.6646   -1008.3669   -1396.9166    367.48293   -833.50218   -3874.8145 
 7263000    284.53111   -4138.7357   -3651.0591   -4138.7357            0   -3082.4617    18.212827    23.881922    22.626856    9841.7164   -2520.7179   -4447.7093   -2278.9577    847.64027   -1277.2649    77.630353    -4093.489 
 7264000    277.99309   -4186.4215   -3709.9509   -4186.4215            0    -2882.762    18.417863    23.791135    22.269386    9758.0411    -2501.713   -3197.2006   -2949.3724   -190.14697   -584.75049     -48.7372   -4120.1997 
 7265000    274.21178   -4157.7341   -3687.7445   -4157.7341            0   -1425.1474    18.272698    23.646377    22.375044    9667.8785   -1335.4902   -462.62306   -2477.3289     502.2608   -218.85817    133.45679   -3888.6847 
 7266000    285.81643   -4179.9691   -3690.0895   -4179.9691            0   -890.22972     18.23841    23.663328    22.264356    9608.8834   -1378.9939   -658.77228   -632.92302    -719.5028   -893.77111   -490.17032   -3814.8425 
 7267000     274.2705   -4159.7798   -3689.6896   -4159.7798            0   -728.65922    18.062615    23.998562    22.171321    9610.7529    619.21942   -2839.9065    34.709395   -180.58075   -1016.8788     -273.029   -3791.8206 
 7268000    265.64441   -4180.1866   -3724.8812   -4180.1866            0   -1548.3485    18.111402    23.739831    22.449749    9652.5305   -288.38998    -1690.765   -2665.8904   -294.06315    325.59762    222.90262   -3942.8457 
 7269000    269.66196   -4145.5296   -3683.3382   -4145.5296            0   -2674.2791    18.476251    23.746343    22.275141    9773.0711   -4314.4414   -1282.0945   -2426.3015   -391.84234   -279.63969    527.97223   -4064.5038 
 7270000    284.32244   -4195.0346   -3707.7157   -4195.0346            0    -3479.214    18.402069    23.684338    22.467985    9792.4654   -3293.0896   -4121.2702   -3023.2823    723.58857   -378.00342   -606.35507   -4204.5929 
 7271000    268.35965   -4161.2341   -3701.2748   -4161.2341            0    -2587.872    18.352557    23.760061    22.432989    9782.0814   -2541.2628   -2038.9177   -3183.4355    329.07397    10.463134    344.13047   -4070.4648 
 7272000    297.00947   -4174.9253   -3665.8612   -4174.9253            0   -2673.9763    18.388352    23.868318     22.16744    9729.2681   -1965.4159   -3462.5694   -2593.9436   -765.90154    667.14505   -727.22643   -4045.2754 
 7273000    266.78291   -4174.1109   -3716.8541   -4174.1109            0   -371.72254    17.970463    23.688691    22.666079    9648.8762   -1147.0558    1557.0302    -1525.142    727.41639   -590.75805   -725.46458   -3769.1625 
 7274000    296.41146   -4136.4615   -3628.4224   -4136.4615            0   -1649.6404    18.272789     23.88419    22.335182    9747.7605   -593.21931   -2713.1104   -1642.5915   -1232.4087     51.57188    650.66939   -3862.9371 
 7275000    278.96082   -4155.0159   -3676.8866   -4155.0159            0   -3152.9287    18.517763    23.795292    22.301931    9827.0242   -1870.5673   -4674.3497   -2913.8692   -845.64617   -120.93839    176.73591   -4128.7551 
 7276000    292.75109   -4146.4796   -3644.7142   -4146.4796            0   -1278.5101    18.270796    23.582913    22.329164    9621.1586   -281.96971   -1562.1669   -1991.3935   -472.46945    121.16787   -91.976721    -3824.108 
 7277000    297.19194   -4183.3399   -3673.9631   -4183.3399            0   -1905.7421    18.348918    23.714614    22.151956    9639.1468   -2018.8808   -1889.0082   -1809.3372   -344.07896    191.88623    3.8251752   -3941.8668 
 7278000    277.11226   -4184.1855   -3709.2245   -4184.1855            0   -1411.6212    18.086981    23.565291    22.667608    9661.5007   -1491.5415   -1666.2498   -1077.0723     176.4755   -847.37514    48.713848   -3908.1263 
 7279000    277.58133   -4205.7123   -3729.9474   -4205.7123            0   -2000.8807    18.284508    23.884863     22.17857    9685.8911   -2341.4254   -2497.7602   -1163.4565    41.985411   -878.17844    -362.6781   -4012.5893 
 7280000    298.59182    -4171.839   -3660.0628    -4171.839            0   -1778.8714    18.279529    23.862228    22.260838    9709.9612   -1183.0078   -3081.4183   -1072.1881    466.07277    372.90806    491.19716   -3911.9685 
 7281000    271.10234   -4112.3688   -3647.7086   -4112.3688            0   -1447.6003    18.273388    23.629841     22.51256    9720.8614   -1518.1987   -1221.9322   -1602.6702    345.02728   -1238.9752   -526.10531   -3852.9332 
 7282000    280.30906   -4153.0777   -3672.6375   -4153.0777            0   -2331.4262    18.542198    23.677336    22.176023    9735.9358   -2756.3505   -2706.7232   -1531.2051   -411.29347   -659.49888    695.16745   -4003.6736 
 7283000     280.9728   -4167.9246   -3686.3468   -4167.9246            0   -1207.0315    18.120558    23.772101    22.436407    9664.7905   -1720.8302   -1413.8949    -486.3695    988.09173   -431.09614    180.40693   -3856.4792 
 7284000    280.18956   -4200.1202   -3719.8848   -4200.1202            0   -1218.9069    18.102938    23.830348    22.295475    9618.2527   -1688.6553   -1218.5675   -749.49799   -332.86808    168.26034   -991.57506   -3890.8638 
 7285000    271.18012   -4199.8021   -3735.0087   -4199.8021            0   -425.85635    18.284447    23.550805    22.194068    9557.0641   -1338.9528   -68.353067    129.73681    1137.2865   -12.083652    168.60828   -3794.3645 
 7286000    269.10757   -4184.6606   -3723.4195   -4184.6606            0   -1734.7923     18.50421    23.514391    22.179365    9650.5799   -2378.9086   -1832.7135   -992.75493    24.904261    537.38035    473.73598   -3967.5807 
 7287000    290.48315   -4178.1459   -3680.2678   -4178.1459            0   -2756.4264      18.1831    23.789403    22.489099    9727.9993   -619.23644   -2368.9327   -5281.1099    4.6804937   -472.16633    626.20411   -4071.3299 
 7288000    276.35208   -4164.3807   -3690.7227   -4164.3807            0   -1977.5132    18.202871    23.818034    22.398196    9710.8856   -1302.0766   -171.15872   -4459.3043    588.85759   -96.726469   -529.12312   -3970.7847 
 7289000    282.01877   -4166.2462   -3682.8756   -4166.2462            0   -1879.4993    18.309292    23.851485    22.138551    9667.9896    -1826.023   -1944.9628    -1867.512    712.24998    764.57211    538.57748   -3947.8807 
 7290000    267.01485    -4156.412   -3698.7577    -4156.412            0    -2117.273    18.491287    23.282189    22.561275    9713.0269   -1412.2483   -502.21855   -4437.3521   -191.86481    197.09253     728.5849    -3998.679 
 7291000    284.10994   -4178.0564   -3691.1017   -4178.0564            0    -2508.973    18.446326    23.586468    22.337534    9718.6967    -3183.632   -963.40748   -3379.8795    634.69957   -650.55981    -226.1736   -4046.7166 
 7292000    279.67662   -4172.2551    -3692.899   -4172.2551            0   -1308.3559    18.119824    24.059398    22.136843    9650.6019   -1383.0009   -2236.6368   -305.43001    1810.5965   -49.001166   -292.50204   -3877.0424 
 7293000    270.49142   -4138.6323   -3675.0193   -4138.6323            0   -1475.8489     18.13008    23.869692      22.3793    9684.8531   -1455.2305   -3070.2632    97.946868    448.58006   -6.7018648   -62.354231   -3883.4736 
 7294000    268.06659   -4147.0593   -3687.6023   -4147.0593            0   -490.21684    18.306411    23.590848    22.250561    9609.2112   -839.54018   -1135.3358    504.22542   -988.21322    84.327845    448.33488   -3756.3015 
 7295000    270.02832    -4215.417   -3752.5977    -4215.417            0   -636.14281    18.385441    23.389726    22.313159    9595.3374   -2287.5081    615.38112   -236.30149    5.5801335    339.24828   -167.15524   -3841.6184 
 7296000    298.86408   -4179.1813   -3666.9385   -4179.1813            0   -1443.4786    18.472686    23.625207    22.247148    9709.1229   -2440.9776   -1620.6817    -268.7767   -282.63005    968.88785     7.614663   -3871.3316 
 7297000    262.55845   -4155.5979   -3705.5817   -4155.5979            0   -2689.7674    18.245147    23.975878    22.300384    9755.1561   -1180.9646    -3939.512   -2948.8257   -933.55921    145.67875    809.77088   -4088.2521 
 7298000    287.74568   -4178.7536   -3685.5674   -4178.7536            0   -1476.4449    17.885555    23.813454    22.523607    9593.1834   -869.70026   -1614.6542   -1944.9804    982.22415   -332.17648   -321.94959    -3892.132 
 7299000    285.54263   -4161.2089   -3671.7986   -4161.2089            0   -1575.1651    18.246829    23.796883    22.319622    9691.5739   -1739.8896   -630.79662    -2354.809    40.493728   -265.05638   -897.74259   -3894.4351 
 7300000    271.93514   -4167.9945    -3701.907   -4167.9945            0   -2188.6765    18.401112    23.709297     22.33781     9745.482   -2666.6013   -1287.5723   -2611.8557   -604.00346   -152.45634   -257.79424   -4012.9789 
 7301000    293.57276   -4163.5449   -3660.3712   -4163.5449            0   -2209.6547    18.487546    23.502745    22.378733    9723.7401   -1151.6732   -2237.0982   -3240.1927   -180.70327   -526.05026    341.13232   -3973.7241 
 7302000    277.06121   -4170.5538   -3695.6804   -4170.5538            0   -1932.8531    18.345174    23.691984    22.298652    9691.7429   -1748.2125   -1851.1868   -2199.1601    686.07982    281.10801    693.81909   -3968.8778 
 7303000    279.77904   -4188.1399   -3708.6082   -4188.1399            0   -449.01172    18.065628    23.761456    22.288752    9567.7952   -718.92783   -46.813601   -581.29373   -291.72369   -706.72399    313.32593   -3771.2618 
 7304000    293.78776   -4174.0432    -3670.501   -4174.0432            0   -1538.8588    18.185517    23.678843    22.344485    9621.8036   -1663.0415   -879.22271   -2074.3123   -778.37421   -97.113714   -556.15125   -3886.4401 
 7305000    286.20023   -4181.3268   -3690.7894   -4181.3268            0   -683.26249    18.429175    23.667803    22.121932    9649.1019    -764.2318   -356.40016    -929.1555   -508.41615   -289.75052   -131.45871   -3786.9397 
 7306000    268.97024   -4111.6276   -3650.6218   -4111.6276            0   -906.59652    18.337166     23.53877     22.36729    9654.4905   -231.84806    -706.4103   -1781.5312    1011.1206   -164.23975    979.36854   -3778.2714 
 7307000    281.89798   -4173.8606   -3690.6971   -4173.8606            0     -1701.48    18.184282    23.850297    22.387651    9709.5359    -1229.058    -981.6613   -2893.7207   -93.338698   -707.70671    295.26104   -3931.6328 
 7308000    274.10029   -4154.8986   -3685.1001   -4154.8986            0   -1574.5636    18.115545    24.127239    22.231143    9716.7453   -816.07814    -3091.608   -816.00462    374.91505   -538.75907   -64.837534   -3908.2295 
 7309000     276.1525   -4152.2852   -3678.9693   -4152.2852            0   -2848.9522    18.330991    23.887485    22.321364    9774.1068   -3031.1302    -3479.464   -2036.2623    179.55293   -115.32721    316.79584   -4085.0741 
 7310000    263.19991   -4181.4703   -3730.3546   -4181.4703            0   -3020.3764    18.405907    23.407832    22.555258     9717.761   -3247.6594   -2423.2822   -3390.1876    293.42888    -157.0969    78.897844   -4158.4132 
 7311000    279.33356   -4172.5287   -3693.7605   -4172.5287            0   -2305.5559    18.398448    23.995369    22.003621    9714.1051   -1686.3151   -4022.3719   -1207.9807    628.22945     774.6951   -341.03246   -4020.3892 
 7312000    275.15455   -4138.8992   -3667.2938   -4138.8992            0   -3506.8952     18.21842    23.917335    22.468446    9790.3122   -2473.5814   -3646.9361   -4400.1681     329.9862   -228.58047   -257.07053   -4168.0141 
 7313000     299.7252   -4160.5048   -3646.7861   -4160.5048            0   -2675.9112    18.259218    24.003238    22.281957    9765.7437   -3297.4526   -2937.0953   -1793.1858    160.90968    379.74356    241.96772   -4027.8983 
 7314000    269.71744   -4146.1161   -3683.8297   -4146.1161            0   -1722.6153    18.436219    23.586938    22.189165    9649.0465   -2870.2884   -535.02446   -1762.5332   -152.70462   -140.76954   -159.76209   -3926.2386 
 7315000    261.14339   -4176.5475   -3728.9567   -4176.5475            0   -1245.0683    18.348438    23.401725    22.421863    9627.6137    -727.0434   -1764.8389   -1243.3226   -580.64291   -578.39195   -19.538008   -3903.7753 
 7316000    295.17942   -4158.9039   -3652.9764   -4158.9039            0   -1834.0402    18.471572    23.852001    22.181651    9772.8793   -3418.9948   -1453.5505   -629.57533   -338.09946    66.354486     337.2273   -3914.3774 
 7317000    274.88686   -4198.4884   -3727.3417   -4198.4884            0   -2812.2416    18.183686    23.922309    22.491748    9783.8151   -2603.9931   -2203.7672   -3628.9645     87.07117   -673.50332   -77.480434   -4128.6118 
 7318000    276.45109   -4168.8325   -3695.0048   -4168.8325            0   -1926.2724    18.215259    23.793103    22.429116    9720.7233   -1956.1265   -1358.4212   -2464.2695   -259.70319    192.52506    172.87111   -3968.0862 
 7319000    273.38468   -4203.3896   -3734.8176   -4203.3896            0   -2918.5041    18.314538    23.748484     22.33507    9714.4716   -3076.4121   -3135.5331   -2543.5671    -711.0511   -310.02375    768.20475   -4148.2985 
 7320000    261.47442   -4131.9438   -3683.7856   -4131.9438            0    -2637.272    18.501754    23.818082    22.066023     9723.973   -3461.7814   -3198.5282   -1251.5065    54.460333    315.67239    267.31301   -4057.7882 
 7321000    270.43496   -4153.7357   -3690.2195   -4153.7357            0   -1718.9132    18.260695    23.647558    22.484558    9709.3009   -1436.2102   -1482.0678   -2238.4618    493.18786    393.29556    140.57485   -3933.6179 
 7322000    304.50757   -4141.7048   -3619.7892   -4141.7048            0   -1967.4017    18.245076     23.88729    22.363079    9746.3983   -2496.0898   -2175.5021   -1230.6132    84.700575   -659.95963    137.87911   -3899.4381 
 7323000    264.89771   -4185.9605   -3731.9349   -4185.9605            0   -1535.7239    18.321843    23.815129    22.087281    9637.4992   -1380.4873   -3060.8648   -165.81945    59.925491   -515.15144    24.867849   -3947.7855 
 7324000    288.95326   -4201.7427   -3706.4867   -4201.7427            0   -2055.0033    18.208641    23.498411    22.638923    9686.6093   -2071.9788   -1149.4296   -2943.6016   -247.23541   -203.07848   -422.73652   -3996.7955 
 7325000    276.79238    -4165.327   -3690.9143    -4165.327            0   -2308.0487    18.374526    23.840325    22.233462    9739.4714   -3150.5564   -1584.8904   -2188.6992    631.04131    -651.6764   -95.781215     -4018.75 
 7326000    280.56695   -4185.7146   -3704.8324   -4185.7146            0   -1833.9753    18.297165     23.80433    22.260835    9695.7454   -983.13788   -2491.4684   -2027.3197    75.661718   -501.04779    144.86668   -3964.1611 
 7327000    263.52006   -4173.8487   -3722.1843   -4173.8487            0    -2020.569    18.134451    23.732756    22.538294    9700.0426   -629.78174    -1480.481   -3951.4441   -772.99855   -298.76048    184.03018   -4008.0245 
 7328000    292.88844   -4139.6828   -3637.6821   -4139.6828            0   -1539.5644    18.428614     23.86743    22.062825    9704.1939   -1650.8902   -2504.4323   -463.37063   -727.71126   -303.23858    902.59207     -3855.57 
 7329000    272.31096   -4176.6316      -3709.9   -4176.6316            0   -891.74535    18.348293    23.643069    22.249105    9651.8837   -2799.9829    2211.2406   -2086.4938    167.48947   -844.74483    593.21953   -3835.4246 
 7330000    286.38736   -4142.1256   -3651.2674   -4142.1256            0   -2618.0832    18.292244     23.68423    22.464832    9732.6122   -2103.3275   -4061.8739    -1689.048     535.5742     22.55314    259.14584   -4022.8786 
 7331000    272.00708   -4159.9332   -3693.7224   -4159.9332            0   -2210.3724    18.390468    23.716816    22.390974     9766.122   -1494.7758   -2169.7408   -2966.6007   -251.38539    1065.8924    425.12749   -4008.5433 
 7332000    266.98552    -4175.226    -3717.622    -4175.226            0   -2144.8049    18.429963     23.68904    22.263649    9720.0449   -2271.4626   -3040.6223   -1122.3299   -68.066057    785.44267    -1380.054   -4021.6628 
 7333000    262.51994   -4164.5041   -3714.5539   -4164.5041            0   -2677.5815    18.046487    23.876638    22.532228    9708.8987   -1359.1449   -2395.5807   -4278.0189    119.01642    656.05951    -354.4351   -4093.6843 
 7334000     283.1964   -4130.4991   -3645.1102   -4130.4991            0   -1253.8546    18.267717    23.907723    22.263112    9723.1809   -927.55056   -967.23603   -1866.7772   -1061.3089    593.61998     42.32672   -3822.9101 
 7335000    279.23844    -4185.678   -3707.0729    -4185.678            0    767.34395    18.092732    23.556957     22.29978    9504.3828    1606.5181    3.9178846    691.59587    495.14125   -596.49142    310.44858     -3600.71 
 7336000    284.13636   -4186.1281   -3699.1281   -4186.1281            0   -807.75155    18.345463    23.575689     22.17767    9591.9962   -1115.2248   -869.95824   -438.07159    633.70052   -612.26651    486.39116    -3812.124 
 7337000    273.19394   -4191.5933   -3723.3483   -4191.5933            0   -1377.8381    18.242865    23.597382    22.322198     9609.346   -2406.8026   -1091.1811   -635.53062    71.054139   -901.59169    84.767084   -3916.4419 
 7338000    286.28725   -4151.9608   -3661.2743   -4151.9608            0   -1328.9409    18.209726     23.68506    22.404066    9662.8392   -1983.5604   -1639.6397    -363.6226   -1163.9015    768.03945    242.85126   -3848.5521 
 7339000    281.15894   -4222.4623   -3740.5655   -4222.4623            0    -1777.862    18.191005    24.005277    22.048995    9628.3573   -893.73885   -2928.3048   -1511.5424   -884.90206     442.6264    1247.3426   -3990.2124 
 7340000    279.36433   -4165.9772   -3687.1563   -4165.9772            0   -1759.7179    18.206117    23.813379    22.387069    9705.8949   -1025.9007   -1785.4896   -2467.7632    1026.0684    662.33618   -194.07105   -3936.2453 
 7341000    258.94234   -4167.0766   -3723.2583   -4167.0766            0   -1388.0794    18.363149    23.512009    22.255281    9608.8181   -1750.4828    -396.5847   -2017.1706    220.44312    167.48906   -129.35914   -3917.7765 
 7342000    280.45855   -4154.5734    -3673.877   -4154.5734            0   -1440.6466    18.366712    23.608423    22.148636    9603.8508   -1201.9496   -1206.1451   -1913.8452   -482.19051   -386.96035    299.76924   -3875.6573 
 7343000    274.28955   -4187.1065   -3716.9836   -4187.1065            0   -1017.2166    18.082227    23.759386    22.378813     9614.444    -908.6268   -2318.3751    175.35209   -829.50664   -1099.8403    456.18831   -3859.6144 
 7344000    286.07134   -4206.6415    -3716.325   -4206.6415            0   -1246.2591     18.16564    23.762722    22.216075     9589.903   -1336.4732    -1701.584   -700.72021    485.66781    34.429001    317.01237   -3890.6254 
 7345000    287.66795   -4219.5027   -3726.4497   -4219.5027            0   -963.80624    18.008698    23.713432    22.404343    9567.7306    -972.1583   -1395.1391   -524.12138    300.30091    605.42259   -163.92139   -3860.9349 
 7346000     270.8384   -4137.7897    -3673.582   -4137.7897            0   -2025.3064    18.373612    23.767741    22.322934    9748.4088    -1442.636   -2374.0805   -2259.2029     389.7619   -49.512988   -310.00788   -3961.5209 
 7347000    274.30527   -4155.0209   -3684.8711   -4155.0209            0   -1251.9147    18.406923    23.517937    22.363735     9681.101   -1417.4966   -531.67649   -1806.5709    265.30226   -344.69143   -173.81295   -3861.6276 
 7348000    270.53894    -4187.465   -3723.7705    -4187.465            0   -1983.4232    18.266542    23.664717    22.499785    9726.0396   -1901.6213   -1051.6848   -2996.9634    228.63131   -484.40255   -7.8654129   -4005.1078 
 7349000    294.46049   -4199.9275   -3695.2323   -4199.9275            0   -2029.7129    18.170957    24.073582     22.10219    9668.3827   -1889.1427   -2839.9499    -1360.046   -1040.0411   -43.197475    252.84487   -3981.4288 
 7350000    278.17375   -4201.7269   -3724.9466   -4201.7269            0   -2564.7505      18.2134    23.826532    22.306115    9680.0096   -2308.5261   -3051.3266   -2334.3989    19.296764   -183.31663    86.164027   -4087.0202 
 7351000    268.80792   -4199.5274   -3738.7999   -4199.5274            0   -912.36727    18.240942     23.59495    22.224308    9565.2111   -1195.6686   -2034.2366    492.80337   -665.60471    -512.3361    372.84021    -3866.074 
 7352000    279.72575   -4149.3573   -3669.9169   -4149.3573            0   -2832.3944    18.539848    23.472974    22.561562    9818.4614   -3361.3751   -2687.9786   -2447.8294    18.447393   -226.19204   -311.62586   -4075.4936 
 7353000    285.50823   -4172.6134    -3683.262   -4172.6134            0   -3567.7176    18.369987    23.820844     22.33022    9771.4497   -3813.9659   -3342.8187   -3546.3682   -856.27319   -206.93852     237.1815   -4191.6852 
 7354000    275.72366   -4159.9922   -3687.4113   -4159.9922            0   -2686.8318    18.194914    24.065722    22.354215    9788.3234   -2033.3689   -2678.7053   -3348.4213    84.740503    857.63244   -20.083339   -4070.9636 
 7355000    287.41769   -4153.9527   -3661.3286   -4153.9527            0    -2533.166    18.169386    23.832612     22.55224    9765.6597   -1103.4643   -1776.6853   -4719.3484    785.07179   -946.15681   -814.62463   -4022.1075 
 7356000    278.24359   -4193.6366   -3716.7366   -4193.6366            0   -2998.8696    18.468505    23.815887    22.260721    9791.2408   -3758.4646   -3163.9652    -2074.179   -543.53113   -329.21678    424.44833   -4144.9608 
 7357000     273.5595   -4187.4962   -3718.6246   -4187.4962            0   -1972.1826    18.298144    23.673924    22.323705    9670.3806   -1350.5654   -2093.8194    -2472.163    651.25207   -148.65938   -130.93841   -3996.7666 
 7358000     277.9702   -4170.0059   -3693.5745   -4170.0059            0   -1410.2463    18.225547    23.565404    22.483753    9656.6005   -1525.1828   -931.14355   -1774.4126   -593.69356   -108.37579    28.595726   -3892.1818 
 7359000    289.25749   -4198.7182   -3702.9408   -4198.7182            0   -1311.6943    18.252307    23.834826    22.012787    9576.4553   -2549.6203   -1604.3386    218.87605   -270.99633    12.317328    73.638206   -3886.1356 
 7360000    276.75409   -4175.7047   -3701.3577   -4175.7047            0    -1667.952     18.19314    23.771336    22.282243    9636.5185   -1711.4801   -1021.5306   -2270.8451    714.94351    512.77098    132.44815   -3935.7695 
 7361000    288.59745   -4177.0086   -3682.3624   -4177.0086            0   -945.47705    18.340771    23.532731    22.263911    9609.2912   -347.03613   -81.504547   -2407.8905    348.34184    647.29368    230.54417   -3814.8632 
 7362000    282.99021   -4179.1011   -3694.0656   -4179.1011            0   -1554.6178    18.395632    23.428517    22.371896    9641.8927   -1636.2808   -719.87101   -2307.7015   -196.71365   -131.04094    118.07259   -3912.6714 
 7363000    272.60225   -4171.2276   -3703.9966   -4171.2276            0   -2770.5315    18.248375    23.810384    22.394703     9730.517   -2620.2145     -2162.36   -3529.0199   -520.27446    164.37149    407.59392   -4097.1617 
 7364000    286.91678   -4137.7008   -3645.9352   -4137.7008            0    -1742.169      18.0807    24.173698    22.346039    9766.9476   -1123.4359   -1688.5075   -2414.5636   -758.70936   -31.452775   -614.63263   -3894.0914 
 7365000    274.22378   -4134.7515   -3664.7414   -4134.7515            0   -1617.9024    18.264979    23.809094    22.466282    9769.9704   -1300.6948   -2753.4855   -799.52704   -119.43152    543.08732   -282.12315   -3895.2682 
 7366000    279.18643   -4189.5148   -3710.9988   -4189.5148            0   -1411.1938    18.431822    23.607048    22.288266    9698.0902   -3027.4662   -637.93944   -568.17574     414.6144   -198.69518   -827.69733   -3910.5934 
 7367000    276.11869   -4204.2416   -3730.9836   -4204.2416            0   -938.08447     18.45018    23.436784    22.360238    9668.8547   -1763.0678   -805.78782   -245.39784   -290.32002    497.49178    59.059706   -3863.2632 
 7368000    269.97112   -4183.8114   -3721.0901   -4183.8114            0   -1914.6171    18.155091     23.84858    22.270363     9642.469   -894.13587   -1854.1439   -2995.5715   -300.17746    812.96635    282.87229   -3990.3342 
 7369000    284.34291   -4170.9391   -3683.5851   -4170.9391            0   -1089.2036    17.992972     24.04599    22.226675    9616.5669   -1352.3885   -2674.6925    759.47014    251.26194    673.77018    270.72969   -3836.3435 
 7370000    270.02738   -4172.5114   -3709.6937   -4172.5114            0   -1859.8123    18.349109    23.540058    22.395584    9673.5278   -1898.3271   -834.35211   -2846.7577    688.62306   -377.03903    538.24879   -3972.0732 
 7371000    270.72493   -4177.6275   -3713.6143   -4177.6275            0   -2744.6014    18.608039    23.487413    22.203958    9704.3443   -3874.4571   -830.26183   -3529.0853   -215.88818   -189.35622    708.48398    -4102.052 
 7372000    291.26144   -4164.1623   -3664.9501   -4164.1623            0   -2318.8169    18.240704    23.698371    22.557595    9751.0834   -2545.1284   -3154.8903   -1256.4319    335.12162   -54.700207   -277.59993    -3994.708 
 7373000     272.4146   -4203.1235   -3736.2142   -4203.1235            0   -1796.3549    18.134298    23.988409    22.270428    9687.9244    -630.5021   -3172.4967   -1586.0659    693.45911    100.61131   -428.43717   -3990.0183 
 7374000    284.73368   -4159.7743   -3671.7505   -4159.7743            0   -2214.6357    18.116456    24.150043    22.245539     9732.717   -2033.0025   -2284.0663   -2326.8383   -144.91795   -39.545848   -3.4030133   -3986.0997 
 7375000    282.89866   -4134.7276    -3649.849   -4134.7276            0   -1731.2768    18.421425    23.637444    22.323209    9720.3153   -2630.9422   -1653.3847   -909.50359   -524.38412    294.76017    1431.3582   -3895.2762 
 7376000    281.10052   -4170.8518   -3689.0551   -4170.8518            0   -1663.5347    18.509082    23.327072    22.457983    9696.5193   -821.74976   -1395.9216   -2772.9327    74.592866   -252.33861   -435.98692   -3924.3018 
 7377000    281.65667   -4170.9171   -3688.1672   -4170.9171            0    -1171.957    18.288827    23.812675    22.249623     9689.842   -385.04658   -1499.7225   -1631.1018    634.33002   -577.95391    96.794473    -3853.784 
 7378000    281.05202   -4167.0322   -3685.3187   -4167.0322            0   -2008.4077     18.08112    23.890774    22.566549     9748.116   -1091.8291   -2218.9021   -2714.4918    173.92154   -125.88957   -264.91726   -3970.8465 
 7379000    285.89225   -4147.1974   -3657.1878   -4147.1974            0   -1245.0049    18.423175    23.774438    22.111845    9685.0022   -2490.5651   -663.09878   -581.35067    110.21106    40.259737    591.81933   -3833.0396 
 7380000    264.36486   -4174.7333    -3721.621   -4174.7333            0   -1234.9083    18.356232    23.608471    22.439854     9724.593   -2176.2857   -708.01943   -820.41974    1167.9905   -281.87001    541.74044   -3896.7596 
 7381000    279.98006   -4211.9697   -3732.0934   -4211.9697            0   -1246.6134    18.313787    23.426903    22.457354     9634.998    70.469197   -1986.3047   -1824.0048   -313.83678    475.77167   -294.40541   -3907.2633 
 7382000    283.75342   -4146.8456   -3660.5019   -4146.8456            0   -1851.1345    18.359813    23.866663    22.138475    9700.8026   -2303.1401   -1616.4845   -1633.7791    602.71726   -192.17364     294.2724   -3922.3935 
 7383000    280.12549   -4187.2862   -3707.1607   -4187.2862            0   -1858.5281    18.006398    23.987347    22.487556    9712.9536   -2389.4295     -2367.84   -818.31485    131.12146    328.91402   -694.75274   -3970.4277 
 7384000    277.50733   -4201.1879   -3725.5499   -4201.1879            0   -2396.1904    18.259168    23.863008    22.326734    9728.1748   -3223.5595   -3316.5408   -648.47109    541.93051    135.16884   -275.59191   -4065.5105 
 7385000    273.72716   -4208.5634   -3739.4044   -4208.5634            0   -2272.3135    18.387718    23.767153    22.154905    9682.2186   -2402.0677   -3273.9408    -1140.932    1231.5357    348.01442   -99.355375   -4060.2669 
 7386000    276.40026   -4162.7687   -3689.0281   -4162.7687            0   -2289.2416    18.252704    23.474401    22.621432    9692.6342   -1513.6411    -1899.686   -3454.3978   -493.93476    585.54139    416.29744   -4012.6288 
 7387000    271.22038   -4173.8419   -3708.9795   -4173.8419            0   -1059.4823    18.497571    23.793919    21.994599    9680.4767    -2260.503   -2309.7604    1391.8166   -331.67604    41.598952    325.33773    -3858.557 
 7388000    282.08563   -4173.6749   -3690.1897   -4173.6749            0    -1102.051    18.225695     23.62784    22.465624    9674.4567    280.15522   -1661.6981   -1924.6103   -820.50355     80.21496    59.928035   -3845.6804 
 7389000    262.64254   -4209.7357   -3759.5754   -4209.7357            0   -1342.7152    18.025134    23.966045    22.253579    9613.3498    84.190236    -1169.387   -2942.9489    849.77469    128.89733   -146.08318   -3947.8252 
 7390000    267.09027   -4157.1737   -3699.3901   -4157.1737            0   -899.04012    18.149373    23.871054    22.277745    9651.7141   -477.58685   -1675.8547   -543.67877    622.49032   -328.73541   -50.870007   -3825.9393 
 7391000     277.5788   -4211.1069   -3735.3463   -4211.1069            0    -2488.843     18.24356    23.620911    22.488322    9690.8815   -2749.6875   -1958.5107   -2758.3307    131.06151    146.94028   -680.67204   -4087.0984 
 7392000    264.01598   -4166.8941   -3714.3797   -4166.8941            0   -3500.0792    18.641775    23.855448    22.039603    9801.1858   -3652.3392   -3981.8494    -2866.049   -216.79779   -285.89036   -601.73248   -4214.6819 
 7393000    264.37794    -4159.967   -3706.8322    -4159.967            0   -1927.2936    18.320693    23.788656      22.4309    9775.9397   -2238.9253    -2845.183   -697.77264    266.85569    7.7797352     226.1622   -3981.6104 
 7394000    275.43676   -4167.0304   -3694.9412   -4167.0304            0   -1508.2589    18.137299    23.750111    22.492883    9689.0987   -2151.2413   -17.430907   -2356.1044    226.99724    150.96186   -157.87813   -3908.0666 
 7395000    282.06928   -4145.7084   -3662.2513   -4145.7084            0   -3004.0647    18.311081    24.113937    22.095506    9756.3205   -3379.1901   -4433.7994   -1199.2048   -1001.2735    -36.31489    228.28973   -4089.6875 
 7396000    268.18452   -4178.5304   -3718.8713   -4178.5304            0   -2546.8301    18.327718    23.621317    22.434412    9712.4145   -3181.3044   -1197.0867   -3262.0993    398.89638   -24.545059    911.75629   -4079.6186 
 7397000    273.63926   -4198.0173    -3729.009   -4198.0173            0   -1597.5542    18.369381    23.460409    22.399217     9653.014   -3081.9876   -187.78852   -1522.8864   -979.48707    443.95669   -710.79716   -3953.9116 
 7398000    265.49441   -4196.6183   -3741.5699   -4196.6183            0   -1374.4239    18.332664    23.778651    22.116595    9641.1989    -882.8907   -1847.4631   -1392.9178    -768.4491    326.54089    103.75345   -3934.8236 
 7399000    276.77933   -4125.8833    -3651.493   -4125.8833            0   -1899.6803    18.060904     23.76297    22.566078    9684.9256   -2976.0889   -1081.1234   -1641.8286   -366.83589   -28.841235    684.26326   -3919.8127 
 7400000    272.91088   -4173.5196   -3705.7597   -4173.5196            0   -1311.6558    18.238234    23.728776     22.20796    9610.9604   -1446.7547   -2342.0088     -146.204    363.97105    485.33841    223.81309   -3889.6092 
 7401000    274.99267    -4142.113   -3670.7849    -4142.113            0   -2059.8448    18.442156    23.698878    22.202214    9703.6641   -1868.0926    -1920.264   -2391.1778    289.43383    168.80647    211.50489     -3962.29 
 7402000    261.20828   -4182.8955   -3735.1935   -4182.8955            0   -1605.9479     18.14975    23.583943    22.471082     9618.582   -1855.6516   -1130.1915   -1832.0007     196.3034    539.40358    -20.26171   -3960.4713 
 7403000    279.73312   -4167.3283   -3687.8753   -4167.3283            0    -152.9635     18.18633    23.916575    21.946046     9545.536   -659.23452   -87.918697    288.26271   -841.44186   -573.25735   -158.10995   -3709.1697 
 7404000    280.57489      -4209.7   -3728.8043      -4209.7            0   -650.70763    18.154956    23.623734     22.30591    9566.7338    224.60778    529.38011   -2706.1108   -730.94802    576.47581    170.53207   -3819.5916 
 7405000    277.93762   -4182.5663   -3706.1907   -4182.5663            0   -1800.2702    18.282402    23.708732    22.277071    9656.0538   -2022.9197    -1653.978   -1723.9127   -433.10993    -386.1816   -64.430206   -3959.7113 
 7406000    262.96877   -4210.1745    -3759.455   -4210.1745            0   -2706.8064    18.339279     23.71474    22.352188    9721.2179   -3298.7093   -1713.4569   -3108.2531    250.64627   -7.4959886    133.19286   -4143.2098 
 7407000    270.32319   -4169.6977    -3706.373   -4169.6977            0   -3259.3703    18.402447    23.702835    22.435261    9786.0401   -3378.9635   -2431.7665   -3967.3807   -681.27864    409.50199   -120.06018   -4171.5482 
 7408000    272.68636   -4182.7422   -3715.3671   -4182.7422            0   -2263.3926    18.399602    23.710298    22.154917    9665.3052   -3465.1241   -2830.8317   -494.22197    994.84849   -486.97273     216.8443   -4034.4117 
 7409000    274.66552   -4161.3609   -3690.5936   -4161.3609            0   -950.17476    18.177639    23.607685    22.587246    9692.9094   -363.73847   -179.13378    -2307.652    1484.2235    656.08557    265.26537   -3824.9114 
 7410000    289.57854   -4161.3669   -3665.0392   -4161.3669            0   -1568.2255    18.298267    23.768761    22.197148    9654.1419   -1494.6608   -2563.4556   -646.56017   -512.01639   -125.50684   -469.47438   -3885.8387 
 7411000     266.0259   -4191.2209   -3735.2616   -4191.2209            0   -2017.9856    18.335912    23.739169    22.273506    9695.1965   -524.27546   -2754.2465   -2775.4348   -140.81658    551.20461   -356.26867   -4020.5936 
 7412000    263.42877   -4162.3086   -3710.8007   -4162.3086            0   -1478.8393    18.198125    23.740032    22.349851    9655.6734   -223.49711   -1124.4165   -3088.6041   -1052.6077    525.08386    505.39812    -3919.048 
 7413000    274.69067   -4163.5941   -3692.7837   -4163.5941            0   -1092.7636    18.198619     23.76093    22.219072    9607.8845   -1096.7279   -1922.5558   -259.00716   -886.04405    1548.7994     -58.7909    -3845.903 
 7414000    283.18458   -4193.3321   -3707.9634   -4193.3321            0    360.06491     18.28964    23.448775    22.267064    9549.6681    201.33394    655.53238    223.32842    137.70783    325.65832   -729.48124   -3657.8164 
 7415000    274.30161   -4171.4648   -3701.3212   -4171.4648            0    6.7996409    18.324667    23.527052    22.241857    9589.0291   -79.157318   -121.46552    221.02176    1239.1829   -910.25802    420.82196   -3700.3703 
 7416000    278.42684   -4151.9465   -3674.7325   -4151.9465            0     266.0681    18.206444    23.585758    22.166917    9518.7574   -83.508569    678.59105    203.12184    527.33597   -65.143579    427.23621   -3637.7965 
 7417000    268.06984   -4191.9949   -3732.5324   -4191.9949            0   -1651.8434    18.266235    23.868058    22.236156    9694.5094   -2207.9974   -2097.5251   -650.00756    352.05268   -305.65399   -1185.5771   -3966.0774 
 7418000    289.86762   -4140.0241   -3643.2009   -4140.0241            0   -2872.1382      18.0337    23.982636     22.67577    9807.1726   -2612.1514   -3551.6681   -2452.5949   -321.54833    84.893602    54.138433   -4053.9958 
 7419000     279.5136   -4136.1108    -3657.034   -4136.1108            0   -1187.7618    18.325751    23.743603    22.283474    9695.9706   -3025.8004   -110.94366   -426.54133    526.66139    709.72434    712.70999   -3824.9904 
 7420000    281.46174   -4175.7263   -3693.3105   -4175.7263            0   -2026.0551    18.518908    23.592755    22.207112    9702.5553   -2690.1614   -2181.2627   -1206.7413   -637.59588    -227.8543    458.96128    -3980.001 
 7421000    273.44942   -4169.1631   -3700.4802   -4169.1631            0   -1077.3243    18.181429    23.619642    22.493833    9659.7257   -672.85192   -236.63183    -2322.489   -686.83427    -521.0852   -561.81641   -3852.2506 
 7422000    284.51557   -4192.4378   -3704.7879   -4192.4378            0   -461.80749    18.245209    23.990084    21.957393    9610.8409   -1065.8559   -1095.4756    775.90902   -549.70595    876.98994   -148.34222   -3769.5168 
 7423000    277.26508   -4187.2148    -3711.992   -4187.2148            0   -916.88174    18.108294    23.730817    22.480793    9660.5497   -151.34844   -1496.5493   -1102.7474    32.341777    262.44987   -455.91359   -3841.1707 
 7424000    267.35269   -4172.2137   -3713.9804   -4172.2137            0   -2491.9999    18.391774      23.6699    22.313803    9713.9006   -3715.3947   -740.94069   -3019.6642    198.34154   -103.93512    592.32965   -4067.0152 
 7425000    276.19911   -4164.8484   -3691.4525   -4164.8484            0   -1423.2467    18.460128    23.595096    22.218509    9677.6827   -3416.0936   -885.24252    31.595991    537.38395    -157.9788    401.15077   -3892.3283 
 7426000    275.11795    -4189.937   -3718.3942    -4189.937            0   -1805.3844    18.181672    23.614699    22.548377    9681.2518   -1391.7564   -2389.0586   -1635.3382   -31.602945   -179.50597    407.20324   -3973.2985 
 7427000    291.35776   -4167.1858   -3667.8085   -4167.1858            0   -749.94833    18.099431    24.080501    22.068851     9618.562    442.92367   -3350.9407    658.17205    129.81597    200.37161    123.05526   -3773.0089 
 7428000     283.6256   -4157.1936   -3671.0691   -4157.1936            0   -1413.2243    18.178765     23.74094    22.395182    9665.3343   -1492.0822   -1592.6856   -1154.9051   -553.20681    -828.7503   -155.65785   -3870.2757 
 7429000    267.78746   -4152.4503   -3693.4718   -4152.4503            0   -1433.7444    18.391166    23.366542    22.502713    9670.2697   -2848.6308    615.47643   -2068.0787   -1094.9353    125.24179    8.2881505   -3895.6742 
 7430000    270.07803   -4176.4932   -3713.5887   -4176.4932            0   -2207.9626    18.474406    23.615541    22.288838    9724.2432   -2708.4877    -2108.029   -1807.3711   -1016.2312   -795.03871   -401.10844   -4026.7178 
 7431000    286.24327   -4180.9765   -3690.3653   -4180.9765            0   -2414.8375    18.248073    23.872856    22.389303    9753.5337   -1908.2002   -2811.6321   -2524.6802    949.73618   -777.20684    310.20754   -4033.8646 
 7432000    285.09919   -4142.3603   -3653.7101   -4142.3603            0   -1510.2987    18.059113    24.126423    22.269477    9702.8512   -944.83521   -2678.2852   -907.77559    933.94611   -560.21207    166.52832   -3867.4266 
 7433000    272.00213   -4185.2205   -3719.0182   -4185.2205            0   -2591.5748    18.239573    23.674794    22.371335     9660.348   -2706.8297   -1848.3645   -3219.5301   -274.52818    295.32147   -89.918654   -4084.1354 
 7434000    272.42818   -4188.4282   -3721.4956   -4188.4282            0   -2019.3644    18.461065    23.409688    22.404128    9682.3421   -2242.3388   -2321.2132   -1494.5411    -616.7881   -623.00869   -238.67709    -4006.644 
 7435000     283.9954   -4158.2257   -3671.4673   -4158.2257            0   -2157.8362     18.50763    23.676951    22.212118    9733.4447   -2874.4897   -1466.9213   -2132.0977    169.19599   -522.78647    586.76136   -3977.7771 
 7436000    279.66304   -4145.4452   -3666.1123   -4145.4452            0   -987.28485    18.127625    23.704422    22.374408    9614.3921   -121.68498   -1372.4963   -1467.6733    -427.3341    1089.1312     412.0206   -3804.5455 
 7437000     275.7296   -4185.7323   -3713.1412   -4185.7323            0   -2254.4953    18.135381    23.879525    22.339892    9674.6091   -940.91206   -1551.3785   -4271.1953    1168.6475    656.18285    197.12608   -4031.2376 
 7438000    297.22504   -4168.3362   -3658.9026   -4168.3362            0   -220.99492    18.137823    23.905398    22.073264    9570.7878    550.84478   -147.08309   -1066.7465   -1220.3209   -247.45327   -149.58079   -3689.7491 
 7439000    270.00321   -4196.2392   -3733.4629   -4196.2392            0   -1771.5776    18.304333    23.458215    22.400726    9618.5803    -2232.505    -707.7184   -2374.5095    717.97634    14.974691   -409.70723   -3981.9747 
 7440000    296.09418   -4161.5765   -3654.0813   -4161.5765            0   -456.16351    18.360013    23.794364    21.984764    9604.3698   -231.24527   -3069.6471    1932.4018   -613.37015   -195.91949    275.87519    -3717.976 
 7441000    268.73218   -4143.0514   -3682.4536   -4143.0514            0   -1981.1199    18.242798    23.783148    22.407647    9722.0318   -2429.3593   -2018.6868   -1495.3137    33.078276   -353.74608    236.04252   -3963.3484 
 7442000    268.06685   -4144.1354    -3684.678   -4144.1354            0    -1490.205    18.187238    23.715548    22.469787    9691.6754   -1985.2604   -363.32011   -2122.0346   -1048.7238    389.80883   -247.59397   -3895.3082 
 7443000    271.05041   -4148.2275   -3683.6563   -4148.2275            0   -1749.8579    18.507552    24.011916    21.812666    9693.5876   -2422.2195   -2866.9828    39.628459   -567.60185   -477.93064    609.17734   -3931.0356 
 7444000    267.29389    -4119.009   -3660.8764    -4119.009            0   -2522.1843    18.307481    23.562311    22.572169    9736.8791   -2843.2881    -2042.851   -2680.4138    81.202324   -534.87262    149.99899   -4019.0326 
 7445000    281.06051   -4172.4702   -3690.7421   -4172.4702            0   -2678.1642    18.413944    23.769345    22.280393    9751.8473   -3804.4467   -2808.7973   -1421.2486    223.41389    -266.8168   -30.472082   -4071.6324 
 7446000    263.30128   -4140.9599   -3689.6705   -4140.9599            0   -3206.4748    18.325165    24.041622    22.217303    9788.2037   -2620.2255   -4266.0204   -2733.1784    501.99624   -275.99046    221.73673   -4147.3977 
 7447000    282.19461   -4175.8194   -3692.1475   -4175.8194            0   -1717.4945    18.138682    23.646356    22.451721    9629.8511   -1488.2957   -1196.3069   -2467.8809    2016.6727    121.34665    507.84025   -3933.3551 
 7448000      277.284   -4156.1443    -3680.889   -4156.1443            0   -1317.7824     18.46683    23.738531    21.947898    9621.4186   -1495.9055   -1469.6181   -987.82352    760.03449    343.58078    226.22645   -3865.7982 
 7449000    298.75678   -4175.2079    -3663.149   -4175.2079            0   -1964.3401    18.314174    23.659592    22.440905    9723.7767    -2703.141   -2418.6215   -771.25789    460.82445   -391.65146   -16.024394   -3941.7146 
 7450000    283.29929     -4187.53   -3701.9648     -4187.53            0   -1571.4707    18.331421    23.634561    22.249252    9639.6018   -2366.8804   -1311.4252   -1036.1066    180.71774    369.60763    570.81589   -3922.8879 
 7451000    278.87313   -4170.2503   -3692.2713   -4170.2503            0   -2302.2473    18.199592    24.017462    22.290817    9743.4946   -2709.7012   -2901.2311   -1295.8095    611.24523   -330.89892    250.70512    -4019.418 
 7452000    282.17431   -4166.5485   -3682.9114   -4166.5485            0   -1340.1139    18.072959    23.830433    22.540574    9707.9194   -1314.4229   -1024.4967   -1681.4223    352.04832    71.308321    375.28358   -3872.6448 
 7453000    279.98486   -4196.9747   -3717.0902   -4196.9747            0   -2522.8041    18.523043    23.795041    22.040398    9714.4502    -3400.252   -2247.1371   -1921.0232   -988.99802    41.357582   -236.10975   -4074.5092 
 7454000    264.18257   -4167.7013   -3714.9014   -4167.7013            0   -2339.8667    18.264821    23.729965    22.473074    9740.3597    -1383.087   -2389.1188   -3247.3942   -163.73846    204.65146    126.03347   -4047.2868 
 7455000     279.2564   -4203.7509    -3725.115   -4203.7509            0   -2345.0101    18.200824    23.912513    22.367617    9735.0009   -2075.4851   -2716.4153   -2243.1298   -439.88216   -280.62913   -590.99698   -4058.0478 
 7456000    275.74225   -4191.4203   -3718.8076   -4191.4203            0   -1827.5083    18.312485    23.853387     22.13691    9669.7302   -2083.8975   -2182.1578   -1216.4695     240.1247    423.76351    -522.9314   -3976.5284 
 7457000    273.46151   -4170.7712   -3702.0675   -4170.7712            0   -2436.6445    18.262038    23.713533    22.492654    9740.6112   -2117.4294   -2329.6839   -2862.8201   -310.50276   -181.18091    500.09396   -4048.2095 
 7458000    286.08766   -4164.6375   -3674.2931   -4164.6375            0   -1670.2678    18.496741    23.643255    22.257991     9733.935   -3347.2086   -253.62038   -1409.9743    690.29206    134.27481    7.7926124   -3911.4034 
 7459000     274.0333   -4164.5222   -3694.8385   -4164.5222            0   -837.95934    18.253556    23.699071    22.263379    9630.9666   -1386.8322    137.19023   -1264.2361    287.80903   -374.50745   -114.46152   -3812.5364 
 7460000    292.54756   -4168.6413   -3667.2248   -4168.6413            0   -42.907544    17.986953    23.750445    22.377726    9559.7232   -398.64539     448.4743   -178.55154   -24.391997    973.48591    233.53807   -3673.2069 
 7461000     277.4704   -4186.3415   -3710.7668   -4186.3415            0    -825.7569    18.238603    23.783411    22.234362    9644.7368    23.762694   -1775.5711   -725.46226   -210.40878    337.87998   -43.722486   -3826.9166 
 7462000    272.62664   -4163.7968   -3696.5241   -4163.7968            0    -1148.672    18.475048    23.456617     22.35702    9688.6857   -1254.6466   -442.54817   -1748.8211     294.2215    436.27677    522.37957   -3858.8309 
 7463000    285.98834   -4163.0736   -3672.8994   -4163.0736            0    -1072.054    18.363626    23.536965    22.480744    9716.7177   -913.61749   -1356.7395   -945.80487   -439.66803    575.79782   -97.194833   -3824.8184 
 7464000    280.58306   -4184.3949   -3703.4851   -4184.3949            0   -3270.1966    18.304871    23.783146    22.406893    9754.7835   -3576.2551   -4835.7256   -1398.6092   -538.25915    263.99143   -415.27318   -4168.7148 
 7465000    259.18861   -4200.6064    -3756.366   -4200.6064            0   -2409.7966    18.000997    24.206086    22.237833    9689.7734   -933.81258   -3573.4603    -2722.117   -658.55114    169.14992   -333.06643   -4096.9074 
 7466000    282.94076   -4197.3093   -3712.3585   -4197.3093            0   -1083.9912    18.309953    23.688129    22.339051    9689.0836   -2211.7596   -1601.8592    561.64529    640.86867   -244.44071   -493.62467   -3865.5323 
 7467000    278.09355   -4210.6858    -3734.043   -4210.6858            0   -733.93162    18.446281    23.365374    22.185913    9562.2229   -551.47078   -1126.3867   -523.93739    145.24132   -138.63099   -57.537735   -3836.3935 
 7468000    284.61204   -4174.5874   -3686.7721   -4174.5874            0   -1154.1093    18.279886    23.704458    22.276728    9652.8353   -236.04141   -1808.6767   -1417.6099   -366.19075   -563.39216    1204.2423   -3849.2438 
 7469000    291.03627   -4181.7169   -3682.8907   -4181.7169            0   -1887.0178    18.135823    23.936084    22.348494    9701.4943    212.44256   -2009.3024   -3864.1934    732.34264    -456.0295    266.05537   -3949.8779 
 7470000    272.23037   -4197.7284   -3731.1349   -4197.7284            0   -705.48857    18.086894    23.861523    22.276334    9614.0391   -536.64022   -145.82182   -1434.0037    259.57479    606.36104   -305.01576   -3830.0521 
 7471000    279.02964   -4181.8393   -3703.5921   -4181.8393            0   -1706.5436    18.387629    23.703839    22.321492    9728.9874   -1000.3537    -1699.722   -2419.5551    86.698749    392.19571   -61.732461   -3945.7289 
 7472000    280.44043   -4201.6059   -3720.9406   -4201.6059            0   -1998.5851    18.488448    23.474335    22.354078    9701.7594    -2486.031   -362.45587   -3147.2682   -118.22308    34.217532    204.39905   -4003.7209 
 7473000    265.79844   -4164.4842   -3708.9147   -4164.4842            0   -2654.1606    18.301736    23.742645    22.485825     9770.802   -2605.8249   -1552.4199    -3804.237   -919.65605    256.70689    916.48802    -4087.125 
 7474000    274.99819   -4159.5303   -3688.1928   -4159.5303            0   -1987.5636    18.206283    24.030459    22.272784    9744.4619   -2964.5286   -1952.3424   -1045.8197   -106.00467   -18.887364   -355.08004   -3970.6514 
 7475000    267.47908   -4178.6045   -3720.1545   -4178.6045            0    11.497135    18.278122    23.627782    22.201754    9588.3043    114.36283   -490.45632     410.5849   -33.632021    -31.18164    380.69026   -3718.5468 
 7476000    282.65031   -4179.1821   -3694.7292   -4179.1821            0   -874.57692    18.494533    23.387344    22.295297    9643.5632   -633.93082   -1208.0036   -781.79638    1120.6411    333.35823    1006.7958   -3817.7309 
 7477000     297.4633   -4142.6099    -3632.768   -4142.6099            0   -1908.8333    18.394089    23.611872    22.392469    9725.4718   -2258.8521   -1405.9647   -2061.6832    365.76013   -770.53298   -457.46503   -3903.5093 
 7478000    287.30298   -4168.8129   -3676.3854   -4168.8129            0   -763.33793     18.24349    23.715127    22.294163    9645.4954   -552.96599   -375.14065   -1361.9071   -679.23053   -310.96162   -293.46054   -3783.7639 
 7479000     270.1345     -4142.33   -3679.3287     -4142.33            0   -1511.4268    18.060424    23.972641    22.286327    9649.0002   -1073.7265   -2424.3457   -1036.2082   -837.28736   -606.32748   -270.92642   -3892.0178 
 7480000    283.72714   -4147.7811   -3661.4825   -4147.7811            0   -2216.1217    18.347168    23.919419    22.333307    9801.0527   -2074.8149   -3252.8553   -1320.6948   -390.35797   -814.84122   -282.12167   -3978.2511 
 7481000    291.55487   -4170.1225   -3670.4074   -4170.1225            0   -2099.6584     18.47632    23.721826    22.352666    9796.9956   -2334.1256   -1504.7575   -2460.0922    425.42969    -202.5104     117.1855   -3970.4048 
 7482000    273.09031    -4157.491   -3689.4235    -4157.491            0   -2755.9478    18.414291    23.459541    22.641246    9780.8101   -2432.9393   -1902.3458   -3932.5583    1149.3661    186.66924   -599.48273   -4082.5404 
 7483000    267.99422    -4172.651    -3713.318    -4172.651            0   -1582.2298    18.314242    23.919659    22.250522    9747.2954   -1778.0294   -1938.5146   -1030.1453   -804.64696   -582.70452    46.333878   -3938.2388 
 7484000    278.75359   -4138.9541   -3661.1799   -4138.9541            0   -2048.4578    18.195396    24.094239     22.42749    9832.3066   -2594.5369   -3242.4349   -308.40173   -212.41003    132.50785    454.59182   -3954.9167 
 7485000    288.02977   -4207.9446   -3714.2714   -4207.9446            0   -2498.8039     18.20026    23.806169    22.522967    9758.7166   -422.01112   -2307.2561   -4767.1444   -602.99908   -147.49054   -39.096173   -4069.9033 
 7486000    275.56649    -4168.443   -3696.1314    -4168.443            0   -1931.8917    18.659995    23.604596    22.174934    9767.2078   -3838.6336   -1447.4508   -509.59082    246.44661   -613.55518   -66.116235   -3971.3192 
 7487000    275.14623   -4168.4823    -3696.891   -4168.4823            0   -2602.3444    18.314291    23.628721    22.486861    9731.0381   -1942.2145    -2353.316   -3511.5027     171.1374    -196.2665   -221.97694   -4066.2085 
 7488000    291.08903   -4172.8333   -3673.9166   -4172.8333            0   -2504.9957    18.193205    23.968256    22.360932    9750.6945   -1638.7662   -3186.2944   -2689.9266    311.38605   -585.94061    152.96286   -4030.1367 
 7489000    266.17107   -4140.5005   -3684.2924   -4140.5005            0   -1610.1417    18.152725     23.92093    22.406428    9729.5448   -1745.7442   -266.26035   -2818.4204   -76.448294   -532.59317     327.0999   -3912.7641 
 7490000    279.94202   -4170.8989   -3691.0878   -4170.8989            0   -1835.3353    18.307879    23.770287    22.315602    9711.3827   -1941.1361   -1963.7257    -1601.144    483.52354    115.72793    488.02946   -3951.0274 
 7491000    271.47309   -4190.8132   -3725.5176   -4190.8132            0   -1726.6343     18.56077    23.574766    22.281505    9749.6249   -2574.8792   -1131.4167   -1473.6071   -850.82088    1037.5973   -141.40842   -3971.0248 
 7492000    275.13677   -4160.9798   -3689.4048   -4160.9798            0    -2299.204    18.345303     23.70976    22.429086    9755.8164   -2746.7262   -2162.1608   -1988.7248   -170.82093    452.18294    333.69005   -4016.5322 
 7493000    269.93343   -4123.3077    -3660.651   -4123.3077            0   -2079.2101    18.092305    24.081562    22.389465    9754.8877   -1917.2988   -2549.5927   -1770.7389    170.24021   -32.383557    643.88459   -3956.4499 
 7494000    275.48273   -4151.8212   -3679.6532   -4151.8212            0   -1261.7705    18.201084    23.951109    22.293211    9718.4165   -615.03667   -1665.8131   -1504.4617   -1154.2936    4.0029446    248.55365   -3858.4879 
 7495000    287.42193   -4144.7442   -3652.1129   -4144.7442            0   -1154.3195    18.284462    23.627051    22.565216    9748.3523   -1380.3704   -641.93471   -1440.6533   -234.44993   -354.11062   -87.009348   -3816.2222 
 7496000    275.30706   -4171.3149   -3699.4481   -4171.3149            0   -1818.5596    18.462075    23.559015    22.336908       9715.4   -1567.9646   -538.24211    -3349.472    80.593797   -117.71807    247.25442   -3957.1182 
 7497000    277.82245   -4178.8591   -3702.6809   -4178.8591            0   -2853.5014    18.372994    23.859088     22.29493    9773.2697   -3241.0805   -3716.3973   -1603.0264   -917.14142   -581.11104      734.073   -4109.3993 
 7498000    292.30701   -4152.8299   -3651.8257   -4152.8299            0   -2242.4253    18.129873    24.104724    22.466389    9818.1625   -2024.9276   -2414.5921   -2287.7563    159.83674   -87.572323   -184.62126   -3972.9137 
 7499000     270.1241   -4179.7239   -3716.7405   -4179.7239            0   -2094.4243    18.270281    23.655596    22.540585    9741.9148    -1691.354   -1657.5606   -2934.3583    766.77115    -1488.422   -436.03399   -4014.3075 
 7500000    295.18662   -4156.2379   -3650.2982   -4156.2379            0    -1844.572    18.375606    23.535943    22.400867    9688.0888    -2158.779   -1299.4007   -2075.5363   -811.77911   -610.97096    1328.1984   -3910.9193 
Loop time of 413.9 on 64 procs for 250000 steps with 864 atoms

Performance: 104.373 ns/day, 0.230 hours/ns, 604.011 timesteps/s
373.4% CPU use with 16 MPI tasks x 4 OpenMP threads

MPI task timing breakdown:
Section |  min time  |  avg time  |  max time  |%varavg| %total
---------------------------------------------------------------
Pair    | 24.872     | 27.66      | 35.494     |  55.2 |  6.68
Bond    | 1.6559     | 1.9085     | 2.9419     |  26.4 |  0.46
Kspace  | 211.87     | 222.64     | 230.38     |  34.2 | 53.79
Neigh   | 2.02       | 2.0992     | 2.2528     |   4.5 |  0.51
Comm    | 55.191     | 60.297     | 65.548     |  34.3 | 14.57
Output  | 0.7427     | 0.74303    | 0.74453    |   0.0 |  0.18
Modify  | 63.989     | 74.134     | 80.03      |  51.9 | 17.91
Other   |            | 24.42      |            |       |  5.90

Nlocal:        54.0000 ave          62 max          47 min
Histogram: 3 3 1 1 0 0 2 1 3 2
Nghost:        2467.94 ave        2491 max        2431 min
Histogram: 1 1 0 1 1 1 5 2 2 2
Neighs:        12577.0 ave       14069 max       10919 min
Histogram: 3 2 1 2 0 0 0 2 2 4

Total # of neighbors = 201232
Ave neighs/atom = 232.90741
Ave special neighs/atom = 2.0000000
Neighbor list builds = 7629
Dangerous builds = 1

unfix		3
unfix		2
unfix		1

write_data	data.final.${pid} nocoeff
write_data	data.final.0 nocoeff
System init for write_data ...
PPPM initialization ...
  extracting TIP4P info from pair style
  using 12-bit tables for long-range coulomb (../kspace.cpp:340)
  G vector (1/distance) = 0.37053129
  grid = 24 27 25
  stencil order = 5
  estimated absolute RMS force accuracy = 0.0032915431
  estimated relative force accuracy = 9.9123842e-06
  using double precision FFTW3
  3d grid and FFT values/proc = 6300 1296
Last active /omp style is kspace_style pppm/tip4p/omp

write_restart   restart.lmp.${pid}
write_restart   restart.lmp.0
System init for write_restart ...
PPPM initialization ...
  extracting TIP4P info from pair style
  using 12-bit tables for long-range coulomb (../kspace.cpp:340)
  G vector (1/distance) = 0.37053129
  grid = 24 27 25
  stencil order = 5
  estimated absolute RMS force accuracy = 0.0032915431
  estimated relative force accuracy = 9.9123842e-06
  using double precision FFTW3
  3d grid and FFT values/proc = 6300 1296
Last active /omp style is kspace_style pppm/tip4p/omp
Total wall time: 0:06:54
