LAMMPS (30 Jul 2021)
  using 1 OpenMP thread(s) per MPI task
package omp 0
using multi-threaded neighbor list subroutines
echo both

include		in.partitions
variable        pid world 0
include		in.temp
variable        temperature equal 257.29
variable	tempDamp equal 100.0
include		in.pressure
variable        pressure equal 6750.0
variable        pressureDamp equal 1000.0 # This is 1 ps
include		in.seed
variable        seed world 745823

units		real
atom_style	full
read_restart    restart.lmp.${pid}
read_restart    restart.lmp.0
Reading restart file ...
  restart file = 30 Jul 2021, LAMMPS = 30 Jul 2021
  restoring atom style full from restart
  triclinic box = (-3.2493382 -0.075046174 -0.10344609) to (14.859337 22.655045 19.333444) with tilt (0.37078562 -6.5691329 -0.15559471)
  4 by 4 by 4 MPI processor grid
  restoring pair style lj/cut/tip4p/long/omp from restart
  restoring bond style harmonic/omp from restart
  restoring angle style harmonic/omp from restart
  1008 atoms
  672 bonds
  336 angles
Finding 1-2 1-3 1-4 neighbors ...
  special bond factors lj:    0        0        0       
  special bond factors coul:  0        0        0       
     2 = max # of 1-2 neighbors
     1 = max # of 1-3 neighbors
     1 = max # of 1-4 neighbors
     2 = max # of special neighbors
  special bonds CPU = 1.531 seconds
  read_restart CPU = 1.862 seconds

include 	in.setup
variable	out_freq equal 1000
variable	out_freq2 equal 10000
variable	out_freq3 equal 1000

timestep	2.0

neigh_modify    delay 7 every 1

include		in.tip4p
# This is TIP4P/Ice

# create groups ###
group ox type 2
336 atoms in group ox
group hy type 1
672 atoms in group hy

# set charges - beside manually ###
set group ox charge -1.1794
Setting atom values ...
  336 settings made for charge
set group hy charge 0.5897
Setting atom values ...
  672 settings made for charge

# ### TIP3P Potential Parameters ###
pair_style lj/cut/tip4p/long/omp 2 1 1 1 0.1577 8.5
pair_coeff 1 1*2 0.000 0.000
pair_coeff 2 2 0.21084 3.1668
bond_style  harmonic
bond_coeff  1 450 0.9572
angle_style harmonic
angle_coeff 1 55 104.52
kspace_style pppm/tip4p/omp 1.0e-5
pair_modify tail yes

thermo          ${out_freq}
thermo          1000
thermo_style    custom step temp pe etotal epair emol press lx ly lz vol pxx pyy pzz pxy pxz pyz enthalpy

restart 	${out_freq3} restart.lmp.${pid} restart2.lmp.${pid}
restart 	1000 restart.lmp.${pid} restart2.lmp.${pid}
restart 	1000 restart.lmp.0 restart2.lmp.${pid}
restart 	1000 restart.lmp.0 restart2.lmp.0


include         in.dump
dump            myDump all atom ${out_freq2} dump.water.${pid}
dump            myDump all atom 10000 dump.water.${pid}
dump            myDump all atom 10000 dump.water.0
dump            myDump2 all dcd ${out_freq2} dump.dcd
dump            myDump2 all dcd 10000 dump.dcd
dump_modify     myDump append yes
dump_modify     myDump2 append yes


variable natoms 	equal  "count(all)"                        # NUMBER ATOMS
variable H      	equal  "enthalpy/v_natoms"                 # ENTHALPY-per-atom
variable Vol      	equal  "vol/v_natoms"                 # volume-per-atom
fix AVG all 		ave/time ${out_freq} 1 ${out_freq} v_Vol v_H file vol_enthalpy.dat
fix AVG all 		ave/time 1000 1 ${out_freq} v_Vol v_H file vol_enthalpy.dat
fix AVG all 		ave/time 1000 1 1000 v_Vol v_H file vol_enthalpy.dat



fix 		1 all shake 1e-6 200 0 b 1 a 1
       0 = # of size 2 clusters
       0 = # of size 3 clusters
       0 = # of size 4 clusters
     336 = # of frozen angles
  find clusters CPU = 0.147 seconds
fix             2 all nph tri ${pressure} ${pressure} ${pressureDamp}
fix             2 all nph tri 6750 ${pressure} ${pressureDamp}
fix             2 all nph tri 6750 6750 ${pressureDamp}
fix             2 all nph tri 6750 6750 1000
fix             3 all temp/csvr ${temperature} ${temperature} ${tempDamp} ${seed}
fix             3 all temp/csvr 257.29 ${temperature} ${tempDamp} ${seed}
fix             3 all temp/csvr 257.29 257.29 ${tempDamp} ${seed}
fix             3 all temp/csvr 257.29 257.29 100 ${seed}
fix             3 all temp/csvr 257.29 257.29 100 745823


run             250000
PPPM initialization ...
  extracting TIP4P info from pair style
  using 12-bit tables for long-range coulomb (../kspace.cpp:340)
  G vector (1/distance) = 0.37775323
  grid = 24 27 36
  stencil order = 5
  estimated absolute RMS force accuracy = 0.0026420546
  estimated relative force accuracy = 7.9564691e-06
  using double precision FFTW3
  3d grid and FFT values/proc = 4050 480
Last active /omp style is kspace_style pppm/tip4p/omp
Neighbor list info ...
  update every 1 steps, delay 7 steps, check yes
  max neighbors/atom: 2000, page size: 100000
  master list distance cutoff = 10.8154
  ghost atom cutoff = 10.8154
  binsize = 5.4077, bins = 5 5 4
  1 neighbor lists, perpetual/occasional/extra = 1 0 0
  (1) pair lj/cut/tip4p/long/omp, perpetual
      attributes: half, newton on, omp
      pair build: half/bin/newton/tri/omp
      stencil: half/bin/3d/tri
      bin: standard
Per MPI rank memory allocation (min/avg/max) = 9.326 | 9.338 | 9.353 Mbytes
Step Temp PotEng TotEng E_pair E_mol Press Lx Ly Lz Volume Pxx Pyy Pzz Pxy Pxz Pyz Enthalpy 
 1000000    270.91865    -4814.151   -4272.2802    -4814.151            0     7411.628    18.108675    22.730091     19.43689    8000.4543    6241.1592    9054.6362    6939.0885   -411.66677    600.42353    2248.6724   -3407.5032 
 1001000    264.27925   -4845.0283   -4316.4371   -4845.0283            0    5449.3976    18.130993    22.715096    19.463992    8016.1914    5026.8499    5523.3133    5798.0295   -1273.2379    437.53195    1900.6715   -3679.3593 
 1002000    261.54482   -4818.2882   -4295.1663   -4818.2882            0    6484.0977    18.273717    22.629376    19.292759    7977.9961    5262.2796    8196.6044     5993.409   -2115.5123   -1046.9166   -1390.5035   -3540.7358 
 1003000    248.50254   -4808.1324   -4311.0967   -4808.1324            0     6345.528    17.986522    22.764485    19.606963    8028.1476    6081.2072    7414.5067      5540.87     1370.668    1583.5438   -485.41854   -3568.1477 
 1004000    251.55457   -4853.2664   -4350.1261   -4853.2664            0    5757.2252    18.297745    22.805154    19.241234    8029.0379    6503.4739    4581.9171    6186.2846   -1965.5853    324.52702   -646.78811   -3675.9822 
 1005000    255.87357   -4817.3238   -4305.5451   -4817.3238            0    6524.3067    17.949856     22.85228    19.556841    8022.1213    8629.1452     6894.187    4049.5879    561.09349    238.67415    761.25722   -3542.2376 
 1006000    259.13518   -4803.3297   -4285.0273   -4803.3297            0    7702.1402    18.136294    22.836636    19.291704    7990.0827     7119.034    7990.9513    7996.4354   -572.36673   -947.27657   -152.84981   -3387.5188 
 1007000    256.30047   -4828.6948   -4316.0622   -4828.6948            0    6500.1231    18.045592    22.617142    19.663436     8025.429    5479.9482    7003.3106    7017.1104     276.1297    758.75085    2007.6613   -3555.2705 
 1008000    262.51258   -4825.1042   -4300.0466   -4825.1042            0     6951.028    18.211168    22.683904    19.297469    7971.7917    4909.6939    8202.8728    7740.5174   -432.59338    431.23141    1438.8441   -3491.9172 
 1009000    263.71051   -4805.1822   -4277.7286   -4805.1822            0    5690.5646    18.044872    22.802187    19.616083    8071.2837    3792.9155     6345.892    6932.8865   -83.213253    -39.41568    510.47407   -3607.8843 
 1010000     260.2805   -4803.3688   -4282.7757   -4803.3688            0    6274.5742    18.143512    22.896727    19.280238    8009.5321    6004.8177    6508.5161    6310.3887    1379.8733   -641.39616    842.34476   -3549.8376 
 1011000    259.57172   -4831.0603   -4311.8848   -4831.0603            0    6398.8117    18.033425    22.876856    19.404266    8005.1926    6118.1866    5229.6527    7848.5959    781.91458     484.0878   -467.18303   -3564.8394 
 1012000    271.32414   -4800.9737   -4258.2919   -4800.9737            0    6045.2409    18.341047    22.676229    19.283554    8020.1417    4565.0388    6578.1305    6992.5533   -1817.6473    877.82504   -525.69625    -3551.207 
 1013000    276.61106   -4815.7253    -4262.469   -4815.7253            0    7128.5498    17.993193    22.767494    19.529269    8000.3587    7201.3967    7039.5193    7144.7333    832.68278   -101.11149    452.05858    -3430.731 
 1014000    257.92843   -4828.8588     -4312.97   -4828.8588            0     7900.527    18.239643    22.825542    19.220553    8002.0881    7635.5635    7266.6848    8799.3326    539.91954   -14.233617    411.65826   -3390.9608 
 1015000    261.22143   -4824.6472    -4302.172   -4824.6472            0    7262.2214    17.976068     22.79072    19.505002    7990.9561     8514.616    7336.7239    5935.3242    726.41705     227.3974   -1145.0654   -3455.8335 
 1016000     262.1491   -4818.4499   -4294.1194   -4818.4499            0    7623.6597    18.216672    22.677411    19.321467    7981.8325    7831.1004    6722.7343    8317.1444    1567.6079   -487.16983     1098.478   -3406.6732 
 1017000    272.29872   -4840.4497   -4295.8187   -4840.4497            0    7048.8142    18.024459     22.74759    19.393781    7951.7027    8265.2266    7051.2281    5829.9879   -1769.9098   -4.1925878   -3003.8848   -3478.3858 
 1018000    254.84562   -4847.3694   -4337.6467   -4847.3694            0    3913.4152    18.159981    22.811539    19.576451    8109.6845    4515.3974     4025.912    3198.9363   -240.59729   -461.57064    1211.8829   -3874.8015 
 1019000    260.42877   -4821.9752   -4301.0855   -4821.9752            0    8845.2026    18.139835    22.596374    19.383129    7945.0379    8772.1504    8887.5905    8875.8668   -526.33721    -201.7042    -958.7635   -3276.1899 
 1020000     253.0269   -4819.6921   -4313.6071   -4819.6921            0    6299.3613    18.083753    22.884383     19.39909    8028.0326    6575.0492    7044.9721    5278.0625    62.377992    -393.1527   -359.18852   -3576.0739 
 1021000    254.65103   -4839.4735     -4330.14   -4839.4735            0     7149.386    18.013977    22.969833    19.318276    7993.4783    6943.9141    6541.6026    7962.6411    751.19738   -1242.9359    743.63862   -3496.6883 
 1022000    254.33001   -4814.3792   -4305.6877   -4814.3792            0    5590.8448    18.038182    22.909585     19.42368    8026.7826    6443.8443    4793.7766    5534.9134    287.27524   -386.79493   -585.26387   -3651.2101 
 1023000    254.49041   -4848.3183   -4339.3061   -4848.3183            0    6512.4382    17.951854    23.185199    19.190213    7987.2988    6752.3881    7022.2671    5762.6594     2679.049    1525.8008   -1857.0575   -3580.6945 
 1024000    261.18936   -4787.0012   -4264.5902   -4787.0012            0    7259.7096    17.945331    23.067272    19.410738    8035.0718    9289.9145    6184.6741    6304.5403    625.12992    948.91941   -2226.3642   -3413.8737 
 1025000    265.46879   -4815.8793    -4284.909   -4815.8793            0    6200.8415    18.136038    23.103417    19.186811    8039.3594    3676.2071    6323.4653     8602.852    -32.06902   -577.16702   -1936.9105   -3557.8863 
 1026000    271.10957   -4823.1976    -4280.945   -4823.1976            0    8229.4086    17.846458    23.033712    19.372074    7963.2815     7865.568    8022.7871    8799.8706    1388.9333   -1137.9366     1265.243    -3325.212 
 1027000    259.44429   -4793.1789   -4274.2582   -4793.1789            0    6687.7986    18.021527    23.050943     19.28136    8009.7315    7315.0243    6379.3194    6369.0522   -1709.1728    532.89506   -1231.9353   -3493.0316 
 1028000    258.45457   -4834.6498   -4317.7087   -4834.6498            0    5818.3937    18.061354    22.917062    19.357672    8012.3955    3432.5467    7125.9591    6896.6754    385.70317    122.97687   -461.97471   -3637.8144 
 1029000    255.16103   -4815.5419   -4305.1883   -4815.5419            0    7741.6025    18.064922    22.879204    19.321289    7985.7021    9132.6062    7052.4898    7039.7114    148.46718    432.56767    -561.9129    -3403.576 
 1030000    261.31877   -4803.3645   -4280.6947   -4803.3645            0    6384.8001      18.0566    22.816949    19.502849    8035.1055    6390.0369    6663.2295     6101.134   -718.50603   -589.35209    709.03044   -3532.4997 
 1031000    267.12681   -4809.8283   -4275.5417   -4809.8283            0    5380.1524    18.029693    22.904171    19.474371    8042.0423    5728.6919    4875.0956    5536.6696    464.75879   -1801.5371     238.4247   -3644.5309 
 1032000    256.20535   -4791.8314   -4279.3891   -4791.8314            0    7380.8581    18.057707     22.60447    19.595627    7998.6391    7780.9179    6645.8618    7715.7947    539.58633   -1234.3888   -498.37015   -3418.3976 
 1033000    257.24591   -4825.4108   -4310.8872   -4825.4108            0    5854.6494    18.204949    22.827404    19.334972    8035.0677    5493.7688      5984.51    6085.6694     1339.314   -661.72261   -603.27934   -3624.8205 
 1034000    247.30243   -4829.7691   -4335.1336   -4829.7691            0    7620.7151    18.060108    22.702793    19.448588    7974.2111    8517.4747     8195.415    6149.2555     778.2826    260.58928   -825.31091   -3448.8773 
 1035000    258.77398   -4860.0926   -4342.5127   -4860.0926            0    7477.9169    18.072852    22.786546    19.316683    7954.9552    7077.3577    7292.0248    8064.3683    831.55524   -454.27267   -1130.0244   -3474.9632 
 1036000    247.10635   -4818.4834   -4324.2402   -4818.4834            0    7108.0167    17.869407    22.873767    19.469771     7958.087    6977.2414    7619.3291    6727.4794   -256.93848    128.85569   -183.43625     -3499.28 
 1037000    262.33593   -4820.6657   -4295.9615   -4820.6657            0    6869.4893    18.159477    22.826125    19.275257     7989.796    7789.5792     5223.525    7595.3637   -405.23189   -1530.4619   -1044.2117   -3495.5081 
 1038000    254.97714   -4818.7639   -4308.7781   -4818.7639            0    6667.3061    18.003516    22.798536    19.504248    8005.5932    7397.9093    6332.9795    6271.0296   -10.797077   -1519.9081   -505.63514   -3530.3477 
 1039000    251.72534   -4818.1802   -4314.6984   -4818.1802            0    7128.6924    18.132235    23.006745    19.185421    8003.4614    5786.1258    7194.1401    8405.8113    793.92553    870.34375    1230.2924   -3482.6212 
 1040000    266.50008   -4840.0069   -4306.9738   -4840.0069            0    5592.0387     17.99172    23.071031    19.380651    8044.6664    8035.1007    4046.0521    4694.9632    1249.1246    445.50215      189.317   -3650.8979 
 1041000    258.21833   -4810.1496    -4293.681   -4810.1496            0    8079.6662    17.953636    23.160501    19.119373    7950.1263    6504.0035    7810.4222    9924.5728    1474.3419    1007.8569   -16.606211   -3356.8887 
 1042000    269.97462   -4837.5605   -4297.5779   -4837.5605            0    6801.3682    17.888986    22.978202    19.394561     7972.265    4919.6202    8304.9559    7179.5283    735.07268    646.75518   -825.86394   -3506.8011 
 1043000    259.36151   -4809.2807   -4290.5256   -4809.2807            0    5101.3977    18.053606    23.174115    19.209275    8036.7062    5309.7827    3705.6718    6288.7385    571.91528   -574.61686   -566.94686   -3692.6055 
 1044000    245.76674   -4829.7549    -4338.191   -4829.7549            0    5927.2597      17.8317    23.253831    19.336054    8017.7982    7098.4991    4613.9324    6069.3477    588.04423    111.47113   -673.62829   -3645.1085 
 1045000    246.44826   -4830.5634   -4337.6364   -4830.5634            0     7823.198    17.985529    23.054935     19.17204    7949.7864    6307.9612    8247.6319    8914.0007   -1495.9141   -173.36578    768.65903   -3430.6189 
 1046000    255.39658   -4840.2461   -4329.4214   -4840.2461            0    4802.0191     17.90789    23.297117    19.324977    8062.4232    4597.1109    3257.1124    6551.8341    -35.50264   -1540.9565    820.64882   -3764.7896 
 1047000    260.91285   -4828.8304   -4306.9724   -4828.8304            0     6535.489    17.829771    23.193785    19.388521    8017.9268    8295.1793     6737.566    4573.7216   -50.384466    389.10907     824.9712   -3542.7565 
 1048000    250.42371   -4835.3601   -4334.4818   -4835.3601            0    6508.2403    17.995641    23.137165    19.260492    8019.4548    5656.9045     7030.491    6837.3253    621.00315    1112.3759   -196.37969   -3573.3071 
 1049000    269.19032   -4822.4484   -4284.0345   -4822.4484            0    10740.956    17.875166    23.060359    19.253579    7936.4746    11033.298    10089.667    11099.904    970.65456     762.5797    583.62444   -3040.8189 
 1050000    252.82412   -4840.7776   -4335.0981   -4840.7776            0    5585.5623    17.974968    23.229887    19.298014    8058.0107    7875.5707    3875.6121    5005.5042   -810.55939   -549.86283   -1662.1139    -3678.695 
 1051000    266.14026   -4773.2227   -4240.9093   -4773.2227            0    7481.5052    18.027617    23.027597    19.356668    8035.5861     8559.798    5794.6861    8090.0316    406.06142   -1176.0277   -257.84277   -3364.1458 
 1052000    254.00295   -4830.6259   -4322.5887   -4830.6259            0    8066.7565    17.877872    22.945872    19.354103    7939.5053    7948.7907    7280.4087    8971.0702    162.96662   -253.66092   -732.48845   -3388.5426 
 1053000    261.77086   -4864.1471    -4340.573   -4864.1471            0    7936.6039    18.086455    22.728628    19.358874    7958.0517    7534.7093    7905.4052    8369.6972    -117.7155     1127.087    581.23483   -3419.4506 
 1054000    276.23449    -4820.036   -4267.5329    -4820.036            0    6528.5728    17.968556    22.996599    19.475706    8047.6668    7141.6338    6530.7319    5913.3526    1055.5532    276.08724     1887.665   -3501.2941 
 1055000    271.14973    -4833.817   -4291.4841    -4833.817            0    5922.4082    18.155892    23.003989     19.26027    8044.2046    6648.2115    5568.2289    5550.7841   -68.906684    849.81705   -468.88216    -3596.688 
 1056000    277.84754   -4817.4761   -4261.7467   -4817.4761            0    6511.0177      17.8334    23.005708    19.572212    8029.8909    6739.9802    6444.4337    6348.6393    839.27995     -246.358   -1457.5711   -3499.2563 
 1057000    247.27543   -4836.0184    -4341.437   -4836.0184            0    5023.7162    18.123405    23.120022     19.14929    8023.8112    2703.2362    4725.2516    7642.6609   -1598.8433   -825.98813   -597.08919   -3753.5665 
 1058000    258.62102   -4822.7557   -4305.4817   -4822.7557            0    6872.8174     17.91776    23.046214    19.367315    7997.4718    6276.4414    7449.1075    6892.9033   -545.57649    393.77162   -967.71762   -3503.8712 
 1059000    249.74312   -4812.1802   -4312.6631   -4812.1802            0    5558.6116    18.152225    22.869285    19.304262    8013.7474    4727.5389    6087.3126    5860.9833   -35.748734    1037.8396    1432.8896   -3663.0155 
 1060000     254.9827   -4819.9906   -4309.9937   -4819.9906            0    6032.5878    18.067664    23.246038     19.11002    8026.2393    5359.9512    5722.3255    7015.4869    676.30711    974.03887   -2286.5432   -3603.8524 
 1061000    251.45988   -4788.5647   -4285.6139   -4788.5647            0    5757.3916    17.789193    23.239592    19.444775    8038.7342    7247.2487    3842.0316    6182.8946    2653.0213   -874.82267    818.15803   -3610.6363 
 1062000    281.88875   -4814.7315   -4250.9192   -4814.7315            0    7037.4794    17.967437    23.109287    19.230337    7984.7174    8166.0871    5777.6847    7168.6663   -1324.5773   -467.41205   -2181.4531   -3431.4124 
 1063000    260.65987   -4798.7518   -4277.3998   -4798.7518            0     5410.326    17.914866    23.259168    19.377006    8074.1055    4688.4297    6268.9989    5273.5495    194.54348    418.77646   -1069.0197   -3640.3202 
 1064000    258.33692    -4829.508   -4312.8022    -4829.508            0    5847.0092    17.956311    23.205878    19.196612    7999.0738    5441.8284    6523.2106    5575.9885    527.01795    1097.3811    610.78927   -3630.7002 
 1065000     244.7726   -4826.2577   -4336.6822   -4826.2577            0    5521.6608    17.941892    23.298162    19.165936    8011.6123    4715.6922    5547.8666    6301.4237    209.20154    1283.9693    596.40245    -3691.525 
 1066000    255.46998    -4775.434   -4264.4625    -4775.434            0    6533.9783    18.053936    22.951799    19.388823    8034.1527    6073.3395    6720.5562    6808.0392   -2088.6291   -234.80615    148.89192   -3498.8771 
 1067000     254.4917   -4837.1376   -4328.1228   -4837.1376            0    4877.4446    17.935589    23.006305    19.531477    8059.3052    6479.3729    4177.5633    3975.3975    940.76085   -951.96529    2248.4358   -3754.8441 
 1068000    267.24075   -4830.2844   -4295.7699   -4830.2844            0    7923.8206    17.878602    22.933793    19.436739    7969.5325    9840.4949    7432.0649    6498.9021    -717.1917    642.32072   -1843.3318   -3374.8043 
 1069000    249.86426    -4839.725   -4339.9656    -4839.725            0    6103.8855    18.055931    22.917071    19.342907    8003.8831    5716.5025    5389.9959    7205.1582     468.2725    201.64615    1645.4781   -3627.4687 
 1070000    268.16617   -4829.9151   -4293.5496   -4829.9151            0    6145.6808    18.190949    22.828469    19.382335    8048.9316    5400.8765    6777.7041     6258.462    884.48271    751.50124   -1677.3214   -3572.1363 
 1071000    260.82044   -4823.5241    -4301.851   -4823.5241            0    6316.2754     17.97136    22.893921    19.448496    8001.7896    5710.3259    6349.6183     6888.882   -392.70769    555.51829   -2558.0035    -3564.755 
 1072000    266.57145   -4785.8278    -4252.652   -4785.8278            0    5496.8992    18.174589    22.812974    19.514297    8090.9479    4684.5426    6095.6356    5710.5193   -231.28482   -395.22421    442.36754   -3604.0279 
 1073000    246.56455    -4840.148   -4346.9884    -4840.148            0    5779.0203    18.076575    22.828479    19.423699    8015.3977    7272.3432    6094.0609    3970.6569   -473.39061    16.768125    -470.5916    -3671.442 
 1074000    233.33918     -4814.43   -4347.7228     -4814.43            0     5225.332    18.104082    23.121298    19.245762    8056.0814    5762.6078    4420.3147    5493.0735    168.91952   -442.51466   -1072.8524   -3733.8002 
 1075000    257.78293   -4830.4099   -4314.8122   -4830.4099            0    6403.5611    17.877275    22.932623    19.482749    7987.3974    6595.5475    6647.5414    5967.5945    112.26629   -956.37507    730.75377   -3568.8742 
 1076000    248.06123   -4787.2879   -4291.1348   -4787.2879            0    5630.4883    17.897135    23.172778    19.368446    8032.6042    5702.6086    6414.6538    4774.2026     697.8392   -709.51729    1334.5954   -3631.5384 
 1077000     246.0141   -4854.0868   -4362.0282   -4854.0868            0    7177.8232    18.033166    23.071234    19.152975    7968.5452    7272.4941    5747.8764     8513.099    1170.2198    87.042864    948.30646   -3527.8714 
 1078000    270.27993   -4794.5469   -4253.9537   -4794.5469            0    8732.0125    17.838175    23.064507    19.310043    7944.7061    9251.6816    8428.2507    8516.1051    1112.1685    652.12463    185.22247   -3242.2156 
 1079000     257.9079   -4838.9894   -4323.1417   -4838.9894            0    6870.7234    18.067429    23.115828    19.145838    7996.1368    6192.9699    6277.8669    8141.3335    2164.9441    559.70907   -747.04977   -3521.9092 
 1080000    267.34197   -4812.0317   -4277.3147   -4812.0317            0    7684.0502    17.715693    23.332684      19.2899      7973.57    9450.9985    5765.9724    7835.1799   -351.69421   -970.74559   -956.60006   -3383.7647 
 1081000    266.53859   -4836.6292   -4303.5191   -4836.6292            0    6409.4476    17.933189    23.360223    19.133703    8015.5539    6710.9564    5397.0112    7120.3754   -762.22555    344.48704   -1704.0094   -3554.2634 
 1082000    259.22447   -4856.0617   -4337.5807   -4856.0617            0    6537.1911    17.847841    23.127566    19.386188    8002.1748    7195.6402     6335.933    6080.0003   -2238.5669     870.7226   -606.95095   -3574.6676 
 1083000    268.10271   -4823.3726    -4287.134   -4823.3726            0    8264.0098    18.101785    22.951487    19.146241    7954.5527    7525.1969    8028.4339    9238.3987   -424.62932   -1007.6018    705.49761   -3328.4346 
 1084000    264.11517   -4795.3188   -4267.0558   -4795.3188            0    5418.0658    18.060046    22.945345     19.36723    8025.6638    6806.9753     5408.437    4038.7852    -780.8984   -1020.8656    317.35856   -3632.8925 
 1085000    252.43845    -4823.204   -4318.2959    -4823.204            0    6001.4683     18.01748    23.176673    19.204819    8019.6493    4642.4856    5156.9087    8205.0105    83.843991   -1004.2573    -227.1876    -3616.374 
 1086000    258.94244   -4850.1669     -4332.25   -4850.1669            0    5937.2006    17.914209    23.139881    19.398109    8041.1497    7398.4962    5649.0763    4764.0293   -701.25174    251.57154   -1151.1764   -3635.9831 
 1087000    245.61086    -4815.903    -4324.651    -4815.903            0    4637.4401    18.230298    22.999231    19.259011    8074.9727    4306.5427    3735.3172    5870.4604    869.82609    60.294656    1137.1551    -3778.522 
 1088000      259.221   -4818.8799   -4300.4059   -4818.8799            0    5430.7026     17.92522    22.832039    19.590899    8017.9538    7625.5706    4742.6781    3923.8592    656.23995   -212.77913   -18.261187   -3665.3741 
 1089000    237.62653   -4836.5095   -4361.2271   -4836.5095            0    6186.2395    18.270366    22.735962    19.246139    7994.7374    6022.3008    6433.8545    6102.5631   -243.64044    -385.2369    535.35432   -3639.9422 
 1090000    257.10888   -4823.5468   -4309.2973   -4823.5468            0    8713.0348    17.972762    22.679173    19.460556    7932.2663    9746.8581    8274.2297    8118.0166     103.3843   -1080.8743   -135.41979   -3301.3388 
 1091000    249.02693   -4822.1226   -4324.0379   -4822.1226            0    6781.6029    17.972189    22.919029    19.452811    8012.7126    7578.7236    6290.1116    6475.9734    596.96621   -1062.2391    350.94407   -3531.5588 
 1092000    246.77492   -4815.3931   -4321.8128   -4815.3931            0    6245.2343    18.168688    22.892811    19.307892    8030.7769    5863.7208    5908.2887    6963.6933    1422.4831   -672.91343    142.66493   -3590.3669 
 1093000    261.94866   -4808.9573   -4285.0276   -4808.9573            0    8085.6417    18.073266    22.769194    19.399318     7983.085     7576.869    8324.6504    8355.4058    1197.4788    1383.6446    607.24745   -3343.6559 
 1094000    261.67141   -4837.0431   -4313.6679   -4837.0431            0    6433.6302    18.253477     22.83242    19.261437    8027.6097    6097.8009    6128.4207     7074.669   -294.12629    488.92839    532.10905   -3560.4542 
 1095000    237.40645   -4821.2806   -4346.4384   -4821.2806            0     6192.202    18.052132    22.926256    19.376045    8019.1211    4495.1375    7725.1259    6356.3426    1417.7002    150.96927    1509.3898   -3622.2563 
 1096000    251.89041     -4801.57   -4297.7581     -4801.57            0    7819.6462    18.049936    23.031576    19.202289    7982.7466    8355.6601    7542.9981    7560.2804     452.3557   -737.17461    2846.5688   -3387.3935 
 1097000    259.31789   -4809.4307   -4290.7629   -4809.4307            0     6405.084    17.837648    23.314397    19.183892    7978.0823    7227.2967    5726.5388    6261.4164   -601.71259   -552.73934   -735.55719   -3545.5177 
 1098000    253.14156   -4813.0311   -4306.7167   -4813.0311            0    7040.6036    17.835109    23.203431    19.327401     7998.369    9897.5591    6036.9773    5187.2744   -535.93707   -1393.3967    1910.2625   -3485.4444 
 1099000    252.93281   -4813.4801   -4307.5832   -4813.4801            0    7306.1399    17.976613    23.204431    19.050431    7946.6411     5978.275    7870.7894    8069.3553    -324.5321    210.88928    -241.1843   -3460.8483 
 1100000    261.59837   -4835.2904   -4312.0613   -4835.2904            0    6898.3007    17.917946     23.06038    19.332943    7988.2684    6897.8764    7705.6502    6091.3755    553.23512     364.4027   0.79270926   -3508.4044 
 1101000    255.48164   -4866.5315   -4355.5367   -4866.5315            0    6040.5092    18.041963    23.079241    19.159024    7977.7183    7396.2649    6098.0095    4627.2533   -95.275695    1535.2131   -716.90036   -3652.7425 
 1102000    258.26931   -4822.0473   -4305.4768   -4822.0473            0     5267.306    17.723977    23.239147     19.48378    8025.1765    6304.0731    4390.3585    5107.4865    85.566007     187.4151    2205.3014   -3688.9967 
 1103000    256.74991   -4805.7926   -4292.2611   -4805.7926            0    7008.8016    17.974893    23.133579    19.182593    7976.5751    7935.8755      7095.14    5995.3893    511.36662    289.74335    1185.6799   -3476.9261 
 1104000    259.84458   -4811.7808   -4292.0595   -4811.7808            0    7028.1792    17.848982    23.198721    19.270057    7979.2212    6043.1397    6305.7057    8735.6922   -365.94154    271.14387   -993.52411   -3474.1991 
 1105000    263.04016   -4783.6818    -4257.569   -4783.6818            0    6180.8485    17.841666    23.394042    19.257427    8037.8318    5290.0141    5799.2172    7453.3143    1144.1905     185.2521   -866.09733   -3533.0281 
 1106000    239.56092   -4818.6935   -4339.5421   -4818.6935            0    6527.2969    17.974147    23.176619    19.167346    7984.7321     6054.039    5948.0281    7579.8236   -443.58027   -1609.4191   -794.69408   -3579.4441 
 1107000    266.77941   -4831.7817   -4298.1899   -4831.7817            0    8447.4614    17.840081    23.049231    19.278493    7927.3192    9658.2935     7926.733    7757.3575    2919.0372    718.50434    686.86494   -3321.5635 
 1108000    260.88873   -4804.9312   -4283.1215   -4804.9312            0    8356.6752    17.983341     22.94217    19.320851     7971.336    7644.5034    8845.2347    8580.2875    1448.5018    504.98532   -434.56831   -3311.6266 
 1109000    254.73134   -4826.9938   -4317.4996   -4826.9938            0    7455.2148    18.081036    22.967326    19.224172    7983.2806    8628.0601    7274.5566    6463.0276    747.49987    491.07296   -523.53489   -3449.5042 
 1110000    252.51058   -4792.1488   -4287.0964   -4792.1488            0     6557.514    18.010338    22.914521    19.450651    8027.2502    6112.5609    7061.2826    6498.6986   -1143.1656   -672.35662   -1720.2399   -3519.4134 
 1111000    270.24556   -4806.3054   -4265.7808   -4806.3054            0    6923.1285    18.096173    22.894874    19.323057    8005.7276    5716.0649    7398.2908    7655.0298   -898.47224    -2403.275   -700.25064   -3457.4687 
 1112000    256.35175   -4820.4885   -4307.7533   -4820.4885            0    7581.5963    17.981872    22.892495    19.377927    7976.9219    7159.2514    7411.5521    8173.9855    184.39774   -1708.3235     1523.703   -3425.7466 
 1113000    255.49553   -4833.5802   -4322.5575   -4833.5802            0    6778.4032    18.100845    22.947034    19.201965    7975.7416    6781.5538    6522.5129     7031.143     534.4704   -817.40131   -669.23272   -3534.1072 
 1114000    264.25962   -4821.5529    -4293.001   -4821.5529            0     3535.838    18.051748    22.988894    19.538503    8108.2779    4408.4875    3908.5299    2290.4966    1023.6264    602.71909    848.64605   -3874.8849 
 1115000    253.06988   -4820.5338   -4314.3628   -4820.5338            0    6104.8906    18.099074    22.932974    19.322173    8019.9692    5557.3268    6052.0089    6705.3361   -337.26801    394.41986   -1376.1728   -3600.3163 
 1116000    245.99459   -4820.6964   -4328.6769   -4820.6964            0     6868.358    18.129113    22.825469    19.314249    7992.3425    6215.2489     7109.895    7279.9301    122.18374   -226.17966   -2028.8592   -3528.1003 
 1117000    247.63944   -4831.0843   -4335.7748   -4831.0843            0    7704.8857    17.961877     22.80119    19.489414     7981.932    7276.3801    8065.6206    7772.6563    261.86863    757.29226   -417.32338   -3438.8622 
 1118000    250.97372   -4830.8964    -4328.918   -4830.8964            0    6421.4732    18.180985     22.76123      19.3547    8009.3925    6648.5533    6597.8005    6018.0659    807.55969   -345.94271   -52.896205   -3578.8336 
 1119000    248.17791   -4831.0956   -4334.7091   -4831.0956            0    7136.5759    18.137404    22.602868    19.532571    8007.5208    8823.5825    7916.9839    4669.1612    2143.2809     1335.168    2338.6293   -3501.2893 
 1120000    257.43248    -4831.608   -4316.7112    -4831.608            0    8284.3812    18.052425    22.931013    19.290593    7985.5418    7789.9882    8995.2923     8067.863   -299.85998    1589.7659    193.47492   -3351.9044 
 1121000    250.91676   -4831.6846   -4329.8201   -4831.6846            0    6070.9384    18.096428    22.873025    19.349665    8009.2144    5517.2134    6381.2725    6314.3293    522.69289   -1057.6149    1528.6247    -3620.697 
 1122000    261.73763   -4808.3379   -4284.8303   -4808.3379            0    6605.9572    18.061526    22.856922    19.471168       8038.3    6572.8919    7248.6325    5996.3473    114.99545    384.32885   -512.17048   -3510.4116 
 1123000    256.71086   -4820.8272   -4307.3738   -4820.8272            0    6415.8063    18.045777    22.963594    19.313391    8003.3902    4729.4531    6410.2627    8107.7031    756.63839    73.307335    1302.9048   -3558.5129 
 1124000    267.36479   -4831.2987   -4296.5361   -4831.2987            0    6098.7439    18.077836    23.222657    19.154826    8041.4906    7307.3591    4210.9952    6777.8775   -1150.9469   -167.95928   -304.21379   -3581.2943 
 1125000    261.15034   -4797.5583   -4275.2253   -4797.5583            0    6524.8605    17.804598    23.207532    19.406804    8018.9063    6639.9787      6555.16    6379.4428    334.32113    684.88401    1847.0383   -3512.1591 
 1126000     258.0711    -4847.122   -4330.9479    -4847.122            0    4680.8622    18.021943    23.085053    19.288452    8024.7192    4104.3668    5214.8138    4723.4059   -1345.3212    751.21161   -1846.9643   -3783.1359 
 1127000    257.06231   -4832.7575   -4318.6011   -4832.7575            0    7651.0346    17.864989    22.908451    19.453493    7961.5218    8283.5166    8048.8268    6620.7604    930.28352   -783.89242    581.28444   -3430.2347 
 1128000     261.5016    -4839.879   -4316.8435    -4839.879            0    8627.7579    17.922124    22.939178     19.30968    7938.5726    11017.081    7394.0203    7472.1728   -226.79892   -109.87745    1005.9204   -3317.9567 
 1129000      264.585   -4799.8762   -4270.6735   -4799.8762            0    5516.2302    18.001342    23.066956    19.484544    8090.6875     4686.367    5827.0386    6035.2849   -2014.5958   -313.97409   -1188.9622   -3619.7894 
 1130000    250.61441   -4849.8299   -4348.5701   -4849.8299            0    6241.8243    18.002965    22.951661    19.423991    8025.9534    8459.9246    5467.3266    4798.2216    1141.4714   -36.924507   -1849.2883   -3617.9627 
 1131000    245.84514   -4837.9954   -4346.2748   -4837.9954            0    5840.9873    18.097169    23.048262    19.209618     8012.491    4039.0153    6536.1053    6947.8413   -555.50456    568.70103   -469.17514   -3663.7323 
 1132000    271.20185   -4822.8376   -4280.4004   -4822.8376            0    4918.4382    17.860161     22.97215    19.585422    8035.6305    7458.3242    2664.2602    4632.7303   -305.16071     -1482.03    181.34954   -3704.0016 
 1133000    258.00112   -4804.3886   -4288.3545   -4804.3886            0     7698.164    18.009123    23.071717    19.195713     7975.845    9419.0768     6974.331    6701.0841   -458.52842   -449.56802    1677.4101   -3392.9077 
 1134000    259.84755   -4860.6132    -4340.886   -4860.6132            0    4879.9339    17.957714    23.098047    19.391643     8043.423    3695.3655    4807.2589    6137.1772   -2020.4125   -486.83959   -1036.0228    -3768.445 
 1135000    254.95804   -4826.7587   -4316.8111   -4826.7587            0    9236.0928    18.106969    22.930911    19.078242    7921.4635     7866.539    8313.0614    11528.678    1607.5871   -275.23196     2198.775   -3249.7984 
 1136000    266.16501   -4823.9747   -4291.6118   -4823.9747            0    5473.2461    17.954484     22.95244     19.50866    8039.5034    5429.8407    5470.1546    5519.7431    203.20658   -1131.0232   -554.75894   -3649.8851 
 1137000    260.43372   -4841.8745   -4320.9749   -4841.8745            0    6667.7904    18.026728    23.067128    19.222817    7993.3248    6693.8856     6808.765    6500.7206   -376.35269    1836.2386   -665.22167   -3543.6809 
 1138000    257.29612   -4829.1994   -4314.5754   -4829.1994            0    5523.2323    18.001701    23.179061    19.261407    8037.0634     7126.592    3680.9016    5762.2033   -450.31576    314.22441   -669.47127   -3667.1845 
 1139000    244.53651   -4830.0914   -4340.9882   -4830.0914            0    7342.8863    17.879872    23.283231     19.17022    7980.5854    9114.0767    5798.7492    7115.8332   -93.536026     1355.872   -541.66896   -3486.3596 
 1140000    260.35955    -4819.825   -4299.0737    -4819.825            0    6071.6744    17.893344    23.178523    19.420803    8054.6092    6712.5196    6609.2311    4893.2726   -445.72194    941.46226   -742.44282    -3585.845 
 1141000     239.9662   -4795.2189   -4315.2569   -4795.2189            0      8467.89    17.990063    23.242539    19.061866    7970.4284     5907.101    8545.5924    10950.976    458.28061    1444.2037    -399.8721   -3330.9449 
 1142000    263.96792   -4831.9656   -4303.9971   -4831.9656            0    7278.1156    17.783672    23.131036    19.404847    7982.2761    7326.1099    7626.2116    6882.0253    488.82963    302.44824   -309.16718   -3456.7276 
 1143000    249.67621   -4820.7651   -4321.3818   -4820.7651            0    6352.3951    17.976049    23.450703    19.055018     8032.662     6463.239    4238.0406    8355.9056    329.59981    -782.7646    -312.1907   -3577.2106 
 1144000    266.72409   -4842.9968   -4309.5157   -4842.9968            0    7512.9977    17.864525    23.111089    19.366759    7995.9271    7505.3047    7894.4833    7139.2053    246.79013    176.59679     1071.336    -3433.407 
 1145000    254.39831   -4825.1372   -4316.3092   -4825.1372            0    5578.2641    18.101328    23.041326    19.259002    8032.5179    4002.8738    4429.7482    8302.1702    924.03295   -1197.6018    1821.7744   -3662.8377 
 1146000    247.38569   -4816.2583   -4321.4563   -4816.2583            0    8137.2479    18.039003    22.642995    19.492246    7961.7454    7733.9167    9392.5184    7285.3085    291.94738    52.174271   -554.83297   -3376.6088 
 1147000     254.0328   -4838.3298   -4330.2328   -4838.3298            0    7584.8222    18.074127    22.632035     19.47764    7967.4118    6949.6732    9612.2483    6192.5451    967.49852    1664.5439    -743.2329   -3448.9028 
 1148000    265.67742   -4848.1873   -4316.7996   -4848.1873            0    7285.7833    17.973569    22.908411    19.378631    7979.0721    6989.7516    7795.4638    7072.1346   -70.963627   -105.33344   -326.98326   -3468.9779 
 1149000    272.04946   -4824.3777   -4280.2451   -4824.3777            0    6120.1905    17.952612    22.956336    19.430248    8007.7141    6349.8842    5998.1497    6012.5375    631.30671    346.65804   -786.77144    -3565.503 
 1150000    251.54142   -4834.2649    -4331.151   -4834.2649            0    6700.2678    18.106413    22.773405    19.426867    8010.5656    6048.2332    6929.9064    7122.6638    -508.3281    141.43115   -1959.6433   -3548.3863 
 1151000    263.42416   -4789.1518   -4262.2709   -4789.1518            0    6259.7729    18.105904    22.758948    19.430722    8006.8431    6384.7105    6841.8276    5552.7806      529.838   -451.47901    268.72791   -3531.3073 
 1152000     261.4706   -4824.1588   -4301.1853   -4824.1588            0    6327.7807    18.176866    22.686267    19.424145     8009.842    5659.2529    6292.9935    7031.0957     21.26263   -1104.6362   -2119.3062   -3562.0036 
 1153000    263.30123   -4821.4339   -4294.7989   -4821.4339            0    5320.4908    18.154464    22.749945     19.51783     8061.119    6595.8005    5258.3461    4107.3258    960.01645   -348.94645   -610.70425   -3669.3052 
 1154000    265.17604   -4840.9218    -4310.537   -4840.9218            0     7539.378    18.125612    22.439579    19.575116    7961.8085     7257.455    9354.3337    6006.3452    510.19694    495.42152   -281.23986   -3435.1036 
 1155000    248.41941    -4813.963   -4317.0935    -4813.963            0    7688.3079    18.203879    22.584379    19.382829    7968.7325    7392.0116    9073.7256    6599.1864   -1418.2346   -70.872419   -478.66012   -3423.5908 
 1156000    242.25441   -4832.0113   -4347.4726   -4832.0113            0     5479.389    18.039277      22.7023    19.614579    8032.8188    5634.1066    5641.1983    5162.8623    920.78567   -742.78525    598.42224   -3705.5598 
 1157000    259.27639   -4836.1483   -4317.5635   -4836.1483            0    7222.4475    18.020263    22.803249    19.434638    7986.0918    7988.8751    7710.6376    5967.8298   -172.93558    -613.1621    1446.3197   -3476.3725 
 1158000    241.52691   -4825.9846    -4342.901   -4825.9846            0    6212.2282    18.194488     22.81815     19.27655    8002.9406    3396.2508    8081.8352    7158.5986   -712.96989    997.29415   -37.163974   -3617.8428 
 1159000    255.49802   -4842.6147   -4331.5871   -4842.6147            0    8531.5724    18.117289    22.717533    19.304029    7945.1546    8852.5391    8848.6221    7893.5561    399.58659    482.38526    2060.1083   -3343.0174 
 1160000    269.23308   -4839.5976   -4301.0981   -4839.5976            0    6223.5072    18.040721    22.874426    19.404678    8007.7501    6297.0788    6606.6742    5766.7687   -1066.3782    294.79739    847.74754    -3574.287 
 1161000    241.74667   -4816.9638   -4333.4406   -4816.9638            0    4973.6362    18.155746    22.914742    19.376995    8061.4932    5134.8416    5798.9961    3987.0707     688.3242   -45.411972   -42.697002   -3748.6971 
 1162000    254.59689   -4827.3475   -4318.1222   -4827.3475            0    5105.1164    17.968182    22.878501      19.5187    8023.8461    5756.6548    5643.6421    3915.0523   -586.73285    277.73755   -2116.7008   -3720.7238 
 1163000    254.97284   -4820.6615   -4310.6844   -4820.6615            0     9061.111    18.030125    22.825472    19.342948    7960.5148    8639.7116    9339.7066    9203.9149    1558.2544   -94.723899   -128.06277   -3258.7261 
 1164000    252.45465   -4827.7131   -4322.7726   -4827.7131            0    5904.7271    17.995115    22.728756    19.639524    8032.6949    4798.3313    6834.0757    6081.7742    498.82745    1752.0293   -231.67809    -3631.042 
 1165000      254.063   -4823.4532   -4315.2958   -4823.4532            0    6699.2252    18.192596    22.667436    19.298311    7958.2277    5216.3326    7751.2886    7130.0542    165.00412    -98.57417   -295.11576   -3537.7664 
 1166000    274.52329   -4819.2211   -4270.1406   -4819.2211            0    5576.1169     18.09405    22.683621    19.628368    8056.2394    6972.5882     5467.969    4287.7934   -888.48816    192.00234   -491.03856   -3614.9915 
 1167000    256.83364   -4839.4243   -4325.7253   -4839.4243            0    6331.1754    18.107082    22.726057     19.41471    7989.2034    5742.3992    7065.5249     6185.602   -153.10214   -777.89047    -864.7043   -3588.0526 
 1168000    255.09335   -4796.2762    -4286.058   -4796.2762            0    8157.1998    18.024707    22.689102     19.50707    7977.6973    6825.7235    9544.3238    8101.5522    1199.1462    372.26272   -1184.2023   -3336.9961 
 1169000    271.47711   -4814.2113   -4271.2236   -4814.2113            0    7698.1641    18.227703    22.755929    19.270701    7993.2617    6570.9833    7637.1633    8886.3458   -181.50394    335.62497   -947.83119   -3373.8215 
 1170000     252.7595   -4810.7405   -4305.1902   -4810.7405            0    5543.0163    18.107774    22.634812     19.72267     8083.653    5141.4895    6714.3549    4773.2046    1151.6385    494.68771    2519.2794   -3651.7141 
 1171000    256.85909    -4805.421   -4291.6711    -4805.421            0     8365.376    18.134443    22.788072    19.306701    7978.4745    7952.2447    8554.2358    8589.6476     553.7245   -288.09368    455.86736   -3318.2938 
 1172000    260.72419    -4840.788   -4319.3074    -4840.788            0    7448.2733    18.053751    22.676988    19.404812    7944.4212    7757.6072     8081.226    6505.9866   -187.67794   -391.34053    240.23327   -3456.3413 
 1173000     243.9634   -4826.4777   -4338.5208   -4826.4777            0    7299.0738    18.150933    22.721789    19.434133    8015.0574    8218.3516    7215.8018     6463.068   -586.16692    1078.2292   -184.02934   -3485.3219 
 1174000    264.62453   -4859.6958   -4330.4141   -4859.6958            0    5519.0423    18.085218    22.876613    19.361223    8010.2906     8195.623    4749.3413    3612.1628    233.53966    287.23211   -754.66799   -3685.6692 
 1175000    250.58396   -4814.8649    -4313.666   -4814.8649            0      7732.54    18.002807    22.869542    19.344883     7964.597     8083.702    7367.2573    7746.6608    569.69882    611.80225   -1040.3535   -3415.4891 
 1176000     260.8201   -4836.2993   -4314.6269   -4836.2993            0    6431.0117    18.100469    22.834662    19.309828    7981.1012    6558.5588    6318.8085    6415.6676    1124.3405    123.67616    173.78884   -3566.0817 
 1177000    268.18421   -4817.7216   -4281.3201   -4817.7216            0    6019.3711    17.895805    22.994852    19.426803    7994.3505    7164.7119    6636.6026    4256.7987    -666.5297   -1190.5968   -78.414284   -3579.5252 
 1178000    267.04936    -4834.982   -4300.8503    -4834.982            0    6396.1611    18.079876    22.987276    19.280719    8013.2039    5070.0868    6118.9554    7999.4411    1165.8383    200.88128   -1940.3364   -3553.3671 
 1179000    257.06078   -4810.1395   -4295.9862   -4810.1395            0    7379.6069    17.857411    23.086378    19.366053     7983.906    7556.2542    7698.8817    6883.6848    119.78349    430.75047   -1046.6082   -3436.7263 
 1180000     254.1011    -4809.363   -4301.1294    -4809.363            0    6425.1039    17.960802    23.346455    19.121563     8018.074    7685.3035    4769.3537    6820.6546    10.481052   -1171.1367   -950.32288   -3549.8074 
 1181000    255.05783   -4827.4423   -4317.2951   -4827.4423            0    8354.6029    17.936108    22.850163    19.323125    7919.4478    9374.8262     7084.545    8604.4374   -816.95041    -1139.327   -456.18043   -3352.3633 
 1182000       270.13   -4840.4002   -4300.1068   -4840.4002            0    6059.1027    18.000994    23.008414    19.337432    8009.0679    6219.8911    6053.7102    5903.7068   -128.09873   -208.19201    107.75296   -3592.3791 
 1183000    258.57812    -4848.476   -4331.2879    -4848.476            0    7368.3421    18.004604    22.836445     19.33885    7951.3839    5311.6728    8935.2851    7858.0684     937.5939    322.52205    352.87462   -3476.8344 
 1184000     242.6155   -4829.2954   -4344.0345   -4829.2954            0    5662.1124    18.011789    22.965397    19.471803    8054.4699    6304.0592    6596.1426    4086.1355   -1411.8942   -338.63769    52.241189   -3678.9277 
 1185000    275.48418    -4834.219   -4283.2166    -4834.219            0    5689.0883    18.243028    22.926119    19.230646    8043.0609    5627.6978     5378.841     6060.726    -948.0834   -1501.1974   -863.03418   -3615.8877 
 1186000    259.34022   -4811.8217   -4293.1092   -4811.8217            0    6080.7424    18.077946    22.701256    19.537982     8018.233    5899.7225    6337.5503    6004.9543    45.397756   -526.56753    601.28552   -3582.0412 
 1187000    257.28577   -4833.1963    -4318.593   -4833.1963            0    7351.2388    18.122072    22.897352    19.165732    7952.7715    5776.4887    7465.5365    8811.6913   -337.80902    1160.6515   -109.19563   -3465.9742 
 1188000    268.56359   -4816.0606   -4278.9002   -4816.0606            0    9093.7944    17.872926    22.818483    19.479452    7944.3647     11000.97    8600.0447    7680.3686   -272.65984    44.842516    385.86081   -3225.2895 
 1189000    246.97171   -4842.3021   -4348.3282   -4842.3021            0    6649.4813    18.160539    22.904941    19.263975    8013.1601    6260.8218    6156.8574    7530.7647   -798.80018   -523.66729    606.97843   -3571.2451 
 1190000    274.33194   -4815.8515   -4267.1537   -4815.8515            0    7194.8845    17.954745    22.912748    19.455261    8003.7495     7017.315    7206.7033    7360.6354   -1421.1104   -404.74196   -370.46761   -3427.3202 
 1191000    273.09276   -4838.0244   -4291.8052   -4838.0244            0    5981.4938    18.139507     22.70822    19.472763    8021.1411     5993.918     6645.006    5305.5575     320.8217    32.807824    962.75374   -3592.0893 
 1192000    260.10883   -4821.4595   -4301.2097   -4821.4595            0    6525.2191    18.119079    22.669346    19.505046    8011.6522    4619.0051    7628.5449    7328.1073   -40.115148   -144.31289   -849.22066   -3538.7918 
 1193000    261.11337   -4831.1483   -4308.8893   -4831.1483            0    8738.5996    18.154918    22.726995    19.252214    7943.5934    9230.1885    7839.2299    9146.3803    1242.5787    236.20912    380.78123   -3296.5299 
 1194000    248.72067   -4797.5425   -4300.0704   -4797.5425            0     8944.533    17.981106     22.80421     19.50559     7998.168    8874.6007    9793.3986    8165.5996   -1118.8297     723.6589   -540.19486   -3256.7347 
 1195000    242.42545   -4788.3757   -4303.4949   -4788.3757            0    6890.6891    18.132375    22.893136     19.26729    7997.9857    6712.3472    6970.9295    6988.7907   -1863.6831   -1004.4296   -281.41453   -3499.7482 
 1196000    249.37302   -4820.2497   -4321.4728   -4820.2497            0    6782.7779    17.958441    22.893258    19.490793    8013.1955    7236.8035    6720.9055    6390.6247   -63.177544    544.37996    1629.7355   -3528.8087 
 1197000    251.24495   -4818.1792   -4315.6583   -4818.1792            0    7416.9524    18.062629    22.970291    19.235794     7981.005    8834.0642    6069.2689    7347.5241   -799.11683   -1090.4834   -4.4553277   -3452.3638 
 1198000    256.81506   -4815.1644   -4301.5026   -4815.1644            0    6693.5697      17.9212    23.004149    19.387318    7992.6538    5408.1801    8020.8889    6651.6401   -521.60925    221.38063    1902.0886   -3521.2689 
 1199000    251.94198   -4790.6358   -4286.7207   -4790.6358            0    5735.0489    17.934095    23.342045    19.193024     8034.554    4598.6944    4939.0486    7667.4036   -1456.3795   -1226.5619   -1367.4444   -3614.7122 
 1200000    262.48413    -4838.007   -4313.0063    -4838.007            0    6147.7955    17.978752    22.918311    19.541255      8051.83    5435.6491    7794.1568    5213.5807    1468.1966     1105.078    939.97015   -3591.0849 
 1201000    269.86281   -4846.7093   -4306.9504   -4846.7093            0    6584.3015    18.135035    23.037667    19.161919    8005.6371    7592.7555    6183.5847    5976.5644   -562.04339    645.24023    602.92435   -3538.2068 
 1202000    255.25777   -4824.8974   -4314.3503   -4824.8974            0    5268.5312    18.085535    22.926074    19.482708    8078.1212    4207.4948    5399.5568    6198.5421    873.50966    813.27484    1755.9994   -3693.6588 
 1203000    242.89496   -4822.6912   -4336.8713   -4822.6912            0    7758.0529     18.09847    22.776926    19.272318    7944.5796    8217.0989    7915.0206    7142.0392   -95.893864   -185.45888    160.16735   -3437.9958 
 1204000    255.70565   -4856.7691   -4345.3262   -4856.7691            0    5417.1508    18.056826    22.875819    19.446191    8032.5346    5627.9571    5330.1574    5293.3378   -944.61853   -978.72912    618.44019   -3710.7272 
 1205000     260.4896   -4857.6577   -4336.6463   -4857.6577            0    6125.3852    18.108173    22.839235    19.355836    8005.1251    3984.6652    7750.3622    6641.1283   -424.30805    1170.6762   -1297.2026   -3621.5288 
 1206000    256.37385   -4829.8262   -4317.0468   -4829.8262            0    7704.1838    18.083009    22.588681     19.43927    7940.3843    5241.8785    9098.2713    8772.4017   -1542.8396   -70.281332    493.54259   -3424.8841 
 1207000    260.74497   -4831.4791    -4309.957   -4831.4791            0    7067.2472    18.168783    22.725596    19.401429    8010.7807    5054.6986    7908.7839    8238.2592   -586.55661   -482.05549    1277.5749   -3484.2974 
 1208000    266.06026   -4824.8644    -4292.711   -4824.8644            0    7028.7348    18.071551    22.648812    19.501952    7982.1328    7596.8534    7123.7249     6365.626   -24.444707   -51.776494    308.21476   -3474.4874 
 1209000     260.9857   -4832.4161   -4310.4125   -4832.4161            0     6393.054    18.315596    22.648646    19.218184    7972.1533    5659.0805    6180.5759    7339.5056   -471.72631   -515.48732   -1244.9405   -3567.1197 
 1210000    255.40381   -4802.7272    -4291.888   -4802.7272            0    5490.0942    18.010484    22.867218    19.485688    8025.1741    4123.3477    6169.7936    6177.1412    600.83784    554.72165    2285.8662   -3649.3333 
 1211000    261.56996   -4829.4846   -4306.3123   -4829.4846            0    6672.0635    18.117889    22.824627    19.342655    7998.8468    7443.3039    6518.7088    6054.1777   -1282.0045     -761.404   -549.41205   -3527.9829 
 1212000    268.42605   -4841.4805   -4304.5952   -4841.4805            0    8634.4205    18.038534    22.645731    19.410843     7929.248    9553.3228    8425.8628    7924.0759    63.792802    213.22294   -1195.2006   -3306.1113 
 1213000    244.19048   -4808.7148   -4320.3037   -4808.7148            0    6219.2707    18.119677    22.776306    19.450199    8027.0838    7607.8862    5969.4142    5080.5119    75.130188   -543.34248   -721.45689   -3592.2336 
 1214000    262.32313   -4839.9447    -4315.266   -4839.9447            0    5927.0942    18.123815    22.700283    19.420683    7989.9747    5334.8042    6855.2117    5591.2667    1218.8203    658.70063    717.02062   -3624.6079 
 1215000    246.29817   -4862.9034   -4370.2766   -4862.9034            0    4873.2333    18.190672     22.76275    19.448178    8052.9016    3978.4352    4958.4486    5682.8161    1101.8392     38.04994   -106.68245    -3797.948 
 1216000    258.62926   -4830.2807   -4312.9903   -4830.2807            0    7984.7161    18.094982     22.62925    19.467115    7971.3139    6581.9386    9743.1539    7629.0559   -1853.3319   -706.65462   -204.73033   -3384.7396 
 1217000    245.26768    -4836.411   -4345.8454    -4836.411            0    7564.3261    17.991986    22.882007    19.318173    7953.1514     6585.913     8373.019    7734.0465   -116.50078    411.85361    619.53879   -3468.4701 
 1218000    255.93807   -4814.2988    -4302.391   -4814.2988            0    6673.8843    18.000371    23.075788    19.347325    8036.3516    7792.6954    5178.7012    7050.2561     2.268207   -1461.7699    336.60861   -3520.1988 
 1219000    251.97057     -4823.36   -4319.3878     -4823.36            0    5429.5631    18.034255    23.104937    19.341653    8059.2863    6478.1269    5581.5826    4228.9798   -84.504226    32.737618    659.15681   -3681.2163 
 1220000    245.71449   -4837.1985   -4345.7392   -4837.1985            0    6948.6394    17.883385    23.015406    19.429184    7996.9231     6285.507    7467.3157    7093.0955   -586.39139    683.34019   -19.631498   -3535.3408 
 1221000    263.12018   -4850.3476   -4324.0748   -4850.3476            0    6999.0009    17.954491    23.001763    19.296861    7969.3135    8429.1162    7345.9691    5221.9173   -252.92631     337.6631    245.42547   -3510.6211 
 1222000    244.53038   -4836.7885   -4347.6975   -4836.7885            0    6243.4012    17.922757    23.180243    19.267927    8004.9347    8382.6323    4959.8063     5387.765    131.06872    506.09553   -1768.7397   -3618.8194 
 1223000    248.66632   -4849.1451   -4351.7818   -4849.1451            0    5920.3013    17.961153    23.223411     19.24891    8029.0908     3711.065     6351.994    7697.8448   -1832.8791    252.52742    1561.7128   -3658.5378 
 1224000    262.94646   -4831.3266   -4305.4012   -4831.3266            0    7669.4739    17.891625    23.178338    19.295731    8001.9038    8715.5299    6926.3634    7366.5283    591.98394    849.31091   -696.63735    -3410.377 
 1225000    254.81284   -4842.3415   -4332.6843   -4842.3415            0      5177.93    18.030485    23.057625    19.357015    8047.4885    6689.0696    4799.4499    4045.2704    1014.1367    1290.2526    674.39148   -3724.9798 
 1226000    252.89868   -4821.2208   -4315.3922   -4821.2208            0    7036.2687    17.956169    22.874484    19.416897    7975.2597     6580.806    8066.5132     6461.487    1445.8972    312.73481   -1500.3747   -3496.9969 
 1227000    274.22372   -4800.8141   -4252.3328   -4800.8141            0    6397.9132    18.215214    22.781046    19.362268    8034.5983    5833.3557    6379.7638    6980.6202   -451.49402    607.21213   -1327.1089   -3502.6485 
 1228000    260.55077   -4801.2122   -4280.0785   -4801.2122            0    8138.9827    17.800806    22.736897    19.659841    7957.0274     9020.849    8153.9502     7242.149    1040.7814    399.93184   -1535.2171   -3335.5896 
 1229000    258.05894   -4814.9829   -4298.8332   -4814.9829            0     5072.209    18.181141    23.013068    19.317662    8082.5839    6274.9347    4151.2947    4790.3977    969.16327   -949.32749    306.33266   -3700.9405 
 1230000    268.21752   -4809.5024   -4273.0342   -4809.5024            0    6755.2845    18.126036    22.812626     19.43193    8035.1511    5405.6791    5596.2398    9263.9347    302.61668   -677.63491   -529.24569     -3481.42 
 1231000    273.49814   -4824.5252   -4277.4951   -4824.5252            0    6848.4023    17.976589    22.918173     19.41179    7997.4742    5350.7423    6950.6696     8243.795    1341.7313     -778.664   -28.682484    -3478.732 
 1232000     253.0256   -4813.4067   -4307.3242   -4813.4067            0    6724.0694    18.065922    22.959366    19.317539    8012.5701    6510.8408    6818.5767    6842.7906   -563.07564    635.16731   -1590.5318   -3521.5823 
 1233000    248.03485   -4820.9631   -4324.8628   -4820.9631            0    7951.4591    17.961942    23.016978     19.30421    7980.9318    8677.3625    6154.9289    9022.0858    1756.5695    211.34324    2359.6031    -3399.363 
 1234000    264.56516   -4819.1633   -4290.0004   -4819.1633            0     6897.093    18.093338     22.79397     19.47642    8032.4455    6463.0959    7153.2466    7074.9364   -1116.7017    1240.0671   -761.71779   -3482.0405 
 1235000    245.13489    -4816.368   -4326.0679    -4816.368            0    8554.4273    18.036198    22.821018    19.322487     7953.221    8507.0034     7726.377    9429.9015   -672.14716    729.93648    78.171446   -3333.8436 
 1236000    253.04349   -4827.4107   -4321.2924   -4827.4107            0    5940.8781    18.076232    22.823027    19.520968    8053.4599     4751.595    6105.7938    6965.2455    1270.3391    1110.4693     654.7336   -3623.5277 
 1237000    259.82441   -4844.4679   -4324.7869   -4844.4679            0     6433.393    18.189231    22.728943    19.463638     8046.696    5490.1925    6763.7595     7046.227   -308.27869    473.59249   -459.09471   -3569.8102 
 1238000    268.00647   -4828.4253   -4292.3792   -4828.4253            0     8296.552      18.0436    22.793617    19.293424    7934.9783    9396.1702    7831.1522    7662.3337    769.82401    951.00719    35.618101    -3332.273 
 1239000    265.72515   -4832.7793   -4301.2962   -4832.7793            0    7633.0976    17.894017    22.940413    19.377439     7954.364    8578.3665    6841.4001    7479.5261   -999.06719   -1680.3483   -1511.7253   -3415.8092 
 1240000    254.80546   -4803.0869   -4293.4445   -4803.0869            0    6341.7923    17.935066    23.034115     19.40177    8015.2279    7475.5354    6450.5703    5099.2711   -128.89184   -158.97819    494.13014   -3552.1278 
 1241000    255.59898   -4847.9607   -4336.7312   -4847.9607            0     7528.602    18.034916    23.081481    19.093102    7947.9347    8082.5631    7116.4667     7386.776   -1036.2442   -638.76483   -577.04765   -3464.0723 
 1242000    252.43644   -4820.4912   -4315.5872   -4820.4912            0     7471.548    17.906091    22.974001    19.403074     7981.931    8266.8987    7365.5801    6782.1654   -180.11781    146.52767    1037.2862   -3445.8371 
 1243000    258.11844   -4797.0756   -4280.8069   -4797.0756            0     6787.759    18.099033    22.824127    19.415965    8020.6307    3838.5494    8659.9098    7864.8179   -577.28446    1320.4753   -341.37442   -3486.8246 
 1244000    260.00347    -4802.564    -4282.525    -4802.564            0    9923.9761    17.955743    22.891627    19.295889    7931.3084    10495.357    9671.5873    9604.9841   -569.59966   -478.93883    92.855456   -3134.6187 
 1245000    265.60448   -4790.4072   -4259.1654   -4790.4072            0     7203.092    17.914739    23.129942    19.345059    8015.9515    7796.5843    7268.0046    6544.6871   -247.33648   -438.11584   -1256.9396    -3417.092 
 1246000    262.22904   -4842.1169   -4317.6264   -4842.1169            0    6063.1774    18.014527     22.88496    19.404591    7999.7701    7149.8187    5764.9393    5274.7743   -1135.7012    177.32514   -642.19114   -3610.2449 
 1247000    258.92228   -4831.2842   -4313.4076   -4831.2842            0    5867.3776    18.228141    22.758255     19.32176    8015.4517    4603.3727    5613.3473    7385.4126    -992.6955    -800.8675    471.40436   -3627.5279 
 1248000    263.19245   -4805.4753   -4279.0579   -4805.4753            0    7145.0143    17.925911    22.982492     19.38682    7987.0227    9001.2128    6259.0076    6174.8225   -254.83288   -700.80402    301.82411   -3446.7885 
 1249000    255.33565   -4823.7886   -4313.0857   -4823.7886            0    6637.1436    18.183501    22.789825     19.30622    8000.4747    5634.4758    6619.9816    7656.9735   -106.93103   -1871.1815    223.08468   -3538.6723 
 1250000    274.42792    -4825.203   -4276.3132    -4825.203            0    6795.0064    17.904352    22.799988    19.566343    7987.3529    6503.5806    7797.5028    6083.9358    293.88463    379.74794    227.09299    -3484.781 
Loop time of 620.81 on 64 procs for 250000 steps with 1008 atoms

Performance: 69.587 ns/day, 0.345 hours/ns, 402.700 timesteps/s
99.2% CPU use with 64 MPI tasks x 1 OpenMP threads

MPI task timing breakdown:
Section |  min time  |  avg time  |  max time  |%varavg| %total
---------------------------------------------------------------
Pair    | 27.876     | 31.977     | 36.112     |  31.6 |  5.15
Bond    | 0.28686    | 0.29708    | 0.3102     |   1.0 |  0.05
Kspace  | 284.91     | 299.6      | 316.36     |  44.7 | 48.26
Neigh   | 4.311      | 5.3826     | 6.9265     |  27.5 |  0.87
Comm    | 114.54     | 134.95     | 151.65     |  76.9 | 21.74
Output  | 1.5101     | 1.5157     | 1.5271     |   0.5 |  0.24
Modify  | 131.03     | 137.9      | 146.87     |  32.4 | 22.21
Other   |            | 9.189      |            |       |  1.48

Nlocal:        15.7500 ave          19 max          13 min
Histogram: 6 11 0 12 0 12 14 0 5 4
Nghost:        2498.17 ave        2522 max        2476 min
Histogram: 1 5 6 12 11 12 8 3 3 3
Neighs:        5230.41 ave        6317 max        4276 min
Histogram: 6 10 1 12 5 7 14 0 5 4

Total # of neighbors = 334746
Ave neighs/atom = 332.08929
Ave special neighs/atom = 2.0000000
Neighbor list builds = 9639
Dangerous builds = 0

unfix		3
unfix		2
unfix		1

write_data	data.final.${pid}
write_data	data.final.0
System init for write_data ...
PPPM initialization ...
  extracting TIP4P info from pair style
  using 12-bit tables for long-range coulomb (../kspace.cpp:340)
  G vector (1/distance) = 0.37900084
  grid = 24 27 36
  stencil order = 5
  estimated absolute RMS force accuracy = 0.0024763179
  estimated relative force accuracy = 7.4573578e-06
  using double precision FFTW3
  3d grid and FFT values/proc = 4050 480
Last active /omp style is kspace_style pppm/tip4p/omp
WARNING: Not all mixed pair coeffs generated from mixing. Use write_data with 'pair ij' option to store all pair coeffs. (../write_data.cpp:312)

write_restart   restart.lmp.${pid}
write_restart   restart.lmp.0
System init for write_restart ...
PPPM initialization ...
  extracting TIP4P info from pair style
  using 12-bit tables for long-range coulomb (../kspace.cpp:340)
  G vector (1/distance) = 0.37900084
  grid = 24 27 36
  stencil order = 5
  estimated absolute RMS force accuracy = 0.0024763179
  estimated relative force accuracy = 7.4573578e-06
  using double precision FFTW3
  3d grid and FFT values/proc = 4050 480
Last active /omp style is kspace_style pppm/tip4p/omp
Total wall time: 0:10:23
