LAMMPS (30 Jul 2021)
Processor partition = 1
  using 2 OpenMP thread(s) per MPI task
using multi-threaded neighbor list subroutines
variable        pid world 0 1
variable        phase world IceIh IceIII

shell cd ${phase}
shell cd IceIII
include Restart.lmp
echo both
log log.lammps
#include		in.partitions
include		in.temp
variable        temperature equal 120.22
variable	tempDamp equal 100.0
include		in.pressure
variable        pressure equal 1976.3
variable        pressureDamp equal 1000.0 # This is 1 ps
include		in.seed
variable        seed equal 745823

units		real
atom_style	full

read_restart	restart.lmp.${pid}
read_restart	restart.lmp.1
Reading restart file ...
  restart file = 30 Jul 2021, LAMMPS = 30 Jul 2021
  restoring atom style full from restart
  orthogonal box = (-0.024140379 -0.036798497 -0.026070897) to (20.024141 20.036799 20.726069)
  2 by 4 by 4 MPI processor grid
  restoring pair style lj/cut/tip4p/long/omp from restart
  restoring bond style harmonic/omp from restart
  restoring angle style harmonic/omp from restart
  972 atoms
  648 bonds
  324 angles
Finding 1-2 1-3 1-4 neighbors ...
  special bond factors lj:    0        0        0       
  special bond factors coul:  0        0        0       
     2 = max # of 1-2 neighbors
     1 = max # of 1-3 neighbors
     1 = max # of 1-4 neighbors
     2 = max # of special neighbors
  special bonds CPU = 0.002 seconds
  read_restart CPU = 0.007 seconds
include 	in.setup
variable	out_freq equal 1000
variable	out_freq2 equal 10000
variable	out_freq3 equal 1000

timestep	2.0

neigh_modify    delay 7 every 1

include		in.tip4p
# This is TIP4P/Ice

# create groups ###
group ox type 2
324 atoms in group ox
group hy type 1
648 atoms in group hy

# set charges - beside manually ###
set group ox charge -1.1794
Setting atom values ...
  324 settings made for charge
set group hy charge 0.5897
Setting atom values ...
  648 settings made for charge

# ### TIP3P Potential Parameters ###
pair_style lj/cut/tip4p/long/omp 2 1 1 1 0.1577 8.5
pair_coeff 1 1*2 0.000 0.000
pair_coeff 2 2 0.21084 3.1668
bond_style  harmonic
bond_coeff  1 450 0.9572
angle_style harmonic
angle_coeff 1 55 104.52
kspace_style pppm/tip4p/omp 1.0e-5
pair_modify tail yes

thermo          ${out_freq}
thermo          1000
thermo_style    custom step temp pe etotal epair emol press lx ly lz vol pxx pyy pzz pxy pxz pyz enthalpy

restart 	${out_freq3} restart.lmp.${pid} restart2.lmp.${pid}
restart 	1000 restart.lmp.${pid} restart2.lmp.${pid}
restart 	1000 restart.lmp.1 restart2.lmp.${pid}
restart 	1000 restart.lmp.1 restart2.lmp.1


include         in.dump
dump            myDump all atom ${out_freq2} dump.water.${pid}
dump            myDump all atom 10000 dump.water.${pid}
dump            myDump all atom 10000 dump.water.1
dump            myDump2 all dcd ${out_freq2} dump.dcd
dump            myDump2 all dcd 10000 dump.dcd
dump_modify     myDump append yes
dump_modify     myDump2 append yes


variable natoms 	equal  "count(all)"                        # NUMBER ATOMS
variable H      	equal  "enthalpy/v_natoms"                 # ENTHALPY-per-atom
variable Vol      	equal  "vol/v_natoms"                 # volume-per-atom
fix AVG all 		ave/time ${out_freq} 1 ${out_freq} v_Vol v_H file vol_enthalpy.dat
fix AVG all 		ave/time 1000 1 ${out_freq} v_Vol v_H file vol_enthalpy.dat
fix AVG all 		ave/time 1000 1 1000 v_Vol v_H file vol_enthalpy.dat


timer           timeout 02:55:00 every 1000
New timer settings: style=normal  mode=nosync  timeout=02:55:00

fix 		1 all shake 1e-6 200 0 b 1 a 1
Finding SHAKE clusters ...
       0 = # of size 2 clusters
       0 = # of size 3 clusters
       0 = # of size 4 clusters
     324 = # of frozen angles
  find clusters CPU = 0.001 seconds
fix             2 all nph aniso ${pressure} ${pressure} ${pressureDamp}
fix             2 all nph aniso 1976.3 ${pressure} ${pressureDamp}
fix             2 all nph aniso 1976.3 1976.3 ${pressureDamp}
fix             2 all nph aniso 1976.3 1976.3 1000
fix             3 all temp/csvr ${temperature} ${temperature} ${tempDamp} ${seed}
fix             3 all temp/csvr 120.22 ${temperature} ${tempDamp} ${seed}
fix             3 all temp/csvr 120.22 120.22 ${tempDamp} ${seed}
fix             3 all temp/csvr 120.22 120.22 100 ${seed}
fix             3 all temp/csvr 120.22 120.22 100 745823


run             250000
PPPM initialization ...
  extracting TIP4P info from pair style
  using 12-bit tables for long-range coulomb (../kspace.cpp:340)
  G vector (1/distance) = 0.37227772
  grid = 24 24 25
  stencil order = 5
  estimated absolute RMS force accuracy = 0.0034243064
  estimated relative force accuracy = 1.0312197e-05
  using double precision FFTW3
  3d grid and FFT values/proc = 3458 576
Last active /omp style is kspace_style pppm/tip4p/omp
Neighbor list info ...
  update every 1 steps, delay 7 steps, check yes
  max neighbors/atom: 2000, page size: 100000
  master list distance cutoff = 10.8154
  ghost atom cutoff = 10.8154
  binsize = 5.4077, bins = 4 4 4
  1 neighbor lists, perpetual/occasional/extra = 1 0 0
  (1) pair lj/cut/tip4p/long/omp, perpetual
      attributes: half, newton on, omp
      pair build: half/bin/newton/omp
      stencil: half/bin/3d
      bin: standard
Setting up Verlet run ...
  Unit style    : real
  Current step  : 26750000
  Time step     : 2
  Walltime left : 2:54:59.94
Per MPI rank memory allocation (min/avg/max) = 10.19 | 10.19 | 10.20 Mbytes
Step Temp PotEng TotEng E_pair E_mol Press Lx Ly Lz Volume Pxx Pyy Pzz Pxy Pxz Pyz Enthalpy 
26750000    125.34604   -4999.0942   -4757.3538   -4999.0942            0     2075.499    20.048282    20.073598     20.75214     8351.515    1511.8288    1892.8333    2821.8349    6.7909298    -5.947067   -251.40812   -4504.5616 
26751000    120.00389   -5008.4006   -4776.9631   -5008.4006            0    2772.0349    19.942744    20.091098    20.661024    8278.2862    2570.3448     3118.057    2627.7029   -329.40323    729.72518   -478.08167   -4442.2944 
26752000    123.48519   -5018.4448   -4780.2932   -5018.4448            0    910.20949    20.131097    19.962991    20.876553    8389.8046    488.45785    739.62872    1502.5419    9.3522581   -271.76421   -398.65416    -4668.923 
26753000    118.46791    -5011.993   -4783.5176    -5011.993            0    1010.3116    20.068762    19.845058    21.001484    8364.1714    654.87839    1662.0421     714.0143   -255.38281    856.08403    25.770029    -4660.277 
26754000    114.15157    -5012.064   -4791.9131    -5012.064            0    1718.2372    19.938661     19.95656    20.805334    8278.5896     1071.865    2210.9509    1871.8958    -46.90584    593.96009   -196.05807   -4584.4622 
26755000     118.7292   -5007.7678   -4778.7886   -5007.7678            0    1621.5121    20.051156    19.919377    20.897807    8346.7209    2611.1744    403.74736    1849.6145    170.29093    451.45318     -382.693   -4581.4046 
26756000     125.8009   -5010.7014   -4768.0838   -5010.7014            0    2780.0181    19.889629    19.923954    20.806914    8245.3653    3807.8903    2122.1797    2409.9845    332.04652     524.1062    22.833213    -4433.786 
26757000    117.45174   -5003.5943   -4777.0787   -5003.5943            0    1450.7876     20.06952    19.965293    20.782021    8327.2284    1564.6947    735.88185    2051.7862   -380.76229    210.55418    940.23296   -4600.8892 
26758000    123.87584   -5010.9268   -4772.0218   -5010.9268            0    2219.3462    20.141541     19.94328    20.572389    8263.6897    1940.6607    2439.6764    2277.7015    213.94742    182.61279    136.39207   -4504.5519 
26759000    128.72181   -5009.4384   -4761.1876   -5009.4384            0    2515.6661    19.965175    19.870325     20.87748    8282.3993    3697.4432    1571.9779    2277.5771   -61.424974   -321.96146     339.1326   -4457.3195 
26760000    119.68391   -5000.8485    -4770.028   -5000.8485            0    2823.3235    20.043722    19.873381    20.793613    8282.8557    2585.6827    3353.3985    2530.8894   -506.54956   -497.41471    264.42721   -4428.9791 
26761000    116.28894   -5004.2168   -4779.9438   -5004.2168            0    1196.1753    20.079639    19.946372    20.810428    8334.9086     -94.9531    2651.8705    1031.6086   -88.397807    97.776525    105.14235   -4634.5414 
26762000    120.63326   -4987.8617   -4755.2103   -4987.8617            0    2206.7508    19.956402    19.984755    20.843494    8312.8813    2056.3107    2934.8466    1629.0951   -66.631245    1069.9679    123.64101   -4487.6752 
26763000    125.37284   -4999.8844   -4758.0924   -4999.8844            0    2121.0098    19.940699    20.000547    20.858942    8319.0652    1752.1051     3460.039    1150.8852   -221.79821    -62.61471   -84.465651   -4500.7608 
26764000     118.7287   -5013.7506   -4784.7723   -5013.7506            0    1059.2493    19.939272    20.015403    20.867728     8328.155    1562.6615    1152.2043    462.88221   -312.01631   -707.77078     879.9657   -4656.1184 
26765000    120.01753   -5011.9043   -4780.4404   -5011.9043            0    1586.0242    20.094898    19.915418    20.806834    8326.8595    1071.3279    1763.7511    1922.9935    439.40741    1372.5095     720.5427   -4587.8357 
26766000    121.32523   -5012.8849    -4778.899   -5012.8849            0    2487.7968    20.018034    19.890167    20.748577    8261.2953    1149.0139    3955.5622    2358.8141   -106.09648   -257.43415    620.60393    -4479.163 
26767000    118.96439   -5006.4457   -4777.0129   -5006.4457            0    2063.4769    20.086189    19.984174    20.706107    8311.5535    1433.8614    1524.2401    3232.3291    207.50116   -471.30145    451.23872   -4526.8875 
26768000    116.62585   -5016.4129   -4791.4902   -5016.4129            0     1416.452    19.999444    19.949273    20.862088    8323.4386    1775.0377    1015.3955    1458.9227    1.1046686    22.240155   -229.73435   -4619.5487 
26769000    114.82596   -5000.9699   -4779.5184   -5000.9699            0    1514.8854    19.885635    20.020539    21.009587    8364.3605    2963.5529     760.7639    820.33928   -74.455692    290.34361    740.45593   -4594.7242 
26770000    124.65988    -5020.656   -4780.2389    -5020.656            0    2358.3608    20.084081    19.919611     20.74566    8299.6553    1669.8725    2013.7057    3391.5044   -559.71993   -1680.4248    655.02691   -4494.7783 
26771000    118.28884   -5016.2836   -4788.1536   -5016.2836            0    2323.5236    19.996038    19.993393    20.750431    8295.7866    2118.8026     1997.644    2854.1243   -264.26239   -520.23234    304.14681   -4507.0409 
26772000    118.25419   -5002.1824   -4774.1193   -5002.1824            0     2950.957    19.991907    19.827247    20.921965    8293.1422    2873.9221    3059.3826    2919.5662    168.15323     472.1159   -152.97699   -4417.2099 
26773000    122.27767   -5026.4897   -4790.6669   -5026.4897            0    1926.7865    19.939909    20.021262    20.783164    8297.0995    1635.8894    1803.4357    2341.0345   -314.37387    274.99486   -746.43549   -4557.5168 
26774000    128.36194   -5002.5032   -4754.9464   -5002.5032            0    1700.7534    19.997372    20.154011     20.66672    8329.2514    1756.5656    528.61748     2817.077   -32.794217    345.36418    307.20756   -4548.3498 
26775000    123.10625   -4999.3106   -4761.8898   -4999.3106            0    2348.2704    19.951592    20.068215    20.609454    8251.8779    2077.2488    1541.1975    3426.3649     193.1599   -40.611485    324.93839   -4479.2868 
26776000    123.35516   -5000.5982   -4762.6974   -5000.5982            0    1060.4205    20.081467    19.937093    20.900261    8367.7555    1111.6453    926.51981    1143.0964   -160.79218    238.85884   -524.65862   -4633.2888 
26777000     124.8881   -5001.1589   -4760.3017   -5001.1589            0    1979.3398    19.947414     19.95206    20.936821    8332.6872    2108.4105    3219.9089    609.70007    491.26989    310.50999   -505.91281    -4519.765 
26778000    124.92858   -5024.7733    -4783.838   -5024.7733            0     1838.469    19.894128    19.938836    20.886634    8285.0124    1661.8475    2367.2013    1486.3583   -386.02465   -359.16507    219.77532   -4561.6987 
26779000    118.83429   -5004.1438   -4774.9619   -5004.1438            0    2461.5585     20.00612    19.929838     20.95506    8355.1752    2585.8159     2977.908    1820.9515    122.78787    196.98975   -618.77059   -4475.0169 
26780000    121.41841   -5001.5355   -4767.3699   -5001.5355            0    2162.2943    19.979594    19.990188    20.826073     8317.847    1988.1089     1935.929     2562.845    12.958641    152.85471   -1419.3805   -4505.0679 
26781000    119.52924   -4996.1377   -4765.6155   -4996.1377            0    1560.4868     19.98636     20.00602    20.998578    8396.2295    1779.2728    733.52704    2168.6605   -37.799813    22.262653   -334.71704   -4574.5333 
26782000    121.47401   -5005.4152   -4771.1423   -5005.4152            0    1319.5807    19.862612    20.106321    20.851462     8327.324    1971.6612    327.83386     1659.247   -176.34457   -169.49577     259.3633   -4610.8852 
26783000    118.02454   -5001.9523   -4774.3321   -5001.9523            0    1720.0923    19.957253    20.057361    20.795802     8324.348    1428.4817    1846.3322    1885.4629   -410.41645   -770.15987   -459.30058   -4565.5093 
26784000    115.19901    -5008.049    -4785.878    -5008.049            0     1011.435    20.079783     20.00873    20.724773    8326.6119   -476.93471    1852.7154    1658.5242    -183.1813   -11.894985   -143.53206   -4663.0543 
26785000    116.04225   -5022.0338   -4798.2365   -5022.0338            0    2291.4883    19.902453    19.993299    20.731447    8249.3683    1648.8386     2728.256    2497.3702   -68.106127    7.7863239   -454.92348   -4522.5508 
26786000    120.27915    -5019.693   -4787.7246    -5019.693            0    1992.6381    19.821334    20.085045    20.699107    8240.5706    3086.8795     1061.407    1829.6278    237.96114   -62.901419   -295.71559   -4548.2488 
26787000    117.80146   -5006.3791    -4779.189   -5006.3791            0    1549.0375    20.050799    19.950687    20.836109    8335.0106    167.60944    3169.1711    1310.3319     200.7705   -350.54097   -400.42567   -4590.8918 
26788000    124.43457   -5008.0418   -4768.0592   -5008.0418            0     434.5792    20.046028    20.153878    20.661139    8347.2074    385.40419   -343.99678    1262.3302    189.82697    309.86576   -1177.2805   -4715.1555 
26789000    116.24489   -5008.3438   -4784.1558   -5008.3438            0    2540.7798    20.033083    19.921894    20.710228    8265.3892    2810.5145    2408.2436    2403.5812    103.01519    79.023944    417.88487   -4477.8845 
26790000    120.30056   -5008.4517   -4776.4419   -5008.4517            0    3123.2559    19.816527    20.084854    20.795589    8276.8949    4872.2318    1904.5229     2593.013   -116.18989    161.83076   -148.41795   -4399.4336 
26791000    123.87256   -5013.6971   -4774.7985   -5013.6971            0    2432.6051     19.95149    19.854006    20.884703    8272.7856    1991.4009    3451.8864    1854.5279   -60.777628   -87.610323   -453.58566   -4481.3045 
26792000    122.06296   -5017.6345   -4782.2258   -5017.6345            0    2133.5693    20.109146    19.843603    20.873453    8329.2992    2509.9234    1654.2792    2236.5054    61.696618    275.58559   -616.12775    -4523.052 
26793000    126.74595   -5010.8424   -4766.4022   -5010.8424            0    2313.2393    19.885498    20.006656    20.821493    8283.6712    2864.9422    1483.4201    2591.3557   -554.45952   -152.39665   -219.02242   -4486.9424 
26794000    114.51259   -5014.2023   -4793.3551   -5014.2023            0    315.86079    20.038315    20.063886    20.762279    8347.4009    416.24213   -420.12784    951.46808   -32.457869    -373.4346    453.82374   -4754.9028 
26795000    116.33306   -5016.1082   -4791.7501   -5016.1082            0     2253.853    20.065422     19.94356    20.677799    8274.7577    2308.3355     2020.137    2433.0864    128.43757   -645.89614   -13.476546   -4519.7577 
26796000    117.03478   -5010.4484    -4784.737   -5010.4484            0    2954.1267      20.0059    19.835266    20.848869    8273.2973    2717.2769    3210.2281    2934.8751    4.8409751    94.946055   -457.97841   -4428.2993 
26797000    124.34996   -5015.9856   -4776.1662   -5015.9856            0    2455.4661    19.863538    19.948408    20.951627    8301.9975    2803.5315    2745.4049     1817.462   -138.72773     520.6252     546.7515   -4478.8679 
26798000    115.05793   -5013.8704   -4791.9715   -5013.8704            0     2480.958    19.929401    19.960691    20.983672    8347.4017    2231.4358    2627.6372    2583.8009    149.54701    764.50447    1102.9366   -4489.9439 
26799000    123.07069   -5012.9325   -4775.5803   -5012.9325            0    1922.9121    20.095125    19.964555    20.734426     8318.449     1356.257    2237.4023    2175.0768    164.57466    420.99808   -186.61988   -4542.3002 
26800000    118.41485   -5021.6292   -4793.2562   -5021.6292            0    1703.6418    20.174997    19.971545    20.642488    8317.3924   -0.7424013    2659.8182    2451.8496    -126.1863    277.55362    -212.8066   -4586.6033 
26801000    129.95785   -4994.8372   -4744.2025   -4994.8372            0    1725.0933    20.100126    19.955603    20.753699    8324.5191    1755.8712    1476.5316    1942.8771    138.26872    158.96587   -157.14642   -4534.7683 
26802000    119.21068   -5012.8879   -4782.9801   -5012.8879            0    2375.0114    19.883415    19.929576    20.770059    8230.5103    1336.7633    3066.9971    2721.2738   -19.066659   -472.38679    127.93515    -4497.899 
26803000    114.15033   -5015.7816   -4795.6331   -5015.7816            0    1686.0907    19.965113    19.986883    20.765903    8286.4341    1695.3375    1652.4977     1710.437   -20.064118    82.443043    320.19131   -4591.8704 
26804000     123.9295   -5001.1555    -4762.147   -5001.1555            0    1659.9428    19.844305    20.074767    20.920914    8334.2604    1624.9545    1813.2486    1541.6252    -214.3174    314.36626     235.5039   -4560.3865 
26805000    118.94461   -5006.3121   -4776.9174   -5006.3121            0    1465.8577    20.011988    19.950897    20.892424     8341.449    1984.3609    1623.8439    789.36827    143.66666    1116.9287      323.391   -4598.5936 
26806000    131.06361   -5013.7403   -4760.9731   -5013.7403            0    1934.2564    19.938864    19.935489    20.993418    8344.6949    3139.3224    1959.1613    704.28561   -402.81122   -758.84791   -646.19229   -4525.5764 
26807000    118.23646   -5020.6884   -4792.6594   -5020.6884            0    1471.9201    19.938036    19.989217    20.846589    8308.3193    1958.2627    1045.8304    1411.6673   -30.337312    170.29281    712.88044   -4614.3094 
26808000    123.64655   -5017.0884   -4778.6256   -5017.0884            0    1673.9211    20.025688    20.054659    20.742491    8330.3574    1139.8838    975.69463    2906.1849   -107.96135    1028.8535     1056.753   -4575.2614 
26809000    114.35784   -5001.7173   -4781.1686   -5001.7173            0    1912.6784    20.045583    20.004195    20.814905    8346.6885    2120.6931    1534.0801    2083.2621    257.95458   -225.25064   -434.41448   -4548.3423 
26810000    123.46848   -5016.3291   -4778.2098   -5016.3291            0     1541.858    19.979846    19.965133    20.836584    8311.7194    756.23935    1877.3884    1991.9461   -261.22403    260.25087    324.97628    -4591.309 
26811000    117.31767   -4997.5838   -4771.3268   -4997.5838            0     2871.212    19.932312    19.890487    20.895651    8284.3609    4250.0048    3031.4894    1332.1419   -154.71015    468.75913   -66.960396   -4424.4301 
26812000    131.01588   -5011.1257   -4758.4505   -5011.1257            0    3271.6187    19.995093    19.985754    20.832207    8324.9042    3580.4961    3668.6103    2565.7497    77.606322   -138.26496    761.94135   -4361.2427 
26813000     118.8367   -4992.9276    -4763.741   -4992.9276            0     3688.278    19.930074    20.130248    20.634226    8278.3966    4930.5708    2140.6501     3993.613   -42.314164   -425.85004    422.84059   -4318.4481 
26814000    120.99109   -5007.9155    -4774.574   -5007.9155            0    2965.1983    20.057583    19.853305    20.772047    8271.6225    1946.7161    3329.0489    3619.8298   -13.491473   -21.443351   -263.51771   -4416.8729 
26815000    121.79314   -5021.9987   -4787.1103   -5021.9987            0    1712.8765    19.985807    20.039403    20.776479    8321.0554    1534.5232    1915.4156    1688.6906   -181.59493    -677.6214    911.78863   -4579.2458 
26816000    123.09711   -4994.1976   -4756.7945   -4994.1976            0    2116.6844    20.039677    19.884042     20.81692    8294.9139    1935.0145    3037.7734    1377.2653    48.337072   -648.62633   -213.45998   -4500.7332 
26817000    113.53502   -5004.1587   -4785.1969   -5004.1587            0    1581.8247    20.027404    19.909786    20.896977    8332.4883    1480.9564    2253.4453    1011.0724    253.84128    864.77058    831.31898   -4592.9723 
26818000    119.47402   -5007.6009   -4777.1852   -5007.6009            0    2617.9344    20.014414    19.749991    20.903095    8262.6689    2230.0782     3202.799     2420.926    -60.42138    239.09994    600.43648   -4461.7174 
26819000    111.04488   -5010.6248   -4796.4654   -5010.6248            0    4210.5766    19.862197    19.943352    20.826027    8249.5811    5005.5685    3669.9444     3956.217      734.679   -241.88452    33.664983   -4289.8839 
26820000     117.4486   -4998.1628   -4771.6533   -4998.1628            0    1078.0922    20.036956    20.020561    20.789177    8339.6011    1878.9222    29.661746    1325.6927    81.745989   -329.96279   -775.12435   -4640.5309 
26821000    122.95269   -5008.4795   -4771.3549   -5008.4795            0    2272.7833    19.821392    20.018099    20.828117    8264.3176    2351.0108    2496.7237    1970.6154    -184.9749   -592.52571    726.84661   -4497.4241 
26822000    126.42865    -4993.252   -4749.4238    -4993.252            0    1546.1939    19.999079    19.939207    20.942047    8350.9712    1793.1311    1630.0885    1215.3621   -298.06486    843.25631    719.03898   -4561.1123 
26823000    117.43015   -5024.2186   -4797.7447   -5024.2186            0     2433.707    19.991265    19.940814    20.821739    8300.4216    2509.3603     2541.278    2250.4826   -289.55854    431.55516   -6.6980985   -4503.1369 
26824000    112.59972    -5008.224   -4791.0659    -5008.224            0    1493.4508    20.161144    19.869857    20.738187    8307.6981     119.2707    3213.3351    1147.7468    173.39124    1.2094456   -154.31823   -4610.1206 
26825000     119.2304   -5013.5923   -4783.6465   -5013.5923            0    2269.9583    19.877107    20.113845    20.761203    8300.4334    3707.5611     1607.316    1494.9978   -684.95657    433.96584   -320.08078   -4508.8605 
26826000    123.56508   -5019.5863   -4781.2806   -5019.5863            0    1795.4205    19.888839    19.977618    20.938762    8319.6323    1742.8751    1636.5798    2006.8067   -163.83513   -450.97986   -832.35555   -4563.4363 
26827000    115.80918   -5019.9417   -4796.5939   -5019.9417            0    1969.0016    20.060614    19.912597    20.685783    8263.1207    1319.8496    2846.9028    1740.2523   -202.21399   -27.508873   -311.87517   -4559.3112 
26828000    121.70023   -4996.7868   -4762.0777   -4996.7868            0    1009.8967    20.072884     20.06403    20.698721    8336.2637    286.71828    867.98477    1874.9869   -423.19123    112.16151   -547.15166   -4639.2987 
26829000     115.2634   -5007.2359   -4784.9407   -5007.2359            0     2380.377    19.938655    20.042747    20.723465    8281.6233    3380.4044    1101.3697     2659.357   -334.15117    1272.7778    827.62447   -4497.4412 
26830000    125.03558   -5008.5746    -4767.433   -5008.5746            0    1422.2725     20.04808    19.968321    20.879054    8358.4387      212.169     3337.962    716.68649   -60.732634     652.8848   -193.56526    -4594.059 
26831000    127.25962   -5018.3338   -4772.9029   -5018.3338            0    1805.5423    20.010795     19.90609    20.776039    8275.8586    2012.4148    1600.9489    1803.2633    615.51328    823.49403   -616.98915   -4554.9831 
26832000    118.20435   -5019.9743   -4792.0073   -5019.9743            0    1975.7065     19.90693    20.087388    20.738617    8292.9217    3635.4385    222.01017    2069.6707   -733.16044     1231.803   -253.27157   -4553.0579 
26833000    116.91994   -4999.5042   -4774.0142   -4999.5042            0    2491.7422    19.883665    20.027642    20.739218     8258.832     2683.998    2107.9841    2683.2444   -26.250796    352.11104    694.43142   -4473.8924 
26834000    125.49056     -5001.31   -4759.2909     -5001.31            0    1996.0799    19.915434    20.088061    20.748447    8300.6745     2798.267    1943.6702    1246.3024    436.48283    585.55457   -82.011626   -4517.6518 
26835000    116.54793      -5010.2   -4785.4275      -5010.2            0    1896.1509    19.862136    19.976184    20.866205    8279.0776    2307.8894    1835.2604    1545.3029   -502.59042    788.46135   -538.62261   -4556.4827 
26836000    119.43698   -5012.3245   -4781.9803   -5012.3245            0    1106.8953    20.101779    19.982594    20.743361    8332.3111    760.63616    852.77162    1707.2781   -5.1957885    344.02246    310.74316   -4647.4723 
26837000    120.15908   -5015.2955   -4783.5586   -5015.2955            0    1906.9936    19.837776    20.099244    21.011426    8377.7658    2753.3054    1218.5314    1749.1439   -299.23334   -627.76132   -315.05031     -4550.56 
26838000    123.49934   -5014.2956   -4776.1168   -5014.2956            0    1996.2849    19.990816    19.995933    20.760325    8298.6288    1401.2545     2534.437    2053.1631    206.25494    -79.65042    1488.8355   -4534.5124 
26839000    114.66779   -5024.6873   -4803.5408   -5024.6873            0    2041.0198    19.925994    19.939266    20.909363    8307.4924    2577.5093    1925.8815    1619.6686   -71.285336    803.13408   -163.81386   -4556.2585 
26840000    120.46367   -5012.9459   -4780.6215   -5012.9459            0    1344.8984    20.060776    19.939174    20.800784    8320.2159    1142.6937    887.98626    2004.0152   -388.36148   -910.80044   -287.19183   -4617.4291 
26841000    125.67959   -5029.1289   -4786.7452   -5029.1289            0    1211.1015    20.025749    19.880707    20.862512    8305.9095    946.17491    1500.5507    1186.5788   -235.59708     631.6117    850.08189   -4640.0406 
26842000    121.39617   -5018.4934   -4784.3707   -5018.4934            0    1232.7633    20.117025    19.927461    20.789015    8333.9262    677.15514    938.24521    2082.8896   -195.89656   -304.30468     573.8394   -4634.5385 
26843000    128.44514   -5015.4241   -4767.7069   -5015.4241            0    1067.6632    20.059701    19.967879     20.74696    8310.1885    1226.0001    134.56073    1842.4286   -203.29624    925.74833    32.428549   -4638.3108 
26844000    119.36938   -5005.7559    -4775.542   -5005.7559            0    2118.6376    19.953806    19.973251    20.661878    8234.6337     2495.011    1418.3442    2442.5577   -407.17198    831.36634    588.34686    -4521.107 
26845000    110.13321   -5006.6537   -4794.2525   -5006.6537            0    2458.1111    19.858563    19.967693    20.895083    8285.5206    2574.3147    2956.3252    1843.6935   -329.42627    172.75126    544.65892   -4497.2247 
26846000    122.23515   -5008.6837   -4772.9429   -5008.6837            0    2936.1821    19.893187    20.027808    20.828902     8298.587    2471.8613     2597.201     3739.484    44.267149   -116.10775   -1186.0006   -4417.5874 
26847000    118.40336   -5007.7044   -4779.3535   -5007.7044            0    2330.8149    19.993935     20.02703    20.820383    8336.8799    1958.7202    2569.9249    2463.7998    450.07327    -352.2339    748.23091   -4495.9617 
26848000     123.2168   -5019.6045   -4781.9705   -5019.6045            0    3293.9234    19.996317    19.925042    20.751248    8267.8669    3704.9505    3272.7624    2904.0574    277.97134    260.18841    545.74649   -4384.7947 
26849000    115.22424   -5004.3174   -4782.0978   -5004.3174            0    2362.7444    19.950995    20.064824    20.743724    8303.9864    3244.1849    371.76369    3472.2847   -152.96001    103.76917   -1574.8709   -4495.9573 
26850000    118.24106   -5005.9338    -4777.896   -5005.9338            0    2659.8753     19.98314    19.974726    20.693026    8259.7813    2445.7608    2666.2792    2867.5858   -151.67431    877.50514    407.87749   -4457.4863 
26851000    114.80628   -5021.0226   -4799.6091   -5021.0226            0    1608.4472    20.017397    19.921701    20.792011    8291.4505    2283.8365    1182.6929    1358.8122   -59.902552    252.31098   -596.11108   -4605.1119 
26852000    116.85444   -5002.0676   -4776.7039   -5002.0676            0    2300.3002    20.037364     19.96702    20.809249    8325.4985      1686.68    2336.8186    2877.4021    34.863922    -705.5273    722.94492   -4497.4041 
26853000      121.092    -5002.444   -4768.9078    -5002.444            0    1125.3362    20.024074    19.939265    20.945634    8362.8647    869.16399    1820.0859    686.75864    117.99639    625.65106     1257.496   -4631.6576 
26854000    120.56022   -5001.5275    -4769.017   -5001.5275            0    2391.9156    20.024386     20.02838    20.672217    8290.7171     2850.559    1198.4686    3126.7192   -504.54073   -836.66296    219.57959   -4479.8066 
26855000    122.72526   -4992.7816   -4756.0956   -4992.7816            0    1572.4116    20.088372    20.000836    20.851435    8377.7777    947.56394    1556.5965    2213.0742    277.44871    97.986891   -20.572982   -4563.9763 
26856000    116.87552   -5016.5135   -4791.1092   -5016.5135            0    901.20606     20.15764    19.999263    20.802052    8386.0965   -840.51404    1902.5198    1641.6124   -257.80731   -199.80968    313.08163   -4680.8894 
26857000    119.81049   -5007.1175   -4776.0529   -5007.1175            0    2039.9325    20.186214    19.873456    20.774848    8334.2425    1415.7935    2390.4433    2313.5606   -110.84124   -728.42495    687.80222   -4528.1065 
26858000    121.21453   -5003.9779   -4770.2055   -5003.9779            0    1481.0885    20.152295     20.09677    20.615706    8349.2791    1773.3696    700.81055    1969.0853   -397.96298   -216.00086    331.55497   -4589.8597 
26859000    115.81248   -5006.8558   -4783.5017   -5006.8558            0    915.28292    20.091818    20.001433    20.838029    8374.0778    578.25481    1035.0039    1132.5901   -9.3644798   -1219.7012   -493.26098   -4671.7206 
26860000    124.72509   -5005.8726   -4765.3298   -5005.8726            0    1495.3521    20.064935    20.051122    20.849584    8388.2971    1430.6383    1396.9497    1658.4684   -108.79635    601.24495    344.43277   -4582.3963 
26861000       123.42   -5001.3028   -4763.2769   -5001.3028            0    1306.7946    20.040927    20.038583    20.753619    8334.4823    2725.8449   -50.900704    1245.4396   -106.78087   -119.26572    1065.2469   -4604.4362 
26862000    120.30898   -5001.4471   -4769.4211   -5001.4471            0    2601.0812     19.86191    20.061669    20.728859    8259.6845    4078.0371    1531.8763    2193.3303   -160.29505   -261.87455   -269.74747   -4456.0974 
26863000    118.47865   -5022.0847   -4793.5887   -5022.0847            0    1073.9811    20.090212    19.913515    20.916239    8367.8916    192.19062    2068.4098    961.34296   -354.59843     58.48439   -1133.0794   -4662.5231 
26864000    115.97019   -4994.2982   -4770.6399   -4994.2982            0    2425.9818    19.942784    19.866866     20.89136    8277.1695    2908.2036    2101.9547     2267.787   -437.80193    -1213.918   -529.08049   -4477.7899 
26865000    121.90291   -5015.5169   -4780.4169   -5015.5169            0    1008.6575    20.071452    19.933001    20.984195    8395.4461    1457.8228    1502.7789    65.370736   -407.38811   -310.49239   -456.57013    -4656.918 
26866000    117.85566   -5020.3692   -4793.0747   -5020.3692            0     2206.078    20.109789    19.899383    20.816712    8330.2735    370.05837    3657.5037    2590.6719   -274.08701   -39.452416    588.22038   -4525.0616 
26867000    116.44958   -5013.9152   -4789.3324   -5013.9152            0    3118.0387    19.784169    20.154399    20.889859    8329.5813    4552.9309    1619.5933    3181.5919   -76.825594    145.47614   -216.14761    -4410.558 
26868000    114.93373   -5012.0546   -4790.3953   -5012.0546            0    1279.2458    20.064196     19.91492    20.937016    8365.9474    772.43447    1948.4332    1116.8698   -301.70455   -328.95172    1011.9963   -4634.3161 
26869000    120.15215   -5020.2844   -4788.5609   -5020.2844            0    2603.2874     19.85113    19.792056    21.184496    8323.2754    3541.4514    3569.6687    698.74209    288.68067    1345.0279    831.54487   -4472.5571 
26870000    123.84922   -5015.4986   -4776.6449   -5015.4986            0    2173.5445    20.047502    19.899443    20.850147     8317.835    2209.2591    1909.2922    2402.0822   -658.14352    184.42275   -304.39278   -4512.9786 
26871000    114.79619   -5013.6867   -4792.2926   -5013.6867            0     1435.128     20.00397    19.956756    20.847505    8322.6233    1662.4531    1328.1748    1314.7561    98.768705    677.89646    380.63982   -4618.1012 
26872000    125.01918   -5006.9239   -4765.8139   -5006.9239            0    1980.0588    19.996618    20.035624    20.661184    8277.7941    1890.2371    1801.9726    2247.9665    253.33022   -1000.4692     372.8877    -4526.775 
26873000    118.73431   -5005.0705   -4776.0814   -5005.0705            0    3398.0797    20.006265    19.963202    20.692361    8264.3035    3757.5063    2757.1642    3679.5685   -35.997422    314.15839   -351.19443   -4366.5231 
26874000    120.61674   -5007.2419   -4774.6224   -5007.2419            0     2044.281    20.123635    20.054724    20.553948    8295.0379    450.32754    3022.2621    2660.2534    66.283226    34.525208    45.978976   -4527.3163 
26875000    123.63481   -5004.4728   -4766.0327   -5004.4728            0    2494.3756    20.015552    19.959486    20.764797    8295.5391     2591.444    2224.9413    2666.7416   -254.52702    58.025547   -514.53905   -4464.2583 
26876000    113.49478   -5014.8537   -4795.9695   -5014.8537            0    1187.5887    19.967642    19.941255    21.010733    8366.0504    620.32763    1818.3616    1124.0769   -144.99445    980.92488   -433.22113   -4651.0715 
26877000    126.68376   -5024.2532   -4779.9329   -5024.2532            0     2054.009    19.942175    19.937562     20.82063    8278.2481    1882.1917    2668.1814     1611.654    9.1869117   -942.60805    227.65747   -4531.9529 
26878000    118.98756   -5015.3511   -4785.8736   -5015.3511            0    2110.6929    20.030931    19.978844    20.722819    8293.1653    1928.0299    1775.1384    2628.9103   -191.40036    248.62679    200.88643   -4530.5909 
26879000    126.29236   -5000.8238   -4757.2583   -5000.8238            0    2165.0297     19.91609    19.968017    20.854536    8293.5327     2641.389    2502.9278    1350.7722    581.03106    829.34911   -4.2442631   -4495.3922 
26880000    115.39545   -5021.6806   -4799.1308   -5021.6806            0    2202.6325    20.104693    19.968239    20.759704    8334.0934    504.72228    3227.8027    2875.3726   -267.50869    508.08815    339.45978   -4531.4136 
26881000    116.42244   -5020.1319   -4795.6015   -5020.1319            0    1861.8806    19.931568    20.005443    20.836095    8308.1817    3174.9933    892.95868    1517.6898   -136.68777    501.61156     59.16679   -4570.0043 
26882000    121.07757   -4993.2408   -4759.7325   -4993.2408            0    2050.6484    19.989912    19.968935    20.844788     8320.765    3003.6821    1316.4585    1831.8046    305.75469   -220.15481   -432.58064   -4510.8867 
26883000    121.30963   -5000.7879   -4766.8321   -5000.7879            0    2026.8136     19.92937    19.916065     20.96912    8322.9507    3023.1716    1311.0359    1746.2334    48.382272    590.97668    81.872677    -4520.814 
26884000     114.7059   -5009.3207   -4788.1007   -5009.3207            0    2049.3085    19.963197    20.039469    20.729593    8292.9123    2317.9412    2267.6651    1562.3191   -259.61797     1502.907   -644.05525     -4540.25 
26885000    123.29584   -5020.3729   -4782.5866   -5020.3729            0    3347.0957    19.967414    20.002641    20.661834    8252.3571    3218.9445     3338.596    3483.7465    -389.1163    123.19295    -7.126785   -4379.7563 
26886000    123.84833   -5016.1198   -4777.2679   -5016.1198            0    1589.3886    19.973234    20.075437    20.724937    8310.1069    1293.5931    1084.2974    2390.2754   -453.34136   -51.057799    18.780712   -4584.6429 
26887000    119.72135   -5014.9016    -4784.009   -5014.9016            0    2370.4803    20.074432    19.838758    20.795056    8281.6686    1995.1923    2743.1826    2373.0661   -577.07943    54.883418    527.60659   -4497.7032 
26888000    117.12721    -5009.948   -4784.0584    -5009.948            0    2659.0751    20.038322    19.847465    20.797309    8271.2955    2902.9161    2619.0017    2455.3074     159.3235    412.19698   -261.67244   -4463.2985 
26889000    115.55069   -5022.5655   -4799.7163   -5022.5655            0    2499.6485    20.077211    19.838219    20.808082    8287.7785    3005.7689    2088.7399    2404.4367   -78.226061    501.02089    66.304466   -4497.5869 
26890000    124.38905   -5010.8593   -4770.9645   -5010.8593            0    2980.1637    19.995708    19.921604    20.741722     8262.394    2438.9327    2799.2405    3702.3179   -342.59743   -846.62145    571.75976   -4411.8591 
26891000    118.91069   -5012.4075   -4783.0782   -5012.4075            0    2064.3908    20.101278    19.865314    20.809978    8309.8032    129.49982    3867.5481    2196.1246    267.34477    929.83705   -548.13643   -4532.8948 
26892000    116.48987   -5004.6308   -4779.9702   -5004.6308            0    1891.3124    19.878289    19.978509    20.968185    8327.2755    2198.7997    1220.6601    2254.4774    471.28203   -336.38968   -19.505612   -4550.2802 
26893000    121.60536   -5018.0582    -4783.532   -5018.0582            0    2520.0291    19.951825    20.050105     20.67217    8269.6161    3487.3378    2257.3117    1815.4379    19.149041    1003.1233    750.19895   -4479.6068 
26894000    119.53367   -5009.1988   -4778.6681   -5009.1988            0    2344.7933    19.961698    20.080515    20.771642    8326.1299    3081.1839    1820.2433    2132.9529   -298.84882   -555.23208     3.496669   -4493.9444 
26895000    116.92842   -5006.4918   -4780.9855   -5006.4918            0    546.87685    19.964242    20.097244    20.853101    8366.8112    1913.2875   -195.56814   -77.088833   -494.89693   -1038.4678    1075.9073   -4714.2548 
26896000    116.75606   -5013.7238   -4788.5499   -5013.7238            0    2291.8567    19.992367    19.851818    20.888676    8290.3987      1740.77    3662.1995    1472.6005   -191.92121   -111.01547   -728.42667   -4511.4485 
26897000    121.45371   -5028.7972   -4794.5635   -5028.7972            0    1490.1948    19.937478      20.1162    20.764649    8328.0007    2285.7402    450.72941    1734.1148   -155.50254     39.55445     341.2002   -4613.5713 
26898000    115.53315   -5008.8954     -4786.08   -5008.8954            0    2106.7103    20.100798    19.948173    20.707801    8303.2938    1066.0986    3274.4746    1979.5576   -290.29297    410.86039    583.29869   -4530.9678 
26899000    121.53199   -5000.3457    -4765.961   -5000.3457            0    2731.9686     19.98159    20.056803     20.66961    8283.6937     2014.049    3138.6102    3043.2465    -553.1113    -394.4598    218.51895   -4435.9141 
26900000    118.62427   -5015.7051   -4786.9282   -5015.7051            0    866.44182     20.02115    20.085862    20.739278    8340.1364    1906.4861   -62.606871     755.4462   -219.55393   -672.09747    1368.1144   -4681.5408 
26901000    123.30764   -4998.0529   -4760.2438   -4998.0529            0    1356.5329    20.094167    20.058856    20.646554    8321.9243    1092.0579    928.92995    2048.6108   -281.85146   -303.03405    449.50534   -4595.6058 
26902000     124.8151   -5013.3572   -4772.6407   -5013.3572            0    1779.5017     20.04918    19.990756    20.863963    8362.2402    1961.7561    2545.1906     831.5584   -51.868689    318.28996    268.85704   -4555.6222 
26903000    119.00151   -5013.2943   -4783.7899   -5013.2943            0    840.27987    20.004561    20.088783    20.922727    8408.1595    781.10419    1179.1882    560.54718    254.37821   -373.39429     748.2805   -4680.7511 
26904000    122.92672   -5018.0948   -4781.0203   -5018.0948            0    1764.4189    20.039244    19.970536    20.790417    8320.2093    2688.1671    699.73164     1905.358   -401.16757   -339.31186    525.54393   -4566.9227 
26905000    116.37652   -5003.9163   -4779.4744   -5003.9163            0    1868.6611    20.117993    19.854206    20.809731    8311.9641    953.73607    3235.6093     1416.638    108.21328    865.01299   -722.55466   -4552.9526 
26906000    113.28631   -5007.2773   -4788.7952   -5007.2773            0    1399.2083    19.894174    20.113595    20.864311    8348.7157    2174.3043    352.39865     1670.922    99.085211    932.04435    838.66999   -4618.4311 
26907000    118.46383   -5004.2693   -4775.8018   -5004.2693            0    1881.3163    20.077388    19.837533    20.831324    8296.8218    1353.5584    2829.0044     1461.386    -599.4228   -159.78816   -547.32085   -4548.1614 
26908000    116.68539   -5019.8834   -4794.8458   -5019.8834            0    460.03008    19.963644    20.027462    20.929288    8367.9712    861.39638     353.1524    165.54145   -394.80224   -296.42145   -671.00229   -4738.7046 
26909000    115.91068   -5010.1419   -4786.5984   -5010.1419            0     2243.856    20.144959    19.958332    20.590258    8278.5149     1942.279    2008.4164    2780.8726   -257.53218    234.66842   -995.27361   -4515.6895 
26910000    119.04184   -5004.9605   -4775.3783   -5004.9605            0    2743.5977    20.054508    19.963295    20.708308    8290.6551    1448.9185    3601.9761    3179.8986    41.509283    860.28937   -58.735443    -4443.648 
26911000    123.23888   -5023.6785    -4786.002   -5023.6785            0    2300.6204    19.985497    19.975267    20.694594    8261.6058    2198.8353    2401.7168    2301.3092   -342.46471   -90.042185    1170.4359    -4508.807 
26912000     120.5404   -5011.9361   -4779.4638   -5011.9361            0    1392.7019    19.960968    19.991005    20.979391     8371.612    1329.8259     1843.745    1004.5348   -81.202236    629.19797   -661.78784   -4609.4269 
26913000     119.8777     -5005.78   -4774.5858     -5005.78            0    2690.0983     19.86296     19.95563    20.960866    8308.4238    2377.2317    3146.8694    2546.1939    66.632729   -850.70015     579.3149    -4448.627 
26914000    124.95791   -5024.4598    -4783.468   -5024.4598            0     2924.188    19.967222    19.870463    20.825106    8262.5265    2907.5199    2982.3165    2882.7275    210.68481   -1031.6512   -649.04749    -4431.102 
26915000    125.31036   -5020.9615     -4779.29   -5020.9615            0    3636.8537    20.005502    19.823487    20.719837    8217.0483    3352.0264    3399.0673    4159.4675    288.51244    -802.6907     293.5407   -4343.4595 
26916000    122.58821   -5007.7815   -4771.3598   -5007.7815            0   -27.563883    19.953693    20.003113    20.920901    8350.2842     472.0861    77.612666   -632.39042   -227.76098   -420.95507   -1046.3247   -4774.7165 
26917000    119.09226   -5005.7753   -4776.0959   -5005.7753            0    2477.5162    19.934011     20.00911     20.72834    8267.7432    3181.8486    3181.7556    1068.9445   -41.258376   -41.778995   -433.95654   -4477.3655 
26918000    125.41136   -5004.6438   -4762.7774   -5004.6438            0    1164.6525     20.11869      20.0378    20.560826    8288.7738    689.47495    1077.7175    1726.7651   -288.50086   -478.53797   -281.09233   -4621.9904 
26919000    127.35215   -5008.2185   -4762.6092   -5008.2185            0    2619.4547     20.00973    19.990975    20.748011    8299.4948    2139.5838    2991.2717    2727.5087   -118.36709    469.21323   -403.76061   -4445.5514 
26920000    119.82423   -5007.1457   -4776.0546   -5007.1457            0    2051.6746    19.993519    19.890044    20.928233    8322.5717     1893.729    1677.4308    2583.8639    129.64527    12.214562    21.458151   -4527.0302 
26921000    124.03395   -5008.9421   -4769.7322   -5008.9421            0    2476.3828    19.891303    19.985846    20.851061     8289.225    2698.9855    2203.8118    2526.3511    -282.6726   -983.02795    70.924449   -4470.3627 
26922000    114.97091   -5006.7399   -4785.0088   -5006.7399            0    1874.0128    20.018744     19.90353    20.775742    8277.9625    860.36931    3498.7666    1262.9024    253.08366    222.44108   -460.03577   -4558.7675 
26923000       120.55   -5022.8601   -4790.3693   -5022.8601            0    2947.2393    20.000277    19.960155    20.763683    8289.0415     3617.201    3361.6795    1862.8374   -528.94731    -298.9789   -677.02263   -4434.0859 
26924000    119.21781   -5007.4792   -4777.5576   -5007.4792            0    2122.2927    19.949842    19.997142    20.821245    8306.4238    1282.9395    2686.9299    2397.0086   -189.14074   -172.24659    273.50242   -4520.4617 
26925000    113.59865    -4999.997   -4780.9125    -4999.997            0    1870.4999    20.094157    19.908805    20.725275    8291.1601    1181.4584    2577.3316    1852.7097    73.266384    823.89165   -196.57923   -4554.7352 
26926000    118.37858   -5021.0406   -4792.7376   -5021.0406            0    2326.3921    19.990827    19.964298    20.659654    8245.3261    1493.7618    2333.2102    3152.2044   -103.96875    919.82281    386.06987   -4512.9898 
26927000    116.48171   -4998.8831   -4774.2383   -4998.8831            0    2810.0391    20.044366    19.872158    20.680127     8237.408    1806.0333    3672.7581     2951.326   -274.38899    37.517549   -221.33452   -4436.6567 
26928000    117.24624   -5004.0946   -4777.9754   -5004.0946            0    1655.2137    19.974899    20.016531    20.816507    8323.0265    749.93204     2864.187    1351.5221    177.17197    276.89882   -33.573871   -4577.0609 
26929000    120.65726   -4996.2223   -4763.5246   -4996.2223            0     1805.333     19.94226    20.042507    20.854679    8335.4667    2305.7256    1252.8552    1857.4183   -335.45783    366.72888   -882.72345   -4544.0607 
26930000    120.12913   -5001.0909   -4769.4117   -5001.0909            0    1245.3531    19.959442    19.997789    20.949881    8362.0344    2112.6222   -65.530403    1688.9677    -272.1261    487.76944    899.81178   -4617.5388 
26931000    120.84842   -5017.6401   -4784.5737   -5017.6401            0    2085.5855    19.955552    19.926716    20.828307    8282.3476    2133.6426    1566.2415    2556.8724    96.233068     874.7814    645.98581   -4532.6568 
26932000    115.97988   -5008.0744   -4784.3975   -5008.0744            0    1828.8383     20.10358    19.874102     20.88962     8346.251    52.909442    3077.1814     2356.424     10.31784    348.15159    99.727078   -4561.7885 
26933000    118.77373   -5019.9072    -4790.842   -5019.9072            0    2559.3046    19.964034    19.873108    20.841416    8268.7779    3153.2562    2166.5856    2358.0719    -137.1847   -281.67592   -1399.1163   -4482.2113 
26934000    113.85586   -5010.0038   -4790.4232   -5010.0038            0    2748.4387    19.987242    19.962883    20.748616    8278.7594    2734.0165    3019.1067    2492.1928   -371.58572   -581.14122   -448.17058   -4458.5844 
26935000      119.887   -5000.2291   -4769.0169   -5000.2291            0    1908.5869    20.092622    19.871659    20.795244    8302.9947    984.05314    2834.0216     1907.686    371.39108   -1305.2123   -375.77593   -4537.9049 
26936000    121.33412   -4999.9825   -4765.9794   -4999.9825            0    2856.8873    19.829237    19.994896    20.940883    8302.7153    3450.4362     3268.722    1851.5037    119.96247    744.87444    8.1580847   -4420.0487 
26937000     116.8704   -5011.7218   -4786.3274   -5011.7218            0    2081.9771    19.942549     19.88664    20.917921    8295.8443    1875.8151    2666.7856    1703.3308   -57.327508   -502.23637    13.161559   -4534.4366 
26938000    121.44612   -5005.9467   -4771.7276   -5005.9467            0    2182.1614    19.963639    20.057522    20.704565    8290.5457    3330.2434    492.12853    2724.1123   -551.14261    791.74852   -770.88658   -4507.8844 
26939000    118.83489   -5025.0197   -4795.8366   -5025.0197            0    1924.7099     20.02193    20.012217     20.78831    8329.5266    2070.1906    775.68673    2928.2522    25.373891    673.24316   -33.302929   -4562.0274 
26940000    126.46628   -5008.3518   -4764.4509   -5008.3518            0    1905.3705    19.898447    20.118593    20.772762    8315.9343    2741.6548    1448.7942    1525.6624    203.46125    177.24562    65.724833   -4533.3688 
26941000     118.3848   -5001.5814   -4773.2663   -5001.5814            0    1751.7866     19.99949    19.993663    20.799683    8317.0245    1740.6967    1758.9477    1755.7155   -402.53628   -467.45813   -450.62948   -4560.7829 
26942000    124.03547   -5010.6397   -4771.4268   -5010.6397            0    2218.5431    19.985021    19.899953    20.749223    8251.9862    1972.2572    2826.4932     1856.879    245.07611    182.06794   -331.13295   -4504.4324 
26943000    121.56346    -5013.049   -4778.6037    -5013.049            0    2246.9121    20.005366    19.945329    20.738238    8274.8395    2705.1576     2078.903    1956.6756   -296.92489     266.3225    1019.0741   -4507.4462 
26944000    126.15503    -5011.055   -4767.7544    -5011.055            0    2062.5295    20.039551    19.971847    20.690963    8281.0787    2205.8725    1700.8426    2280.8733    113.45337   -216.06164    783.24647   -4518.6606 
26945000    119.30984   -5005.4228   -4775.3237   -5005.4228            0    1064.3204    19.991628    19.927986    20.881932    8319.2132   -350.02444    2519.9108    1023.0747   -443.58922   -636.93252    396.63082   -4646.1927 
26946000    122.98521   -5019.4879   -4782.3005   -5019.4879            0     2698.232    19.884441    19.955446    20.815276    8259.5615    3550.0855    2538.1746    2006.4358   -828.81723    766.82598   -103.29216    -4457.279 
26947000    122.99597    -5014.235   -4777.0269    -5014.235            0    2467.2346     19.94289    20.089342    20.690042    8289.2487    3541.5639    424.34381    3435.7962    216.53855    612.72863   -384.01743   -4478.7625 
26948000    121.69915   -5008.3508   -4773.6438   -5008.3508            0      2420.94    19.898043    20.055576    20.709992    8264.6687    2687.5189    2194.7945    2380.5066    62.286373    133.04867    237.95712   -4481.8437 
26949000    125.83265   -5008.8229   -4766.1441   -5008.8229            0    1467.8131    20.051537    19.986707    20.754437    8317.6354    138.72018    2608.4221    1656.2971   -92.886482    795.81703   -606.59449   -4588.0922 
26950000    114.16472   -5004.6069   -4784.4306   -5004.6069            0    2081.8145     19.99715    19.965398    20.777557    8295.4613    1596.1339    2560.6396      2088.67   -587.12163   -386.70031    3.0652068   -4532.5711 
26951000    123.71239   -5020.7144   -4782.1247   -5020.7144            0    1777.9698    19.928673    19.976218    20.978537    8351.5454    2061.1158    2080.3854    1192.4081   -3.7826761    204.60185   -416.57784   -4565.5702 
26952000    119.55092   -5010.0606   -4779.4966   -5010.0606            0    1728.8205    19.953266    19.915077    20.950271    8325.0267    2727.2814    1094.1746    1365.0054    -397.1802   -161.23217   -307.76054   -4569.5971 
26953000    116.01055   -5015.6678   -4791.9317   -5015.6678            0     3440.506    19.909102    19.881762     20.86288    8258.1125      5455.86    2724.7817    2140.8763    -313.1836    65.093467    194.11184   -4377.5706 
26954000    115.46377   -5016.9239   -4794.2423   -5016.9239            0    1471.5849    20.136925    19.910394    20.782551    8332.4336    70.059132    2274.8201    2069.8754    -454.9852    171.71167   -308.59065   -4615.4153 
26955000    114.35987    -5016.584   -4796.0313    -5016.584            0    1993.2439    20.131894    19.812103    20.809285    8299.8905    1589.9436    2651.7023     1738.086    679.25624     310.3553   -1129.0272   -4554.7584 
26956000    114.46484   -5009.8082   -4789.0532   -5009.8082            0    3558.1378    19.830928    19.854367    20.826811    8200.1512    4662.6483    2787.4377    3224.3273   -396.61607    962.12736    651.13667   -4363.5326 
26957000    116.29403   -5005.7507   -4781.4679   -5005.7507            0    1397.1593     19.96942    20.056587    20.855682    8353.0845    3014.8792    365.03032    811.56824    -67.52543   -252.02799    941.40609   -4611.2643 
26958000    118.98951   -5005.0056   -4775.5243   -5005.0056            0    1549.6876     20.08886    20.028644    20.721751    8337.4511    710.14654    1369.3772     2569.539   -3.3868641    489.89408    217.74618   -4587.0929 
26959000    117.64639   -5007.0967   -4780.2058   -5007.0967            0    1966.2809    20.099079    19.845989    20.830494    8308.9945    1384.1763    2979.4106    1535.2557   -171.76418   -127.64247     322.2779   -4541.9355 
26960000    124.83502   -5006.6606   -4765.9058   -5006.6606            0     1569.769    20.012368    19.981696    20.851619    8338.1672    2015.1828    1624.7471    1069.3772   -100.74242   -268.07037    37.590718   -4575.0162 
26961000    119.83687      -5006.8   -4775.6846      -5006.8            0    1363.0774    19.910894    20.088929     20.87588    8350.1126    1145.8444    1565.5373    1377.8505   -150.79276    499.34746   -282.31298    -4609.692 
26962000    119.08671   -5008.3461   -4778.6773   -5008.3461            0    2005.9575    19.988477    19.951279    20.963217    8360.0407    1863.5889    1898.2132    2256.0704     292.5513    205.45706   -873.46509   -4534.1058 
26963000    128.48008   -5013.9328   -4766.1482   -5013.9328            0    1469.2602    20.103302    19.844641    20.878173    8329.1971    -54.74055    2704.6561     1757.865    778.21405    1353.0343   -243.01573   -4587.6731 
26964000    125.45857   -5017.0828   -4775.1254   -5017.0828            0    2201.6176    20.083153    19.939566     20.78631    8323.8645    880.60793    3632.5419     2091.703   -380.34225    20.627968   -518.77206     -4507.86 
26965000    120.48831   -5031.6911   -4799.3193   -5031.6911            0    3128.4762    20.025037    20.008407    20.691964    8290.6306    2805.2564     3425.989    3154.1833   -236.45573    -1040.768   -65.373859   -4421.0541 
26966000    118.40414   -5012.0718   -4783.7195   -5012.0718            0    3358.7352    20.053449    19.900875    20.699643     8260.838    2967.2724    3316.2509    3792.6823   -14.422031   -364.90222    1120.8753    -4379.073 
26967000    115.82008   -5016.5925   -4793.2237   -5016.5925            0    2494.7907    20.080953    19.835883    20.816488     8291.695    2367.6606    3110.5013    2006.2102    491.46622    59.972135   -837.77661    -4491.539 
26968000    122.81331   -5007.7463   -4770.8905   -5007.7463            0    2521.4058    19.935469     19.91484    20.913556    8302.9263    3454.4718    2342.4404     1767.305   -429.93428    122.20331    251.37311   -4465.5744 
26969000    121.19792   -5008.0141   -4774.2737   -5008.0141            0    2178.7899     20.03284    19.888617    20.829545    8299.0216    2585.0009    2308.1907    1643.1779   -154.29971     941.6915    887.76008   -4510.5689 
26970000    114.50504   -5012.8697   -4792.0371   -5012.8697            0     2223.984    20.081384    19.884908    20.688502    8261.2594    1212.7144    3438.9696    2020.2681    35.840492    71.268075   -807.33599   -4524.0871 
26971000     119.8809   -5013.0858   -4781.8854   -5013.0858            0    1876.7719      20.0843    19.919875     20.76177    8306.3015    2243.0805    1027.6713    2359.5639   -8.8988881   -476.26701    28.069303   -4554.5353 
26972000    116.03767   -5014.1122   -4790.3238   -5014.1122            0    1977.8176    20.171794     20.00797    20.646918    8333.0269    1295.1756    2088.7248    2549.5525    21.580761    1143.6339    334.22865   -4549.9623 
26973000    115.34594   -5009.4674    -4787.013   -5009.4674            0    1790.0224    19.982975    19.940136    20.835111    8302.0259    1926.8467     1948.447    1494.7736   -167.57999    507.16077    36.287033   -4570.2833 
26974000    117.67345   -5005.9306   -4778.9874   -5005.9306            0    2917.8637    20.022479    19.896524     20.79092    8282.6394    2387.5753    3631.8939    2734.1219    201.16394    906.91102   -682.70613   -4426.5276 
26975000     116.6385   -5013.8049   -4788.8578   -5013.8049            0     2131.245    19.990469     20.00191     20.72904     8288.456    2113.8109    1372.2055    2907.7187   -252.98429    567.41923    106.19674   -4531.2358 
26976000    119.90163   -5011.2153   -4779.9749   -5011.2153            0     1306.159    20.138067    19.976986    20.703027    8328.7835     363.7086    1581.6651    1973.1035   -518.18446    -356.3814   -443.36044     -4621.32 
26977000    124.90974   -4990.9587   -4750.0598   -4990.9587            0     2763.354    19.913269    19.918776     20.90777     8293.024    2562.1524     2982.513    2745.3967     321.3442   -549.49607     407.9542   -4415.8453 
26978000    120.77793   -4998.8903   -4765.9599   -4998.8903            0    2580.4368    19.935923    19.935368    20.881052    8298.7558    1859.2244    3398.8708    2483.2152   -266.26287    591.06769    518.69844   -4453.6527 
26979000    126.37338   -5014.8235   -4771.1018   -5014.8235            0    2919.8883    19.962456    19.890781    20.865243     8284.938     2419.183    2987.8442    3352.6378    48.736139    422.89148   -1010.6182   -4418.2995 
26980000    118.35992   -4990.9273   -4762.6602   -4990.9273            0     2693.223    20.035617    19.945369    20.688939    8267.6677    1871.3377     3218.202    2990.1293   -77.034711    1164.1099    971.67384   -4437.9236 
26981000    123.64472   -5006.4073   -4767.9481   -5006.4073            0    1738.0272    20.110798    19.968065    20.660388    8296.6688    563.40616    1755.7078    2894.9675    684.47556   -85.896275    273.91258   -4557.6496 
26982000    119.94524   -5005.4543   -4774.1298   -5005.4543            0    2477.1593    20.107346    19.847287     20.77646    8291.3924    1454.4638    3644.7597    2332.2544    146.99269    367.57514    353.44419   -4474.5881 
26983000    119.83054   -5018.2423   -4787.1391   -5018.2423            0    1727.6227    20.065874    19.963751    20.817212    8339.1693    1920.3774    1066.8564    2195.6341    -150.1896    643.54115    69.709633   -4577.0286 
26984000    129.83372   -5018.5069   -4768.1116   -5018.5069            0    1788.2685     20.11143    19.853434    20.806522    8307.6479    652.42941    2780.1557    1932.2203    486.88527    117.20769   -79.924912   -4551.4477 
26985000    113.67992    -5008.712   -4789.4707    -5008.712            0     2701.891    20.047997    19.705457    21.033436     8309.363    474.95724    5959.3426    1671.3733   -326.65873   -65.467109   -794.11836    -4462.046 
26986000    124.89589   -5029.1473    -4788.275   -5029.1473            0    1683.6835    19.976313    19.926977    20.949058    8339.1398    1422.2861    2291.1901    1337.5744    331.28632    406.63452   -379.15154   -4583.5092 
26987000    121.29782   -5014.3004   -4780.3673   -5014.3004            0    1442.2512    20.075501    19.864034    20.887701    8329.6063    1910.5889    2064.6026    351.56209    23.270343    13.414096    832.52836   -4605.1644 
26988000    120.18301   -5004.2704   -4772.4873   -5004.2704            0    1394.7713     20.13191    19.821556    20.832303    8313.0425    508.49434    2769.1921    906.62758     167.8581    215.56951   -264.64637   -4603.3891 
26989000    117.12744   -5005.7852   -4779.8951   -5005.7852            0    671.43903    19.966846    20.098514    20.827284    8358.0712    384.20692     791.8519    838.25825    92.651058    182.28501   -259.33883   -4698.0508 
26990000    126.32204   -5017.1778   -4773.5552   -5017.1778            0    2114.5694     20.11705    19.876318     20.79388    8314.4929    1160.4744    3450.4878    1732.7459    33.276318    166.39076    367.56159    -4517.146 
26991000    122.93066   -5026.1182    -4789.036   -5026.1182            0    1057.5441    19.866809    19.898182    21.021013    8309.8881      2366.85    461.87781    343.90447   -222.48577   -892.91489    155.51371    -4660.871 
26992000    116.99031   -5006.9488   -4781.3231   -5006.9488            0    2642.2112    19.982567    19.859131    20.839568    8269.8995     2020.459    3760.6823    2145.4924   -541.55706    610.33745    202.13637   -4462.6513 
26993000    122.80953   -5006.0596   -4769.2111   -5006.0596            0    2206.6506    19.983997    19.956552    20.804597    8297.1167    1625.6996    3596.1037    1398.1486   -309.57426   -445.27031    238.63013   -4502.1955 
26994000    120.63083   -5004.0972   -4771.4505   -5004.0972            0    1077.9611    20.131524    19.910013    20.806498    8339.6374    460.08295    2545.6032    228.19726    199.18026   -230.90963   -1307.8632   -4640.3434 
26995000    130.23794   -5012.9028    -4761.728   -5012.9028            0    1672.1721    19.980214    20.040343    20.733981    8302.1002    1916.6151    1533.0238    1566.8773   -241.55506    318.32899    314.61575   -4559.2654 
26996000    117.88442   -4995.6712   -4768.3212   -4995.6712            0    2546.5343    19.781298    20.145111    20.751343    8269.3362    4105.1564    137.02155     3397.425    241.86547     262.1839   -52.802698   -4461.2097 
26997000    117.64829   -5006.8827   -4779.9881   -5006.8827            0    1795.2493    19.996399    20.017683    20.775309    8315.9736    2512.5821    819.62517    2053.5407    -55.69282    87.969949   -82.520651   -4562.2604 
26998000    116.42215   -4994.7329    -4770.203   -4994.7329            0    1257.4422    20.213138    19.954645     20.63326    8322.3425    801.27149     1389.125      1581.93    9.3740336    84.135307    45.489586   -4617.5837 
26999000    119.34619   -5021.1977   -4791.0285   -5021.1977            0    2150.1675    19.991068    19.941234    20.772939    8281.0608    2094.8852    2593.6797    1761.9376    103.98125    344.35703    226.46703   -4531.3511 
27000000     126.7011   -5000.4202   -4756.0664   -5000.4202            0    2321.8115    19.915477    19.798826    21.056905    8302.8017    3122.9887    2759.2104    1083.2354   -326.05146     705.8889   -517.02293   -4474.9233 
Loop time of 430.345 on 64 procs for 250000 steps with 972 atoms

Performance: 100.385 ns/day, 0.239 hours/ns, 580.930 timesteps/s
190.2% CPU use with 32 MPI tasks x 2 OpenMP threads

MPI task timing breakdown:
Section |  min time  |  avg time  |  max time  |%varavg| %total
---------------------------------------------------------------
Pair    | 29.69      | 35.438     | 42.75      |  62.6 |  8.23
Bond    | 1.0476     | 1.2501     | 1.6842     |  11.3 |  0.29
Kspace  | 191.24     | 200.18     | 207.28     |  28.4 | 46.52
Neigh   | 0.85789    | 0.90772    | 0.95533    |   3.1 |  0.21
Comm    | 75.432     | 81.242     | 84.34      |  23.8 | 18.88
Output  | 0.66989    | 0.67028    | 0.67214    |   0.0 |  0.16
Modify  | 81.764     | 84.847     | 89.2       |  21.7 | 19.72
Other   |            | 25.81      |            |       |  6.00

Nlocal:        30.3750 ave          36 max          26 min
Histogram: 2 6 3 2 4 7 0 1 2 5
Nghost:        2632.41 ave        2662 max        2593 min
Histogram: 1 1 2 5 5 4 3 3 6 2
Neighs:        9488.88 ave       12472 max        7312 min
Histogram: 2 5 4 5 5 4 1 4 1 1

Total # of neighbors = 303644
Ave neighs/atom = 312.39095
Ave special neighs/atom = 2.0000000
Neighbor list builds = 2545
Dangerous builds = 0

unfix		3
unfix		2
unfix		1

write_data	data.final.${pid}
write_data	data.final.1
System init for write_data ...
PPPM initialization ...
  extracting TIP4P info from pair style
  using 12-bit tables for long-range coulomb (../kspace.cpp:340)
  G vector (1/distance) = 0.37246177
  grid = 24 24 25
  stencil order = 5
  estimated absolute RMS force accuracy = 0.0034004261
  estimated relative force accuracy = 1.0240282e-05
  using double precision FFTW3
  3d grid and FFT values/proc = 3458 576
Last active /omp style is kspace_style pppm/tip4p/omp
WARNING: Not all mixed pair coeffs generated from mixing. Use write_data with 'pair ij' option to store all pair coeffs. (../write_data.cpp:312)

write_restart   restart.lmp.${pid}
write_restart   restart.lmp.1
System init for write_restart ...
PPPM initialization ...
  extracting TIP4P info from pair style
  using 12-bit tables for long-range coulomb (../kspace.cpp:340)
  G vector (1/distance) = 0.37246177
  grid = 24 24 25
  stencil order = 5
  estimated absolute RMS force accuracy = 0.0034004261
  estimated relative force accuracy = 1.0240282e-05
  using double precision FFTW3
  3d grid and FFT values/proc = 3458 576
Last active /omp style is kspace_style pppm/tip4p/omp
Total wall time: 0:07:10
