LAMMPS (30 Jul 2021)
Processor partition = 0
  using 2 OpenMP thread(s) per MPI task
using multi-threaded neighbor list subroutines
variable        pid world 0 1
variable        phase world IceVI Liquid

shell cd ${phase}
shell cd IceVI
include Restart.lmp
echo both
log log.lammps
#include		in.partitions
include		in.temp
variable        temperature equal 284.40
variable	tempDamp equal 100.0
include		in.pressure
variable        pressure equal 11625.0
variable        pressureDamp equal 1000.0 # This is 1 ps
include		in.seed
variable        seed equal 745823

units		real
atom_style	full
read_restart	restart.lmp.${pid}
read_restart	restart.lmp.0
Reading restart file ...
  restart file = 30 Jul 2021, LAMMPS = 30 Jul 2021
  restoring atom style full from restart
  orthogonal box = (-0.090602282 -0.10300244 -0.068325433) to (24.820603 24.833003 22.878325)
  4 by 4 by 2 MPI processor grid
  restoring pair style lj/cut/tip4p/long/omp from restart
  restoring bond style harmonic/omp from restart
  restoring angle style harmonic/omp from restart
  1920 atoms
  1280 bonds
  640 angles
Finding 1-2 1-3 1-4 neighbors ...
  special bond factors lj:    0        0        0       
  special bond factors coul:  0        0        0       
     2 = max # of 1-2 neighbors
     1 = max # of 1-3 neighbors
     1 = max # of 1-4 neighbors
     2 = max # of special neighbors
  special bonds CPU = 0.002 seconds
  read_restart CPU = 0.008 seconds
include 	in.setup
variable	out_freq equal 1000
variable	out_freq2 equal 10000
variable	out_freq3 equal 1000

timestep	2.0

neigh_modify    delay 7 every 1

include		in.tip4p
# This is TIP4P/Ice

# create groups ###
group ox type 2
640 atoms in group ox
group hy type 1
1280 atoms in group hy

# set charges - beside manually ###
set group ox charge -1.1794
Setting atom values ...
  640 settings made for charge
set group hy charge 0.5897
Setting atom values ...
  1280 settings made for charge

# ### TIP3P Potential Parameters ###
pair_style lj/cut/tip4p/long/omp 2 1 1 1 0.1577 8.5
pair_coeff 1 1*2 0.000 0.000
pair_coeff 2 2 0.21084 3.1668
bond_style  harmonic
bond_coeff  1 450 0.9572
angle_style harmonic
angle_coeff 1 55 104.52
kspace_style pppm/tip4p/omp 1.0e-5
pair_modify tail yes

thermo          ${out_freq}
thermo          1000
thermo_style    custom step temp pe etotal epair emol press lx ly lz vol pxx pyy pzz pxy pxz pyz enthalpy

restart 	${out_freq3} restart.lmp.${pid} restart2.lmp.${pid}
restart 	1000 restart.lmp.${pid} restart2.lmp.${pid}
restart 	1000 restart.lmp.0 restart2.lmp.${pid}
restart 	1000 restart.lmp.0 restart2.lmp.0


include         in.dump
dump            myDump all atom ${out_freq2} dump.water.${pid}
dump            myDump all atom 10000 dump.water.${pid}
dump            myDump all atom 10000 dump.water.0
dump            myDump2 all dcd ${out_freq2} dump.dcd
dump            myDump2 all dcd 10000 dump.dcd
dump_modify     myDump append yes
dump_modify     myDump2 append yes


variable natoms 	equal  "count(all)"                        # NUMBER ATOMS
variable H      	equal  "enthalpy/v_natoms"                 # ENTHALPY-per-atom
variable Vol      	equal  "vol/v_natoms"                 # volume-per-atom
fix AVG all 		ave/time ${out_freq} 1 ${out_freq} v_Vol v_H file vol_enthalpy.dat
fix AVG all 		ave/time 1000 1 ${out_freq} v_Vol v_H file vol_enthalpy.dat
fix AVG all 		ave/time 1000 1 1000 v_Vol v_H file vol_enthalpy.dat




fix 		1 all shake 1e-6 200 0 b 1 a 1
Finding SHAKE clusters ...
       0 = # of size 2 clusters
       0 = # of size 3 clusters
       0 = # of size 4 clusters
     640 = # of frozen angles
  find clusters CPU = 0.001 seconds
fix             2 all nph aniso ${pressure} ${pressure} ${pressureDamp}
fix             2 all nph aniso 11625 ${pressure} ${pressureDamp}
fix             2 all nph aniso 11625 11625 ${pressureDamp}
fix             2 all nph aniso 11625 11625 1000
fix             3 all temp/csvr ${temperature} ${temperature} ${tempDamp} ${seed}
fix             3 all temp/csvr 284.4 ${temperature} ${tempDamp} ${seed}
fix             3 all temp/csvr 284.4 284.4 ${tempDamp} ${seed}
fix             3 all temp/csvr 284.4 284.4 100 ${seed}
fix             3 all temp/csvr 284.4 284.4 100 745823


run             250000
PPPM initialization ...
  extracting TIP4P info from pair style
  using 12-bit tables for long-range coulomb (../kspace.cpp:340)
  G vector (1/distance) = 0.37451037
  grid = 30 30 30
  stencil order = 5
  estimated absolute RMS force accuracy = 0.003265265
  estimated relative force accuracy = 9.8332484e-06
  using double precision FFTW3
  3d grid and FFT values/proc = 5400 960
Last active /omp style is kspace_style pppm/tip4p/omp
Neighbor list info ...
  update every 1 steps, delay 7 steps, check yes
  max neighbors/atom: 2000, page size: 100000
  master list distance cutoff = 10.8154
  ghost atom cutoff = 10.8154
  binsize = 5.4077, bins = 5 5 5
  1 neighbor lists, perpetual/occasional/extra = 1 0 0
  (1) pair lj/cut/tip4p/long/omp, perpetual
      attributes: half, newton on, omp
      pair build: half/bin/newton/omp
      stencil: half/bin/3d
      bin: standard
Setting up Verlet run ...
  Unit style    : real
  Current step  : 6500000
  Time step     : 2
Per MPI rank memory allocation (min/avg/max) = 10.54 | 10.55 | 10.56 Mbytes
Step Temp PotEng TotEng E_pair E_mol Press Lx Ly Lz Volume Pxx Pyy Pzz Pxy Pxz Pyz Enthalpy 
 6500000      288.328   -8998.5327   -7899.2949   -8998.5327            0    11148.996    24.911206    24.936006    22.946651    14254.138    10505.081    12024.491    10917.415   -1337.5296   -395.43237    1321.7122   -5581.6197 
 6501000    279.58296   -8996.6233   -7930.7255   -8996.6233            0    10808.098    25.057272    24.928921    22.840905    14267.589    9217.0966    10936.836     12270.36    218.64652   -634.99513    -752.4466   -5681.7966 
 6502000    281.96114   -9005.8706   -7930.9061   -9005.8706            0    10511.907    24.837265    24.917462    23.097158    14294.406    10938.958    11205.997    9390.7644   -361.27475    -161.0304   -1138.7977   -5739.4968 
 6503000     288.3638   -9025.2503    -7925.876   -9025.2503            0    10661.129    24.927125    25.054455    22.853087    14272.565    12226.348    9143.0955    10613.944   -306.64702   -501.52432    215.69256   -5706.7542 
 6504000    274.21758   -9001.7984   -7956.3559   -9001.7984            0     12207.48    24.740044    25.027881    22.956727    14214.596    14043.838    9446.4524     13132.15    828.10601    266.52578    218.95394   -5425.6805 
 6505000    285.34697   -8995.3702   -7907.4975   -8995.3702            0     10939.01    24.883185    24.991856    22.942636    14267.497    10138.554    11324.744    11353.732   -416.26694      199.932   -325.21191   -5631.3431 
 6506000    290.29235   -8999.3831   -7892.6563   -8999.3831            0    9127.3471    24.986389    24.948948    23.074406    14384.218    8416.3996    10170.214    8795.4277   -481.43044   -49.215535    714.61319   -5977.9299 
 6507000    277.60463   -9004.9594   -7946.6039   -9004.9594            0    11097.828     24.99819    24.904129    22.876926    14242.217    9883.8287    12065.902    11343.754    1015.2193     515.1221    787.25383   -5641.4948 
 6508000    282.98463   -9034.8386   -7955.9721   -9034.8386            0    10698.709    25.025788    24.875124    22.914991    14265.031    8758.5614    11322.255    12015.312    639.59034    759.94805    548.12535   -5730.2036 
 6509000    293.15815   -9009.6893   -7892.0368   -9009.6893            0    10064.034    24.980729    24.782443    23.129859    14319.313     9674.509    11127.488    9390.1059   -1321.8528    537.72726   -1841.7519   -5790.3394 
 6510000    285.01788    -8989.304   -7902.6859    -8989.304            0    11093.958    24.939513    24.951582    22.922179     14264.02    11329.047    11019.211    10933.616    210.93468   -970.19866    596.98667    -5594.853 
 6511000    280.50252   -9010.6153   -7941.2118   -9010.6153            0    10526.278    24.949891     24.96821    22.931979    14285.571    10016.227    11150.436    10412.173   -636.55951    36.604566    426.02621   -5748.1628 
 6512000    280.67576   -8956.2247   -7886.1607   -8956.2247            0    10391.184    24.964459    25.000159    22.932943    14312.804    10097.437    9721.1844     11354.93   -629.73265    82.280051   -1614.0927   -5717.1303 
 6513000     281.8296   -8978.6578   -7904.1949   -8978.6578            0    11593.081    24.950142    24.931341    22.923721    14259.483     12189.31    10846.651    11743.283   -175.40098   -1409.9479    788.01018   -5493.2985 
 6514000    275.77526   -9026.5534   -7975.1724   -9026.5534            0    12093.997    24.820266    24.879894    22.972513    14186.115    14141.146    10703.392    11437.451   -139.57882    489.52526   -967.48832   -5473.0462 
 6515000    283.46869   -9006.6107   -7925.8988   -9006.6107            0    11672.328    24.795748    24.984582    22.967458    14228.602    11188.591    11679.548    12148.846    60.846488   -718.88044    903.28844    -5503.779 
 6516000    282.50995   -8995.4975   -7918.4407   -8995.4975            0    10845.188    24.940578    25.102464    22.795313     14271.46    10710.184    10432.791    11392.591   -666.51648     701.9687    340.45177   -5661.1817 
 6517000    287.78542   -9014.1711   -7917.0018   -9014.1711            0    11555.757    24.862991     24.92164    22.975516    14236.238    11328.354      12316.5    11022.416   -463.84878   -62.927096   -515.28702   -5517.7848 
 6518000    281.59302   -9052.3666   -7978.8055   -9052.3666            0    10483.559    25.081934    24.993269    22.753625    14263.782    10248.882    9070.2077    12131.586   -196.32493   -837.04584     320.3809   -5797.9881 
 6519000    284.91207   -9012.9981   -7926.7833   -9012.9981            0    12161.686    24.911608    24.827921    22.943384    14190.562    11938.939    12538.017    12008.102    179.43432   -157.93578   -601.26625   -5409.8643 
 6520000     277.8739   -9019.7305   -7960.3485   -9019.7305            0    11630.316    24.825929    24.878832    23.002608    14207.333    12612.061     12220.93    10057.958   -801.38984   -1403.1272    1225.0589   -5550.5542 
 6521000     283.1959   -9024.5094   -7944.8375   -9024.5094            0    11241.353    24.976996    24.935909    22.846954    14229.634    10421.434     11364.86    11937.767    472.97509    78.868142    439.22257     -5611.98 
 6522000    279.95607   -8950.0853   -7882.7651   -8950.0853            0    12466.612    24.926815    24.692783    23.146727    14247.098    13793.209    12928.304    10678.322   -1048.1969   -432.93662    483.55298    -5292.461 
 6523000    277.03361   -9033.4654   -7977.2869   -9033.4654            0    12260.633    24.943101    24.959641    22.830137    14213.378    11835.582    12456.992    12489.324    1846.4692   -215.19794    818.14515   -5435.8107 
 6524000    290.84673   -8959.3373   -7850.4969   -8959.3373            0    11973.477    24.854575    24.892622    23.065174     14270.32    11245.066    13436.592    11238.774   -630.66404   -81.427445    29.866726   -5358.6009 
 6525000    285.78098   -9011.2321   -7921.7047   -9011.2321            0     10779.43     24.96197    24.949262    22.914046    14270.472     10898.61    10242.586    11197.093   -180.84241    -553.6146     516.4455   -5678.2877 
 6526000    285.19415   -8971.3258   -7884.0356   -8971.3258            0    11200.793    24.951689    24.847039    23.027302    14276.365    11011.314    11193.489    11397.575    349.09524   -197.67647    380.60531   -5551.9619 
 6527000     288.5637   -9020.0411   -7919.9047   -9020.0411            0    10136.307    25.001108    24.876359    22.992641    14299.964    9380.3176    10712.937    10315.666    448.84612   -1289.0937   -152.45211   -5805.9748 
 6528000    284.71933   -9037.7193   -7952.2394   -9037.7193            0    10987.953    24.977137    24.947707    22.902078    14270.795    11195.766    10956.104     10811.99   -26.253696   -115.80376   -107.46882   -5665.3725 
 6529000    282.77127   -9039.7873   -7961.7343   -9039.7873            0     8985.688    24.937068     24.91723    23.075825    14338.456    9717.7697    9185.6826    8053.6116   -24.156858    270.14741    846.29092    -6082.722 
 6530000    283.92858   -8979.2984   -7896.8331   -8979.2984            0    10098.714    25.034435    24.995863    22.913205    14338.106    9265.1114    11102.841    9928.1885    75.308607    612.39635    1066.7573   -5785.1258 
 6531000    296.46021   -9008.9412   -7878.6997   -9008.9412            0    9102.6239    25.047498    24.984601    22.950817    14362.661    9377.8501    7980.5236    9949.4981     397.0066    496.02932   -146.04643   -5972.0215 
 6532000    295.99536    -9037.945   -7909.4757    -9037.945            0    10367.552     24.88117    24.950078    23.052927     14310.96    9944.9932    10933.446    10224.217    102.63652   -204.45691    241.08038   -5745.6569 
 6533000    295.36916   -9031.1727   -7905.0908   -9031.1727            0    10285.115    24.870768    25.128908    22.874166    14295.788    10142.216     10411.66    10301.469   -97.463394   -396.47615    1951.3906   -5760.7533 
 6534000    277.52175   -9033.7597   -7975.7202   -9033.7597            0    10350.984    24.851533    24.990621    22.989537    14277.772     11398.81    10200.603      9453.54   -363.13772   -399.73891    -763.3961   -5820.3693 
 6535000     279.3959   -9065.9786   -8000.7941   -9065.9786            0    10849.773    24.926233    24.878061    22.964066    14240.393    10271.125    11224.546    11053.648   -501.91482   -866.47563    124.31458   -5747.4967 
 6536000    279.04355   -9005.4359   -7941.5947   -9005.4359            0    11500.401    24.943464    24.892321     22.92328    14233.081    13412.401    10536.394    10552.406   -894.08289   -32.219078   -1450.9278   -5554.4004 
 6537000    286.80767   -9030.6207   -7937.1791   -9030.6207            0     11874.28    24.951043    24.804753    22.968488      14215.3    11712.624    11775.264    12134.953   -84.343168    329.70175     947.8261    -5475.456 
 6538000    291.85623   -9020.3945   -7907.7054   -9020.3945            0    11597.451    24.997768    24.867275    22.902079    14236.536    11683.214    11334.988    11774.151    1643.4059   -255.72908    930.85964   -5499.7815 
 6539000    280.70102   -9017.3552   -7947.1949   -9017.3552            0    10992.675    24.904674    24.776293    23.090649    14247.982    10180.905    12142.911    10654.208   -44.529786   -82.662782    751.67513   -5663.0029 
 6540000    284.40304   -9017.7644   -7933.4903   -9017.7644            0    12858.075    24.959199    24.933675    22.742136     14152.99     12222.64    11305.896    15045.687    640.87328   -389.52283    922.49885   -5279.4957 
 6541000    278.22253   -9035.5423   -7974.8311   -9035.5423            0    12050.968    24.854095     24.86678    23.017138    14225.542    12478.362    11855.726    11818.816   -258.26849   -1716.1149    -903.4191   -5474.6778 
 6542000    285.22874    -9026.275    -7938.853    -9026.275            0    10663.595    24.855194    25.167187    22.808318    14267.409    10330.906    10043.078    11616.801   -670.87502   -936.72418    615.87595   -5720.0198 
 6543000    287.88211   -9000.1993   -7902.6614   -9000.1993            0    10940.812    24.864954    24.998155    22.943713    14261.307    11512.059    10141.088    11169.288    702.39473    1047.0736   -589.58492     -5627.12 
 6544000    286.04628    -9030.809   -7940.2701    -9030.809            0    10890.826    24.713507    25.058414    23.042476    14269.774    12364.678    9339.8107     10967.99   -240.22669   -69.506433    783.29734   -5673.7801 
 6545000    277.87176   -9054.5794   -7995.2055   -9054.5794            0    10870.236    24.857015    25.077709    22.801019    14213.174    11485.407    9540.0472    11585.253    768.30871    224.42445    93.100352   -5741.9733 
 6546000    286.09955   -8968.2973   -7877.5553   -8968.2973            0    11461.913    24.846365    24.906286    23.032456     14253.19    11237.445    11664.855    11483.438   -200.28932    488.56846    29.003192   -5494.9887 
 6547000    283.98079   -9023.3879   -7940.7236   -9023.3879            0    12686.445     24.86266    24.895176    22.931959    14193.972    12391.804    13242.381    12425.151   -570.86826    148.20332    70.481601    -5314.572 
 6548000    287.57459   -9036.1341   -7939.7686   -9036.1341            0    11065.744    24.874573    24.973166    22.927138    14242.266    11415.243    10310.506    11471.484   -941.83301   -803.33497   -679.09735   -5641.3156 
 6549000    287.92196   -8994.6751   -7896.9853   -8994.6751            0    11370.093    25.001643    24.913949    22.870661    14245.898    11710.423    10489.894    11909.963    127.86092    371.95805   -494.99214   -5534.7141 
 6550000    299.04535   -9034.2649   -7894.1676   -9034.2649            0    12123.656    24.933305    24.794142    22.978328      14205.2    12192.064     12786.16    11392.745    -979.0952   -732.08661    148.30159   -5382.5307 
 6551000    290.20404   -9025.4762   -7919.0861   -9025.4762            0    10675.228     25.20617    24.863145    22.782963    14278.189     9312.562    10669.414    12043.709   -247.56703   -814.90362   -265.29538    -5696.154 
 6552000    287.53605   -9035.2133   -7938.9948   -9035.2133            0    11180.921    24.904254    24.826593    23.063115    14259.642    10515.584    11897.758    11129.422    327.60745     440.4232   -116.06895   -5613.7852 
 6553000    289.22649   -9035.5043    -7932.841   -9035.5043            0    10964.619    24.997062    24.924886    22.886736    14259.556    9847.4355    10569.233    12477.188    1072.4441    318.04125    444.58948    -5652.628 
 6554000     277.7639    -8974.531   -7915.5683    -8974.531            0    10850.478    24.997811    24.900284    23.003445    14318.554    9687.0656    11215.727    11648.642    673.85739   -550.30398   -59.846379    -5649.756 
 6555000    287.91486    -9001.214   -7903.5512    -9001.214            0     10774.05    24.929872    24.987256     22.87316    14248.357    11772.508    10496.723    10052.919    1.5736959   -1152.3148     300.8055   -5664.7287 
 6556000    293.93366   -8999.5057   -7878.8965   -8999.5057            0    10861.446    24.942453    24.906266    22.938714    14250.065    10804.128    10438.201     11342.01     1497.372   -1460.6338     1423.222   -5621.6429 
 6557000    278.81025   -8995.3214   -7932.3696   -8995.3214            0    10509.819    24.910651     25.03703    22.914797      14291.7     10667.05     10786.18    10076.226    903.40977    -276.6193     559.4244   -5741.8103 
 6558000    277.01089   -9012.0905   -7955.9987   -9012.0905            0    10201.082    24.927683    25.095549    22.890318    14319.585    10749.792    9782.7974    10070.655   -127.50296   -920.82459    1285.0024   -5825.6409 
 6559000    288.50701   -9031.1163    -7931.196   -9031.1163            0    11339.514    24.797163    24.954803    23.028965    14250.515    12269.631    11152.912    10595.999    26.417617    72.737118   -367.82164   -5574.5144 
 6560000     287.5426   -9059.4635   -7963.2199   -9059.4635            0    11830.806    24.819591    25.021663    22.832515    14179.618    11857.375    10645.992    12989.052   -218.92132    26.230086    548.79754   -5516.6661 
 6561000    287.44317   -9044.8843   -7949.0199   -9044.8843            0    11155.449    24.896645    24.931238    22.916788    14224.546    10302.614    11694.109    11469.625    93.492622    529.59787   -1289.7534   -5634.8173 
 6562000    284.35319   -9012.0148   -7927.9308   -9012.0148            0    11670.533    24.860611    24.866162    23.060427    14255.679    12063.924     11652.01    11295.665    62.904409   -468.93135    41.677621    -5501.575 
 6563000    290.49924   -8966.9321   -7859.4165   -8966.9321            0    12500.291    24.969174    24.875826    22.938543     14247.79    11681.299     11702.09    14117.485   -231.84922   -442.43431    762.17005   -5261.9884 
 6564000    289.91633   -9010.4627   -7905.1695   -9010.4627            0    12227.221    25.037585    24.827909    22.896715    14233.305        11677    12442.443     12562.22    290.22498   -590.13413   -600.72179   -5367.0655 
 6565000    281.45215   -9055.8039     -7982.78   -9055.8039            0    10834.566     24.89844    24.949163    22.959237    14262.169    10605.905    11232.984    10664.809    58.961102   -1635.8193    12.047282   -5729.1999 
 6566000    290.51477   -8959.3488    -7851.774   -8959.3488            0    11468.271    24.835843    24.984448    23.005046    14274.858    12810.644     10564.03     11030.14   -648.02692   -162.55438    889.18845   -5464.2616 
 6567000    284.17129   -9053.9005   -7970.5099   -9053.9005            0    10572.368    24.861968    24.999778    22.962798    14272.383    10934.228    9651.6627    11131.213   -263.04405   -452.51874    1268.2574    -5769.892 
 6568000     278.1926   -9026.2138   -7965.6168   -9026.2138            0    11579.633    24.852526    24.948833    22.949068    14229.375    12959.126    10677.364    11102.407   -395.68739    -1234.014    901.26324   -5562.6017 
 6569000    278.74839   -9031.0682   -7968.3522   -9031.0682            0    9927.8749      24.9734    24.913387    23.004645    14312.846    10437.944    9203.4982    10142.182    290.21945    601.43096    970.18302   -5896.0257 
 6570000    280.21668    -9028.809   -7960.4952    -9028.809            0    10968.729     24.96859    24.846332    22.979524    14255.988    9402.9639    12378.145    11125.077   -328.09527   -212.77086     212.7552   -5679.9982 
 6571000    282.44713   -9007.7504   -7930.9331   -9007.7504            0    10461.148    25.011514    24.956594    22.906541    14298.314    8914.1807     10827.46    11641.802    913.66265   -632.54862    1015.7511   -5749.5093 
 6572000    285.00726   -8979.0007    -7892.423   -8979.0007            0    11092.502    24.982733    25.011363    22.840286    14271.803    11004.738    11189.593    11083.177    363.00108   -1176.9388    1484.9305   -5583.6339 
 6573000    277.96219   -9073.3495   -8013.6308   -9073.3495            0    10426.019    24.801374    24.892538    23.056752    14234.527     10509.71    11898.249    8870.0988    368.26944   -29.452726   -354.19848   -5849.2312 
 6574000    285.87134    -8973.912   -7884.0401    -8973.912            0    13213.188    24.892435    25.049174    22.766482    14195.697    13444.352    11946.208    14249.002    513.86249   -834.25481    978.10905   -5148.5181 
 6575000    285.25946   -8955.7672    -7868.228   -8955.7672            0    13927.959    24.832431    24.988665    22.856074    14182.864    14229.125    13321.236    14233.516   -436.79271    24.477487    1225.8076   -4987.3339 
 6576000    284.92029    -9008.743   -7922.4969    -9008.743            0    12672.002     24.86143    24.844153    22.938268    14168.078    13190.328    12571.205    12254.474   -618.91919    216.69922    -222.6262   -5304.1206 
 6577000     285.3392    -9055.574   -7967.7309    -9055.574            0    12391.031    24.770769    24.973486    22.884257    14156.486    14069.379    12204.486    10899.229    382.83951   -430.68249    48.714814   -5409.5054 
 6578000    290.60745   -8983.1328   -7875.2047   -8983.1328            0    11761.388    24.808624    25.085796    22.871223     14233.77    13374.921    10141.236    11768.007    1544.0942   -1078.4164    500.66814   -5433.7176 
 6579000    277.74691   -9000.8404   -7941.9426   -9000.8404            0    12313.241    24.803821    24.967429    22.958846     14218.13    13218.072    11300.521     12421.13    513.19135    -1140.228   -729.26674   -5388.7078 
 6580000    286.06292   -9022.4923     -7931.89   -9022.4923            0    11276.716    24.917007    24.906393    22.922033    14225.247    9302.8802     12248.71    12278.559   -963.37954    309.71529   -1191.0392   -5592.4151 
 6581000    291.13767   -8996.6986    -7886.749   -8996.6986            0    11644.314     24.82524    24.963074    22.975811    14238.439    11253.811     12570.57    11108.561    113.91752   -1176.2565    352.88866   -5468.7719 
 6582000    268.65211   -8970.8917   -7946.6674   -8970.8917            0    11552.517    24.892639    25.054684     22.87945    14269.391    11449.238    11826.662     11381.65   -215.21059    -186.6139    363.73657   -5542.5374 
 6583000    282.77031   -9065.3071   -7987.2577   -9065.3071            0    10832.383    24.805928    24.942031    23.021812     14243.83    11568.485    10107.959    10820.703   -926.09843   -1416.0711    655.14983    -5737.029 
 6584000    288.35389   -8968.7239   -7869.3874   -8968.7239            0    11029.217    24.971197    25.043241    22.836692    14281.147    9532.7752    11291.506    12263.371    507.44238    215.25526    677.43066   -5572.2674 
 6585000      277.143   -9007.7263   -7951.1308   -9007.7263            0     11095.94    24.843994    24.892301    23.071157    14267.762    12160.976    10991.284     10135.56   -1479.1991   -316.17589   -696.88726   -5642.2801 
 6586000    280.92731   -8983.5415   -7912.5185   -8983.5415            0    12707.453    24.928904    24.883183    22.908302     14210.26    12654.004    12012.988    13455.369    1204.6064   -895.20849   -685.45942   -5278.9995 
 6587000    277.58818   -8988.0801   -7929.7873   -8988.0801            0    12942.439     24.94977    24.891469     22.83099    14178.876    11800.213    14058.163    12968.943    363.93752   -608.28389    200.34725   -5253.4932 
 6588000    290.68922   -8982.3831   -7874.1433   -8982.3831            0    13333.058    24.819973    24.789049    23.064943    14191.018    12208.827    14671.037    13119.309    519.88247    496.84823    205.49191   -5114.7144 
 6589000    279.85338   -9052.5679   -7985.6392   -9052.5679            0    12887.612    24.906345    24.896381    22.795539    14135.009    12448.491    13537.554     12676.79    292.35687     715.5325   -781.50557   -5328.9276 
 6590000     288.9547   -9015.2539   -7913.6268   -9015.2539            0    12052.855    24.995857    24.766845    22.960114    14213.883    10630.453    13294.234    12233.878   -87.169869    253.13786   0.68856928   -5415.1313 
 6591000    275.80541   -9011.3519   -7959.8559   -9011.3519            0    12761.042    24.880923    24.867734    22.887148    14161.015    11779.449    13252.043    13251.633   -526.23446   -833.96099    689.96135   -5324.3962 
 6592000    294.91291   -9022.7213   -7898.3788   -9022.7213            0    13470.905    24.798123    24.876856    22.904902    14130.018    13670.429    14268.667    12473.617   -352.00069   -199.66655    989.87244   -5122.4049 
 6593000    289.07811   -9004.6836    -7902.586   -9004.6836            0    12264.067     24.84476    24.907167    22.945685    14199.079    13186.797     11470.96    12134.444     731.8266   -530.15937    354.26333   -5362.9553 
 6594000    282.80266   -8992.8995   -7914.7267   -8992.8995            0    12823.719    24.952064    25.008618    22.712648     14173.07    10987.327    12876.662    14607.168   -819.91124    306.68855    -4.323499    -5264.068 
 6595000    274.74191    -9045.292   -7997.8505    -9045.292            0    11795.666    24.897712    24.826906    22.985289    14207.969    11591.986    11931.963    11863.048   -372.47557   -387.40089    304.49481   -5553.6865 
 6596000    285.80723   -9007.0746   -7917.4471   -9007.0746            0    11503.648    24.992663     24.83519    22.940542    14239.138    10198.641    13158.113    11154.191    41.501907    588.72876   -846.35299   -5528.5623 
 6597000    289.76962   -9023.3842   -7918.6503   -9023.3842            0    11318.881     24.96358    24.902935    22.900077    14236.208    11911.855    11608.144    10436.644   -682.54511    805.23758     35.41061   -5568.6186 
 6598000     272.7805   -9046.9744   -8007.0107   -9046.9744            0    10168.513     24.90179    25.001944    22.963124    14296.684    10564.827    9306.5532    10634.159   -612.59785    36.521261    723.64271   -5886.8506 
 6599000     282.1288   -8988.3678   -7912.7642   -8988.3678            0    10124.848    24.894054    25.067852    22.890234    14284.432    9915.3852    8948.4392     11510.72   -592.51423    601.09818    71.383995   -5803.5174 
 6600000    282.94486   -9047.4499   -7968.7351   -9047.4499            0      10440.9    24.826871    24.898359    23.114224    14288.019    10059.331    11916.807    9346.5611   -374.01471    1188.4952    82.878567    -5793.101 
 6601000     283.3321   -9011.0833   -7930.8921   -9011.0833            0    12357.405    24.942135    24.860836    22.884508    14190.279    13936.736     11204.86     11930.62   -138.89776   -953.12282    157.47484   -5373.5187 
 6602000    284.14467   -8974.5204   -7891.2314   -8974.5204            0    12084.956    24.951303    24.922077    22.922077    14253.825    12190.917    11606.715    12457.235    655.00403     804.2718    771.07039   -5379.0419 
 6603000    286.24174   -9010.1834   -7918.8993   -9010.1834            0    10689.089    24.961367    24.864718    23.025919    14291.206    9825.6615    11993.505    10248.099   -459.43207    309.89033   -1086.3601   -5691.0519 
 6604000    285.30718   -9028.4761    -7940.755   -9028.4761            0    9843.0586    25.044818    24.952286      22.8557    14283.109    9149.0002    9936.6666    10443.509    109.91324    800.55457    1455.6022   -5890.4017 
 6605000    284.07448   -9001.4887   -7918.4672   -9001.4887            0    9892.8319    25.009696    24.905316    22.928911    14281.831    9629.2257    10809.558    9239.7125   -171.36231    -773.9844    109.45198   -5857.9303 
 6606000    282.05892   -9032.1308   -7956.7935   -9032.1308            0    12156.908    24.881758    24.798598    22.997344    14190.114    12384.031    12547.135    11539.557   -183.16689   -362.61258    203.68205   -5440.9427 
 6607000    296.49714   -9055.9993    -7925.617   -9055.9993            0    11174.235    24.982941    24.969992    22.806702    14227.365    9684.3925    10917.669    12920.642   -206.10728   -760.54286    367.33307   -5607.0581 
 6608000    279.78722   -8997.8054   -7931.1289   -8997.8054            0    10589.051    25.058997    24.720242     23.06063    14285.241    9787.3379    11815.404    10164.411   -287.56687   -1191.5436    25.904554   -5725.0528 
 6609000    284.51877     -9024.25   -7939.5346     -9024.25            0    10893.453    24.969945    24.857327     22.98724     14267.86    10322.727    11578.461    10779.172    534.11851     -1080.07   -231.00448   -5672.8019 
 6610000    277.22442   -9012.6993   -7955.7934   -9012.6993            0    10370.739    25.003777    24.932634    22.872629    14259.026    9619.4224    10585.825     10906.97   -500.49624   -72.313681   -1419.8944   -5799.1643 
 6611000    286.03421   -9009.7747   -7919.2818   -9009.7747            0    10138.437     24.99724     24.96941    22.954576    14327.474    9109.8214    10436.484    10869.007    26.864796   -92.227939    364.62441     -5800.84 
 6612000    286.75106   -8995.0114   -7901.7856   -8995.0114            0    11871.804     24.90061    24.899615    22.986969    14252.279    12296.842     11619.11     11699.46   -67.816483    847.90544    -747.6482   -5434.1732 
 6613000    285.86922   -9022.6836   -7932.8197   -9022.6836            0    10155.179    24.948302    25.111823    22.834505    14305.757    10665.498    9476.4049    10323.633   -509.43205    491.45929    1071.2079   -5814.0961 
 6614000    299.13002   -8992.1835   -7851.7635   -8992.1835            0    12093.291    24.793051    24.893736    23.023009    14209.609     13618.74    11033.699    11627.434   -418.32875   -766.08953    664.99355   -5345.6397 
 6615000    284.75616   -8950.5784    -7864.958   -8950.5784            0    12633.533    24.841618    25.194239    22.703479    14209.328    13791.348    9230.1907     14879.06   -1216.8492    239.31044    384.64809   -5246.9303 
 6616000    281.02146   -9011.0326   -7939.6506   -9011.0326            0    13035.542    24.822132    24.910344    22.920486    14172.375    13666.992    13441.223     11998.41      163.404   -476.45739    58.246556   -5245.3404 
 6617000    281.33237   -9069.5303    -7996.963   -9069.5303            0    10771.815    24.922497    24.843066    23.002162    14241.817    10481.124    10545.474    11288.847   -218.88447   -558.93403    1099.6787   -5759.6322 
 6618000    276.68116    -9052.012   -7997.1773    -9052.012            0    10838.797    25.014038    24.961878    22.799952     14236.23    10069.326    10838.759    11608.305    96.786621    17.121521    155.94552   -5746.8174 
 6619000    281.46103   -9002.4567   -7929.3989   -9002.4567            0    11816.498     24.87048    24.779685    23.158128    14271.953    11954.445    12943.429    10551.621      968.743   -723.57729    311.81639   -5469.8917 
 6620000    287.79059   -9043.3189     -7946.13   -9043.3189            0    10930.479    24.931449     24.93259     22.90846    14240.027    10421.645    10740.509    11629.283    304.59941   -247.69896    105.55996   -5676.1299 
 6621000    284.11954   -9007.3616   -7924.1684   -9007.3616            0    12158.054    25.005908    24.980057    22.758075    14215.809    10372.011     12738.81    13363.342    653.99171   -744.67683     898.7081   -5403.5242 
 6622000     289.4321    -9004.936   -7901.4889    -9004.936            0    11927.132    24.880799    24.893231    22.980434    14233.241    10947.711    11423.565    13410.121   -356.84202   -857.75266    10.688897   -5425.6878 
 6623000     275.3974   -9019.8389   -7969.8984   -9019.8389            0    10085.114    25.062156     24.90203    22.915275     14301.39    8878.1612    10689.875    10687.305   -421.42658    1440.3635   -846.28205   -5866.4351 
 6624000    289.12722   -8995.1578    -7892.873   -8995.1578            0    11122.416     24.88248    24.800175    23.094876    14251.614    10970.891    12012.748     10383.61    536.73624   -202.45816    111.24341   -5581.1325 
 6625000    293.97828   -8987.8297   -7867.0504   -8987.8297            0     11027.44    25.014395    24.899849     22.86034     14238.67    11213.556    11400.493    10468.271    877.73573   -900.55906    1144.6759   -5577.1321 
 6626000    287.41393   -9027.7643   -7932.0113   -9027.7643            0    11515.342    24.940184    24.911549    22.870499     14209.41      10707.1    12484.842    11354.083   -707.16686   -890.45938     -220.545   -5545.6909 
 6627000    288.40537   -9005.5801   -7906.0473   -9005.5801            0    12334.635    24.789437     24.84842     23.02689    14184.066     12718.18    12238.514    12047.212     577.7232    224.58432   -52.643159    -5354.504 
 6628000    286.74601   -9026.9824   -7933.7758   -9026.9824            0    11871.915    24.862482    25.002727    22.810387    14179.617      12280.9    11238.189    12096.655   -106.08018   -442.03568    282.29931   -5478.7212 
 6629000    286.58294   -8995.9685   -7903.3837   -8995.9685            0    11175.208    24.838433    25.043086    22.893752    14240.624    11826.923    8837.0364    12861.664    778.02824   -215.00192     599.6573   -5582.4619 
 6630000    278.29945   -9024.7669   -7963.7625   -9024.7669            0    11840.733    24.815871    24.878538    23.006056    14203.539     11635.19    12084.677    11802.331   -209.11977   -906.99414   -380.80346   -5511.0252 
 6631000    283.83768   -9048.8189   -7966.7002   -9048.8189            0    11863.127    24.863533    24.953073    22.880868    14195.784     11064.31    11835.851     12689.22    104.92501   -1069.7013    129.35827   -5510.6659 
 6632000    269.37925   -8972.9173   -7945.9207   -8972.9173            0    10000.355    24.997882    24.988746    22.940204    14329.959    9204.8533    11121.943    9674.2687   -1242.7965   -273.30022   -114.70908    -5855.969 
 6633000    275.21225   -9002.6132   -7953.3786   -9002.6132            0    11262.506    24.952974    24.865181    23.019389    14282.615    9514.4865    12017.799    12255.232    234.16119   -414.26503    -128.3708   -5607.4292 
 6634000    274.70203   -9045.0829   -7997.7935   -9045.0829            0    9001.2743    24.994288    25.070962    22.910086    14356.167     8898.208    8535.7267    9569.8881   -28.543969   -1389.3603    897.80109   -6113.1971 
 6635000    279.37185   -9067.4926   -8002.3997   -9067.4926            0    10312.048    24.918728    24.814876    23.031506    14241.651    9600.0038    11106.193    10229.947    46.044502    -446.8658    697.21436   -5860.5887 
 6636000    290.14552    -9032.323    -7926.156    -9032.323            0    10844.103    24.975195    25.022515    22.839011    14273.062    10106.151    11302.015    11124.143   -84.912594    892.44196    1006.5115   -5668.8696 
 6637000    281.55361   -9028.4872   -7955.0764   -9028.4872            0    10534.594    24.840783    24.988801    22.978941    14263.979    11758.128    10051.552    9794.1035   -171.15918   -2302.1905   -347.40083    -5763.612 
 6638000     281.7367   -9009.9089   -7935.8002   -9009.9089            0    11262.943    24.889632    25.044179    22.837172    14235.332    13176.575    9404.5331    11207.722    160.60653   -37.735742   -434.55853   -5597.5262 
 6639000    274.20105   -9023.0838   -7977.7044   -9023.0838            0    11690.693    24.887845    24.931173     22.95199    14241.323    11090.218    11612.836    12369.026   -325.71607   -1059.7196    640.41993   -5549.6048 
 6640000    292.01899   -9038.5863   -7925.2767   -9038.5863            0    9554.7779    24.896775    24.875091    23.090733    14300.311    9922.4433    9897.1125     8844.778   -910.12093   -812.48966    538.38492   -5932.5764 
 6641000    277.10418   -9032.4687   -7976.0212   -9032.4687            0    10654.271    24.864389    25.009974     22.96013    14277.934    11759.493    10520.639    9682.6822   -535.58311   -942.45058   -684.11292   -5757.4927 
 6642000    277.24356   -9033.7934   -7976.8145   -9033.7934            0     11444.95    24.819184    25.043596    22.958932    14270.391    11799.235    10671.899    11863.715    826.73735   -1501.7923   -257.26309   -5594.9028 
 6643000    286.23367    -9029.518   -7938.2648    -9029.518            0    10581.629    24.850655    25.118553    22.897142    14292.682    10401.706    9722.6176    11620.564   -424.85837    965.46297   -1375.6615   -5732.5865 
 6644000      281.352   -9018.4906   -7945.8485   -9018.4906            0      10598.1    24.953638    24.953667     22.91566    14269.232    10614.583    9834.8249    11344.893     840.0342   -1056.9142   -833.68891   -5740.3614 
 6645000    300.62798    -9010.793   -7864.6621    -9010.793            0    11161.891     24.90878    24.786106    23.157398    14297.185    10046.062     13522.54    9917.0704    631.03438    -266.7761    319.21193   -5537.2988 
 6646000     274.6376   -9000.1447   -7953.1009   -9000.1447            0    10815.459    25.001618    24.979942    22.853404    14272.841    9949.7202    10955.915    11540.741    391.52574   -265.73107    -131.8287   -5701.8118 
 6647000     280.6211   -9032.2667   -7962.4111   -9032.2667            0    9480.4178    24.946251    24.960483    22.972663    14304.399    9744.7762    9789.4171    8907.0602   -30.075858    -134.5211    -97.29512   -5984.6539 
 6648000    288.40945   -9085.1741   -7985.6257   -9085.1741            0    11388.099    24.794318    24.838279    23.052598    14196.901    12515.325    11437.305    10211.668   -442.11882   -722.78437     348.5402   -5627.7513 
 6649000    287.88391   -9019.1227    -7921.578   -9019.1227            0    11599.228     24.96968    24.949076    22.860275    14241.276     11230.61    11649.255    11917.819    961.28391   -126.83989    386.73812   -5512.4832 
 6650000    272.38775   -9004.5137   -7966.0474   -9004.5137            0    10618.022    24.946326    25.009776    22.927753    14304.671     9853.511    10224.809    11775.747   -513.16978   -753.73243   -772.25573   -5750.9267 
 6651000    287.18869   -9008.3173    -7913.423   -9008.3173            0    12101.827    24.869349    24.960204     22.87779    14201.252    12748.441    12080.968    11476.072    592.84964    178.28793   -364.93356   -5407.0053 
 6652000    286.36997   -9048.5733   -7956.8003   -9048.5733            0    10542.919    24.883787    24.984945    22.884692    14227.872    11114.145    9469.0236    11045.589   -423.29637   -941.88373   -411.83638    -5769.156 
 6653000    279.52018   -8983.9792   -7918.3208   -8983.9792            0    11887.471    24.921463    24.788333    23.068939    14251.103    11045.775    13874.504    10742.134    131.19007    479.01765   -228.71632   -5447.6559 
 6654000    276.87556   -9027.8068   -7972.2309   -9027.8068            0    12345.937    24.943552    24.904717    22.867845    14205.783    11872.022    11726.248    13439.542   -138.04055   -653.41364   -1192.5112   -5414.4395 
 6655000    280.41546   -9002.0298   -7932.9582   -9002.0298            0    12173.418    24.904504    24.740533    23.093046    14228.797    12210.495    12965.644    11344.116   -391.73374   -868.46216    804.61543   -5406.8229 
 6656000    272.53068   -9068.3249   -8029.3137   -9068.3249            0    11728.978    24.891299    24.951377    22.841958    14186.505    11950.406    11014.193    12222.334    101.86499   -1469.9863    695.85425   -5602.6395 
 6657000    279.27371   -9010.3488     -7945.63   -9010.3488            0     11485.27     24.86394    24.960489    22.969869    14255.471    11296.713    11469.687    11689.408    215.09924   -904.07758    664.02968   -5557.8262 
 6658000    285.68503   -9019.4949   -7930.3333   -9019.4949            0    11051.592    24.900561    25.043406    22.904517    14283.139    12961.026    9031.5202    11162.231    177.18761   -68.893815   -30.674255   -5628.2322 
 6659000    289.57957   -9011.5497   -7907.5403   -9011.5497            0    11381.553    24.803286    24.977741    22.942734    14213.713    12038.364    11418.152    10688.142    512.11132     513.7426    155.27689   -5548.2308 
 6660000    285.56336   -9022.3339   -7933.6362   -9022.3339            0    11727.063    24.784666    25.031465    22.874356     14191.17    12987.359    10367.607    11826.223    792.06265    -817.5462    653.87393   -5506.5603 
 6661000    282.84963   -9053.9725   -7975.6207   -9053.9725            0    13348.823    24.862389    24.806719    22.890847    14118.029    12586.052    14252.721    13207.697    172.37724   -557.75313   -693.71996   -5227.1385 
 6662000    281.76498   -9021.3867   -7947.1701   -9021.3867            0    10516.588    25.035352    24.964605    22.870552    14294.042    10183.946    11137.535    10228.281    433.87311   -719.88522    175.73886   -5754.8409 
 6663000    279.33662   -8975.8229   -7910.8643   -8975.8229            0    11707.521    24.827371    24.886373    23.052468    14243.272    12016.945    11393.692    11711.925    267.08687    1009.7849    45.125465   -5478.9371 
 6664000    278.55973     -9034.49   -7972.4933     -9034.49            0    11431.791    24.923429    24.913749    22.935874    14241.711    11831.464    11159.514    11304.397    421.11735     179.1853    1535.0921   -5598.1017 
 6665000    283.79064   -9005.0731   -7923.1337   -9005.0731            0    13059.476    24.997357    24.842343    22.802468    14160.171    12388.006    14062.965    12727.456    838.72484    447.86074   -430.95836   -5226.2009 
 6666000    282.99359   -8976.7766    -7897.876   -8976.7766            0    10854.042    24.903197    24.925268    23.007031    14280.898    11569.367    10616.908    10375.852   -137.96158   -1009.7766   -1812.1905   -5637.2802 
 6667000    273.21121   -9057.0475   -8015.4417   -9057.0475            0    9370.9437    24.952295    24.999295    22.950575    14316.334    8884.5167    9220.1717    10008.143   -108.63334   -999.12928    -1540.324   -6058.8914 
 6668000    286.16518   -8985.5089   -7894.5167   -8985.5089            0    10512.234    24.888902      24.9656    23.057612    14327.224    11785.797    10178.115    9572.7904    115.29213    -432.6994   -483.54786   -5698.0077 
 6669000    281.61031    -9012.779   -7939.1521    -9012.779            0    10739.192    24.944164    24.978909    22.917619    14279.464    10806.062    10545.402    10866.112   -279.32355    481.01524   -64.724049   -5702.7009 
 6670000    279.93265   -8998.9792   -7931.7483   -8998.9792            0    11412.014    25.004966    24.911818    22.862228     14241.32    11139.326    11194.469    11902.248   -626.64252    360.15755   -158.52479   -5561.5294 
 6671000    281.40854   -9020.6384   -7947.7807   -9020.6384            0    11864.162    24.868013     24.82685    23.062048     14238.38    12260.222    12264.952    11067.312   -305.55235   -202.58992     758.5091   -5484.1618 
 6672000    283.35419   -9019.6463   -7939.3709   -9019.6463            0    11933.912    24.998299    24.865967    22.832484    14192.829    11900.861     11943.69    11957.185   -190.13064    617.18273    230.12903   -5469.1961 
 6673000    281.82668   -8990.2683   -7915.8164   -8990.2683            0    13991.135    24.789228    24.888135    22.885594    14119.442    14288.718    13960.577     13724.11   -215.74332   -375.59304     539.3385   -5034.7957 
 6674000    277.38781   -9012.7792   -7955.2503   -9012.7792            0    12714.865     24.74828    25.074325     22.84901    14178.871     14150.43    11115.958    12878.205   -784.74417    1252.4203    1074.7168    -5326.016 
 6675000    278.55243   -9005.1979    -7943.229   -9005.1979            0    11642.829    24.719312    25.045633    23.011525    14246.684    13857.752    8939.1887    12131.546    506.10408    793.39157   -350.50404   -5524.1603 
 6676000    288.12812   -9053.6747   -7955.1989   -9053.6747            0    12382.777    24.827117    24.873932    22.919362    14153.807    12709.805    12779.088    11659.438   -299.52164    614.84667    749.43384   -5399.1615 
 6677000    277.55505   -8989.8739   -7931.7075   -8989.8739            0    11245.968     24.97766    24.954811    22.882298    14262.829    10539.197    11081.203    12117.504   -218.75308    405.96837   -1007.4678   -5592.4481 
 6678000    270.31006   -8983.7109   -7953.1657   -8983.7109            0    9904.2944    24.972639    24.900326    23.059327    14338.909    10652.171     9933.683    9127.0289   -184.23182   -825.19231     44.90652   -5881.9967 
 6679000    277.24422    -9019.923   -7962.9415    -9019.923            0    10246.641    25.080512    24.812829    22.971624    14295.666    9237.5377     11709.62    9792.7659   -289.46655    418.02214   -534.44258   -5826.6437 
 6680000    280.52906   -9040.4362   -7970.9314   -9040.4362            0    11162.563    24.890299    24.877164    22.970582    14223.385    11108.515    11570.239    10808.935   -1327.1466    323.11131    947.93533   -5655.4421 
 6681000    282.26139   -9013.7904   -7937.6812   -9013.7904            0    10978.013    25.045775    24.949601    22.777602    14233.316    9369.7054    10688.962    12875.373    252.26873    395.71528   -960.37286   -5658.8837 
 6682000    282.27588   -8956.6897   -7880.5253   -8956.6897            0    12495.405    24.808664    24.866294    23.031299    14207.998    12936.475    12074.611     12475.13    291.83302   -1136.1355     1004.814    -5291.364 
 6683000    288.13652   -9030.3926   -7931.8847   -9030.3926            0    11846.927    24.944773    25.050349    22.747685    14214.466    12213.759    10865.888    12461.133    488.59667    907.26664    103.94072   -5475.9764 
 6684000     287.7502   -9018.1834   -7921.1484   -9018.1834            0    12398.578    24.814116    24.914403     22.95979    14194.406    12852.441    12775.243    11568.051   -1048.4374   -487.86073    168.49579   -5354.5082 
 6685000    291.09133   -8959.5885   -7849.8156   -8959.5885            0    14175.369    24.820024    24.903848    22.869226    14135.791    13947.612    14353.262    14225.231    667.93013   -993.57839   -477.23916    -4927.478 
 6686000    284.24536   -8964.7635   -7881.0906   -8964.7635            0    11855.626    24.944696    24.924104    22.928092     14254.95    11455.999      12514.1    11596.778    236.16693   -949.15621   -459.71549   -5416.3793 
 6687000    276.42176    -9049.282   -7995.4361    -9049.282            0    11018.321    25.098689    24.800961    22.875383    14239.277    9289.8151        12434    11331.147    105.99002    591.47602    1421.4212   -5707.3138 
 6688000    280.95744   -8965.7452   -7894.6073   -8965.7452            0    12631.154    24.883995     24.74645    23.083012    14214.301    12410.057    14624.556    10858.849     152.7098   -1433.0689    82.107891   -5276.1565 
 6689000    275.94413   -9042.9486   -7990.9237   -9042.9486            0    10931.645    24.996843    24.918944    22.834352    14223.402    12190.138    10343.822    10260.975   -156.85599   -308.19614    852.78561   -5723.3318 
 6690000    288.96014   -8973.8317   -7872.1839   -8973.8317            0    12387.382     24.91907    24.756811     23.08589    14242.071    11391.315    14075.297    11695.534    119.89647    618.55343    413.83876   -5299.2503 
 6691000    293.23269   -9044.7841   -7926.8473   -9044.7841            0     10235.97    24.983518    24.923587    22.886661    14251.041    8993.6371    10787.748    10926.524    544.91652    637.95036    664.77944    -5799.436 
 6692000    289.55025   -8992.3688   -7888.4712   -8992.3688            0     11917.84    24.974874    24.855378    22.907773    14220.228    11037.324    12433.584    12282.612   -377.42225   -312.37268   -822.04714    -5416.861 
 6693000    284.59271    -9016.433   -7931.4358    -9016.433            0    10942.909    24.832371    25.018681    22.953744    14260.545    11664.681    10266.428    10897.616   -331.99223    36.825965    473.78047   -5655.5797 
 6694000    280.29219   -9011.1232   -7942.5215   -9011.1232            0     10442.41    24.802763    25.116713    22.918918    14277.658    13475.627    7778.4412    10073.162    127.77899    420.17383   -79.571283   -5768.1508 
 6695000    279.17895   -9005.4909   -7941.1335   -9005.4909            0    10909.643    24.808099    24.991182    23.019904    14271.966    12452.033    9353.8241    10923.072    17.282561   -284.93528     -1184.28   -5670.3788 
 6696000    288.33528   -9008.2326    -7908.967   -9008.2326            0    11755.963    24.990738    24.942107    22.808534    14217.054    11527.892    12263.517    11476.479   -237.41172   -397.76804   -99.631402   -5471.4723 
 6697000    284.01353   -9020.9702   -7938.1811   -9020.9702            0    10280.955    25.022454    24.860057    22.924289    14260.275    10791.039    10752.695    9299.1318   -373.99079    401.23015   -53.617574   -5800.0357 
 6698000    286.19744   -9001.6541   -7910.5389   -9001.6541            0    11760.917    24.931455    24.807512    23.037014    14248.102    10887.029    12673.695    11722.028    391.64556    769.57928    132.93413   -5466.6914 
 6699000    285.00278   -8981.0775   -7894.5169   -8981.0775            0    12434.099    24.945649    24.880844    22.919022    14225.122    11420.773    12786.261    13095.264    219.64929   -910.58545   -859.25198   -5314.9535 
 6700000    280.92632   -8996.0351   -7925.0159   -8996.0351            0    12791.642    24.930578    24.898556    22.847568    14182.294    11858.268    12303.958    14212.701    288.91982    141.86067    1093.8523   -5279.2666 
 6701000     294.5113   -8993.6928   -7870.8813   -8993.6928            0     14335.34    24.547489    24.911943     23.09723    14124.549    16994.713    13447.384    12563.922   -507.71687   -341.92211   -1131.1752   -4917.9152 
 6702000    276.93619   -8989.0756   -7933.2685   -8989.0756            0      12914.6    24.829977      24.9871     22.87056    14189.562    14501.496    11435.468    12806.836   -309.14834    293.42499    327.38523   -5260.7186 
 6703000    273.75988   -9038.1563   -7994.4588   -9038.1563            0    11788.553    24.734991    24.955248    23.027214    14213.959    12869.791    11037.475    11458.394    409.12592   -1253.3626   -421.56961   -5550.7388 
 6704000    286.19606   -9001.7974   -7910.6874   -9001.7974            0    12018.234    24.884707    24.941975    22.886638    14205.135    10759.444    12427.909     12867.35   -1804.8733   -557.16429   -36.854564    -5420.902 
 6705000       277.64   -9020.9038   -7962.4135   -9020.9038            0    11904.763    24.922797    24.868341    22.917773    14204.175    11553.885    11775.988    12384.415    5.5125337   -492.63334    141.56253   -5496.3023 
 6706000    280.92991   -9099.8951   -8028.8621   -9099.8951            0     11708.17    24.967546    24.883089    22.860837    14202.745    11689.701    11437.534    11997.275   -542.45498    1563.4384     3.626825     -5603.72 
 6707000    280.45302   -8996.6097   -7927.3949   -8996.6097            0    12530.188    24.891109    24.833933     22.97255    14200.347    13968.732    11599.679    12022.153     74.80259    861.62485    1536.5485   -5332.4243 
 6708000    283.18115   -9013.4001   -7933.7844   -9013.4001            0    10805.741    24.965942    24.863876     22.96602    14256.159    10112.345    10845.992    11458.887    82.619499   -302.55379    205.77558    -5687.147 
 6709000    284.46491   -8975.8233   -7891.3133   -8975.8233            0    11378.051    24.950397    24.963011    22.925092    14278.596    12886.401    9935.2277    11312.525    624.79171    602.85705    1537.8673    -5521.963 
 6710000     285.5904   -9005.2294   -7916.4286   -9005.2294            0    11121.812    24.784164    24.932852    23.122726    14288.455    11802.714     12238.64    9324.0818   -64.100791   -329.97381   -124.17824    -5598.838 
 6711000    287.13384   -9009.1378   -7914.4527   -9009.1378            0    10619.281    25.002394    24.998326    22.841967    14276.641    11220.958    9427.3193    11209.566    -91.75351   -1528.2444    978.25976   -5703.4104 
 6712000    283.71827   -9030.4834   -7948.8199   -9030.4834            0    11577.343    24.872355    24.933515    22.952012     14233.81    10146.968    12478.672     12106.39    2.9929139   -30.364387    242.63497   -5545.5312 
 6713000    286.13694   -9053.2283   -7962.3438   -9053.2283            0    11297.137    24.801969    24.866476    23.080315    14234.497    11200.075    12745.626    9945.7092    259.25636   -309.72187   -362.00396   -5617.1086 
 6714000    290.46188   -9016.3256   -7908.9524   -9016.3256            0    11854.368     24.85662    24.935665    22.896927     14191.89     12991.22    11256.672    11315.212    72.465339    264.27004    1203.8307   -5455.4046 
 6715000    281.89668   -9028.4365   -7953.7178   -9028.4365            0    12660.055    24.965872    24.912672    22.767886    14160.864    11167.315    13384.537    13428.313    1298.1722    72.939475   -1240.5199   -5339.1421 
 6716000    279.58909   -9045.4603   -7979.5392   -9045.4603            0    11413.835    24.795663    24.828494    23.150909    14252.601    11700.572    11043.515    11497.418    28.492166    524.55123    1056.6637   -5607.0643 
 6717000    287.09865   -9006.9694   -7912.4184   -9006.9694            0    12422.387    24.819486    25.035454     22.85483    14201.239    12972.281     11439.54    12855.341   -591.83253     778.2586   -297.02209   -5339.6114 
 6718000    276.55778   -8977.9999   -7923.6355   -8977.9999            0    12849.114    24.785898    24.986016    22.949498    14212.644    13417.775    13268.136    11861.432    28.574591   -704.29056    1213.7656   -5260.3118 
 6719000    284.27404   -9049.9609   -7966.1786   -9049.9609            0    12464.864    24.816621    24.958708    22.869209    14164.978     13278.52    11546.893     12569.18    617.26976   -785.06346   -1409.8719   -5391.1661 
 6720000     285.5651   -9034.6214    -7945.917   -9034.6214            0    11462.773    24.775513    24.923218    23.027475    14219.132    12592.395    12041.555    9754.3678    890.89961    1054.0447    147.36113   -5568.8651 
 6721000    277.35084   -8980.9673   -7923.5794   -8980.9673            0     13719.42    24.791526    24.934613    22.909575    14161.946    13866.449    13670.065    13621.747   -218.89005    1583.6597    1228.7807   -5090.0053 
 6722000    289.50718   -9059.9457   -7956.2123   -9059.9457            0    13398.624    24.843579    24.904419    22.852408    14139.125    13432.212    13696.745    13066.915   -286.75524   -296.57353    458.13585   -5193.3539 
 6723000    284.85947   -9029.1751   -7943.1608   -9029.1751            0     11288.69    24.814523    24.951019    23.021231     14253.54    12506.315    11144.921    10214.833     1019.337    544.94963    455.44671   -5596.5441 
 6724000    290.03429   -8958.5655   -7852.8225   -8958.5655            0    12643.746    24.921164     24.83788    22.919175    14186.714    12254.507    13920.255    11756.476    175.89482    363.92218    72.521653   -5236.8482 
 6725000    276.75542   -9006.5218   -7951.4039   -9006.5218            0    12086.897    24.901705    24.919582    22.886937    14202.262    11956.551    11204.293    13099.848   -3.3200714     169.9658    418.46883   -5447.9002 
 6726000    283.97882   -9002.6298    -7919.973   -9002.6298            0    12740.436    24.926784    24.729909    22.989154    14171.367    11673.353    14489.233    12058.721   -277.66405    1080.2036    703.19603   -5286.8453 
 6727000    290.14168   -9016.9833   -7910.8309   -9016.9833            0    10147.361    25.037657    24.905363    22.945846    14308.385    9765.5121    10467.309    10209.263   -432.89948   -136.06218    55.969139   -5793.3494 
 6728000    290.82389   -9024.9853    -7916.232   -9024.9853            0    9065.0289    25.094289    24.812831    23.054772    14355.292    7720.5448    10192.934    9281.6081   -596.99754   -392.51314    1011.6151   -6018.4028 
 6729000    282.26226   -9028.5692   -7952.4568   -9028.5692            0    10951.135     25.00325    24.882644    22.883967    14237.191    10086.388    12446.228     10320.79    145.89908   -1045.4931    463.29051   -5678.6198 
 6730000    279.90282   -8975.8234   -7908.7062   -8975.8234            0    11031.636    24.944859    24.821495    22.981427     14229.38    11051.709    12030.458     10012.74   -1225.6754    1367.4461   -130.46135   -5619.4111 
 6731000    284.70302   -8965.2988   -7879.8811   -8965.2988            0    11533.162    24.961161    25.014341    22.821244    14249.288    12793.443    9138.4695    12667.575   -1420.6195    -467.3965    1570.7351   -5483.1602 
 6732000    295.57148   -9045.4401   -7918.5868   -9045.4401            0    10470.255    24.818814    24.854559    23.135465    14271.359    11215.383    11051.637    9143.7454    1331.9239   -752.27434    38.379769   -5739.3798 
 6733000    279.12631   -8949.7862   -7885.6294   -8949.7862            0    13304.644    24.871998    24.953513    22.797273    14148.984    13299.913    12360.662    14253.358    18.584055   -636.89666   -656.74563   -5140.2371 
 6734000    295.13017    -9036.785   -7911.6143    -9036.785            0    11779.078    24.864858    24.881677    23.016697    14239.956    11228.857    12537.035    11571.343    492.77274   -370.68047   -622.34508   -5465.3924 
 6735000    281.45257   -9048.5929   -7975.5673   -9048.5929            0    11470.094    24.901133    24.874238    22.932891    14204.557    10517.164    12158.485    11734.633    122.50743    273.64463   -156.41309   -5599.4354 
 6736000    284.19574   -8985.4205   -7901.9368   -8985.4205            0    12974.498    24.841958    24.982135    22.848665        14180    12733.533    12466.993    13722.967    656.00072   -12.385852   -98.144498   -5218.8009 
 6737000    282.21856   -9028.1269   -7952.1811   -9028.1269            0    12157.598    24.764171    24.972405     22.93942    14186.217     10599.09    13574.726    12298.978    1340.3413   -45.696633     267.2069   -5436.8782 
 6738000    282.96827   -8938.2395   -7859.4354   -8938.2395            0    11831.402    24.801532    25.119426     22.84812    14234.384    13236.086    11127.401     11130.72   -425.38408   -741.34515    300.87908   -5403.3086 
 6739000    283.38545   -9002.5567   -7922.1621   -9002.5567            0    10898.687     24.79242    25.000617    23.025294    14271.671    12285.578    10213.148    10197.335    28.363792    688.11271   -1224.2234   -5653.7347 
 6740000    284.61069   -8961.6692   -7876.6034   -8961.6692            0    11887.243    24.834026    24.944005    22.977545    14233.672     12972.79    11020.956    11667.984    511.20536    49.405181   -846.90384   -5409.0078 
 6741000     285.1077   -8988.9573   -7901.9967   -8988.9573            0    11400.449    25.123432    24.837933    22.891877    14284.854    9781.5185    11479.761    12940.067   -420.20372     699.6929    389.72275   -5526.9418 
 6742000    290.24781   -8985.9871   -7879.4301   -8985.9871            0    12346.566    24.983054    24.827832    22.965822    14245.127    11077.822    12431.792    13530.083   -212.82662   -30.400392    417.24784   -5314.4241 
 6743000    287.56126   -9015.7528   -7919.4382   -9015.7528            0    10499.576    25.027568    24.891066     22.91071    14272.521    9932.3771    11250.434    10315.916   -433.61648    666.13461    1075.4555   -5733.9506 
 6744000    282.46668   -9032.5152   -7955.6234   -9032.5152            0    10612.325    24.888099    25.000473    22.918103     14259.97    9972.5908    11504.756    10359.628    441.18153     595.5126    1209.3145   -5748.6095 
 6745000    279.95133   -8977.5245   -7910.2224   -8977.5245            0    11769.843    24.835816    25.021698    22.960205    14268.259    11784.091    10535.958     12989.48   -398.80049    -363.6045     110.8486   -5461.0602 
 6746000    271.14419   -8970.4054   -7936.6801   -8970.4054            0    11867.217    24.755896     24.98818    22.989549    14221.445    12753.041    11897.594    10951.016   -579.75756   -292.53173    795.42056   -5475.3578 
 6747000    287.64003   -8959.9667   -7863.3517   -8959.9667            0    12290.625    24.934489    24.950801    22.874284    14230.904    12668.904    11239.433    12963.539   -336.76337   -475.43357   -450.88951   -5312.5168 
 6748000    282.89144   -9060.5561    -7982.045   -9060.5561            0    10521.851    24.758718    24.876884    23.158028    14263.487     10703.45    11995.201    8866.9011   -728.02139    391.03681   -1105.7531   -5793.3072 
 6749000    267.77986   -9021.5501   -8000.6511   -9021.5501            0    12139.986    24.877341    24.992743    22.805743    14179.539    12349.203     11645.76    12424.996   -322.25569   -125.06574   -1166.7177   -5490.1744 
 6750000    285.30341   -8985.3625   -7897.6557   -8985.3625            0    11668.202    24.832317    25.003318    22.916161    14228.422    12383.723    10370.671    12250.213   -792.92279    290.07641   -34.812483   -5476.4228 
Loop time of 522.985 on 64 procs for 250000 steps with 1920 atoms

Performance: 82.603 ns/day, 0.291 hours/ns, 478.025 timesteps/s
192.8% CPU use with 32 MPI tasks x 2 OpenMP threads

MPI task timing breakdown:
Section |  min time  |  avg time  |  max time  |%varavg| %total
---------------------------------------------------------------
Pair    | 70.135     | 74.27      | 82.854     |  28.1 | 14.20
Bond    | 0.86005    | 1.1406     | 1.7775     |  18.0 |  0.22
Kspace  | 231.69     | 240.81     | 249.48     |  28.9 | 46.05
Neigh   | 5.9422     | 6.6898     | 7.73       |  20.0 |  1.28
Comm    | 80.254     | 91.706     | 99.448     |  49.3 | 17.54
Output  | 0.58766    | 0.58795    | 0.58961    |   0.0 |  0.11
Modify  | 87.273     | 92.844     | 97.46      |  29.0 | 17.75
Other   |            | 14.94      |            |       |  2.86

Nlocal:        60.0000 ave          64 max          56 min
Histogram: 1 0 6 10 0 3 3 5 3 1
Nghost:        3414.81 ave        3444 max        3387 min
Histogram: 2 2 4 2 8 4 4 2 2 2
Neighs:        21354.4 ave       22787 max       20193 min
Histogram: 2 5 5 5 3 2 3 1 2 4

Total # of neighbors = 683341
Ave neighs/atom = 355.90677
Ave special neighs/atom = 2.0000000
Neighbor list builds = 13758
Dangerous builds = 2

unfix		3
unfix		2
unfix		1

write_data	data.final.${pid}
write_data	data.final.0
System init for write_data ...
PPPM initialization ...
  extracting TIP4P info from pair style
  using 12-bit tables for long-range coulomb (../kspace.cpp:340)
  G vector (1/distance) = 0.37454779
  grid = 30 30 30
  stencil order = 5
  estimated absolute RMS force accuracy = 0.0032615869
  estimated relative force accuracy = 9.8221721e-06
  using double precision FFTW3
  3d grid and FFT values/proc = 5400 960
Last active /omp style is kspace_style pppm/tip4p/omp
WARNING: Not all mixed pair coeffs generated from mixing. Use write_data with 'pair ij' option to store all pair coeffs. (../write_data.cpp:312)

write_restart   restart.lmp.${pid}
write_restart   restart.lmp.0
System init for write_restart ...
PPPM initialization ...
  extracting TIP4P info from pair style
  using 12-bit tables for long-range coulomb (../kspace.cpp:340)
  G vector (1/distance) = 0.37454779
  grid = 30 30 30
  stencil order = 5
  estimated absolute RMS force accuracy = 0.0032615869
  estimated relative force accuracy = 9.8221721e-06
  using double precision FFTW3
  3d grid and FFT values/proc = 5400 960
Last active /omp style is kspace_style pppm/tip4p/omp
Total wall time: 0:08:43
