LAMMPS (30 Jul 2021)
  using 1 OpenMP thread(s) per MPI task
package omp 0
using multi-threaded neighbor list subroutines
echo both

include		in.partitions
variable        pid world 0
include		in.temp
variable        temperature equal 249.43
variable	tempDamp equal 100.0
include		in.pressure
variable        pressure equal 7125.0
variable        pressureDamp equal 1000.0 # This is 1 ps
include		in.seed
variable        seed world 745823

units		real
atom_style	full
box tilt large
read_restart	restart.lmp.${pid}
read_restart	restart.lmp.0
Reading restart file ...
  restart file = 30 Jul 2021, LAMMPS = 30 Jul 2021
  restoring atom style full from restart
  triclinic box = (-10.705057 -9.2794442 0.084716650) to (12.685057 12.269442 21.775282) with tilt (-9.2457675 1.8928144 2.7587395)
  4 by 4 by 4 MPI processor grid
  restoring pair style lj/cut/tip4p/long/omp from restart
  restoring bond style harmonic/omp from restart
  restoring angle style harmonic/omp from restart
  1296 atoms
  864 bonds
  432 angles
Finding 1-2 1-3 1-4 neighbors ...
  special bond factors lj:    0        0        0       
  special bond factors coul:  0        0        0       
     2 = max # of 1-2 neighbors
     1 = max # of 1-3 neighbors
     1 = max # of 1-4 neighbors
     2 = max # of special neighbors
  special bonds CPU = 1.249 seconds
  read_restart CPU = 1.461 seconds
include 	in.setup
variable	out_freq equal 1000
variable	out_freq2 equal 10000
variable	out_freq3 equal 1000

timestep	2.0

neigh_modify    delay 7 every 1

include		in.tip4p
# This is TIP4P/Ice

# create groups ###
group ox type 2
432 atoms in group ox
group hy type 1
864 atoms in group hy

# set charges - beside manually ###
set group ox charge -1.1794
Setting atom values ...
  432 settings made for charge
set group hy charge 0.5897
Setting atom values ...
  864 settings made for charge

# ### TIP3P Potential Parameters ###
pair_style lj/cut/tip4p/long/omp 2 1 1 1 0.1577 8.5
pair_coeff 1 1*2 0.000 0.000
pair_coeff 2 2 0.21084 3.1668
bond_style  harmonic
bond_coeff  1 450 0.9572
angle_style harmonic
angle_coeff 1 55 104.52
kspace_style pppm/tip4p/omp 1.0e-5
pair_modify tail yes

thermo          ${out_freq}
thermo          1000
thermo_style    custom step temp pe etotal epair emol press lx ly lz vol pxx pyy pzz pxy pxz pyz enthalpy

restart 	${out_freq3} restart.lmp.${pid} restart2.lmp.${pid}
restart 	1000 restart.lmp.${pid} restart2.lmp.${pid}
restart 	1000 restart.lmp.0 restart2.lmp.${pid}
restart 	1000 restart.lmp.0 restart2.lmp.0


include         in.dump
dump            myDump all atom ${out_freq2} dump.water.${pid}
dump            myDump all atom 10000 dump.water.${pid}
dump            myDump all atom 10000 dump.water.0
dump            myDump2 all dcd ${out_freq2} dump.dcd
dump            myDump2 all dcd 10000 dump.dcd
dump_modify     myDump append yes
dump_modify     myDump2 append yes


variable natoms 	equal  "count(all)"                        # NUMBER ATOMS
variable H      	equal  "enthalpy/v_natoms"                 # ENTHALPY-per-atom
variable Vol      	equal  "vol/v_natoms"                 # volume-per-atom
fix AVG all 		ave/time ${out_freq} 1 ${out_freq} v_Vol v_H file vol_enthalpy.dat
fix AVG all 		ave/time 1000 1 ${out_freq} v_Vol v_H file vol_enthalpy.dat
fix AVG all 		ave/time 1000 1 1000 v_Vol v_H file vol_enthalpy.dat


timer           timeout 10:00:00 every 1000
New timer settings: style=normal  mode=nosync  timeout=10:00:00

fix 		1 all shake 1e-6 200 0 b 1 a 1
       0 = # of size 2 clusters
       0 = # of size 3 clusters
       0 = # of size 4 clusters
     432 = # of frozen angles
  find clusters CPU = 0.060 seconds
fix             2 all nph tri ${pressure} ${pressure} ${pressureDamp}
fix             2 all nph tri 7125 ${pressure} ${pressureDamp}
fix             2 all nph tri 7125 7125 ${pressureDamp}
fix             2 all nph tri 7125 7125 1000
fix             3 all temp/csvr ${temperature} ${temperature} ${tempDamp} ${seed}
fix             3 all temp/csvr 249.43 ${temperature} ${tempDamp} ${seed}
fix             3 all temp/csvr 249.43 249.43 ${tempDamp} ${seed}
fix             3 all temp/csvr 249.43 249.43 100 ${seed}
fix             3 all temp/csvr 249.43 249.43 100 745823


run             250000
PPPM initialization ...
  extracting TIP4P info from pair style
  using 12-bit tables for long-range coulomb (../kspace.cpp:340)
  G vector (1/distance) = 0.3683432
  grid = 27 40 32
  stencil order = 5
  estimated absolute RMS force accuracy = 0.0042665895
  estimated relative force accuracy = 1.2848708e-05
  using double precision FFTW3
  3d grid and FFT values/proc = 4845 560
Last active /omp style is kspace_style pppm/tip4p/omp
Neighbor list info ...
  update every 1 steps, delay 7 steps, check yes
  max neighbors/atom: 2000, page size: 100000
  master list distance cutoff = 10.8154
  ghost atom cutoff = 10.8154
  binsize = 5.4077, bins = 7 5 5
  1 neighbor lists, perpetual/occasional/extra = 1 0 0
  (1) pair lj/cut/tip4p/long/omp, perpetual
      attributes: half, newton on, omp
      pair build: half/bin/newton/tri/omp
      stencil: half/bin/3d/tri
      bin: standard
Per MPI rank memory allocation (min/avg/max) = 9.400 | 9.411 | 9.422 Mbytes
Step Temp PotEng TotEng E_pair E_mol Press Lx Ly Lz Volume Pxx Pyy Pzz Pxy Pxz Pyz Enthalpy 
24750000    252.14847   -6301.9028   -5653.2662   -6301.9028            0    5877.7539    23.390114    21.548886    21.690566    10932.716    6339.1829    4855.4706     6438.608   -535.06339   -333.63548    1604.7504   -4716.1027 
24751000    249.22814   -6340.0558   -5698.9316   -6340.0558            0    4932.1224     23.32087    21.527568    21.757898     10923.37    5201.9229      4739.07    4855.3743   -721.26851   -426.09928   -84.281221   -4913.2142 
24752000     243.3736    -6322.504   -5696.4403    -6322.504            0    6330.0686    23.362497     21.51286    21.653243    10882.793    6532.0876    6772.4619    5685.6562   -1704.5563    -193.5496   -365.26373   -4691.7674 
24753000    253.24075   -6341.7222   -5690.2758   -6341.7222            0    7119.7989    23.173751    21.540586    21.650859    10807.593    8424.5044    6239.1468    6695.7455   -544.87983    265.86054   -502.51183   -4568.0697 
24754000    253.33825   -6379.3809   -5727.6837   -6379.3809            0    6783.8363    23.328862    21.307543    21.749963    10811.487    6982.7625    7344.5654    6024.1811     621.2587    956.77811    317.62733    -4658.046 
24755000    246.94463   -6332.3902   -5697.1402   -6332.3902            0    7070.5939    23.374849    21.338794    21.663774    10805.698    6344.0125    7372.4544    7495.3147    1367.6178    257.17848   -210.45783   -4582.8852 
24756000    251.94756   -6322.6756   -5674.5559   -6322.6756            0    6932.9566    23.214927     21.57055    21.645145    10838.996    7114.8965    6849.4678    6834.5054    1355.2782    -462.1505   -385.40919   -4578.6243 
24757000    240.46376    -6324.572   -5705.9936    -6324.572            0    6589.1119    23.540365    21.313048    21.606054    10840.123    5030.5186      7585.31     7151.507    226.63521    786.40527   -28.880442   -4664.3072 
24758000    257.94337   -6348.5742   -5685.0306   -6348.5742            0     6566.287    23.359755    21.420922    21.666359    10841.575    6193.0496     6301.007    7204.8044   -1799.6282    1650.5941   -955.20063   -4646.8136 
24759000    251.20983    -6299.611   -5653.3891    -6299.611            0    7118.3733    23.176233    21.478209    21.788521    10845.977    7923.2277    7034.0996    6397.7926   -583.97229   -344.09068    -749.9171   -4527.4229 
24760000    249.28215   -6320.5666   -5679.3034   -6320.5666            0     7619.429    23.389278    21.278621    21.713706    10806.729    7683.5293    7290.4475    7884.3103   -484.29604     -22.2371    216.72184   -4478.4429 
24761000    250.43712   -6343.4735   -5699.2392   -6343.4735            0    7695.9258     23.26464    21.525638    21.595708    10814.833    8362.9408    6348.3047    8376.5318   -1012.4281   -506.83002    487.60303   -4485.4128 
24762000     246.6171   -6287.1433   -5652.7359   -6287.1433            0    6810.6384    23.471826    21.519581    21.473161    10846.176     7036.172    5227.0561    8168.6869   -365.11173    -278.1214    568.70785   -4575.4267 
24763000    246.32134   -6301.0479   -5667.4013   -6301.0479            0    7539.1971    23.381512    21.382602    21.634206    10816.185    7962.3283    7931.9097    6723.3532   -1078.7928   -536.95629    -986.1188    -4478.146 
24764000    240.56702   -6340.4371   -5721.5931   -6340.4371            0    7611.5016    23.196432    21.436529    21.713325    10796.972    7263.0483    7664.7176    7906.7389    1347.5931    34.003437   -263.71745   -4523.0651 
24765000    253.88653   -6333.5219   -5680.4143   -6333.5219            0    7831.7827    23.270864    21.364241    21.690443    10783.715    8293.4758    7462.3929    7739.4793    1565.9854   -1460.7487    1424.3289   -4448.7144 
24766000    257.53233   -6358.9376   -5696.4514   -6358.9376            0    6371.5188    23.332393    21.490198     21.65042    10855.904    7176.6951     5283.451    6654.4103   -572.59165   -1833.9506   -845.78321   -4687.6983 
24767000    258.16289   -6342.3769   -5678.2685   -6342.3769            0    8274.7661    23.313074    21.501971    21.400952    10727.806    9223.8184    6963.2865    8637.1933    188.21267   -1847.8351    141.40636    -4383.648 
24768000     243.9014   -6351.7812   -5724.3597   -6351.7812            0    6891.1604    23.339961     21.45674    21.578484    10806.493    6148.7605    7967.9571    6556.7635    -483.4462    516.28291   -206.59427   -4638.3016 
24769000    251.47226   -6345.2054   -5698.3083   -6345.2054            0    7556.6478    23.174665    21.386149    21.754704    10781.998    7088.5739    8188.0292    7393.3404    722.51372    49.770901    828.88947    -4510.068 
24770000     248.3482   -6342.7072   -5703.8466   -6342.7072            0     8938.407    23.172442    21.375412    21.684318    10740.688    10025.679    8680.3794    8109.1627    405.87513   -641.45224   -4.2256469   -4303.7175 
24771000    251.11739   -6365.0655   -5719.0813   -6365.0655            0    7738.2427    23.510172    21.370877    21.440841    10772.586    7991.2327    7262.2206    7961.2749   -1047.2801     84.34165    33.275723   -4503.3483 
24772000    255.54303    -6336.163   -5678.7941    -6336.163            0    7116.0841    23.418859    21.580544    21.384321    10807.459    6490.5659    7326.4003     7531.286    373.64166   -525.68794   -285.48077   -4557.1875 
24773000     245.3578   -6334.3513   -5703.1833   -6334.3513            0    7652.4033    23.296916    21.368411    21.710753    10808.005    7029.1842    8167.3794    7760.6462    45.136772    181.67518    467.53428   -4496.9835 
24774000    269.75074   -6317.0484    -5623.131   -6317.0484            0    6022.9713    23.169625    21.530117     21.81466    10882.128    6726.6241    5444.8903    5897.3993   -231.58473    881.76845    594.39855   -4667.2573 
24775000    261.51335   -6333.6305   -5660.9033   -6333.6305            0    5753.9388    23.469843    21.456773    21.631079    10893.132     6334.291    5964.5765     4962.949    982.77754   -1416.9899   -1114.4012   -4746.8029 
24776000     246.9435   -6291.2375   -5655.9904   -6291.2375            0    6064.4873    23.498799    21.562653    21.450187    10868.733    6344.3408    4624.0014    7225.1197   -978.26408   -736.59835    -87.26422   -4694.7126 
24777000    253.42777   -6331.3087   -5679.3812   -6331.3087            0    6683.4136    23.295561    21.605529    21.538524    10840.618    7362.8244     5041.142    7646.2743    40.652939   -507.01366   -469.85773   -4622.7383 
24778000    238.62395   -6343.7289   -5729.8833   -6343.7289            0    6302.6169    23.403545    21.254578    21.838047    10862.954    5301.1165    7555.0796    6051.6546    1301.8369   -575.36158   -1078.1106    -4731.391 
24779000    239.65337   -6330.4097    -5713.916   -6330.4097            0    5686.8634    23.226313    21.451329    21.791659    10857.374    5102.6406     6030.363    5927.5866    789.63333    220.88114    855.69302   -4813.4372 
24780000    258.97401   -6319.9738   -5653.7789   -6319.9738            0    5709.5955     23.45239    21.495181    21.577299    10877.404    4239.8982    6145.3332    6743.5551    637.20977    390.79244    706.68834   -4748.0327 
24781000    255.69878   -6326.5492   -5668.7797   -6326.5492            0    5622.9735    23.373141    21.544573    21.682292    10918.429    7151.0595    4076.5455    5641.3154   -83.841988   -1282.0005   -563.74108   -4773.4107 
24782000    257.78656   -6340.1798   -5677.0396   -6340.1798            0    5474.5297     23.39635    21.520018    21.673383    10912.329     5666.844    5712.2384    5044.5068   -834.95973    329.10005   -1411.0726   -4805.7949 
24783000    243.38558   -6315.6022   -5689.5076   -6315.6022            0     7270.543    23.295417    21.390101    21.633614    10779.842    6217.6465    7247.3464    8346.6361   -200.06958    2374.1737   -715.12495   -4546.4842 
24784000    248.41028     -6344.64   -5705.6197     -6344.64            0    7427.9985    23.364918    21.155261    21.841849    10796.228    6397.7315    10136.448    5749.8156    601.22379    963.39699   -1425.5435   -4536.0672 
24785000    251.63497   -6369.9671   -5722.6515   -6369.9671            0    6997.5219    23.240505    21.432652    21.718236    10817.976    7067.3336    7942.3382    5982.8939    532.43385   -608.51517   -716.67825   -4618.6588 
24786000    246.43256   -6347.1009   -5713.1682   -6347.1009            0    6270.4795    23.377611    21.551971    21.523462    10844.243    5707.5674    5535.4901    7568.3811   -533.36772    795.38067   -293.64952   -4721.4782 
24787000     242.5335   -6311.2495   -5687.3468   -6311.2495            0    6603.9872    23.484167    21.314834    21.708436    10866.399    7284.0371      6405.24    6122.6844   -620.26449    189.89437   -37.550997    -4640.778 
24788000    238.81774   -6303.7345   -5689.3905   -6303.7345            0    7397.1291    23.151161    21.583077    21.662674     10824.26    7859.2822    6171.4432    8160.6617   -1004.2571    512.96533    1323.4473   -4521.6743 
24789000    253.14878   -6340.5971   -5689.3873   -6340.5971            0    5557.7028    23.326323    21.309833    21.856939    10864.649    6494.2973    5041.4149    5137.3962   -1670.4485    1164.3742    1494.4847   -4808.7706 
24790000    251.89903   -6358.1296   -5710.1347   -6358.1296            0    6341.0699    23.511123    21.316636    21.598752    10824.821    5678.4924    6801.8861    6542.8312    421.41168    71.503394   -303.76733   -4709.0769 
24791000    241.38672    -6334.407   -5713.4544    -6334.407            0    6512.6828    23.121316    21.638963    21.688678    10851.308    5790.2743    7220.0202    6527.7538    516.02973    1941.6935   -635.17802   -4682.7885 
24792000    246.68822   -6334.2345    -5699.644   -6334.2345            0    6896.1931    23.488505    21.252412    21.686516    10825.635    7240.9712    7644.1673    5803.4408   -1780.5182    551.08283   -88.404109   -4610.8677 
24793000    252.35742   -6330.6469   -5681.4729   -6330.6469            0     7632.961    23.248357    21.403915    21.746346    10821.109    7901.7958     8280.904    6716.1831   -58.520435    885.40876    635.60643   -4476.8789 
24794000     254.2167   -6336.5562   -5682.5992   -6336.5562            0    7381.9597    23.174189    21.500548    21.646953    10785.762    7826.7505    7353.7981    6965.3305   -182.49036    719.51949    821.64562   -4521.4223 
24795000    226.55771   -6345.8464   -5763.0405   -6345.8464            0    7355.0214    23.401474    21.346494    21.606755    10793.426    6580.2578    7852.3443    7632.4622    -785.8842    615.90106    1033.3587   -4605.2788 
24796000    244.49032   -6305.5256   -5676.5892   -6305.5256            0    8385.1572     23.25912    21.509683    21.563048    10787.913    9486.0936    7024.0338     8645.344   -1311.7808   -736.61832   -646.09791    -4357.347 
24797000    246.33119   -6349.6178   -5715.9458   -6349.6178            0    6038.7261    23.455932    21.337098    21.642267    10831.555    6054.2423    6011.2324    6050.7038    14.396136    366.38581   -379.85512   -4762.0256 
24798000    253.24605   -6328.5696   -5677.1096   -6328.5696            0    6633.1045    23.147458     21.38252    21.874616    10826.863     6826.614    7585.9725     5486.727    410.05821     110.3635    276.38838   -4629.7511 
24799000    255.29957   -6321.6203   -5664.8777   -6321.6203            0    7917.0106    23.287012    21.382316     21.66305    10786.688    8309.5193    8422.8941    7018.6184    984.25673    541.01199    165.87305   -4419.4308 
24800000    245.50224    -6315.785   -5684.2454    -6315.785            0    8471.9813    23.412217     21.27926    21.590277     10756.16    8515.3215    8937.8016    7962.8207    147.55633    565.40512   -225.37217   -4355.2663 
24801000    264.34301   -6345.6771   -5665.6708   -6345.6771            0     6794.168    23.286581    21.405998    21.736009    10834.803    7119.1896    6904.4587    6358.8557   -458.88524    755.62712   -1250.2357   -4592.0938 
24802000    241.87964   -6338.6015   -5716.3808   -6338.6015            0    7659.2595    23.435977    21.345517     21.56177    10786.341    7002.0911    7912.0196    8063.6678    115.10189     700.0336   -1199.9445   -4511.5202 
24803000    248.43169   -6351.3994   -5712.3241   -6351.3994            0    7735.6222    23.302907    21.369275    21.653669    10782.796    7122.6592    8479.7364    7604.4711    7.5871775    1294.8401   -199.06045   -4495.8509 
24804000    247.48479   -6318.2212   -5681.5816   -6318.2212            0    6710.8524    23.339923    21.410855    21.707128    10847.653    6769.8916    6628.9793    6733.6863    125.44104    344.15229    346.01321    -4619.912 
24805000    251.25009   -6323.6102   -5677.2847   -6323.6102            0    6987.7354    23.435255    21.253457    21.720139    10818.371    6337.0263    7925.0126    6701.1674    165.56732   -373.44643    626.70568   -4574.7959 
24806000      258.284   -6322.0435   -5657.6237   -6322.0435            0    5558.2261    23.376412    21.519835    21.600511    10866.278    6233.7075    4924.5511    5516.4196   -680.12554   -1462.4384   -1147.9912    -4776.792 
24807000    245.85506   -6320.0132   -5687.5661   -6320.0132            0    6802.6131    23.323896    21.530605    21.530226    10811.997    7168.8694    7186.9981    6051.9718    -490.3143   -347.07459   -1584.9573   -4614.9172 
24808000    252.32431   -6343.9842   -5694.8953   -6343.9842            0    7821.8853    23.302015    21.439162    21.581525    10781.605    7100.0007    7522.3132     8843.342   -675.57938   -440.03251    1163.2046   -4464.9926 
24809000    249.33559    -6318.753   -5677.3524    -6318.753            0     9161.005    23.172714    21.430109    21.617107    10734.921    9992.9787    8422.3381    9067.6982    689.52422   -1749.1687    338.87437   -4243.1256 
24810000    245.26526   -6354.9438   -5724.0139   -6354.9438            0    7814.6261    23.276376    21.437735    21.554968    10755.774    7959.5928    8285.2909    7198.9945   -134.56963    99.514264   -1758.9041   -4498.1965 
24811000    253.93343   -6349.1667   -5695.9385   -6349.1667            0    7175.0225    23.525964     21.16528    21.686382    10798.378    6481.3866    7771.5391    7272.1418     642.1953   -477.22909   -209.17091   -4565.9924 
24812000    257.90521    -6336.587   -5673.1416    -6336.587            0    6893.0217     23.24581    21.400383     21.73549    10812.738    7184.0057    7022.8821    6472.1773    26.720797    -250.1143    316.23753   -4586.1625 
24813000    254.50077   -6299.1034   -5644.4156   -6299.1034            0    6755.9175    23.301126    21.409433    21.744661    10847.627    7318.1118    6572.1813    6377.4595    201.76996   -699.97554      167.929   -4575.6193 
24814000    244.89893    -6320.628   -5690.6404    -6320.628            0    7550.3169    23.559091     21.41633    21.349395    10771.821     6312.365    8206.7399    8131.8457   -752.05122    213.63681   -992.89034   -4504.5161 
24815000    243.42196   -6364.5471   -5738.3589   -6364.5471            0    7326.7397    23.162961    21.592051    21.559883     10782.87    7446.1729    6406.0539    8127.9924    842.37217   -1433.4476   -566.83636   -4586.1771 
24816000    255.98201    -6314.793   -5656.2949    -6314.793            0    7865.1099    23.478154    21.186574    21.735541    10811.729    7660.9483    9538.5999    6395.7813   -1627.6899   -356.95534   -219.92813   -4416.1403 
24817000    238.08587   -6347.5335   -5735.0721   -6347.5335            0    6745.1772    23.235122    21.487854    21.653742    10811.127    8255.2066    6124.0817    5856.2435   -15.485944    62.584327   -1242.0377   -4671.5654 
24818000    248.75844   -6362.9378   -5723.0219   -6362.9378            0    5339.6461    23.350526    21.481597    21.619714    10844.591    6318.0735    3521.8351    6179.0296    55.905537    405.22117   -179.75748   -4878.5182 
24819000    244.08269   -6376.2265   -5748.3387   -6376.2265            0    6069.4041    23.469715    21.263742    21.682492    10820.734    4873.7349    7187.2574    6147.2199    -574.4394     1023.272   -985.08065   -4790.5303 
24820000    251.57618   -6346.0219   -5698.8575   -6346.0219            0    7750.5033     23.13121    21.648835    21.487523    10760.172    7689.8787    6798.9728    8762.6585   -425.68867    433.84529   -900.58523   -4482.6014 
24821000    239.26398   -6304.8325   -5689.3405   -6304.8325            0    5940.8206    23.503424    21.314383    21.712985    10877.358    5881.4526    6229.4954    5711.5137   -1312.8982    -850.1266   -399.02691   -4746.9178 
24822000    267.76942   -6319.7289   -5630.9084   -6319.7289            0      6659.93    23.220145    21.665358    21.538922    10835.644    7791.4438    4676.1778    7512.1684    624.00017   -1275.6302    486.63543   -4578.4612 
24823000    244.87051   -6353.5635    -5723.649   -6353.5635            0    6807.3478    23.309334    21.535192    21.545915    10815.424    5705.7946     7207.525     7508.724   -254.24525    613.14546   -340.41415   -4649.9134 
24824000    256.34686   -6351.6426    -5692.206   -6351.6426            0    8839.2979    23.337254    21.235357    21.694111    10751.057    9054.1417    8296.6519    9167.1001   -1409.9893   -945.37506    92.860148   -4306.2647 
24825000     246.3229   -6316.0877    -5682.437   -6316.0877            0     9051.558     23.02106    21.621783    21.541497    10722.417    11126.094    7060.0914    8968.4888    170.99276   -1216.8808     251.9757   -4266.9955 
24826000    255.62728   -6351.2342   -5693.6486   -6351.2342            0    7077.3733    23.362446    21.326572    21.589021    10756.533    6696.0796    7547.5466    6988.4936    302.03134   -224.94607     1201.544   -4583.3998 
24827000    245.34802   -6341.9373   -5710.7945   -6341.9373            0     8465.412    23.384521    21.309598    21.572246    10749.768    7656.9109    7024.3977    10714.927     1538.501    357.08738    2323.2871    -4383.635 
24828000    254.06079   -6309.7177   -5656.1618   -6309.7177            0    6223.5242    23.245286    21.587495    21.667301    10872.814    5810.5194    7303.5746    5556.4785    909.90418   -268.76661   -2062.2389   -4669.3048 
24829000    233.99514   -6320.3877   -5718.4495   -6320.3877            0    7792.3037    23.373507    21.251644    21.726292    10792.002    5349.4105    10108.738    7918.7629    698.26065      576.165   -656.56835   -4492.0166 
24830000    245.97214    -6292.568   -5659.8196    -6292.568            0    7034.0421    23.311346    21.450866    21.627254    10814.678    7257.3355    7463.6435    6381.1475    1628.9849     255.6769   -500.76522   -4550.4036 
24831000    253.73799   -6367.9838   -5715.2583   -6367.9838            0    7098.2732    23.203211    21.545315    21.608878    10802.721    7985.4313    5732.9889    7576.3993   -1113.9965    1178.4005   -241.94541   -4596.9494 
24832000    244.12151   -6345.0428   -5717.0551   -6345.0428            0    7747.4622    23.415905     21.25436    21.742543    10821.048    6921.3041    8400.5316    7920.5508   -539.19676    674.85307    19.746011   -4494.3981 
24833000    250.08722    -6341.784   -5698.4499    -6341.784            0    7015.5041    23.135804    21.613684    21.648585    10825.374    8244.6029    6644.8225    6157.0868   -552.81364    416.37653   -325.32637   -4590.8633 
24834000    262.56056   -6313.2023   -5637.7812   -6313.2023            0    6053.3965    23.480845    21.514256    21.443471    10832.661    4468.6607    5432.5426     8258.986   -377.57968     297.7263    610.90542    -4681.446 
24835000    250.39624   -6346.5059   -5702.3768   -6346.5059            0    7553.5974    23.393802    21.340615    21.596482    10781.787    7295.6211     7563.573     7801.598    362.18309   -1176.7065   -283.73422   -4514.6393 
24836000    249.36403   -6352.5898    -5711.116   -6352.5898            0    6350.5328    23.151083    21.581265    21.645165    10814.566    7183.4133    4389.4299    7478.7551    1415.3751   -223.54471    159.81933   -4709.5141 
24837000    252.55847   -6370.3995   -5720.7083   -6370.3995            0    6968.1057    23.565891    21.112444    21.670619     10781.86    5476.1673    7699.8285    7728.3212    434.14944    531.75232    283.50826   -4625.0268 
24838000    248.52171   -6323.8628   -5684.5558   -6323.8628            0    6578.6821    23.170478    21.485796    21.730538    10818.247    7407.2896    7029.4968    5299.2598    -336.2849    1459.0744   -192.34189   -4646.6172 
24839000    244.81245   -6371.8279   -5742.0627   -6371.8279            0    7699.6454    23.275881    21.275978    21.681984     10737.29    7123.3311    8896.4805    7079.1247    172.00261    416.86854   -665.31922   -4536.3571 
24840000    242.70546   -6325.1422   -5700.7971   -6325.1422            0    8105.2998    23.407626    21.474031    21.373049    10743.294     6998.227     9102.835    8214.8373    985.69789   -1047.3705    -1057.758   -4430.8594 
24841000     242.8538   -6347.1341   -5722.4075   -6347.1341            0    7875.7698    23.183529    21.452496    21.623601    10754.381    7384.8759    7883.6913    8358.7421    311.12635    -263.3521   -1428.5035   -4487.1591 
24842000    257.69153   -6349.2464   -5686.3506   -6349.2464            0    7705.4902    23.507165    21.083358     21.75938    10784.165    6228.8367    9483.3309    7404.3029      712.371   -654.10268   -525.44549    -4474.462 
24843000     247.0566    -6328.617    -5693.079    -6328.617            0    7301.1241    23.230479    21.589272    21.484237    10774.971    7771.9233    6076.2862    8055.1627    1000.2239     429.8851    450.87518   -4545.7665 
24844000    247.99274   -6323.0548   -5685.1086   -6323.0548            0    6425.2499    23.302377    21.350719    21.773755    10832.933    5759.2342    6850.5796     6665.936   -91.280762   -552.47278    463.72985   -4670.0012 
24845000    240.80173   -6360.7356   -5741.2878   -6360.7356            0    7251.0962      23.2211    21.293951    21.804211    10781.506    8492.5448     7876.182    5384.5617    -376.3165   -330.58728   -127.37858   -4601.1457 
24846000    250.31954   -6306.1924   -5662.2607   -6306.1924            0    8073.6089    23.232465     21.54926    21.519812    10773.731    8138.4463    8477.7326    7604.6476    628.97238    178.43743   -186.92589   -4393.7044 
24847000    239.98453   -6314.3076   -5696.9621   -6314.3076            0    7261.2725    23.505627    21.372874    21.454891    10778.568    6051.6593    8376.5026    7355.6558     627.9938    263.75398    279.41514    -4555.531 
24848000    241.32284   -6359.3626   -5738.5743   -6359.3626            0    7275.1894    23.250958    21.464262     21.60224    10780.914    7790.4303    6609.8909    7425.2469    822.95595    422.99841    -1332.289   -4594.7067 
24849000     251.9828   -6337.3312   -5689.1208   -6337.3312            0    7051.9915     23.22803     21.44797     21.70203    10811.823    7732.0713    6574.1838    6849.7195    1313.9874    160.07294    181.94565   -4577.1673 
24850000    250.16495   -6358.6476   -5715.1135   -6358.6476            0    8061.2027    23.541775    21.213244    21.576396    10775.196    6225.4857    8703.1099    9255.0125    304.05668    1688.3327    505.95718   -4448.3343 
24851000     243.7439   -6350.3572   -5723.3409   -6350.3572            0     6997.705     23.11251    21.666484    21.559739    10796.402    7195.0338    7068.8675    6729.2136    385.94159   -633.94144   -106.29557   -4621.5211 
24852000    252.01758   -6346.5411   -5698.2412   -6346.5411            0    5797.4332    23.430595    21.156982     21.92993    10871.119    6446.2636    6036.6651    4909.3711   -876.67974    220.48868   -376.92035   -4779.0923 
24853000    255.00763   -6324.9654   -5668.9738   -6324.9654            0     6095.456    23.368511     21.49775    21.610673    10856.562    5977.5998    5033.5309    7275.2373   -54.482674     679.9734    676.61928   -4703.8691 
24854000    251.53184   -6333.2541   -5686.2037   -6333.2541            0    5134.8939    23.346741    21.530136    21.610231    10862.567    3990.9455     5416.173    5997.5632    533.30848    1558.1114   -1133.5816    -4872.737 
24855000    250.88042   -6329.2342   -5683.8596   -6329.2342            0    5874.9209    23.464828    21.161164    21.953771    10900.993    5325.7938    7989.2989    4309.6699    556.04466    561.65829    -325.7233   -4749.8658 
24856000    246.40793   -6345.9539   -5712.0845   -6345.9539            0    7434.9188    23.134488    21.664578     21.48355    10767.532    7639.6514     6197.565    8467.5401   -1225.8119    158.97378     137.0519   -4544.5539 
24857000    256.65451   -6363.1465   -5702.9185   -6363.1465            0    6529.2201    23.348343    21.385869     21.57801    10774.431    5837.6274    6391.6017    7358.4312   -647.07066    591.02747   -429.56459   -4676.9558 
24858000    248.62345    -6342.659   -5703.0904    -6342.659            0    7433.6958    23.278074    21.402194     21.67411    10798.082    7236.4826     8552.193    6512.4119   -950.33891    77.721447    570.26844   -4532.4398 
24859000     239.6946   -6330.7155   -5714.1157   -6330.7155            0    6649.6139    23.057644    21.597305    21.774845    10843.503    5797.2279    7358.1767    6793.4372    688.62516    1875.4843    537.50119   -4662.5367 
24860000    242.85101   -6333.4648   -5708.7454   -6333.4648            0    4773.1649    23.660721    21.262603    21.597265    10865.336    3783.0888    4576.1762    5960.2296    309.00141   -355.46284    -750.7741   -4952.3907 
24861000    237.22146   -6300.0848    -5689.847   -6300.0848            0    5647.6021    23.333875    21.460971     21.72782    10880.589    5619.5815    6446.5842    4876.6406   -725.11534    753.33867   -1211.4958   -4793.6729 
24862000    242.49082   -6323.2942   -5699.5013   -6323.2942            0    6306.4569    23.430577    21.408224    21.683815    10876.754    7798.6211    5593.8045    5526.9451   -1218.7869   -767.60232    -331.6989   -4699.1314 
24863000     249.4924   -6335.1971   -5693.3931   -6335.1971            0    7180.2399    23.343803    21.349886    21.738515    10834.205      6499.62    7865.9609    7175.1387   -1204.6668    1777.7956   -313.04918   -4558.8738 
24864000    251.37058   -6325.3833   -5678.7478   -6325.3833            0    6196.8578    23.370228     21.41251    21.603725    10810.833    7003.4375    5483.3346    6103.8014   -402.28064   -544.19388    1359.8916   -4701.7207 
24865000    250.61749   -6328.0377   -5683.3394   -6328.0377            0    6731.5995    23.304476    21.423892    21.757978    10863.161    6265.5066    7996.4971    5932.7948    642.79744    711.89155    -225.4669   -4616.8652 
24866000    238.96713   -6348.0833   -5733.3549   -6348.0833            0    6572.6354    23.242864    21.500557    21.620428    10804.474    6172.3153    6395.2058    7150.3851   -168.60078   -937.34932    209.89075   -4697.6905 
24867000    242.53106   -6379.3639   -5755.4675   -6379.3639            0    7378.0756    23.313112    21.530222    21.463553     10773.34    7008.7773    7035.3522    8090.0972   -1647.6112    34.266621   -710.63444   -4596.2382 
24868000    249.41777   -6361.9286   -5720.3166   -6361.9286            0    8070.1408    23.320384    21.319022     21.65335    10765.348    8097.0774    8542.7564    7570.5886   -280.97123    725.25099   -105.69696   -4453.2919 
24869000    258.97666   -6372.8704   -5706.6687   -6372.8704            0    7637.9896    23.190129    21.331952    21.733223    10751.224     8074.627    7880.9971    6958.3447    1436.1003    -515.0764   -713.55258   -4509.0658 
24870000    250.77454   -6338.0117   -5692.9095   -6338.0117            0    7980.4993    23.421935    21.294885     21.58262    10764.707    6487.6175    8305.6821    9148.1983    641.77177    902.95025    864.72432   -4440.0332 
24871000    257.47266   -6367.7116   -5705.3788   -6367.7116            0    6025.8851    23.368598    21.442112    21.622053    10834.207     5246.566    6592.5341    6238.5553    50.299931    1378.2984     433.0827   -4753.2541 
24872000    252.35829   -6306.7757   -5657.5993   -6306.7757            0    6761.9967    23.205747    21.495204    21.759863    10854.086    7716.4421    6668.3397    5901.2084    -167.9702   -730.51631   -816.29022   -4587.2042 
24873000    243.50247   -6347.1527   -5720.7575   -6347.1527            0    5411.0772    23.686584     21.29306    21.595767    10892.038    2831.1647    6783.8534    6618.2135   -41.500617    314.18319   -346.42583   -4861.2122 
24874000    250.06382   -6328.0344   -5684.7604   -6328.0344            0    6379.8084    23.127875    21.617866    21.713412     10856.17    6341.2587    6252.0691    6546.0975    407.19342    1476.5928   -27.087261   -4674.6702 
24875000    256.93437   -6336.6026   -5675.6546   -6336.6026            0    6693.8153    23.360394    21.389382    21.739921    10862.664    7462.1713    6122.7124    6496.5622   -475.37958    705.64304    143.43172   -4615.2149 
24876000    259.88055   -6365.0508    -5696.524   -6365.0508            0    6851.7893    23.434396    21.361783    21.558037    10791.964    5641.0081    6954.8784    7959.4814    445.95165   -259.62196    634.13644   -4618.1227 
24877000    249.69861    -6339.292   -5696.9575    -6339.292            0    7615.8159    23.099072    21.524335    21.725564     10801.78     8502.529    8190.5269    6154.3919     84.80655    634.51821   -559.72009   -4497.2161 
24878000    254.54522   -6351.0685   -5696.2665   -6351.0685            0    7370.1113    23.445134      21.1081    21.751408    10764.385    7411.7972     8216.324    6482.2128   -10.743291    9.1537842    366.88154    -4539.251 
24879000    255.66858   -6312.6268    -5654.935   -6312.6268            0     7023.845    23.249751    21.585956    21.533039    10806.745    6355.1594    6553.9723    8162.4032    132.57942    -360.5344    751.30382   -4547.9398 
24880000    239.59148   -6352.6874   -5736.3529   -6352.6874            0    7842.4265    23.452497    21.271976    21.583884    10767.788    6655.1598    9212.8635    7659.2561    1100.3983    50.192844    477.89403   -4504.8006 
24881000    247.07136   -6367.8009   -5732.2249   -6367.8009            0    6873.2484    23.152495    21.487722    21.705542    10798.385    7733.3824    7408.6492    5477.7135   -34.160258   -562.88138   -1591.4478   -4649.8026 
24882000    253.23917   -6316.6514   -5665.2091   -6316.6514            0    6526.9753    23.243782     21.42618    21.774271    10844.141    7239.4241    6555.9914    5785.5103    366.49845     221.0471    10.263038   -4632.9635 
24883000    249.77519   -6327.6694   -5685.1379   -6327.6694            0    5891.6873    23.468739    21.386509    21.656846    10869.883    5606.1208    5109.9733    6958.9678    132.84956    1305.6924     788.2315   -4751.1518 
24884000    237.40444   -6349.4539   -5738.7455   -6349.4539            0    6080.2657    23.378124    21.526624    21.540101      10840.1    6124.5627    5805.3323    6310.9021    45.340571    1135.5443    113.01984   -4777.5056 
24885000    251.11324   -6382.2007   -5736.2271   -6382.2007            0    7817.4632    23.346513    21.330757    21.640664    10777.024    9273.3941    7279.9461    6899.0493    134.35907   -1176.0322   -199.87705    -4507.542 
24886000    259.91997   -6336.2633    -5667.635   -6336.2633            0    7260.5531    23.321136    21.304966    21.718762    10791.098    7257.6694    7317.5239     7206.466    -970.5854    1210.9767   -526.57185   -4524.9903 
24887000    252.02964    -6358.924   -5710.5931    -6358.924            0    6226.2751    23.247008    21.539759    21.538057    10784.858    6485.1977    5337.0817     6856.546    125.85129    338.00128    854.57915   -4731.2866 
24888000    241.53604   -6342.8836   -5721.5469   -6342.8836            0    7647.7933    23.514526    21.186896    21.568974    10745.659    6990.3507    8523.1248    7429.9043    766.91631   -224.95829    890.51587   -4523.0274 
24889000    239.75132   -6326.8246   -5710.0789   -6326.8246            0    9037.9112     23.13833    21.471979     21.65983    10761.161    8551.8891    8152.3087    10409.536    349.34514   -390.47362    1033.5099   -4291.6646 
24890000    250.25497   -6341.9922   -5698.2266   -6341.9922            0    7543.5665    23.384401    21.334271     21.62007    10786.018    6957.3577    8111.3731    7561.9687   -372.17542    215.97897    129.52796   -4511.6008 
24891000    249.18551   -6358.6645   -5717.6499   -6358.6645            0    6431.8957    23.355629    21.460898    21.567207    10810.191    5658.0503     6965.448    6672.1888   -83.870804   -307.32408   -597.14401   -4703.6259 
24892000    257.21956   -6355.1169   -5693.4353   -6355.1169            0    5627.7732    23.290507    21.457452    21.654567    10821.977    5080.7146    5818.7425    5983.8625    270.39963     346.8273    1439.4197   -4805.2183 
24893000    238.55283   -6314.1846   -5700.5219   -6314.1846            0    6397.5859    23.444501    21.289372    21.746271    10853.971    6707.8644    7441.9706    5042.9227   -595.93537    322.69291   -449.50529   -4687.8223 
24894000    246.66774   -6345.9423   -5711.4046   -6345.9423            0     6854.875    23.161728    21.482658     21.76468    10829.571    6940.5378    6988.8036    6635.2837    232.72566   -219.10182    -179.2855    -4628.758 
24895000     256.6441   -6314.5163    -5654.315   -6314.5163            0    7590.8745    23.493668    21.335837    21.541898    10798.029    7840.6302    8144.3585    6787.6348   -1640.1505   -522.99826   -1463.5923   -4458.9179 
24896000    250.15206   -6358.0982   -5714.5973   -6358.0982            0    7716.6286    23.310942    21.497535    21.532838    10790.703     7886.849     6045.075    9217.9618   -327.42314    516.00542    1368.4965   -4500.2211 
24897000    238.40491   -6341.7846   -5728.5025   -6341.7846            0    5925.8139    23.139506    21.538897    21.719787     10825.13    6502.8555    6267.0353    5007.5511    1031.7317    504.79293    111.45613   -4792.9741 
24898000    240.27153   -6342.9635   -5724.8796   -6342.9635            0     7322.124    23.366521    21.208923     21.75397    10780.805    7672.2534    8147.8888    6146.2299    -1292.731    594.83986   -370.38994   -4573.6441 
24899000     245.8034   -6296.9522   -5664.6379   -6296.9522            0    6666.5507    23.339673    21.637079    21.489014    10852.003    6309.2901     5479.535    8210.8268   -545.38264    1047.0922    464.53876   -4609.5541 
24900000     250.4033   -6355.1832    -5711.036   -6355.1832            0     6003.536    23.223697    21.645573    21.550055    10833.002    6436.1998    5350.7036    6223.7047   -1094.8232   -267.57429   -60.923238    -4762.548 
24901000    250.04207   -6310.0871   -5666.8691   -6310.0871            0    6701.9021    23.414895    21.238189    21.745797    10813.966    6465.5202    6668.3812    6971.8049    196.69739    986.88117    9.4266035   -4609.9081 
24902000    247.70671    -6361.162   -5723.9516    -6361.162            0    7445.2786    23.070228    21.575028    21.642545    10772.378    9311.5387    6548.2599    6476.0371   -454.73612    979.57622   -69.832502   -4554.2679 
24903000    252.89727   -6312.1162   -5661.5534   -6312.1162            0    6953.5748    23.420493    21.257266    21.718336    10812.596    7402.7821    7003.4765    6454.4659   -573.38095   -127.18354    702.00602   -4565.0398 
24904000    251.13866    -6347.895   -5701.8561    -6347.895            0    7594.0956    23.379678    21.343395    21.559403    10758.179    6635.6008    7957.0729     8189.613    441.62607    1131.0632    83.352358   -4510.3652 
24905000    242.71988   -6350.2411    -5725.859   -6350.2411            0    7866.0428    23.050355    21.497402    21.766054    10785.575    7631.9524    7644.4834    8321.6925    706.52486    545.36495    688.26583   -4488.5576 
24906000    237.71346   -6368.4667   -5756.9633   -6368.4667            0    6392.9579     23.32743    21.318351    21.732249    10807.499    5226.6222     7430.753    6521.4986    -74.57149    221.10791    -30.31741   -4749.3291 
24907000    235.79793   -6324.5053   -5717.9295   -6324.5053            0    6271.7256    23.337593    21.544197    21.576351    10848.367     5623.205    5939.4456    7252.5262    238.40897    631.45929    690.46278   -4725.6654 
24908000    245.58055    -6355.517    -5723.776    -6355.517            0    6268.3706    23.429176    21.396869    21.628683    10842.697    5018.6379    6493.8284    7292.6454   -423.02722    188.03071    809.98521   -4732.5609 
24909000    239.46355   -6310.5516   -5694.5462   -6310.5516            0    7463.8462    23.264299    21.282648     21.86267    10824.774    8578.0367    7555.3035    6258.1983   -1170.8847    859.70221    99.419901    -4516.242 
24910000    244.00883   -6337.7439    -5710.046   -6337.7439            0    8030.3994    23.275865     21.40218    21.637463    10778.794    8655.7214    7781.6197     7653.857    4.3057462    269.60913   -576.13583    -4447.686 
24911000    241.10397   -6344.9489   -5724.7236   -6344.9489            0    8901.8543    23.348681    21.376143    21.517256    10739.365    7574.7969    8580.5313    10550.235    1177.4384    871.69406   -857.21969   -4330.4919 
24912000    253.13405    -6342.147    -5690.975    -6342.147            0    7426.7057    23.258805    21.521382    21.558361    10791.288    8389.6993    7292.6575    6597.7604    -185.7582   -457.33008   -414.03255   -4522.1611 
24913000    251.06195   -6345.7609   -5699.9193   -6345.7609            0    7957.4668     23.22041    21.315306    21.767979    10774.064    8123.0269    8725.7802    7023.5932   -1713.7017    103.49239   -1031.8777   -4449.5731 
24914000    243.34941   -6343.5253   -5717.5238   -6343.5253            0    7954.7325     23.18825    21.410027    21.670261    10758.441    9036.4611      7691.09    7136.6464   -329.24014   -1219.8457   -326.11293   -4469.4197 
24915000    257.77376   -6354.7998   -5691.6925   -6354.7998            0    7311.9176    23.287598    21.429381    21.557961    10758.259    7457.2451    7665.1192    6813.3884   -1305.3105    -462.4866    1156.4527    -4544.466 
24916000    249.97457   -6307.9706   -5664.9263   -6307.9706            0    7304.4036    23.269394    21.418679    21.662552    10796.609     7798.319    6808.3398    7306.5519    447.05021    310.80985    463.95711   -4514.7934 
24917000    243.41654   -6346.5768   -5720.4025   -6346.5768            0    6731.6404    23.292705    21.440193    21.727695    10850.813    8466.9175    5864.4734    5863.5303   -1287.5084   -810.69462   -136.80526   -4655.1341 
24918000    251.65554   -6320.8983   -5673.5298   -6320.8983            0    6063.8938     23.46631     21.40453    21.628909    10863.884    6917.9034      4908.88    6364.8978   -339.87556   -438.03736   -92.090332   -4712.7749 
24919000    256.81174   -6314.2628   -5653.6303   -6314.2628            0    6508.4718      23.3351    21.353753    21.796335    10860.939    4949.2357    7960.5257    6615.6541    1160.1433    1537.9759    956.61942   -4622.7167 
24920000    249.94177   -6341.8943   -5698.9343   -6341.8943            0    6937.0467    23.448864     21.33919    21.602581    10809.495    6338.6418    7303.6168    7168.8816    1171.2679    289.36549    -663.1262   -4605.3408 
24921000     253.2712   -6350.0851   -5698.5604   -6350.0851            0    8897.8196    23.252202    21.350797    21.620193    10733.411    8406.7253    9015.8984    9270.8351    496.13379   -541.56344   -573.28958   -4305.7332 
24922000     256.6366   -6350.1451    -5689.963   -6350.1451            0     8078.077    23.284045     21.42871    21.596699    10775.609     8422.659    7657.2107    8154.3614    1216.8033    116.33299   -4.3299717   -4420.4835 
24923000    244.69581   -6322.8323   -5693.3672   -6322.8323            0    10768.206    23.289036    21.217805    21.570539    10658.914    9967.6576    12188.014    10148.947    333.87722    42.733872    609.15644   -4019.4567 
24924000    253.83819    -6361.171   -5708.1877    -6361.171            0    8238.4576    23.214073    21.332974    21.665611    10729.357    8698.3271    8389.0844    7627.9614   -220.06449    156.13959    1654.9139   -4419.0613 
24925000    254.69082   -6342.9194   -5687.7428   -6342.9194            0    7893.7601    23.204049    21.478684    21.602531    10766.538     9148.986    6624.8623    7907.4321   -830.73265   -93.311773    904.18243   -4448.2732 
24926000    248.89954   -6360.5103   -5720.2314   -6360.5103            0    8250.3274    23.261118    21.407044    21.536377    10724.077    8158.9526    8398.6791    8193.3503   -554.35871   -757.94416   -1769.1803    -4429.883 
24927000    259.09796    -6313.823   -5647.3093    -6313.823            0    9848.2928    23.269542    21.430819    21.498997    10721.235    10445.706    9625.3435    9473.8287   -660.18742   -1406.5479   -896.98575   -4107.4478 
24928000    251.29008   -6318.6787   -5672.2503   -6318.6787            0    7383.7661    23.197682    21.550082    21.522567    10759.389    7824.8058    6816.7874    7509.7051    623.32319    213.47893    1104.0701   -4513.6292 
24929000     249.4641   -6340.1649   -5698.4337   -6340.1649            0    6415.3041    23.355948     21.35376    21.719647    10832.398    5346.1064    7200.3055    6699.5004     1067.753   -823.01763   -26.156281   -4684.9477 
24930000    251.80587   -6342.2347   -5694.4795   -6342.2347            0    5895.0018    23.251112    21.519446     21.66842    10841.816    7246.2619    4230.9333    6207.8102    977.00231   -699.88201    58.819397   -4762.3808 
24931000    246.97079   -6338.5581   -5703.2408   -6338.5581            0    6284.2042    23.431536    21.530781    21.476798    10835.029    6142.8427    5924.3631    6785.4069    1005.0671   -764.23692    349.08883   -4710.2248 
24932000    247.73146   -6310.4984   -5673.2244   -6310.4984            0    7811.2273    23.433966    21.309475    21.594596    10783.597    7592.3471    8594.7554    7246.5794    149.06954   -240.24211   -334.80478   -4444.7706 
24933000    249.56553   -6363.7125   -5721.7203   -6363.7125            0    7070.2218     23.18821    21.528504    21.678048    10821.843    6002.2259    7945.1422    7263.2972    1306.5905    715.53779   -32.147439   -4605.8591 
24934000    254.30604   -6365.3314   -5711.1446   -6365.3314            0    7441.3527      23.2618    21.339667    21.732157    10787.822    6434.1185    8235.2793    7654.6603    1158.0616   -425.92588    327.38808   -4540.4016 
24935000    251.78741   -6305.6846   -5657.9769   -6305.6846            0     10089.52    23.298572    21.341084    21.548475    10714.264     9801.818    10066.885    10399.857    1193.9192   -518.95109    1494.5962   -4081.4234 
24936000    252.09655    -6312.902    -5664.399    -6312.902            0    7216.2819    23.318765     21.37415    21.670154    10800.812    6998.5169    8331.6477    6318.6811    410.32144     90.25955   -500.58023   -4527.6992 
24937000    241.43632   -6350.0752    -5728.995   -6350.0752            0    6839.4024     23.32522    21.484262    21.534255    10791.356    6347.8548    7391.6476    6778.7047    781.27404   -404.74461   -138.62789   -4652.6039 
24938000    255.26836   -6325.3563    -5668.694   -6325.3563            0     8786.389    23.313433    21.361151    21.622529    10768.057    7936.3662    9791.1898    8631.6111    790.91534    983.81389   -738.67927   -4288.8701 
24939000    236.98254   -6351.7002    -5742.077   -6351.7002            0     7693.157      23.1224    21.544139    21.674942     10797.42     7737.516    7893.6227    7448.3321    1341.3728   -76.545083   -1204.7411    -4530.641 
24940000     263.7705   -6311.6666    -5633.133   -6311.6666            0     7104.718     23.58098    21.139123    21.705339    10819.704    5101.6965    8866.8357    7345.6219   -435.91756     79.45196    328.78732   -4512.0491 
24941000    267.48226   -6354.3601   -5666.2783   -6354.3601            0    7010.4724    23.219105    21.491092    21.711221    10833.984    8291.5872    6090.9096    6648.9202    -720.9281   -1245.0955   -638.47074   -4558.6058 
24942000    243.71891   -6311.4378   -5684.4857   -6311.4378            0     6599.219    23.382172    21.522122    21.536048    10837.671    6650.6922     4890.868    8256.0969   -892.09088    582.00249    2115.0972   -4641.4375 
24943000    248.52214   -6355.1923   -5715.8842   -6355.1923            0    6648.7869    23.372408    21.366292    21.709603    10841.378    6467.2647    6786.9946    6692.1015    1009.6852    245.73964    701.41301   -4664.6419 
24944000     240.4201   -6321.4308   -5702.9647   -6321.4308            0    5661.0822    23.192347    21.421293    21.924051    10892.089    5519.5974    6738.4673     4725.182    1239.0395   -1640.6189   -351.05897   -4803.7021 
24945000    249.03139   -6319.8818   -5679.2637   -6319.8818            0    7248.1272    23.288298    21.645708    21.507854    10841.931    6937.0627    7325.5394    7481.7797   -1089.3227    823.80861    182.39404   -4533.2012 
24946000     244.3264   -6337.5942   -5709.0794   -6337.5942            0    7343.0277    23.385906    21.344671    21.671208    10817.497    7229.4781    7060.7715    7738.8334    318.22899   -499.84313    538.39365    -4550.628 
24947000    251.74554    -6346.406   -5698.8059    -6346.406            0    5397.1303    23.286322     21.44451    21.804005     10888.13    4755.1318    6035.4914    5400.7676    1043.7422     1056.685    1898.7916   -4841.7837 
24948000    246.40257   -6303.2499   -5669.3943   -6303.2499            0    7655.0676    23.325669    21.554656    21.504147    10811.785     7206.729    7528.5524    8229.9213   -1928.8932   -128.94791     295.9791   -4462.3524 
24949000    260.32826   -6345.0154   -5675.3368   -6345.0154            0    7496.9043    23.394059    21.371548    21.645144    10821.863    8074.6524    8885.0206      5531.04    -1434.022    357.48617   -1299.2986    -4492.132 
24950000    246.74573    -6349.056   -5714.3176    -6349.056            0    6872.3105    23.152744    21.487568    21.717112     10804.18    7217.0908    7324.9947     6074.846    1112.8838   -334.07237    -935.9684   -4631.4622 
24951000    256.70496   -6347.2817   -5686.9238   -6347.2817            0    7372.8445    23.313678     21.38067    21.558832     10746.26    6500.5297    6602.3353    9015.6684    322.65872   -113.65704    774.63165   -4531.4282 
24952000    264.51921   -6376.0461   -5695.5866   -6376.0461            0    8003.0263    23.378271    21.255402    21.590083    10728.426    6748.3947    8794.6739    8466.0103    434.71083    1435.4684    568.12743   -4443.4083 
24953000    232.65054   -6349.2767   -5750.7974   -6349.2767            0      7280.61     23.14462    21.437079    21.698987    10766.019    7979.3845    7615.8896     6246.556   -462.97335   -78.400803   -782.17247    -4607.659 
24954000    250.57892   -6353.2706   -5708.6716   -6353.2706            0    7351.0768    23.329356    21.377107    21.681169    10812.705    7517.6808    7844.5631    6690.9865   -932.44415   -186.29769   -1335.1819   -4549.4641 
24955000    247.41138   -6350.4234   -5713.9727   -6350.4234            0     6738.022    23.428186     21.51564    21.425588    10800.048    5848.3355    5732.7387    8632.9916   -374.03085    382.17372    37.316782   -4652.6829 
24956000    246.60823   -6379.8086    -5745.424   -6379.8086            0    5099.0343    23.252153     21.53019    21.749664    10888.388    5377.4004    5286.6045    4633.0982   -1435.1536    943.11356      360.532   -4935.7179 
24957000    249.14152   -6369.4475   -5728.5461   -6369.4475            0    5919.5287    23.230442    21.349661     21.84297    10833.285    5909.8039    6626.9591    5221.8232   -746.02105    226.07818   -17.721437   -4793.3059 
24958000    248.35472   -6333.4394   -5694.5621   -6333.4394            0    6616.0653    23.332954    21.430466    21.687444    10844.505    5574.1953     5992.409    8281.5914   -153.82613    1307.8331       187.41   -4648.1918 
24959000    245.26113   -6314.7835   -5683.8642   -6314.7835            0    6299.1521    23.396604    21.560614    21.503101    10847.135    5698.9656    6005.3334    7193.1572   -404.41424    574.79899    314.53117    -4687.374 
24960000    248.48276   -6345.2499   -5706.0432   -6345.2499            0    5881.3609    23.200276    21.454291    21.835157     10868.35    6581.6043    6394.3715    4668.1067    26.071326   -880.38607   -614.61412   -4773.8255 
24961000    246.72254   -6315.7832   -5681.1045   -6315.7832            0    7552.6722    23.238979    21.386221    21.783781    10826.407    7666.9482    7658.1088    7332.9598   -425.98168    384.96544   -182.16132   -4488.5976 
24962000    249.02687   -6362.9703   -5722.3638   -6362.9703            0    7369.5495    23.412218    21.399079    21.554937    10799.021    6259.8561    7575.6791    8273.1133    840.73577    71.787857    35.492463    -4561.714 
24963000    243.13849   -6338.4252   -5712.9663   -6338.4252            0     6651.343    23.150885     21.47288    21.816931    10845.549    6372.6524    7468.6479    6112.7289    2205.7854    1023.5558   -165.36173   -4660.9153 
24964000    257.68948   -6357.8608   -5694.9703   -6357.8608            0    8234.9323    23.349059    21.284103    21.668808    10768.612    7532.5948    8876.5405    8295.6617   -65.806645    -63.67167   -1385.8763   -4401.6811 
24965000    242.94147   -6360.9069   -5735.9547   -6360.9069            0    8892.4732    23.310849    21.220947    21.694215    10731.657    7980.1169    10360.497    8336.8057    1536.4773     1268.074   -705.07655   -4344.1919 
24966000    245.43852    -6336.823   -5705.4474    -6336.823            0    8170.0106    23.290209    21.392019     21.61193    10767.595    8745.6212    7798.8983    7965.5123   -37.433825    175.09743   -450.32573   -4422.4753 
24967000    249.38725   -6342.6211   -5701.0876   -6342.6211            0    8523.0356    23.425697    21.268373    21.536408    10730.008    9432.7114     8048.179    8088.2164   -639.96898   -967.80147   -155.40336   -4367.3504 
24968000    249.91126   -6315.1332   -5672.2517   -6315.1332            0      7893.64    23.070536    21.509408    21.727446    10781.889    8884.2826    7779.5804    7017.0569    571.55112   -689.33914   -439.66389   -4431.0337 
24969000    255.24585    -6355.074   -5698.4696    -6355.074            0    7499.7171    23.367079    21.381882    21.548279    10766.212    6487.6933    8713.2457    7298.2122   -216.76476   -919.09949   -448.93033   -4520.9078 
24970000    237.82331   -6348.8906   -5737.1046   -6348.8906            0    7743.6089    23.399023    21.508132    21.407203    10773.587    7380.4063    6877.9039    8972.5165   -701.45571   -234.57458    580.81641   -4520.4155 
24971000    247.52487   -6333.9608   -5697.2181   -6333.9608            0    8607.3031    23.014636    21.455893    21.768571    10749.311    10264.937    7370.0209    8186.9516    265.60204    -272.3366   -1175.9635   -4347.8712 
24972000    250.15247   -6356.6746   -5713.1726   -6356.6746            0    7454.1477    23.462789    21.217463    21.665804    10785.689    7281.6875    7259.9011    7820.8545   -1034.7942   -223.09173    525.18369   -4540.6484 
24973000    244.53459   -6344.2677   -5715.2174   -6344.2677            0    7529.5794    23.249768    21.479898    21.600642    10787.418    8363.0758     6741.752    7483.9103   -591.09035   -596.44899   -307.17529   -4530.6382 
24974000    247.46339   -6290.2665    -5653.682   -6290.2665            0    9106.8942     23.27682      21.4438    21.576727    10769.882    9319.3972    9408.1421    8593.1434     61.67135    420.34591   -1197.6173   -4223.2832 
24975000    249.75136   -6355.1253   -5712.6552   -6355.1253            0    7039.3068    23.466807    21.327145    21.525346    10773.005    6193.7489    7770.3323    7153.8392     -31.2836   -311.73444   -263.35844    -4606.687 
24976000    240.20607   -6329.2201   -5711.3046   -6329.2201            0    6189.7858    23.134807    21.637665    21.648533    10836.892    7524.7575    5233.3814    5811.2186    292.48107    -311.4664    542.79482   -4733.0402 
24977000    252.56832   -6297.3454   -5647.6288   -6297.3454            0    6131.8129    23.321277    21.388543    21.750865    10849.508    5582.7649    8415.7546    4396.9192   -244.86617   -305.23155    587.34706   -4677.3985 
24978000    262.98501   -6339.8686   -5663.3557   -6339.8686            0    6451.7703    23.381467    21.468446    21.633152    10859.058    6640.0284    6500.9362    6214.3463    914.35117   -2312.7673   -52.643344   -4641.6003 
24979000    245.97076   -6324.4783   -5691.7335   -6324.4783            0    6249.1989    23.364044    21.650701    21.485643    10868.468    6471.2797     5189.213     7087.104    519.57817    327.46915    210.67341   -4701.2013 
24980000    261.06966   -6335.9302   -5664.3444   -6335.9302            0    5837.7066    23.552616    21.299628    21.701153    10886.643    6084.9711    6234.2311    5193.9177    50.665782   -1172.8213   -109.64183   -4737.4887 
24981000    254.32595   -6323.7945   -5669.5565   -6323.7945            0    6990.8528    22.993405    21.649231    21.772306    10838.026    8386.7616    5903.6683    6682.1284   -535.64362     421.0385    85.731951   -4564.5718 
24982000    255.23594   -6349.0456   -5692.4667   -6349.0456            0    7132.4134    23.544894    21.282944    21.578633    10813.153    6177.0831    8479.0489    6741.1082     43.32529   -286.02861   -857.18764    -4567.694 
24983000    245.76602   -6352.6289   -5720.4108   -6352.6289            0     7246.823    23.087572    21.560491    21.712941    10808.254    8680.4004    5785.0087    7275.0601    210.90891   -347.51308    601.59597   -4578.1137 
24984000    254.31799   -6356.3585    -5702.141   -6356.3585            0    6851.5875    23.150618    21.457082     21.80846    10833.237    6696.3269    8045.9852    5812.4504   -1037.6336    1204.0477   -550.80253   -4619.6473 
24985000    249.66066   -6345.9917   -5703.7548   -6345.9917            0    7965.0612    23.487429     21.23091    21.579301    10760.723    7863.2219    7884.6844    8147.2772    1052.7384   -141.02226   -81.898147    -4453.765 
24986000     249.3268   -6341.9989   -5700.6209   -6341.9989            0    9231.1497    23.042705    21.620187    21.548429     10735.16    11204.525     7509.941    8978.9834   -689.78683   -693.07049   -568.70108   -4255.3802 
24987000    247.11173   -6352.4797   -5716.7999   -6352.4797            0    7574.6627    23.268394    21.258566    21.803255    10785.039    9770.9902    7326.2769    5626.7209   -1008.2804    975.72414    169.94713   -4525.3908 
24988000    252.24186   -6318.9057   -5670.0288   -6318.9057            0    6844.2536    23.284596    21.408497    21.664995    10799.745    7066.2977    5105.0774    8361.3857    1179.9364    -375.5204    1082.8525    -4592.037 
24989000    237.03029   -6317.9602   -5708.2142   -6317.9602            0    7452.2061    23.202599    21.500329      21.6739    10812.318    8265.6468    6980.5732    7110.3983   -210.34512    679.94814    800.37477   -4533.1015 
24990000    250.64264   -6336.1666   -5691.4037   -6336.1666            0    6199.2754    23.622315    21.161526    21.688111    10841.545    4666.6296      7541.38    6389.8165   -963.23159    1069.4569   -199.30582   -4711.2188 
24991000    250.84226   -6355.2955   -5710.0191   -6355.2955            0    6966.0232    23.163238    21.574344    21.562332     10775.38    8146.7333    6250.1195    6501.2167    -615.6009   -151.84443   -505.87124   -4615.3234 
24992000    241.65424   -6336.0249   -5714.3841   -6336.0249            0    6190.2621    23.503856    21.241637    21.720345    10844.108    4149.0226    8146.1265    6275.6372    360.38671    524.59493   -1383.1271    -4735.393 
24993000    245.09185   -6311.9586   -5681.4747   -6311.9586            0    6098.5717    23.346697     21.35834    21.748612    10844.874    6723.2111    5553.7913    6018.7127    774.51164    1122.9519   -656.84036   -4716.9163 
24994000    247.83702   -6339.9754   -5702.4297   -6339.9754            0    5431.3795    23.263876    21.570889    21.669483    10874.234    4957.3907    5159.3951    6177.3529   -274.61753    882.97887    1149.6324   -4841.0697 
24995000    256.47903   -6312.2796   -5652.5029   -6312.2796            0    6570.8677    23.494699    21.345431     21.68985    10877.557    6041.4253    6225.5547    7445.6232    318.05147   -128.98403   -335.27139   -4610.1135 
24996000    246.09265   -6353.2788   -5720.2204   -6353.2788            0    4176.0973     23.25109    21.631917    21.727728    10928.301    4586.4762    4099.9427    3841.8729   -220.63672   -1100.3881   -309.80361   -5054.6422 
24997000    245.77999   -6328.7134   -5696.4593   -6328.7134            0    6651.0187    23.314554     21.50242    21.611933     10834.48    7989.3626    5846.9432    6116.7501   -637.25482   -1232.2278    438.66453   -4645.5333 
24998000    255.44113   -6345.7216   -5688.6148   -6345.7216            0    5948.2236    23.288243    21.363597    21.830907    10861.327    6872.7292    5781.0149    5190.9268   -1296.5891    143.94465   -189.86919   -4746.4084 
24999000    245.65746   -6348.4463   -5716.5075   -6348.4463            0    6214.0926    23.155132    21.576758    21.692079    10837.638    7785.1695    4717.7753    6139.3331    521.97011   -1055.8156     1771.726   -4734.3339 
25000000    260.21481   -6318.8109   -5649.4242   -6318.8109            0    5471.0268    23.522724    21.361658    21.679457    10893.589    4857.8001    6348.3022    5206.9782    647.68133   -299.78324    378.18788   -4780.2322 
Loop time of 607.259 on 64 procs for 250000 steps with 1296 atoms

Performance: 71.139 ns/day, 0.337 hours/ns, 411.686 timesteps/s
99.2% CPU use with 64 MPI tasks x 1 OpenMP threads

MPI task timing breakdown:
Section |  min time  |  avg time  |  max time  |%varavg| %total
---------------------------------------------------------------
Pair    | 30.269     | 39.746     | 48.641     |  96.1 |  6.55
Bond    | 0.27418    | 0.28102    | 0.29386    |   0.8 |  0.05
Kspace  | 303.45     | 316.55     | 331.45     |  37.7 | 52.13
Neigh   | 4.7897     | 5.2705     | 5.8002     |  12.1 |  0.87
Comm    | 100.5      | 110.07     | 118.57     |  36.4 | 18.13
Output  | 1.4751     | 1.4769     | 1.4795     |   0.1 |  0.24
Modify  | 122.97     | 125.59     | 127.48     |  10.0 | 20.68
Other   |            | 8.275      |            |       |  1.36

Nlocal:        20.2500 ave          27 max          13 min
Histogram: 3 5 9 5 3 13 4 17 3 2
Nghost:        2572.25 ave        2609 max        2540 min
Histogram: 4 5 14 9 5 4 7 8 5 3
Neighs:        6404.25 ave        8504 max        4179 min
Histogram: 3 5 9 5 7 9 4 15 5 2

Total # of neighbors = 409872
Ave neighs/atom = 316.25926
Ave special neighs/atom = 2.0000000
Neighbor list builds = 8856
Dangerous builds = 0

unfix		3
unfix		2
unfix		1

write_data	data.final.${pid}
write_data	data.final.0
System init for write_data ...
PPPM initialization ...
  extracting TIP4P info from pair style
  using 12-bit tables for long-range coulomb (../kspace.cpp:340)
  G vector (1/distance) = 0.36968858
  grid = 30 40 32
  stencil order = 5
  estimated absolute RMS force accuracy = 0.0039783327
  estimated relative force accuracy = 1.1980631e-05
  using double precision FFTW3
  3d grid and FFT values/proc = 5168 640
Last active /omp style is kspace_style pppm/tip4p/omp
WARNING: Not all mixed pair coeffs generated from mixing. Use write_data with 'pair ij' option to store all pair coeffs. (../write_data.cpp:312)

write_restart   restart.lmp.${pid}
write_restart   restart.lmp.0
System init for write_restart ...
PPPM initialization ...
  extracting TIP4P info from pair style
  using 12-bit tables for long-range coulomb (../kspace.cpp:340)
  G vector (1/distance) = 0.36968858
  grid = 30 40 32
  stencil order = 5
  estimated absolute RMS force accuracy = 0.0039783327
  estimated relative force accuracy = 1.1980631e-05
  using double precision FFTW3
  3d grid and FFT values/proc = 5168 640
Last active /omp style is kspace_style pppm/tip4p/omp
Total wall time: 0:10:09
