LAMMPS (30 Jul 2021)
Processor partition = 1
  using 2 OpenMP thread(s) per MPI task
using multi-threaded neighbor list subroutines
variable        pid world 0 1
variable        phase world IceIh IceIII

shell cd ${phase}
shell cd IceIII
include Restart.lmp
echo both
log log.lammps
#include		in.partitions
include		in.temp
variable        temperature equal 17.72
variable	tempDamp equal 100.0
include		in.pressure
variable        pressure equal 2193.6
variable        pressureDamp equal 1000.0 # This is 1 ps
include		in.seed
variable        seed equal 745823

units		real
atom_style	full

read_restart	restart.lmp.${pid}
read_restart	restart.lmp.1
Reading restart file ...
  restart file = 30 Jul 2021, LAMMPS = 30 Jul 2021
  restoring atom style full from restart
  orthogonal box = (0.036806919 0.085451530 0.043561700) to (19.963194 19.914549 20.656436)
  4 by 2 by 4 MPI processor grid
  restoring pair style lj/cut/tip4p/long/omp from restart
  restoring bond style harmonic/omp from restart
  restoring angle style harmonic/omp from restart
  972 atoms
  648 bonds
  324 angles
Finding 1-2 1-3 1-4 neighbors ...
  special bond factors lj:    0        0        0       
  special bond factors coul:  0        0        0       
     2 = max # of 1-2 neighbors
     1 = max # of 1-3 neighbors
     1 = max # of 1-4 neighbors
     2 = max # of special neighbors
  special bonds CPU = 0.002 seconds
  read_restart CPU = 0.007 seconds
include 	in.setup
variable	out_freq equal 1000
variable	out_freq2 equal 10000
variable	out_freq3 equal 1000

timestep	2.0

neigh_modify    delay 7 every 1

include		in.tip4p
# This is TIP4P/Ice

# create groups ###
group ox type 2
324 atoms in group ox
group hy type 1
648 atoms in group hy

# set charges - beside manually ###
set group ox charge -1.1794
Setting atom values ...
  324 settings made for charge
set group hy charge 0.5897
Setting atom values ...
  648 settings made for charge

# ### TIP3P Potential Parameters ###
pair_style lj/cut/tip4p/long/omp 2 1 1 1 0.1577 8.5
pair_coeff 1 1*2 0.000 0.000
pair_coeff 2 2 0.21084 3.1668
bond_style  harmonic
bond_coeff  1 450 0.9572
angle_style harmonic
angle_coeff 1 55 104.52
kspace_style pppm/tip4p/omp 1.0e-5
pair_modify tail yes

thermo          ${out_freq}
thermo          1000
thermo_style    custom step temp pe etotal epair emol press lx ly lz vol pxx pyy pzz pxy pxz pyz enthalpy

restart 	${out_freq3} restart.lmp.${pid} restart2.lmp.${pid}
restart 	1000 restart.lmp.${pid} restart2.lmp.${pid}
restart 	1000 restart.lmp.1 restart2.lmp.${pid}
restart 	1000 restart.lmp.1 restart2.lmp.1


include         in.dump
dump            myDump all atom ${out_freq2} dump.water.${pid}
dump            myDump all atom 10000 dump.water.${pid}
dump            myDump all atom 10000 dump.water.1
dump            myDump2 all dcd ${out_freq2} dump.dcd
dump            myDump2 all dcd 10000 dump.dcd
dump_modify     myDump append yes
dump_modify     myDump2 append yes


variable natoms 	equal  "count(all)"                        # NUMBER ATOMS
variable H      	equal  "enthalpy/v_natoms"                 # ENTHALPY-per-atom
variable Vol      	equal  "vol/v_natoms"                 # volume-per-atom
fix AVG all 		ave/time ${out_freq} 1 ${out_freq} v_Vol v_H file vol_enthalpy.dat
fix AVG all 		ave/time 1000 1 ${out_freq} v_Vol v_H file vol_enthalpy.dat
fix AVG all 		ave/time 1000 1 1000 v_Vol v_H file vol_enthalpy.dat


timer           timeout 02:55:00 every 1000
New timer settings: style=normal  mode=nosync  timeout=02:55:00

fix 		1 all shake 1e-6 200 0 b 1 a 1
Finding SHAKE clusters ...
       0 = # of size 2 clusters
       0 = # of size 3 clusters
       0 = # of size 4 clusters
     324 = # of frozen angles
  find clusters CPU = 0.001 seconds
fix             2 all nph aniso ${pressure} ${pressure} ${pressureDamp}
fix             2 all nph aniso 2193.6 ${pressure} ${pressureDamp}
fix             2 all nph aniso 2193.6 2193.6 ${pressureDamp}
fix             2 all nph aniso 2193.6 2193.6 1000
fix             3 all temp/csvr ${temperature} ${temperature} ${tempDamp} ${seed}
fix             3 all temp/csvr 17.72 ${temperature} ${tempDamp} ${seed}
fix             3 all temp/csvr 17.72 17.72 ${tempDamp} ${seed}
fix             3 all temp/csvr 17.72 17.72 100 ${seed}
fix             3 all temp/csvr 17.72 17.72 100 745823


run             250000
PPPM initialization ...
  extracting TIP4P info from pair style
  using 12-bit tables for long-range coulomb (../kspace.cpp:340)
  G vector (1/distance) = 0.37178365
  grid = 24 24 24
  stencil order = 5
  estimated absolute RMS force accuracy = 0.0035611869
  estimated relative force accuracy = 1.0724408e-05
  using double precision FFTW3
  3d grid and FFT values/proc = 3211 432
Last active /omp style is kspace_style pppm/tip4p/omp
Neighbor list info ...
  update every 1 steps, delay 7 steps, check yes
  max neighbors/atom: 2000, page size: 100000
  master list distance cutoff = 10.8154
  ghost atom cutoff = 10.8154
  binsize = 5.4077, bins = 4 4 4
  1 neighbor lists, perpetual/occasional/extra = 1 0 0
  (1) pair lj/cut/tip4p/long/omp, perpetual
      attributes: half, newton on, omp
      pair build: half/bin/newton/omp
      stencil: half/bin/3d
      bin: standard
Setting up Verlet run ...
  Unit style    : real
  Current step  : 47000000
  Time step     : 2
  Walltime left : 2:54:59.95
Per MPI rank memory allocation (min/avg/max) = 10.18 | 10.19 | 10.19 Mbytes
Step Temp PotEng TotEng E_pair E_mol Press Lx Ly Lz Volume Pxx Pyy Pzz Pxy Pxz Pyz Enthalpy 
47000000    21.035425   -5210.6511   -5170.0825   -5210.6511            0    2034.7747    19.926387    19.829098    20.612875    8144.6061    1884.7355    2507.5536    1712.0351   -151.50071   -185.54441   -38.777371   -4928.3905 
47001000    17.682863    -5218.216   -5184.1131    -5218.216            0    2051.2559    19.928633    19.872686    20.563152    8143.7375    1985.2016    1654.0559    2514.5102    -97.40299   -5.4125048    287.94778   -4940.4894 
47002000    18.392932   -5218.1687   -5182.6964   -5218.1687            0    2143.1545    19.863144    19.866128    20.619192    8136.4105    2285.7799    2218.2164    1925.4673    -185.0446    607.93043   -277.84978   -4928.3871 
47003000    17.950732   -5219.9588   -5185.3393   -5219.9588            0    2126.6194    19.888727    19.857121    20.641939    8152.1798    1979.0085    2263.1237     2137.726   -48.646913   -216.48016    260.74237    -4932.503 
47004000    17.539258   -5219.4101   -5185.5842   -5219.4101            0     2113.761    19.889482     19.83572    20.648331     8146.225    1868.8659    2789.0658    1683.3514   -206.11553    147.49293   -202.85475   -4934.4602 
47005000     18.03328   -5218.5275   -5183.7488   -5218.5275            0    2177.7202    19.900816    19.861959    20.618328    8149.7896    2857.2316     1771.189    1904.7399   -7.4134713   -84.195936    250.62893    -4924.913 
47006000    17.457573   -5215.1176   -5181.4492   -5215.1176            0     2274.879    19.885972    19.875033    20.647039    8160.4191    2174.7912    1827.9516    2821.8941   -212.58439     103.1503   -375.67768   -4910.7128 
47007000    17.479722   -5216.7801    -5183.069   -5216.7801            0    2268.4513    19.850475    19.848909    20.671125    8144.6354    2671.1088    2041.1521    2093.0929   -45.610229    433.23774   -285.15822   -4913.6197 
47008000    17.988823   -5217.5618   -5182.8689   -5217.5618            0    2464.5406    19.863493    19.844671    20.678382    8151.0973    2553.9459    2509.2428    2330.4332    -153.0728    380.63751    493.67299   -4889.8957 
47009000    18.350521   -5216.7465    -5181.356   -5216.7465            0    1919.0233    19.900874    19.867941    20.585537     8139.303     2713.318    1288.2698    1755.4822   -277.91363    42.114621   -148.02005   -4953.5614 
47010000    17.760785   -5216.1811    -5181.928   -5216.1811            0    2817.7309    19.938103    19.820169    20.577376     8131.697    2712.9926    2791.0015    2949.1986   -243.38971    312.89563    252.82854   -4847.7663 
47011000    17.125678   -5216.8478   -5183.8195   -5216.8478            0     2099.415    19.933661    19.835411    20.619759    8152.8949    2283.0389    2085.3819    1929.8242   -176.05391    308.57857   -183.74119   -4934.1956 
47012000    19.143347   -5218.0342   -5181.1147   -5218.0342            0     2003.235    19.939683    19.860256    20.571491    8146.4587    1793.7253    1830.4257    2385.5541    73.377576    242.43693    89.176305   -4943.1148 
47013000    18.169457   -5217.2217   -5182.1804   -5217.2217            0    1970.9619    19.914372    19.830929    20.669311    8162.7343    1605.4223    2534.2223    1773.2413   -202.16294    420.79242   -242.43885    -4947.547 
47014000    17.712104   -5219.4369   -5185.2777   -5219.4369            0    1586.1725    19.915875    19.845893     20.63863    8157.3838    1835.0495     1340.431    1583.0368   -83.602987    480.33794    201.63748   -4996.5754 
47015000    17.515279   -5216.3411   -5182.5614   -5216.3411            0    2631.8716    19.897637    19.846381    20.598129    8134.1206    2418.4352    2850.4611    2626.7186   -153.85331   -132.82049    71.241702   -4870.3483 
47016000    18.355502   -5218.3517   -5182.9516   -5218.3517            0    1900.8066     19.91574    19.855067    20.604107    8147.4484    2034.0509    1783.1587    1885.2102    -91.57668    697.20952    133.48597   -4957.0936 
47017000    17.926107   -5218.1218   -5183.5498   -5218.1218            0     2244.605    19.936471    19.859527    20.568963    8143.8463    2302.3711    1957.8268    2473.6171   -267.04175    55.124642   -269.73827   -4916.9589 
47018000    17.017107   -5217.3059    -5184.487   -5217.3059            0    1923.9644    19.907484    19.911647    20.598233    8164.9503    2588.0387    1366.4489    1817.4057   -102.41186   -24.151712   -306.66582   -4955.3862 
47019000    17.915795   -5218.3374   -5183.7853   -5218.3374            0    2205.4365    19.864916    19.835972    20.671496    8145.3945    2588.2657    1937.1253    2090.9185   -260.84818    748.85244    151.45198   -4921.7966 
47020000    17.745731    -5218.315   -5184.0909    -5218.315            0    2255.1565    19.891297    19.890578    20.602214    8151.2536    2449.6665    1874.5685    2441.2345   -50.291679    566.03714     198.9659   -4916.0031 
47021000     17.07432   -5217.9661   -5185.0368   -5217.9661            0    1920.3175     19.86214    19.877319    20.623632    8142.3356    1552.5277    2377.5148    1830.9099   -237.68142    65.205534    82.623718   -4957.0037 
47022000    18.017777   -5218.0696   -5183.3208   -5218.0696            0    2294.2975    19.873103    19.850505    20.623391    8135.7449    2686.0626    2043.1519    2153.6781    -103.2468   -181.59073    98.825544    -4911.099 
47023000    17.166231   -5218.2182   -5185.1117   -5218.2182            0    2259.3389    19.856625    19.876482    20.663678    8155.5372    2656.7734    2306.8516    1814.3918   -163.86326    230.91563   -14.935917   -4916.3856 
47024000    18.594184   -5216.4006   -5180.5402   -5216.4006            0    2180.4069    19.849392    19.828977    20.682855    8140.6298    1993.8505    1944.0913    2603.2789   -190.05254    275.34916    149.95584   -4921.6763 
47025000    17.796825   -5216.7217    -5182.399   -5216.7217            0    1697.6091    19.878898    19.947454    20.625337    8178.6354    1682.0014    1486.3133    1924.5127   -65.460063    138.83448    23.094738   -4979.9132 
47026000    18.837813   -5216.2611   -5179.9308   -5216.2611            0    2261.6582    19.817483    19.877858    20.686997    8149.2101    2773.0494    1758.3778    2253.5474   -272.92018     109.4734   -259.34001   -4911.1375 
47027000     18.61042   -5216.8865   -5180.9947   -5216.8865            0    2251.5016    19.869887    19.849496    20.646854    8143.2684    1766.7984    2741.0178    2246.6888   -190.07159    228.36665    7.8305676   -4913.6036 
47028000    17.468542   -5219.2715   -5185.5819   -5219.2715            0    1823.6602    19.889223    19.877593    20.673153    8173.1289    2260.8569    1406.3685    1803.7552   -72.455011   -91.242257   -369.91895   -4968.2077 
47029000    18.667953   -5217.8349   -5181.8322   -5217.8349            0    2412.3605    19.855994    19.844863    20.638179    8132.2573    2702.1152    2397.5443     2137.422   -214.69264    60.045444    48.793271   -4895.7247 
47030000    17.949003   -5216.7457   -5182.1296   -5216.7457            0    2415.5892    19.889885    19.864323    20.608654     8142.461    2428.1905    2123.8969    2694.6801    -151.3863    46.209158    181.27118   -4895.2797 
47031000    18.384306   -5217.9168   -5182.4611   -5217.9168            0    1908.0627     19.86576    19.908905     20.62171         8156    2195.1494    1774.3502    1754.6884   -60.776013     258.4099   -147.24477    -4955.503 
47032000    17.572006   -5215.8457   -5181.9566   -5215.8457            0    2367.4831    19.845597    19.853066    20.685141    8149.8616    2769.0312     2183.034    2150.3841   -226.15313    249.65284    289.50795   -4900.5638 
47033000     17.96305   -5217.9051   -5183.2618   -5217.9051            0    2183.3181    19.912013    19.853692    20.605275     8145.821    1983.1651    2303.2206    2263.5687    41.485185   -52.817605   -159.09683    -4923.887 
47034000    17.708921   -5218.3664   -5184.2132   -5218.3664            0     2353.791    19.869051    19.811648    20.646839    8127.3936      2622.71    2119.0984    2319.5647    61.223214    383.32814   -189.81432   -4905.2191 
47035000    16.927898   -5217.8645   -5185.2176   -5217.8645            0    2624.2416    19.932592    19.845272    20.562933    8134.0326    2145.8683    2861.3036     2865.553   -167.92003    224.60873    80.519094   -4873.9129 
47036000    17.449044   -5220.0546   -5186.4027   -5220.0546            0    1909.3147    19.934129    19.831184    20.691546    8179.7278    1468.6114    2691.7047    1567.6281   -124.86197    481.40955    5.2193744   -4958.6349 
47037000    17.733603    -5217.503   -5183.3023    -5217.503            0    2170.2406     19.90361    19.802532    20.702416     8159.689    2137.8483    2634.5287    1738.3447   -12.940018    269.54803    121.85963   -4925.0421 
47038000    17.694209   -5216.2634   -5182.1386   -5216.2634            0    2013.1273    19.934798     19.86819     20.60289    8160.1528    2112.5299    1743.4218    2183.4303    70.051516    90.893986     216.3037   -4942.5615 
47039000     17.55136   -5218.1091   -5184.2598   -5218.1091            0     2180.352    19.876889    19.877763    20.639059    8154.6591      2495.45     2039.612    2005.9941    -139.5826   -53.593978   -230.46459   -4924.9564 
47040000    17.261337   -5216.0897   -5182.7997   -5216.0897            0     2645.283    19.852336    19.861527    20.610032    8126.4883    2688.9187    2819.6301    2427.3001   -174.79627     103.9075    82.398305   -4869.2901 
47041000     18.17587   -5220.0386   -5184.9849   -5220.0386            0    1854.8941    19.871631    19.868179    20.685596    8166.9451     1967.135    1989.3733     1608.174    26.954175     367.2361   -327.16823   -4964.0549 
47042000    18.255378   -5220.2566   -5185.0495   -5220.2566            0    1940.9056    19.936771    19.853647    20.617804    8160.8899    1266.6057    2707.4053    1848.7058    73.906745    343.78552    240.00331   -4954.0464 
47043000    18.115992    -5218.102   -5183.1638    -5218.102            0    2301.7595    19.903613    19.855439    20.609743    8144.8668    2400.5692     2046.628    2458.0814   -205.84519    92.991626   -510.94219   -4909.7504 
47044000    17.445278   -5219.8166    -5186.172   -5219.8166            0    2136.8388    19.939914    19.831632    20.631461    8158.5264    1624.8898    2377.6534    2407.9733    79.450211    48.127866    88.496733   -4931.9229 
47045000    17.050788   -5218.4276   -5185.5438   -5218.4276            0    2064.5211    19.892592    19.918096    20.549069     8142.005    2197.7299     1773.526    2222.3073  -0.85184628    397.42378    198.43012   -4940.3968 
47046000    17.259257   -5218.0165   -5184.7306   -5218.0165            0    1799.6769    19.938755    19.811529    20.648964    8156.6962    1029.2128    2771.9328     1597.885   -129.08228    -52.00119    228.11393   -4970.6463 
47047000    16.967228    -5216.691   -5183.9683    -5216.691            0    2058.2264     19.87226    19.814736    20.702549      8151.91    2269.4404    2160.2984    1744.9405   -114.88761    130.72543   -54.883738   -4939.2714 
47048000    17.268391   -5219.6922   -5186.3886   -5219.6922            0    2077.7588    19.903794    19.883449    20.649078     8171.998    1956.1539    2171.1398    2105.9827   -99.404888    788.43494   -179.82608   -4938.7609 
47049000    17.814358   -5217.0224   -5182.6659   -5217.0224            0    2410.4893    19.904064    19.903452    20.546206    8139.5763    2130.9988    2391.9578    2708.5115    -88.94409    126.15267   -72.036248   -4896.5231 
47050000    17.739615   -5219.0607   -5184.8484   -5219.0607            0    1944.3013    19.863413    19.893408    20.634673    8153.8113    1783.0851    2091.5904    1958.2283    90.463063    -204.5492   -133.03152   -4953.6418 
47051000    19.668073   -5217.8632   -5179.9317   -5217.8632            0    2087.6246     19.92777    19.867839    20.611694    8160.6173    2211.9329    1728.9455    2321.9955   -77.105718    650.34739   -84.319414   -4931.4746 
47052000    17.002518   -5217.7496   -5184.9588   -5217.7496            0    2128.5889     19.90564    19.821853    20.655153    8149.8351    2523.7794    1904.5751    1957.4123   -67.148234     520.4175    389.75119   -4931.9612 
47053000    17.118134   -5218.4531   -5185.4393   -5218.4531            0     2218.843    19.894629    19.873253     20.60084    8144.9749    2172.7851    2378.9151    2104.8289   0.59674139    125.36986    16.914197   -4921.8716 
47054000    18.653741   -5218.0245   -5182.0492   -5218.0245            0    2174.9543    19.871845    19.839602    20.693071     8158.233    2022.1173    2474.4156    2028.3301   -23.745877   -160.32046   -178.36024   -4923.2743 
47055000    17.688346   -5216.9038   -5182.7904   -5216.9038            0    2320.5752    19.890843    19.854458    20.615949    8141.6899    2335.2012    2483.8879    2142.6365   -66.460222    139.07052    194.70673   -4907.2495 
47056000    18.254982   -5216.0639   -5180.8577   -5216.0639            0    2290.3321    19.893309    19.873175    20.615092    8150.0371    1904.9266    2543.8322    2422.2373    214.29207    305.78408   -18.105852    -4908.629 
47057000     16.74202   -5216.7258   -5184.4374   -5216.7258            0    2562.3073      19.8875    19.822417    20.626681    8131.4154    2810.6662    2313.7237     2562.532   -223.40329    189.09935    80.874762   -4880.5776 
47058000    18.251076   -5219.4287   -5184.2299   -5219.4287            0    2280.3481    19.941985    19.860908    20.584677    8152.8893    2117.6241    2250.7566    2472.6637    79.779331    151.58013   -9.6406135   -4913.0931 
47059000    17.548211    -5217.197   -5183.3538    -5217.197            0     2076.263    19.923852    19.847934     20.59971       8146.1    1973.2299    2007.5997    2247.9594   -104.02247    122.84913   -229.97653   -4936.6885 
47060000    17.295949   -5216.2065   -5182.8498   -5216.2065            0    2055.2025    19.885788    19.886931    20.586725    8141.3764    2561.7142    1328.4101    2275.4831   -375.19327    259.13312    336.58053   -4938.8282 
47061000    17.722763   -5217.5143   -5183.3345   -5217.5143            0    2353.0743     19.86264    19.887457    20.610436    8141.4807    2111.1089    2569.0647    2379.0494   -319.64306    203.79591   -147.48211   -4903.9418 
47062000    18.518166   -5215.7433   -5180.0295   -5215.7433            0    2080.6849    19.893534    19.850852     20.64159    8151.4385    2097.2488    1906.0031     2238.803   -105.74844    437.95292     94.88586   -4932.6769 
47063000    18.193219   -5216.9975   -5181.9104   -5216.9975            0    2384.0727    19.900096    19.842631    20.624013    8143.8095    2071.6794    2887.2431    2193.2956   -215.77348   -137.52324    -85.23692   -4898.7562 
47064000    17.452918   -5217.3559   -5183.6965   -5217.3559            0    2120.1964    19.878426    19.856608    20.694782    8168.6055    1753.9871    2908.3714    1698.2308   -109.61814    384.39047    110.43321   -4931.1159 
47065000    17.870045    -5219.111   -5184.6471    -5219.111            0    2153.0758     19.82087    19.924586    20.663452    8160.4647    2198.6435    1901.0998    2359.4842   -51.311006    386.61674   -33.770232   -4928.4053 
47066000    18.664765   -5216.7612   -5180.7646   -5216.7612            0    2295.0505    19.872108    19.862473     20.64881    8150.2755    2881.7649    2089.8484    1913.5382   -89.530938    200.69688     39.66277   -4907.9671 
47067000    17.988195   -5220.0262   -5185.3344   -5220.0262            0    1900.6722    19.909745    19.842547    20.655411    8160.1273    1893.0793    1820.6662    1988.2711   -103.98697    447.69308   -8.0587984    -4959.141 
47068000    17.466013   -5218.3747     -5184.69   -5218.3747            0    2090.6602    19.869319    19.857645    20.700749    8167.6434    1878.3421    2501.9577    1891.6809   -58.668325    343.06416    127.83636   -4935.6575 
47069000    16.663041   -5219.3582   -5187.2221   -5219.3582            0    1955.6014     19.86913    19.850386    20.694908    8162.2763    2128.2753    1959.2289    1779.2998    -347.3532    23.843107   -262.33401   -4954.4304 
47070000    17.913045   -5217.6785   -5183.1317   -5217.6785            0    2246.7028    19.888735    19.823641    20.660114     8145.604    2093.3556    2294.4345    2352.3182   -238.39466    138.12115    150.79992    -4916.234 
47071000    18.742388   -5219.2504   -5183.1041   -5219.2504            0    2086.4323    19.884512    19.871175    20.624463    8149.3152    2483.3722     1917.944    1857.9807   -186.63119    744.75951   -383.35702   -4935.1329 
47072000    18.590487    -5215.321   -5179.4676    -5215.321            0    2379.8235    19.845149    19.917937    20.598568    8142.0877     2422.952    2307.6303    2408.8882   -138.30926    403.11173    145.80594   -4896.8779 
47073000    16.913569   -5216.9822   -5184.3629   -5216.9822            0    2602.6259    19.849784    19.889988    20.568619    8120.7371    2917.9844    2116.5785    2773.3148   -117.20751    339.22336   -467.22484   -4876.1271 
47074000    16.652616   -5218.1792   -5186.0632   -5218.1792            0    1752.3714    19.903806    19.875349    20.644978    8167.0523    2042.4707    1893.8342    1320.8092   -197.34744    632.64068    29.855813   -4977.3416 
47075000    17.713863   -5217.1721   -5183.0094   -5217.1721            0      2307.77    19.877337    19.886537    20.593505    8140.4349    2547.4998    1959.7895    2416.0208    -192.4306    102.23278    -60.62153   -4909.0312 
47076000    18.125282   -5218.4491   -5183.4929   -5218.4491            0     2291.477    19.921783    19.877999    20.575367    8147.9516    2064.9882    2125.1387     2684.304   -42.888945    385.23343    26.221148   -4911.1978 
47077000    16.477007   -5218.9719   -5187.1946   -5218.9719            0    2557.3694    19.900658    19.856475    20.615958    8146.5382    2542.2119    2343.5461    2786.3502    -271.2906    263.02767   -179.50142   -4883.3564 
47078000    18.449012   -5215.9015    -5180.321   -5215.9015            0    1956.4678    19.902015    19.892505    20.595263    8153.6841    1988.9638    2103.7622    1776.6774   -202.50032    122.46739    95.910166   -4947.6713 
47079000    18.510406   -5220.4579    -5184.759   -5220.4579            0    2172.3336    19.875722    19.897362    20.604105    8148.3967    2221.5517    2103.8698    2191.5794   -115.01809    247.26721   -77.480265   -4926.6076 
47080000    17.473158   -5215.6167   -5181.9182   -5215.6167            0    2166.0011    19.883415    19.835299    20.654169    8145.8695    1993.0568    2716.6661    1788.2803   -274.66009    66.700361   -15.038806   -4924.5991 
47081000    18.292612   -5218.7861   -5183.5072   -5218.7861            0    2013.9626    19.869756    19.913144    20.646528    8169.1972    1634.4627    2442.2236    1965.2016   -112.95776    428.09027   -340.85619    -4943.565 
47082000    17.239717    -5217.771   -5184.5228    -5217.771            0    2515.8645    19.895581    19.895238    20.579507    8145.9309    2643.4166    2269.3472    2634.8298    12.028354    306.45545    91.022268    -4885.638 
47083000    18.017611   -5216.8582   -5182.1097   -5216.8582            0    2373.1595    19.859936    19.900998    20.570355    8130.0738    2650.9972    2141.3285    2327.1527   -6.3706914     262.5302    16.775562    -4900.727 
47084000    17.929905   -5215.5742   -5180.9948   -5215.5742            0      1985.19    19.893821     19.85211    20.641537    8152.0515    1975.5545    2382.1406    1597.8751   -251.18437    433.07268   -145.69541    -4944.977 
47085000    17.590087   -5218.2485   -5184.3246   -5218.2485            0    2739.3816    19.862739    19.858485    20.638552    8140.7511    2947.9841    2475.5972    2794.5633   -2.6700783    100.35745    4.6764579   -4859.0928 
47086000    17.285053   -5218.4681   -5185.1325   -5218.4681            0    1779.7303    19.867175    19.867068    20.690748    8166.6902    1990.2142    1690.7229    1658.2539   -114.70397    367.01254   -17.698915   -4973.1616 
47087000    17.323232   -5217.0515   -5183.6422   -5217.0515            0    1952.7579    19.881321    19.857911    20.664041    8158.1943    2132.9549    2022.7193    1702.5996   -141.08543    205.53673    213.42617   -4951.3053 
47088000    18.294521   -5218.7559   -5183.4734   -5218.7559            0    2321.2117    19.937582    19.828371    20.609981    8147.7391    2180.4867    2147.9297    2635.2187   -255.10181    358.28271    267.47993   -4907.6521 
47089000    16.156541   -5218.8064   -5187.6472   -5218.8064            0    2841.9024    19.860271    19.864307    20.665148    8152.6183    3379.8574    2318.5174    2827.3322   -131.35677    270.81489    100.57581   -4849.7519 
47090000    17.786608   -5219.1432   -5184.8402   -5219.1432            0    2004.1508    19.912001    19.868026    20.592151    8146.5051    2012.9203    1844.1634    2155.3686   -93.820618   -65.800625   -63.133566   -4946.7302 
47091000    17.831861   -5218.6057   -5184.2155   -5218.6057            0    1902.8414    19.942736    19.883936    20.558381    8152.2222    1578.7701    1902.3501     2227.404   -347.97956    -70.51738   -140.07035   -4957.9833 
47092000    18.311534   -5219.2304    -5183.915   -5219.2304            0    2114.1657    19.921405    19.813979    20.657317    8153.9036    1570.0151     2629.452    2143.0301    15.554754    61.378106   -45.892877   -4932.5062 
47093000    18.577834   -5218.5151   -5182.6862   -5218.5151            0    1892.2602    19.900068    19.881008    20.632884    8163.0579    2678.1774    1204.0786    1794.5245   -93.047413    424.61663   -9.9725459   -4957.4129 
47094000    17.957489   -5218.2243   -5183.5917   -5218.2243            0    2193.4542     19.91689    19.840616    20.621037    8148.6785    2059.1514    2291.4513    2229.7598   -82.240894    323.90281   -484.40523   -4922.9214 
47095000    17.899631    -5220.443   -5185.9221    -5220.443            0    2262.9302    19.877613    19.891408    20.605755    8147.3861    2101.9513    2293.9317    2392.9074   -86.030301    365.96712    364.38187   -4917.0379 
47096000    18.273106   -5217.4272   -5182.1859   -5217.4272            0    2136.5101    19.932126    19.872396    20.565252    8145.8775    1660.0128    2548.1572    2201.3602    -259.2753    415.83759   -131.17939   -4928.3701 
47097000    17.630735   -5216.5793   -5182.5769   -5216.5793            0    2444.0003    19.872359    19.847034    20.609868    8128.6841    2598.0619    2488.2827    2245.6563    48.024568    162.74046   -89.282014   -4892.8443 
47098000    17.526521   -5217.0614   -5183.2601   -5217.0614            0    2198.8807    19.894327    19.915564    20.592766    8158.9928    1826.7246    2019.9831    2749.9344   -296.17598    207.93736     142.5577   -4921.6141 
47099000     17.67642   -5217.3944   -5183.3039   -5217.3944            0     2511.159    19.854903    19.870567     20.62712    8137.9802    2855.5072    2583.8457    2094.1241   -7.9593417   -114.13258    31.958609   -4885.2693 
47100000    17.709288   -5217.3856   -5183.2317   -5217.3856            0    2272.0923    19.868663    19.839969    20.663721    8145.5076    2470.4111    2234.3188     2111.547   -85.324657    130.02846    -102.8432   -4913.3211 
47101000    16.806879    -5219.607   -5187.1935    -5219.607            0    2000.8288    19.902528    19.845409    20.615538    8142.5973    1796.4919    2216.2537    1989.7409   -33.730419    691.11297    229.78102   -4949.5922 
47102000    16.960732   -5216.1736   -5183.4634   -5216.1736            0    2321.9214    19.875636    19.874154    20.643808    8154.5401    2540.1434    1830.6532    2594.9677   -62.372743    360.32584   -256.58099   -4907.3275 
47103000    17.742123   -5215.0257   -5180.8085   -5215.0257            0    2352.3758    19.852482    19.893541    20.545463    8114.1466    2755.3612    1635.7652    2666.0011    90.335698    553.56153   -249.43342   -4902.4366 
47104000    18.409735   -5217.6687    -5182.164   -5217.6687            0    2266.0049    19.919775    19.779566    20.654501    8137.9665    1793.6961    2742.1272    2262.1913   -80.300911    344.44308   -468.86885   -4913.2257 
47105000    18.122824   -5215.6045   -5180.6531   -5215.6045            0    2130.7163    19.928833    19.886429    20.600315    8164.1795    1895.5195    2247.5561    2249.0734    -251.0021    847.18615   -20.226788   -4926.9569 
47106000    17.375486   -5218.8295   -5185.3194   -5218.8295            0    1735.6572    19.907579    19.861423    20.621534    8153.6068    1899.1147    1535.4402    1772.4166    30.787274    113.20258    81.428535    -4978.929 
47107000    18.118367   -5218.1963   -5183.2535   -5218.1963            0    1955.8158    19.928517    19.842865    20.612406    8150.9469    1910.8634    2151.5196    1805.0643   -105.01193    328.19185   -294.37425   -4950.7595 
47108000    18.008522   -5216.7338   -5182.0028   -5216.7338            0     2267.694    19.913728     19.85472    20.586346    8139.4604    2222.1459    2133.1589    2447.7774    62.540827     617.0982   -149.37873   -4912.8147 
47109000    17.610675   -5217.7891   -5183.8254   -5217.7891            0    2046.8744    19.954226    19.846474    20.592757    8155.1651    1223.9991    2689.9936    2226.6305    175.44535    135.37806    473.79672    -4940.381 
47110000    18.133486   -5217.1991   -5182.2272   -5217.1991            0    1792.6156    19.905621    19.829001    20.692338    8167.4436    1788.7346      1754.48    1834.6323    31.288549   -298.32779   -160.09491   -4968.7019 
47111000    17.864758   -5214.5312   -5180.0775   -5214.5312            0    2526.6667       19.896    19.901441    20.572209    8145.7526    2482.1442    2353.0693    2744.7864   -20.478303    285.27521    211.14358    -4879.916 
47112000    18.350833   -5217.5301    -5182.139   -5217.5301            0    2330.1757     19.91745    19.795424    20.662094    8146.5336    2292.5094    2538.7817     2159.236   -156.09932    213.94113    7.4288223   -4905.2935 
47113000    18.316266   -5220.3586   -5185.0341   -5220.3586            0    2542.1495    19.865481    19.901427    20.596023    8142.6669    2420.9163    2735.6442    2469.8881   -44.869896   -175.60454   -121.75897   -4883.1477 
47114000    18.443352   -5217.8502   -5182.2806   -5217.8502            0    2373.2727    19.848348    19.856653    20.674887    8148.4228    2533.8722    2125.4501    2460.4958    223.62974    343.77579    295.40456   -4900.2495 
47115000    17.963566    -5217.925   -5183.2808    -5217.925            0    2310.6016    19.850166    19.884958    20.623505    8140.5039     3112.881    1581.7049    2237.2188   -308.25385    135.08007   -59.633306   -4908.9641 
47116000    17.862238   -5218.8841   -5184.4353   -5218.8841            0     2210.537    19.861836     19.80443    20.687404    8137.4389     2670.033    2158.2504    1803.3276   -19.390768    106.95673    153.51853   -4922.0972 
47117000    17.046119   -5219.1264   -5186.2515   -5219.1264            0    2114.0192    19.840133    19.838714    20.693188    8144.8953    2555.9693    2179.4422    1606.6462   -125.59951    475.92561   -41.701146   -4935.1378 
47118000    16.398888    -5216.559   -5184.9324    -5216.559            0     2035.325     19.86006    19.913942    20.631405    8159.5574    2288.8738    1680.0586    2137.0427   -58.574163    340.86312     125.1477   -4942.7312 
47119000    17.209635   -5218.3368   -5185.1466   -5218.3368            0    2106.3805    19.797936    19.903474    20.708589    8160.1717    2860.9842    1710.0447    1748.1126   -256.47437     76.21038    -15.43837    -4934.471 
47120000    17.757999   -5217.3556   -5183.1078   -5217.3556            0    2345.9325    19.873885    19.779576    20.684025    8130.8284    2326.3048    2853.6184    1857.8742   -8.4071083    284.09541    309.76367   -4904.9276 
47121000    16.705921   -5218.5759   -5186.3571   -5218.5759            0    2154.4101    19.854694    19.871917    20.638952    8143.1161    2280.5966    2195.9355     1986.698    -133.1002    745.15238    242.68046   -4930.5016 
47122000    17.639635   -5216.2506   -5182.2311   -5216.2506            0    1874.9459    19.815732     19.89713    20.696931    8160.3074    1694.6379    2158.4365    1771.7634    96.977759    397.59927   -17.441737   -4959.0943 
47123000    18.344204   -5218.4296   -5183.0512   -5218.4296            0    2077.4262    19.938932    19.838216      20.6074    8151.3159    1678.9971    2456.1663    2097.1151   -49.041469    4.3061887      128.126   -4936.0898 
47124000     18.17473   -5216.9988   -5181.9473   -5216.9988            0     2255.745    19.897764    19.829103     20.61919    8135.4008    2209.0892    2328.8342    2229.3115   -203.93181    246.00468    81.460539   -4914.3111 
47125000    17.819899   -5217.2238   -5182.8567   -5217.2238            0    2277.5919    19.920134    19.844865    20.640681    8159.5165    2293.5622    2384.2855    2154.9281    98.200683    245.83301     97.89426   -4911.8274 
47126000    16.243724   -5217.8784    -5186.551   -5217.8784            0    1654.9188    19.894625    19.891703    20.668804    8179.4305    1885.0942    1435.3693    1644.2929   -253.18471   -85.492919    58.282939    -4989.138 
47127000    17.569444   -5216.9313   -5183.0471   -5216.9313            0     2311.632    19.908709    19.847598    20.608752    8143.3432    2220.2574    2564.7491    2149.8896    -203.0254    119.21569   -159.20454   -4908.5124 
47128000    17.454869   -5217.8981   -5184.2349   -5217.8981            0    2322.1564    19.876961    19.875579    20.577463    8129.4579    2422.1474    2287.7598     2256.562   -161.84162    219.39107    345.64098   -4908.9205 
47129000    18.782343   -5216.4538   -5180.2305   -5216.4538            0    2420.9855    19.880242    19.850395    20.627181    8140.1175    2882.5563    2130.2453    2250.1548   -170.01395   -18.858194   -78.554613   -4892.8225 
47130000    17.195167   -5219.7022   -5186.5399   -5219.7022            0    1985.6725    19.833415    19.902362    20.672143    8159.9524     2075.932    2118.3071    1762.7783   -95.085865     267.5612    71.259718   -4950.2358 
47131000    16.595781   -5217.9551   -5185.9487   -5217.9551            0    2105.1804    19.900456    19.832429    20.653757     8151.509    2441.9202    2049.4329    1824.1881    10.658778    289.05764   -176.39555   -4935.6819 
47132000    17.302272   -5214.9912   -5181.6223   -5214.9912            0     2184.415    19.867192    19.870385    20.631856    8144.8121    2222.7155    2080.0442    2250.4852    95.245527    333.41299   -4.1228896   -4922.1494 
47133000    18.041066   -5216.9125   -5182.1188   -5216.9125            0    2041.7863    19.815353    19.925801    20.680323    8165.3521    2654.9743    1646.3931    1823.9915   -325.74032     458.0629    182.74936   -4938.9762 
47134000    17.621035   -5219.1229   -5185.1393   -5219.1229            0    1908.3444    19.877375    19.839645    20.659091    8147.1205     2001.863     1971.132    1752.0383   -169.59865    353.19959   -99.370164   -4958.3948 
47135000    17.303962   -5217.6347   -5184.2626   -5217.6347            0    2391.6027    19.897879    19.862867     20.58752    8136.7837    2460.2637    2203.4017    2511.1426    56.945589   -46.038761    109.52401   -4900.4591 
47136000    18.512388   -5218.7484   -5183.0457   -5218.7484            0    1725.0238    19.947037    19.901846    20.558009    8161.1771    1709.5101     1594.737    1870.8243   -13.953697    353.79164    38.748223   -4977.7293 
47137000    17.122068   -5217.7796   -5184.7582   -5217.7796            0    2343.1967    19.949736    19.814957    20.588034    8138.5149    2410.5567    2563.9084     2055.125   -73.773806    779.40399    225.75298   -4906.6398 
47138000    17.922242   -5219.0513   -5184.4867   -5219.0513            0    2255.9932    19.894253    19.856078    20.637138    8152.1202    2155.6156    2053.9523    2558.4118    -143.3966    90.438082   -249.68258    -4916.271 
47139000    16.618432   -5218.9124   -5186.8623   -5218.9124            0    1961.1341    19.911855    19.851188    20.590991    8139.0831    2075.9781    1938.6286    1868.7957   -246.85815    170.04586    14.263524   -4954.0753 
47140000    17.681055   -5216.1242   -5182.0248   -5216.1242            0    2167.7809    19.911344    19.887789    20.589264    8153.1962    1934.9144    2165.9781    2402.4504   -56.547521   -135.87136    229.53948   -4924.2627 
47141000    17.879634     -5217.93   -5183.4477     -5217.93            0    2357.6731    19.942075    19.831071    20.571136    8135.3227    2028.1373    2464.4864    2580.3957   -184.54542     482.8244   -88.525307   -4903.7207 
47142000    17.528489   -5217.0282    -5183.223   -5217.0282            0    2587.8949    19.972906    19.807585    20.560971    8134.2293    1836.4738    3127.3253    2799.8855   -198.74957   -133.27864    53.588198   -4876.2226 
47143000    17.150684    -5217.275   -5184.1984    -5217.275            0    2387.4073    19.941005    19.843394    20.598493    8150.7661    1993.2181    2797.4306    2371.5732    -196.7655    319.72391   -347.14092    -4900.406 
47144000    18.076765   -5218.7182   -5183.8556   -5218.7182            0    1961.7873    19.899379    19.816182      20.6732    8152.0567    1853.7489    2416.2617    1615.3513   -231.70322    167.57408    412.00634   -4950.6199 
47145000    17.613201    -5217.209   -5183.2405    -5217.209            0    2626.0428    19.881822     19.82596    20.628118    8131.1132    2788.9332    2552.0436    2537.1517    -99.92144    504.62018   -340.23876   -4871.8339 
47146000    17.358881   -5218.3616   -5184.8836   -5218.3616            0    1834.7638    19.889593    19.882262    20.648211    8165.3375     2160.204    1309.3451    2034.7423   -169.88185    431.01383   -142.50022   -4966.3943 
47147000     17.66099   -5220.7658   -5186.7051   -5220.7658            0    2332.8509    19.846646    19.873511    20.672777    8153.8093    2296.1162    2507.3075    2195.1291    7.9147498    161.22642    112.59326   -4909.2943 
47148000    16.726384   -5217.4361   -5185.1778   -5217.4361            0    2307.2401     19.89559    19.852591    20.637848     8151.517    1975.4781    2545.3347    2400.9073   -295.23494    74.385749   -168.53146   -4910.8897 
47149000    17.940717   -5217.1805   -5182.5803   -5217.1805            0    2407.1244    19.912414    19.865192     20.56795     8135.939    2484.9851    2071.7298    2664.6585   -109.08108    278.33703   -303.59072   -4896.9646 
47150000     17.28313   -5217.5732   -5184.2412   -5217.5732            0     2327.445    19.885029    19.846169    20.615256    8135.6386    2429.4821    2457.6691    2095.1837     -133.245   -333.41946    37.112646     -4908.09 
47151000    18.674134   -5217.2248   -5181.2101   -5217.2248            0    2110.5193    19.910014    19.892509    20.570886    8147.3077    1970.6561    2211.5608    2149.3409    7.8601911    314.92349    479.58265    -4930.438 
47152000    18.448715   -5217.4266   -5181.8467   -5217.4266            0    2383.3271    19.883642    19.867093    20.633956    8151.0349    2371.0526    2774.0333    2004.8953   -249.94641    321.83509   -358.13968     -4898.53 
47153000    17.065327   -5216.9855   -5184.0736   -5216.9855            0    2604.1032    19.904183    19.873283    20.593481    8145.9875    2734.7255    2436.5525    2641.0317     92.31582     457.6096   -4.9069463   -4874.7038 
47154000    17.712836   -5219.3267    -5185.166   -5219.3267            0    2017.6904    19.877983    19.895993    20.629343    8158.7444    2146.5813    2083.7672    1822.7227   -27.434388   -279.97793   -143.16098   -4945.0872 
47155000    18.431925   -5220.0861   -5184.5386   -5220.0861            0    2472.3078    19.819783     19.89409    20.617623    8129.4573    2942.1495    2035.2553    2439.5187   -160.27206    197.92137    151.90064   -4891.4223 
47156000    17.412209   -5219.2569    -5185.676   -5219.2569            0    2557.4443    19.892602    19.882277    20.551019     8128.138     2600.528    2489.9341    2581.8709   -129.21724    374.90919    122.52562   -4882.5151 
47157000    17.962331   -5216.5832   -5181.9414   -5216.5832            0    2524.2634    19.872924    19.835268    20.616703    8126.7903    2350.0197    2672.7888    2549.9818   -36.749492   -149.07951    422.51035   -4882.7634 
47158000    16.553524   -5219.1449   -5187.2201   -5219.1449            0    1765.6758    19.875776    19.896141     20.64225    8163.0032     2132.442    1755.1405    1409.4448   -35.185739    511.93806   -105.70006   -4977.0181 
47159000    17.240733   -5217.4693   -5184.2191   -5217.4693            0    2240.3863    19.888137    19.890957    20.588264    8144.5955    2887.1333    1758.6455    2075.3801    -213.2374   -40.293645    125.80856   -4918.1047 
47160000    17.498467   -5217.0075   -5183.2602   -5217.0075            0    2337.4338    19.903494    19.815543    20.620009    8132.5018    2120.0774    2475.9749    2416.2491   -115.34216    -136.1234    199.52022   -4906.0307 
47161000    17.048491   -5218.9451   -5186.0656   -5218.9451            0    2308.3409    19.890201    19.870433    20.600785    8141.9849    2264.5787    2428.2779    2232.1662    108.80476   -22.431502    205.63304   -4911.9675 
47162000    16.968843   -5216.1869   -5183.4611   -5216.1869            0     2136.725    19.960878    19.853356    20.577415    8154.6325    2253.6179    1822.0425    2334.5145   -6.8937588    78.769559   -188.85967   -4929.3469 
47163000    17.793483   -5216.4808   -5182.1645   -5216.4808            0    2301.8081     19.87571    19.883142    20.630525    8153.0091    2326.8112    1964.5744    2614.0386   -101.43439    327.61166    98.126961    -4908.472 
47164000    17.447293   -5218.8552   -5185.2067   -5218.8552            0    2540.6198    19.910282    19.852778    20.593662    8140.1475    2512.9978     2421.343    2687.5186   -112.65687     89.04075   -55.705765   -4883.5952 
47165000    17.474765   -5218.0088   -5184.3072   -5218.0088            0    2190.2979    19.914486    19.796404    20.685138    8154.8102    2127.9097    2213.4058     2229.578   -187.97662    538.39499   -158.25443   -4923.8161 
47166000    17.888422   -5216.4019   -5181.9025   -5216.4019            0    2394.7646    19.879337    19.882757    20.617627    8149.2412    2785.8829    2210.3869     2188.024   -302.38691   -96.385336    367.43547   -4897.2888 
47167000    17.891427    -5218.044   -5183.5389    -5218.044            0    2447.8295    19.880931    19.809395    20.693078    8149.5386    2966.4027    2429.6164    1947.4694   -129.35741    277.39818    85.327151   -4892.6078 
47168000    18.839119   -5217.7026   -5181.3698   -5217.7026            0       2217.7    19.830319    19.901327    20.627101    8140.4784    2577.8649    2144.3328    1930.9023   -106.65762    69.837364    247.08968   -4918.0833 
47169000     18.86805   -5218.5615   -5182.1729   -5218.5615            0    2086.3143    19.852643    19.847415    20.664277    8142.2136    1614.6645    2777.3135     1866.965    -56.00199    29.141649   -6.8652587   -4934.4317 
47170000    18.207946   -5218.9709   -5183.8553   -5218.9709            0    2094.2028     19.91704    19.865166     20.61357    8155.8687    1717.8335    2399.4546    2165.3202   -222.52331    317.32104    112.34841   -4934.7604 
47171000    18.042388   -5218.1232   -5183.3269   -5218.1232            0    1672.2065    19.963746    19.856453    20.608781    8169.5098    1613.8551     1625.947    1776.8173    44.545019    -196.4575    68.940613   -4984.0937 
47172000    18.146845   -5219.7001   -5184.7024   -5219.7001            0    2319.4368    19.884754    19.843028    20.645442    8146.1489    2309.6115    2217.9371    2430.7619   -58.844845    450.38613   -40.727383   -4909.1458 
47173000     17.43532   -5218.1476   -5184.5221   -5218.1476            0    2338.4465    19.977306    19.784355     20.60778    8144.9803    1618.3396    3277.0626    2119.9373    141.88496    557.51044    164.92644   -4906.7469 
47174000    17.767224   -5217.9715   -5183.7059   -5217.9715            0    2361.9403    19.864195    19.844934    20.654188    8141.9562    2007.0806    2520.9679    2557.7722   -168.42942    170.10643    252.77653   -4903.2442 
47175000    17.298987   -5217.7753   -5184.4128   -5217.7753            0      2063.76    19.922345    19.841174    20.628881    8154.2401    2134.3056    2289.9583    1767.0162   -77.053711     541.8062   -38.592945   -4938.9879 
47176000    17.413117   -5220.0749   -5186.4922   -5220.0749            0    1900.9224    19.915663    19.877436    20.624031    8164.4828    1696.6135    1876.1439    2130.0098   -187.98515    556.80579   -366.04138   -4960.1482 
47177000    17.990624   -5216.5966   -5181.9001   -5216.5966            0    2096.2684    19.919998    19.863881    20.576138    8141.7408    2559.7041    1540.1465    2188.9547   -152.86593   -157.62449     175.8062   -4932.9915 
47178000    17.338578   -5216.2424   -5182.8035   -5216.2424            0    2471.9945    19.960876    19.846033    20.531072    8133.2653    1767.3892    2944.9651    2703.6292   -100.15223    341.00063    103.77122   -4889.5871 
47179000    18.257034    -5217.402   -5182.1918    -5217.402            0      1946.73     19.91805    19.876476     20.62574    8165.7436    1767.2027     1894.991    2177.9963   -31.226135   -189.40955    17.582149   -4950.3577 
47180000    17.999969    -5217.488   -5182.7735    -5217.488            0    2175.7955    19.908063    19.833857    20.650895    8154.0817    2373.2233    2187.2298    1966.9334    -193.0853    486.51716   -104.13643   -4924.0303 
47181000    18.046778   -5220.0985   -5185.2938   -5220.0985            0    1899.7518    19.902246     19.93159     20.58217    8164.6052    1816.9513    1710.9906    2171.3135   -225.24668   -29.523403    238.58392   -4959.0858 
47182000    17.946897    -5218.224   -5183.6119    -5218.224            0    2079.7908    19.869677    19.846991    20.685306    8157.3188     1979.941    2564.4808    1694.9505   -163.69266   -71.376373    152.90208   -4936.1873 
47183000    16.647424   -5217.4009    -5185.295   -5217.4009            0    1777.3911    19.912084    19.817805    20.678976    8160.2091    1935.8794    2047.0062    1349.2877   -178.03366   -107.45329    87.687422   -4973.7707 
47184000    17.327433   -5220.4362   -5187.0188   -5220.4362            0    2002.3571     19.84267    19.891704    20.717667    8177.3566     2141.898    2082.2651    1782.9083     133.6786    211.31591    438.69092   -4948.2209 
47185000    18.693007   -5216.0898   -5180.0387   -5216.0898            0    2686.7549    19.879816    19.883771    20.574161    8132.6717    2603.8613    2537.4984    2918.9051   -232.14548    307.30917    222.06114   -4861.3717 
47186000    17.649685   -5216.0029    -5181.964   -5216.0029            0    2099.7175    19.867753    19.909908    20.622054    8157.3653    2210.4911    1839.0238    2249.6375   -10.024879    101.83284    128.42389   -4932.1673 
47187000    17.206335   -5217.4532   -5184.2693   -5217.4532            0    2265.2714     19.87596      19.8607     20.64267    8148.7038    2341.1975    2047.2272    2407.3893    31.772567    4.9006416    94.346962   -4915.0634 
47188000    18.449591   -5218.0655   -5182.4839   -5218.0655            0    2274.2821    19.860737    19.900856    20.604056     8143.664    2855.1257    2005.4469    1962.2737   -184.80868    259.96908    117.55151   -4912.3743 
47189000    17.563872   -5219.0408   -5185.1674   -5219.0408            0    2420.1453    19.868044    19.865209    20.588556    8125.9501     2435.686    2397.4698    2427.2802   -79.823103    20.228639    102.15397   -4898.3593 
47190000    18.489248   -5216.7368   -5181.0788   -5216.7368            0    2142.3936    19.898057    19.883921    20.571056    8138.9665    2048.5579    1878.1115    2500.5113   -250.21817    17.420477       171.07   -4926.7799 
47191000     18.10319   -5217.3992   -5182.4857   -5217.3992            0    2525.5755     19.89991    19.868036    20.574609    8134.6267    2347.8707     2611.808    2617.0479   -45.271499    353.49816   -78.064186   -4882.8635 
47192000    17.888215    -5218.285   -5183.7861    -5218.285            0    1957.8495    19.894409    19.892558      20.5981    8151.7123      1888.99     1936.992    2047.5665   -97.982327    1.5313758    -367.6232   -4951.0284 
47193000    17.646585   -5217.2331   -5183.2001   -5217.2331            0    2381.7587    19.849134    19.919303    20.583417    8138.2903    2668.0615     2079.006    2398.2086   -302.26799    425.12499    41.454979   -4900.5125 
47194000    17.895037   -5216.2709   -5181.7588   -5216.2709            0    2235.8999    19.927358    19.806833       20.649    8150.1158    2548.5906    2349.1317    1809.9773   -216.75346     57.81922    52.987535   -4915.9973 
47195000    17.504099   -5217.1066   -5183.3485   -5217.1066            0    2415.1974     19.82029    19.899726    20.617258    8131.8248    2743.2321    2127.9385    2374.4216   -52.816319    112.88426    13.225236   -4896.9198 
47196000    17.535452   -5216.8547   -5183.0361   -5216.8547            0    2313.2002    19.873369    19.891389    20.615029    8149.3048     2446.044    2015.2745    2478.2822    15.304787    125.68594   -90.169945    -4908.114 
47197000    17.698052   -5217.1028   -5182.9706   -5217.1028            0     2164.024      19.8573    19.878848    20.640991    8147.8302    2521.7926    2059.3987    1910.8808   -23.222863   -317.51307   -439.35285   -4925.8245 
47198000    17.576684   -5215.9167   -5182.0186   -5215.9167            0    2284.1701    19.904557    19.854812    20.596219    8139.6509    2225.3044    2177.5396    2449.6664   -141.82558    69.152924    261.68371   -4910.8682 
47199000    18.151543   -5217.1713   -5182.1645   -5217.1713            0    2079.5843    19.917219    19.857753    20.616764    8154.1611    2021.1744    2120.7279    2096.8508   -98.710226    307.55094    185.73014   -4934.8602 
47200000    17.316113   -5217.7515   -5184.3559   -5217.7515            0    2062.9909    19.854829    19.949109    20.581629     8152.098    2186.2111     1626.207    2376.5547   -117.82372    336.89554   -43.812236    -4939.087 
47201000    16.718847   -5216.1068   -5183.8631   -5216.1068            0    1764.6237    19.912145    19.889085    20.590477    8154.5364    1822.5867    1531.9246    1939.3597   -214.90824    369.71521    -219.3315   -4974.0043 
47202000     17.58965   -5217.5189   -5183.5957   -5217.5189            0    2201.3356    19.834749    19.869614    20.650049     8138.366    2501.7978    1953.8929     2148.316    6.1291475    277.16469   -108.66164   -4922.3198 
47203000    17.129642   -5218.4688   -5185.4328   -5218.4688            0    2317.6075      19.8499    19.864147    20.640027    8138.3901    2463.7087    2119.4445    2369.6692    51.381475    341.96876    264.79865   -4910.3558 
47204000    17.146127   -5217.9784   -5184.9107   -5217.9784            0     2064.436    19.908632    19.888304     20.61591    8162.8474    1938.9123    1824.5404    2429.8553   -123.32948    375.11115    463.85085   -4939.1462 
47205000    17.003331   -5219.0112   -5186.2188   -5219.0112            0    1920.3929    19.871172    19.833597    20.692142     8155.121    2028.0994    2074.7043    1658.3749   -291.79378    99.026287    260.85601   -4957.8187 
47206000    17.568165   -5218.9248   -5185.0431   -5218.9248            0    2284.2956    19.889279    19.878475    20.599743    8144.4902    2576.0616    1966.3902     2310.435   -128.65511    517.83442    21.525012   -4913.7167 
47207000    17.738415   -5218.0453   -5183.8353   -5218.0453            0     2101.515    19.829126    19.907858    20.655177    8153.7433    2263.9237    2015.5793    2025.0419   -94.530444    657.58489    285.05639   -4933.9358 
47208000      18.0743   -5217.1618    -5182.304   -5217.1618            0    2342.6761     19.87353    19.869379    20.607529    8137.3922    2420.9929    2457.1387    2149.8967    85.524354    426.70288   -141.22225   -4904.2857 
47209000     16.89864   -5215.8444    -5183.254   -5215.8444            0    2229.4724    19.860867    19.877341    20.629314    8144.0657    2111.6199    2211.8888    2364.9084   -288.74344    353.70075     171.8591   -4918.4532 
47210000    17.856369   -5216.4872   -5182.0497   -5216.4872            0    2066.0303     19.88221    19.910184    20.593137    8151.9673    2052.7383    2142.4589    2002.8938    34.673867   -35.005993    336.62704   -4936.4233 
47211000    17.446472   -5217.0351   -5183.3881   -5217.0351            0    2143.5777    19.865528    19.810732    20.696337    8145.0569    2378.3706    2098.6345    1953.7279   -114.21998    413.11453    165.56113   -4928.7583 
47212000    17.787763   -5217.3834   -5183.0782   -5217.3834            0     2170.635    19.938611    19.845301    20.619464     8158.869    2271.8748    2161.7608    2078.2694    19.106178    82.480407   -189.36341   -4924.7971 
47213000    18.188451   -5217.3622   -5182.2843   -5217.3622            0    1955.8318    19.871232    19.851378    20.718144    8172.7139    2518.1948    1721.5297    1627.7709   -149.19898    111.14673   -142.60733   -4949.1674 
47214000    17.404802   -5217.4204   -5183.8538   -5217.4204            0    2021.7377    19.861899     19.81937    20.728896    8159.9367    2283.4917     2121.158    1660.5636   -264.58597     723.0732     110.3572   -4943.2583 
47215000    17.358359   -5220.3331    -5186.856   -5220.3331            0    2286.6075    19.943523    19.800291    20.613955    8140.1943    1865.3586    2610.4174    2384.0464    -62.51607    522.00361     193.6886   -4915.3982 
47216000    17.906646   -5218.8902   -5184.3557   -5218.8902            0    2459.3643    19.886518    19.874409    20.619959    8149.6842    2249.5384    2410.0733    2718.4811    4.3488029    66.322238     426.8035   -4892.0485 
47217000    16.324989   -5219.0024   -5187.5183   -5219.0024            0    1958.3215    19.895564    19.841949    20.657221    8154.7846    2180.2958    2029.2967    1665.3719    3.0036936    43.832886   -722.05121   -4954.6168 
47218000    18.141114   -5219.3795   -5184.3928   -5219.3795            0    2009.7853    19.862164    19.889422    20.692628    8174.5601    2006.9857    2202.1303    1820.2398   -160.44364    -111.9431   -235.03094   -4944.7911 
47219000     18.21464   -5219.5712   -5184.4428   -5219.5712            0    2032.0942    19.929853     19.86625    20.643424    8173.3808    2144.8987    1688.6451     2262.739   -112.95595    578.12071    9.8693602   -4942.2164 
47220000    17.340543   -5219.6444   -5186.2017   -5219.6444            0    2103.4146    19.882642    19.900994    20.597446    8150.0873     2485.036    1546.8532    2278.3547   -73.730315    140.53306   -31.977569   -4936.1884 
47221000    17.484455   -5217.6546   -5183.9344   -5217.6546            0    1646.5556    19.893285    19.847003    20.639235    8148.8257    1440.3561    1860.2865    1639.0241    -172.7467    68.268647   -458.34726    -4988.254 
47222000    17.595198   -5217.8541   -5183.9203   -5217.8541            0    2580.9553    19.921705     19.88586    20.540667    8137.3956    1989.5592    2901.6343    2851.6724    167.64625    207.63727   -103.98392    -4877.624 
47223000    16.844757   -5217.2449   -5184.7584   -5217.2449            0    2249.5202     19.83498     19.91674    20.637228    8152.6987    2622.4985    1741.1527    2384.9094   -231.07618    359.01294    339.85808   -4917.2933 
47224000    18.029719   -5218.8575   -5184.0857   -5218.8575            0    2294.6497    19.867989     19.84621    20.681546    8154.8223    2498.8771    2438.1689    1946.9031    -51.12686     754.5571   -9.8951872   -4911.1836 
47225000    17.660707   -5219.4062   -5185.3461   -5219.4062            0     1646.247    19.913819    19.857617    20.646839    8164.6067    1493.1003    1989.6024    1456.0382    22.500916    350.00225     356.2558   -4989.3235 
47226000    17.391496   -5217.4721   -5183.9312   -5217.4721            0    2090.8975    19.903807    19.827395    20.616619    8136.1558    1952.3106    2046.2442    2274.1377   -272.89772    89.918168   -159.31125   -4935.8305 
47227000    18.229024   -5214.7696   -5179.6134   -5214.7696            0    2182.6182    19.887753    19.928728    20.549403    8144.5015    1850.0377    2127.5714    2570.2456   -141.03583    580.82016   -202.85536   -4920.3638 
47228000    18.218336   -5217.1386    -5182.003   -5217.1386            0    2277.9322    19.839321    19.841519    20.692085    8145.2792     2532.503    2356.6766     1944.617   -202.13069    219.60001    161.73637   -4911.4062 
47229000    18.416938   -5217.3401   -5181.8215   -5217.3401            0    2578.2001    19.925489    19.864584     20.57624    8144.3135    2421.0268    2687.8689    2625.7046    -213.6686    362.84067    62.577099    -4875.592 
47230000    18.702556   -5216.5019   -5180.4325   -5216.5019            0    2416.0134    19.848529    19.874495    20.643941    8143.6115    2415.6726     2423.968    2408.3996    25.700613    285.74998    272.01072   -4893.4917 
47231000    18.286884   -5217.0948    -5181.827   -5217.0948            0    2209.1622    19.894252    19.901589    20.567828     8143.363    1831.1775    2106.2698    2690.0393   -274.02058    529.83749   -122.08681   -4919.4612 
47232000    17.931211   -5218.2026   -5183.6207   -5218.2026            0    1819.5739    19.879138    19.874736    20.653585    8160.0791    2384.8869    1256.2772    1817.5578   -107.66537   -136.65826   -550.80718   -4967.0798 
47233000    17.471047   -5216.9759   -5183.2815   -5216.9759            0    2105.7212    19.847093    19.882966    20.602344     8130.078    1860.1784    2186.6514    2270.3339   -144.52577    443.24952   -208.34267   -4933.6086 
47234000    19.105099   -5219.4637   -5182.6179   -5219.4637            0    2573.5041    19.881475    19.844428      20.6477    8146.2716    2595.6978    2560.6401    2564.1744   -3.4719243   -66.114116    232.76931   -4876.8727 
47235000    17.147255   -5219.2808   -5186.2109   -5219.2808            0    1927.7383    19.869963     19.90404    20.680501    8178.9839    2217.8367    1783.9384    1781.4399    76.121477     149.5995   -24.933752   -4956.2662 
47236000    17.067861   -5217.2623   -5184.3455   -5217.2623            0    1988.7703    19.892102    19.835761    20.625494    8138.3035    1681.4103    2279.5472    2005.3533    -189.6285    322.95433   -194.56513   -4948.3007 
47237000    18.312762   -5219.2445   -5183.9268   -5219.2445            0    2406.3892    19.935491    19.856627    20.570697    8142.9433     1996.866    2837.3086     2384.993   -130.28525    258.36052     413.3292   -4898.1525 
47238000    17.700661   -5215.9196   -5181.7824   -5215.9196            0    2558.6804    19.897476    19.829623    20.595518    8126.1561    2940.3818    2631.5272    2104.1322   -232.80591    218.50356    5.2845008    -4878.549 
47239000     17.39181   -5217.0924   -5183.5508   -5217.0924            0    2391.8016    19.895479    19.802741     20.66871    8143.1622    2542.4114    2602.4277    2030.5659   -141.83392    451.74841    12.616993   -4899.5013 
47240000    17.900816   -5217.0648   -5182.5416   -5217.0648            0    2584.4519    19.898186    19.882984    20.561871    8135.0022    3005.4677    1866.3741    2881.5139   -79.911894    109.18796    240.03761   -4875.9205 
47241000    17.075436   -5216.8908   -5183.9593   -5216.8908            0    2686.1982    19.860373    19.868777    20.619422    8136.4511    3136.6381    2449.5894    2472.3671   -57.095545    501.10132    36.143817   -4865.2102 
47242000    18.025203   -5218.9682   -5184.2051   -5218.9682            0     2112.909    19.908656    19.845017    20.647602    8157.6117    2246.6483     2092.744    1999.3348    46.473715    149.74543    15.589348   -4932.8315 
47243000    17.518417   -5217.3242   -5183.5384   -5217.3242            0    1948.3531    19.922031    19.930924    20.555778    8161.9697    2019.8497    1763.0492    2062.1604    -68.10295    308.89124    114.75366   -4951.6182 
47244000    18.108803   -5218.5848   -5183.6604   -5218.5848            0    2039.0442    19.905234    19.810009    20.669252    8150.3586    2594.3831    1803.2114    1719.5383   -125.47766    388.16789    46.731198   -4941.2902 
47245000    18.851111    -5217.671    -5181.315    -5217.671            0    2083.0656    19.893245    19.895031    20.621537    8161.5244     2138.854    1993.3107    2117.0322   -141.78995     251.1822    371.15274    -4933.373 
47246000      18.0111   -5216.8741   -5182.1382   -5216.8741            0    2297.9529     19.89903    19.835026    20.637332    8145.5092    2278.5142    2439.6316    2175.7128   -13.524931    210.88156     1.762078   -4909.1555 
47247000    17.644084   -5218.0586   -5184.0305   -5218.0586            0    1895.7285    19.852936    19.901168    20.683364    8171.9275    2161.4907    1569.6884    1956.0064    -51.93391    144.86237   -67.213392   -4958.0991 
47248000    17.890453   -5217.5529   -5183.0497   -5217.5529            0    1797.2056    19.913904     19.87334    20.638154    8167.6686    1817.5603    1849.3771    1724.6794   -131.00034    116.78715   -333.00948   -4968.9718 
47249000    17.095071   -5218.2332    -5185.264   -5218.2332            0    2145.1063    19.870246    19.816888    20.698455    8150.3567    1955.5303    2908.7831    1571.0056   -181.61276    174.31814    136.29574   -4930.2868 
47250000    18.415298   -5215.5958   -5180.0804   -5215.5958            0    2529.9248    19.873413    19.807083    20.649411    8128.3174    1831.4273    3130.9223    2627.4247    -111.9495   -228.65514    421.96979    -4880.175 
Loop time of 336.744 on 64 procs for 250000 steps with 972 atoms

Performance: 128.287 ns/day, 0.187 hours/ns, 742.404 timesteps/s
195.2% CPU use with 32 MPI tasks x 2 OpenMP threads

MPI task timing breakdown:
Section |  min time  |  avg time  |  max time  |%varavg| %total
---------------------------------------------------------------
Pair    | 24.973     | 33.805     | 41.934     |  78.5 | 10.04
Bond    | 1.0219     | 1.2376     | 1.6346     |  12.6 |  0.37
Kspace  | 145.72     | 155.48     | 169.15     |  40.3 | 46.17
Neigh   | 0.098227   | 0.10687    | 0.11719    |   1.7 |  0.03
Comm    | 56.014     | 62.271     | 66.713     |  35.7 | 18.49
Output  | 0.48839    | 0.48873    | 0.49056    |   0.1 |  0.15
Modify  | 67.554     | 69.47      | 71.084     |  10.8 | 20.63
Other   |            | 13.88      |            |       |  4.12

Nlocal:        30.3750 ave          35 max          22 min
Histogram: 1 2 0 4 3 1 6 5 4 6
Nghost:        2696.16 ave        2727 max        2677 min
Histogram: 6 2 4 6 4 3 3 2 0 2
Neighs:        9694.47 ave       12353 max        6618 min
Histogram: 3 1 2 2 4 7 2 6 3 2

Total # of neighbors = 310223
Ave neighs/atom = 319.15947
Ave special neighs/atom = 2.0000000
Neighbor list builds = 250
Dangerous builds = 0

unfix		3
unfix		2
unfix		1

write_data	data.final.${pid}
write_data	data.final.1
System init for write_data ...
PPPM initialization ...
  extracting TIP4P info from pair style
  using 12-bit tables for long-range coulomb (../kspace.cpp:340)
  G vector (1/distance) = 0.37182118
  grid = 24 24 24
  stencil order = 5
  estimated absolute RMS force accuracy = 0.003557567
  estimated relative force accuracy = 1.0713507e-05
  using double precision FFTW3
  3d grid and FFT values/proc = 3211 432
Last active /omp style is kspace_style pppm/tip4p/omp
WARNING: Not all mixed pair coeffs generated from mixing. Use write_data with 'pair ij' option to store all pair coeffs. (../write_data.cpp:312)

write_restart   restart.lmp.${pid}
write_restart   restart.lmp.1
System init for write_restart ...
PPPM initialization ...
  extracting TIP4P info from pair style
  using 12-bit tables for long-range coulomb (../kspace.cpp:340)
  G vector (1/distance) = 0.37182118
  grid = 24 24 24
  stencil order = 5
  estimated absolute RMS force accuracy = 0.003557567
  estimated relative force accuracy = 1.0713507e-05
  using double precision FFTW3
  3d grid and FFT values/proc = 3211 432
Last active /omp style is kspace_style pppm/tip4p/omp
Total wall time: 0:05:36
