LAMMPS (30 Jul 2021)
Processor partition = 1
  using 2 OpenMP thread(s) per MPI task
using multi-threaded neighbor list subroutines
variable        pid world 0 1
variable        phase world IceV IceIII

shell cd ${phase}
shell cd IceIII
include Restart.lmp
echo both
log log.lammps
#include		in.partitions
include		in.temp
variable        temperature equal 141.47
variable	tempDamp equal 100.0
include		in.pressure
variable        pressure equal 7183.2
variable        pressureDamp equal 1000.0 # This is 1 ps
include		in.seed
variable        seed equal 745823

units		real
atom_style	full

read_restart	restart.lmp.${pid}
read_restart	restart.lmp.1
Reading restart file ...
  restart file = 30 Jul 2021, LAMMPS = 30 Jul 2021
  restoring atom style full from restart
  orthogonal box = (0.14808562 0.077547991 0.13200904) to (19.851915 19.922453 20.567989)
  2 by 4 by 4 MPI processor grid
  restoring pair style lj/cut/tip4p/long/omp from restart
  restoring bond style harmonic/omp from restart
  restoring angle style harmonic/omp from restart
  972 atoms
  648 bonds
  324 angles
Finding 1-2 1-3 1-4 neighbors ...
  special bond factors lj:    0        0        0       
  special bond factors coul:  0        0        0       
     2 = max # of 1-2 neighbors
     1 = max # of 1-3 neighbors
     1 = max # of 1-4 neighbors
     2 = max # of special neighbors
  special bonds CPU = 0.002 seconds
  read_restart CPU = 0.006 seconds
include 	in.setup
variable	out_freq equal 1000
variable	out_freq2 equal 10000
variable	out_freq3 equal 1000

timestep	2.0

neigh_modify    delay 7 every 1

include		in.tip4p
# This is TIP4P/Ice

# create groups ###
group ox type 2
324 atoms in group ox
group hy type 1
648 atoms in group hy

# set charges - beside manually ###
set group ox charge -1.1794
Setting atom values ...
  324 settings made for charge
set group hy charge 0.5897
Setting atom values ...
  648 settings made for charge

# ### TIP3P Potential Parameters ###
pair_style lj/cut/tip4p/long/omp 2 1 1 1 0.1577 8.5
pair_coeff 1 1*2 0.000 0.000
pair_coeff 2 2 0.21084 3.1668
bond_style  harmonic
bond_coeff  1 450 0.9572
angle_style harmonic
angle_coeff 1 55 104.52
kspace_style pppm/tip4p/omp 1.0e-5
pair_modify tail yes

thermo          ${out_freq}
thermo          1000
thermo_style    custom step temp pe etotal epair emol press lx ly lz vol pxx pyy pzz pxy pxz pyz enthalpy

restart 	${out_freq3} restart.lmp.${pid} restart2.lmp.${pid}
restart 	1000 restart.lmp.${pid} restart2.lmp.${pid}
restart 	1000 restart.lmp.1 restart2.lmp.${pid}
restart 	1000 restart.lmp.1 restart2.lmp.1


include         in.dump
dump            myDump all atom ${out_freq2} dump.water.${pid}
dump            myDump all atom 10000 dump.water.${pid}
dump            myDump all atom 10000 dump.water.1
dump            myDump2 all dcd ${out_freq2} dump.dcd
dump            myDump2 all dcd 10000 dump.dcd
dump_modify     myDump append yes
dump_modify     myDump2 append yes


variable natoms 	equal  "count(all)"                        # NUMBER ATOMS
variable H      	equal  "enthalpy/v_natoms"                 # ENTHALPY-per-atom
variable Vol      	equal  "vol/v_natoms"                 # volume-per-atom
fix AVG all 		ave/time ${out_freq} 1 ${out_freq} v_Vol v_H file vol_enthalpy.dat
fix AVG all 		ave/time 1000 1 ${out_freq} v_Vol v_H file vol_enthalpy.dat
fix AVG all 		ave/time 1000 1 1000 v_Vol v_H file vol_enthalpy.dat


timer           timeout 02:55:00 every 1000
New timer settings: style=normal  mode=nosync  timeout=02:55:00

fix 		1 all shake 1e-6 200 0 b 1 a 1
Finding SHAKE clusters ...
       0 = # of size 2 clusters
       0 = # of size 3 clusters
       0 = # of size 4 clusters
     324 = # of frozen angles
  find clusters CPU = 0.000 seconds
fix             2 all nph aniso ${pressure} ${pressure} ${pressureDamp}
fix             2 all nph aniso 7183.2 ${pressure} ${pressureDamp}
fix             2 all nph aniso 7183.2 7183.2 ${pressureDamp}
fix             2 all nph aniso 7183.2 7183.2 1000
fix             3 all temp/csvr ${temperature} ${temperature} ${tempDamp} ${seed}
fix             3 all temp/csvr 141.47 ${temperature} ${tempDamp} ${seed}
fix             3 all temp/csvr 141.47 141.47 ${tempDamp} ${seed}
fix             3 all temp/csvr 141.47 141.47 100 ${seed}
fix             3 all temp/csvr 141.47 141.47 100 745823


run             250000
PPPM initialization ...
  extracting TIP4P info from pair style
  using 12-bit tables for long-range coulomb (../kspace.cpp:340)
  G vector (1/distance) = 0.37232486
  grid = 24 24 24
  stencil order = 5
  estimated absolute RMS force accuracy = 0.0034920401
  estimated relative force accuracy = 1.0516175e-05
  using double precision FFTW3
  3d grid and FFT values/proc = 3211 432
Last active /omp style is kspace_style pppm/tip4p/omp
Neighbor list info ...
  update every 1 steps, delay 7 steps, check yes
  max neighbors/atom: 2000, page size: 100000
  master list distance cutoff = 10.8154
  ghost atom cutoff = 10.8154
  binsize = 5.4077, bins = 4 4 4
  1 neighbor lists, perpetual/occasional/extra = 1 0 0
  (1) pair lj/cut/tip4p/long/omp, perpetual
      attributes: half, newton on, omp
      pair build: half/bin/newton/omp
      stencil: half/bin/3d
      bin: standard
Setting up Verlet run ...
  Unit style    : real
  Current step  : 24250000
  Time step     : 2
  Walltime left : 2:54:59.94
Per MPI rank memory allocation (min/avg/max) = 10.19 | 10.19 | 10.19 Mbytes
Step Temp PotEng TotEng E_pair E_mol Press Lx Ly Lz Volume Pxx Pyy Pzz Pxy Pxz Pyz Enthalpy 
24250000    150.70225   -4948.8484   -4658.2065   -4948.8484            0    7890.7847     19.70383    19.844905     20.43598    7990.8897    7422.6639    8151.5234    8098.1668    477.06154   -100.14524    946.05307   -3738.6228 
24251000    137.52539   -4951.9579   -4686.7286   -4951.9579            0    8415.0008    19.809661    19.814004    20.398612     8006.633    7202.4471    9603.8391    8438.7161    -596.5622   -322.84621    419.92223   -3704.1214 
24252000    140.01719   -4956.6576   -4686.6227   -4956.6576            0     6476.755    19.976699     19.72372    20.474116    8067.1048    5406.0325    7866.8136     6157.419   -230.03726     331.4217    113.61136   -3924.6295 
24253000    145.25655   -4968.1221   -4687.9826   -4968.1221            0    7815.1737    19.901258    19.727078    20.366961    7995.9399    7731.0089    7621.3385    8093.1738    41.287278    691.44662    918.74881    -3776.635 
24254000    137.58264   -4965.1563   -4699.8166   -4965.1563            0    7409.0253    19.917613    19.605798    20.478936    7997.0387    7683.7586    7154.1809    7389.1365   -881.91144    -110.1713    56.695458   -3835.7123 
24255000    135.52152   -4943.4551   -4682.0904   -4943.4551            0    6885.3796    19.838388    19.685137    20.495752    8004.0296    5745.8686    7421.5922     7488.678   -448.67054   -563.88847    367.52582   -3878.3562 
24256000    142.15692   -4951.5887   -4677.4271   -4951.5887            0    6592.6282    19.906158    19.723126    20.483493     8042.058    6971.7011    5999.3664     6806.817   -173.38212      364.019   -2.4478055   -3904.2096 
24257000    139.43081   -4953.4826   -4684.5786   -4953.4826            0    5888.8923     19.74984    19.754576     20.57018    8025.4498    6217.3946    5594.9575    5854.3246    11.896041    1209.2596   -509.39776   -3995.3253 
24258000    142.44058   -4955.3526    -4680.644   -4955.3526            0    8278.2879    19.765224    19.775126    20.539972    8028.2493    7867.9256    8352.8072    8614.1308   -192.27305   -205.50611   -162.52893   -3711.3907 
24259000    140.75326   -4941.0526   -4669.5981   -4941.0526            0    7534.3714    19.871355    19.732058    20.474419    8028.0753    6534.2582    8934.0221    7134.8337    165.22604   -19.787185    604.35104   -3787.4645 
24260000    139.75721   -4946.0534   -4676.5199   -4946.0534            0    7577.3819    19.672141    19.759019    20.605809    8009.5232    7733.8411       7967.2    7031.1045   -795.46723   -436.70112    714.80516   -3791.4008 
24261000    140.30611   -4959.6328   -4689.0406   -4959.6328            0     6381.669    19.770579    19.904257    20.414909    8033.6482    7310.0003    5633.5341    6201.4725   -377.12827    1549.5775    98.343617   -3941.3482 
24262000    147.60684   -4942.7491   -4658.0769   -4942.7491            0    7248.6069    19.905496    19.835456     20.37619    8045.2246    7140.2492    7839.4463    6766.1253   -193.73748    255.31664   -525.86928   -3807.5881 
24263000     143.0678   -4943.4779   -4667.5597   -4943.4779            0    6526.3932    19.952122    19.779956    20.391211    8047.4343    6096.8206    6347.9759     7134.383    427.00333   -2060.5735    414.79894   -3901.5988 
24264000     137.7537   -4957.3056    -4691.636   -4957.3056            0    6612.0987    19.769029    19.715865    20.569959    8017.4194    7196.1448    6315.3493    6324.8019    262.84963    680.68704    948.07091   -3918.5109 
24265000    138.98328   -4957.6529    -4689.612   -4957.6529            0    7866.1558    19.627564    19.782914    20.608737    8002.1751    9229.6455    7361.0827    7007.7391   -734.38306    1791.2899    295.28601    -3771.604 
24266000    133.60592   -4942.2888   -4684.6185   -4942.2888            0    5858.4736    19.714043    19.846146    20.549125    8039.7997    6155.8597    5934.0853    5485.4758   -914.78573   -324.62262    71.602067   -3997.6994 
24267000    149.06933   -4975.8042   -4688.3115   -4975.8042            0    6212.7762    19.901438    19.766149    20.444205     8042.235    4776.0746    7357.9838    6504.2702    210.94467   -97.874053   -610.46049   -3959.6289 
24268000    138.73239   -4968.1108   -4700.5537   -4968.1108            0    6168.0451     19.88823    19.854666    20.386329    8050.0346    5307.1446    6457.5373    6739.4535    19.182297    221.80058    311.71399    -3976.416 
24269000    137.08566   -4947.9109   -4683.5297   -4947.9109            0    8287.9317    19.922581    19.831507    20.220454    7988.9963    7724.3298    7952.5672    9186.8982   -408.98575    133.73449    915.91067   -3717.8919 
24270000    143.45679   -4963.8078   -4687.1393   -4963.8078            0    9057.9465    19.645354    19.808635    20.534246    7990.8533     9625.251     9184.671    8363.9174   -182.87231   -38.079862   -373.96063   -3631.5407 
24271000    139.19737   -4964.1861   -4695.7323   -4964.1861            0    6891.0921    19.871914    19.677066    20.501976    8016.7024    6911.2082    6129.6088    7632.4595   -1114.5743    751.74729   -669.78128   -3890.0576 
24272000    147.50278   -4967.8677   -4683.3962   -4967.8677            0    7238.4459    19.838278    19.725198    20.499848    8021.8769    8111.6168    6436.9476    7166.7733     353.9502   -152.42382    796.65175   -3836.5643 
24273000    142.39796   -4971.8429   -4697.2165   -4971.8429            0    8037.2383    19.924653    19.782166    20.297304    8000.2391    7406.6159     8251.394     8453.705   -117.83582    663.28525    411.04729   -3759.4695 
24274000    145.51283   -4939.5781   -4658.9444   -4939.5781            0    7445.5837    20.000116     19.66607    20.410267    8027.8412    7977.8103    6995.3125    7363.6282    29.240973     850.8325     332.7783   -3787.2316 
24275000    145.05664   -4948.6507   -4668.8967   -4948.6507            0    6405.8468    19.854358    19.743358    20.573877    8064.7887    6945.5912    5209.5609    7062.3883    598.78324    250.67199   -903.40397   -3915.4624 
24276000    146.49096   -4951.8279   -4669.3078   -4951.8279            0    6573.0505    19.756654    19.896785    20.441282    8035.3432    7173.0845    5415.0353    7131.0317   -279.87039   -115.61828    1028.4966   -3899.0301 
24277000     146.1865   -4949.0666   -4667.1336   -4949.0666            0    7345.8076    19.869752    19.762468    20.424458     8020.181    5969.3602    8454.4682    7613.5946    289.30874    665.68595    440.95658   -3807.9231 
24278000    137.94117    -4951.884   -4685.8529    -4951.884            0    8457.1528    19.761373    19.806856    20.401598    7985.4035    9219.2477    6639.8359    9512.3749   -765.95894    1059.3977    125.77113    -3700.942 
24279000    139.06716   -4949.7085   -4681.5058   -4949.7085            0    6473.1672    19.474141    19.891001    20.725981    8028.4194     7652.798    6789.5586     4977.145   -749.36289    154.86096    591.40053   -3923.5868 
24280000    144.29296   -4948.3957   -4670.1145   -4948.3957            0    7361.7547    19.708091    19.897219    20.386952    7994.4621    7733.6853    6703.5231    7648.0555   -255.36366     -1347.07   -2141.9981      -3811.8 
24281000    141.34247   -4936.0014   -4663.4106   -4936.0014            0     7978.939    19.690953    19.881286    20.389145    7981.9721    8142.9056    8380.1771    7413.7344   -323.69671    266.88094    -581.7548   -3734.5913 
24282000    140.78425   -4946.8109   -4675.2966   -4946.8109            0    6672.2416    19.757924    19.754317    20.564913    8026.5739    7477.5974    5946.1506    6592.9767   -621.61794    -910.9943   -177.79398   -3894.2484 
24283000    139.27384   -4949.6879   -4681.0865   -4949.6879            0    7651.5694    19.790103    19.873272    20.385305    8017.4203      7534.25    7825.0768    7595.3813   -178.85437    315.05021   -38.040584   -3786.4203 
24284000    140.42011   -4958.8161   -4688.0041   -4958.8161            0    6669.8825    19.667876    19.802608    20.417898    7952.2655    4522.7431    7693.8367    7793.0677   -133.50718    1069.5979   -502.86795   -3914.4603 
24285000    132.92411   -4967.5045   -4711.1491   -4967.5045            0    6284.3802    19.740444    19.805548    20.553372    8035.7581    6383.7538    6209.1355    6260.2514   -404.65225   -65.340971     543.8116    -3974.662 
24286000    136.72122   -4962.7498   -4699.0714   -4962.7498            0    6452.6967    19.667395    19.902516    20.497617    8023.3956    6981.0672    5686.4251    6690.5977   -200.77585   -496.94009   -403.32958   -3944.0221 
24287000     138.7307    -4949.687   -4682.1331    -4949.687            0    8963.4135    19.734382    19.670396    20.537138      7972.17     7731.485    10628.869    8529.8861    179.81634    192.01923    187.70198   -3639.9936 
24288000    147.86105   -4959.8561   -4674.6937   -4959.8561            0    7416.7042     19.75082    19.857769    20.519438    8047.8717    7558.2378    8079.5725    6612.3021    535.02972   -1.2717691    53.563509   -3804.1954 
24289000    134.63249   -4952.6464   -4692.9964   -4952.6464            0    7298.2354    19.811185    19.646575    20.565824    8004.6695    7058.8886    7328.1636    7507.6539   -180.14225    110.87293   -850.18325   -3841.0011 
24290000    135.37998   -4952.6452   -4691.5535   -4952.6452            0    6434.4518    19.936581    19.841819    20.358947    8053.5523    6854.7088    6511.4664    5937.1804   -368.46324    -568.9543    222.71098   -3935.8091 
24291000    143.33661   -4964.1443   -4687.7076   -4964.1443            0    5731.7488    19.964666    19.827165    20.407631    8078.2119    4735.1235    5767.2209    6692.9019   -127.76643    409.73395    1118.6565   -4012.4363 
24292000    142.42609   -4963.6347    -4688.954   -4963.6347            0    7507.6733    19.823433    19.664009    20.575943    8020.6706    7617.5918    7533.6574    7371.7708   -58.135008    43.062819    309.01501   -3810.7571 
24293000    145.26855   -4952.0281   -4671.8655   -4952.0281            0    6582.4978    19.800147    19.846303    20.454709    8037.8768    6051.9503    6450.2024    7245.3408   -721.92393    272.38502   -390.88893   -3900.2376 
24294000    137.75728   -4959.8647   -4694.1882   -4959.8647            0    7039.6226    19.577382    19.866425    20.466421    7960.0581    7308.7939    6814.4476    6995.6263    -85.27888   -105.90822     928.4786   -3876.9635 
24295000     130.7168   -4954.5208   -4702.4225   -4954.5208            0    7025.4198    19.708337    19.952626    20.372213    8011.0278    7861.5859    6490.7312    6723.9424    219.69037    448.32417    328.26265   -3881.6243 
24296000    139.18968   -4961.4725   -4693.0335   -4961.4725            0    7723.0539    19.664713    19.887413    20.480501      8009.52    7940.7922    7618.4441    7609.9255   -270.51459    789.48408      676.385   -3790.8987 
24297000    142.75635   -4964.7538   -4689.4362   -4964.7538            0    6388.7688    19.646014    19.786428    20.633535    8020.7594    7565.7821    6156.8756    5443.6485    93.990974   -41.871658   -71.290458   -3942.1128 
24298000    139.78463   -4968.6604    -4699.074   -4968.6604            0    7167.4046    19.751944    19.892373    20.370057    8003.6608    6422.3899    8441.4569     6638.367   -48.175739   -215.46517    949.56873   -3862.4574 
24299000    143.39068   -4951.8896   -4675.3486   -4951.8896            0    7560.3774    19.796085    19.849915    20.320592    7984.9888    7007.7087    7639.5232    8033.9003   -36.756239    66.617853   -902.57573    -3794.921 
24300000    135.45256   -4953.8352   -4692.6036   -4953.8352            0    8484.0117    19.684957    19.689476    20.533916    7958.6681     6820.984    10234.446     8396.605   -128.37251    1340.0641   -1443.9533   -3707.8727 
24301000    152.91692   -4938.2749   -4643.3617   -4938.2749            0    7830.1867    19.626228    19.873332    20.491357    7992.4191    9222.0136    6672.9822    7595.5641    161.91202      1006.97    976.89384   -3730.6655 
24302000    138.45481   -4959.0369   -4692.0152   -4959.0369            0     7252.724    19.758563     19.86255    20.369849    7994.2582    6811.3822    6568.7514    8378.0385    349.21718    699.29358    694.36147   -3846.4342 
24303000    138.55847   -4964.9798   -4697.7582   -4964.9798            0    7173.0526    19.602424    19.922163    20.458232    7989.4036    8756.1317    5865.5176    6897.5086    535.92133   -333.61463    1447.1692   -3861.9738 
24304000    148.07437   -4961.3583   -4675.7844   -4961.3583            0    7269.6622     19.80354     19.78816    20.589615    8068.5681    7098.5345    7767.5189    6942.9333    119.89776    1204.0004    646.47885   -3820.3502 
24305000    138.70991   -4947.3682   -4679.8545   -4947.3682            0    8340.6072    19.609748    19.866801    20.579152     8017.287    10362.116    7358.6749    7301.0308    201.17109   -352.98822    436.08023   -3704.6381 
24306000    143.43059   -4935.2171   -4658.5991   -4935.2171            0    7992.6425    19.676417    19.829115    20.485596    7992.7818    8660.6333    7689.2872    7628.0069    142.70078    551.55801   -1313.9689   -3726.9246 
24307000    131.46192   -4951.4042   -4697.8689   -4951.4042            0    8153.6455    19.856321    19.929294    20.209047    7997.1739    8500.6546    7332.0803    8628.2017    466.29981    594.42063    673.77196   -3746.9045 
24308000    141.20525   -4956.1035   -4683.7773   -4956.1035            0    6086.9467    19.733515    19.795842    20.585189    8041.4302    6434.0256    5699.5811    6127.2335   -16.400903    17.382014    701.14737   -3969.9245 
24309000    139.63173   -4959.4018   -4690.1103   -4959.4018            0    7575.6512    19.917437     19.82444    20.361251    8039.6812    7606.2597    7434.9541    7685.7399   -385.24749    608.67323     -517.719   -3801.8614 
24310000    141.93951   -4958.7659   -4685.0236   -4958.7659            0    6257.8872    19.828701    19.847388     20.39703    8027.2086    5454.4404    6410.5344    6908.6867    5.8708946   -102.87779   -202.49556   -3952.4215 
24311000    145.03002   -4958.6635   -4678.9609   -4958.6635            0    7411.1375    19.669371    19.959411    20.424425    8018.4056    7922.7572    6127.0361    8183.6192   -406.36237     101.9003    50.204553   -3812.3009 
24312000    144.72644   -4942.6148   -4663.4977   -4942.6148            0    7298.1161    19.858664    19.796048    20.476277    8049.6967    6104.3092    8247.2308    7542.8084    14.879145    287.01824    455.79092   -3806.7239 
24313000    147.66208   -4961.4993   -4676.7205   -4961.4993            0    5805.4859      19.9172    19.692501     20.53683    8054.9448    5172.1393    7460.3671    4783.9513   -204.73591    918.67742    75.611403   -3994.7321 
24314000    137.47367   -4948.3191   -4683.1896   -4948.3191            0    6890.7479    19.854591    19.599923    20.555185    7999.0187    7571.6168    6305.1397    6795.4873   -15.693138   -443.00327    38.388078   -3879.3323 
24315000    141.72848   -4964.8347   -4691.4994   -4964.8347            0    6935.1502    19.957113    19.709786    20.400711    8024.6283    6712.7838    7172.4749     6920.192   -218.84444   -605.63002   -629.59638    -3879.872 
24316000    145.31849   -4941.1449    -4660.886   -4941.1449            0    7980.1774     19.84788    19.926217    20.248203    8008.0257    7566.1699    7280.8868    9093.4755    201.51227   -288.31591   -984.02885   -3728.8903 
24317000    139.49229   -4957.8039   -4688.7813   -4957.8039            0    7119.4655    19.778725    19.714158    20.468706    7981.1765    6632.3451    8246.1155    6479.9359   -75.463345   -444.50765   -1490.4659    -3860.095 
24318000    141.59285   -4963.5216   -4690.4479   -4963.5216            0    5615.7173    19.680896    19.934093    20.551125    8062.6342    7304.5984    3215.8178    6326.7355   -362.23061    152.62948   -194.36914   -4030.1224 
24319000    138.15088    -4968.174   -4701.7384    -4968.174            0    7736.8378    19.760815    19.784006    20.490349    8010.6626    7781.1821    8285.4695    7143.8617    264.21775    1749.7864    677.53521   -3797.8645 
24320000    147.87777   -4957.7502   -4672.5555   -4957.7502            0    7668.4271    19.912805    19.835672    20.186493    7973.3386    7045.2332    7286.1045    8673.9436    -164.9497    726.31635    121.35444   -3780.8481 
24321000    145.83697   -4958.4288   -4677.1699   -4958.4288            0    7342.6695    19.694896    19.900695    20.443164    8012.5366     8950.491    6112.5003    6965.0173    67.161245    567.85755    503.29217    -3819.145 
24322000    152.91818   -4951.7857   -4656.8701   -4951.7857            0    6219.6825    19.843341    19.863674     20.52658     8090.791    7221.7001    5552.7316    5884.6158      214.855    852.20178    137.58519   -3922.9731 
24323000    140.52829   -4981.6832   -4710.6626   -4981.6832            0    6275.4848    19.857958      19.8231    20.482887    8063.0126    7559.0778    5382.1457    5885.2309   -661.28339   -850.49022   -19.933317   -3972.7235 
24324000    140.19032   -4961.2354   -4690.8666   -4961.2354            0    6769.4663    19.815503    19.633953    20.486624    7970.4573    7052.0179    6635.3712    6621.0097   -123.95592   -180.70228    539.00894   -3903.9774 
24325000    139.95915   -4959.8328   -4689.9099   -4959.8328            0    7507.3264    19.869778    19.725057    20.449156    8014.6889    6776.6912    7508.6616    8236.6263     194.2523    229.29728    249.65557   -3812.4084 
24326000    139.78496   -4954.8158   -4685.2287   -4954.8158            0    7117.9408    19.984186    19.628399    20.387196    7997.0321    6408.5745    6880.3558    8064.8919   -144.42042    60.443834    377.76347   -3855.0739 
24327000    140.06164   -4978.7384   -4708.6177   -4978.7384            0    7438.0474    19.940228    19.664915    20.405583    8001.4962    6569.7999      8034.93    7709.4122   -357.13556    951.82816    -923.3204   -3840.6451 
24328000    156.35994   -4972.6874   -4671.1341   -4972.6874            0    6084.8198     20.01491    19.630456    20.547424    8073.1202    7304.1831    5481.8559    5468.4206   -475.24437    246.75481   -1225.3115   -3954.7185 
24329000     142.3313      -4958.8   -4684.3022      -4958.8            0    9358.0337    19.738057    19.733638    20.311101    7911.2482     7877.101    10972.947    9224.0533   -289.94937   -488.68529    450.05126   -3604.5962 
24330000    145.07679   -4953.9196   -4674.1268   -4953.9196            0    6072.3971    19.931575    19.710439    20.524289     8063.174    5043.9232    7494.5997    5678.6684   -378.21877    983.50146   -457.93498   -3960.0547 
24331000    148.62364    -4966.989   -4680.3559    -4966.989            0    6419.7493    19.827748    19.781233    20.472793    8029.7835    6821.1486    5944.2522    6493.8471    499.60047    778.86419   -612.04228   -3928.5637 
24332000    143.43288   -4965.3718   -4688.7494   -4965.3718            0    8265.1913    20.094524    19.536359    20.292703    7966.3844    6339.5709    9568.3345    8887.6686     342.4917   -577.92826   -850.64648   -3728.4867 
24333000    141.72789   -4956.1261    -4682.792   -4956.1261            0    7250.8129    19.843395    19.825429     20.41714    8032.1809    8180.0371    6056.8307     7515.571   -263.06742    1857.3547    133.48054   -3833.4236 
24334000    146.46922   -4954.3011   -4671.8229   -4954.3011            0    5428.5393    19.898745    19.780303    20.594236    8105.9569    3682.6793    6797.4502    5805.4883    225.58515   -464.10893    1371.2466   -4030.0769 
24335000    134.02408    -4960.814   -4702.3373    -4960.814            0    5858.3389    19.916101    19.684449    20.617551    8082.8527    5825.9478    6022.4148    5726.6541    279.33617    1543.4348   -645.60745   -4011.7556 
24336000    142.85395   -4970.9123   -4695.4064   -4970.9123            0     6196.634    19.871585    19.899823    20.336132    8041.7409    6138.8243    5434.5832    7016.4945    177.63836    784.63891    552.20105   -3968.6618 
24337000    137.00249   -4958.3559   -4694.1351   -4958.3559            0    7331.7914    19.786577    19.671971    20.606446     8020.873    6412.6249    8574.7199    7008.0293    -750.0042   -233.91283   -845.22554     -3836.49 
24338000     141.3478   -4954.2911     -4681.69   -4954.2911            0    6770.0648    19.770904    19.727224    20.557601    8017.9793    5867.3543    7305.7219     7137.118    298.84873    283.19955   -221.57074   -3890.0392 
24339000    138.38024   -4975.2587   -4708.3808   -4975.2587            0    7288.5074    19.704178    19.730009     20.55425    7990.7442    6121.9369    8600.3943     7143.191   -29.858137    761.33601   -105.59146   -3859.0014 
24340000    137.82416   -4962.3368   -4696.5313   -4962.3368            0    6075.7888    19.923432    19.866199    20.370948    8062.8795    3795.5477    7613.4474    6818.3712   -484.16492    815.30946    986.47835   -3982.0864 
24341000    139.45401   -4960.3165   -4691.3677   -4960.3165            0    5985.9702    19.802978    20.014629    20.236358    8020.6654    6015.4157    5445.8614    6496.6334   -309.95585   -32.547664   -789.76551   -3991.1698 
24342000    145.93444   -4973.9201   -4692.4733   -4973.9201            0    7047.1878    19.817316    19.779389     20.46224    8020.6744    6616.4735    7918.3114    6606.7785   -320.04128    28.125631   -735.12345   -3868.1404 
24343000    146.18776   -4959.5725   -4677.6372   -4959.5725            0    6540.5421    19.681117    19.779929    20.679073    8050.1789    6893.1271    6674.7162    6053.7829    304.01667   -62.750985    35.029402   -3909.7539 
24344000    146.20784   -4969.1426   -4687.1685   -4969.1426            0    7054.3069    19.925419    19.878815     20.30536    8042.8254    7873.4556    6189.0474    7100.4177   -341.93893   -614.11653   -150.68821   -3859.7239 
24345000    138.36835   -4971.4329   -4704.5779   -4971.4329            0    7208.0833    19.750936    19.797324    20.453263    7997.5467    5814.9903    7945.7477     7863.512    447.99422   -304.03607    229.58921   -3863.8558 
24346000    146.69189   -4961.7039   -4678.7962   -4961.7039            0    7236.0783    19.654703    19.826031    20.610314    8031.3186    8667.9546    6764.7236    6275.5566    11.678295   -845.34678   -124.25322   -3831.2449 
24347000    140.72796   -4954.7363   -4683.3306   -4954.7363            0    6661.3382    19.739201    19.742427    20.558335    8011.5778     6024.518     7906.994    6052.5026   -121.83128    226.57549   -937.97486   -3905.0156 
24348000    146.54935   -4971.0247    -4688.392   -4971.0247            0    5939.6829    19.984575    19.843712    20.395863    8088.3494    4187.8831    6012.9822    7618.1835    259.57581   -1130.3596   -466.45244   -3987.7453 
24349000    137.96364   -4954.1087   -4688.0342   -4954.1087            0     7100.918    19.762462    19.745182    20.582359    8031.5124    6905.4839    7878.8896    6518.3804   -526.65143   -94.962279   -244.70247    -3856.294 
24350000     139.9201   -4955.1071   -4685.2594   -4955.1071            0    7048.2226    19.812971    19.689405    20.465298    7983.6274    6720.4985    7754.0224    6670.1469   -55.867407   -70.433753    266.36839   -3864.6136 
24351000      139.041   -4969.7876   -4701.6354   -4969.7876            0    8573.6157    19.810713    19.834576    20.237269    7951.9732     9236.702    8473.5409    8010.6043     295.3517   -20.540765   -633.27243   -3707.3414 
24352000    140.87328   -4957.9185   -4686.2326   -4957.9185            0    7481.0158    19.778352    19.725348    20.558974    8020.7725    8438.7377    7471.9595    6532.3502   -418.87499   -155.20321    612.21513   -3811.1427 
24353000    147.78185   -4955.7866   -4670.7769   -4955.7866            0    7640.1856    19.710019    19.788529    20.541862     8011.989    7303.5249    8222.4259    7394.6059    53.698279   -126.92627    358.78134   -3778.0469 
24354000    141.95645   -4939.7603   -4665.9853   -4939.7603            0    8262.6931    19.702664     19.79839    20.377869    7949.0202    8387.8322    7416.7927    8983.4542    81.547676    842.98387   -586.84598   -3708.1053 
24355000     150.1933   -4951.9178   -4662.2573   -4951.9178            0    7249.4147    20.008679    19.739902    20.308752    8021.3348    6484.3255    7920.2732    7343.6452   -67.301458   -73.219692    25.268949   -3814.1995 
24356000    141.89371   -4973.8224   -4700.1684   -4973.8224            0    7106.1943    19.877345    19.763135    20.429886    8025.6489    7317.0884    8118.3641    5883.1305   -211.60041    -788.1889   -758.83797   -3868.4178 
24357000    141.44475   -4953.7331    -4680.945   -4953.7331            0    8055.0998    19.821002    19.671218     20.51623    7999.3448    7431.5035    8517.0016    8216.7942   -335.75182   -87.894412     -624.265    -3741.219 
24358000    145.80771    -4960.112   -4678.9096    -4960.112            0    6093.5483    19.821757    19.763065    20.608484    8073.1401    6414.9864    5663.3014    6202.3572    124.53664   -761.40486    1108.6356   -3961.4646 
24359000    145.83396   -4968.6138   -4687.3608   -4968.6138            0    7146.3768    19.775779    19.618378     20.71124    8035.3131    7180.1154    7674.1062    6584.9089     152.4736    118.12185   -560.29807   -3849.8997 
24360000    144.26498   -4948.6631   -4670.4359   -4948.6631            0    6914.1789    19.903201    19.659874    20.529593    8033.1153    6950.9524    6155.4712    7636.1131   -768.71311    494.09379   -566.06836   -3860.4071 
24361000    148.81329   -4959.4445   -4672.4455   -4959.4445            0    6125.6454    19.915473    19.708932    20.570053     8074.007    5610.8509     7065.482    5700.6034   -212.38884   -636.63568    -499.1865    -3951.144 
24362000    136.21457   -4932.9831   -4670.2819   -4932.9831            0    7165.2849    19.662347    19.882541    20.392874    7972.3379    7166.8029    6772.3134    7556.7385   -296.78967   -378.46046   -392.89906   -3837.1859 
24363000    138.79525    -4970.746   -4703.0677    -4970.746            0    5609.1132    19.850338    20.084555    20.285852    8087.6686    6544.8121    3421.3927    6861.1347    76.976637    430.93538   -826.32683   -4041.4708 
24364000    142.20901   -4955.2913   -4681.0293   -4955.2913            0    6303.4902    19.897466    19.776947    20.422288     8036.398    5927.7212    7157.4013    5825.3482    289.43919    -146.9198   -344.26627   -3942.2437 
24365000    135.12336   -4951.3997   -4690.8029   -4951.3997            0    5618.4836    19.830307    19.762452    20.626255    8083.3364    5093.5304    6732.5575     5029.363    -237.6981    704.63411    193.11515   -4028.4558 
24366000    134.17962   -4962.5405   -4703.7638   -4962.5405            0    6564.5142    19.774846    19.887859     20.48771    8057.3932    7331.2247    6454.9517    5907.3662   -240.08057    583.38948    1051.8838   -3932.3755 
24367000    131.46923   -4953.6953   -4700.1458   -4953.6953            0     6618.114    19.701916    19.676628     20.65001     8005.333    7198.5653    6809.9243    5845.8522    236.35396   -114.53769    1164.9581   -3927.4839 
24368000    139.50572    -4954.724   -4685.6754    -4954.724            0    8408.9294     19.92436    19.633574    20.290937    7937.5387    7952.9448    7089.2357    10184.608    16.608205    1165.3339   -600.77118   -3712.2506 
24369000     132.2239   -4951.7689   -4696.7639   -4951.7689            0    6778.5935    19.956885     19.67838    20.424902    8021.2507    6776.5676    6018.9438    7540.2691   -746.63624   -568.97933   -1421.4451   -3903.7925 
24370000    145.64283   -4970.7386   -4689.8541   -4970.7386            0    6957.2383    19.792754    19.796758    20.578818    8063.4468    8326.6064    7333.2958    5211.8127   -247.60443   -242.01331   -333.05075    -3871.703 
24371000    129.57701    -4954.423   -4704.5229    -4954.423            0    8521.1609    19.648523     19.70743    20.666143    8002.3827    7219.0779    11062.503    7281.9013   -78.660123    558.01718   -949.73968   -3710.0477 
24372000    145.32443   -4950.6049   -4670.3345   -4950.6049            0      7061.04    19.823449    19.857437    20.467662    8056.9498    7755.6195    7124.5208    6302.9797    512.26414    352.07675    446.48707   -3840.6457 
24373000    142.79716   -4952.2103   -4676.8139   -4952.2103            0    8596.7981    19.645887    19.789483    20.455246    7952.6307    8071.5901    9056.6941    8662.1102   -413.48515   -376.30095   -326.99129    -3679.749 
24374000    138.35688   -4946.9262   -4680.0933   -4946.9262            0    7874.3278    19.654271    19.792534    20.578704    8005.2769    8703.3376    7876.2651    7043.3808   -468.10192   -125.38077    1207.1078   -3760.7754 
24375000    141.59307   -4947.3539   -4674.2797   -4947.3539            0    6935.2075    19.762402    19.816411    20.524979    8037.9896     6731.325    7642.1346    6432.1629    167.40359    114.31418   -82.631745   -3861.2942 
24376000    134.85939   -4958.8738   -4698.7861   -4958.8738            0    8370.3236    19.762872     19.77995    20.498526    8013.0504    8173.6006    9102.9243    7834.4461    -129.7757    135.12358   -975.29865   -3720.6123 
24377000    144.25673   -4967.0593   -4688.8481   -4967.0593            0     7248.049    19.611945     19.83378    20.522878    7982.9685     7519.441    8064.2159    6160.4901   -279.03147    434.32521   -336.07427   -3845.0055 
24378000    144.25881   -4958.8952     -4680.68   -4958.8952            0    8598.6291    19.476756    20.025793    20.331983    7930.2354    9692.8649    7296.7627    8806.2596    259.02278   -134.45536     -814.711   -3686.2111 
24379000    147.52307   -4942.9138   -4658.4031   -4942.9138            0     7440.862    19.854263    19.766692    20.396421    8004.6385    8420.4925    5735.2108    8166.8828    330.98214     654.8556    -413.0683   -3789.7611 
24380000     136.2166   -4968.6518   -4705.9466   -4968.6518            0    6550.6666    19.792054    19.644894    20.627152    8020.1008    6415.9604    6439.7384    6796.3012    565.19247    97.490365   -354.40002   -3939.7483 
24381000    141.51865   -4985.0993   -4712.1687   -4985.0993            0    6613.8452    19.697005    19.824462    20.622311    8052.6519    5249.5524    8018.5219    6573.4612   -149.41264    -443.3418   -688.04344   -3935.4409 
24382000    142.55578   -4936.1311   -4661.2003   -4936.1311            0    6784.3922    19.705921    19.779323    20.494818    7988.2604    6647.1944    6390.7254    7315.2568    212.18915    517.07974   -152.64311   -3870.8147 
24383000    137.40444   -4932.9736   -4667.9776   -4932.9736            0    6803.1371    19.878742    19.788116    20.388534     8020.092    6611.5969    7112.0658    6685.7487   -129.93277    596.76171   -750.59044     -3872.25 
24384000    138.31749   -4957.5485   -4690.7916   -4957.5485            0    7921.6129    19.754878     19.79434    20.322467     7946.791    5839.0341    10224.748    7701.0571   -12.903108     183.9119   -874.42694     -3772.71 
24385000    144.24329   -4966.2054   -4688.0201   -4966.2054            0    7025.2976    19.833011    19.763697    20.459608    8019.6265    8085.6356    6194.4896    6795.7676   -508.00966    372.52712    255.13638   -3866.3551 
24386000    144.32707   -4948.9113   -4670.5644   -4948.9113            0    8804.7944    19.542596    19.843296    20.455667    7932.4933    9330.1376    7696.6336     9387.612    452.93129   -466.89918   -24.541033   -3651.9617 
24387000    147.68133   -4980.0256   -4695.2097   -4980.0256            0    7991.8176    19.646142     19.65304    20.732665    8005.0149    8296.6488    8625.9364    7052.8676   -82.498227    334.07649   -658.30202   -3762.2055 
24388000    137.69453   -4959.7404   -4694.1849   -4959.7404            0    7718.3401    19.824398    19.760546    20.474131    8020.5555    7170.7864     8249.596    7734.6381    375.91799    269.35596    698.22266   -3791.3585 
24389000    137.73503   -4970.9955   -4705.3619   -4970.9955            0    7185.8042    19.706132    19.860355    20.375827    7974.5034    6835.8339    7151.5636    7570.0152      309.359    650.66157    813.46279   -3869.6532 
24390000    134.61532   -4937.1858   -4677.5689   -4937.1858            0    7054.3506    19.928423     19.78169    20.373457    8031.5811    6200.7369    7957.3165    7004.9984    563.31009    586.01365   -1208.6616    -3851.276 
24391000    138.71204   -4954.6263   -4687.1085   -4954.6263            0    7687.0689    19.708661    19.762055    20.537548     7999.039    9378.8539    6664.8849    7017.4679   -66.561984   -666.92186   -63.318909   -3790.3521 
24392000    135.69869    -4949.938   -4688.2317    -4949.938            0    7242.6685    19.910644    19.721727    20.428206    8021.5902    8108.6444    6404.9056    7214.4553   -44.404813    630.87673   -84.189234    -3840.936 
24393000    138.70741   -4960.8008   -4693.2919   -4960.8008            0    5765.1389    19.770076    19.744911     20.59616     8039.884    5611.0008    6465.9279    5218.4879   -434.18093   -392.57806    590.57647   -4017.3094 
24394000    139.15161   -4951.9876   -4683.6221   -4951.9876            0    7460.0142    19.869456     19.79979    20.404658     8027.418     7240.932    7638.1556    7500.9549   -1081.4079    228.41364    -2.464643   -3810.2658 
24395000    141.16991   -4962.1767   -4689.9186   -4962.1767            0     6071.046    19.763772    19.942617     20.44089    8056.5996    6913.1685    5273.2367    6026.7327   -87.888483    66.036465   -416.02722   -3976.5875 
24396000    138.27593   -4960.4688    -4693.792   -4960.4688            0    7841.3022    19.762295    19.698556    20.522575    7989.2062    7486.5789    8477.9048    7559.4228   -168.89251    504.27794   -100.18516   -3780.1675 
24397000    137.18242   -4965.6393   -4701.0714   -4965.6393            0    7878.4989    19.792228    19.709283    20.509012    8000.3733    7738.5727     8959.966    6936.9579   -669.35085     729.9797   -228.27175   -3781.8299 
24398000     139.8552   -4968.9844   -4699.2619   -4968.9844            0    7308.4107    19.873835    19.726087    20.484068    8030.4304    6871.2013    8116.4695    6937.5613   -154.10267   -907.18831   -274.69007   -3843.3331 
24399000    140.11788   -4946.6669   -4676.4378   -4946.6669            0    7277.6409    19.865817    19.694892    20.563291    8045.4928    5770.4953    8760.3738    7302.0537   -426.00928    266.66918    51.648295   -3822.5139 
24400000    144.12831   -4972.4881   -4694.5245   -4972.4881            0    6828.7288    19.814871    19.878546    20.408152     8038.584    6434.1689    7251.8021    6800.2153    279.44719   -66.886082    891.71566   -3893.9619 
24401000    147.03703   -4942.9239   -4659.3506   -4942.9239            0    6399.6307     19.64605    19.845335    20.497589    7991.6502    5773.0494    7087.2309    6338.6117   -237.03095   -215.71632     50.33319   -3913.4735 
24402000    145.75769   -4954.3997   -4673.2937   -4954.3997            0    8070.9608    19.782813    19.675284    20.544204    7996.4712    7579.4331    9055.9493    7577.4999    41.205966   -160.94952    -491.1253   -3732.0556 
24403000    138.88859   -4955.1586   -4687.3002   -4955.1586            0       7383.2    19.782289    19.805392    20.464096    8017.7507    7155.5469    7385.8439    7608.2091    -138.1572   -28.650676    1101.0205   -3823.9777 
24404000    140.53606   -4955.5047   -4684.4691   -4955.5047            0    7934.0769    19.821688    19.836131    20.334872    7995.3789     9848.576    6219.1748      7734.48    -147.6731    741.14631   -395.15235   -3759.3208 
24405000    137.43711   -4949.7078   -4684.6488   -4949.7078            0    7920.1339    19.739446    19.710238    20.522442    7984.6496    8317.3688    7456.4967    7986.5362    -303.8324   -1227.4129    332.69188   -3762.3656 
24406000    138.34664   -4954.9917   -4688.1786   -4954.9917            0    8134.8529    19.547398    19.676197    20.654754    7944.1991    9568.1675    7865.3218    6971.0694    362.21025    507.63872    109.41105   -3745.6909 
24407000    146.73727   -4962.5787   -4679.5836   -4962.5787            0    7530.8241    19.880447    19.764623    20.357458    7999.0465    5987.3262     8902.523    7702.6232   -784.98812    67.100929    1720.5129   -3801.0535 
24408000    134.15047   -4964.1059   -4705.3854   -4964.1059            0    7034.9094    20.065424    19.602904    20.426719    8034.6577    5366.4637    7936.5018    7801.7626   -212.58223   -380.45746   -500.18671   -3881.0541 
24409000    137.90769   -4963.3611   -4697.3945   -4963.3611            0    7369.9251    19.886888    19.754997    20.402091    8015.2758    6182.2423    8579.5978    7347.9351    482.60376    1217.3787   -123.44948   -3835.8903 
24410000    145.81079   -4955.6753   -4674.4669   -4955.6753            0    7827.5375    19.668861    19.746156    20.461399    7946.8881    7420.8914     8686.187    7375.5341    284.19422     167.6965    16.710327   -3767.2772 
24411000     136.5937   -4959.9391   -4696.5067   -4959.9391            0    7453.1988    19.826596    19.758193    20.515082    8036.5311     7307.602    6633.6113    8418.3831   -714.01099   -835.77724    69.878765   -3822.9578 
24412000    140.01422   -4957.8075   -4687.7783   -4957.8075            0    6075.3049    19.857661    19.819971    20.555061    8090.0255     6478.393    5955.7306    5791.7911     390.4332   -470.74307    745.75471   -3970.9851 
24413000      140.789   -4951.7407   -4680.2173   -4951.7407            0    7011.4991    19.612246    19.970139    20.449815    8009.3599     7431.248    5852.0482    7751.2011   -885.61346   -1204.0747    898.69554    -3861.216 
24414000    138.60841   -4960.9894   -4693.6714   -4960.9894            0    6257.8115    19.687289     19.92836    20.457447    8026.1802    5226.8532    7361.4749    6185.1062   -221.52519   -188.19315   -293.71707    -3961.172 
24415000    134.45324   -4941.3941   -4682.0897   -4941.3941            0    7959.6419    19.820715    19.785246    20.389684    7995.9721    7086.9885    8699.4614    8092.4758    530.80037   -536.85873   -450.38699   -3753.8916 
24416000    136.96251   -4940.5482   -4676.4045   -4940.5482            0    6578.2617    19.642342    19.819276     20.58911    8015.2783     8157.983    4093.6164    7483.1856   -297.33827   -218.52887     469.6644   -3907.4411 
24417000    140.16168    -4953.771   -4683.4574    -4953.771            0     6884.855    19.866448    19.955232    20.250856    8028.2408    7168.3561    5349.3387    8136.8702     18.18692    701.69142    1392.0271   -3877.3534 
24418000     153.5574   -4954.6386   -4658.4902   -4954.6386            0    8073.5332    19.591647    19.809578    20.528955    7967.3334    8753.1746     8656.626     6810.799    267.15786     1327.532    129.77588   -3720.3829 
24419000    146.37142   -4947.0358   -4664.7462   -4947.0358            0    7568.4823    19.748923     19.76672    20.413582    7968.8795    8038.0144    6724.2123    7943.2203    500.70876    747.78199    195.34931   -3785.1529 
24420000    143.77703   -4962.2773   -4684.9912   -4962.2773            0    5958.5101    20.043924    19.866555    20.231533     8056.272    7277.8941    4613.6899    5983.9462    433.51693   -506.51847   -823.18117   -3984.9112 
24421000    141.97609   -4942.3183   -4668.5054   -4942.3183            0     8211.217    19.714836    19.700275    20.519452    7969.5028    8033.0128    8226.8944    8373.7437    -233.2576   -503.80169    190.30734   -3714.1401 
24422000    140.66555   -4956.6795   -4685.3942   -4956.6795            0    8566.8522    19.804982    19.908278    20.183102    7957.8556    8855.0356    7400.6628    9444.8583    236.26782   -293.12326   -648.38994   -3691.1496 
24423000     137.8073   -4966.0056   -4700.2327   -4966.0056            0    6767.7975    19.913869     19.75353    20.407766    8027.7869    7597.6534    6585.9072    6119.8318    15.232975    657.27408    601.01482    -3907.879 
24424000    140.99987   -4957.9815   -4686.0514   -4957.9815            0    7111.5069    19.664104    19.769174    20.621286    8016.3822     7691.251    7844.8738     5798.396   -134.23003    377.12059    89.254244   -3854.6401 
24425000    142.16118   -4963.4464   -4689.2766   -4963.4464            0      7400.48    19.825715    19.857209    20.353957    8013.0141    7941.1469    7007.3099    7252.9832      510.051   -264.52178   -447.90939   -3824.4448 
24426000    134.24854   -4962.3938   -4703.4842   -4962.3938            0    5990.1468    19.859798     19.75579     20.53863    8058.2491    5835.9675    6842.0856    5292.3874    312.34771   -378.85581   -317.28665   -3999.5143 
24427000    141.46326   -4955.7474   -4682.9236   -4955.7474            0    7681.0465    19.831223    19.632633    20.573479    8010.0606    7619.2762    9422.9631    6000.9002    41.169009   -581.11523     406.6957   -3785.6351 
24428000    134.80523   -4941.9745   -4681.9913   -4941.9745            0    8372.8496    19.750423    19.686904    20.498458    7970.3065     7842.894     8653.552    8622.1029   -336.76532   -1068.6796   -520.99631   -3708.7418 
24429000    149.83945    -4965.265   -4676.2871    -4965.265            0     6766.903    20.016712    19.772357    20.409011    8077.4291    7582.4447    5885.8183     6832.446    713.63216    684.94817    602.64808    -3879.139 
24430000    148.67329   -4956.6298   -4669.9009   -4956.6298            0    7416.2852    19.855283    19.814183     20.27353    7975.9356    7550.9371    6127.2551    8570.6635    136.43155    2546.9483   -913.52992   -3807.2323 
24431000    142.07158   -4964.1278   -4690.1308   -4964.1278            0    8578.7401    19.652786    19.899342    20.471323    8005.8742    8561.7999    8395.6029    8778.8174   -508.83434    917.40127    762.09523   -3688.4989 
24432000    139.89923   -4956.1409   -4686.3335   -4956.1409            0     7048.779     19.71813    19.805118    20.495584    8003.9334    8231.7012    6999.0222    5915.6135   -746.82797   -579.14103   -150.60354   -3863.5355 
24433000     138.5912   -4961.5328    -4694.248   -4961.5328            0    8671.0535    19.719306    19.778183    20.419215    7963.7392    7548.4283    8926.2042     9538.528   -382.84483    435.11807   -1163.8866   -3687.1661 
24434000     137.6224   -4963.8088   -4698.3924   -4963.8088            0    7453.7493    19.726675    19.900502    20.360269    7992.8459    8226.2104    7082.7297    7052.3079    194.64283    315.47027    733.86529   -3829.5278 
24435000    149.34338   -4961.7917   -4673.7704   -4961.7917            0     7787.828    19.670883    19.850592    20.555938    8026.6554    8212.4341    7531.5562    7619.4938    321.61112    569.06967    -123.1536   -3762.1231 
24436000    146.67701   -4955.6759    -4672.797   -4955.6759            0    7025.0917      19.7776    19.746751    20.588686    8040.7744    6708.3336     8228.343    6138.5986    235.60848    640.63139   -661.64683   -3848.9894 
24437000    143.22167   -4974.1818   -4697.9667   -4974.1818            0    6779.8682    19.796708    19.903756    20.461852    8062.5604    6458.5803    6909.2414    6971.7828    129.54455    1013.3319    433.47236   -3900.7615 
24438000    152.59051   -4969.3588   -4675.0751   -4969.3588            0    7328.1445    19.646709    19.732964    20.631871    7998.7249    8826.7149    7152.9196     6004.799   -20.429205    662.37519    -433.2951   -3820.2237 
24439000    139.27136   -4972.5611   -4703.9645   -4972.5611            0    6817.3017    19.772057    19.764117    20.569723    8038.1797    6546.6836    8689.9679    5215.2535    196.05633    865.39595   -833.45053   -3904.7818 
24440000    143.60743   -4945.9492   -4668.9902   -4945.9492            0    6725.9283    19.884159    19.881446    20.339016    8040.5384    6776.4704      6709.42    6691.8944   -329.34833    833.95684   -1288.3007   -3880.2876 
24441000     140.7254    -4952.829   -4681.4282    -4952.829            0    7383.5502    19.781649    19.746526    20.480805    8000.1883     7225.355    6947.8208    7977.4749   -126.05973   -46.944305    437.04349   -3819.9559 
24442000     141.7587   -4952.7395    -4679.346   -4952.7395            0    7029.5699    19.858298    19.710003    20.470811     8012.421    7138.5276    6138.2788    7811.9034   -22.578444    16.600964    366.71399     -3857.92 
24443000    140.76643   -4954.1448   -4682.6649   -4954.1448            0    6643.2486    19.986059    19.696048    20.374605    8020.3893     5356.961    8310.7083    6262.0764   -220.31105   -19.051235   -319.07467   -3905.6098 
24444000    137.28354   -4942.5936   -4677.8307   -4942.5936            0    5341.3617     19.88927    19.757146    20.504205     8057.234    5520.6415     4859.976    5643.4677   -245.32703     65.93779   -410.14369   -4050.1861 
24445000    147.38042   -4973.8824   -4689.6469   -4973.8824            0     5752.959    19.855774    19.820643    20.538314    8082.9401    4123.9956    7263.4613    5871.4202    66.985754    285.67191     244.2454   -4011.4801 
24446000     143.3874   -4967.5496   -4691.0149   -4967.5496            0     6567.369    19.979216    19.817144    20.349324    8056.9287    6310.5234    6163.9803    7227.6032    340.15114    567.64321    1155.2127   -3919.3356 
24447000    137.29302   -4947.0538   -4682.2727   -4947.0538            0    7098.2678    19.905698    19.699186    20.425346    8009.3102     7935.372    5784.7539    7574.6775    -259.1055   -1104.8442   -291.25772   -3853.1412 
24448000    144.74732    -4956.087   -4676.9296    -4956.087            0    7951.3923    19.653467    19.729693    20.580647    7980.2874     9202.568    7621.0159    7030.5929   -62.003752    -255.3766    594.05979   -3751.5124 
24449000     136.0214   -4939.4128   -4677.0841   -4939.4128            0    7588.7919    19.720364    19.894314     20.51869    8049.9567    6005.1296    9407.3154    7353.9309   -286.88668     245.0268    472.81423   -3786.1571 
24450000    139.81157   -4960.7593   -4691.1209   -4960.7593            0    6399.6456    19.808649     19.83239    20.418855    8021.6056    6853.9807    5824.6205    6520.3357    207.03932   -130.49805   -1135.9164   -3942.4463 
24451000    139.93066    -4959.138     -4689.27    -4959.138            0    7432.5007    19.890808    19.913497    20.279022    8032.4303    7720.0872    6328.2577    8249.1572   -55.744911    479.48073    616.00893   -3818.5915 
24452000    142.12876   -4951.1798   -4677.0725   -4951.1798            0    6826.4645    19.689829    19.778889    20.475945    7974.2122    6907.6874    7165.5556    6406.1506    106.09147     380.2551   -108.95185    -3883.184 
24453000    139.57002   -4968.9608   -4699.7882   -4968.9608            0     5997.829    19.537872    19.897137    20.622109    8016.7977    5685.6201    5925.9549    6381.9121   -390.35897   -1093.8438    1251.9786   -3998.5414 
24454000    138.60563   -4961.8386    -4694.526   -4961.8386            0    6706.3408    19.689291    19.859185    20.420782    7984.7968    7028.3819    6378.0162    6712.6243    26.607727    463.62912    489.27053   -3913.5722 
24455000    135.48419   -4961.0351   -4699.7424   -4961.0351            0    7335.9846    19.844098    19.557609    20.578087    7986.4193    7254.1732    7917.1871    6836.5935    300.46051   -513.06625   -1078.9264   -3845.2929 
24456000    135.03042   -4957.8597   -4697.4422   -4957.8597            0    6911.0268    19.707198    19.812388    20.572176    8032.3372    7520.5344     5875.193    7337.3531    -377.2645    75.214708    8.0907395    -3887.861 
24457000    143.87817   -4966.2002    -4688.719   -4966.2002            0     7147.386    19.700006    19.858859    20.476668    8010.8748    8421.5659    6123.4778    6897.1143   -497.32027   -250.83626     217.4213   -3853.6871 
24458000    143.63093   -4957.1941   -4680.1898   -4957.1941            0    6469.2824      19.6531    19.977604    20.448234    8028.4232    6869.6663    5613.4478    6924.7333   -49.384103    252.17784   -578.36722   -3922.7253 
24459000    136.17364   -4946.9848   -4684.3625   -4946.9848            0    7622.0154    19.690314    19.742332    20.518513    7976.2174    8414.1425    7635.1273    6816.7765    136.75438   -398.65261   -683.64465   -3797.7319 
24460000    144.71348   -4951.5224   -4672.4303   -4951.5224            0    6587.1867    19.957481    19.711833    20.501611    8065.3036    5705.6074    8357.4151    5698.5377    74.261818    261.80414   -515.28195   -3897.6179 
24461000    143.17913   -4963.3266   -4687.1936   -4963.3266            0    6786.7836    19.815974     19.84477    20.416097    8028.4964    6218.3004    7346.3062    6795.7441    -110.9645    -547.4355    236.12353   -3892.5469 
24462000    135.26526   -4941.3262   -4680.4558   -4941.3262            0    8580.2679    19.844064    19.781706    20.329674    7980.4018     6663.552    9250.7799    9826.4717    -213.6719   -66.732701    459.31749    -3681.833 
24463000    148.09952   -4961.1794    -4675.557   -4961.1794            0    6018.9041    19.961007    19.673211    20.491243    8046.8518    5633.3044    6672.6927    5750.7153     124.6981    757.90936    236.29637    -3969.208 
24464000    141.03232   -4954.8354   -4682.8427   -4954.8354            0    4884.3292    19.891159    19.629087    20.622505    8051.9601    4415.5727    5540.3788    4697.0361   -868.71009   -391.24648   -1102.6068   -4109.2779 
24465000    129.76944   -4957.3251   -4707.0538   -4957.3251            0    8274.3701    19.933499    19.670317    20.332835    7972.4688     8159.651    8359.5758    8303.8836    179.32059   -675.10005   -606.89654   -3744.9905 
24466000    135.61148   -4953.1458   -4691.6077   -4953.1458            0    7271.7823    19.627928    19.727298    20.623627    7985.5918    7168.6433    8029.7743    6616.9293   -262.54865    427.69468    955.65694   -3844.7238 
24467000    134.06141   -4964.8767   -4706.3279   -4964.8767            0     7351.352    19.787541    19.581355    20.719109    8027.9679    6757.0902    7954.6447    7342.3212    134.38224   -833.98483    15.278224    -3845.634 
24468000    143.99583    -4955.726   -4678.0179    -4955.726            0    7342.9463    19.914978    19.787232     20.40648    8041.4241    7474.6917    7027.6585    7526.4888   -425.88112    1267.4118    939.71753   -3816.8671 
24469000    136.82813   -4942.2661   -4678.3815   -4942.2661            0    8414.0567    19.767407     19.79445     20.39479    7980.1746    7163.9983    8860.6133    9217.5586    149.50694   -554.43983    -814.7857   -3699.1312 
24470000    137.63159     -4966.18   -4700.7459     -4966.18            0    7457.9048    19.975915    19.803154    20.238401    8006.0305    5530.1797    8161.5071    8682.0275   -13.091645   -752.25223    403.37783   -3829.9629 
24471000    144.81094   -4968.9936   -4689.7135   -4968.9936            0    7625.6194    19.733431    19.715801    20.564531    8000.8443    6574.2252    8306.6133    7996.0197   -187.56782    472.61626   -597.54843   -3799.9249 
24472000    141.06151   -4965.8944   -4693.8454   -4965.8944            0    8110.4738    19.819754    19.636617    20.492511    7975.5401    7895.3274    8689.3507    7746.7432   -338.17085   -941.25325    174.34123   -3750.4751 
24473000     141.5921   -4963.2507   -4690.1784   -4963.2507            0    7822.8156    19.821176    19.715465    20.442833    7988.7258    9365.0115    6920.3654    7183.0698   -136.88691   -531.25306    883.66928   -3778.7627 
24474000     138.8727     -4950.15   -4682.3223     -4950.15            0     7333.883    19.727177    19.635746    20.643951    7996.5961     7957.501    8245.7633    5798.3847    20.895734   -270.27402    319.79851   -3827.0291 
24475000    131.98292    -4955.877   -4701.3368    -4955.877            0    6032.1956    19.742343    19.836314    20.503424    8029.4548    5749.1357    5300.4761    7046.9751   -1005.6564   -89.310416    806.82254   -3994.9585 
24476000    139.32773   -4954.0963   -4685.3911   -4954.0963            0    6491.2707    19.782448    19.946137    20.314722    8015.8524    6582.9379     6483.856    6407.0181   -771.10445    190.18992   -240.80813   -3926.5422 
24477000    145.56613    -4934.795   -4654.0584    -4934.795            0    6859.6546      19.7515    19.848309    20.580073    8068.0855    6698.3473    7133.1556     6747.461    147.42877     521.9746    34.152273   -3846.9189 
24478000    145.36713   -4958.7204   -4678.3676   -4958.7204            0    5654.0935     19.70496    19.920374     20.55172    8067.1703    6389.4595    4578.9996    5993.8214   -373.56105    -86.79299    33.097198   -4013.1556 
24479000    149.13825   -4967.5268   -4679.9012   -4967.5268            0    6125.4188    19.831754    19.960925    20.301026    8036.3672    5800.4679    5796.0981    6779.6903   -238.73586    1638.7531    56.563833   -3961.9888 
24480000    140.20763   -4942.6494   -4672.2472   -4942.6494            0      6782.86    19.768706    19.830122    20.489591    8032.2446    5857.4643    8586.1551    5904.9605     681.1537    445.26488    781.15069   -3877.6891 
24481000    145.77003   -4950.8613   -4669.7316   -4950.8613            0    8052.2088    19.717621    19.684229    20.572113    7984.5755    8429.8271    9032.4079    6694.3913   -493.91519     552.5527    178.24039   -3732.0773 
24482000    141.15697   -4957.3294   -4685.0963   -4957.3294            0    7864.4082    19.823412    19.731677    20.495105    8016.6433     7200.509    8727.2328    7665.4828   -148.70623   -1060.6807   -257.31366   -3765.6328 
24483000    144.42161   -4967.5517   -4689.0224   -4967.5517            0    7524.6247    19.787533     19.67861    20.506862    7985.1903    6330.7647     8687.499    7555.6104    69.547331   -870.73037    938.26252   -3812.7362 
24484000    146.04058    -4956.727   -4675.0754    -4956.727            0    6301.5777    20.000729    19.710996    20.339473    8018.5179    5022.3822    6536.5586    7345.7923   -329.36605    -397.8796   -580.73131   -3938.1572 
24485000    139.25583   -4975.1048   -4706.5382   -4975.1048            0    5987.8871    19.891658    19.832605    20.424846     8057.671    4126.5599    7058.0195     6779.082    177.81949   -105.32148   -296.69971   -4002.8844 
24486000    132.74741   -4954.3317   -4698.3172   -4954.3317            0    6183.8112    19.839175    19.862134    20.426868    8049.1734    6028.5953     6546.128    5976.7102    494.34204    342.83291   -153.17677   -3972.4062 
24487000    140.17791   -4952.9856   -4682.6407   -4952.9856            0    6780.0182    19.877967    19.667086    20.470897    8002.9273    7430.5858    6286.9571    6622.5118   -150.56209   -356.80035    -863.7689   -3891.3144 
24488000     143.2815   -4948.5499   -4672.2195   -4948.5499            0    7870.3561    19.732715    19.733922    20.482135    7975.8224    7140.9349    8893.9753    7576.1582    80.635608    1042.7833   -374.87964   -3756.7461 
24489000    135.57059   -4954.1166   -4692.6573   -4954.1166            0    6049.3384     19.97122    19.909261    20.251647    8052.3026    4119.8012     6964.403    7063.8109     94.28313    1982.7428    643.61973   -3982.2558 
24490000    144.18633   -4955.2373   -4677.1619   -4955.2373            0    7866.8231    19.720882    19.817977    20.436566    7987.1817    7328.2114    8340.0208    7932.2372    556.43701   -362.67683    351.32679   -3760.7961 
24491000     137.9628   -4961.3542   -4695.2813   -4961.3542            0    5973.0519    19.972398    19.423417    20.745388    8047.8047     4957.548    6555.6738    6405.9339   -765.56498   -1372.8845   -526.24233   -3994.2304 
24492000    144.90525   -4964.4548   -4684.9928   -4964.4548            0    8176.1467    19.562693    19.773878    20.633285    7981.5801    8036.5522    10278.281    6213.6072   -375.23014    241.67865   -1005.8875   -3733.2635 
24493000    146.84494   -4957.3095   -4674.1067   -4957.3095            0    7232.9199    19.633392    19.888304     20.50745    8007.6438    6767.2125    8238.0918    6693.4555    39.509564   -272.57687    274.87914   -3829.4227 
24494000    143.79778    -4948.514   -4671.1879    -4948.514            0    7547.7005     19.55709    19.936362    20.472567    7982.1972    8968.0836    6774.8193    6900.1987    421.30132    1329.9592    209.86281   -3792.5438 
24495000    150.89838   -4954.6871   -4663.6669   -4954.6871            0     6816.398    19.806621    20.016271    20.207404    8011.3199    6247.1357    5938.8297    8263.2285   -276.72481    430.36853   -595.33052   -3867.2602 
24496000    144.18603   -4957.0788   -4679.0039   -4957.0788            0    5934.9631     19.91926    19.768422    20.475025    8062.4987    6553.6559     5090.156    6161.0775   -333.91452    348.57489   -37.696807   -3981.1515 
24497000    140.55211   -4958.6575   -4687.5909   -4958.6575            0    7184.4721     19.81547    19.831496    20.347153    7995.8293    7459.2855     6254.078    7840.0528   -407.39499    302.93571   -658.33154   -3849.8027 
24498000    145.50836    -4951.561   -4670.9359    -4951.561            0    7711.9565    19.698589    19.811096    20.465841    7986.8078    8538.0674    6774.3057    7823.4964   -211.25205   -864.66911   -327.56196   -3772.6518 
24499000    135.04147   -4955.5127   -4695.0738   -4955.5127            0    7976.4878    19.784321    19.756843    20.431545    7986.1949     8646.079    6800.6913    8482.6931   -8.3009997    1062.8248    360.40852   -3766.0486 
24500000    146.70174   -4943.7786   -4660.8519   -4943.7786            0    8138.1702    19.824579    19.682256    20.507342    8001.8096    7762.8274    9161.0339    7490.6494    561.78865   -386.03753   -207.74183   -3711.1422 
Loop time of 404.871 on 64 procs for 250000 steps with 972 atoms

Performance: 106.701 ns/day, 0.225 hours/ns, 617.481 timesteps/s
194.0% CPU use with 32 MPI tasks x 2 OpenMP threads

MPI task timing breakdown:
Section |  min time  |  avg time  |  max time  |%varavg| %total
---------------------------------------------------------------
Pair    | 28.51      | 36.382     | 41.707     |  64.6 |  8.99
Bond    | 1.0101     | 1.2225     | 1.6399     |  11.5 |  0.30
Kspace  | 174.84     | 186.45     | 196.09     |  39.2 | 46.05
Neigh   | 1.0122     | 1.1647     | 1.2829     |   8.2 |  0.29
Comm    | 69.542     | 77.044     | 84.803     |  42.9 | 19.03
Output  | 0.49383    | 0.49425    | 0.49611    |   0.1 |  0.12
Modify  | 81.137     | 83.311     | 86.485     |  11.9 | 20.58
Other   |            | 18.8       |            |       |  4.64

Nlocal:        30.3750 ave          36 max          25 min
Histogram: 2 2 5 5 1 4 6 5 0 2
Nghost:        2725.75 ave        2752 max        2703 min
Histogram: 2 2 3 6 6 6 2 3 1 1
Neighs:        9816.94 ave       12394 max        8189 min
Histogram: 6 4 4 4 2 4 3 2 2 1

Total # of neighbors = 314142
Ave neighs/atom = 323.19136
Ave special neighs/atom = 2.0000000
Neighbor list builds = 3073
Dangerous builds = 0

unfix		3
unfix		2
unfix		1

write_data	data.final.${pid}
write_data	data.final.1
System init for write_data ...
PPPM initialization ...
  extracting TIP4P info from pair style
  using 12-bit tables for long-range coulomb (../kspace.cpp:340)
  G vector (1/distance) = 0.37226616
  grid = 24 24 24
  stencil order = 5
  estimated absolute RMS force accuracy = 0.0035007128
  estimated relative force accuracy = 1.0542293e-05
  using double precision FFTW3
  3d grid and FFT values/proc = 3211 432
Last active /omp style is kspace_style pppm/tip4p/omp
WARNING: Not all mixed pair coeffs generated from mixing. Use write_data with 'pair ij' option to store all pair coeffs. (../write_data.cpp:312)

write_restart   restart.lmp.${pid}
write_restart   restart.lmp.1
System init for write_restart ...
PPPM initialization ...
  extracting TIP4P info from pair style
  using 12-bit tables for long-range coulomb (../kspace.cpp:340)
  G vector (1/distance) = 0.37226616
  grid = 24 24 24
  stencil order = 5
  estimated absolute RMS force accuracy = 0.0035007128
  estimated relative force accuracy = 1.0542293e-05
  using double precision FFTW3
  3d grid and FFT values/proc = 3211 432
Last active /omp style is kspace_style pppm/tip4p/omp
Total wall time: 0:06:44
