LAMMPS (30 Jul 2021)
  using 1 OpenMP thread(s) per MPI task
package omp 0
using multi-threaded neighbor list subroutines
echo both

include		in.partitions
variable        pid world 0
include		in.temp
variable        temperature equal 264.26
variable	tempDamp equal 100.0
include		in.pressure
variable        pressure equal 8500.0
variable        pressureDamp equal 1000.0 # This is 1 ps
include		in.seed
variable        seed world 745823

units		real
atom_style	full
read_restart	restart.lmp.${pid}
read_restart	restart.lmp.0
Reading restart file ...
  restart file = 30 Jul 2021, LAMMPS = 30 Jul 2021
  restoring atom style full from restart
  orthogonal box = (-0.072195361 -0.16991397 -0.13495755) to (24.802196 24.899915 22.944958)
  4 by 4 by 4 MPI processor grid
  restoring pair style lj/cut/tip4p/long/omp from restart
  restoring bond style harmonic/omp from restart
  restoring angle style harmonic/omp from restart
  1920 atoms
  1280 bonds
  640 angles
Finding 1-2 1-3 1-4 neighbors ...
  special bond factors lj:    0        0        0       
  special bond factors coul:  0        0        0       
     2 = max # of 1-2 neighbors
     1 = max # of 1-3 neighbors
     1 = max # of 1-4 neighbors
     2 = max # of special neighbors
  special bonds CPU = 0.787 seconds
  read_restart CPU = 1.119 seconds
include 	in.setup
variable	out_freq equal 1000
variable	out_freq2 equal 10000
variable	out_freq3 equal 1000

timestep	2.0

neigh_modify    delay 7 every 1

include		in.tip4p
# This is TIP4P/Ice

# create groups ###
group ox type 2
640 atoms in group ox
group hy type 1
1280 atoms in group hy

# set charges - beside manually ###
set group ox charge -1.1794
Setting atom values ...
  640 settings made for charge
set group hy charge 0.5897
Setting atom values ...
  1280 settings made for charge

# ### TIP3P Potential Parameters ###
pair_style lj/cut/tip4p/long/omp 2 1 1 1 0.1577 8.5
pair_coeff 1 1*2 0.000 0.000
pair_coeff 2 2 0.21084 3.1668
bond_style  harmonic
bond_coeff  1 450 0.9572
angle_style harmonic
angle_coeff 1 55 104.52
kspace_style pppm/tip4p/omp 1.0e-5
pair_modify tail yes

thermo          ${out_freq}
thermo          1000
thermo_style    custom step temp pe etotal epair emol press lx ly lz vol pxx pyy pzz pxy pxz pyz enthalpy

restart 	${out_freq3} restart.lmp.${pid} restart2.lmp.${pid}
restart 	1000 restart.lmp.${pid} restart2.lmp.${pid}
restart 	1000 restart.lmp.0 restart2.lmp.${pid}
restart 	1000 restart.lmp.0 restart2.lmp.0


include         in.dump
dump            myDump all atom ${out_freq2} dump.water.${pid}
dump            myDump all atom 10000 dump.water.${pid}
dump            myDump all atom 10000 dump.water.0
dump            myDump2 all dcd ${out_freq2} dump.dcd
dump            myDump2 all dcd 10000 dump.dcd
dump_modify     myDump append yes
dump_modify     myDump2 append yes


variable natoms 	equal  "count(all)"                        # NUMBER ATOMS
variable H      	equal  "enthalpy/v_natoms"                 # ENTHALPY-per-atom
variable Vol      	equal  "vol/v_natoms"                 # volume-per-atom
fix AVG all 		ave/time ${out_freq} 1 ${out_freq} v_Vol v_H file vol_enthalpy.dat
fix AVG all 		ave/time 1000 1 ${out_freq} v_Vol v_H file vol_enthalpy.dat
fix AVG all 		ave/time 1000 1 1000 v_Vol v_H file vol_enthalpy.dat




fix 		1 all shake 1e-6 200 0 b 1 a 1
       0 = # of size 2 clusters
       0 = # of size 3 clusters
       0 = # of size 4 clusters
     640 = # of frozen angles
  find clusters CPU = 0.001 seconds
fix             2 all nph aniso ${pressure} ${pressure} ${pressureDamp}
fix             2 all nph aniso 8500 ${pressure} ${pressureDamp}
fix             2 all nph aniso 8500 8500 ${pressureDamp}
fix             2 all nph aniso 8500 8500 1000
fix             3 all temp/csvr ${temperature} ${temperature} ${tempDamp} ${seed}
fix             3 all temp/csvr 264.26 ${temperature} ${tempDamp} ${seed}
fix             3 all temp/csvr 264.26 264.26 ${tempDamp} ${seed}
fix             3 all temp/csvr 264.26 264.26 100 ${seed}
fix             3 all temp/csvr 264.26 264.26 100 745823


run             250000
PPPM initialization ...
  extracting TIP4P info from pair style
  using 12-bit tables for long-range coulomb (../kspace.cpp:340)
  G vector (1/distance) = 0.37427467
  grid = 30 30 30
  stencil order = 5
  estimated absolute RMS force accuracy = 0.0032913314
  estimated relative force accuracy = 9.9117468e-06
  using double precision FFTW3
  3d grid and FFT values/proc = 3600 512
Last active /omp style is kspace_style pppm/tip4p/omp
Neighbor list info ...
  update every 1 steps, delay 7 steps, check yes
  max neighbors/atom: 2000, page size: 100000
  master list distance cutoff = 10.8154
  ghost atom cutoff = 10.8154
  binsize = 5.4077, bins = 5 5 5
  1 neighbor lists, perpetual/occasional/extra = 1 0 0
  (1) pair lj/cut/tip4p/long/omp, perpetual
      attributes: half, newton on, omp
      pair build: half/bin/newton/omp
      stencil: half/bin/3d
      bin: standard
Per MPI rank memory allocation (min/avg/max) = 9.330 | 9.338 | 9.344 Mbytes
Step Temp PotEng TotEng E_pair E_mol Press Lx Ly Lz Volume Pxx Pyy Pzz Pxy Pxz Pyz Enthalpy 
 6250000     268.7107   -9078.5381   -8054.0903   -9078.5381            0    8157.1747    24.874392    25.069829    23.079915     14392.56    7899.5489    7882.0387    8689.9365   -865.07865   -1343.2686   -58.859744   -6341.8934 
 6251000    256.13202   -9061.1779   -8084.6858   -9061.1779            0    7926.4624    24.908342    25.267578    22.862664    14389.154    8612.5905    6723.2156    8443.5809    280.03772   -144.99177   -916.36176   -6421.3093 
 6252000    267.58327   -9101.8109   -8081.6614   -9101.8109            0    7083.1926    24.965322    25.034486       23.056    14409.862     7101.298    7788.1169    6360.1628    658.90102    27.460448    836.98121   -6593.1069 
 6253000    269.84677   -9093.8694   -8065.0905   -9093.8694            0    8780.3313    24.950994     24.82355    23.160611     14345.04    8736.6304    8446.9446    9157.4189    1433.8453   -556.25759    287.92603   -6228.1776 
 6254000    265.45339   -9132.9278   -8120.8984   -9132.9278            0    8359.6676    24.998625    25.007848    22.936274    14338.883    8353.9138    7753.6779    8971.4112    480.74913   -776.53894    75.640044   -6372.7423 
 6255000    267.62064   -9090.2181   -8069.9262   -9090.2181            0    6993.5408    25.054319     24.92856    23.092285    14422.704    5642.8048    8266.7465     7071.071   -198.68376   -514.10552   -426.40197   -6598.9024 
 6256000    267.06724   -9057.6451   -8039.4629   -9057.6451            0    8474.1672     25.00997    24.978082    23.013699    14376.683    8599.2379    9122.9485    7700.3152   -103.80915   -801.56647   -1221.0569   -6262.6913 
 6257000    255.29135   -9072.3616   -8099.0746   -9072.3616            0    9249.8827    25.039051    24.944064    22.919427    14314.917     8673.239    9641.8136    9434.5953   -346.03271   -383.68952     199.8181   -6167.9916 
 6258000     253.5398   -9070.6906   -8104.0812   -9070.6906            0    7919.0678    25.024776    24.936057    23.042574     14379.01    7758.9124    8116.0028    7882.2882    274.96824   -1575.1863   -617.38263   -6443.4281 
 6259000    271.62303   -9074.5894   -8039.0385   -9074.5894            0    7058.7473     25.00739    24.924326    23.211613     14467.62    7280.1075    7757.6428    6138.4915   -80.083901    446.72129   -333.79223   -6549.6753 
 6260000    262.95881   -9066.6085   -8064.0896   -9066.6085            0    7825.0484    25.090207    25.024149    22.940669    14403.553    6679.5374    8502.4283    8293.1794    203.16867   -17.502471   -461.14376   -6420.3517 
 6261000    267.51541   -9113.0832   -8093.1925   -9113.0832            0    7545.0369    24.976352    24.988418    23.064711    14395.137    7804.6652    7514.4953      7315.95    143.00507   -338.66161    657.29891   -6509.2003 
 6262000    266.97555    -9049.158   -8031.3255    -9049.158            0     7119.264    25.148739    25.019095    22.965076    14449.596    5211.2967    8249.1699    7897.3254    578.50827   -928.90516   -1193.1413   -6531.0649 
 6263000    260.72276   -9048.0107   -8054.0166   -9048.0107            0    7307.4334    25.069648    25.014941    23.043021    14450.642    6693.8984    7950.0269     7278.375   -165.15688    286.40678     178.3365   -6513.9912 
 6264000    256.54078   -9103.6523   -8125.6019   -9103.6523            0    8566.3341    24.899269    24.907855    23.114267    14335.177    9112.2286    9276.8242    7309.9497    365.75863   -179.95953    838.42409   -6334.6911 
 6265000    265.47992   -9088.1401   -8076.0096   -9088.1401            0    8390.8288     24.98926    24.993773    22.961884     14341.44    7988.9388    8862.1709    8321.3767   -1136.1035    779.02328   -742.85183   -6321.0242 
 6266000    275.31111   -9116.9501   -8067.3386   -9116.9501            0    6843.1574    24.984273    25.054386    22.961023    14372.811    6203.7542    6733.9456    7591.7724   -52.251096    567.28253   -434.92316   -6632.9259 
 6267000    271.48203    -9108.336   -8073.3227    -9108.336            0    7779.8798    24.918733    24.966751    23.104875    14374.463    8194.0101    8591.8002    6553.8292    79.394148   -723.07267    353.56451   -6442.3737 
 6268000    262.63274   -9118.6676   -8117.3918   -9118.6676            0    7760.2122      25.0162    25.050884     22.94968    14382.058    7882.0046    6990.2756    8408.3564   -281.94034    249.98867   -264.03611   -6489.7062 
 6269000    264.02501   -9086.4375   -8079.8538   -9086.4375            0    9378.4094    24.976843    25.049316    22.895512    14324.642    7902.9037    8486.5508    11745.774    -49.50549   -960.30742      151.295   -6120.6083 
 6270000    264.20369   -9112.6852   -8105.4203   -9112.6852            0    7598.7788    24.920004    24.946857    23.137974    14384.318     7580.942    8477.2605    6738.1338    836.01335   -1182.0893    703.31435   -6511.3445 
 6271000    255.72043   -9070.8678   -8095.9449   -9070.8678            0     8689.369    24.895965    24.937427    23.122542     14355.43    9466.4574    8818.1125     7783.537    205.36267   -610.30235    1293.8147   -6276.7454 
 6272000    264.95864   -9049.1078   -8038.9646   -9049.1078            0    8958.5691    24.955008    25.045503    22.978506    14361.812    9401.7427    7747.8556     9726.109   -996.37659    620.54312    469.97349   -6162.5717 
 6273000     258.2795   -9108.7912   -8124.1119   -9108.7912            0    8229.0977    24.989123    25.036094    22.917443     14337.84    7423.5671    7749.4388    9514.2873    911.05248    -766.3275   -330.07513   -6403.3854 
 6274000    269.87617   -9042.4391   -8013.5481   -9042.4391            0    7761.9156    24.865916    24.893668    23.327837    14440.021    7758.7785    8596.1247    6930.8436    1032.8417    -420.8331     792.7783   -6378.9438 
 6275000    260.00539   -9066.9527   -8075.6936   -9066.9527            0    7643.8718    24.962189    25.051598    23.090866    14439.704    7323.4696    8267.3392    7340.8067    -87.81542    99.916482    23.380939   -6465.9838 
 6276000    267.70784   -9065.4216   -8044.7972   -9065.4216            0    7102.0455    25.025631    25.139113    22.943933    14434.537    7620.9429    5904.8964    7780.2971    575.48516    620.71176   -356.73794    -6549.725 
 6277000    258.02447   -9059.1663   -8075.4593   -9059.1663            0    8125.9213    24.896504    25.018219    23.105872    14391.867    9288.9298     7455.214    7633.6201    135.63573    136.20849    1181.3687   -6369.9048 
 6278000      262.564     -9098.22   -8097.2062     -9098.22            0    7950.6211    24.889545    25.049235    23.051865    14372.009    8871.5386    7773.2507    7207.0738   -278.76745    97.994617   -497.38274    -6430.748 
 6279000    265.97917    -9110.584     -8096.55    -9110.584            0    7530.3645    24.926278    25.104489    23.015936    14402.486    8627.2361    6032.0227    7931.8346   -770.47255   -746.66876    666.35827    -6514.831 
 6280000    262.71791   -9059.0777   -8057.4772   -9059.0777            0    6681.8994    24.951039    25.033686    23.155616    14463.379    7257.9643    5843.1512    6944.5826   -342.69553   -895.12186    575.67755   -6648.0404 
 6281000    267.61001   -9053.1081   -8032.8567   -9053.1081            0    7190.7135    25.024299    25.046816    23.036728    14438.937    7175.8832    7238.1072    7158.1502    -698.1149   -309.52593   -292.00331   -6518.6571 
 6282000    266.49468   -9071.4675   -8055.4682   -9071.4675            0    7807.9868    25.023337    25.104073    22.929452    14403.999    8431.6367      7278.54    7713.7837   -54.379164   -154.67645    1201.0175   -6415.2635 
 6283000    265.64186   -9077.2845   -8064.5366   -9077.2845            0    7697.6384    24.911325    25.004637    23.129456    14407.307    7547.4562    8393.9952     7151.464   -703.69575    287.40983   -602.46784   -6447.1412 
 6284000    250.92235   -9085.9915   -8129.3611   -9085.9915            0    6787.5365    24.893514    25.136204    23.110132    14460.667    7279.7245    6466.0634    6616.8217   -285.18211     94.18353    -251.5288   -6697.9104 
 6285000    254.26775   -9107.0638   -8137.6792   -9107.0638            0    8276.3138    24.909546    25.086144    22.956853    14345.381    8853.2492     6840.643    9135.0491   -1057.8986    1455.2407   -1188.7237   -6406.1695 
 6286000    267.89691   -9120.3494   -8099.0042   -9120.3494            0    7544.4776    24.861658     24.91967    23.204792    14376.397    8598.0363    8427.9821    5607.4145   -539.13165   -569.47318    100.30733   -6517.1913 
 6287000    269.52687   -9109.8628   -8082.3034   -9109.8628            0    8324.4036    24.995069    24.926542    23.056778     14365.31    7483.2378    8836.3842    8653.5888    138.44248    832.05079    233.51779   -6338.3134 
 6288000    266.47805   -9064.1447   -8048.2089   -9064.1447            0    9618.7948    25.023066    25.010225    22.880688    14319.479    8729.7927    8684.7858    11441.806    175.23694    50.751858    1169.3122   -6039.4687 
 6289000    268.75678   -9133.4355   -8108.8121   -9133.4355            0    7818.8944    24.787553    25.019835    23.144641    14353.855     8397.796    7582.3228    7476.5644   -324.80842    417.69136    333.54128   -6472.0341 
 6290000    262.69371   -9103.9552    -8102.447   -9103.9552            0    8595.4476    24.875892    24.945274    23.084899    14325.009    8849.4206    9027.0663     7909.856    186.15244   -25.716012    165.26784   -6306.7242 
 6291000    259.24637   -9120.3447   -8131.9793   -9120.3447            0    10067.113    24.924488     24.97838    22.906165    14260.768    10000.569    10237.662    9963.1076   -156.70276    -15.16244   -359.17808   -6038.2346 
 6292000    264.98488   -9097.6352    -8087.392   -9097.6352            0    10085.322    24.838427    25.029387     22.96313    14275.962     10881.44    9438.5039    9936.0212    586.26136    255.43913    1291.4508   -5987.6253 
 6293000    259.71104   -9048.3816   -8058.2446   -9048.3816            0    8547.2031    24.947021     25.03391    22.998911    14363.314    9074.0427    7826.0462    8741.5204   -189.76825   -201.47701    231.19426   -6267.8261 
 6294000    262.29868   -9090.6383   -8090.6362   -9090.6383            0    7977.4198    24.886068    25.124947    22.983122    14370.453     7824.501    7542.9546    8564.8036   -789.55649    72.113115    1843.6405   -6418.7419 
 6295000    257.66608   -9137.4315   -8155.0909   -9137.4315            0    7320.8494    24.861029    25.103929    23.027069    14371.413    7738.6181    6335.9921     7887.938    -141.1946    -1358.661    158.68539   -6620.6971 
 6296000     272.5046   -9065.0621   -8026.1503   -9065.0621            0    7878.0129    24.710776    25.253694    23.049513    14383.781    9272.4746    6458.4658    7903.0983    343.02868    169.50072     35.19626   -6373.5583 
 6297000    265.65503   -9102.1556   -8089.3575   -9102.1556            0    9120.4218    24.857481    25.017194    22.995338    14299.983    9235.4478    9168.9231    8956.8945   -1184.9001   -538.39128    548.25524   -6187.2883 
 6298000    260.09877    -9081.456   -8089.8409    -9081.456            0    8906.0729    24.801319     24.99557    23.091198    14314.768    10212.505    8349.5566    8156.1573   -218.17586   -796.26203   -703.75375   -6230.5538 
 6299000    274.90079    -9093.153   -8045.1058    -9093.153            0    8276.3652    24.943286    25.006448    23.013013    14354.205    7270.5982      9170.71    8387.7874    830.62579   -240.78368   -202.27752   -6312.5203 
 6300000    269.53771   -9072.9085   -8045.3078   -9072.9085            0    9416.2626    25.042345    25.069584    22.792325    14309.049     8510.955    9002.5848    10735.248    606.69957    304.91531    538.74523   -6080.2958 
 6301000    277.74521   -9130.4249   -8071.5334   -9130.4249            0    8036.6257    24.873266    25.006428    23.066875    14347.401    8765.4856    8422.2415      6922.15   -368.88858    1199.6482    608.58866   -6389.9328 
 6302000    260.65113    -9080.258    -8086.537    -9080.258            0    9180.8801    24.908783    24.947469    23.054858    14326.545    10294.949    9013.2688    8234.4229   -182.30791   -1063.5527   -312.86097   -6168.3026 
 6303000    259.89656   -9075.9081   -8085.0639   -9075.9081            0    9221.1294    24.863183    24.955992    23.061322    14309.214    9172.9749    10272.472    8217.9412    918.10068   -484.10224    292.86969   -6160.7506 
 6304000    266.02198   -9086.7624   -8072.5653   -9086.7624            0    7770.7472    25.004697    25.017382    23.018332    14399.165    7794.6675    7241.8288    8275.7452   -39.490682    386.06323   -493.57009   -6440.7313 
 6305000    257.18761   -9041.7172   -8061.2007   -9041.7172            0    7532.2286     24.97818    25.056251    23.026656    14411.453    7318.1612    7946.3153    7332.2093   -426.82698    245.65478   -282.75195   -6478.1051 
 6306000    268.59225   -9072.8108   -8048.8147   -9072.8108            0    7314.1801    24.979838     24.94658    23.093603    14391.044    7511.1846    7592.7482    6838.6075    156.82743   -803.26184   -1061.6878   -6513.7246 
 6307000    265.95131   -9102.6716   -8088.7439   -9102.6716            0    7274.9198    25.111837    25.079954    22.904793    14425.524    7277.9202    6120.4227    8426.4165   -343.70513   -1161.0353    452.39092   -6558.2356 
 6308000    259.96987   -9093.8357    -8102.712   -9093.8357            0    8246.4417    24.964774    24.973089    23.032347    14359.459    6883.9299    9528.0627    8327.3325   -606.31107     481.6644    341.83965   -6375.7588 
 6309000    263.27017   -9089.8433   -8086.1373   -9089.8433            0    9210.8114    24.869015     25.07322    22.909264    14284.986    9320.7624    8677.3024    9634.3695    920.89295   -388.73023   -104.77998   -6167.2318 
 6310000    255.97741   -9100.2747   -8124.3721   -9100.2747            0    9976.1311     24.84759    24.991384    23.024398    14297.591    10507.877     9759.794    9660.7226   -269.73043   -1529.2236   -1133.3887   -6044.1921 
 6311000    262.97351   -9102.5102   -8099.9353   -9102.5102            0    7529.1972    24.907787    25.038066    23.067911    14386.137    8348.7882    7625.5482    6613.2552   -543.27034   -261.14414    409.95869   -6520.2566 
 6312000    271.75226   -9111.7393   -8075.6957   -9111.7393            0    7851.2086    24.937849    25.103262    22.939482    14360.605    8020.4651    7122.9486    8410.2121   -413.36152    37.597218    1334.8172   -6431.3802 
 6313000    267.47289   -9029.8499   -8010.1213   -9029.8499            0    9752.0439    24.884703    25.075674    23.030836    14371.258    9446.0168     9260.056    10550.059   -169.97965    463.06963    723.30401   -5966.1898 
 6314000    268.88194   -9088.9727   -8063.8722   -9088.9727            0    9549.0362    24.951891    25.006085     22.92446    14303.697     8900.354    9214.0376    10532.717    596.60923   -31.271127    4.5715326   -6071.8979 
 6315000    259.34841   -9124.0737   -8135.3193   -9124.0737            0     7910.276    24.999992    24.929229    23.060407    14371.949    8124.8441    8165.1351    7440.8489    386.73198   -209.98932   -682.38177   -6477.3243 
 6316000     274.5451   -9056.6486   -8009.9575   -9056.6486            0    8198.8041    25.008182    24.934555    23.094827    14401.192    7512.3079    8582.6785    8501.4259    135.42089    -468.5444    1558.5061   -6287.9904 
 6317000    257.13511   -9092.1323    -8111.816   -9092.1323            0    9133.2503    25.074613    25.000273    22.791752    14287.515    8709.3751    9604.1418     9086.234   -695.44712   -410.11236    610.64062    -6208.732 
 6318000    262.99351   -9110.9236   -8108.2724   -9110.9236            0    9377.1822    24.863783    24.922033    23.061024    14289.902    9887.2912    10009.699    8234.5566   -86.833067    950.60101    1256.9665   -6154.0342 
 6319000     265.1273   -9118.0296   -8107.2434   -9118.0296            0    9578.9132    24.864954    24.916882    23.028948    14267.749    9759.2476    9685.3062     9292.186    17.196834    911.11318    151.67167   -6114.0585 
 6320000    254.57287   -9061.8307   -8091.2829   -9061.8307            0    9636.9607    24.940024    25.003163    22.931747    14299.767    10338.709    8080.2617    10491.911   -77.776023   -913.59638    318.16732   -6081.5194 
 6321000    263.71373   -9063.9066   -8058.5096   -9063.9066            0    8566.2102    24.836188    25.040528     23.12528    14381.872    9610.0459    7453.2173    8635.3673    531.55585   -812.31458    826.06162   -6261.7912 
 6322000    273.39975   -9075.6185   -8033.2939   -9075.6185            0    9228.6277    24.984418    24.967595    22.978748    14334.162     8985.188    8949.3725    9751.3227   -147.74909    124.62587   -26.712873    -6104.058 
 6323000    256.43901   -9129.2045    -8151.542   -9129.2045            0    8894.0514    24.906809    24.925096    23.017327    14289.262    9559.9152    8785.3751    8336.8639    -292.7939    602.29779     960.4823    -6298.073 
 6324000    271.95338   -9082.2297   -8045.4194   -9082.2297            0    9148.9341     24.93862    24.879685    23.108219    14337.841    10116.684    9538.3217    7791.7962   -215.13073   -700.97614    746.12083   -6132.3525 
 6325000    274.10617   -9074.9824   -8029.9647   -9074.9824            0    8154.3796    25.097614    24.995296    22.890667    14359.826    7615.4634    8226.0691    8621.6062   -597.06582   -115.06677    656.70964   -6322.2474 
 6326000    262.63485   -9081.6505   -8080.3667   -9081.6505            0    8831.3535    25.013849    24.919774    23.016383     14347.02    8630.6256    8397.4126    9466.0224    51.845277    -670.2901    17.112169   -6232.5245 
 6327000    266.97561   -9141.3044   -8123.4717   -9141.3044            0     8094.409    25.005958    24.851525    23.076098    14340.323    7725.2607    8839.3593     7718.607    125.36281    1295.4522   -617.52007   -6430.6158 
 6328000     273.8012   -9075.3098   -8031.4547   -9075.3098            0    7876.3898    25.048315    25.012399    22.908597    14352.659    7365.1442     7645.634    8618.3912    238.29529   -820.81949   -539.34193   -6382.7782 
 6329000    262.92322    -9099.385   -8097.0018    -9099.385            0    8104.9213    24.969838    25.026471    22.988895    14365.919    7831.7783    7991.2582    8491.7273    2.5005749     45.12313   -413.27958   -6398.9219 
 6330000    264.67241   -9101.2036   -8092.1517   -9101.2036            0    6606.1078    25.042887    24.974737    23.073111    14430.835    7671.1278    6434.2811    5712.9145   -431.54842   -607.10152    263.92079   -6701.8373 
 6331000    267.59741   -9073.7457   -8053.5424   -9073.7457            0    7735.8538    25.033261    25.132674    22.882422     14396.54    7343.9896    6834.1672    9029.4045    345.26135    134.47359   -1066.2447   -6429.3321 
 6332000    255.36679   -9071.8258   -8098.2511   -9071.8258            0    8619.2201    24.911844    24.968583    23.108392    14373.731    9346.1702    7524.9846    8986.5054    239.71618    1306.1979     97.30199   -6291.4375 
 6333000    257.11414   -9123.0978   -8142.8615   -9123.0978            0    7558.7786    24.876359     25.10653    23.047147    14394.305    7796.7779    7531.5648    7347.9932    927.12011   -996.31562    -968.9914    -6556.076 
 6334000    267.18909   -9049.5891   -8030.9424   -9049.5891            0    7794.3639    24.944072    25.184782    22.951306    14418.264    9548.7318    5565.6603    8268.6995    94.148622   -914.03663   -191.44519    -6391.978 
 6335000    268.47456   -9115.4659   -8091.9184   -9115.4659            0    8694.8531    24.893823    25.087682      22.9403    14326.868    9439.1093    8554.9177    8090.5323   -104.35688   -615.99732   -358.81329   -6275.1926 
 6336000    260.41619   -9058.0249   -8065.1996   -9058.0249            0     9765.526    24.768422    24.998081    23.117324    14313.392    11454.887    8757.7219    9083.9696   -687.30323    163.19169    387.53877   -6026.6838 
 6337000    270.53798   -9114.4572   -8083.0431   -9114.4572            0    9554.2063    24.851593    25.045956    22.957352    14289.388    9868.7216    8713.9744    10079.923   -745.85919   -445.67679    598.86654   -6091.9841 
 6338000     267.2202   -9046.1998   -8027.4345   -9046.1998            0    10413.082     24.88739    25.042247    22.919003    14283.951    10038.278     9773.083    11427.885   -4.6748453   -1867.2413    1327.5871   -5858.2148 
 6339000    260.39856   -9123.4181     -8130.66   -9123.4181            0    9934.2294    24.775537    24.942183     23.04076    14238.176    10920.924    9762.9238    9118.8402    110.07675    610.18324    768.83044   -6067.8254 
 6340000    266.52522   -9091.8715   -8075.7558   -9091.8715            0    7223.5322    25.042827    25.162889     22.86024    14405.378     7636.799    7156.9783    6876.8193   -577.74814   -711.10762     339.9068   -6558.1808 
 6341000     259.6577   -9115.9114   -8125.9779   -9115.9114            0    7822.3197    24.870464      24.9393    23.134492    14349.215    9221.9132     8424.209    5820.8367   -505.65629   -424.22407   -126.64845   -6489.0122 
 6342000    262.25648   -9082.7427   -8082.9014   -9082.7427            0    9225.3553    24.828161    24.999897    23.084164    14328.375    9675.5429    8719.6026    9280.9204    431.38204   -246.99709    888.21403   -6155.1283 
 6343000    268.97153    -9086.543   -8061.1008    -9086.543            0    8440.3921    24.960694    25.074905    22.932117    14352.915    9613.4119    6920.0104     8787.754    768.29805   -157.92268    1132.6343   -6294.3365 
 6344000    268.03859    -9123.807   -8101.9217    -9123.807            0    7388.8764    24.866451    25.006305    23.140193     14388.99    8650.3768    6827.1594    6689.0929    -23.52007      86.2861   -75.285622   -6551.3759 
 6345000    257.18824   -9135.3962   -8154.8773   -9135.3962            0    7786.4634    24.924096    25.072197    22.945901    14338.937     8483.599    6322.6552     8553.136    330.63829   -159.42734     143.7569   -6526.5824 
 6346000    263.61135   -9091.0992   -8086.0925   -9091.0992            0    7385.7457    25.033027     25.04863    22.986866    14413.754    7496.5458    7535.0906    7125.6007   -1174.0299   -1101.6475    542.68772   -6533.5363 
 6347000    262.65819   -9069.8026   -8068.4298   -9069.8026            0    8296.2645     24.92127    24.947331    23.077939    14347.997    8584.9231    8990.0013    7313.8691   -22.565845   -317.59099   -256.29421   -6332.4296 
 6348000    259.52266   -9141.3394   -8151.9207   -9141.3394            0    7829.4084    24.948084    25.089289    22.928597     14351.69    7809.1233    7284.8187    8394.2832    90.503724    259.82047   -596.13217   -6513.1889 
 6349000    259.10528   -9046.9693   -8059.1418   -9046.9693            0    8023.0491    25.003971     25.01858    23.033404    14408.865    8522.4701    8225.3582    7321.3189    1063.9552   -349.15782   -1292.2852   -6373.1903 
 6350000    256.89816    -9097.692   -8118.2791    -9097.692            0    7973.8775    24.855225    24.888894    23.239618    14376.471    8099.2885    9536.5382    6285.8057    815.42394   -617.76099    -357.9946   -6446.4274 
 6351000    262.30434   -9086.7953   -8086.7716   -9086.7953            0    9760.1154     25.01922    24.950369    22.862311     14271.54    9506.6514    8877.1149     10896.58    620.44107    352.73032    406.67536   -6055.3424 
 6352000     275.9365   -9106.9193   -8054.9235   -9106.9193            0    7980.3516    25.003813    25.002922    23.029363    14397.229    7924.3404    7775.6562    8241.0583   -56.233393   -175.17788    718.14208   -6379.2985 
 6353000    263.78295   -9077.7524   -8072.0915   -9077.7524            0    8295.0463    24.927064    24.958427    23.122656    14385.537    8853.2332    8049.0657    7982.8399    761.62942   -437.30731   -348.59908    -6331.805 
 6354000    271.10219   -9124.9559   -8091.3907   -9124.9559            0    7258.5779    25.003527    25.094564    22.952004    14401.294    6841.3666    6089.4652    8844.9018   -579.08615    -435.9702   -196.92275   -6566.8854 
 6355000    261.01537   -9064.3551   -8069.2455   -9064.3551            0    7803.2171    24.988534    25.087334    22.975368    14403.159     7415.551    7673.3633     8320.737   -484.27802    353.93026    275.27965   -6430.1383 
 6356000     258.9513   -9100.4929   -8113.2524   -9100.4929            0    7837.8134    24.927131    24.934979    23.132083    14377.919    7207.1799    9567.3434    6738.9168   -326.55032   -1057.2247    580.45413   -6469.7633 
 6357000    263.57581   -9093.4233   -8088.5521   -9093.4233            0    7944.4591    24.859951     24.96143    23.166812    14375.932     8324.841    9069.5773    6438.9591    249.56058   -922.45847   -1227.3216   -6422.9309 
 6358000    260.87587   -9075.2901   -8080.7124   -9075.2901            0    9501.1174    25.007091    24.960191    22.957692    14329.773    8969.7908    9581.3956    9952.1659    1402.7332   -90.407207    67.034128   -6095.1209 
 6359000    259.85019   -9089.6405   -8098.9731   -9089.6405            0     8384.925    25.051152    24.969581    22.997458    14385.296    7948.0663    8534.8686      8671.84    296.12206   -1556.7519   -386.32841   -6339.8595 
 6360000    255.26508   -9091.2192   -8118.0323   -9091.2192            0    6495.1358    25.113588    24.957788    23.101039     14479.26    5853.0211    7327.7807    6304.6057    52.356639    685.67797    693.76245   -6746.4859 
 6361000    272.79557    -9113.784   -8073.7629    -9113.784            0    6954.3026    25.033373    24.916708    23.086226    14400.016    5638.6587     8018.861    7205.3881    372.12639    154.16233    989.59082   -6613.2935 
 6362000    272.08485   -9105.1457   -8067.8342   -9105.1457            0    8031.8107    25.002225    24.962664    22.998814    14354.069    6878.0551    9148.4722    8068.9049    -69.23804     -582.498   -291.21747     -6386.46 
 6363000    257.00632   -9060.4461   -8080.6208   -9060.4461            0    7629.6485    25.021584    25.023232    22.996422    14398.541    7648.2635    8215.7193    7024.9626    5.5059723   -182.63173   -250.62102   -6478.4866 
 6364000    279.69351   -9087.4378   -8021.1186   -9087.4378            0    7218.3138    24.954364      24.9703    23.128524    14411.798    7774.9151    7508.7479    6371.2785    152.52711   -122.60715   -83.109039    -6503.964 
 6365000    274.68108   -9076.3349   -8029.1253   -9076.3349            0    8551.0868    24.938804    24.992851    23.048602    14366.005    8717.8986    8679.7695    8255.5924    38.345485   -1279.2636    427.36455   -6237.5576 
 6366000    263.01215    -9116.854   -8114.1317    -9116.854            0    8757.4971    24.909149    25.062475    22.981968    14347.296     9649.447    7362.3421    9260.7022    807.21027    102.24262    1046.9164   -6281.7078 
 6367000    262.44874   -9142.6368   -8142.0625   -9142.6368            0    8809.9118    24.803058    25.099259    22.977121     14304.14    9208.7351    9271.3433    7949.6571     676.2188    461.30071   -305.55874   -6304.2162 
 6368000    252.91088    -9103.822   -8139.6104    -9103.822            0    8938.4702     24.87565    25.074087    22.938291    14307.397    9261.4032    8628.2296    8925.7776    1046.9688   -92.395325    653.81879   -6274.5208 
 6369000    264.95808   -9089.9083   -8079.7673   -9089.9083            0    8890.7901    24.850682    25.054433    22.999272    14319.801    10197.258    6882.3566    9592.7554    442.55301   -468.83104   -127.29022   -6223.0182 
 6370000    254.61619   -9072.7094   -8101.9964   -9072.7094            0    8445.4414    24.923064    24.963408    23.090467    14366.071     8253.021      9017.81    8065.4932   -314.88304   -1025.5398   -57.599655   -6332.5547 
 6371000    260.52079   -9086.2732   -8093.0492   -9086.2732            0    8960.5788    24.910914    25.039393    22.985622    14337.377    9456.7868    8722.4925    8702.4572    181.96449    107.56406    815.68004   -6219.4285 
 6372000    264.83754   -9063.2278   -8053.5464   -9063.2278            0    7730.4734    24.991468    25.022265     23.01576    14392.748    8292.3695    6250.6595    8648.3913    1259.7433    449.22128    207.52321   -6430.8932 
 6373000    254.96276   -9092.3031   -8120.2688   -9092.3031            0     7383.091     24.92481    24.997762    23.166427    14434.177    7941.3381     7341.559    6866.3758   -273.15583    312.20181   -1213.0707   -6566.0715 
 6374000    270.29624   -9069.8591   -8039.3666   -9069.8591            0    8357.3874    24.963483    25.056865    22.950781    14355.865    8202.1781    7260.1064    9609.8777   -54.990491   -790.68636    219.85695   -6289.6174 
 6375000    273.11157   -9069.4692   -8028.2433   -9069.4692            0    9257.6279    24.914682    25.056449    22.945126    14324.033    8997.2257     8177.961    10597.697   -1037.3128    389.15807    989.21945   -6094.3126 
 6376000    267.08876   -9106.5978   -8088.3336   -9106.5978            0    9155.7413    24.873851    24.917419    23.114965    14326.475    9533.1895    9442.2757    8491.7588   -216.89437    -526.0284   -585.70546   -6175.3611 
 6377000    270.40582   -9092.2791   -8061.3688   -9092.2791            0    8963.4218    24.986929    25.075769    22.817018    14296.378     7877.895    9284.7891    9727.5814   -52.339122   -126.43463   -679.76304   -6192.5132 
 6378000    261.99888   -9089.9529   -8091.0937   -9089.9529            0    9170.6032    24.901421    24.900682    23.074392    14307.562    8999.5833    9445.4914    9066.7347    86.642844   -1265.9652   -191.09521   -6177.5454 
 6379000    255.31023   -9029.0855   -8055.7264   -9029.0855            0    9234.1409    25.114648    24.867346    23.007474    14368.964     9369.007    9370.7065    8962.7092   -575.25458   -205.89155    382.62511   -6120.6513 
 6380000    263.42208   -9131.2664   -8126.9813   -9131.2664            0    8360.0488    25.018313      24.8867    23.038972    14344.599      9641.63     7832.193    7606.3233    15.191909    -68.85053    114.44871   -6378.0485 
 6381000    262.19557   -9114.4342   -8114.8252   -9114.4342            0    9722.1859    25.059248    24.851512    22.893681    14257.274    7772.1681    10634.923    10759.467   -821.99774   -187.79598    305.60727   -6093.3133 
 6382000    259.60808   -9084.2202   -8094.4758   -9084.2202            0    8475.1129     24.97232    24.871647    23.146667    14376.458    7771.3873    9708.8213    7945.1301    451.82353    1310.3635   -61.815059   -6317.5337 
 6383000    259.87741   -9088.3011   -8097.5299   -9088.3011            0     8150.298    24.999565     25.04534    22.992031     14395.83    8676.5955    8307.8941    7466.4044    1085.5598    23.914109    37.886983   -6386.3877 
 6384000    256.35472   -9108.1651   -8130.8241   -9108.1651            0    7752.1842    24.952178    24.988514    23.083576    14393.022    8083.6318    8540.8894    6632.0313    565.78217    217.20124    605.23233   -6503.5828 
 6385000      256.745   -9128.2924   -8149.4634   -9128.2924            0    8304.5002    24.940436    25.021003    22.982358    14341.789    8421.5012    7658.6748    8833.3247   -224.96385   -50.490231    609.57851   -6412.4917 
 6386000    260.97081   -9072.9358   -8077.9961   -9072.9358            0    7480.8365    25.116902    25.060883    22.885783    14405.496    7449.2424    7391.7678    7601.4991   -8.8580517   -279.83272    583.67021   -6506.3518 
 6387000    266.98543    -9133.648   -8115.7778    -9133.648            0    8763.4534    24.922224    24.967216    23.003714    14313.798    8939.8151    8571.8332    8778.7119     538.4317   -715.85468   -549.95582   -6286.3889 
 6388000    266.18609   -9086.6689   -8071.8461   -9086.6689            0    9125.4663    24.716983    24.924897    23.237777    14316.057    9189.9268    9963.0792    8223.3929   -155.75723    -114.8282   -246.00453   -6166.5856 
 6389000    259.33123   -9108.2802   -8119.5913   -9108.2802            0    9588.6543    24.988732    24.906409      22.9626    14291.453    9094.3843    10324.382    9347.1963   -712.90704   -214.72768    540.90206   -6121.0647 
 6390000    267.25063   -9095.3347   -8076.4534   -9095.3347            0    7644.4835    25.143364    24.832808     23.04183    14386.866      6283.29    8683.5005    7966.6598   -251.24161   -143.62208   -201.25591   -6472.5056 
 6391000    263.52131   -9128.7483   -8124.0848   -9128.7483            0    7033.8601    24.957701     24.98579    23.094244     14401.29    8817.5979    6026.4741    6257.5082    451.66469    -143.9553   -55.692623   -6646.7769 
 6392000    260.12744   -9119.7769   -8128.0524   -9119.7769            0     7460.769    25.053297    25.132194    22.858598    14392.786    7317.4908    7118.9586    7945.8577   -464.69795    162.51403    1452.8599    -6562.007 
 6393000    258.08916   -9065.7128   -8081.7592   -9065.7128            0    8462.8861    24.895632    25.055093     23.03004    14365.272    8878.3738    8072.5608    8437.7237   -1683.3256    386.84716    1543.6673   -6308.7612 
 6394000    270.55385   -9131.7553   -8100.2806   -9131.7553            0     7807.336    24.876414    24.973475    23.139194    14375.236    7622.8549    8252.2359    7546.9172   -567.03295   -276.24909    3.3813519   -6463.4876 
 6395000    280.77965   -9079.7599   -8009.2998   -9079.7599            0     10013.79    24.989838    25.049859    22.789185    14265.845    9726.0647    9299.2527    11016.052    142.16919   -894.95743    8.4702848   -5925.9036 
 6396000    261.76014   -9098.7626   -8100.8136   -9098.7626            0    8064.9283    24.956196    24.918842    23.079425    14352.621    7661.2002    8652.8483    7880.7363    82.202571   -1366.1512    441.59573   -6412.6769 
 6397000     262.8132   -9089.3112   -8087.3474   -9089.3112            0    8939.7425    24.864284    24.905087    23.160278    14341.937    10167.122    8479.9454    8172.1602   -248.24124   -701.38405    416.71475   -6217.4891 
 6398000    256.20245   -9094.4993   -8117.7387   -9094.4993            0    9939.5424    24.894402    25.107963    22.835032    14272.985    9879.6008    10164.386    9774.6403    570.53818    514.01917     465.6419   -6048.7548 
 6399000    264.18576   -9087.6999   -8080.5034   -9087.6999            0    8662.9727    24.929481    25.020181    22.991711    14340.853    9573.3438    8284.3083    8131.2659    509.12685    584.13236    518.55105   -6268.6719 
 6400000    263.31411   -9107.1684   -8103.2949   -9107.1684            0    8203.8152    24.817644    25.009146    23.178521    14386.168    9599.3831    7709.9339    7302.1288    138.54209    849.64417    105.35846   -6382.0729 
 6401000    261.90381   -9058.2045   -8059.7077   -9058.2045            0    9051.0854    24.902806    25.116869    22.909695    14329.568    10530.145    7844.8022    8778.3094    942.44332    -751.7236   -323.03814   -6168.1933 
 6402000    260.97775   -9117.5237   -8122.5575   -9117.5237            0    7969.4072    24.862679    25.016323    23.151046    14399.321    8465.0561    7992.0437    7451.1216   -497.54016     704.8906    739.63959   -6448.9874 
 6403000    265.43381   -9091.8821   -8079.9273   -9091.8821            0    7883.8305    24.940308    25.011567      23.0739     14393.41    7706.3395    7581.7337    8363.4183    1189.2848     31.42491    1121.1742   -6425.0078 
 6404000    264.37198   -9124.3352   -8116.4287   -9124.3352            0    9270.7815    25.040537    25.104167    22.708556    14275.094    8442.7282    8773.4722    10596.144   -908.29556   -42.978945   -467.70332   -6186.3669 
 6405000    257.59821   -9068.7519     -8086.67   -9068.7519            0    9544.1011    24.877052    24.977338    23.034199    14312.588    9002.4505    10433.797    9196.0554   -1422.2633   -549.28625    -468.4913   -6094.4876 
 6406000    245.52174   -9124.5613   -8188.5204   -9124.5613            0    8660.7292    24.933053    25.030493    22.937959    14315.273    8924.5605    8093.3946    8964.2326   -207.87607    -804.4603   -528.75839    -6380.389 
 6407000    264.39519   -9116.0071   -8108.0121   -9116.0071            0    7804.6095    25.001046    25.025828    22.975358    14375.036    7112.2104    7824.1586    8477.4596   -369.45004   -771.73346    1828.8816   -6471.8135 
 6408000    269.75291   -9112.1146   -8083.6935   -9112.1146            0    7014.5125    24.943267     25.00692    23.111466    14415.877     7794.581    6389.2437    6859.7127    578.04042   -898.46137    1090.5754    -6608.957 
 6409000    263.71812   -9071.8101   -8066.3963   -9071.8101            0     7765.814    24.888019    24.994511     23.11274      14377.6    8192.4283    8055.4997     7049.514   -725.76034   -349.56043     388.0272   -6438.0406 
 6410000    265.57586   -9109.1384   -8096.6421   -9109.1384            0    9530.3364     25.04087    24.981089    22.891712    14319.869    9733.5204    9356.9101    9500.5786     726.5717    171.94497   -1101.7565   -6106.3209 
 6411000    256.10489   -9108.0305   -8131.6418   -9108.0305            0    10202.211    24.934826    24.816628    23.006721     14236.52    9609.2383    11167.741    9829.6547   -202.32945   -1188.3465   -244.90173   -6013.4072 
 6412000    264.14931   -9087.3704   -8080.3128   -9087.3704            0    9057.6036     25.03088    24.932249    22.955316    14325.865    8589.9825     9464.211    9118.6173   -459.35289     498.9954   -11.819796   -6187.9254 
 6413000    262.14966    -9063.582    -8064.148    -9063.582            0    8637.1868    25.034199    24.896999    23.024544    14350.656    8189.2778    9050.2681    8672.0144   -210.77803    -668.4413    865.66492   -6256.4746 
 6414000    256.66413   -9093.6464   -8115.1257   -9093.6464            0    7913.2427     25.03607    24.850376    23.116519    14382.076    7856.9249    8581.9497    7300.8535    340.71608   -907.46242    147.54123   -6455.3402 
 6415000     271.1683   -9119.9696   -8086.1524   -9119.9696            0     8234.712    25.044332    24.956784    22.933277    14333.894    7965.9451    8667.5368    8070.6542    690.48385   -1074.9692    849.56672   -6364.7258 
 6416000    271.27945   -9085.3996   -8051.1586   -9085.3996            0    8404.1231    25.104546    24.918455    22.954018    14359.265    6327.4089    9185.7285    9699.2319   -521.14077   -455.88936     704.0857   -6291.2079 
 6417000    253.86046   -9121.7987   -8153.9669   -9121.7987            0    7651.4755    24.998002    24.915512     23.08675    14379.306     7076.008    7771.5722    8106.8463    844.48917    500.48973   -1571.3358   -6549.3957 
 6418000    269.69276   -9070.4894   -8042.2976   -9070.4894            0    7406.4957    24.929065    24.931941    23.196131    14417.091    7784.4417    7362.5921    7072.4533   -210.04129    -856.9093   -340.77618   -6485.0191 
 6419000    256.41176    -9066.798   -8089.2395    -9066.798            0    8282.5468    24.982496    25.010061    23.003469    14372.884    8732.7074    8132.1945    7982.7384    876.34401   -1601.9417    812.50553   -6353.1036 
 6420000    269.78904   -9123.4106   -8094.8518   -9123.4106            0    8726.4348    25.007568    24.873756    23.004583     14309.59    8312.7059    10120.255     7746.344   -1072.5048   -305.31307    658.38725    -6273.726 
 6421000    262.66302   -9110.1117   -8108.7205   -9110.1117            0    9346.3335    24.909262    24.925659    23.015616     14289.93    8101.9951    10398.726    9538.2788    273.73116    -57.12163   -396.82339   -6160.9075 
 6422000    259.22305   -9086.4344    -8098.158   -9086.4344            0    8720.4158    24.861649    24.930313    23.118457     14329.02    9463.0169    8645.5399    8052.6907   -307.43027   -28.712875    1023.8142   -6275.8172 
 6423000     271.1377   -9118.1925   -8084.4919   -9118.1925            0    10407.972     24.90722    24.929293     22.96451     14259.11    10855.242    10205.315     10163.36   -129.84044   -563.60897    474.61419   -5920.1073 
 6424000    268.27817   -9133.8811   -8111.0823   -9133.8811            0    9492.6118    24.783957    25.110111     22.92572    14267.316    10571.522    8017.9733    9888.3398    367.81085   -9.0708214    240.84699    -6135.915 
 6425000    257.59103   -9078.2808   -8096.2263   -9078.2808            0    9310.1661    24.869552     25.05753    23.024687    14348.284    9690.7626    8736.2747    9503.4609     768.0166    186.78611    38.532113   -6148.0275 
 6426000    253.10546   -9073.8459   -8108.8925   -9073.8459            0    9797.9375    24.904044    24.937624    22.974578    14268.309    9315.1595    9353.1415    10725.511    52.297368    566.35681    463.84722   -6070.0529 
 6427000    269.17428   -9095.9812   -8069.7661   -9095.9812            0    7776.0241    24.958982    25.189684    22.847757    14364.587    7984.5373    6539.1511    8804.3838    590.45629   -718.00114    761.01051   -6440.7453 
 6428000    263.77233   -9106.4048   -8100.7843   -9106.4048            0     6517.756    24.906671    25.095606    23.113282     14446.91    8018.1569    5699.1578    5835.9534    106.99857   -1094.4079     788.9206   -6727.5364 
 6429000    264.52519   -9107.4807     -8098.99   -9107.4807            0     7604.737    24.833952    25.080506    23.094021    14384.067    9427.5522    6448.0307    6938.6281   -311.29807   -84.809773    1422.9231   -6503.6922 
 6430000    262.06967     -9108.72   -8109.5909     -9108.72            0     7259.911    24.912715    25.046465    23.024125    14366.488     8302.878    7556.0551    5920.7998   -152.09606    228.27659    694.42944   -6588.4908 
 6431000    260.04223    -9084.816   -8093.4164    -9084.816            0    8859.4557    24.856678    25.022503    23.057278     14341.08    10178.073    9019.9815    7380.3126   -580.06705    -622.2428     52.46069   -6240.4617 
 6432000    256.64882   -9021.4187   -8042.9563   -9021.4187            0    9918.7991    24.928958    25.070628    22.912564        14320    8282.0249    10646.283     10828.09    175.28098   -632.73279   -721.09274   -5971.4894 
 6433000     266.5592   -9103.9446   -8087.6994   -9103.9446            0    9042.6113    24.784796    25.040744    23.073879    14320.336    9720.9051    8594.7209    8812.2078    30.226426    568.06732    265.55282   -6199.1735 
 6434000    262.72455    -9066.105   -8064.4791    -9066.105            0    9635.2873    24.823043    25.021941    23.012862    14293.765    9688.3015    9558.3288    9659.2317    162.24876   -713.29396    129.24492   -6055.9081 
 6435000    269.56814    -9044.139   -8016.4223    -9044.139            0    10070.963    24.894282    25.041759    22.919343     14287.84    10444.316    9901.2106    9867.3614    774.94552   -672.55425    642.54482   -5917.9006 
 6436000    269.64802   -9068.1989   -8040.1776   -9068.1989            0    8572.0413    24.760954     25.08972    23.165211    14391.281    9639.8094    8200.0165    7876.2979   -843.41996    1030.9825    320.26691   -6241.0598 
 6437000    257.59025   -9129.8859   -8147.8343   -9129.8859            0    7612.2553    24.888549    24.973495    23.114547     14366.94    7975.5933    7353.7723    7507.4004    213.61024   -491.28906    871.15819   -6552.8606 
 6438000    265.81701   -9069.6912   -8056.2755   -9069.6912            0    8851.9535    24.987909    25.089011    22.846658    14323.071    8448.8114    9218.8457    8888.2034   -413.50702   -1366.4954   -87.614091   -6207.2148 
 6439000    255.05337   -9113.6524   -8141.2727   -9113.6524            0    8662.4882    24.920561    25.081239    22.922208    14327.263     8002.999    9258.6797    8725.7858    -455.8109    230.36139    406.44241   -6331.2593 
 6440000    270.56205   -9071.8777   -8040.3718   -9071.8777            0    7229.3809    24.937096    24.999529    23.154835    14435.087    8130.5172    7523.9461    6033.6793    422.76089    120.09309   -392.85635   -6518.4357 
 6441000    261.09341   -9089.6096   -8094.2024   -9089.6096            0    6214.2408    25.043468    25.038943    23.044553    14450.362    5833.3315    6602.3076    6207.0833   -388.22265   -67.555705   -200.66797   -6784.5903 
 6442000    273.43574   -9092.7678   -8050.3061   -9092.7678            0    9401.1927     24.90933    24.999345    22.951116    14292.048    8155.7505     10017.01    10030.818   -838.96827    295.45504     136.9907   -6090.7697 
 6443000    260.08645   -9077.7398   -8086.1717   -9077.7398            0    9325.6136    24.920194    24.976433    22.990047    14309.409    8865.6873    9734.3249    9376.8287    15.999252   -727.42634    847.51664   -6140.0276 
 6444000     261.1586   -9096.5186   -8100.8629   -9096.5186            0    7768.6327    24.951905    25.034184    23.011665     14374.25    7397.7293    7385.6575    8522.5113    255.01773   -1353.8577   -1302.1512   -6472.2958 
 6445000    268.53395   -9105.1143   -8081.3404   -9105.1143            0    8258.4669    25.019323    24.921956    23.012956     14349.28    6787.4308    9551.9999      8435.97    880.08369    195.13465    541.05815    -6353.095 
 6446000    260.17392   -9056.0515   -8064.1499   -9056.0515            0    8824.9589    25.044592    24.942782     22.97055    14349.284    7879.6133    10132.578    8462.6848    34.252175    -1439.148   -628.39123   -6217.3544 
 6447000    269.66742   -9117.4624   -8089.3672   -9117.4624            0     7955.134    24.976759    24.969019    23.025288     14359.61    7598.3774    8208.5941    8058.4307   -383.17089    -1266.843    42.216233   -6423.4016 
 6448000    267.36674   -9081.3963   -8062.0723   -9081.3963            0    8674.2844     24.93526    24.911778    23.072296    14332.087    9368.8699    9300.6664    7353.3169   -413.38064   -189.13743    345.07415   -6248.9839 
 6449000     269.4971   -9070.2861   -8042.8403   -9070.2861            0    8860.6924    25.020313    25.051771    22.927535    14371.052    7984.5703    8851.3951    9746.1119    -261.9598   -327.06437   -52.542105   -6185.7539 
 6450000    258.06206   -9066.3566   -8082.5064   -9066.3566            0    8967.5108    24.947571     24.93853    23.050685    14341.116    8910.6747     9542.418    8449.4398    -698.0063    875.64949    1073.9369   -6206.9473 
 6451000    283.96117     -9108.17   -8025.5805     -9108.17            0    10376.602    24.966586    24.993314    22.813451    14235.542    9551.7482    10184.753    11393.305   -366.61741   -850.01126    -46.01298   -5871.2862 
 6452000     257.8492   -9067.6107    -8084.572   -9067.6107            0    9953.1161    24.851694     24.93503    23.024731    14267.913    9039.0702    10587.777    10232.501    -697.4163   -577.70736   -63.776297   -6013.4989 
 6453000     259.2045   -9125.3584   -8137.1526   -9125.3584            0    8540.7973     24.90955    24.920235    23.052765    14310.046    7872.5804     9129.427    8620.3844   -1197.4073    201.85824    925.83539   -6354.7109 
 6454000    263.11578   -9059.0626   -8055.9452   -9059.0626            0    9896.5608    24.999622    25.005845    22.919448    14327.788    10097.123    9171.4123    10421.147   -142.11288    473.70797     1586.463   -5987.9986 
 6455000    256.16539    -9099.802   -8123.1827    -9099.802            0    7764.9583    25.003705    24.986523    22.999816    14369.265    7548.6625    7643.1336    8103.0789   -204.48779    241.14805   -1439.1815   -6495.9503 
 6456000    245.77012    -9109.344   -8172.3562    -9109.344            0    7521.2826    24.898353    24.946229    23.172373    14392.825    8322.7238    6691.6021    7549.5221   -336.16206   -1538.9124    493.03696   -6593.6044 
 6457000    264.68632    -9101.442   -8092.3371    -9101.442            0    8688.6401    24.945139    25.079363    22.936622    14349.339    8524.4825    8145.7137    9395.7241   -460.30487    430.82856   -731.94671    -6274.062 
 6458000    258.51411   -9068.1164   -8082.5427   -9068.1164            0    8271.8555    24.996594    25.083444     22.94341    14385.534    8082.9693    7385.8589    9346.7385   -104.84742    454.87063   -274.15458   -6347.1219 
 6459000    265.42161   -9060.7539   -8048.8457   -9060.7539            0    8799.6303    24.852422    24.960363    23.216063    14401.515    7494.4056    9440.9672    9463.5181   -1126.3515     237.2846   -1245.9446   -6200.6477 
 6460000    265.85881    -9090.654    -8077.079    -9090.654            0    8571.1648    24.955655     24.97123    23.041721    14358.988    9645.0192    7562.2269    8506.2482   -726.88307   -799.06827    537.11391   -6282.1819 
 6461000    265.35794   -9068.1376   -8056.4721   -9068.1376            0    8352.2195    25.088733    25.054817    22.861934    14370.866    7471.6662    8823.1544    8761.8378    487.78052    548.10261    666.32881   -6305.9777 
 6462000    259.77458   -9083.4618   -8093.0826   -9083.4618            0     7791.683     24.92903    24.910971    23.141471        14371    8356.6718    7921.3171    7097.0601   -940.32755   -9.4156346   -1221.1602   -6460.0526 
 6463000     257.4856   -9087.1955   -8105.5429   -9087.1955            0    7211.2206    25.049674    24.999876    23.056654     14438.97    7024.5999    7568.8667    7040.1952     723.1618   -978.07972   -260.08755   -6587.0217 
 6464000    263.13898   -9075.1778    -8071.972   -9075.1778            0    8136.7704    24.984409    24.951121    23.019825    14350.306    8904.1912    7372.3384    8133.7815   -392.14377   -262.06184   -18.526284   -6369.0721 
 6465000    266.36748   -9128.8561   -8113.3418   -9128.8561            0    8313.5359    25.084685    24.952724    22.893991    14330.064      8240.64    7409.6904    9290.2774     -641.655    95.876676   -723.67418   -6375.9019 
 6466000    260.80184   -9119.4508   -8125.1553   -9119.4508            0    8188.0781    24.896559    24.905202    23.116003    14333.166    8705.8151    8729.0095    7129.4096   -672.32861    170.74887    227.84039   -6413.5643 
 6467000    264.86297   -9064.6614   -8054.8829   -9064.6614            0    9507.7189    25.007517    24.899635    22.969408    14302.546    9150.9268    10047.433    9324.7968   -427.18176    184.85975   -717.52224   -6071.6872 
 6468000    260.72618   -9080.7458   -8086.7387   -9080.7458            0    8859.0057    25.023267    24.960777    22.952908    14336.391    7974.8372     9171.386    9430.7939    209.72814   -1402.2433   -121.47864    -6234.484 
 6469000     260.7778   -9121.4512   -8127.2473   -9121.4512            0    8444.1376    24.879191    24.829654    23.209726    14337.616     8540.274    8958.2917     7833.847   -118.12419   -1262.2886    1187.3181   -6361.5831 
 6470000    264.04128   -9102.7886   -8096.1428   -9102.7886            0    7630.7291    25.034818    25.053434    22.927801    14380.504    7232.9177    7599.8271    8059.4423   -326.74019     592.4835    -260.8809    -6495.789 
 6471000    258.90607   -9077.0052   -8089.9372   -9077.0052            0    8879.3796    25.011763     25.04685    22.866462    14325.058    7975.6886    9616.2978    9046.1523    386.86924     193.7229    116.27824   -6234.8902 
 6472000    260.38842   -9103.1103   -8110.3909   -9103.1103            0      9128.54    24.906933    24.941253    23.049433    14318.542    10477.142    8454.5748    8453.9031    80.297637   -1565.1109    766.93461   -6204.1578 
 6473000    269.30766   -9111.3219   -8084.5983   -9111.3219            0    8464.9308    24.915247    25.023066    23.010606    14346.097    8183.9169    8106.5345    9104.3409    334.51902   -454.99236   -616.57981   -6313.5391 
 6474000    270.58022   -9037.4896   -8005.9144   -9037.4896            0    9673.7003    24.826507    25.022925    23.052484    14320.936    10568.228    8570.1166    9882.7563   -1588.0253   -19.856797     281.1728   -5985.5025 
 6475000    267.10779   -9116.4688   -8098.1321   -9116.4688            0    8826.4278    24.889075    25.044919    22.960828    14312.514    8996.8166    7857.2595    9625.2075   -663.51524   -194.20749    842.80109   -6255.7624 
 6476000    253.99843   -9046.5529    -8078.195   -9046.5529            0    10109.734    24.920969    25.014169    22.882492    14264.427    10303.596     9393.788    10631.818    221.41182    635.69682   -863.48614   -5975.0465 
 6477000    261.06723   -9053.3747   -8058.0674   -9053.3747            0    7781.3577    24.875957    25.011832    23.114727    14381.827    9103.2004    7915.7826    6325.0902    527.19949    670.55447   -245.47743   -6425.9727 
 6478000    266.13628   -9069.9128     -8055.28   -9069.9128            0    8030.4714    24.914406    25.044511    23.107398    14418.303    8840.9401    7562.8896    7687.5845   -402.91906   -827.05308    -728.0301   -6366.6633 
 6479000    264.05709   -9107.7904   -8101.0843   -9107.7904            0    7888.0805     24.90667    25.248601    22.830116    14356.914    8509.5353    6547.0919    8607.6142    809.58318   -1191.1391    615.25653   -6449.4712 
 6480000    259.81633   -9065.7888   -8075.2505   -9065.7888            0    8708.8208    24.860121    25.111319    22.991794    14353.097    9719.0267    7232.1291    9175.3067    167.19481   -858.38061    640.90921   -6252.2749 
 6481000    271.46562   -9083.3843   -8048.4335   -9083.3843            0     7226.566    24.857628    25.134595    23.087784    14424.933    8045.8518    5980.6494    7653.1967   -683.92624   -1189.7501     1113.152   -6528.1602 
 6482000    269.31333   -9099.5301   -8072.7848   -9099.5301            0    8457.4147    24.924875    25.030862    22.997404    14347.876    8413.4003    8240.7325    8718.1114     111.3226   -229.42788    338.47358   -6303.0788 
 6483000    269.13489   -9092.2524   -8066.1875   -9092.2524            0    7615.4303    24.983622    25.119607    22.938651     14395.81    7908.3456     6824.505    8113.4404   -93.479043   -1129.8095   -233.01743   -6467.3421 
 6484000    264.41668   -9076.2993   -8068.2223   -9076.2993            0    7926.1093    24.959265     25.01598    23.076489    14408.509    8436.4799      7733.04     7608.808    987.37653    685.20269   -618.99648   -6402.6826 
 6485000    259.66588    -9121.887   -8131.9223    -9121.887            0    6537.9128    24.953811    24.982103    23.173407    14446.271    6538.1509    6788.1199    6287.4676   -141.71806   -31.425959     738.1782   -6754.4883 
 6486000    265.58619   -9073.2747    -8060.739   -9073.2747            0    9876.0766    24.947969    25.000018    22.911624    14289.973    8614.1947    10543.481    10470.554   -660.33633    124.39894   -949.30835   -6002.5193 
 6487000    274.30701    -9138.447   -8092.6636    -9138.447            0    8730.7194    24.847107    24.933338    23.083563     14300.76    8992.6634    8352.8519    8846.6429   -472.55229   -476.54487   -1033.9758    -6271.768 
 6488000    272.17349   -9057.5268   -8019.8773   -9057.5268            0    7833.8907    25.045575     25.09742    22.887242    14386.446    6690.0404    7194.8946    9616.7372   -120.92119    561.30722    279.47589   -6376.2364 
 6489000    260.70794   -9074.6559   -8080.7183   -9074.6559            0    8592.2594    25.033881    24.957548    23.029842    14388.683    6609.0163    9249.4882    9918.2737    29.879982   -236.77221    369.95526   -6277.6826 
 6490000    267.30327   -9066.4304   -8047.3484   -9066.4304            0    8028.4038    24.919904    24.991377    23.130476     14405.26    7767.9097    9161.3387    7155.9629   -31.396812    335.06572    539.56407   -6360.6936 
 6491000    267.04649    -9092.256    -8074.153    -9092.256            0    8123.2528    24.989749    25.159545    22.900001    14397.934    7133.3308    7174.1029    10062.325    720.32121   -308.69792   -547.10368   -6368.4396 
 6492000    265.55699    -9057.403   -8044.9787    -9057.403            0    9308.5443    24.924555    25.012673    23.000019    14338.896    8143.2799    9988.2416    9794.1113    934.17533    162.64557   -560.91385   -6098.3937 
 6493000     268.3661   -9109.7229    -8086.589   -9109.7229            0    8903.1606     24.86305    25.117008    22.944271    14328.363    9902.5955    7542.4404    9264.4458   -428.11642    434.31081   -200.05682   -6226.1447 
 6494000    264.74508   -9128.0163   -8118.6874   -9128.0163            0    7791.0401    24.928735    25.043816    22.998179    14358.009    7611.3037     8191.317    7570.4995    168.90866    920.03512     232.3323   -6487.2683 
 6495000    267.10197   -9081.5951   -8063.2806   -9081.5951            0    7257.8496    24.834893    25.192292    23.014115    14398.733    8823.8604    6414.9214     6534.767    262.62086   -423.55859    -68.32117   -6539.1993 
 6496000    266.07363   -9111.5797   -8097.1856   -9111.5797            0    8041.0608     24.88037     25.03662    23.067226    14369.045    8604.8856    7669.4409    7848.8559   -616.72066    520.95325    553.68521   -6412.1188 
 6497000    271.64886   -9070.9385   -8035.2892   -9070.9385            0    8833.1034     24.97163     24.92739    23.066377    14358.302    8618.1121    9066.2768    8814.9213    -8.736403   -778.27764    133.79848   -6185.6275 
 6498000    263.03431   -9131.9929   -8129.1862   -9131.9929            0     8198.486    25.061416    24.868186    23.036972    14357.377     7759.903    9230.3251    7605.2299   -625.69126   -264.01568    1229.9992   -6412.5248 
 6499000    256.54035   -9127.8576   -8149.8088   -9127.8576            0    8797.6854    25.101346     24.94668    22.886729    14331.561    7461.1568    9316.5799    9615.3194   -788.53798    688.86733    1014.1879   -6310.9947 
 6500000    268.18703   -9068.2511   -8045.7998   -9068.2511            0    8404.0075    25.037017    24.900999    22.987251    14331.326    8104.3744    8745.0724    8362.5758    372.96318    622.38287   -1267.3752   -6289.2976 
Loop time of 558.558 on 64 procs for 250000 steps with 1920 atoms

Performance: 77.342 ns/day, 0.310 hours/ns, 447.581 timesteps/s
99.3% CPU use with 64 MPI tasks x 1 OpenMP threads

MPI task timing breakdown:
Section |  min time  |  avg time  |  max time  |%varavg| %total
---------------------------------------------------------------
Pair    | 62.782     | 65.007     | 66.817     |  13.1 | 11.64
Bond    | 0.27374    | 0.28291    | 0.29317    |   0.8 |  0.05
Kspace  | 236.27     | 248.97     | 262.88     |  35.4 | 44.57
Neigh   | 5.4626     | 6.5305     | 8.0104     |  22.9 |  1.17
Comm    | 97.651     | 111.74     | 127.49     |  59.5 | 20.01
Output  | 1.6517     | 1.6541     | 1.6776     |   0.4 |  0.30
Modify  | 111.01     | 116.9      | 122.22     |  24.4 | 20.93
Other   |            | 7.468      |            |       |  1.34

Nlocal:        30.0000 ave          34 max          25 min
Histogram: 1 0 2 7 13 21 7 9 3 1
Nghost:        2809.75 ave        2836 max        2779 min
Histogram: 1 3 8 4 9 16 6 8 8 1
Neighs:        10597.0 ave       11879 max        8801 min
Histogram: 1 0 2 6 11 15 10 9 6 4

Total # of neighbors = 678210
Ave neighs/atom = 353.23438
Ave special neighs/atom = 2.0000000
Neighbor list builds = 11484
Dangerous builds = 0

unfix		3
unfix		2
unfix		1

write_data	data.final.${pid}
write_data	data.final.0
System init for write_data ...
PPPM initialization ...
  extracting TIP4P info from pair style
  using 12-bit tables for long-range coulomb (../kspace.cpp:340)
  G vector (1/distance) = 0.37436029
  grid = 30 30 30
  stencil order = 5
  estimated absolute RMS force accuracy = 0.0032830847
  estimated relative force accuracy = 9.886912e-06
  using double precision FFTW3
  3d grid and FFT values/proc = 3600 512
Last active /omp style is kspace_style pppm/tip4p/omp
WARNING: Not all mixed pair coeffs generated from mixing. Use write_data with 'pair ij' option to store all pair coeffs. (../write_data.cpp:312)

write_restart   restart.lmp.${pid}
write_restart   restart.lmp.0
System init for write_restart ...
PPPM initialization ...
  extracting TIP4P info from pair style
  using 12-bit tables for long-range coulomb (../kspace.cpp:340)
  G vector (1/distance) = 0.37436029
  grid = 30 30 30
  stencil order = 5
  estimated absolute RMS force accuracy = 0.0032830847
  estimated relative force accuracy = 9.886912e-06
  using double precision FFTW3
  3d grid and FFT values/proc = 3600 512
Last active /omp style is kspace_style pppm/tip4p/omp
Total wall time: 0:09:20
