LAMMPS (30 Jul 2021)
  using 1 OpenMP thread(s) per MPI task
package omp 0
using multi-threaded neighbor list subroutines
echo both

include		in.partitions
variable        pid world 0
include		in.temp
variable        temperature equal 280.81
variable	tempDamp equal 100.0
include		in.pressure
variable        pressure equal 11000.0
variable        pressureDamp equal 1000.0 # This is 1 ps
include		in.seed
variable        seed world 745823

units		real
atom_style	full
read_restart	restart.lmp.${pid}
read_restart	restart.lmp.0
Reading restart file ...
  restart file = 30 Jul 2021, LAMMPS = 30 Jul 2021
  restoring atom style full from restart
  orthogonal box = (0.68703370 1.9007662 0.83817951) to (17.520539 21.728412 21.375016)
  4 by 4 by 4 MPI processor grid
  restoring pair style lj/cut/tip4p/long/omp from restart
  restoring bond style harmonic/omp from restart
  restoring angle style harmonic/omp from restart
  864 atoms
  576 bonds
  288 angles
Finding 1-2 1-3 1-4 neighbors ...
  special bond factors lj:    0        0        0       
  special bond factors coul:  0        0        0       
     2 = max # of 1-2 neighbors
     1 = max # of 1-3 neighbors
     1 = max # of 1-4 neighbors
     2 = max # of special neighbors
  special bonds CPU = 0.785 seconds
  read_restart CPU = 0.972 seconds
include 	in.setup
variable	out_freq equal 1000
variable	out_freq2 equal 10000
variable	out_freq3 equal 1000

timestep	2.0

neigh_modify    delay 7 every 1

include		in.tip4p
# This is TIP4P/Ice

# create groups ###
group ox type 2
288 atoms in group ox
group hy type 1
576 atoms in group hy

# set charges - beside manually ###
set group ox charge -1.1794
Setting atom values ...
  288 settings made for charge
set group hy charge 0.5897
Setting atom values ...
  576 settings made for charge

# ### TIP3P Potential Parameters ###
pair_style lj/cut/tip4p/long/omp 2 1 1 1 0.1577 8.5
pair_coeff 1 1*2 0.000 0.000
pair_coeff 2 2 0.21084 3.1668
bond_style  harmonic
bond_coeff  1 450 0.9572
angle_style harmonic
angle_coeff 1 55 104.52
kspace_style pppm/tip4p/omp 1.0e-5
pair_modify tail yes

thermo          ${out_freq}
thermo          1000
thermo_style    custom step temp pe etotal epair emol press lx ly lz vol pxx pyy pzz pxy pxz pyz enthalpy

restart 	${out_freq3} restart.lmp.${pid} restart2.lmp.${pid}
restart 	1000 restart.lmp.${pid} restart2.lmp.${pid}
restart 	1000 restart.lmp.0 restart2.lmp.${pid}
restart 	1000 restart.lmp.0 restart2.lmp.0


include         in.dump
dump            myDump all atom ${out_freq2} dump.water.${pid}
dump            myDump all atom 10000 dump.water.${pid}
dump            myDump all atom 10000 dump.water.0
dump            myDump2 all dcd ${out_freq2} dump.dcd
dump            myDump2 all dcd 10000 dump.dcd
dump_modify     myDump append yes
dump_modify     myDump2 append yes


variable natoms 	equal  "count(all)"                        # NUMBER ATOMS
variable H      	equal  "enthalpy/v_natoms"                 # ENTHALPY-per-atom
variable Vol      	equal  "vol/v_natoms"                 # volume-per-atom
fix AVG all 		ave/time ${out_freq} 1 ${out_freq} v_Vol v_H file vol_enthalpy.dat
fix AVG all 		ave/time 1000 1 ${out_freq} v_Vol v_H file vol_enthalpy.dat
fix AVG all 		ave/time 1000 1 1000 v_Vol v_H file vol_enthalpy.dat


timer           timeout 23:50:00 every 1000
New timer settings: style=normal  mode=nosync  timeout=23:50:00

fix 		1 all shake 1e-6 200 0 b 1 a 1
       0 = # of size 2 clusters
       0 = # of size 3 clusters
       0 = # of size 4 clusters
     288 = # of frozen angles
  find clusters CPU = 0.333 seconds
fix             2 all nph iso ${pressure} ${pressure} ${pressureDamp}
fix             2 all nph iso 11000 ${pressure} ${pressureDamp}
fix             2 all nph iso 11000 11000 ${pressureDamp}
fix             2 all nph iso 11000 11000 1000
fix             3 all temp/csvr ${temperature} ${temperature} ${tempDamp} ${seed}
fix             3 all temp/csvr 280.81 ${temperature} ${tempDamp} ${seed}
fix             3 all temp/csvr 280.81 280.81 ${tempDamp} ${seed}
fix             3 all temp/csvr 280.81 280.81 100 ${seed}
fix             3 all temp/csvr 280.81 280.81 100 745823

run             250000
PPPM initialization ...
  extracting TIP4P info from pair style
  using 12-bit tables for long-range coulomb (../kspace.cpp:340)
  G vector (1/distance) = 0.3749507
  grid = 24 24 24
  stencil order = 5
  estimated absolute RMS force accuracy = 0.0030832636
  estimated relative force accuracy = 9.2851569e-06
  using double precision FFTW3
  3d grid and FFT values/proc = 2535 216
Last active /omp style is kspace_style pppm/tip4p/omp
Neighbor list info ...
  update every 1 steps, delay 7 steps, check yes
  max neighbors/atom: 2000, page size: 100000
  master list distance cutoff = 10.8154
  ghost atom cutoff = 10.8154
  binsize = 5.4077, bins = 4 4 4
  1 neighbor lists, perpetual/occasional/extra = 1 0 0
  (1) pair lj/cut/tip4p/long/omp, perpetual
      attributes: half, newton on, omp
      pair build: half/bin/newton/omp
      stencil: half/bin/3d
      bin: standard
Per MPI rank memory allocation (min/avg/max) = 9.239 | 9.241 | 9.244 Mbytes
Step Temp PotEng TotEng E_pair E_mol Press Lx Ly Lz Volume Pxx Pyy Pzz Pxy Pxz Pyz Enthalpy 
 4250000    293.26178   -3778.7934   -3276.1528   -3778.7934            0    12154.422    16.833505    19.827645    20.536837    6854.5547     14783.87    10599.949    11079.448    2358.4332    713.70148    121.48183   -2061.1159 
 4251000    302.96667   -3826.7591   -3307.4846   -3826.7591            0    12279.774    16.854413    19.852272    20.562344    6880.1271    14629.855    11440.373    10769.095   -1016.2063    1529.8729   -1041.2628    -2075.337 
 4252000     280.3869   -3818.1904   -3337.6169   -3818.1904            0    10604.174     16.89957    19.905461    20.617435    6935.5758    9434.1717    11715.523    10662.828   -1707.0653    155.46792   -3027.0061   -2265.0231 
 4253000      284.828   -3814.1118   -3325.9263   -3814.1118            0    12405.779    16.873992    19.875333    20.586231    6904.1321    10121.323    12935.585    14160.431    897.74276    113.02797   -2191.7732   -2076.7923 
 4254000    259.42843   -3824.6243   -3379.9728   -3824.6243            0    9518.4286    16.890588    19.894881    20.606477     6924.523    10495.276    8715.4366    9344.5731   -494.12876    930.79884   -887.88137   -2418.7347 
 4255000     287.7201   -3801.5949   -3308.4525   -3801.5949            0    11953.564    16.882737    19.885634      20.5969    6914.8719    13130.239    12652.248    10078.204   -1858.0396   -882.87857     1003.338   -2102.9796 
 4256000    288.40124   -3811.9205   -3317.6107   -3811.9205            0    10585.197    16.846967    19.843502     20.55326    6871.0126    9456.4181    11467.678    10831.496   -1017.7465   -584.32101    -1419.873   -2256.9033 
 4257000    275.83944   -3782.6058   -3309.8264   -3782.6058            0     13291.38    16.825264    19.817939    20.526783    6844.4929    13917.878    13226.991     12729.27   -1598.3072   -1300.4469    954.87881   -1983.0821 
 4258000    273.94753   -3779.5205   -3309.9838   -3779.5205            0    10644.894    16.933944    19.945949    20.659372    6977.9831    11134.729    10375.033     10424.92    328.75392   -380.01546     215.9223   -2226.6877 
 4259000    291.90348   -3788.4042   -3288.0916   -3788.4042            0    12259.569    16.823509    19.815871    20.524642    6842.3509     11113.91    14755.989    10908.809    1105.4654    1551.2412    173.67397   -2064.7255 
 4260000    274.15396   -3767.8558   -3297.9653   -3767.8558            0    11638.868    16.856612    19.854862    20.565027    6882.8208    11700.495     11636.11    11579.998   -219.42245    329.06301    317.70076   -2129.6688 
 4261000    284.49129   -3795.3336   -3307.7253   -3795.3336            0    9540.5616    16.862889    19.862256    20.572686    6890.5132    8602.6465    10617.732    9401.3061   -619.02062   -381.06662    1165.0927   -2348.9841 
 4262000    292.94881    -3752.457   -3250.3528    -3752.457            0    11043.415    16.858398    19.856966    20.567206    6885.0087    10403.306    11105.882    11621.059    2043.2836    297.73238   -1494.7178   -2141.4747 
 4263000    289.33299   -3794.2364   -3298.3295   -3794.2364            0    9626.2587    16.901847    19.908143    20.620213    6938.3797    9531.8203    10162.243    9184.7124    486.15859    148.98765   -1.9449969   -2324.2566 
 4264000    269.77965   -3779.7397   -3317.3466   -3779.7397            0    10839.534    16.826616    19.819531    20.528432    6846.1427    12634.606    11590.649    8293.3485   -1542.0847    -1217.731    1239.2547   -2235.0844 
 4265000    285.99401   -3789.4178   -3299.2339   -3789.4178            0    12035.234    16.802526    19.791156    20.499042      6816.78    13593.727    11689.367    10822.607   -996.79742   -772.31836   -155.74457   -2102.7422 
 4266000    295.22178   -3818.4798   -3312.4798   -3818.4798            0    10228.839    16.875742    19.877395    20.588366    6906.2805    8490.8342    11140.088    11055.594    989.19672   -328.89655     1493.952   -2282.2208 
 4267000     278.8488   -3787.0788   -3309.1415   -3787.0788            0    9837.3179     16.87129    19.872151    20.582934    6900.8157     9956.444    10249.715    9305.7952    563.15231    -359.5319     1134.535   -2319.1008 
 4268000    263.54139   -3816.7947   -3365.0938   -3816.7947            0    8551.5009    16.896918    19.902338    20.614201    6932.3118     10151.47    8799.5312    6703.5016   -2454.3165   -237.77302    887.72879   -2500.5315 
 4269000    281.17854   -3783.6354    -3301.705   -3783.6354            0    11863.917    16.821993    19.814086    20.522793    6840.5018    11271.021    11682.032    12638.697   -668.84483   -291.98436    1956.9308   -2118.1405 
 4270000     277.5997   -3833.7637   -3357.9673   -3833.7637            0    9450.2918    16.861249    19.860324    20.570684    6888.5021    9308.3787    9377.0187     9665.478    1288.7934   -104.06691   -496.42049   -2408.5746 
 4271000    290.12487   -3866.5586   -3369.2945   -3866.5586            0    11476.694    16.847639    19.844293     20.55408    6871.8348    13101.767    10383.815    10944.499    1524.1862   -2983.7771    2739.6393   -2219.1156 
 4272000      289.416   -3817.9831    -3321.934   -3817.9831            0      10237.3    16.886727    19.890334    20.601768    6919.7764    10234.642    11319.803    9157.4544     881.1672    1384.7317    397.89819   -2288.8078 
 4273000    274.07924   -3832.9427   -3363.1803   -3832.9427            0    11562.801    16.868149    19.868452    20.579103     6896.963    13122.202    12295.613    9270.5876   -456.68749    357.27749   -573.99907   -2200.1344 
 4274000    289.84783   -3757.1455   -3260.3562   -3757.1455            0    10198.436     16.96737     19.98532    20.700152    7019.3867    10567.008    12104.293    7924.0063    702.13427    1893.5349   -324.34111   -2216.3367 
 4275000    282.20257   -3774.7095    -3291.024   -3774.7095            0    11843.629    16.862569    19.861878    20.572294    6890.1199    11069.117    10852.158     13609.61    778.06175   -654.32446   -1331.9367    -2100.913 
 4276000    293.04245   -3778.3838    -3276.119   -3778.3838            0    11561.954    16.858288    19.856836    20.567072    6884.8738    12764.689    11531.248    10389.925   -88.621684    1124.8801    346.18429   -2115.1969 
 4277000    274.86815   -3740.3019   -3269.1873   -3740.3019            0     13145.44    16.793146    19.780108    20.487599     6805.371    13764.591    11240.654    14431.074     614.5297   -407.96324   -69.686682   -1964.5109 
 4278000    277.60912   -3834.0574   -3358.2449   -3834.0574            0    8564.9949    16.911369    19.919359     20.63183    6950.1131    8812.3186    8252.5091    8630.1571    313.15187   -867.75558    248.25184   -2490.0947 
 4279000    272.87926   -3799.0625   -3331.3568   -3799.0625            0    12846.581    16.723516    19.698093    20.402651    6721.0693    14144.384    12257.257    12138.102    1466.0207   -1188.1161   -433.60026   -2072.1362 
 4280000    289.76991   -3794.1863   -3297.5306   -3794.1863            0    11712.643    16.834319    19.828604     20.53783    6855.5493    11901.242     10327.15    12909.538    330.42749    397.75501     1224.821    -2126.487 
 4281000    289.57481   -3798.4591   -3302.1378   -3798.4591            0    11087.254     16.89681     19.90221    20.614068    6932.1783    14911.803    8523.5567     9826.401   -1376.8776    195.75757    477.67172   -2181.2307 
 4282000    290.26641   -3814.7514   -3317.2447   -3814.7514            0    10632.602    16.901327    19.907531    20.619579    6937.7396    10214.493    11426.353     10256.96    795.40061    1502.8954   -975.02053   -2241.4399 
 4283000    286.96372   -3811.6006   -3319.7546   -3811.6006            0    9463.6511    16.879664    19.882014     20.59315    6911.0965    11190.775    9222.4166    7977.7617    1327.1615    2526.1989   -215.43632   -2365.9013 
 4284000    278.38014   -3822.2383   -3345.1042   -3822.2383            0    10306.831    16.842151    19.837829    20.547385    6865.1222    8787.3944    11809.315    10323.785    1139.6472   -1204.2366    309.64713   -2313.1764 
 4285000    256.08628   -3819.8479   -3380.9248   -3819.8479            0    9844.1341    16.892072     19.89663    20.608288    6926.3489    7783.9651    12198.853    9549.5844   -654.07771   -453.50941    364.97596   -2386.5325 
 4286000    288.73543   -3811.8579   -3316.9752   -3811.8579            0     13559.48    16.784405    19.769812    20.476935    6794.7491    13125.337    13989.034    13564.068   -902.28522    1108.8769   -597.66499   -1973.3061 
 4287000    282.95212    -3754.807   -3269.8368    -3754.807            0    11558.515    16.856232    19.854415    20.564564    6882.3553     12460.18    10855.917    11359.447   -1266.8188    783.79523    958.13524   -2109.6844 
 4288000    284.22763   -3798.3267   -3311.1703   -3798.3267            0    9602.9468    16.875701    19.877346    20.588315    6906.2297    10064.911    8080.4441    10663.485    225.68988   -1476.0896    1452.9361   -2343.9588 
 4289000    283.28438   -3804.1367    -3318.597   -3804.1367            0    8061.0678    16.911382    19.919375    20.631847    6950.1299    9420.1117    8199.1308     6563.961   -204.98167     248.1702    53.353275    -2501.523 
 4290000    283.75965   -3790.4807   -3304.1264   -3790.4807            0    12248.155    16.827234    19.820259    20.529186     6846.897    12446.111    11722.726    12575.629    1003.4392   -702.35383     19.90887   -2081.0873 
 4291000    282.90897   -3812.1187   -3327.2224   -3812.1187            0    12252.435    16.845138    19.841347    20.551029     6868.775    11145.898    13000.697    12610.711   -497.43706    208.10523    1328.4146   -2099.8465 
 4292000    283.36239   -3798.5084    -3312.835   -3798.5084            0     11888.22    16.814783    19.805593    20.513996    6831.7092     15883.62    10220.404    9560.6367   -1192.1547     -2473.15   -2601.6635   -2128.3703 
 4293000    299.37889   -3826.5929   -3313.4677   -3826.5929            0    10520.607    16.858747    19.857377    20.567631    6885.4359    11760.964    10971.156    8829.7021   -489.64623   -1121.6188   -709.48427   -2257.0197 
 4294000    293.54078   -3791.9275   -3288.8086   -3791.9275            0    13696.509      16.7947    19.781938    20.489495    6807.2601    12882.751    14814.217    13392.558   -469.96075   -1243.3565    725.44725   -1929.0616 
 4295000     271.9096   -3829.9917   -3363.9479   -3829.9917            0    9950.8571    16.857514    19.855924    20.566127    6883.9254     10151.85     10337.89    9362.8307   -333.29424    1077.6406   -1799.9522   -2364.9317 
 4296000    277.67849   -3775.6429   -3299.7114   -3775.6429            0    9528.1907    16.851615    19.848977    20.558931    6876.7018    7188.8666    9840.2697    11555.436    180.43763    2241.0936    1049.1307   -2344.1326 
 4297000    275.95844   -3811.7532   -3338.7699   -3811.7532            0    12734.634    16.809947    19.799897    20.508096    6825.8168     14341.87    10827.553    13034.481    613.75951   -101.45564   -383.31824   -2071.0684 
 4298000    287.94546   -3808.2721   -3314.7434   -3808.2721            0    10555.505    16.884803    19.888068    20.599421    6917.4116    11765.896    10178.532    9722.0875   -11.166125   -890.59529    -199.1361   -2249.8687 
 4299000    285.98509   -3763.0201   -3272.8515   -3763.0201            0    13372.221    16.819124    19.810706    20.519292    6837.0018    10855.501    15271.009    13990.152    1212.9931    994.79435   -975.41978   -1939.4986 
 4300000    279.12883   -3802.5732   -3324.1559   -3802.5732            0    11494.992    16.882634    19.885513    20.596775    6914.7462    11866.967    10931.016    11686.994    1164.6881    294.26304    1157.5766   -2164.9494 
 4301000     303.8461   -3803.0399   -3282.2581   -3803.0399            0    9259.5551    16.927788    19.938698    20.651862    6970.3763    10626.425    7022.8418    10129.399    1185.7242    644.29907   -119.72227   -2340.9707 
 4302000    285.57004   -3799.9752   -3310.5179   -3799.9752            0    13075.496    16.863895     19.86344    20.573912    6891.7453     14438.62    12318.479     12469.39    258.64371    124.57955   -338.09467   -1996.3124 
 4303000    266.03551    -3791.008   -3335.0322    -3791.008            0    10728.533    16.865866    19.865762    20.576317    6894.1625     11174.26    11088.454    9922.8841   -1357.3664    96.196792    623.70562   -2256.3395 
 4304000    289.42942   -3774.3129   -3278.2408   -3774.3129            0    10434.069    16.840151    19.835473    20.544944    6862.6761    10128.595    10317.215    10856.396   -764.42473   -544.19273    1375.6931    -2233.946 
 4305000    283.20963   -3808.6382   -3323.2265   -3808.6382            0    11723.631    16.848837    19.845704    20.555542    6873.3012    11403.465    10327.824    13439.605   -103.10191   -926.39865     681.6962   -2148.0492 
 4306000    287.94872   -3796.4184   -3302.8841   -3796.4184            0    13264.827     16.84501    19.841196    20.550872    6868.6181    12991.721    14505.553    12297.205   -984.27031    888.46348   -1778.4862   -1974.1232 
 4307000    300.87873   -3833.9176   -3318.2217   -3833.9176            0    10397.952    16.886149    19.889653    20.601063    6919.0658    10797.388    9006.8301    11389.637    279.41329     444.7051    301.52459   -2268.9907 
 4308000    276.94436   -3800.5814   -3325.9082   -3800.5814            0    9267.4899    16.929684    19.940931    20.654175    6972.7184    6711.0452    10873.885     10217.54   -2574.5346    1912.2979    -602.4299   -2383.4977 
 4309000    291.09846   -3785.9825   -3287.0497   -3785.9825            0    10217.079    16.851831    19.849231    20.559195    6876.9662    8758.8643    11493.221    10399.152   -284.61636    1271.4329    1048.9927   -2262.3431 
 4310000    272.47373   -3827.3073   -3360.2967   -3827.3073            0    10235.226    16.917202     19.92623    20.638947    6957.3079    11965.559    10012.738    8727.3808   -678.56889    56.847534    781.33461   -2321.7774 
 4311000    279.65307   -3810.3945   -3331.0787   -3810.3945            0    11459.453    16.880199    19.882644    20.593803    6911.7536    14193.563    10358.252    9826.5442   -752.71904   -761.83868   -459.58096   -2175.9562 
 4312000    268.71641   -3735.4886   -3274.9179   -3735.4886            0    12363.992    16.850054    19.847138    20.557026    6874.7903    11464.005    13948.126    11679.843   -1862.4337   -695.33314   -1295.0467   -2035.2823 
 4313000    289.51446   -3762.2332   -3266.0153   -3762.2332            0    11376.855    16.863457    19.862925    20.573378     6891.209    11127.971    9671.3189    13331.275    95.227288   -473.19399    1060.5616   -2122.6276 
 4314000    270.98862   -3772.1186   -3307.6533   -3772.1186            0    12594.157     16.83263    19.826615     20.53577    6853.4864     12500.33    12993.487    12288.654    1207.0073   -589.45594   -333.54448   -2048.8539 
 4315000    266.48079   -3853.1276   -3396.3887   -3853.1276            0    9955.7809    16.874075    19.875431    20.586332     6904.234    10636.149    9066.4056    10164.788   -606.73084    862.65478    795.71359   -2393.9294 
 4316000     287.6702   -3816.2542   -3323.1973   -3816.2542            0    11135.655    16.911432    19.919433    20.631908    6950.1913    11353.047    8616.7125    13437.205    444.15682    1231.8097   -503.24924   -2194.4717 
 4317000    266.68301   -3818.2814   -3361.1958   -3818.2814            0    10480.004    16.809316    19.799154    20.507326    6825.0478    9761.4398    10739.966    10938.606    309.05038     1042.656     1582.357   -2318.0548 
 4318000    276.68801   -3786.1372   -3311.9034   -3786.1372            0    11000.074    16.828704     19.82199    20.530979     6848.691     11076.26    11987.557    9936.4037   -1209.9981    3.7583518   -1353.4154   -2213.2036 
 4319000    266.37476   -3828.6636   -3372.1064   -3828.6636            0    10698.996    16.849784     19.84682    20.556697      6874.46    11562.801    9359.0288    11175.159   -820.85532   -5.3981393   -1014.5292   -2299.4577 
 4320000    278.74407   -3816.6213   -3338.8635   -3816.6213            0    9504.0388    16.882621    19.885498    20.596758    6914.7297    9067.0862      9160.71     10284.32   -1108.9214    289.42227     60.45178   -2380.4359 
 4321000     275.8607    -3819.283   -3346.4672    -3819.283            0    8707.8928     16.92088    19.930562    20.643434    6961.8464    9533.7562    10150.164     6439.758    483.38261   -522.86488    430.26878   -2462.3427 
 4322000    300.79949   -3777.1356   -3261.5756   -3777.1356            0    9482.1707     16.90177    19.908053     20.62012    6938.2855    10658.682    11267.877     6519.953   -720.17129    513.56021    1032.9185   -2302.0958 
 4323000    261.75891   -3795.3165   -3346.6707   -3795.3165            0    12756.937    16.767137    19.749473    20.455868    6773.7996    12670.188    11663.826    13936.796    1137.0909   -120.47901   -474.40159   -2086.4267 
 4324000    292.22284   -3820.9334   -3320.0734   -3820.9334            0    9722.6846    16.883013     19.88596    20.597237    6915.2117    10353.744    9691.8448    9122.4647   -78.610301   -691.87108   -1517.7895   -2339.5284 
 4325000    288.84105   -3793.4703   -3298.4066   -3793.4703            0    13301.802    16.860367    19.859286    20.569609     6887.422    13046.481     14218.23    12640.695    433.70053    -855.6454   -1079.3626    -1962.294 
 4326000    268.68297   -3792.4024    -3331.889   -3792.4024            0    8514.3818    16.936128    19.948521    20.662036    6980.6833    8839.7264    9215.7757    7487.6432   -650.74568   -1136.7534    1745.4438   -2465.0729 
 4327000    277.81912   -3783.2863   -3307.1138   -3783.2863            0    11760.249    16.852235    19.849706    20.559687    6877.4601    12456.206    9663.8686    13160.673    1150.0724    1241.0329    414.19108   -2127.5526 
 4328000    305.27822   -3794.0304   -3270.7939   -3794.0304            0     11825.73    16.882385    19.885219     20.59647    6914.4396     11522.87     12601.82    11352.498   -35.262431    1792.8913    1655.6235   -2078.2873 
 4329000    277.60632   -3807.8892   -3332.0814   -3807.8892            0       9237.2    16.906084    19.913134    20.625384       6943.6    9756.6791    8165.6562    9789.2648   -1102.6996   -204.09503    981.98091   -2396.6738 
 4330000    298.69212   -3767.9921    -3256.044   -3767.9921            0    11264.818    16.890383     19.89464    20.606228    6924.2715     10685.55    11087.119    12021.786    177.01361   -101.23836   -373.86458   -2118.4844 
 4331000    272.69103   -3783.6464   -3316.2633   -3783.6464            0     12501.56    16.882711    19.885604    20.596868    6914.8405    12079.671    12639.049    12785.959    1400.6057    910.84906    1561.5326   -2055.5328 
 4332000    273.02078   -3806.2585   -3338.3102   -3806.2585            0    10080.615    16.902543    19.908962    20.621062    6939.2367    9015.1238    10702.642     10524.08    365.58266    808.75911   -357.29565   -2318.1353 
 4333000    275.85264   -3803.7527   -3330.9507   -3803.7527            0    11911.118     16.83047     19.82407    20.533134    6850.8474    13154.849    12706.971    9871.5333   -449.97024   -2118.0531    557.65762   -2140.8802 
 4334000    286.85009   -3752.1814   -3260.5302   -3752.1814            0        11674    16.833245    19.827339    20.536519    6854.2366    11453.239    12539.204    11029.558   -993.94472   -46.858019    754.85645   -2093.5736 
 4335000    281.39575   -3815.4009   -3333.0983   -3815.4009            0    11584.868     16.84225    19.837945    20.547505    6865.2425    13323.668    10356.262    11074.674    541.30329     638.1828     497.5224   -2173.1921 
 4336000    287.13889   -3823.9404   -3331.7942   -3823.9404            0    11518.473    16.907724    19.915066    20.627384    6945.6204    11750.881    11262.183    11542.355    445.64228    -538.4848    2101.9521   -2165.0334 
 4337000    281.14848   -3794.6621   -3312.7832   -3794.6621            0    12585.311    16.787644    19.773628    20.480887    6798.6842    11954.234    14574.884    11226.816   -2025.4377   -491.71427    1665.1325   -2064.9265 
 4338000    287.34109   -3750.1837   -3257.6909   -3750.1837            0    10984.905     16.87621    19.877946    20.588936    6906.8548    11584.427    10301.679     11068.61   -1340.5732    172.75686   -1379.8871   -2151.1881 
 4339000    277.79993   -3843.0777   -3366.9381   -3843.0777            0    9524.0286    16.879489    19.881808    20.592937    6910.8819    10374.014    10108.197    8089.8743    15.428935     86.15129    1288.2132   -2407.0292 
 4340000    277.18942   -3791.5133   -3316.4201   -3791.5133            0    12688.074    16.878331    19.880444    20.591524    6909.4592    11855.938    13299.271    12909.013    2572.6703    359.09479   -842.51575   -2037.8762 
 4341000    262.97566   -3816.5808   -3365.8495   -3816.5808            0    9352.8913     16.98833    20.010009    20.725723    7045.4323    8546.5211    11014.546    8497.6069   -361.30326    -992.1504    672.38374   -2404.8362 
 4342000    287.29812   -3767.4226   -3275.0034   -3767.4226            0    10383.071    16.915626    19.924373    20.637024     6955.363    11929.922    10207.041    9012.2483    -101.5206    -1783.616   -1699.5055   -2221.7776 
 4343000    274.88536   -3805.9237   -3334.7796   -3805.9237            0    11455.109    16.895661    19.900856    20.612666    6930.7641    10532.051     10183.94    13649.335   -654.74077    278.45848     -1663.31   -2176.9191 
 4344000    268.83966   -3785.7029   -3324.9209   -3785.7029            0    9252.7607    16.914218    19.922714    20.635306    6953.6263    7943.1106    8701.9737    11113.198    326.97956    -170.7963    1398.7358   -2386.5845 
 4345000    268.35092    -3789.306   -3329.3617    -3789.306            0    11484.653    16.871363    19.872238    20.583024    6900.9063    12093.909    10194.089    12165.961   -1594.2043    1398.8148    501.31395   -2173.5159 
 4346000    287.66055   -3773.3049   -3280.2646   -3773.3049            0    9721.5603    16.944187    19.958014    20.671869    6990.6542    9211.8861    7423.3867    12529.408   -48.230166   -1047.6946   -1011.2436   -2289.1367 
 4347000    293.17227   -3793.7071   -3291.2199   -3793.7071            0    10438.237    16.844042    19.840057    20.549692    6867.4349    11783.424    9072.1328    10459.154    -1668.862   -1895.9658    631.68057   -2245.7835 
 4348000     269.6602   -3781.4651   -3319.2767   -3781.4651            0    11959.945    16.883078    19.886036    20.597315    6915.2909    12701.933    12346.371     10831.53   -2406.4628   -209.42461    941.77042   -2113.0873 
 4349000    279.32888   -3778.4397   -3299.6795   -3778.4397            0    11772.646    16.869716    19.870297    20.581014    6898.8848    11670.981    11484.485    12162.472    776.00329    164.67199    -462.5068   -2115.1964 
 4350000    286.00787     -3830.59   -3340.3823     -3830.59            0    11786.281    16.856417    19.854633    20.564789    6882.5819    11565.208    11180.896    12612.739    608.70859    1636.2251    2740.8445   -2157.3296 
 4351000    263.52018   -3777.8382   -3326.1736   -3777.8382            0    13011.848    16.830947    19.824633    20.533716    6851.4306    12137.631     15194.91    11703.004   -669.15799   -395.94941    615.22837   -2026.0156 
 4352000    302.52286   -3826.6609   -3308.1471   -3826.6609            0     9398.123    16.873231    19.874437    20.585302    6903.1981    11107.103    8256.8982    8830.3682   -1303.8627   -1353.7089   -988.46598   -2361.9811 
 4353000     282.3947   -3785.7605   -3301.7457   -3785.7605            0     10645.34     16.82167    19.813706    20.522399    6840.1077    14014.902    8286.8909    9634.2273    277.99149   -989.25957    1548.8029   -2239.8096 
 4354000    286.52322   -3839.3682   -3348.2772   -3839.3682            0    8868.0881    16.845394    19.841649    20.551341    6869.0884    8181.3441    7099.9732    11322.947   -1184.6637    76.372946   -980.26635   -2459.8845 
 4355000    289.60709   -3797.3613   -3300.9847   -3797.3613            0    9872.4202    16.946616    19.960876    20.674832    6993.6612    9417.5807    9911.8441    10287.836   -1267.8113    229.10102    1279.9206   -2294.0435 
 4356000    261.53678   -3786.3802   -3338.1151   -3786.3802            0    13454.342    16.811241    19.801421    20.509675     6827.393     16488.38    12244.886     11629.76   -1113.9363    546.50116    1019.0656   -1998.4592 
 4357000    272.23812    -3810.154   -3343.5472    -3810.154            0    10595.293    16.850615    19.847799    20.557711    6875.4774    10962.432    10132.743    10690.705   -90.027806   -258.38269   -451.76721   -2281.1382 
 4358000    275.58327   -3780.6554   -3308.3151   -3780.6554            0    11689.375    16.818326    19.809767    20.518319     6836.029     12209.94    10156.943    12701.241    25.969213    122.03273   -1125.9208   -2142.9257 
 4359000    280.87472   -3783.0594   -3301.6498   -3783.0594            0    12931.544    16.804966     19.79403    20.502019    6819.7503    13405.316     12754.25    12635.067    98.065213    1720.0836    712.00323   -2015.4905 
 4360000     286.5197   -3834.3711   -3343.2862   -3834.3711            0    9938.3382    16.846217    19.842618    20.552345    6870.0954    9074.4867    11255.826    9484.7022    1075.2866    294.17446     874.7852   -2347.5313 
 4361000    288.57561   -3801.8041   -3307.1954   -3801.8041            0    9650.8916    16.903314    19.909871    20.622003    6940.1868    8271.0799    10642.878    10038.717    87.646607    378.79375   -755.81381   -2330.3755 
 4362000    280.09653   -3775.1165   -3295.0406   -3775.1165            0     10115.82    16.840492    19.835875    20.545361    6863.0933    8968.4356    10929.917    10449.107    497.03422    539.12096   -1467.4031   -2282.5363 
 4363000    285.78912   -3819.4456   -3329.6128   -3819.4456            0     7955.835    16.943666    19.957401    20.671233    6990.0094    9141.5733    5659.9518    9065.9797    1311.9734   -1838.5665   -92.677638   -2518.5782 
 4364000    296.36098   -3765.7141   -3257.7615   -3765.7141            0    11289.422    16.903339    19.909901    20.622035    6940.2182    11948.273    10609.385    11310.609    334.56598   -91.108198    485.41909   -2115.0917 
 4365000    265.54572    -3736.731   -3281.5947    -3736.731            0    12243.628     16.88217    19.884966    20.596208    6914.1751    10781.307    12789.194    13160.381   -1542.0506    567.09374   -282.20058   -2046.9944 
 4366000    275.46011   -3795.1415   -3323.0123   -3795.1415            0    10282.091    16.835917    19.830487     20.53978    6857.5021    13111.712    7794.5862    9939.9733    2051.9265   -1027.9211    -6.963226   -2294.7042 
 4367000    268.28066   -3827.2923   -3367.4684   -3827.2923            0    11390.259    16.864865    19.864584    20.575096    6892.9354    13084.182    9837.5132    11249.081   -628.33805   -878.33518   -213.09838   -2222.4467 
 4368000    267.97337   -3816.4402   -3357.1431   -3816.4402            0     10614.61    16.810085    19.800059    20.508264    6825.9843    10993.236    10387.623    10462.971    1933.8285    1075.7878    160.85488   -2300.4588 
 4369000    271.45434    -3807.496   -3342.2326    -3807.496            0    8211.9625    16.973412    19.992438    20.707523    7026.8886    8816.5266    6869.1825    8950.1783   -1779.0699   -1560.6303   -218.10407    -2500.671 
 4370000    288.33277   -3853.5151   -3359.3226   -3853.5151            0    10985.484    16.789093    19.775334    20.482654    6800.4443    11762.618    10609.055    10584.778    1449.9484    490.64769   -595.00155   -2269.8098 
 4371000     272.7936   -3840.3181   -3372.7592   -3840.3181            0    10213.702    16.820007    19.811747    20.520369    6838.0791    10304.053     9929.941    10407.112    663.87793    663.52998   -278.14454   -2354.1838 
 4372000    284.91764   -3805.8427   -3317.5037   -3805.8427            0     9092.372    16.876669    19.878487    20.589497    6907.4188    9781.1272     9057.599    8438.3899    494.83334     1008.673    27.991979   -2401.5598 
 4373000    271.10164   -3827.2475   -3362.5885   -3827.2475            0    12045.956    16.868018    19.868298    20.578943    6896.8024    11515.509    13180.971    11441.388   -1278.4843    1492.8777   -127.85947   -2150.9727 
 4374000    300.90992   -3814.0642   -3298.3149   -3814.0642            0     13708.48    16.808248    19.797896    20.506024    6823.7478    14696.113    11915.028    14514.299    727.48931   -543.96908   -1778.9078   -1934.0832 
 4375000    295.58412   -3773.4254   -3266.8043   -3773.4254            0    11657.402    16.825992    19.818796    20.527671     6845.381    11643.099    9985.9434    13343.163   -262.83126   -2193.1526   -1236.0936   -2103.0125 
 4376000    279.94972   -3778.7128   -3298.8886   -3778.7128            0    12019.766      16.8449    19.841068    20.550739    6868.4847    11142.042    11991.775     12925.48   -1343.9144    -1073.194   -1085.2098    -2094.871 
 4377000    291.65737    -3768.374   -3268.4832    -3768.374            0    13654.623    16.761811      19.7432     20.44937    6767.3466    15034.061    12471.589    13458.219    456.88096    747.29773   -429.96428   -1920.8428 
 4378000    283.99376   -3788.8933   -3302.1377   -3788.8933            0    11117.078    16.866575    19.866597    20.577182     6895.032    12196.596    10263.019    10891.618    858.03148   -494.76817     1513.643   -2184.2381 
 4379000    281.47492   -3770.7055   -3288.2671   -3770.7055            0    10109.503    16.849749    19.846779    20.556654    6874.4173    10348.974    6939.7468    13039.788   -1403.4984    -876.7024    1031.7755   -2274.7255 
 4380000    269.48705   -3785.8783   -3323.9867   -3785.8783            0    9649.5271    16.869306    19.869814    20.580514    6898.3821    9681.0497    10440.293    8827.2382     533.3355    1978.3339    1152.4435   -2353.1881 
 4381000    273.26182   -3810.8288   -3342.4674   -3810.8288            0    11972.262    16.768798    19.751429    20.457895    6775.8129    11583.169    11477.722    12855.894    2660.0331    1184.0347    906.60321    -2159.389 
 4382000    288.72655   -3796.1624    -3301.295   -3796.1624            0     11339.35     16.83803    19.832976    20.542358    6860.0844    10255.307    10833.122    12929.619  -0.75599912    106.83677   -601.87964   -2166.8237 
 4383000    273.67873   -3813.1501   -3344.0741   -3813.1501            0    11066.782    16.882025    19.884796    20.596031    6913.9977    11203.327    10804.741    11192.278    379.70096    25.780488    1172.4119    -2228.171 
 4384000    277.57482   -3827.8678   -3352.1141   -3827.8678            0    12481.149    16.845904    19.842249    20.551963    6869.7118    12126.045     12466.61    12850.791   -132.56161    2270.8964    185.90273   -2101.6565 
 4385000    269.33397   -3792.3552    -3330.726   -3792.3552            0    9675.5425    16.841997    19.837648    20.547197     6864.934     10378.23    9592.2721    9056.1249   -145.65749    168.62462   -1016.6975   -2362.0299 
 4386000    284.30936    -3805.128   -3317.8315    -3805.128            0    9403.7791    16.843999    19.840006    20.549639    6867.3821    9684.6544    10286.584    8240.0992    444.28207    2004.5859   -1556.6764    -2376.008 
 4387000    271.29129     -3827.73    -3362.746     -3827.73            0    10676.937    16.911561    19.919585    20.632065    6950.3499    9336.5605    12058.888    10635.361    479.88837    316.46106    313.29878    -2280.492 
 4388000    279.95917   -3815.5139   -3335.6734   -3815.5139            0    9653.0952    16.915343     19.92404    20.636679     6955.014    11142.927    9873.7247    7942.6338    426.95986   -441.30313    1415.1558   -2356.5431 
 4389000    262.18945   -3855.2572   -3405.8734   -3855.2572            0    11717.418    16.911759    19.919818    20.632306    6950.5941    10758.211    11690.124    12703.918    -202.5125    106.01512    632.99524   -2218.1106 
 4390000    281.64452   -3826.6854   -3343.9563   -3826.6854            0     8660.208    16.928013    19.938964    20.652137    6970.6548    7958.2962    9287.0767     8735.251    260.00061   -352.60673   -69.568437   -2463.5609 
 4391000    277.97778   -3842.2679   -3365.8234   -3842.2679            0    8801.2291    16.854879    19.852821    20.562913    6880.6982    9610.3013    7413.5821    9379.8039    1136.2046   -951.50142   -406.67109   -2482.6384 
 4392000    280.55378     -3816.14   -3335.2804     -3816.14            0    10743.522    16.824401    19.816922     20.52573    6843.4394    11896.626     10645.62    9688.3214   -1436.1515    110.56493   -95.499585   -2263.0281 
 4393000    270.79115   -3822.7315   -3358.6048   -3822.7315            0    11554.555    16.840434    19.835807     20.54529    6863.0224    13060.252    10928.213    10675.199   -1474.0283   -241.54902   -730.84254   -2202.1077 
 4394000     276.1322   -3827.8358   -3354.5546   -3827.8358            0    11594.167    16.851089    19.848357     20.55829    6876.0579    8887.5053    14279.362    11615.634    1763.8098    1439.2871    1126.8431   -2191.8886 
 4395000    288.75373   -3807.8256   -3312.9116   -3807.8256            0    10115.692    16.805523    19.794687    20.502699    6820.4292    11032.436    10115.163    9199.4774   -152.71877    1675.6312    176.85363   -2306.7142 
 4396000    265.02499   -3818.8408   -3364.5971   -3818.8408            0      11259.8    16.809555    19.799435    20.507618    6825.3392    10154.291     12444.43    11180.679    867.46587    2048.3155    12.699066   -2243.7902 
 4397000    255.26876   -3790.4626   -3352.9407   -3790.4626            0    11019.028    16.823644    19.816031    20.524807    6842.5158    11758.594    10053.709    11244.781   -191.07494    1474.5505   -562.98796   -2253.3401 
 4398000    263.58166   -3811.1673   -3359.3974   -3811.1673            0    10990.113    16.847967     19.84468    20.554481    6872.2369    11709.249    9259.3439    12001.747   -479.11969    1621.1795   -660.89308   -2257.9185 
 4399000    292.18116   -3795.2092   -3294.4207   -3795.2092            0     10040.55     16.89793    19.903529    20.615435    6933.5568    10944.147    9251.3739    9926.1295    1074.9312    803.86979    2271.6473   -2279.1322 
 4400000    273.80357   -3802.6054   -3333.3155   -3802.6054            0    11286.227    16.843097    19.838943    20.548539    6866.2786    10792.982    11968.038    11097.662   -278.97932    1277.8045    298.68661   -2203.1394 
 4401000    280.29944   -3757.6322   -3277.2086   -3757.6322            0    10847.284    16.880218    19.882667    20.593826    6911.7771     12607.29    9954.7863    9979.7755    1720.7887   -156.21862     22.59296   -2183.7896 
 4402000    267.41266   -3771.9396   -3313.6034   -3771.9396            0    10838.063    16.791244    19.777867    20.485278    6803.0583    12544.904    9876.4207    10092.863   -291.71142   -105.90116    713.68284   -2238.2983 
 4403000    284.18137   -3769.6893   -3282.6122   -3769.6893            0    9347.4729    16.878359    19.880477    20.591559    6909.4941    9558.1905    8186.2794    10297.949    1954.1688    814.50032    -1666.416   -2340.6871 
 4404000    269.02001   -3801.9436   -3340.8525   -3801.9436            0    12261.239    16.862382    19.861659    20.572067    6889.8916    12478.242    11662.086    12643.388    809.19876    572.92227    595.92631   -2108.8186 
 4405000    277.82579   -3774.9768   -3298.7929   -3774.9768            0     11248.02    16.867667    19.867884    20.578515    6896.3718    12651.438    12150.368    8942.2547   -2024.7927   -78.342685   -188.27726   -2167.5063 
 4406000    265.72781    -3820.043   -3364.5946    -3820.043            0    9070.1427    16.904997    19.911854    20.624057    6942.2604    10843.111    11231.084    5136.2338    342.95874   -401.56413   -1735.2347   -2446.2813 
 4407000    268.71569   -3786.8331   -3326.2636   -3786.8331            0    12005.829    16.794938    19.782219    20.489785    6807.5498    13433.765    10994.338    11589.384   -1765.2962   -386.05705    318.76079   -2134.3114 
 4408000    284.40599   -3838.3135   -3350.8514   -3838.3135            0    11225.104    16.808341    19.798006    20.506137    6823.8608    10700.882    10387.318    12587.112   -307.86029   -477.48638   -1476.3474   -2233.7402 
 4409000    271.99602   -3816.9471   -3350.7552   -3816.9471            0    10694.995     16.90898    19.916544    20.628916    6947.1678    10297.499    9748.5274    12038.957   -21.347543   -1326.1026    122.35062   -2267.1671 
 4410000     282.0227   -3781.2351   -3297.8579   -3781.2351            0     11040.49    16.888305    19.892193    20.603693    6921.7164    10068.078    11278.926    11774.465   -534.49892    382.35467    470.23079   -2183.3631 
 4411000    270.37066   -3857.0051    -3393.599   -3857.0051            0    10264.218    16.867004    19.867103    20.577706    6895.5588    10973.066    8891.3045    10928.284      47.0192    275.16856   -1030.2555   -2361.3815 
 4412000    274.40016   -3825.6431   -3355.3306   -3825.6431            0     10260.74    16.858933    19.857597    20.567859    6885.6646    9671.6987    9558.4088    11552.113     1009.127    285.91324    192.34266   -2324.9434 
 4413000    287.22055   -3837.8024   -3345.5162   -3837.8024            0     11196.83    16.801838    19.790346    20.498203    6815.9436    11757.605    10301.197    11531.689     1859.074   -1743.0952    471.57028   -2232.5116 
 4414000    275.16495   -3832.6196   -3360.9963   -3832.6196            0    10051.799    16.860926    19.859943     20.57029    6888.1061    10446.606    9611.1234    10097.669    1553.2903    970.00543    779.85582   -2351.2331 
 4415000    289.50739   -3840.3805   -3344.1747   -3840.3805            0    10278.881    16.801743    19.790234    20.498088    6815.8281     10520.66    8337.0454    11978.939    182.02671    524.29004   -1544.8098   -2322.4347 
 4416000    284.61198   -3832.8518   -3345.0366   -3832.8518            0    11041.404    16.823787    19.816199    20.524981    6842.6899    9892.4715    11874.863    11356.877    165.14626    180.97393   -1468.9718   -2243.1751 
 4417000    274.04593   -3840.0685   -3370.3631   -3840.0685            0    9498.2742    16.802875    19.791568    20.499469     6817.206    9499.4943    9789.9915    9205.3369    -1864.845    1419.3308   -676.06137   -2426.0261 
 4418000    289.19463   -3787.8186   -3292.1489   -3787.8186            0    10810.073    16.915223    19.923898    20.636532    6954.8659    10832.625    12942.688    8654.9069   -736.43666   -1796.3641    708.73012   -2195.6877 
 4419000    303.61439   -3829.3073   -3308.9226   -3829.3073            0    11267.384    16.894626    19.899638    20.611404    6929.4911    12697.159    9706.6648    11398.328   -667.16872    1024.6785   -812.30953   -2170.2462 
 4420000      289.989   -3788.4514   -3291.4202   -3788.4514            0    11095.253    16.844092    19.840115    20.549753    6867.4956    9343.3677    13545.962     10396.43   -278.89931    1972.4358    1668.7523   -2180.1709 
 4421000    272.26505   -3804.8012   -3338.1483   -3804.8012            0    11689.314     16.83265    19.826639    20.535794    6853.5107    12699.596    12018.256    10350.091    354.10666   -147.75332   -334.99968   -2169.7846 
 4422000     284.6703   -3821.2586   -3333.3434   -3821.2586            0    11479.775    16.829571    19.823012    20.532037    6849.7502    11510.022    11850.996    11078.307   -322.24952   -972.21978    -533.9844   -2186.5531 
 4423000    274.45428   -3788.4161   -3318.0109   -3788.4161            0    13747.901    16.787421    19.773364    20.480614    6798.4126    13421.503    14604.354    13217.847    237.41134    890.66848    38.880273   -1954.9357 
 4424000    274.42075   -3769.0446   -3298.6968   -3769.0446            0    11109.904    16.783787    19.769084    20.476181    6793.9988    12452.201    10384.172    10493.338   -596.29475   -1228.1314    812.80006   -2197.8887 
 4425000    287.38343   -3776.5376   -3283.9723   -3776.5376            0    11291.082    16.840116    19.835432    20.544902    6862.6339    10733.789    12234.669    10904.786   -1263.6055    1227.2174   -1400.2133   -2153.9103 
 4426000    268.95686   -3769.7621   -3308.7792   -3769.7621            0    12306.937    16.811816    19.802099    20.510377    6828.0942    13338.219    11312.806    12269.786    753.24369    1416.3823    1024.2857   -2083.2452 
 4427000    282.20391   -3759.1532   -3275.4654   -3759.1532            0     12990.82    16.800634    19.788927    20.496734    6814.4777     15383.43    12685.405    10903.625   -1117.3142    -343.8916   -111.67599   -1984.4095 
 4428000     302.5067   -3806.7553   -3288.2691   -3806.7553            0    11949.477    16.848568    19.845387    20.555213    6872.9715    13301.721    12809.768    9736.9417   -395.72067    206.18466    943.65684   -2090.5105 
 4429000    272.73517   -3793.8851   -3326.4264   -3793.8851            0    8521.1991    16.939021    19.951929    20.665566    6984.2616    8033.9124    7860.6635    9669.0213   -497.35473   -534.79781     777.2479   -2458.4716 
 4430000    295.70548   -3825.7848   -3318.9557   -3825.7848            0    9265.5821    16.918558    19.927827    20.640602     6958.981    10082.779    9591.9829    8121.9846    29.992572   -1828.0131   -376.27608   -2378.5955 
 4431000    278.47848   -3761.8657   -3284.5631   -3761.8657            0    12631.819    16.796289     19.78381    20.491433    6809.1922    12414.739    13471.685    12009.034   -181.56184    977.48378    302.08562   -2030.1592 
 4432000    296.93828   -3772.2465   -3263.3045   -3772.2465            0    12598.239    16.803922    19.792801    20.500746    6818.4799    12315.859    13557.464    11921.394    1145.6148    943.33903   -821.68192   -2010.5288 
 4433000    281.71041   -3808.0549   -3325.2129   -3808.0549            0    10265.284    16.872352    19.873402     20.58423    6902.1197    9882.9812    10555.426    10357.447     -843.576    -235.2666    1259.7162   -2291.9059 
 4434000    277.36454    -3813.609   -3338.2157    -3813.609            0    10665.048    16.850571    19.847747    20.557658     6875.424    9168.6512    13237.273    9589.2209    1235.7173   -170.20742    814.08744   -2268.8205 
 4435000    284.00661   -3789.1011   -3302.3235   -3789.1011            0    10224.511     16.91322    19.921539    20.634089    6952.3959    11589.598    9907.5357    9176.3991    460.94704   -686.39756   -388.62982   -2265.6239 
 4436000    280.78029   -3745.7444   -3264.4966   -3745.7444            0    11685.893    16.899194    19.905018    20.616977    6935.1133    9639.1496    12482.241    12936.289    1550.8588    37.197722    1318.4214   -2082.5676 
 4437000    267.87545   -3750.7359   -3291.6066   -3750.7359            0     11524.34    16.812156    19.802499    20.510791     6828.508    11932.113    11580.626    11060.282   -288.28967   -909.67181    1606.2518   -2143.9346 
 4438000    301.37763    -3783.163    -3266.612    -3783.163            0     12555.53    16.879813     19.88219    20.593332    6911.2798    10547.581     13223.18    13895.831    56.986177   -115.81329   -488.81373   -2001.0908 
 4439000    261.93135   -3810.4789   -3361.5375   -3810.4789            0    10756.159    16.911693    19.919741    20.632227    6950.5134    9830.2726    11627.635    10810.569    1010.9297   -1683.9235     478.3001   -2271.2275 
 4440000    288.71969   -3763.9412   -3269.0855   -3763.9412            0    10611.791    16.850412    19.847559    20.557463    6875.2286    11163.489    11296.388    9375.4946    65.244601    325.98278   -86.722124   -2205.0608 
 4441000    271.25615   -3764.4857   -3299.5619   -3764.4857            0    12167.409    16.830998    19.824692    20.533778    6851.4926     11389.17    13030.877    12082.179    -32.97675    833.04007   -23.502871   -2083.7702 
 4442000    276.24614   -3757.4906   -3284.0141   -3757.4906            0    10647.049    16.868357    19.868697    20.579357    6897.2182    11879.432    9995.2379    10066.476   -910.54317   -1518.2487    437.85966   -2213.0397 
 4443000    275.26182   -3776.2288   -3304.4394   -3776.2288            0    11752.313    16.860003    19.858857    20.569165    6886.9758     10572.23    12676.764    12007.943   -15.136362   -1320.1206    1079.8775   -2124.0433 
 4444000     298.8999    -3831.908   -3319.6038    -3831.908            0    9880.6299    16.921642    19.931459    20.644364    6962.7868    9877.1034    10552.803    9211.9833    35.621854   -224.87282    246.14056   -2316.2742 
 4445000    272.72363   -3780.7187   -3313.2797   -3780.7187            0     11158.85     16.83301    19.827063    20.536233    6853.9506    10648.535    11509.545    11318.468   -327.49787   -3237.4901    678.86887   -2197.8652 
 4446000    271.99729   -3801.1865   -3334.9925   -3801.1865            0    9317.0266     16.84141    19.836957    20.546481    6864.2164    10561.054    9209.6087    8180.4171    243.90877    494.24042    360.23786   -2402.2877 
 4447000    278.89697   -3791.4684   -3313.4486   -3791.4684            0    12742.181     16.81349     19.80407    20.512418    6830.1331    12366.938    13010.372    12849.233   -1341.3874   -2463.8072    1959.8084   -2044.1938 
 4448000    288.17731   -3820.4854   -3326.5594   -3820.4854            0    12140.781    16.832975    19.827021     20.53619    6853.9075     12900.68    13342.096    10179.567   -1486.4193   -1328.9061    843.78114   -2113.0008 
 4449000    296.57774   -3823.6522   -3315.3281   -3823.6522            0    10351.679    16.859554    19.858328    20.568617    6886.4257    10966.672      9672.27    10416.095    133.66141    614.67763   -199.01367   -2275.6939 
 4450000    266.93491   -3771.4605   -3313.9432   -3771.4605            0    11825.578     16.85329    19.850949    20.560974     6878.752     11762.27    12548.383    11166.081   -1160.6242    405.86345   -209.92056   -2127.6066 
 4451000    290.04771   -3829.5258    -3332.394   -3829.5258            0    8943.2109    16.814823    19.805641    20.514045    6831.7587    8222.2423    10523.859    8083.5312    -1032.521   -1007.1355   -761.74963   -2441.3444 
 4452000    280.02547   -3825.3723   -3345.4182   -3825.3723            0    11291.821    16.859132    19.857831    20.568102    6885.9083    10386.318    11068.345    12420.799   -132.41724   -1959.8976    2162.5639   -2211.4494 
 4453000    272.34976   -3816.0195   -3349.2213   -3816.0195            0    11133.696    16.816853    19.808032    20.516522    6834.2333     11732.21    13453.058    8215.8193    1349.9112   -807.09259     202.0199   -2239.5227 
 4454000    269.80165   -3810.0007   -3347.5699   -3810.0007            0    9647.5885    16.820556    19.812393    20.521039    6838.7484    9499.2685    9870.0191    9573.4779   -178.47025   -830.65969   -1693.4429   -2385.3567 
 4455000    275.98986   -3828.7248   -3355.6876   -3828.7248            0    8842.9587    16.909304    19.916926    20.629311    6947.5674    12400.632    8514.4161    5613.8282    150.94595   -131.48407   -237.23954   -2459.6912 
 4456000      280.578   -3824.3013   -3343.4002   -3824.3013            0    11475.622    16.830913    19.824593    20.533675    6851.3894    11792.923    10825.204     11808.74    2349.7395    129.88804   -1726.2855   -2196.7505 
 4457000    273.67933   -3806.2628   -3337.1858   -3806.2628            0     10144.55    16.899429    19.905296    20.617265    6935.4033    11481.628    8450.9259    10501.095   -1565.3411    249.88912   -2587.5109   -2311.1078 
 4458000    279.65077   -3805.9262   -3326.6144   -3805.9262            0    11958.001    16.871336    19.872206    20.582991    6900.8732    10932.419    10976.871    13964.713    164.97101    973.71989   -2459.5363   -2123.1353 
 4459000    280.09585   -3836.9699   -3356.8952   -3836.9699            0    10143.004    16.824993    19.817619    20.526452    6844.1613    9435.0905     8927.533    12066.388   -1665.9142     264.9398    25.948606   -2344.4705 
 4460000    276.99201   -3804.0109    -3329.256   -3804.0109            0    9212.7731    16.914888    19.923504    20.636124    6954.4535    8787.4969    9874.2272     8976.595    2029.6799   -511.06706   -254.57304   -2394.8637 
 4461000    273.87543   -3822.3167   -3352.9036   -3822.3167            0    9621.4525    16.845381    19.841634    20.551326    6869.0729    7015.2827    11014.503    10834.572    969.79263   -333.30642    324.72041    -2389.042 
 4462000    281.30056    -3809.413   -3327.2734    -3809.413            0    10015.829    16.831558    19.825352    20.534462    6852.1768    11405.428    8475.6402    10166.417    640.61816   -446.12703   -975.22939   -2326.3719 
 4463000    285.22556   -3816.9365   -3328.0697   -3816.9365            0    11393.624    16.862607    19.861924    20.572341    6890.1673     11475.23    10391.798    12313.843    1340.0361   -860.05324   -1133.1524   -2183.1698 
 4464000    278.60961   -3834.2888   -3356.7614   -3834.2888            0    10988.962    16.854526    19.852406    20.562483    6880.2662    11094.643    12014.195    9858.0492    366.99206    955.66266   -1273.0071   -2254.1111 
 4465000    264.94043   -3860.8509   -3406.7521   -3860.8509            0    9424.6546    16.804471    19.793447    20.501416    6819.1483    9348.4971    7877.6243    11047.842    135.70164    1238.4846    122.20885   -2469.4675 
 4466000    282.23479   -3839.9168    -3356.176   -3839.9168            0    10012.219    16.840117    19.835434    20.544904    6862.6355    11385.247    10394.226    8257.1837   -1765.9184    -705.8808    1012.5036   -2354.1081 
 4467000    282.59249   -3834.4306   -3350.0768   -3834.4306            0    11526.191    16.810165    19.800154    20.508362    6826.0819    10199.463    11485.726    12893.383    -1217.069   -850.43985    225.32564   -2202.6283 
 4468000    286.58888    -3804.431   -3313.2274    -3804.431            0    12606.161    16.825291     19.81797    20.526816    6844.5255    12787.729     11880.45    13150.304      364.015   -1498.1929   -71.385238   -2054.8756 
 4469000    279.62344   -3778.5371   -3299.2721   -3778.5371            0    11960.599    16.870798    19.871572    20.582334    6900.2127    13732.554    10687.897    11461.347   -965.62297   -1028.0552    261.76493   -2095.6468 
 4470000    266.97678   -3804.9134   -3347.3243   -3804.9134            0    10470.865    16.935868    19.948215    20.661719    6980.3621    8973.4322    11831.184    10607.978     -108.452     714.0191   -188.60499   -2281.3754 
 4471000    277.85459   -3795.8223   -3319.5891   -3795.8223            0    10474.505    16.912939    19.921209    20.633747    6952.0497    10390.647    10612.968    10419.901    214.97531    583.26148   -209.27703   -2257.5946 
 4472000    292.71992   -3818.9999   -3317.2879   -3818.9999            0    9914.5028    16.837099    19.831878    20.541221    6858.9455     10394.48    10859.246    8489.7816    2810.5469    -1249.448   -994.23028   -2325.5334 
 4473000    269.48879   -3783.6567   -3321.7622   -3783.6567            0    9308.4881    16.850621    19.847806    20.557718    6875.4845     8476.008    9943.5478    9505.9084    -1466.285   -458.90644    792.73812   -2388.3825 
 4474000    292.81499   -3818.4902   -3316.6153   -3818.4902            0    9275.6722     16.88449    19.887699    20.599039    6917.0269    9508.7744    10716.842    7601.4003   -385.01443   -1668.2118    321.50757   -2380.9065 
 4475000    268.50878   -3788.8731   -3328.6582   -3788.8731            0    11230.719    16.832577    19.826552    20.535704     6853.421    10180.121    11334.163    12177.873    2235.6938   -580.74401   -1732.5323   -2206.1466 
 4476000    284.09713   -3784.7537   -3297.8209   -3784.7537            0    8665.4155    16.893599    19.898428    20.610151    6928.2274    9820.4916    6487.9827    9687.7721    2106.3813   -1040.8339    199.66364   -2422.2579 
 4477000    293.12618   -3746.9505   -3244.5422   -3746.9505            0    9483.7467    16.878943    19.881165    20.592271    6910.2108     8881.167    11171.957    8398.1161    707.38132    -510.9285   -1164.6889    -2288.786 
 4478000    280.37853   -3753.1648   -3272.6056   -3753.1648            0    12710.551    16.847591    19.844237    20.554022    6871.7768     12117.54    12793.917    13220.197   -2487.5225   -307.13965   -1287.2989   -1998.7819 
 4479000    280.99478   -3775.6084   -3293.9929   -3775.6084            0    10678.576    16.855328     19.85335    20.563461    6881.2478    10493.027    12703.927    8838.7754   -1468.2217    745.40436    1560.6956   -2222.3344 
 4480000    269.74801   -3760.2371   -3297.8983   -3760.2371            0    8231.7022    16.954389    19.970031    20.684315    7003.2886    7629.6568    8456.3254    8609.1244   -89.042681   -1424.7548    1613.5659   -2457.1469 
 4481000     280.8234   -3758.8049   -3277.4832   -3758.8049            0    12495.749    16.849683    19.846701    20.556574    6874.3364    13730.018    10814.542    12942.687   -2194.5863   -834.67427   -364.78498   -2024.7201 
 4482000    285.69184   -3796.1013   -3306.4352   -3796.1013            0    11496.959    16.797651    19.785414    20.493095     6810.849    11399.243    9158.5642    13933.071   -105.85149   -9.7015791   -361.54558   -2164.4509 
 4483000      268.878   -3799.9797    -3339.132   -3799.9797            0    10662.465    16.881742    19.884463    20.595686    6913.6502    9954.8658     12342.81    9689.7209   -126.57995    2601.6198   -2494.5585   -2264.0517 
 4484000    286.29426   -3808.3467   -3317.6481   -3808.3467            0    11632.982    16.890829    19.895165    20.606772    6924.8199    10977.134      13205.2    10716.611    1168.3888   -1416.7025   -80.734489   -2142.8171 
 4485000    285.69976   -3842.6169   -3352.9373   -3842.6169            0    10752.031    16.862458    19.861748    20.572159    6889.9844    9968.6011    11434.612    10852.881   -134.92562    47.739702    1110.2357   -2272.5371 
 4486000    289.66126   -3827.6249   -3331.1554   -3827.6249            0    9783.4395    16.846808    19.843315    20.553067    6870.8186    8399.0122    10517.068    10434.238    913.96515    505.31487   -241.14408   -2350.8172 
 4487000    284.10811   -3812.3777   -3325.4261   -3812.3777            0    9993.3704    16.898673    19.904404    20.616341    6934.4714    10223.101    10913.927    8843.0834    649.51359   -1607.0937     1295.791   -2314.7751 
 4488000     291.1753   -3795.5396   -3296.4751   -3795.5396            0    10881.437    16.826541    19.819443    20.528341    6846.0512    9806.4637    12472.014    10365.833   -439.48877      2034.87    1129.8652   -2210.0438 
 4489000    274.10181   -3801.6913   -3331.8902   -3801.6913            0    10248.616     16.86401    19.863577    20.574053    6891.8873    9977.3652    9981.3521    10787.131   -559.41218    -329.0379    1084.8517   -2301.7904 
 4490000     287.2099   -3800.7847   -3308.5168   -3800.7847            0    12239.827    16.815401    19.806321    20.514749    6832.4623    8852.0637    13849.229    14018.189    118.43316    2374.2189    273.23661   -2088.8859 
 4491000    269.63192   -3803.5553   -3341.4154   -3803.5553            0    10631.813    16.880389    19.882869    20.594035    6911.9875    9998.2852    11032.012    10865.141    19.963698    136.49109      621.271   -2269.6835 
 4492000    270.22921   -3768.1533   -3304.9897   -3768.1533            0    10121.333    16.862507    19.861806     20.57222    6890.0449    10277.681    11420.153    8666.1648     1618.052    857.93749   -798.63685   -2287.9553 
 4493000    290.42232    -3744.898   -3247.1241    -3744.898            0    10645.575    16.852353    19.849846    20.559831    6877.6051    8550.5231     11718.03    11668.174   -875.69289    1005.2359    409.44553   -2179.3429 
 4494000    289.34289   -3768.1489   -3272.2251   -3768.1489            0    12572.906    16.760476    19.741626    20.447741     6765.729    11487.112    14634.438    11597.168   -1529.2848   -919.38112   -1324.1623   -2031.6411 
 4495000    291.42144   -3778.7755   -3279.2892   -3778.7755            0     11658.39    16.879806    19.882182    20.593324    6911.2711    11389.962    12118.162    11467.045   -1509.1088     2229.736   -985.72329   -2104.1957 
 4496000    268.20323   -3780.0837   -3320.3926   -3780.0837            0    7854.2189    16.921667    19.931489    20.644394    6962.8178    8016.8503    7959.9446    7585.8619    1175.9642   -88.557933   -377.44634   -2522.8316 
 4497000    273.25941   -3782.8476   -3314.4903   -3782.8476            0    12035.408    16.815334    19.806242    20.514668    6832.3812    11914.697    12375.225    11816.303    188.55419    1012.9614   -431.07717   -2115.2428 
 4498000    289.68732   -3808.3122   -3311.7981   -3808.3122            0    10127.974    16.903003    19.909505    20.621625    6939.8044    11799.142    7694.9306    10889.848   -584.33536   -696.26539   -2520.0817   -2286.7466 
 4499000    272.35407   -3842.6543   -3375.8487   -3842.6543            0    9797.7099    16.867631    19.867841     20.57847    6896.3271    7787.7635    9973.0756    11632.291   -543.05188   -575.35179    135.55243   -2390.4356 
 4500000    293.99318   -3790.8102    -3286.916   -3790.8102            0    10799.903    16.890466    19.894738    20.606329    6924.3733    9712.7867    11641.883    11045.039   -1157.5931    1287.2985   -1681.0234   -2196.2891 
Loop time of 482.967 on 64 procs for 250000 steps with 864 atoms

Performance: 89.447 ns/day, 0.268 hours/ns, 517.633 timesteps/s
99.0% CPU use with 64 MPI tasks x 1 OpenMP threads

MPI task timing breakdown:
Section |  min time  |  avg time  |  max time  |%varavg| %total
---------------------------------------------------------------
Pair    | 21.929     | 27.521     | 32.75      |  45.2 |  5.70
Bond    | 0.25992    | 0.2851     | 0.29961    |   1.2 |  0.06
Kspace  | 201.56     | 213.77     | 225.39     |  45.2 | 44.26
Neigh   | 6.1275     | 7.858      | 9.6072     |  38.4 |  1.63
Comm    | 97.992     | 112.41     | 127.37     |  73.7 | 23.28
Output  | 1.3756     | 1.3772     | 1.3896     |   0.3 |  0.29
Modify  | 112.69     | 115.11     | 118.37     |  12.6 | 23.83
Other   |            | 4.63       |            |       |  0.96

Nlocal:        13.5000 ave          18 max           8 min
Histogram: 1 1 2 6 9 14 11 10 5 5
Nghost:        2282.58 ave        2335 max        2225 min
Histogram: 4 3 2 9 13 12 5 5 6 5
Neighs:        4451.39 ave        6035 max        2741 min
Histogram: 3 3 5 12 8 8 10 6 4 5

Total # of neighbors = 284889
Ave neighs/atom = 329.73264
Ave special neighs/atom = 2.0000000
Neighbor list builds = 15877
Dangerous builds = 1

unfix		3
unfix		2
unfix		1

write_data	data.final.${pid}
write_data	data.final.0
System init for write_data ...
PPPM initialization ...
  extracting TIP4P info from pair style
  using 12-bit tables for long-range coulomb (../kspace.cpp:340)
  G vector (1/distance) = 0.37467285
  grid = 24 24 24
  stencil order = 5
  estimated absolute RMS force accuracy = 0.0031143965
  estimated relative force accuracy = 9.3789126e-06
  using double precision FFTW3
  3d grid and FFT values/proc = 2535 216
Last active /omp style is kspace_style pppm/tip4p/omp
WARNING: Not all mixed pair coeffs generated from mixing. Use write_data with 'pair ij' option to store all pair coeffs. (../write_data.cpp:312)

write_restart   restart.lmp.${pid}
write_restart   restart.lmp.0
System init for write_restart ...
PPPM initialization ...
  extracting TIP4P info from pair style
  using 12-bit tables for long-range coulomb (../kspace.cpp:340)
  G vector (1/distance) = 0.37467285
  grid = 24 24 24
  stencil order = 5
  estimated absolute RMS force accuracy = 0.0031143965
  estimated relative force accuracy = 9.3789126e-06
  using double precision FFTW3
  3d grid and FFT values/proc = 2535 216
Last active /omp style is kspace_style pppm/tip4p/omp
Total wall time: 0:08:05
