LAMMPS (30 Jul 2021)
Processor partition = 0
  using 2 OpenMP thread(s) per MPI task
using multi-threaded neighbor list subroutines
variable        pid world 0 1
variable        phase world IceII IceVI

shell cd ${phase}
shell cd IceII
include Restart.lmp
echo both
log log.lammps
#include		in.partitions
include		in.temp
variable        temperature equal 60.49
variable	tempDamp equal 100.0
include		in.pressure
variable        pressure equal 8580.1
variable        pressureDamp equal 1000.0 # This is 1 ps
include		in.seed
variable        seed equal 745823

units		real
atom_style	full
box tilt large
read_restart	restart.lmp.${pid}
read_restart	restart.lmp.0
Reading restart file ...
  restart file = 30 Jul 2021, LAMMPS = 30 Jul 2021
  restoring atom style full from restart
  triclinic box = (-10.486297 -9.1095757 0.25176438) to (12.466297 12.099574 21.608235) with tilt (-8.9382017 1.8057356 2.6128847)
  2 by 4 by 4 MPI processor grid
  restoring pair style lj/cut/tip4p/long/omp from restart
  restoring bond style harmonic/omp from restart
  restoring angle style harmonic/omp from restart
  1296 atoms
  864 bonds
  432 angles
Finding 1-2 1-3 1-4 neighbors ...
  special bond factors lj:    0        0        0       
  special bond factors coul:  0        0        0       
     2 = max # of 1-2 neighbors
     1 = max # of 1-3 neighbors
     1 = max # of 1-4 neighbors
     2 = max # of special neighbors
  special bonds CPU = 0.002 seconds
  read_restart CPU = 0.008 seconds
include 	in.setup
variable	out_freq equal 1000
variable	out_freq2 equal 10000
variable	out_freq3 equal 1000

timestep	2.0

neigh_modify    delay 7 every 1

include		in.tip4p
# This is TIP4P/Ice

# create groups ###
group ox type 2
432 atoms in group ox
group hy type 1
864 atoms in group hy

# set charges - beside manually ###
set group ox charge -1.1794
Setting atom values ...
  432 settings made for charge
set group hy charge 0.5897
Setting atom values ...
  864 settings made for charge

# ### TIP3P Potential Parameters ###
pair_style lj/cut/tip4p/long/omp 2 1 1 1 0.1577 8.5
pair_coeff 1 1*2 0.000 0.000
pair_coeff 2 2 0.21084 3.1668
bond_style  harmonic
bond_coeff  1 450 0.9572
angle_style harmonic
angle_coeff 1 55 104.52
kspace_style pppm/tip4p/omp 1.0e-5
pair_modify tail yes

thermo          ${out_freq}
thermo          1000
thermo_style    custom step temp pe etotal epair emol press lx ly lz vol pxx pyy pzz pxy pxz pyz enthalpy

restart 	${out_freq3} restart.lmp.${pid} restart2.lmp.${pid}
restart 	1000 restart.lmp.${pid} restart2.lmp.${pid}
restart 	1000 restart.lmp.0 restart2.lmp.${pid}
restart 	1000 restart.lmp.0 restart2.lmp.0


include         in.dump
dump            myDump all atom ${out_freq2} dump.water.${pid}
dump            myDump all atom 10000 dump.water.${pid}
dump            myDump all atom 10000 dump.water.0
dump            myDump2 all dcd ${out_freq2} dump.dcd
dump            myDump2 all dcd 10000 dump.dcd
dump_modify     myDump append yes
dump_modify     myDump2 append yes


variable natoms 	equal  "count(all)"                        # NUMBER ATOMS
variable H      	equal  "enthalpy/v_natoms"                 # ENTHALPY-per-atom
variable Vol      	equal  "vol/v_natoms"                 # volume-per-atom
fix AVG all 		ave/time ${out_freq} 1 ${out_freq} v_Vol v_H file vol_enthalpy.dat
fix AVG all 		ave/time 1000 1 ${out_freq} v_Vol v_H file vol_enthalpy.dat
fix AVG all 		ave/time 1000 1 1000 v_Vol v_H file vol_enthalpy.dat


timer           timeout 10:00:00 every 1000
New timer settings: style=normal  mode=nosync  timeout=10:00:00

fix 		1 all shake 1e-6 200 0 b 1 a 1
Finding SHAKE clusters ...
       0 = # of size 2 clusters
       0 = # of size 3 clusters
       0 = # of size 4 clusters
     432 = # of frozen angles
  find clusters CPU = 0.001 seconds
fix             2 all nph tri ${pressure} ${pressure} ${pressureDamp}
fix             2 all nph tri 8580.1 ${pressure} ${pressureDamp}
fix             2 all nph tri 8580.1 8580.1 ${pressureDamp}
fix             2 all nph tri 8580.1 8580.1 1000
fix             3 all temp/csvr ${temperature} ${temperature} ${tempDamp} ${seed}
fix             3 all temp/csvr 60.49 ${temperature} ${tempDamp} ${seed}
fix             3 all temp/csvr 60.49 60.49 ${tempDamp} ${seed}
fix             3 all temp/csvr 60.49 60.49 100 ${seed}
fix             3 all temp/csvr 60.49 60.49 100 745823


run             250000
PPPM initialization ...
  extracting TIP4P info from pair style
  using 12-bit tables for long-range coulomb (../kspace.cpp:340)
  G vector (1/distance) = 0.37091962
  grid = 30 40 32
  stencil order = 5
  estimated absolute RMS force accuracy = 0.0038126743
  estimated relative force accuracy = 1.1481755e-05
  using double precision FFTW3
  3d grid and FFT values/proc = 7752 1200
Last active /omp style is kspace_style pppm/tip4p/omp
Neighbor list info ...
  update every 1 steps, delay 7 steps, check yes
  max neighbors/atom: 2000, page size: 100000
  master list distance cutoff = 10.8154
  ghost atom cutoff = 10.8154
  binsize = 5.4077, bins = 7 5 4
  1 neighbor lists, perpetual/occasional/extra = 1 0 0
  (1) pair lj/cut/tip4p/long/omp, perpetual
      attributes: half, newton on, omp
      pair build: half/bin/newton/tri/omp
      stencil: half/bin/3d/tri
      bin: standard
Setting up Verlet run ...
  Unit style    : real
  Current step  : 4250000
  Time step     : 2
  Walltime left : 9:59:59.93
Per MPI rank memory allocation (min/avg/max) = 10.65 | 10.66 | 10.66 Mbytes
Step Temp PotEng TotEng E_pair E_mol Press Lx Ly Lz Volume Pxx Pyy Pzz Pxy Pxz Pyz Enthalpy 
 4250000    63.417577   -6850.8623   -6687.7244   -6850.8623            0    8879.6465    22.952595    21.209149     21.35647    10396.437    8664.9049    8403.0548    9570.9798   -174.37964   -356.61452    610.94693   -5341.3803 
 4251000    61.188319   -6856.5342    -6699.131   -6856.5342            0    8490.8838    22.977519    21.234696    21.319647    10402.296      9360.12    7518.2663     8594.265   -830.39059   -701.13587    53.060847   -5411.0061 
 4252000     61.83576   -6858.7459   -6699.6771   -6858.7459            0     8634.403    23.055493    21.110761    21.370169    10401.267    8761.0844    9038.8403    8103.2845   -981.33912    369.97902    -14.46972   -5389.9089 
 4253000     59.89997   -6855.8944   -6701.8054   -6855.8944            0    8375.9543    23.022831    21.197801    21.331086    10410.282    8039.3614    7885.2561    9203.2453   -647.36097    296.10943    323.71784   -5430.1405 
 4254000    57.862054   -6857.7414   -6708.8948   -6857.7414            0    8572.7022     22.94385    21.266163    21.324956    10405.036    9057.3007    8130.7251    8530.0809    27.614807   -594.22471   -245.47907   -5408.0149 
 4255000    59.782837   -6855.3378   -6701.5501   -6855.3378            0    8340.4344    23.027659    21.159888    21.358761    10407.327    7991.8509     8401.606    8627.8464   -402.48346   -29.261395    552.34722   -5435.6374 
 4256000    61.491771   -6847.6111   -6689.4273   -6847.6111            0    9226.7344    23.079571    21.098742    21.315249    10379.459    8202.7472    9870.1464    9607.3097    -639.5206    210.42772   -43.878097   -5292.7418 
 4257000    59.459407   -6857.3056   -6704.3499   -6857.3056            0    8301.5983    23.000266    21.193315    21.344721    10404.524    7858.5198    7683.9625    9362.3126     144.0314    94.683333    1020.7064   -5444.6711 
 4258000    62.871607   -6859.4092   -6697.6758   -6859.4092            0    8913.4222    22.991896    21.228076    21.303748    10397.799    8537.3782    9244.8851    8958.0032   -49.916996    409.45132   -302.46326   -5346.0334 
 4259000    64.444295   -6857.0763   -6691.2973   -6857.0763            0    8103.8224    22.982821    21.224226    21.348827    10413.799    8440.9305    8431.3265      7439.21   -177.46143    395.64065   -376.30961   -5460.5327 
 4260000    60.731692   -6851.5425    -6695.314   -6851.5425            0    9214.2998    23.053199     21.09018    21.364752    10387.459    8632.8682     9759.842    9250.1891   -134.71342   -304.21132   -147.55022   -5299.4356 
 4261000     61.98706   -6860.9121   -6701.4541   -6860.9121            0    8156.0871    23.072644    21.145284    21.337729      10410.2    8186.9404    8125.1236    8156.1972   -29.285745   -767.32422    120.60721     -5463.18 
 4262000    63.454928   -6850.2978   -6687.0639   -6850.2978            0    8802.6728    22.905261    21.239071     21.35671     10389.75    9041.4261    8773.1537    8593.4385    -708.2419    91.495202    487.28365    -5353.249 
 4263000    62.225084   -6853.4677   -6693.3974   -6853.4677            0    9070.4173    22.909882    21.266414    21.324788    10389.672    9117.2978    9001.3376    9092.6165   -232.36433   -294.79506    -196.7617   -5319.0232 
 4264000    59.193269   -6860.9176   -6708.6465   -6860.9176            0    8539.5039    23.092121     21.11573    21.345476    10408.204    8248.4448    9206.9255    8163.1413   -85.945583   -115.71683   -223.03308   -5412.4098 
 4265000    62.810586   -6862.0812   -6700.5048   -6862.0812            0    8071.7609    23.105577    21.115948    21.357792    10420.384     8066.069    8171.2324    7977.9812   -763.72484    307.28214   -163.38122   -5473.8343 
 4266000    60.961711   -6858.3578   -6701.5376   -6858.3578            0    8647.3699    22.936812    21.256368    21.324725     10396.94    9373.3955    8209.8175    8358.8968    130.42328    -210.8143     -627.754    -5390.348 
 4267000    60.649504   -6855.4537   -6699.4366   -6855.4537            0    8542.8527    22.957226    21.252982    21.332471    10408.315    8497.0646     8360.727    8770.7666    836.81628    45.106653    7.6303537   -5402.6776 
 4268000    58.518726   -6861.4683   -6710.9324   -6861.4683            0    7853.3336    23.098743    21.109401    21.382441    10426.092    7715.3589    8678.8032    7165.8388    103.96505   -351.69617    104.98309   -5516.8028 
 4269000    61.751461    -6859.662   -6700.8101    -6859.662            0    8618.0659     23.08581    21.101902    21.359767    10405.506    7994.7435    9317.0239    8542.4303    -111.1585   -118.64143    338.65485   -5392.9873 
 4270000    60.503696   -6859.6712   -6704.0291   -6859.6712            0    8966.9935    22.942036    21.225168    21.346652    10394.722    9485.8846    8465.8556    8949.2401   -93.876483     20.47233    236.33118   -5344.6656 
 4271000    59.806801   -6863.4036   -6709.5542   -6863.4036            0    8223.6073    22.971367    21.248812     21.33014    10411.545    8347.5709     8514.833     7808.418   -486.33013    924.57738   -859.73825   -5460.8677 
 4272000    61.050437   -6853.6372   -6696.5887   -6853.6372            0    9015.7874    23.117531    21.074905    21.321184    10387.676    8162.7014    9314.2303    9570.4304   -76.048026    716.38936   -184.00699   -5330.7546 
 4273000    61.607631   -6862.0505   -6703.5686   -6862.0505            0    8372.7596    23.196554    21.004031    21.362881    10408.447    7099.7043    9338.1141    8680.4606    40.837659    284.94684   -9.7645015   -5432.6128 
 4274000    66.307685   -6855.1032   -6684.5308   -6855.1032            0    8025.0714    22.981137    21.228649    21.354126    10417.792    8441.6976     8046.916    7586.6004   -373.42237    120.42474   -247.18448   -5465.2592 
 4275000    61.229721   -6845.9774   -6688.4677   -6845.9774            0    8958.3003    22.949906    21.226898    21.323829    10388.017    9852.4157    8280.2089    8742.2762   -725.35926    92.901812    107.96192   -5331.2981 
 4276000    61.187568   -6850.0495   -6692.6482   -6850.0495            0    8491.9964    23.154407    21.049263    21.365938    10413.399    8074.8204    8774.7252    8626.4436   -601.56087   -201.03024   -53.834256   -5402.9794 
 4277000      60.4715   -6855.9312   -6700.3719   -6855.9312            0    7640.1168    23.099305    21.118124    21.394465    10436.519    7983.0805    7701.1001    7236.1699   -529.52447   -132.28027   -74.142496   -5537.5009 
 4278000    59.339551   -6858.8728   -6706.2254   -6858.8728            0    8710.3469    22.921382    21.278844    21.316356     10396.85    8608.0563    8175.3435    9347.6408   -289.55932    920.27666    442.25903   -5385.4982 
 4279000    60.396775   -6859.7339   -6704.3669   -6859.7339            0     8900.636    22.989488    21.179418    21.340038    10390.549    8766.7209    8585.5402    9349.6467   -394.10052    789.41106     63.20963   -5355.6046 
 4280000    63.320821   -6852.4972   -6689.6082   -6852.4972            0    8823.7568    23.085922    21.025659    21.406193    10390.496    8787.2244    9428.2015    8255.8446   -84.445249   -175.49245    106.78074   -5352.5027 
 4281000    59.851757   -6848.5552   -6694.5902   -6848.5552            0    8666.0991     23.09738    21.161471    21.293429    10407.686    8239.9344     9005.173      8753.19   -189.65161   -159.26412   -332.86264   -5379.2027 
 4282000    62.746962   -6854.6775   -6693.2647   -6854.6775            0    8354.4827    22.925042    21.245448    21.342991    10395.164     8793.013    7621.0175    8649.4175    428.40902    810.54845     584.9871   -5426.7018 
 4283000    62.916952   -6860.0589   -6698.2089   -6860.0589            0    8911.3696    22.973275    21.183227    21.356568    10393.133    9271.3751    9478.2306    7984.5032   -101.43765    224.81689   -1156.6606   -5347.4842 
 4284000    59.467707   -6856.4266   -6703.4495   -6856.4266            0    8215.5407    23.085639    21.130833    21.332523    10406.405    7651.3418    9040.7766    7954.5037    48.623228    562.66374    20.009035   -5456.6036 
 4285000    58.816342    -6855.153   -6703.8516    -6855.153            0    9524.1467    23.000881    21.167239    21.325212    10382.502    9125.4728    9712.2717    9734.6956   -368.34705   -36.378524    343.19249   -5261.7229 
 4286000    58.719788   -6861.0064   -6709.9533   -6861.0064            0    7743.0047    22.997537    21.252252    21.350387     10434.99    7554.3087     7879.579    7795.1264     689.3374    129.88926     27.65202   -5531.5948 
 4287000    61.398694   -6855.4419   -6697.4975   -6855.4419            0    8695.3064    23.018658    21.149333    21.358895    10398.135    8529.7162    8353.4363    9202.7668    756.69895   -397.60457    254.54981   -5378.8879 
 4288000    60.319811    -6858.621    -6703.452    -6858.621            0    8244.7052    23.060594    21.125325    21.392353    10421.553    8519.6207    8843.0821    7371.4127   -659.49896   -428.29233    -589.9667   -5450.3586 
 4289000    60.280496    -6851.803   -6696.7351    -6851.803            0    9189.9114    23.062793    21.106528    21.309474    10372.929    8282.2601    9258.8888    10028.585    285.01895    211.15731    334.87432   -5306.4988 
 4290000    59.270878   -6854.6795   -6702.2088   -6854.6795            0    8819.6163    22.958335    21.275821     21.27331    10391.106    8097.1685    9339.1215     9022.559    343.15645    896.97289   -223.45354   -5365.6521 
 4291000     61.87044   -6864.3374   -6705.1795   -6864.3374            0    8617.4369    22.950227    21.148958    21.423695    10398.492     8789.029    8733.8301    8329.4516    65.431024    229.03974   -129.17786   -5398.3337 
 4292000    60.562087   -6858.2032    -6702.411   -6858.2032            0    8373.6331    23.205808    21.074586    21.286942    10410.438    7344.0803    8657.3858    9119.4331    128.33989    114.66273   -403.04568   -5431.0794 
 4293000    62.223739   -6857.4854   -6697.4187   -6857.4854            0     9034.051     23.06344    21.115055    21.363576    10403.758    8584.5711    9170.1699    9347.4121    306.99807   -234.14579    385.23111   -5326.6989 
 4294000    62.053507    -6857.087   -6697.4582    -6857.087            0    8403.0284    22.941899    21.217053    21.374547    10404.264     9025.426    7637.1098    8546.5495    625.59676    323.81933    665.61134   -5422.4203 
 4295000    56.466545   -6862.2627   -6717.0059   -6862.2627            0    8156.1916    23.091073    21.154754     21.30145     10405.46    7722.0989    8232.3665    8514.1092    478.31695    128.00489   -255.04561   -5479.2798 
 4296000    62.894074   -6856.6518   -6694.8606   -6856.6518            0    9011.3867    23.082713    21.050739    21.365596    10381.717    8718.4949    9791.7103    8523.9548   -758.46677   -16.124167   -214.94994   -5330.4763 
 4297000    60.137935    -6858.373   -6703.6719    -6858.373            0    9265.2379    22.984357    21.194003    21.312667    10382.051    9624.8135    8969.6241     9201.276   -141.11118    49.668609   -13.009338   -5300.8077 
 4298000    64.230515   -6862.0739   -6696.8449   -6862.0739            0    8068.5756    22.990122    21.242967    21.333868        10419    7671.4015    7957.1432    8577.1821    138.58266   -70.099487    104.34128   -5470.8213 
 4299000    63.125862   -6858.1432   -6695.7558   -6858.1432            0    8266.6527    23.072486    21.142835    21.345152    10412.544    7603.0848    8149.5515    9047.3219   -174.30429    51.682072    403.44845   -5440.4127 
 4300000    60.451657   -6855.8979   -6700.3897   -6855.8979            0    8863.4151    23.118209    21.093923    21.337654    10405.386    8799.4925    8314.8235    9475.9293   -624.95406    -403.2874    395.99962   -5355.3497 
 4301000    63.229191    -6859.046   -6696.3928    -6859.046            0     7744.021    23.034836    21.241911    21.301221    10422.771     7250.035    7193.7652    8788.2627    -311.2699    191.70278    162.76995   -5519.2595 
 4302000    61.258418   -6861.9186   -6704.3351   -6861.9186            0      8776.62    22.927201    21.220293    21.364295    10394.198    9360.7778    8683.7461    8285.3361    227.51443   -50.197799   -745.16175   -5373.8986 
 4303000    60.499956   -6860.0008   -6704.3683   -6860.0008            0    8371.2673     23.09745    21.084709    21.344644    10394.906    8369.3876    8816.4249    7927.9894    12.342886   -383.41691    156.47553   -5435.2923 
 4304000    60.577789   -6849.1775   -6693.3448   -6849.1775            0    8874.0785    23.064593    21.083706    21.358557    10386.391    8347.0181    9367.0448    8908.1727   -198.06406   -87.831257   -65.257847   -5349.1451 
 4305000    59.262671   -6850.1707   -6697.7211   -6850.1707            0    8591.9987    22.979234    21.215345    21.351258    10409.003     8640.835    8404.9398    8730.2212   -342.25132    554.76033   -188.05931   -5393.4159 
 4306000    62.534322   -6851.4752   -6690.6095   -6851.4752            0     8752.748    22.962207    21.277247    21.287156     10400.32    8206.5499     8783.797    9267.8971    313.44362    407.23243    464.98323   -5363.0101 
 4307000    61.133322   -6857.9876   -6700.7259   -6857.9876            0    8613.2083    23.049139    21.166766    21.332171    10407.449    8663.7893    8923.6882    8252.1473   -444.09261   -676.08749   -316.77907   -5393.3962 
 4308000    61.356004   -6859.8542   -6702.0196   -6859.8542            0    8338.9066    23.080451    21.133523    21.326001     10402.21    8456.3718    8927.9677    7632.3803   -526.49905     -271.124    -226.2579    -5436.961 
 4309000    60.271635   -6852.7554   -6697.7103   -6852.7554            0    8875.5909    22.956784    21.230049    21.333214    10397.247    9293.1287    8840.2316    8493.4124   -23.117638   -127.59038    260.65882   -5351.8762 
 4310000    59.702115   -6861.7834   -6708.2033   -6861.7834            0    8604.0559    22.879346    21.278603    21.354528    10396.249    9087.2736    8929.3221     7795.572   -221.77495    259.28999   -378.08634   -5403.6682 
 4311000    60.066262   -6855.9342   -6701.4174   -6855.9342            0    8556.1011     23.06362     21.15583    21.327995    10406.569    8174.0399    9167.6675    8326.5959    -194.2777    601.28369    166.12046   -5402.8653 
 4312000    60.661985   -6853.9288   -6697.8796   -6853.9288            0    8335.9751    23.039343    21.182943    21.363305    10426.171    8375.0651     8046.768     8586.092   -145.35834   -290.58124    189.36988   -5430.3528 
 4313000    61.954958   -6850.4509   -6691.0756   -6850.4509            0    8618.2188    22.936017    21.270135    21.328788    10405.296    8912.0115    8199.3244    8743.3205   -334.47175    440.07257     367.3837    -5383.256 
 4314000    58.253285   -6854.6677   -6704.8147   -6854.6677            0    7998.2941    22.991114    21.223048    21.340893    10413.107    8535.5371    7463.6991    7995.6462   -33.122852   -44.909704    480.50757   -5490.1578 
 4315000    60.970431    -6865.656   -6708.8132    -6865.656            0    8878.8353    23.041782    21.137522    21.323043    10385.306    9168.6949    8757.7446    8710.0663   -146.16209   -952.22429   -449.83872   -5364.0334 
 4316000    61.708863   -6849.0766   -6690.3343   -6849.0766            0    8970.6224    23.039668    21.105351    21.353709    10383.461    8884.1712    8936.3393    9091.3568   -102.70314   -113.35053    651.06634   -5331.8939 
 4317000    57.054852    -6854.218   -6707.4479    -6854.218            0    8895.8715    22.962277    21.254623    21.280625    10386.106    9272.2036    8709.0506    8706.3603    73.301293   -513.70888   -420.35803    -5359.984 
 4318000    57.974551   -6856.9935   -6707.8575   -6856.9935            0    8382.8097    22.978005    21.209208    21.366988    10413.101    8827.4229    8049.2732    8271.7329   -574.56254   -700.48565     56.65786   -5434.8072 
 4319000    56.109271   -6852.3631   -6708.0255   -6852.3631            0    9224.3453    23.100091    21.092481    21.291804    10374.181    9633.6533    8919.7895    9119.5931   -170.76161   -802.39401    421.74011   -5312.4117 
 4320000    60.526413   -6856.6481   -6700.9476   -6856.6481            0    8820.9286    22.990556    21.183164    21.343024    10394.324    9274.9023     8418.697    8769.1866   -415.48537   -276.69895    271.02938   -5363.7781 
 4321000    60.754058    -6855.201   -6698.9149    -6855.201            0    8532.4751    22.931129    21.243882    21.344893    10398.084     8767.867    8401.3355    8428.2228   -273.18561    -194.2359    460.65411   -5405.0045 
 4322000    63.667875    -6848.765   -6684.9833    -6848.765            0    8900.9112     23.06191    21.195674     21.25777    10391.068    8647.3871    8502.1851    9553.1614   -279.67829   -240.95441    243.02509   -5336.1119 
 4323000    56.080935   -6852.4503   -6708.1855   -6852.4503            0    8564.0285    23.030209    21.098416    21.437497    10416.499    8106.9086    10025.939    7559.2377   -767.73858   -37.458946   -178.56398     -5407.19 
 4324000    61.324139   -6856.4918   -6698.7392   -6856.4918            0    8977.4013    23.011048     21.20513    21.266953    10377.257     9096.757    8490.8398    9344.6071    -349.9433   -61.786044   -258.82478   -5340.0844 
 4325000    62.746028   -6861.3669   -6699.9566   -6861.3669            0    8588.5603    22.914728    21.310295    21.301078    10401.735    9200.4333    7629.6118    8935.6357   -606.62239   -612.94942   -315.92748   -5397.0838 
 4326000    59.555045   -6857.3142   -6704.1125   -6857.3142            0    8256.5622    23.050429    21.136395    21.385011    10418.841    8418.9694    8417.3985    7933.3186    354.40372    119.71376    441.43605   -5449.5435 
 4327000    59.994144   -6862.1887   -6707.8574   -6862.1887            0    8201.3772    23.175977    21.137151    21.261263    10415.343    7890.3225    8719.7926    7994.0165   -413.88822   -168.98573   -317.38284   -5462.0921 
 4328000    63.844068   -6856.1681   -6691.9331   -6856.1681            0    8408.9207    22.925661    21.205337    21.430457    10418.339    8973.5384    8525.8288    7727.3948   -26.274094    262.89932   -292.58376   -5414.2751 
 4329000    59.581242   -6860.3352   -6707.0661   -6860.3352            0    8655.5722    23.021205    21.170588    21.334971    10398.077    8594.0776    8682.2517    8690.3872    806.17015   -29.554481    596.73762   -5394.4893 
 4330000    62.057687   -6852.4704   -6692.8308   -6852.4704            0    8400.7735    23.108959     21.14662    21.308173      10412.8    8246.6143    8343.9258    8611.7806    22.916114   -403.08615   -105.27609   -5417.0892 
 4331000    58.681846   -6849.9024   -6698.9469   -6849.9024            0    9534.3671    22.898318    21.172978     21.35284    10352.403     9948.709    9347.3018    9307.0906   -125.44493   -35.339952   -342.60911    -5259.456 
 4332000    61.784007   -6861.5392   -6702.6036   -6861.5392            0    8835.8109    22.981914    21.186182    21.323618    10382.449    9311.3065    9093.1384    8102.9877    -685.3695   -149.92297   -599.39915   -5364.7084 
 4333000    61.508765   -6860.4035   -6702.1759   -6860.4035            0    8386.0023    23.014564    21.164609    21.374467     10411.38    8614.1927      8842.28    7701.5341    289.47149    -469.1399   -420.19776   -5428.8512 
 4334000    65.610149   -6852.6651    -6683.887   -6852.6651            0    9408.5202    23.035493    21.120223    21.326127    10375.476    8982.9861    9427.1393    9815.4352   -564.63355   -123.29592    382.76118   -5260.2305 
 4335000    58.585522   -6856.5062   -6705.7985   -6856.5062            0    8374.8143    23.015936     21.20115     21.34315    10414.696    8003.6383    9080.3088    8040.4958    493.93669    -197.7927   -871.36554   -5433.7676 
 4336000    61.447235   -6862.1777   -6704.1084   -6862.1777            0     8701.726    22.961168     21.17313    21.392802     10400.32    8907.6057    8959.1896    8238.3827   -347.55849     314.1199    329.36412    -5384.248 
 4337000    60.698296    -6865.975   -6709.8323    -6865.975            0    8502.0284    23.100071    21.189849     21.27684    10414.737    8059.3476    8072.3659    9374.3717     181.5363   -427.05251   -2.6053707    -5418.474 
 4338000    60.689023   -6857.9361   -6701.8173   -6857.9361            0    8344.0682    23.001853    21.119392    21.434827    10412.721    8120.2328    9238.5475    7673.4244   -532.46097    298.74212   -515.92028   -5434.6967 
 4339000    60.556344   -6869.0014   -6713.2239   -6869.0014            0    8365.1772    22.997637    21.213945    21.300805    10392.037    8650.1294     8330.415    8114.9873   -284.78591    -197.6266   -514.50585    -5445.421 
 4340000    60.516355   -6860.0842   -6704.4096   -6860.0842            0    8833.6105    22.988797    21.171539    21.346073    10389.309    8670.0848    8970.4487    8860.2981    283.47675   -101.20365   -260.88007   -5365.9638 
 4341000    60.081272   -6863.1147   -6708.5593   -6863.1147            0    8513.7944    23.112112    21.019018    21.414025    10402.803    8473.6398    9051.1906    8016.5528   -468.76483    66.626918   -181.80224   -5416.8957 
 4342000    58.995884   -6851.6861   -6699.9228   -6851.6861            0     8750.803    23.080176    21.155095    21.295653    10397.886    8581.2934    8288.8766    9382.2391    148.77124    273.19979    348.54879    -5372.929 
 4343000    58.611997   -6850.8279   -6700.0521   -6850.8279            0     8601.926    22.900966    21.202935    21.417274    10399.536    9526.6866    8232.4229    8046.6683     454.9699    381.95354    252.03433   -5395.4275 
 4344000    60.898386   -6852.8402   -6696.1828   -6852.8402            0    8977.0475    23.052834    21.169782    21.276105    10383.238     8897.266    8959.5806     9074.296    343.13271    -431.0888   -677.63229   -5336.7986 
 4345000    58.492103   -6861.3769   -6710.9096   -6861.3769            0    8628.7077    23.102118    21.051281    21.376625    10396.077     7923.956    9009.2326    8952.9346    362.36557    88.412376    42.961271   -5402.6584 
 4346000    62.992835    -6853.427   -6691.3818    -6853.427            0    8955.3392    23.012741    21.082479    21.400725    10382.896    9675.0751    9355.4306    7835.5119   -4.2839016   -39.288305    259.72315   -5335.3295 
 4347000    61.120403   -6861.4666   -6704.2381   -6861.4666            0    7804.0121    23.005244     21.27226    21.302906    10425.078    7839.5246    7623.5707    7948.9408    115.19204     85.73116    4.7722786   -5517.7234 
 4348000    58.169557     -6860.14   -6710.5024     -6860.14            0    8329.6465    22.994444    21.151982    21.395074    10406.095    8694.3481    8237.0318    8057.5595   -155.79156    351.74598    399.81256   -5446.3768 
 4349000    61.749975   -6854.2554   -6695.4074   -6854.2554            0    9740.6255    23.132486    21.032003    21.312245    10368.887    9184.0638    10603.032    9434.7808   -802.65875   -206.98088   -259.85892   -5222.4341 
 4350000    60.253197   -6864.7722   -6709.7745   -6864.7722            0    7770.9816    23.097703    21.078177    21.419211    10428.103    7905.4452    7663.5243    7743.9752    102.26955    -461.8295    515.44983   -5527.9389 
 4351000    61.311591   -6864.5309   -6706.8106   -6864.5309            0    8944.6571    22.961115    21.201982    21.320207    10379.128    9501.0076    8317.7474    9015.2164    73.477936     427.7954    9.4377818   -5352.8674 
 4352000    60.064702   -6857.3488    -6702.836   -6857.3488            0    8405.5403    23.023259    21.194831     21.31641    10401.855    8679.2471    7934.6964    8602.6775   -549.06354     385.8759   -336.38035   -5427.7123 
 4353000    61.541581   -6849.4802   -6691.1683   -6849.4802            0    8972.3298    23.127659    20.978819    21.413609     10389.69    8448.1405    10118.781    8350.0676   -340.22802    -71.21511    162.10383   -5331.6543 
 4354000    61.752807   -6860.2299   -6701.3746   -6860.2299            0     8221.672     23.06409    21.172965    21.315087    10408.907    8046.3409    7838.8907    8779.7843   -258.28626    576.83726    44.178397   -5453.2982 
 4355000    63.502374   -6860.8927   -6697.5367   -6860.8927            0    8336.0101    22.971398    21.225258    21.343567    10406.565    8663.9583     7897.239     8446.833    321.31828    742.58929    -23.50073   -5432.3882 
 4356000    62.261696    -6866.604   -6706.4395    -6866.604            0    8535.4506    23.062153    21.086921    21.377571    10396.122    8281.6207     8476.579    8848.1523   -62.024059    206.46227    633.22442    -5412.322 
 4357000    57.436525   -6849.6891   -6701.9372   -6849.6891            0     8987.006    23.096187    21.100426    21.300296    10380.473    8644.7237     8669.488    9646.8064   -59.109308    1.1271332   -261.48144   -5341.4074 
 4358000    61.100064    -6859.027   -6701.8508    -6859.027            0    8558.4267    22.877792    21.298596    21.330918    10393.807    9551.6686    8119.6403    8003.9713    177.97013    305.44803   -238.63585   -5404.5387 
 4359000    58.967054   -6855.9128   -6704.2237   -6855.9128            0    8967.2792    22.988529     21.16804    21.336726    10382.922    9307.8902    9009.7864    8584.1609    656.57277   -56.310232   -64.510683     -5346.36 
 4360000    58.331314    -6856.545   -6706.4913    -6856.545            0    8591.0698    23.109506    21.055911    21.383866    10405.212    7940.5668    9105.1359    8727.5068     89.19205    202.24833    127.91976   -5402.8021 
 4361000     61.23908   -6857.1659   -6699.6321   -6857.1659            0    8767.2806    23.079642    21.105389    21.340898    10395.254    8215.6696    9045.9249    9040.2474    331.71541    381.97452   -629.80463   -5370.4763 
 4362000    61.831251   -6857.4419   -6698.3848   -6857.4419            0    8771.5335    22.963848    21.237425     21.31234    10393.879    8835.0285    8861.8698    8617.7021   -671.11783    666.56028   -453.69432   -5368.7601 
 4363000    61.326987   -6857.3242   -6699.5643   -6857.3242            0      8549.46    22.984389    21.143577    21.404215    10401.853    9038.8129    8895.8981    7713.6692    66.476645    59.753849   -429.84086   -5402.6081 
 4364000    62.338272   -6855.1975   -6694.8361   -6855.1975            0    8140.7508    23.188076    21.054816    21.320451    10409.085    8077.4844    8062.2855    8282.4824    239.17072   -502.26285   -137.26148   -5459.0227 
 4365000     62.64759   -6858.2892   -6697.1321   -6858.2892            0    8807.8866    23.056733    21.076435    21.393249    10396.129    9277.4193    8227.4946    8918.7459    268.86945    378.20457    402.63826   -5361.7079 
 4366000    56.444805   -6858.0987   -6712.8979   -6858.0987            0    8492.6179    22.986056    21.199927    21.344738    10401.349    9136.8652    8522.0119    7818.9767    605.49863   -99.629307   -185.95559   -5424.6271 
 4367000    55.261366   -6857.8301   -6715.6736   -6857.8301            0    8736.7905    23.050636    21.113784    21.350173    10390.834    8004.0767    9039.1664    9167.1284    445.01217   -188.49628    443.56103   -5391.7034 
 4368000    60.372782   -6864.3024   -6708.9971   -6864.3024            0    8791.2051    23.118645    21.066503     21.35522    10400.611    8028.1637    8985.9026     9359.549    -110.1466    35.408915     205.4286   -5375.5273 
 4369000    59.474779   -6857.2196   -6704.2243   -6857.2196            0    8240.9115     23.05526    21.126172    21.379418     10413.26    7506.3851    9001.1753    8215.1741    -152.8813    328.68692   -148.41281   -5452.7042 
 4370000    61.300103   -6864.0649   -6706.3741   -6864.0649            0    7968.7018    22.942408    21.268215    21.358301    10421.656    8007.9708    7841.1977    8056.9369    567.33557    307.02246    1.7865013   -5495.2177 
 4371000     59.98845   -6858.6714   -6704.3548   -6858.6714            0    8298.6807    23.028629     21.19081    21.333257    10410.529    8347.7198    7958.1546    8590.1678   -422.04795   -51.452972    1.0277189    -5444.392 
 4372000    61.370947   -6850.0809   -6692.2079   -6850.0809            0    8223.0538    23.162165    21.059305    21.343746    10411.033    7569.9306    9094.4883    8004.7425   -42.019233   -88.252079   -513.04543   -5443.6668 
 4373000    59.270449   -6856.3434   -6703.8738   -6856.3434            0    8399.4948    23.049414    21.124211     21.36193    10401.139    8764.7596    7924.0636    8509.6614   -476.17576    40.512895    550.47018   -5429.7549 
 4374000    61.521406   -6856.3522   -6698.0921   -6856.3522            0    8491.0898    22.938411    21.224944     21.36413    10401.479    9634.1176    7486.1089    8353.0429   -504.18018    264.49026   -111.39009   -5410.0371 
 4375000    62.197885   -6852.4632   -6692.4629   -6852.4632            0    9016.6533    23.015006    21.207856    21.263059    10378.476    9145.5818    8429.5179    9474.8602    87.212808   -134.34724    258.71906   -5327.7074 
 4376000    59.770632   -6854.9394   -6701.1831   -6854.9394            0    8419.6105    23.150097    21.032467    21.350695    10395.731    8200.7141    8813.5138    8244.6036   -26.875788    90.283809    543.66803    -5424.677 
 4377000    58.481246   -6851.7664    -6701.327   -6851.7664            0    8761.1981    23.014764    21.128661    21.378042    10395.525    8854.7248    8775.2146    8653.6549    250.25267   -566.80301   -175.85412   -5373.0587 
 4378000    62.026901   -6859.2674    -6699.707   -6859.2674            0    8875.3907    22.948667    21.260416    21.288652    10386.695    9204.6177    8583.6633    8837.8912    159.81028   -298.20433    269.41537    -5355.269 
 4379000    61.784225   -6848.0377   -6689.1016   -6848.0377            0    9127.7601    22.943349    21.226243    21.318984    10382.369    9341.4025    8919.5796    9122.2983    588.56475   -268.05328    447.82358   -5307.0108 
 4380000    58.081593   -6864.8361   -6715.4248   -6864.8361            0    8569.5691    23.097532    21.070276    21.383207    10406.595      8112.59    8756.4672    8839.6502     266.6559   -131.70067    78.823374   -5414.8254 
 4381000    60.795735   -6866.3769   -6709.9836   -6866.3769            0    8658.7804    23.066944    21.143667    21.296932    10386.935    8906.4322    8867.2145    8202.6945   -644.17636    444.27042    -454.9617   -5398.3273 
 4382000    61.169911    -6852.431   -6695.0751    -6852.431            0    7747.2147    22.953402    21.258973    21.366172     10425.96    7820.4499    7501.6336    7919.5606   -91.320189    162.12339     75.12721   -5517.0961 
 4383000    60.619796   -6851.0249   -6695.0842   -6851.0249            0    9199.4529    22.992662     21.16789    21.328014    10380.475    9387.1525    9875.5362      8335.67   -163.42078   -182.00427   -663.82714   -5302.3921 
 4384000    58.231631   -6859.2213    -6709.424   -6859.2213            0    8249.2259    23.179572    21.023569    21.337157    10397.966    8087.8744     8737.666    7922.1374   -432.24258   -512.27677   -208.33826   -5458.4811 
 4385000    61.592894   -6869.2201   -6710.7762   -6869.2201            0    8128.1381    23.012387    21.148551    21.392968      10411.5    8404.1612    8260.4456    7719.8074   -147.58944   -245.94791   -99.387543   -5476.5911 
 4386000    61.339696   -6851.3732   -6693.5806   -6851.3732            0    9082.2368    22.949399    21.249307    21.289823     10382.17    9689.4004    8252.7989    9304.5109    441.98429    454.83894    209.36018   -5318.4091 
 4387000    59.592649   -6859.3507   -6706.0523   -6859.3507            0    8147.8668    23.021881    21.161916    21.390183    10421.021    8384.0331    8113.4177    7946.1498    240.28748    606.39053   -318.74543   -5467.7403 
 4388000    59.461571   -6858.6751   -6705.7139   -6858.6751            0    9092.4472    23.146171    21.046109      21.3163    10383.955    8100.9362    9399.5781    9776.8273    12.325168    45.337779    102.12653   -5328.7598 
 4389000    59.296354   -6857.5566   -6705.0203   -6857.5566            0    8713.3337    23.054291    21.142156    21.330224    10396.723    9220.1731    8418.2854    8501.5426    70.629932    67.263002    271.53774   -5383.8565 
 4390000    60.557483   -6858.6262   -6702.8458   -6858.6262            0    8201.6869    22.886325    21.285846    21.379562    10415.156    8085.6812    8306.9418    8212.4376     757.4784   -231.02942   -407.20925   -5457.0558 
 4391000     62.28878   -6863.2933   -6703.0592   -6863.2933            0     9041.197    23.098798    21.141019    21.244507    10374.375    8938.7402    8723.7428    9461.1079    60.142496    317.27191   -158.38954   -5335.1295 
 4392000    60.772029   -6858.6155   -6702.2831   -6858.6155            0    8475.3508    23.116436    21.074363    21.361855     10406.73    8049.5212    9054.5978    8321.9334   -728.71507    157.33902   -128.08197   -5415.9666 
 4393000    59.167024   -6854.2168   -6702.0133   -6854.2168            0    8475.1794    23.009457    21.140047    21.403157    10410.945    8669.5941      8454.04    8301.9043   -322.47645     200.8291    95.482137   -5415.2017 
 4394000     60.54369   -6858.4416   -6702.6967   -6858.4416            0    8705.2648    22.963632    21.244187    21.304718    10393.373    8703.5972    7924.3877    9487.8096    503.71672    507.87606   -69.582273   -5383.1815 
 4395000    60.951531   -6849.0238   -6692.2297   -6849.0238            0    8654.3571    23.013753    21.199177    21.321141    10402.001    8867.7081    8513.0403    8582.3227   -307.93631   -382.14864   -129.04289   -5379.3419 
 4396000    60.199427   -6858.9676   -6704.1082   -6858.9676            0    8708.3102    23.138994    21.049986    21.347735    10397.959    8640.2999    8715.3799    8769.2508   -187.87701   -473.10347   -239.79376   -5383.5491 
 4397000    57.931952   -6858.8968   -6709.8704   -6858.8968            0    8523.7124    23.113861    21.079565    21.382578    10418.236    8074.7607    8733.9303    8762.4464    366.34523   -3.5148968    131.35371   -5414.7836 
 4398000    59.052202   -6860.8646   -6708.9564   -6860.8646            0    8718.7072    22.989458    21.248127    21.286747    10398.212    8302.9164    8778.9215    9074.2837    367.03474    169.03274   -656.18384   -5386.7884 
 4399000    60.242523   -6848.4202     -6693.45   -6848.4202            0    8686.0375    22.930113    21.200337    21.371041    10389.021    9134.0243    8962.6274    7961.4608   -662.42509    565.10786     -491.892   -5377.4005 
 4400000     58.19496   -6853.4442   -6703.7412   -6853.4442            0    9058.2802    23.096397    21.100708    21.310362    10385.612    9303.2043    8978.9363    8892.7001   -285.92185    267.09153    -347.8851   -5331.7424 
 4401000    61.398608   -6854.5186   -6696.5745   -6854.5186            0    8350.4791    23.050371    21.081355    21.417462    10407.453    8632.0195    8722.7588    7696.6591   -14.626484    25.383151    259.31494   -5429.1219 
 4402000    60.868887   -6865.0411   -6708.4596   -6865.0411            0    8301.4676    22.997345    21.272078    21.248735    10394.909    8648.0534    7432.1425     8824.207   -186.40552   -192.65078    613.72039   -5449.9647 
 4403000    59.778386   -6846.1721   -6692.3958   -6846.1721            0    8774.6306    22.963399    21.188913    21.368616    10397.316    9360.4835    8679.9573    8283.4511   -110.15223   -229.79922    38.788948   -5361.8619 
 4404000    62.142821   -6860.4005   -6700.5418   -6860.4005            0    8823.7992    23.099973    21.051922    21.368913    10391.678    8009.1669     9879.293    8582.9378     60.74177    186.46179   -298.76278   -5363.2778 
 4405000    56.470078    -6854.102   -6708.8361    -6854.102            0    8255.5841    23.094687    21.157924    21.311719    10413.666    8034.3879    8230.2041    8502.1603     102.9587    322.26784   -177.93979   -5455.0389 
 4406000    58.668216   -6863.3065    -6712.386   -6863.3065            0    8822.4786    22.924525    21.178038    21.384123    10381.916    8937.4449    8999.7997    8530.1911   -197.39475    545.36225   -187.14662   -5376.5781 
 4407000    59.418178   -6857.5289   -6704.6792   -6857.5289            0    8954.8446    23.073853    21.121597    21.306004    10383.622    8320.7584    9080.2168    9463.5585    288.76378    102.97989    400.69467    -5348.607 
 4408000    57.793987   -6856.5559   -6707.8844   -6856.5559            0    8263.7513    23.166213     20.98596    21.421492    10414.384    8315.0728    9174.9695    7301.2116    -80.98204    -599.6767   -786.85077   -5452.7602 
 4409000    59.874753   -6852.4584   -6698.4342   -6852.4584            0     9118.545    23.078753     21.10265    21.321373    10383.996    8949.2331    9319.1737    9087.2281    75.249734   -120.90811   -212.75613   -5317.5224 
 4410000    58.081137    -6855.065   -6705.6548    -6855.065            0    8211.6171     22.98064    21.281536    21.307801    10420.864    8411.0368    6840.6664    9383.1482   -82.223524    526.00367    175.80624   -5457.6728 
 4411000    60.053499   -6865.1798   -6710.6958   -6865.1798            0    8191.0337     22.97596    21.179267    21.397739    10412.439    8562.9169    7833.8715    8176.3127    251.41559    236.45853    182.61006   -5466.8485 
 4412000    60.830035   -6858.2946    -6701.813   -6858.2946            0    8902.6354    23.145413     21.03011    21.350656    10392.445    8728.0584    8909.1546    9070.6931    189.10474   -236.53584   -71.521213   -5352.5016 
 4413000    58.166925   -6851.4701   -6701.8392   -6851.4701            0    8542.7466    23.056513    21.137477    21.349281    10404.711    8769.4162    8399.9469    8458.8767   -178.33442   -635.35307   -306.96654   -5405.5454 
 4414000    58.618729   -6857.4289   -6706.6358   -6857.4289            0    8466.3503    22.919203    21.237222    21.364659    10399.038    8841.6185     8419.339    8138.0933   -603.75804    469.29343    371.18653   -5422.6349 
 4415000    61.119835   -6855.9781   -6698.7511   -6855.9781            0    8737.7216    23.088337    21.164523    21.270018    10393.672    8046.0754    8808.4609    9358.6286   -30.937188    51.717283   -75.266963   -5374.2782 
 4416000    62.528647   -6856.1424   -6695.2913   -6856.1424            0    8864.6071    23.094013    21.034084    21.395439    10393.078    8855.7718    9293.3423    8444.7071   -423.38977    -466.2193    156.73733   -5351.6616 
 4417000    60.256135   -6859.7562    -6704.751   -6859.7562            0    8455.0098     23.02859    21.181323    21.347195    10412.649    8392.6254    8291.8885    8680.5155    59.760073    10.091153    271.50556   -5420.7917 
 4418000    59.702649   -6845.6064    -6692.025   -6845.6064            0    9306.1439    22.960463    21.261339    21.270082     10383.42    9461.9247    9195.3114    9261.1956    276.54996    307.69078   -729.68407   -5282.7814 
 4419000    63.940205    -6858.314   -6693.8318    -6858.314            0    7524.1858    23.029236    21.171325    21.406741    10437.059    7580.7339    7685.3756    7306.4478    397.30892   -497.72207   -318.65126   -5548.5469 
 4420000     61.33497   -6858.9673   -6701.1868   -6858.9673            0    9245.9456    23.108835    21.101955    21.283381    10378.662    9654.8488    9298.4046    8784.5832   -333.87996   -570.44143   -125.27939   -5301.7007 
 4421000    59.919604   -6857.0851   -6702.9455   -6857.0851            0    8289.7552    22.967088    21.193726     21.37469    10404.305    8623.9491    8038.2293     8207.087   -542.62109    9.6687006     379.2492   -5445.0903 
 4422000    60.411198   -6855.9635   -6700.5593   -6855.9635            0    8433.6695    22.996438    21.207876    21.336295    10405.831    8515.8022    8349.9616    8435.2449   -211.70585   -178.54877   -72.614703   -5420.6794 
 4423000    58.638747   -6853.9009   -6703.0563   -6853.9009            0    8822.9209    23.067402    21.150299    21.282817    10383.513     8860.245    8741.3968     8867.121   -316.79553    -62.51481    520.81841    -5366.976 
 4424000    60.664872   -6861.2702   -6705.2135   -6861.2702            0    9369.9686    23.003039    21.110054    21.360264    10372.446    9956.1009    8967.5663    9186.2387   -294.71864   -444.17647    14.948172   -5287.8045 
 4425000    58.919304   -6852.5384   -6700.9721   -6852.5384            0    8159.3354    23.034525    21.198758    21.319884     10410.57    8854.3151    7834.3495    7789.3416    108.39088   -137.21342   -410.03454   -5462.1607 
 4426000    60.831284   -6862.1304   -6705.6457   -6862.1304            0     8539.331    22.955318    21.220407    21.331131    10390.846    8755.2243    8155.2369    8707.5318    -259.3114    505.95537    611.43051   -5411.5969 
 4427000    62.156875   -6850.6993   -6690.8045   -6850.6993            0    8450.9604    23.022261    21.152628    21.372976     10408.24    8272.5783    8758.0803    8322.2226   -309.54543   -291.23214   -753.70812   -5408.0036 
 4428000    60.172006   -6851.9072   -6697.1184   -6851.9072            0    8833.0936     23.07434    21.175045    21.267786    10391.444    8684.1624    8643.8382    9171.2802   -447.59349    129.90321     137.8528   -5358.4759 
 4429000    60.453938   -6858.0653   -6702.5512   -6858.0653            0    8154.6286    22.946245    21.205365    21.411551    10418.508    8266.7524    7875.0727    8322.0606   -18.818813   -12.562415    481.69099   -5463.5104 
 4430000    61.668924   -6857.9201   -6699.2805   -6857.9201            0    8709.8461    23.023721    21.219879    21.279342    10396.247    8878.6405    8451.6986    8799.1992    6.2299749   -473.13645   -103.99168   -5378.7058 
 4431000    59.380625   -6858.8533   -6706.1003   -6858.8533            0    7994.4059    23.029335      21.1236    21.415426    10417.801    8881.6951    7758.1086    7343.4139   -569.09272   -209.62942    613.13834   -5491.4867 
 4432000    62.394208   -6857.8886   -6697.3833   -6857.8886            0    8527.4979    23.051284    21.169556    21.331729    10409.573     8358.179    8213.2792    9011.0354    235.74848   -68.968715   -105.45821   -5402.7987 
 4433000     59.10729   -6856.3995   -6704.3496   -6856.3995            0    9237.0829      22.9589     21.20523    21.307364    10373.464    9677.1104    8713.4083    9320.7301   -23.990282    164.40477    472.94099   -5306.9053 
 4434000    58.027464    -6859.595   -6710.3228    -6859.595            0      7772.79    22.985468    21.223843    21.391946    10435.846     8213.785    7387.0146    7717.5705   -398.34707    -8.259444    209.47598   -5527.3345 
 4435000    61.391302   -6854.0691   -6696.1437   -6854.0691            0    8578.7423    23.075903    21.196265    21.271699    10404.476    8716.8604    8209.7032    8809.6633   -217.08385   -352.41573     121.1869   -5394.4173 
 4436000    61.105976   -6856.5517   -6699.3603   -6856.5517            0    7804.6797    22.925263    21.129229    21.545567    10436.525    8186.1781    8667.1816    6560.6795   -403.92094    117.75716   -17.291939   -5511.4411 
 4437000    58.358114   -6854.3018   -6704.1791   -6854.3018            0    9250.9007    23.077525    21.179612    21.191948    10358.053     7896.271    10227.773    9628.6579    560.14551    -9.022286   -675.34251   -5306.7234 
 4438000    61.046834   -6853.5167   -6696.4774   -6853.5167            0    8705.1074    22.962038    21.185066    21.380047    10400.373    8680.8236    8629.7347    8804.7638   -100.01173     311.2882   -249.09041   -5376.0974 
 4439000    57.496956   -6860.1328   -6712.2254   -6860.1328            0     8647.707    23.056868    21.114491    21.376555    10406.835    8251.8837    9878.2124     7813.025   -325.39777    768.62494   -451.99814   -5399.7369 
 4440000    63.565581   -6852.1156    -6688.597   -6852.1156            0    8716.9405    23.067026    21.199067    21.259716    10395.989    8106.8903    8953.0249    9090.9062    369.94509   -75.994076   -76.112095   -5366.9796 
 4441000     60.66933   -6851.9167   -6695.8485   -6851.9167            0    8331.8619    22.958464    21.181248    21.424016    10418.262     9053.122    8045.6238      7896.84   -778.85557    318.83306    396.54801   -5429.9082 
 4442000    61.900982   -6853.9332   -6694.6967   -6853.9332            0    9312.7267    23.113637    21.132262    21.233214    10371.224    9138.4531    9531.8942    9267.8327    196.02488   -86.881627    41.540652   -5286.1126 
 4443000    57.603625   -6851.3436   -6703.1618   -6851.3436            0    8848.2345    22.995502    21.124646      21.3975    10394.303    9090.2563    9368.8368    8085.6105   -41.115352   -82.519664    75.669113   -5361.8558 
 4444000    59.768859   -6856.5807   -6702.8289   -6856.5807            0    7886.6563    22.987394    21.245754    21.365994    10434.821    7737.9243    7988.4369    7933.6076    215.81572   -43.053025   -602.40927   -5502.6285 
 4445000    60.071625   -6849.7521   -6695.2215   -6849.7521            0    8701.1984    23.102512    21.185096    21.255685    10403.147    7770.7783     8747.298    9585.5189   -499.66677    872.42832    136.32469   -5375.0824 
 4446000    59.378728   -6858.5199   -6705.7718   -6858.5199            0     8723.489     22.98279    21.079282    21.487736    10409.964    10416.748    8011.0231     7742.696   -705.76324   -596.62567   -100.34546   -5381.3835 
 4447000    58.407732     -6848.91   -6698.6597     -6848.91            0     9022.086    23.032229     21.20607    21.259809    10383.781    9395.5845    8358.5465     9312.127    65.708403   -917.71962    56.356444   -5332.3839 
 4448000    60.984198   -6854.4489   -6697.5708   -6854.4489            0    8475.6784    22.949881    21.174349    21.408785    10403.573    9529.6844    7722.0091    8175.3418   -501.61332    130.16016    142.34984   -5411.5947 
 4449000    61.250088   -6855.0561    -6697.494   -6855.0561            0    8386.2968    23.009653    21.183361     21.34567    10404.345    8725.1207    8810.1775    7623.5923    348.00293   -226.09835    249.46723   -5424.9851 
 4450000    57.064669   -6849.8476   -6703.0522   -6849.8476            0    8878.1018    23.099082    21.102326    21.299306    10382.226    9047.1549    9362.6116    8224.5389    135.13162   -944.44027    -540.2554   -5358.7822 
 4451000    60.743643   -6855.6926   -6699.4332   -6855.6926            0    8604.2047    22.986506    21.099208    21.438582    10397.649    8759.3165    9473.6572    7579.6404   -264.30758    540.78886   -16.086264   -5394.6999 
 4452000    61.124485   -6861.0413   -6703.8023   -6861.0413            0    8293.8229    23.051154    21.240904    21.260417    10409.682    8184.0527    8396.4889    8300.9271    2.6811664   -64.731488   -384.07998   -5444.6795 
 4453000    58.362565   -6862.7637   -6712.6295   -6862.7637            0    8534.9438    22.983422    21.111476    21.429818    10398.047    9182.6751    8512.0645    7910.0917   -174.72257   -472.28137      385.575   -5418.3493 
 4454000    60.804841   -6860.6458    -6704.229   -6860.6458            0    8846.0668    23.109639    21.111395    21.307961    10395.658    8459.6198    9419.5682    8659.0125    122.73302   -776.51731   -348.26751   -5363.0767 
 4455000    60.556234    -6861.121   -6705.3438    -6861.121            0    8755.5369    23.020003    21.193138    21.300801    10391.939    8942.0532    8672.6062    8651.9513   -150.69738    553.59849   -159.76367   -5378.3917 
 4456000    59.199804    -6863.724   -6711.4361    -6863.724            0    8395.3465    22.913399     21.22125    21.393258    10402.492    8593.8305    8413.4122    8178.7969   -295.79919    353.18014   -464.77959   -5437.7808 
 4457000    59.062378   -6859.3121   -6707.3777   -6859.3121            0    8741.8123     23.04678    21.155966    21.310891    10390.698    8648.0709    8920.6599    8656.7061   -98.203296   -59.937532   -114.37293   -5382.6638 
 4458000    57.387912   -6848.2798   -6700.6529   -6848.2798            0    8522.8526    23.041045    21.102409     21.37773    10394.313    8244.1094    9990.5259    7333.9226    396.40158    18.851635   -41.788861   -5408.6703 
 4459000     60.02578   -6850.3132   -6695.9005   -6850.3132            0    8917.5458    22.970789     21.17654    21.369144    10394.846    8720.6682    9097.5888    8934.3805    149.19426   -108.25913    -133.1028   -5344.0169 
 4460000    60.646005   -6858.8682   -6702.8601   -6858.8682            0    8355.5991    23.006465    21.217394    21.301216    10397.917     8550.457    8271.2223    8245.1181     49.16804   -245.45551   -251.77042   -5435.7924 
 4461000    60.360598   -6851.0975   -6695.8235   -6851.0975            0    8809.1682    23.035437     21.15495    21.333578     10396.14    8967.8695    9092.5646    8367.0706   -103.28353    298.26001   -31.566364   -5360.2034 
 4462000    58.114456   -6853.7006   -6704.2047   -6853.7006            0    9074.9433    23.007438    21.149831    21.361348    10394.505    9764.5483    9354.3644    8105.9171    83.333117    -1082.882   -641.75789    -5328.505 
 4463000    58.725137    -6852.385   -6701.3182    -6852.385            0    8877.1827    23.064419    21.160353    21.282794    10387.094    8206.4732    8934.6452    9490.4298   -530.52453    379.93055    337.14587   -5356.5571 
 4464000    60.542962   -6859.2119   -6703.4688   -6859.2119            0    8800.8211    23.009378    21.112495     21.42029    10405.663    8729.0163    9220.5566    8452.8905   -481.68497    890.24248   -580.85447    -5367.892 
 4465000    58.877927   -6864.2759    -6712.816   -6864.2759            0    8030.3395    23.099263    21.151771    21.317008    10415.284    7671.2626     8245.564    8174.1919     -199.496    518.45056   -147.08401   -5493.0377 
 4466000    60.266327   -6856.0945   -6701.0631   -6856.0945            0    9006.4099    23.009383     21.17871    21.301756    10380.538     9081.384    9017.2332    8920.6126    308.56245    26.620091   -105.11814   -5337.5871 
 4467000    59.262487   -6859.1916   -6706.7424   -6859.1916            0    7700.3257    23.032568    21.165757     21.42227    10443.394    7710.5758     7653.691    7736.7103    25.065401   -528.27528   -403.49887   -5533.9352 
 4468000    62.037401   -6854.9928   -6695.4054   -6854.9928            0    9004.9716    23.061042    21.151417    21.293724    10386.519    8263.0599    9117.1873    9634.6677   -205.21964    336.76909    984.05769   -5331.3618 
 4469000    58.401696   -6856.0969   -6705.8621   -6856.0969            0    8357.9396    22.986701      21.1897    21.394863    10421.038    8394.3991     8641.154    8038.2659   -241.74334   -5.4928836    342.51253   -5435.6212 
 4470000    58.815725   -6861.6811   -6710.3813   -6861.6811            0    8483.5756    23.110369    21.117265    21.288268    10389.266    7827.7513    8627.4637    8995.5118    562.31183    191.85456    711.75707   -5424.9772 
 4471000     60.55414   -6862.2446   -6706.4727   -6862.2446            0    8345.3969     23.04166    21.135119    21.371108    10407.478    8408.2943    8418.6882    8209.2081    -610.4221    522.83713    14.592584   -5439.7885 
 4472000    59.419206   -6862.0414   -6709.1891   -6862.0414            0    8015.2193    23.022283    21.205806     21.34457    10420.549    8087.8083    7359.0318    8598.8178   -54.106882    -563.0836    87.286343    -5491.092 
 4473000     58.86484   -6856.1532    -6704.727   -6856.1532            0    8603.4514    23.025338    21.206819    21.276952    10389.411     8634.017    8544.4346    8631.9026    418.11152   -234.27696    221.63892   -5401.1414 
 4474000    62.900496   -6856.3351   -6694.5275   -6856.3351            0    8798.2323    23.027226    21.151883    21.338477    10393.315    8888.8813    8969.4466    8536.3689   -507.92444    417.07582    39.202366   -5360.9281 
 4475000    57.192576    -6854.611   -6707.4866    -6854.611            0     8065.764    23.024587    21.149122    21.408356    10424.795     8363.319    7926.7823    7907.1907   -201.33589   -230.00487   -167.33365   -5481.2087 
 4476000    61.829624   -6859.9431   -6700.8901   -6859.9431            0    8861.4611     23.07808    21.133643    21.279873    10378.703    8448.2701    8907.4133       9228.7   -135.90369   -413.59603   -59.441777   -5359.5952 
 4477000    61.982646   -6849.7011   -6690.2545   -6849.7011            0    8585.6165    22.990307    21.143532    21.398285    10401.627    8192.3422    9215.2477    8349.2595   -419.08634    481.39808   -91.136823   -5387.8416 
 4478000    61.946648   -6847.1758   -6687.8219   -6847.1758            0    9210.3032    22.967217    21.166004    21.342236    10374.977    9677.2205    9293.1092    8660.5799    839.94637    492.08271    -287.6659   -5294.2256 
 4479000    61.366769   -6856.5184   -6698.6562   -6856.5184            0    8425.7767     23.08894     21.16799    21.282594    10401.792    8131.8197    8431.2955    8714.2148     19.43193    520.56041   -202.66863   -5420.4703 
 4480000    62.984354   -6856.7184    -6694.695   -6856.7184            0    8096.9015    23.150145    21.027328    21.386888    10410.831    7725.6461     8643.394    7921.6642    643.13184   -673.95267   -92.290499   -5465.3321 
 4481000    61.381918   -6855.9348   -6698.0335   -6855.9348            0    7979.5056    23.020397    21.183285    21.398864    10435.105    8077.9931     8380.803    7479.7206    493.76787   -30.901681     10.94985     -5483.67 
 4482000    60.949573   -6850.7032   -6693.9141   -6850.7032            0    9347.7211    22.981592    21.234458    21.254057    10372.015    10175.742    8319.3289    9548.0923     15.96021    577.65535     86.06623   -5279.9292 
 4483000    61.469298   -6864.5042   -6706.3782   -6864.5042            0    8802.6132    23.061136    21.092943    21.369668    10394.788    9176.7389    8671.5226    8559.5782   -187.43586    188.63451   -180.70578   -5371.9256 
 4484000    59.587854   -6859.8593   -6706.5732   -6859.8593            0    7812.8874    23.021116     21.16051    21.423749    10436.334    8007.7273    8103.3312    7327.6036   -90.311117    285.73985   -320.97272   -5517.4265 
 4485000    60.080704   -6853.9753   -6699.4213   -6853.9753            0    9105.2214    23.027281    21.177243    21.272404     10373.58    8904.3665    8987.3553    9423.9423   -34.456949    285.36243    873.51147   -5321.9104 
 4486000    59.162228   -6856.9493   -6704.7581   -6856.9493            0    8697.3612    23.004303    21.134201     21.39035    10399.508    8892.9976     8342.473     8856.613    251.98558   -811.33921   -195.94305   -5385.6628 
 4487000    59.072778   -6857.3866   -6705.4255   -6857.3866            0    8300.6202    23.065657    21.115732     21.35435    10400.598    7915.4779    8357.8023    8628.5805   -291.93604   -354.30024    767.17998   -5446.3703 
 4488000    61.695473   -6851.8884   -6693.1806   -6851.8884            0    8909.3284    23.044835    21.175983    21.283705    10386.385    9443.7414    8713.3817    8570.8622   -320.85091    -62.14143    237.56212   -5343.6422 
 4489000    61.029511   -6862.7009   -6705.7062   -6862.7009            0    8250.5451    23.035082    21.176328    21.354718    10416.799    8235.0972    7931.5421     8584.996    358.62422   -135.76056    203.37441   -5452.2972 
 4490000    61.455797   -6856.3721   -6698.2808   -6856.3721            0    8518.5258    23.043229    21.080939    21.402975    10396.985     8160.977    8766.2768    8628.3238    14.794124    813.39764   -51.449503   -5406.6221 
 4491000    60.768886    -6862.759   -6706.4347    -6862.759            0    8389.0747    23.053871    21.180761    21.323952    10412.455     8119.185    8427.2435    8620.7957    392.49298    66.750185   -223.00952    -5432.512 
 4492000    59.523231   -6857.7047   -6704.5848   -6857.7047            0    8418.1298    22.959302    21.239726    21.332003    10402.536    8538.5081    8457.5917    8258.2894    412.05603   -177.98104    67.149409   -5427.4677 
 4493000    61.036077   -6852.0843   -6695.0727   -6852.0843            0    9196.6754    23.068603    21.130723    21.297916    10381.802    8897.3007    9580.7807    9111.9449    292.19784   -319.76856    348.42621   -5302.6231 
 4494000    61.283244   -6861.1545   -6703.5071   -6861.1545            0    8317.2052    23.098042    21.148836    21.319535    10414.522    8215.1675    8280.6217    8455.8263   -624.77822    386.49863    92.062384   -5440.2473 
 4495000    61.695008   -6850.0294   -6691.3227   -6850.0294            0      8765.29    22.942616    21.198706    21.392165     10404.16    9852.5343    8468.5729    7974.7629    777.68417   -113.92088   -59.559769   -5361.3302 
 4496000    57.397793   -6848.1493    -6700.497   -6848.1493            0    8850.5128    22.991337    21.251534    21.236759    10376.306    9056.5685    8656.9267    8838.0433    85.158787     597.2974   -704.69771   -5361.1686 
 4497000    61.547162   -6857.6741   -6699.3478   -6857.6741            0    9286.7121    23.044426    21.082071    21.363011    10378.669    9819.0491    9014.4049    9026.6823   -840.37832    -389.7667   -373.58123   -5293.6903 
 4498000    60.422491   -6856.1231   -6700.6899   -6856.1231            0    8268.5636    23.122295    21.050342      21.3915    10411.932    8244.9947    8185.5808    8375.1152    147.76613      -373.07    578.94452   -5445.1304 
 4499000    58.019645   -6855.4438   -6706.1918   -6855.4438            0    8178.8882    23.030265    21.248898    21.289105    10418.202    8128.6708    8173.1736    8234.8202    901.85738   -219.04422   -140.82625   -5463.5015 
 4500000    64.635945   -6857.8423   -6691.5703   -6857.8423            0     8425.968    23.004181    21.198573     21.36238    10417.489    8503.9545    8542.6971    8231.2523   -370.84227    248.95006   -30.908424   -5411.4265 
Loop time of 654.451 on 64 procs for 250000 steps with 1296 atoms

Performance: 66.010 ns/day, 0.364 hours/ns, 382.000 timesteps/s
194.2% CPU use with 32 MPI tasks x 2 OpenMP threads

MPI task timing breakdown:
Section |  min time  |  avg time  |  max time  |%varavg| %total
---------------------------------------------------------------
Pair    | 37.382     | 49.762     | 63.325     |  96.7 |  7.60
Bond    | 0.8674     | 1.1048     | 1.6891     |  20.0 |  0.17
Kspace  | 337.37     | 353.2      | 366.81     |  40.3 | 53.97
Neigh   | 0.38958    | 0.41532    | 0.43832    |   1.9 |  0.06
Comm    | 92.988     | 98.711     | 103.32     |  25.8 | 15.08
Output  | 0.57195    | 0.57225    | 0.57401    |   0.0 |  0.09
Modify  | 121.41     | 124.95     | 127.78     |  14.3 | 19.09
Other   |            | 25.74      |            |       |  3.93

Nlocal:        40.5000 ave          50 max          27 min
Histogram: 2 0 0 4 2 7 10 2 1 4
Nghost:        3191.88 ave        3226 max        3167 min
Histogram: 4 2 7 4 5 2 1 3 2 2
Neighs:        13411.3 ave       16522 max        8943 min
Histogram: 2 0 0 3 3 7 8 4 1 4

Total # of neighbors = 429161
Ave neighs/atom = 331.14275
Ave special neighs/atom = 2.0000000
Neighbor list builds = 706
Dangerous builds = 0

unfix		3
unfix		2
unfix		1

write_data	data.final.${pid}
write_data	data.final.0
System init for write_data ...
PPPM initialization ...
  extracting TIP4P info from pair style
  using 12-bit tables for long-range coulomb (../kspace.cpp:340)
  G vector (1/distance) = 0.37007088
  grid = 30 40 32
  stencil order = 5
  estimated absolute RMS force accuracy = 0.0039859572
  estimated relative force accuracy = 1.2003592e-05
  using double precision FFTW3
  3d grid and FFT values/proc = 7752 1200
Last active /omp style is kspace_style pppm/tip4p/omp
WARNING: Not all mixed pair coeffs generated from mixing. Use write_data with 'pair ij' option to store all pair coeffs. (../write_data.cpp:312)

write_restart   restart.lmp.${pid}
write_restart   restart.lmp.0
System init for write_restart ...
PPPM initialization ...
  extracting TIP4P info from pair style
  using 12-bit tables for long-range coulomb (../kspace.cpp:340)
  G vector (1/distance) = 0.37007088
  grid = 30 40 32
  stencil order = 5
  estimated absolute RMS force accuracy = 0.0039859572
  estimated relative force accuracy = 1.2003592e-05
  using double precision FFTW3
  3d grid and FFT values/proc = 7752 1200
Last active /omp style is kspace_style pppm/tip4p/omp
Total wall time: 0:10:54
