#include		in.partitions
include		in.temp
variable        temperature equal 185.10
variable	tempDamp equal 100.0
include		in.pressure
variable        pressure equal 2087.5
variable        pressureDamp equal 1000.0 # This is 1 ps
include		in.seed
variable        seed equal 745823

units		real
atom_style	full
box tilt large
read_restart	restart.lmp.${pid}
read_restart	restart.lmp.0
Reading restart file ...
  restart file = 30 Jul 2021, LAMMPS = 30 Jul 2021
  restoring atom style full from restart
  triclinic box = (-10.572711 -9.3020064 -0.072455308) to (12.552711 12.292004 21.932454) with tilt (-9.0803428 1.6385532 2.9519258)
  2 by 4 by 4 MPI processor grid
  restoring pair style lj/cut/tip4p/long/omp from restart
  restoring bond style harmonic/omp from restart
  restoring angle style harmonic/omp from restart
  1296 atoms
  864 bonds
  432 angles
Finding 1-2 1-3 1-4 neighbors ...
  special bond factors lj:    0        0        0       
  special bond factors coul:  0        0        0       
     2 = max # of 1-2 neighbors
     1 = max # of 1-3 neighbors
     1 = max # of 1-4 neighbors
     2 = max # of special neighbors
  special bonds CPU = 0.002 seconds
  read_restart CPU = 0.007 seconds
include 	in.setup
variable	out_freq equal 1000
variable	out_freq2 equal 10000
variable	out_freq3 equal 1000

timestep	2.0

neigh_modify    delay 7 every 1

include		in.tip4p
# This is TIP4P/Ice

# create groups ###
group ox type 2
432 atoms in group ox
group hy type 1
864 atoms in group hy

# set charges - beside manually ###
set group ox charge -1.1794
Setting atom values ...
  432 settings made for charge
set group hy charge 0.5897
Setting atom values ...
  864 settings made for charge

# ### TIP3P Potential Parameters ###
pair_style lj/cut/tip4p/long/omp 2 1 1 1 0.1577 8.5
pair_coeff 1 1*2 0.000 0.000
pair_coeff 2 2 0.21084 3.1668
bond_style  harmonic
bond_coeff  1 450 0.9572
angle_style harmonic
angle_coeff 1 55 104.52
kspace_style pppm/tip4p/omp 1.0e-5
pair_modify tail yes

thermo          ${out_freq}
thermo          1000
thermo_style    custom step temp pe etotal epair emol press lx ly lz vol pxx pyy pzz pxy pxz pyz enthalpy

restart 	${out_freq3} restart.lmp.${pid} restart2.lmp.${pid}
restart 	1000 restart.lmp.${pid} restart2.lmp.${pid}
restart 	1000 restart.lmp.0 restart2.lmp.${pid}
restart 	1000 restart.lmp.0 restart2.lmp.0


include         in.dump
dump            myDump all atom ${out_freq2} dump.water.${pid}
dump            myDump all atom 10000 dump.water.${pid}
dump            myDump all atom 10000 dump.water.0
dump            myDump2 all dcd ${out_freq2} dump.dcd
dump            myDump2 all dcd 10000 dump.dcd
dump_modify     myDump append yes
dump_modify     myDump2 append yes


variable natoms 	equal  "count(all)"                        # NUMBER ATOMS
variable H      	equal  "enthalpy/v_natoms"                 # ENTHALPY-per-atom
variable Vol      	equal  "vol/v_natoms"                 # volume-per-atom
fix AVG all 		ave/time ${out_freq} 1 ${out_freq} v_Vol v_H file vol_enthalpy.dat
fix AVG all 		ave/time 1000 1 ${out_freq} v_Vol v_H file vol_enthalpy.dat
fix AVG all 		ave/time 1000 1 1000 v_Vol v_H file vol_enthalpy.dat


timer           timeout 10:00:00 every 1000
New timer settings: style=normal  mode=nosync  timeout=10:00:00

fix 		1 all shake 1e-6 200 0 b 1 a 1
       0 = # of size 2 clusters
       0 = # of size 3 clusters
       0 = # of size 4 clusters
     432 = # of frozen angles
  find clusters CPU = 0.001 seconds
fix             2 all nph tri ${pressure} ${pressure} ${pressureDamp}
fix             2 all nph tri 2087.5 ${pressure} ${pressureDamp}
fix             2 all nph tri 2087.5 2087.5 ${pressureDamp}
fix             2 all nph tri 2087.5 2087.5 1000
fix             3 all temp/csvr ${temperature} ${temperature} ${tempDamp} ${seed}
fix             3 all temp/csvr 185.1 ${temperature} ${tempDamp} ${seed}
fix             3 all temp/csvr 185.1 185.1 ${tempDamp} ${seed}
fix             3 all temp/csvr 185.1 185.1 100 ${seed}
fix             3 all temp/csvr 185.1 185.1 100 745823


run             250000
PPPM initialization ...
  extracting TIP4P info from pair style
  using 12-bit tables for long-range coulomb (../kspace.cpp:340)
  G vector (1/distance) = 0.36706487
  grid = 30 40 32
  stencil order = 5
  estimated absolute RMS force accuracy = 0.0045538735
  estimated relative force accuracy = 1.3713855e-05
  using double precision FFTW3
  3d grid and FFT values/proc = 7752 1200
Last active /omp style is kspace_style pppm/tip4p/omp
Neighbor list info ...
  update every 1 steps, delay 7 steps, check yes
  max neighbors/atom: 2000, page size: 100000
  master list distance cutoff = 10.8154
  ghost atom cutoff = 10.8154
  binsize = 5.4077, bins = 7 5 5
  1 neighbor lists, perpetual/occasional/extra = 1 0 0
  (1) pair lj/cut/tip4p/long/omp, perpetual
      attributes: half, newton on, omp
      pair build: half/bin/newton/tri/omp
      stencil: half/bin/3d/tri
      bin: standard
Per MPI rank memory allocation (min/avg/max) = 10.64 | 10.65 | 10.65 Mbytes
Step Temp PotEng TotEng E_pair E_mol Press Lx Ly Lz Volume Pxx Pyy Pzz Pxy Pxz Pyz Enthalpy 
11000000    195.83805   -6487.3083   -5983.5269   -6487.3083            0    1496.1922    23.125423    21.594011     22.00491    10988.606    3698.2908     76.47747    713.80847   -660.70242    1290.4289    879.34733   -5743.7508 
11001000    183.45149   -6508.2055   -6036.2877   -6508.2055            0    766.46252    23.431327    21.399973    21.939622     11001.18     610.8377    1573.8013    114.74858    328.63904   -1776.0592   -1186.6987   -5913.3158 
11002000    188.46148   -6514.5173   -6029.7116   -6514.5173            0    2642.9044    23.301685    21.445561    21.872002    10929.827    3107.7325    2637.4542    2183.5265   -346.61632   -206.49351   -60.219489   -5608.4319 
11003000     185.0691   -6515.2627   -6039.1837   -6515.2627            0    3079.8765     23.26453    21.454001    21.875051    10918.215     2395.535    3117.6504    3726.4441    606.61666    407.05811    42.286535    -5548.772 
11004000    177.19589   -6521.8673   -6066.0416   -6521.8673            0    1094.5697    23.461708    21.459615    21.856735    11004.412    1507.9189    448.62012      1327.17   -1533.1831    127.25843   -275.28621   -5890.3763 
11005000    190.26194   -6527.4371   -6037.9998   -6527.4371            0    1318.8396    23.168388    21.592297     21.94957    10980.464    2005.5382    1412.0895    538.89098   -687.20176    1255.9279    269.59303   -5826.8025 
11006000      187.102   -6503.5482   -6022.2397   -6503.5482            0    2456.6413    23.355565    21.398239    21.854954    10922.406     1694.124    3564.6896    2111.1103    357.67646    111.59432   -1148.6211   -5630.9162 
11007000    184.26146   -6521.2698   -6047.2685   -6521.2698            0    1838.2829    23.392556    21.420394    21.871891    10959.518    1733.3084    2888.8938     892.6464   -768.14126   -933.12868   -686.70632   -5753.4496 
11008000     184.3181   -6503.4485   -6029.3014   -6503.4485            0    465.46365     23.19424    21.603804    22.038934    11043.353    1984.8183    43.773268    -632.2006   -278.29724   -1016.6285   -172.19014   -5954.3357 
11009000    191.65954   -6497.2988   -6004.2663   -6497.2988            0    1077.9178     23.35981    21.452415    21.930888    10990.101    1752.3349    1178.4669    302.95153   -430.34054    149.94377   -329.94808   -5831.4983 
11010000    187.33405   -6511.5237   -6029.6182   -6511.5237            0     1952.212    23.404264      21.3228    21.951177    10954.613    2302.8189    2963.0645    590.75267   -43.961076   -323.13293   -1355.7465   -5717.7293 
11011000    188.87158    -6523.688   -6037.8273    -6523.688            0    1278.9834     23.23124    21.600133     21.87371    10976.181    2545.1196    246.57992    1045.2505   -159.28557   -504.08244      580.854   -5833.0923 
11012000    184.89093     -6478.73   -6003.1093     -6478.73            0    2247.5767    23.401534    21.421333    21.921418    10989.032    3183.9294    2016.7441    1542.0566   -1038.7209   -744.31455   -507.58734   -5642.9042 
11013000    189.53631   -6506.6259   -6019.0552   -6506.6259            0    1923.0005    23.372414     21.31106    22.016404    10966.171    1600.3957    2717.5389    1451.0669    1305.5839   -385.71711    977.51063   -5711.5091 
11014000    180.68864   -6519.9566   -6055.1461   -6519.9566            0    2448.9918    23.263964    21.569833    21.804599    10941.544    3567.8194    1587.3216    2191.8344    208.77369    642.60719    192.44505   -5664.3575 
11015000    185.89696   -6508.0672   -6029.8586   -6508.0672            0    2903.3592    23.403521    21.342406    21.839582    10908.597    2949.7586    2503.2841    3257.0349   -1306.5682    1380.7034    422.40476   -5567.9612 
11016000    184.50295   -6515.2526     -6040.63   -6515.2526            0    2424.4332    23.349585    21.490568    21.758918    10918.535    3054.0538    2279.6303    1939.6154    619.60564   -249.42596    1190.4907   -5654.5738 
11017000    185.64026   -6509.3533   -6031.8051   -6509.3533            0    1817.1623    23.355548    21.562813    21.783876    10970.607    365.40922    3152.7515    1933.3261    1244.7726    619.01144    -692.7509   -5741.0681 
11018000    186.73187   -6539.7905   -6059.4341   -6539.7905            0    2835.2371    23.448976    21.331493    21.815794    10912.297    2913.4734    2983.1021    2609.1358    631.42048   -475.30229   -948.33062   -5608.2213 
11019000    189.66221   -6531.6227   -6043.7282   -6531.6227            0    1070.2292    23.244489    21.618528    21.828042    10968.846     2894.363    714.67712   -398.35265   -757.99622   -263.60797   -366.29576   -5872.5243 
11020000    182.11105   -6513.4696        -6045   -6513.4696            0    911.88381    23.300699    21.555437    21.945175    11022.112    1927.6665    635.73225    172.25272    644.10891    71.959939   -823.13886   -5898.4182 
11021000    179.76634   -6517.6628   -6055.2249   -6517.6628            0    2705.0292    23.409243    21.246743    21.963544    10924.011    2968.8779     3688.105    1458.1045   -219.18486    198.18154   -442.98746   -5624.2718 
11022000    193.51111   -6527.4174   -6029.6219   -6527.4174            0     3088.212    23.159465    21.538485    21.830066    10889.269    3543.2891    2301.8778    3419.4692   -447.04742   -54.070271    651.42707   -5539.1866 
11023000    187.72581   -6533.2555   -6050.3423   -6533.2555            0    3208.5639    23.214404    21.546844    21.793606    10901.099    2499.9363    3681.3058    3444.4497    602.23743    666.05231   -470.82408   -5540.2404 
11024000    195.00646   -6485.5736   -5983.9313   -6485.5736            0    1589.4077    23.516306     21.34169    21.959626    11021.047    940.67839    1875.3708     1952.174   -762.81784    465.66523    119.50729   -5728.4648 
11025000    189.67403   -6493.5452   -6005.6204   -6493.5452            0    1640.8685    23.320158    21.583638     21.85722    11001.478    1415.7952    1404.8083     2102.002   -35.917296    658.66439    268.63957   -5742.3507 
11026000    189.82956   -6495.3001   -6006.9751   -6495.3001            0    3230.8297    23.273467    21.495363    21.782696    10897.265    3492.3805    2465.2103    3734.8982    524.38126    156.34231    -315.0346   -5493.5141 
11027000    186.59918   -6504.4373   -6024.4223   -6504.4373            0    1547.5846    23.539243    21.330316    21.886183    10989.041    1255.0118    1979.3815    1408.3606    168.09393   -34.064004   -392.90538   -5776.4003 
11028000    176.15876   -6510.8027   -6057.6451   -6510.8027            0     2282.391    23.220424    21.652396    21.783096    10952.058    2185.0437    2690.5033    1971.6259    103.16152    1.5812267    45.787552   -5693.0913 
11029000    183.53537    -6522.861   -6050.7275    -6522.861            0    2586.8625     23.29328    21.500354    21.797893    10916.685    2849.3368    2149.3349    2761.9158    293.43284   -504.96347   -698.46444   -5638.8766 
11030000    189.19572   -6491.5394   -6004.8449   -6491.5394            0    1581.9037    23.447842    21.338521    21.945973    10980.498    1572.1158    2410.9861    762.60934    448.22866    475.66323   -1012.3941     -5751.52 
11031000    186.08683   -6491.6796   -6012.9826   -6491.6796            0    959.13691     23.18649    21.660237     21.89795    10997.695    1333.2802    1603.2858   -59.155253   -98.512533   -788.78304   -900.15838   -5859.1465 
11032000     185.3815   -6501.5609   -6024.6783   -6501.5609            0    602.77048    23.328064    21.462908    22.043959    11037.148    1347.5183    741.50296   -280.70983   -3.3944888   -280.36214    304.70642    -5927.653 
11033000    190.99111   -6527.7105   -6036.3975   -6527.7105            0    1523.6546    23.360976    21.420943    21.939955    10979.063    1748.6458     2453.794     368.5241    1301.7667   -14.625367    340.77308   -5792.4324 
11034000    182.54867   -6518.3657   -6048.7703   -6518.3657            0    2632.4125    23.277506    21.500118    21.831548    10926.015    1834.5817    3087.0518    2975.6041   -61.896494   -303.03337   -813.47678   -5629.3093 
11035000     176.2329   -6513.0877   -6059.7394   -6513.0877            0     1148.812    23.347841    21.490326    21.932541    11004.712    1506.9611     1890.734    48.740897    442.26222   -318.90501   -604.22653   -5875.3637 
11036000     188.5774   -6533.3811   -6048.2772   -6533.3811            0    1663.4213    23.144376    21.587214    21.911573    10947.517    2942.5696    1689.7183    357.97585     237.6533    21.962734   -244.35423   -5782.6982 
11037000    193.81259   -6526.9739   -6028.4028   -6526.9739            0    2345.3725    23.373793    21.369333     21.87767    10927.511    2127.3568    2728.5431    2180.2178   -258.93918   -299.63125   -103.95979   -5654.6289 
11038000    184.41789   -6513.6599   -6039.2561   -6513.6599            0    1118.9355    23.433983     21.44304      21.8609    10985.011    934.58874     1914.299    507.91866    460.47298   -368.01683    69.812568    -5859.997 
11039000    183.89213    -6505.916   -6032.8647    -6505.916            0    857.48261    23.238858    21.646314    21.883556    11008.208     1358.254    447.56775    766.62602   -1192.5644    1112.2107    -294.4763   -5895.2016 
11040000    178.81412   -6506.9526   -6046.9641   -6506.9526            0     2541.029    23.325188    21.340823    21.952507     10927.49    3089.8549    2482.6725    2050.5594    505.63862   -80.533722    597.82709   -5642.0099 
11041000    183.84688   -6523.8779    -6050.943   -6523.8779            0    2031.7478    23.312869    21.369902    22.005183    10962.844    2478.9223    3280.5901    335.73117    124.12536   -104.90017   -419.11827   -5726.1034 
11042000     177.8749   -6499.3605   -6041.7881   -6499.3605            0    659.15613    23.283766     21.65575    21.871141    11028.029    1157.3484    573.72291    246.39712    202.26207     41.35328   -624.89073   -5935.7744 
11043000    180.81678   -6488.6995   -6023.5594   -6488.6995            0    1259.5712     23.45753    21.386793    21.960144    11016.994    1669.2876    1718.9852     390.4408   -738.61147    -940.8214    -98.72921   -5821.1821 
11044000    181.43641   -6493.1259   -6026.3918   -6493.1259            0    3022.1245    23.319523    21.406899    21.850014    10907.498    3967.5019     2232.968    2865.9038   -1365.4284    875.62863    88.729485   -5545.6483 
11045000     174.6506     -6532.55    -6083.272     -6532.55            0    1234.5145    23.126337    21.639185    21.946731    10982.914    2785.3837    -117.6817    1035.8414   -853.65894    531.86355    159.37444   -5885.5342 
11046000    183.14063     -6502.52   -6031.4019     -6502.52            0    2342.1684    23.486854    21.328502    21.854524    10947.792    2391.4275    2930.7537    1704.3241    54.099166   -608.44532    755.09629   -5657.4458 
11047000    185.67284   -6534.5788   -6056.9468   -6534.5788            0    2596.5696    23.349002    21.492053    21.778643    10928.915    3809.5642    1976.1993    2003.9453    343.17267   -593.30446   -6.3614308   -5643.0873 
11048000    181.15512   -6490.1775    -6024.167   -6490.1775            0    1089.9391    23.245917    21.711726    21.835095    11020.369    1135.0127    1157.2412    977.56343    1304.9873     159.6935   -429.79179   -5848.9911 
11049000    188.65562   -6499.8622   -6014.5571   -6499.8622            0     1520.595    23.466558    21.430137    21.838412    10982.353   -133.70346    2399.5707    2295.9176   -317.51573   -234.02234     888.5898   -5771.0089 
11050000    188.41353   -6517.5265   -6032.8442   -6517.5265            0    2600.3094    23.342924      21.4667    21.784961    10916.347    2726.6971    835.35852    4238.8725     191.9431    629.76402    1417.4341   -5618.8653 
11051000    187.18379    -6498.783   -6017.2641    -6498.783            0    1439.0368     23.33722    21.562416    21.822621    10981.292    1061.2362    2425.1805    830.69362    1158.6404    8.0698406   -980.31358   -5786.8011 
11052000     180.5804   -6524.4022   -6059.8701   -6524.4022            0    1910.0132    23.439512    21.379876     21.84922    10949.384    1785.5815    2532.1112     1412.347   -783.04626   -330.66545    975.72828   -5754.8686 
11053000    187.32064   -6533.0222   -6051.1512   -6533.0222            0    2240.2827    23.355395     21.40664    21.864973    10931.623    1621.8455     2481.742    2617.2607    674.20753    -442.5405    298.55458   -5693.9908 
11054000    184.04996    -6496.218   -6022.7607    -6496.218            0    1673.7578    23.327458    21.491978     21.91145    10985.376    2131.6261    1611.1165    1278.5308    468.38531    85.095002   -59.122288   -5754.6072 
11055000    183.83764   -6496.9013   -6023.9902   -6496.9013            0    2793.2298    23.246697    21.406683     21.92014    10908.221    2986.2372    3673.7719    1719.6801   -145.28759    275.05957   -108.70519   -5579.6286 
11056000     189.7725   -6502.4486   -6014.2704   -6502.4486            0    935.88584    23.410222    21.524538     21.86905    11019.688    1019.9446    698.62511    1089.0878   -504.61545   -578.47629    429.80095   -5863.8634 
11057000    187.99659   -6513.5902   -6029.9804   -6513.5902            0    1955.9077    23.415593    21.526222    21.761309    10968.772    1490.2291    2278.1271    2099.3668    774.29243     1190.868   -890.60696   -5717.0972 
11058000    181.44026   -6505.8693   -6039.1252   -6505.8693            0    3561.0479    23.315234    21.427497    21.835337    10908.653    4173.4408    3944.7284    2564.9745   -164.21463   -160.78139    122.63135   -5472.5927 
11059000    183.17082    -6508.178   -6036.9823    -6508.178            0    2724.8384    23.312598    21.490722    21.833623    10938.745    2973.7125    2889.9557    2310.8469   -592.06483   -52.722675     897.2656   -5602.2878 
11060000    183.04997   -6539.6234   -6068.7385   -6539.6234            0    1282.8692    23.352415    21.509383    21.864824    10982.615    1817.1395    539.66575    1491.8025    836.47956   -72.940294    602.24054   -5863.2611 
11061000    189.09073   -6520.2248   -6033.8005   -6520.2248            0    2946.9055    23.336334    21.453926    21.798564    10913.582    2800.0066    3400.4558    2640.2541   -47.473702   -60.215602   -178.19606    -5564.761 
11062000     187.5165   -6507.9614   -6025.5867   -6507.9614            0    3238.0298    23.244433    21.422202    21.898936    10904.508    2950.1415    3495.3613    3268.5866   -87.019493   -706.25283    739.08248   -5510.6393 
11063000    187.27423   -6482.8469   -6001.0953   -6482.8469            0     2954.079    23.381997     21.38541    21.894533    10948.002    2340.2957    4722.2915    1799.6498    956.89271    1116.1836    595.64868   -5529.4312 
11064000    188.10898   -6531.0403   -6047.1414   -6531.0403            0    2649.4102    23.290654    21.457778    21.839771    10914.768    3430.8635    2096.4677    2420.8993   -690.50328   -96.221042    91.292812   -5625.4064 
11065000     176.8033   -6524.5929   -6069.7772   -6524.5929            0    689.48378    23.298364     21.58792    21.852165    10990.836    1667.4708   -14.225088    415.20566   -894.50337   -1500.7586    230.38709   -5959.2598 
11066000    188.20583   -6490.6159   -6006.4678   -6490.6159            0    2771.8106    23.430037    21.361525    21.837276    10929.586    2320.0118    4344.4335    1650.9864    1021.4006   -205.38779    -920.7396   -5564.6501 
11067000    178.62618   -6529.0001   -6069.4952   -6529.0001            0    3226.9076    23.203071    21.473394    21.824516    10874.036     3104.818    2942.6743    3633.2305   -126.33739    166.06285   -530.09332   -5557.7507 
11068000    177.96206    -6515.331   -6057.5345    -6515.331            0    2044.5684    23.275453    21.533935    21.872413    10962.718    2777.2183    1922.5737    1433.9132    73.881787   -141.54923   -1305.3111   -5730.6489 
11069000    179.06298   -6538.9787     -6078.35   -6538.9787            0    1860.6078    23.389491    21.410515    21.849043    10941.586    1811.6835    2194.4478     1575.692    515.04158    918.35303    307.77392   -5781.4495 
11070000    185.86843   -6521.9038   -6043.7686   -6521.9038            0    1903.2002    23.243268    21.569725    21.850318    10954.677    3043.2642    1153.7182    1512.6183    447.15575   -820.07866    -760.0095   -5739.7082 
11071000    187.32425   -6511.5247   -6029.6445   -6511.5247            0    2394.6162    23.346778    21.438879      21.8093    10916.182     2049.506    3767.3247     1367.018   -840.25006   -548.51258   -174.15106   -5648.4184 
11072000    193.03213   -6488.8226   -5992.2592   -6488.8226            0    2448.2595    23.453862    21.350779    21.851443     10942.29    1767.7434    3016.6408    2560.3941    694.29662    184.77594    269.43467   -5601.5609 
11073000    183.46687     -6531.14   -6059.1827     -6531.14            0    1073.7081    23.257029    21.627109    21.812127    10971.114    1346.8363    922.23796    952.04987   -310.83585   -537.84614   -518.03719   -5887.3868 
11074000    189.25395   -6526.8226   -6039.9783   -6526.8226            0    1883.2855    23.366886    21.495567    21.738099     10918.71    1942.3847    1701.9192    2005.5527   -383.24241   -353.76395    181.75499   -5740.0874 
11075000    187.43496   -6524.0723   -6041.9073   -6524.0723            0    1888.1616    23.497887    21.384987    21.748673    10928.752    1560.7637    1687.8735    2415.8475   -851.68189    965.59518    985.79447   -5740.9633 
11076000    184.54563   -6513.8081   -6039.0757   -6513.8081            0      1847.48    23.399135    21.598108    21.669748    10951.393    1790.8408    751.14821    3000.4511    580.11094   -234.79018    357.37068   -5744.0058 
11077000    179.91844   -6517.3801   -6054.5509   -6517.3801            0    2592.8181    23.424964    21.528979    21.622184    10904.404    2216.3289     2536.658    3025.4673    400.31884   -1372.0369    1.7839957   -5642.2162 
11078000    189.68528   -6490.3487   -6002.3949   -6490.3487            0    2021.5877    23.617488    21.395095    21.688184    10959.005    887.25447    1415.0359    3762.4727    830.33858    255.56751    823.84729   -5679.2929 
11079000     182.2187   -6525.2559   -6056.5094   -6525.2559            0    2233.8734    23.335969    21.616439    21.711825    10952.325    3204.2906    1134.9731    2362.3565   -424.03827    1046.0809     554.8424   -5699.6963 
11080000    183.77198   -6481.1729   -6008.4306   -6481.1729            0    1704.0566    23.422242    21.515459    21.825246    10998.621    2406.3349    1896.9812    808.85372    -669.5408   -468.30835    113.13509   -5735.0938 
11081000    176.53204   -6507.3221   -6053.2042   -6507.3221            0    1788.9666    23.482459    21.380537    21.780581    10935.324    1339.5002    2435.4081    1591.9914    349.55646    294.12212   -510.79151   -5767.8989 
11082000    186.52416   -6526.8715   -6047.0495   -6526.8715            0    944.01641    23.360684    21.619726    21.794444    11007.319    629.25576    825.63733    1377.1561    324.43949    378.83355   -108.10151   -5895.5061 
11083000    187.94093   -6523.1022   -6039.6357   -6523.1022            0    2452.7236    23.343549    21.449036    21.776965    10903.652    3450.1656     2021.875      1886.13   -220.96026   -544.00008    112.77571    -5649.607 
11084000    188.06296   -6486.7341   -6002.9536   -6486.7341            0    2715.3006    23.541045    21.323996    21.788044    10937.361    2770.1618    3242.1175    2133.6225    356.87087   -204.26257    392.60493   -5569.8354 
11085000    186.41518   -6528.4448   -6048.9031   -6528.4448            0     2087.337    23.382082    21.617674    21.694327    10965.749    1904.1371    1546.4301    2811.4438    23.885317    -140.5539   -279.92412   -5715.0874 
11086000    185.03676   -6521.5709   -6045.5752   -6521.5709            0    2311.9795    23.335566    21.489179    21.778382    10921.034    2930.7931    1620.6458    2384.4996    12.903525    78.188513    919.84392   -5677.3414 
11087000     191.8618   -6554.8536   -6061.3008   -6554.8536            0    3065.4624    23.483709    21.310153    21.721633    10870.406    2833.4435    2469.4221    3893.5215    189.99838   -1536.7282     1134.884   -5575.3217 
11088000    186.21314   -6508.5412   -6029.5192   -6508.5412            0    1165.0198    23.413941    21.581774    21.757047    10994.149    1131.6761    127.60578    2235.7776    419.96675   -323.04257   -52.651433   -5842.7218 
11089000    176.55675   -6527.0233   -6072.8418   -6527.0233            0    2823.1482    23.288815    21.513358    21.730865    10887.611    2892.7157    2561.8191    3014.9099   -1285.6072    670.80716   -74.012587   -5624.5692 
11090000    181.86076   -6522.5661   -6054.7404   -6522.5661            0    3098.3092    23.528947    21.363735    21.689489    10902.573    2214.6214      4253.98    2826.3263    -447.5601   -1065.4464   -435.48199   -5562.1004 
11091000    184.80209   -6535.3793   -6059.9872   -6535.3793            0    861.75197    23.472274    21.521539    21.722859    10973.508    722.75329    669.99933    1192.5033    530.90347    409.39311   -299.96531   -5922.0747 
11092000    182.34507   -6502.5019   -6033.4303   -6502.5019            0    2889.3388    23.312374    21.595019    21.687347    10918.086    2368.8433    2141.5502     4157.623    106.04979    713.31458    1148.7624   -5573.3635 
11093000    185.79566   -6521.3671   -6043.4191   -6521.3671            0    2557.6644    23.511194    21.457549    21.653622    10924.092    1864.3091    1957.9827    3850.7015   -390.63979   -28.073027    265.14033   -5635.9404 
11094000    189.14463   -6515.8971   -6029.3341   -6515.8971            0    894.17952    23.730087    21.387735    21.702388    11014.674   -540.80392    1596.6069    1626.7355    100.06931    183.61198    738.09096   -5885.6951 
11095000    182.39635   -6537.4375   -6068.2341   -6537.4375            0    1994.7274    23.301053    21.754287    21.560393    10928.916    2033.2409    1061.8728    2889.0685   -1267.4863    373.47752   -205.34226   -5750.3004 
11096000    191.25875   -6505.0672   -6013.0657   -6505.0672            0     1880.238    23.423515    21.508531    21.753273    10959.416    1638.6788    1845.1629    2156.8722    276.61913   -666.75253      849.067   -5712.5438 
11097000    190.57791   -6532.0232   -6041.7731   -6532.0232            0     1714.356    23.577567    21.367893    21.688537    10926.749    217.09652    2682.2152    2243.7564    -470.3066    83.313533    22.569872   -5768.5812 
11098000     173.5204   -6515.2473   -6068.8767   -6515.2473            0     2265.902    23.324989    21.657155    21.618582    10920.689    1600.8773    2190.6513    3006.1775    641.46691    381.11082      35.7307   -5707.9931 
11099000    189.50586   -6525.1571   -6037.6648   -6525.1571            0    687.31782    23.439254    21.538842    21.773851    10992.624    657.08207    549.21649    855.65489    1090.6667   -595.85097    181.45018   -5927.4766 
11100000    180.74716   -6514.8864   -6049.9254   -6514.8864            0     2137.146    23.462621    21.406659    21.785736    10942.023    1489.4653    1669.4913    3252.4814    214.26047    320.66954    764.94494   -5708.8835 
11101000    177.97797   -6517.5785    -6059.741   -6517.5785            0    3931.0629    23.235063    21.536337    21.704421    10860.852    4386.7486    3525.1817    3881.2583   -30.770316   -75.047685    -196.7155   -5437.0827 
11102000    186.00367   -6520.7217   -6042.2386   -6520.7217            0    1505.7187    23.334713    21.416886    21.959488    10974.406    1051.8802    2873.0448    592.23102   -638.34663    264.43262    1151.9723   -5801.2477 
11103000    190.01182   -6506.2155   -6017.4216   -6506.2155            0    1828.5395    23.494016    21.431681      21.7587    10955.859    984.71284    2627.0777    1873.8279    757.97491   -1312.0519    148.22715   -5725.2576 
11104000    188.23662   -6525.1036   -6040.8764   -6525.1036            0    1468.6273    23.320797    21.564142    21.799939    10963.036    1587.4761    2116.0753    702.33044    113.18326    333.10093   -253.72811   -5806.0654 
11105000     182.6079   -6497.4353   -6027.6876   -6497.4353            0    1421.6717     23.33753    21.498981    21.913652    10994.805    1112.4598     1431.935    1720.6204    802.54912    1082.1458    1340.8351   -5799.7255 
11106000    182.83444   -6523.8664    -6053.536   -6523.8664            0    1897.2833    23.442528    21.458726    21.815596    10974.265    1893.7138    3290.2241     507.9121   -154.81598   -1592.5135    -1164.311   -5749.8788 
11107000    187.49946   -6530.0975   -6047.7665   -6530.0975            0    1574.1573    23.264813     21.49814    21.895541    10951.059    1894.2961    666.88854    2161.2873    1249.0344    128.67723    1027.4193   -5796.3579 
11108000     182.8871   -6516.6161   -6046.1502   -6516.6161            0    2336.3077    23.361536    21.495582    21.815295    10954.982    2514.6493    3784.8452    709.42861   -484.88005   -656.79217   -1998.9717   -5672.8849 
11109000    180.17279   -6514.0688   -6050.5853   -6514.0688            0    2149.3964    23.466509    21.320341    21.883799     10948.77    2506.8893    2943.4613    997.83858    501.59001   -1214.1238    78.088941    -5707.377 
11110000    181.38861   -6515.9938   -6049.3827   -6515.9938            0    2288.4378    23.198628    21.581996    21.864082    10946.749    2607.9925    1752.6386    2504.6823    38.037895    73.232476    1409.5937   -5684.0402 
11111000    183.33262   -6504.4484   -6032.8365   -6504.4484            0     2538.108    23.249723    21.419525    21.952108    10932.107    3323.1031    3465.5605    825.66044   -168.80494    511.05941   -661.36902   -5628.1769 
11112000    189.60512   -6527.5616   -6039.8139   -6527.5616            0    1489.4316    23.396187     21.41228     21.89759    10969.942    1106.1864    2882.8235    479.28481   -49.878406    721.48037    235.52349   -5801.5267 
11113000    187.54437   -6519.7032   -6037.2567   -6519.7032            0      1415.65    23.324164     21.53263    21.882795    10990.209    3041.3384    476.59424    729.01726    352.52867   -874.23782   -249.18522    -5810.355 
11114000    187.13377   -6512.3517   -6030.9614   -6512.3517            0    2824.9884    23.227556    21.448194    21.893473     10907.09    3654.1686     2293.596    2527.2008    433.63542    -350.6606    329.73294   -5581.5941 
11115000    183.26641   -6508.6098   -6037.1681   -6508.6098            0    1189.2685    23.398035    21.512464    21.865474    11005.973    2111.3961    543.51517     912.8944   -219.30536   -520.76004   -701.10362   -5846.2777 
11116000     189.6646   -6551.7355   -6063.8349   -6551.7355            0    3009.2906    23.044024    21.521712    21.925562    10873.913    4964.6449    2896.7815    1166.4453    536.87633   -743.81494    348.38052   -5586.6069 
11117000    174.57354   -6540.3608    -6091.281   -6540.3608            0    1977.5442    23.369554    21.481008    21.803655    10945.469    2209.5702    2071.7636    1651.2987    717.86921   -267.49037    776.67766   -5775.6087 
11118000    187.43936   -6546.8138   -6064.6375   -6546.8138            0     828.6221    23.499141    21.457911    21.774844    10979.801    34.682867    1506.7649    944.41849   -166.56107    173.77778    -465.4692   -5931.9509 
11119000    184.64797    -6522.948   -6047.9523    -6522.948            0    3154.3326    23.212788    21.551087    21.760285    10885.818    3791.3953    2031.0385    3640.5641   -916.72482    1498.3663    292.15722   -5547.1752 
11120000    190.26156    -6534.812   -6045.3757    -6534.812            0    2351.3097    23.326632    21.413534    21.879624    10928.995    3015.3325     1838.161    2200.4355   -509.95636    723.68269   -228.72721   -5670.6047 
11121000     177.1321   -6499.4519   -6043.7904   -6499.4519            0    2812.1138    23.346042    21.447709    21.818984    10925.183    2511.7646    3335.6804    2588.8963    580.98904   -1331.8252   -205.15271    -5595.729 
11122000    192.34395   -6502.3215   -6007.5284   -6502.3215            0     3058.037    23.321029    21.514883    21.763071    10919.604    3375.3273     2056.262    3742.5216    1428.2161   -586.31304    200.46466   -5520.5323 
11123000    182.01086   -6516.5881   -6048.3763   -6516.5881            0    734.40506    23.520841    21.510221    21.811869    11035.464    350.27512    1598.7859    254.15414    402.98511   -233.19045   -546.63958   -5930.1804 
11124000     184.0636    -6504.434   -6030.9416    -6504.434            0    1915.9232    23.436507    21.345393    21.856618    10934.023     962.1956    2984.2561    1801.3178    1493.2023     366.9171    964.18265   -5725.4256 
11125000    188.19936   -6506.7702   -6022.6388   -6506.7702            0    1813.2547    23.301378    21.574496    21.809328    10963.887    2496.4213    1540.4801    1402.8627   -360.05713    101.44017   -1054.9226   -5732.7047 
11126000    185.61781   -6519.4634   -6041.9729   -6519.4634            0    1579.0795    23.391173    21.441381    21.843829    10955.533    1632.2804     1044.084    2060.8741   -670.61974    659.07305    333.04415   -5789.6751 
11127000    193.22374   -6543.0483    -6045.992   -6543.0483            0     2714.526    23.336069    21.391479    21.868888    10916.796     2082.052    3493.4423    2568.0838    257.79068   -596.00524    297.85371   -5613.8116 
11128000    187.37053   -6520.1331   -6038.1339   -6520.1331            0    1772.1722    23.283031    21.657749    21.771538    10978.473    2611.3654    577.43965    2127.7116    456.76812     6.363056   -1123.2734   -5754.3918 
11129000    191.60731   -6495.6757   -6002.7775   -6495.6757            0     3776.359    23.342001    21.358085    21.857596    10896.895    4635.8355    3970.5225     2722.719   -1076.8435   -484.17584    132.57711   -5402.6384 
11130000    175.94831   -6531.9688   -6079.3525   -6531.9688            0    2551.1576    23.300712    21.489634    21.777003    10904.263    3269.2283     2322.036    2062.2085    -640.5266    496.63936   -333.44851   -5673.6483 
11131000    177.45873   -6527.5154   -6071.0136   -6527.5154            0    2752.3922    23.226222    21.634511    21.745708    10926.956    3392.3136    2715.0636    2149.7995    523.13343   -287.40337   -521.17638   -5632.3966 
11132000    186.96467   -6494.9491   -6013.9939   -6494.9491            0     1786.495    23.513613    21.396175    21.797587    10966.396    296.97361    2925.1798    2137.3317    1189.3528    363.32814    192.12684   -5728.2732 
11133000    183.55325   -6498.8793   -6026.6997   -6498.8793            0    2553.1553    23.315525    21.529459    21.781208    10933.527    2025.3972    2888.1898    2745.8791   -172.67778   -562.19671   -257.86958   -5619.5882 
11134000    176.58772   -6523.8915   -6069.6304   -6523.8915            0    2104.6406    23.298173    21.609544    21.728134     10939.31    3335.6995    1171.8828    1806.3394    984.68154    112.18351   -252.30492   -5733.8589 
11135000    177.55244   -6528.9504   -6072.2075   -6528.9504            0    2853.1748    23.454128    21.374678    21.750478    10904.046    2784.1619    2449.3912    3325.9712    89.576843   -84.824377    -474.0782   -5618.4833 
11136000    191.56961   -6513.8994   -6021.0983   -6513.8994            0    2130.4989    23.345851    21.569084    21.747017     10950.68    2673.6493    1955.5753     1762.272    450.00442   -894.90559    131.11957   -5680.8481 
11137000    185.67219   -6525.9493   -6048.3189   -6525.9493            0    2442.8779    23.343699     21.50184    21.772286    10928.218    2692.8771    1591.8836    3043.8728    561.66321   -457.39038    560.49398   -5658.9807 
11138000    177.14373   -6518.0113   -6062.3198   -6518.0113            0     1173.483     23.44959    21.343369    21.894216    10957.907       1023.7    1762.2153    734.53374   -134.97761    1183.6516   -593.34808   -5874.7857 
11139000    182.06917   -6521.6711   -6053.3093   -6521.6711            0    1515.2065    23.225996    21.569462    21.859056     10950.78    2798.1887    1599.9582    147.47273   -814.75273    -174.0103    65.961038   -5811.3219 
11140000    185.84628   -6518.7157   -6040.6375   -6518.7157            0    2270.4707    23.309435    21.413594    21.916399    10939.325    2772.1432    2860.3798    1178.8891    642.95488   -1855.0599    -311.5369   -5678.4092 
11141000     184.5494   -6528.9404   -6054.1983   -6528.9404            0    2791.7517     23.28533    21.380355     21.94467    10925.124    3627.9973    3616.3147    1130.9431    1393.7753    -406.8642   -884.06417   -5609.3837 
11142000    188.21394   -6525.7095   -6041.5406   -6525.7095            0    2426.8933    23.152054    21.553418    21.918848    10937.634    4218.8025    2449.5705    612.30691   -1162.0606   -302.79438    375.41512   -5654.4167 
11143000    181.66839   -6501.7152   -6034.3843   -6501.7152            0    2155.5525     23.30731    21.363723    21.986599    10947.808     3134.889    2667.7244    664.04424   -1012.6809   -446.84592   -1239.9092   -5690.2233 
11144000    185.20778   -6526.2313   -6049.7956   -6526.2313            0    2901.8748    23.358208    21.421188    21.810942    10913.335    2716.2927    3058.6475    2930.6843    289.30283     170.1342     357.6916   -5587.9338 
11145000      191.502   -6508.9649   -6016.3377   -6508.9649            0    2064.6885     23.16652    21.573914    21.932164    10961.531      3726.44    2548.1219   -80.496356     684.2087   -1390.7269    190.65427    -5686.271 
11146000    177.97604   -6509.7974   -6051.9649   -6509.7974            0    1613.9346    23.431214    21.470267    21.853817    10994.096    968.95501    2318.4052    1554.4435   -625.03335    389.83887    59.886173   -5793.1905 
11147000    178.21721   -6518.5077   -6060.0548   -6518.5077            0    2290.6198    23.378212    21.443554    21.801964    10929.585    3127.9548    1575.1496     2168.755   -438.19326   -135.58848   -97.791276   -5694.9373 
11148000    180.23323   -6522.6511   -6059.0121   -6522.6511            0    3877.3886    23.219066    21.523755    21.713066    10851.354    3286.3384    3794.0832    4551.7441    1550.4627    401.72807   -617.47742   -5445.3926 
11149000    187.92586   -6498.4372   -6015.0093   -6498.4372            0    2708.3864    23.578745    21.416877    21.649232    10932.496    1244.0355    3747.8744    3133.2494    735.42231   -803.78469    4.1709956   -5583.1863 
11150000    184.26934    -6527.708   -6053.6863    -6527.708            0    2112.6717    23.444349    21.448179     21.77885    10951.246     1544.399    2475.5011     2318.115    1027.3588   -487.60394    831.96787   -5716.2658 
11151000    191.20549   -6511.3298   -6019.4653   -6511.3298            0    2435.3206    23.253802    21.578708    21.809051    10943.498    3670.1948    1528.1081    2107.6588   -25.965786   -523.95842   -590.56751   -5630.7889 
11152000    183.09528   -6538.4574    -6067.456   -6538.4574            0    1076.0398    23.479428    21.464167    21.813366    10993.203   -370.30145    1936.3464    1662.0745    116.80798    44.352303      369.241   -5894.9404 
11153000      189.684   -6502.6493   -6014.6988   -6502.6493            0     1553.663    23.365003    21.466791    21.924669    10996.792    2561.9886    1056.6773    1042.3232   -500.26218    133.98312    570.26111    -5765.527 
11154000    183.04874      -6508.5   -6037.6182      -6508.5            0    3416.2865    23.251892    21.490301    21.775626    10881.066    4593.5038    1874.0184    3781.3374    59.374501    275.97379    54.120802   -5495.4905 
11155000    176.65649   -6520.5159   -6066.0778   -6520.5159            0    1870.6766    23.401402    21.430289    21.786226    10925.766    2504.8014    2213.9532    893.27515    57.078025   -1303.1023   0.97106285   -5768.0022 
11156000    179.05097   -6539.3468   -6078.7491   -6539.3468            0    2362.4779    23.402632    21.468441    21.717257    10911.141    3152.6575    1735.2068    2199.5693   -1160.9103   -735.93302   -242.81358   -5702.8132 
11157000    176.57915   -6507.1156   -6052.8765   -6507.1156            0    2286.7574    23.357924     21.55101    21.741134    10944.201    2373.9476    1645.1114    2841.2132   -94.462081    1431.7472   -699.44535   -5687.8873 
11158000    186.47965   -6537.0394   -6057.3319   -6537.0394            0    2083.5409    23.349246    21.442218    21.776089    10902.409    1708.1312    2340.8884    2201.6031    1064.5244    279.46995    464.01139   -5726.0479 
11159000    184.42079   -6520.2751   -6045.8638   -6520.2751            0    2150.0668    23.455193     21.43421    21.783081    10951.303    1324.9175    2312.1786    2813.1041   -799.81233    1448.4933   -137.99501   -5702.4691 
11160000    180.76825   -6511.7949   -6046.7796   -6511.7949            0    2433.2776    23.308061    21.523904    21.793399    10933.323    1340.2037     3638.641    2320.9882   -1168.5491    1315.2126   -428.57473   -5658.7903 
11161000     174.3153   -6517.5096   -6069.0941   -6517.5096            0    2362.8069    23.353171     21.45639    21.765543    10906.164    1743.1929    3808.0441    1537.1837    1017.8956    521.35505   -640.24786   -5693.2773 
11162000    182.75379   -6511.9426   -6041.8196   -6511.9426            0    1148.5442    23.546297    21.478739    21.773366    11011.766    1479.2338    1023.0035    943.39519   -31.102384   -1241.6335   -402.53325   -5857.3688 
11163000    183.67904   -6518.0374   -6045.5342   -6518.0374            0    740.16379    23.408571    21.566101    21.753329    10981.768    400.57624   -86.721956    1906.6371    589.95901    567.16633    1598.9308   -5926.9912 
11164000    181.47756   -6521.5507   -6054.7107   -6521.5507            0    2425.5668    23.370233    21.562954    21.686687      10928.6    2017.6531    1459.6799    3799.3672    269.02843    289.74994   -262.20888    -5668.118 
11165000    182.02603   -6510.2678   -6042.0169   -6510.2678            0     2273.763    23.476357    21.364455    21.765237    10916.563    1850.4222    3664.7089    1306.1578   -154.56188   -231.29641   -879.64993   -5680.0182 
11166000    185.31398   -6491.2574   -6014.5485   -6491.2574            0    846.76989    23.447272     21.54247    21.818188    11020.632    615.60978    624.99786     1299.702    1504.5337   -120.32657    553.47187   -5878.4518 
11167000    183.42785   -6515.8371   -6043.9801   -6515.8371            0    2379.0667    23.352338    21.542295    21.737052    10935.106    2823.0209    1377.6853    2936.4938   -236.50949   -539.52252   -546.63602    -5664.573 
11168000    185.66671   -6495.4448   -6017.8285   -6495.4448            0    3232.3519    23.475881    21.343041    21.772712    10909.145    2151.7099    3569.3127    3976.0331   -203.41512    168.76143   -377.73975   -5503.5655 
11169000    188.66645   -6484.7947   -5999.4617   -6484.7947            0    1910.7099     23.31732    21.576306    21.827782    10981.593    3046.5564    1371.1202    1314.4531    844.20804    535.35891    563.03931   -5693.4515 
11170000    177.25503   -6505.5855   -6049.6078   -6505.5855            0    2929.0022    23.286856    21.516402    21.774118    10909.907    3597.3721    2696.1277    2493.5069    145.84076   -428.93755   -464.77807   -5583.5748 
11171000    179.93836   -6509.4213   -6046.5409   -6509.4213            0    2016.1709    23.449428    21.446669    21.802309    10964.646    2792.6053    1177.3215     2078.586   -596.24815   -570.20504    508.13002   -5724.1388 
11172000    195.81344   -6541.1298   -6037.4116   -6541.1298            0    2405.7704    23.339607    21.517891    21.760705    10928.642    3233.2606    1002.2395    2981.8111   -378.77944   -317.12036   -40.806759   -5653.9727 
11173000    182.52734   -6527.5396   -6057.9992   -6527.5396            0    2972.6574    23.311176    21.490491    21.720893    10881.486    2025.2297    3379.5956     3513.147   -336.16603    166.20975    -156.9738   -5586.2524 
11174000    183.13938    -6529.836   -6058.7211    -6529.836            0    1025.0923    23.501769     21.34948    21.879896     10978.25     811.7346     1278.591    984.95124   -205.28453    645.20698   -60.775804   -5894.5972 
11175000     184.1145   -6513.8909   -6040.2676   -6513.8909            0    1211.3718    23.372869    21.540071    21.774158    10962.271    1567.0164    492.86847    1574.2305   -66.103422    762.43804   -50.859485   -5846.6014 
11176000    180.13376   -6521.6705   -6058.2874   -6521.6705            0    2107.6726    23.400343    21.563859    21.643532    10921.363    2036.5315    1546.3031    2740.1832   -260.92408   -586.91335    162.57601   -5722.5839 
11177000    194.49417   -6507.6854    -6007.361   -6507.6854            0    1451.0701    23.516808    21.396698    21.756132    10947.295    430.61775    2303.2851    1619.3073    382.75377    1055.6992    404.74244   -5775.6903 
11178000     183.7735   -6502.3065   -6029.5604   -6502.3065            0    2026.4535    23.399045    21.559401    21.689158    10941.516    2569.7741    1287.7385    2221.8478    532.61619   -17.003961    421.73421   -5706.1976 
11179000    178.62334   -6498.8973   -6039.3996   -6498.8973            0    1433.8059    23.480345    21.548443    21.696493    10977.663    1158.1673    733.64406    2409.6063   -472.38758    46.920637    344.82029   -5809.8502 
11180000    188.08831   -6514.2349   -6030.3892   -6514.2349            0    3850.3805     23.34307    21.500699    21.652336    10867.141    3355.6813    3815.9667    4379.4936    872.26038   -115.36002    647.86112   -5420.1574 
11181000    181.09766   -6511.5651   -6045.7024   -6511.5651            0      2634.76    23.472221    21.466724    21.662784    10915.264    2008.0494      2297.92    3598.3107    1457.9315   -502.35069    252.96177   -5626.2804 
11182000    186.40546   -6507.9588   -6028.4421   -6507.9588            0    2522.0052     23.37063    21.469901    21.788844    10932.882    1141.9037    3845.0663    2579.0457    934.69837   -461.82305   -16.489155   -5626.3214 
11183000    181.21629   -6521.7994   -6055.6315   -6521.7994            0    1612.8301    23.386194    21.567245    21.734539    10962.375     1334.073    1973.9946    1530.4225   -437.81887    836.81011    -619.0601   -5797.7803 
11184000    180.04738   -6517.5554   -6054.3945   -6517.5554            0    3208.4358    23.371084    21.458363      21.6846     10874.94    3087.3026    3972.1627    2565.8421    -653.2106     130.7334   -1211.0027   -5545.5371 
11185000    183.27762   -6501.1333   -6029.6628   -6501.1333            0    2424.7759    23.482972    21.428692     21.77545    10957.611    1815.2294    2181.0437    3278.0546    425.43552   -133.20095    657.68919   -5642.1702 
11186000    184.89223   -6494.1804   -6018.5563   -6494.1804            0    1458.0235    23.407183    21.591877    21.725178    10980.014    949.49114    1547.2494    1877.3299    426.68437    1085.0181   -73.848726   -5785.0798 
11187000    176.37324   -6522.5942   -6068.8848   -6522.5942            0     2848.086    23.450795    21.434366    21.707026      10911.1    2373.7657    3028.5121    3141.9802   -616.22716   -30.184847   -498.43091   -5615.6768 
11188000    184.57679    -6493.596   -6018.7834    -6493.596            0    1811.3888    23.426946    21.431223    21.846135    10968.248    1766.9387    2289.1773    1378.0504   -786.43075    794.59565   -519.23375   -5729.0325 
11189000    175.03927   -6527.2099    -6076.932   -6527.2099            0    2310.0168    23.277557    21.569934     21.77796    10934.613    1280.2504    3171.9761     2477.824    529.62471    1169.5181   -84.894623   -5708.5534 
11190000     189.8068   -6486.1053   -5997.8389   -6486.1053            0    2076.7768    23.393931    21.551562    21.759942    10970.835    1884.0047    2603.5579    1742.7679   -58.540988   -1362.2345   -982.61879    -5665.558 
11191000    187.42745   -6496.0387    -6013.893   -6496.0387            0    2568.7607     23.50008    21.327419    21.830223    10941.222    1926.6661    2369.0477    3410.5682    1413.0644   -166.05608    1207.8173   -5604.0048 
11192000    181.26705     -6494.78   -6028.4815     -6494.78            0      4392.74     23.20244    21.496394    21.742954    10844.707    4713.7592    4326.3065    4138.1544    492.78744    113.66869   -47.006101   -5333.7305 
11193000     184.9818   -6530.0309   -6054.1765   -6530.0309            0    2098.1077    23.278502     21.51499    21.890828    10963.731    2355.1512    2238.5585    1700.6135   -687.74499    679.27944   -606.65785   -5718.7001 
11194000    179.39377   -6495.4965   -6034.0169   -6495.4965            0    2232.7177     23.35123    21.455882    21.890701    10967.706    2870.9952    2644.5787    1182.5793   -664.92189    309.75319    195.84404   -5676.8876 
11195000    183.99507   -6495.5562   -6022.2401   -6495.5562            0    3309.0776    23.365946    21.474846    21.757897    10917.679    3275.3292    3531.7824    3120.1212    1048.6479   -1072.5662   -683.69092   -5495.3583 
11196000    184.91604   -6525.4406   -6049.7553   -6525.4406            0    2290.3749     23.30284    21.472206    21.870292    10943.093    2352.8762    2356.7899    2161.4585    669.34722     -334.258    1101.6982   -5684.2257 
11197000    179.67257   -6497.2406   -6035.0438   -6497.2406            0    3083.7669    23.217298    21.510141    21.889994    10932.024     3704.009    2835.4197    2711.8719   -1188.3001    197.60072   -594.51946   -5543.3916 
11198000    184.78139   -6502.5955   -6027.2567   -6502.5955            0    3115.3287    23.359423    21.363782    21.918059    10938.111    2848.6271    4297.4575    2199.9014    1242.1331   -287.92208   -1227.5012   -5530.2959 
11199000    186.92497   -6504.7931     -6023.94   -6504.7931            0    3086.7535     23.21683    21.478048    21.894356    10917.668    4042.6535    3900.9211    1316.6858    899.40987    96.245107   -585.24239   -5532.4578 
11200000    182.52566   -6523.6364   -6054.1003   -6523.6364            0    1676.0803    23.388682    21.402443    21.930901     10978.06    2347.6314    2517.6425    162.96704     665.0548   -503.68081   -107.03588   -5785.7536 
11201000     187.7005   -6517.4616   -6034.6135   -6517.4616            0     2629.555    23.403737    21.397954    21.797314    10915.922    2854.8218    3677.4934    1356.3497   -93.566738   -1000.4525   -1729.4084   -5615.9949 
11202000    182.54145   -6517.3962   -6047.8194   -6517.3962            0     2011.867    23.221836    21.527646    21.861566    10928.848    2343.4675    1683.1857    2008.9477    153.91626    570.14134    679.74232   -5727.1559 
11203000    173.92712   -6529.8376   -6082.4207   -6529.8376            0    2259.4063    23.369771    21.370295    21.887906    10931.234    2447.6371     3197.904    1132.6779    300.05645   -882.50579     -904.676   -5722.2242 
11204000    183.05334   -6519.8311   -6048.9375   -6519.8311            0    2340.9324    23.411537    21.340207    21.931238    10957.001    1831.2923     3052.959    2138.5458    621.20474   -519.45451   -709.34992   -5674.8644 
11205000    183.77376   -6527.0721   -6054.3253   -6527.0721            0    1909.2848    23.087697    21.566135    21.973029    10940.643     2678.798    1514.4914    1534.5651    645.15242    6.4774888    162.02093   -5749.6835 
11206000    178.60477   -6526.7823   -6067.3324   -6526.7823            0    2053.3163    23.393602    21.451098    21.830336    10954.865    2690.2776     2463.968    1005.7032   -340.08291   -148.71777   -952.26783   -5739.2834 
11207000      178.017   -6518.9779     -6061.04   -6518.9779            0    2355.0242    23.410386    21.372671    21.815073    10915.007    2075.5706    3350.3122    1639.1899    286.44228   -614.33433   -304.69296   -5686.1574 
11208000    181.64797   -6506.3023    -6039.024   -6506.3023            0    2311.9577    23.340669    21.586702    21.726424    10946.816    3877.5444    1548.7448    1509.5839   -12.218669   -1334.0919   -566.71658   -5669.9243 
11209000    195.48378    -6528.783   -6025.9129    -6528.783            0    2393.2794    23.413669    21.480403    21.730682    10929.122    1462.3172    2983.4714    2734.0495    478.04589    108.31664    1449.1907    -5644.448 
11210000    185.85654   -6522.7962   -6044.6915   -6522.7962            0    2228.8853    23.409489    21.408204    21.825054    10937.738     1850.969    2415.3662    2420.3207    436.24982   -42.375495   -58.281241   -5689.1494 
11211000    182.42431   -6497.6029   -6028.3275   -6497.6029            0    2278.4546    23.327918    21.607501    21.757396     10966.99    2222.4695    1661.4708    2951.4236   -1095.3571    1368.4977   -164.22223   -5663.9062 
11212000    184.07247   -6528.8608   -6055.3456   -6528.8608            0    1803.5745    23.449393    21.429309    21.809272    10959.253    1271.3467    2539.0557    1600.3212    456.96281    28.775788    148.96691   -5767.0812 
11213000    184.19528   -6520.9901    -6047.159   -6520.9901            0    1890.2894    23.472522    21.471254    21.745146    10959.216     1294.369    2154.6704    2221.8286   -437.28862    132.84038   -492.63457    -5745.036 
11214000    187.06399   -6524.6714   -6043.4607   -6524.6714            0    2759.8685    23.283212    21.526891    21.781929    10917.434    2980.0638    2868.0748     2431.467   -467.57851   -554.25422   -419.55004   -5604.0356 
11215000    176.69381   -6527.6578   -6073.1237   -6527.6578            0    1330.1036    23.302652    21.479266    21.894018    10958.479    1897.9041    1793.1566     299.2501    441.61244   -812.50918   -132.29973    -5860.549 
11216000    177.74839     -6502.27   -6045.0231     -6502.27            0    1927.1183    23.386465    21.482874     21.83505    10970.114    3252.8947    587.44607    1941.0141   -2154.0077   -273.63588   -409.75928   -5736.7075 
11217000    184.41556   -6514.8552   -6040.4574   -6514.8552            0    2134.3615    23.161578    21.578658    21.901631    10946.343    2187.8383    1493.5815    2721.6647    69.085945    531.94059    855.93608   -5699.7254 
11218000    189.62771   -6511.7274   -6023.9217   -6511.7274            0    2843.2429    23.398547    21.487092    21.703192    10911.643     3534.865    2264.5029    2730.3607   -1098.8695   -527.43893   -102.93716   -5571.4619 
11219000    186.51967   -6530.0332   -6050.2227   -6530.0332            0    1806.2953    23.406734    21.527142    21.740598    10954.655    2568.8229    697.53803    2152.5251    883.95807   -902.97241   -494.17668   -5761.6446 
11220000    181.58051    -6538.888   -6071.7832    -6538.888            0    1091.1132    23.338815    21.504288    21.884032    10983.258    733.06701    1826.5266    713.74612    281.79008   -603.55555    405.14266   -5897.0091 
11221000    181.21129   -6512.5408   -6046.3858   -6512.5408            0    3746.0722    23.355007     21.37276    21.809461    10886.431    2881.3155    3777.0527    4579.8483   -584.82069    454.71696    -114.0437   -5451.6315 
11222000    184.55609   -6531.4875   -6056.7282   -6531.4875            0    3631.8406    23.224852    21.443551    21.817844    10865.795    3954.5188    3111.1546    3829.8485    246.18938   -334.17697   -172.38755   -5481.2033 
11223000    181.19707   -6525.7749   -6059.6564   -6525.7749            0    1579.7821    23.373217    21.433032    21.973685    11007.913    1610.7533     1988.811     1139.782    58.492562    121.18123    385.00765   -5806.0396 
11224000    182.27549   -6485.6758   -6016.7832   -6485.6758            0    3737.7181    23.370099    21.433259     21.73757    10888.292    3990.0249    4104.3867    3118.7428    -959.4289     -1070.19   -521.40811   -5423.2539 
11225000    180.03046   -6517.7249   -6054.6075   -6517.7249            0    2376.1969    23.305617    21.483957    21.827686    10929.054    2044.5671    2729.0036      2355.02   -1396.9098    540.83199    502.69486   -5675.8677 
11226000    185.76722   -6517.8525   -6039.9776   -6517.8525            0    2161.8237    23.227003    21.417126    22.052674    10970.227    2912.8433    2849.9381    722.68987   -424.61269    404.80411   -1217.5974   -5694.1085 
11227000    197.44438   -6508.4017    -6000.488   -6508.4017            0    1311.4818    23.242367    21.509469    22.043726    11020.341    1179.9687    2058.3265    696.15026   -450.46915    259.42345   -99.787507   -5789.7062 
11228000     193.8927   -6505.8876   -6007.1104   -6505.8876            0    1010.6201    23.333775    21.519825    21.954827    11024.369    1243.5113    1184.5277    603.82144    -162.3237    344.36494    737.72479   -5844.6238 
11229000    185.53614   -6505.0012   -6027.7208   -6505.0012            0    2450.1614    23.421165    21.436345    21.775846    10932.872    1940.3073    2993.5338     2416.643   -222.55205    291.23504    599.25235   -5637.0555 
11230000     193.8413   -6516.5882   -6017.9433   -6516.5882            0    1903.9683    23.282793     21.57146    21.781627    10939.688    1283.8559     1852.785    2575.2641    103.51481    407.23253    434.79249   -5714.1763 
11231000    187.06154   -6500.2165   -6019.0121   -6500.2165            0    1169.4827    23.384421     21.59005    21.806828    11009.631    1755.4805    1048.4391    704.52846   -1615.1386    1152.2112   -192.27392   -5831.2351 
11232000     190.7273   -6518.3169   -6027.6826   -6518.3169            0    3644.9733    23.519807    21.271515    21.676798    10844.944    2842.1309    3407.2302    4685.5587   -876.08571     1138.256   -248.61128   -5451.1849 
11233000    180.90722   -6522.7263   -6057.3535   -6522.7263            0    2381.4482    23.333197    21.549069    21.710551    10916.254    2118.0849    2290.1698    2736.0901    542.83575   -586.33261   -65.452859   -5678.2213 
11234000    184.66714   -6515.9222   -6040.8773   -6515.9222            0    1105.0698    23.427322    21.614332    21.697952    10987.103    283.02609    794.54689    2237.6364   -44.090772   -325.27978    605.47128   -5863.8057 
11235000    181.80554   -6511.5393   -6043.8556   -6511.5393            0    2305.2183    23.547585    21.376241    21.720135    10933.022    2251.4441    2171.1459     2493.065   -1336.2236    677.05875   -402.13729   -5676.2957 
11236000    178.15175   -6507.1861   -6048.9016   -6507.1861            0    2542.2879    23.352212     21.52663    21.747134    10932.163    1805.3043    3182.2139    2639.3455   -215.37736    1739.5046    -594.3366   -5643.5735 
11237000    183.60342   -6532.1868   -6059.8782   -6532.1868            0    877.35109    23.487231    21.595152    21.673738    10993.144    -534.5884    1821.6579    1344.9837    534.63007    450.55272    312.36819    -5919.218 
11238000     197.5197   -6525.6741   -6017.5667   -6525.6741            0     1680.507     23.57398    21.376936    21.767121    10969.312    975.07583    2141.1632    1925.2819   -295.55769      216.477   -281.35329   -5748.7257 
11239000    181.76711    -6513.676   -6046.0911    -6513.676            0    959.84104    23.338341    21.634876    21.736287    10975.132    539.52854    754.50409    1585.4905    1110.5503    846.23391   -178.59531    -5892.458 
11240000    183.74945   -6503.8784   -6031.1941   -6503.8784            0    1831.1808     23.46533    21.489377    21.752024    10968.574    1809.3511     1817.527    1866.6643   -12.034585    6.4440212   -47.118782   -5738.2685 
11241000    181.36143   -6520.9642    -6054.423   -6520.9642            0    1831.5076    23.493204    21.352968    21.813902    10942.936    1245.5733    2909.1309    1339.8185   -972.11255   -124.46845    942.96815     -5762.13 
11242000    186.22873   -6526.9479   -6047.8859   -6526.9479            0    793.97637    23.309403    21.609045    21.842082    11001.724    2131.9901    241.35352    8.5855136    403.65377    764.70196   -668.97633   -5920.4933 
11243000    182.45017   -6496.0476   -6026.7057   -6496.0476            0    3181.2774     23.35717    21.459768    21.742617    10898.257     3956.682    2820.5347    2766.6157   -13.523802   -521.75031   -440.44367   -5521.0737 
11244000    180.65336   -6507.4298     -6042.71   -6507.4298            0    1687.3244    23.445053    21.415294    21.849986      10970.5    1140.8525    2976.4743    944.64628   -505.12381   -793.07775    -317.5812   -5772.7491 
11245000     196.4925   -6510.8608   -6005.3958   -6510.8608            0     1187.293    23.283919    21.516045    21.945292    10994.105    1957.6568    769.12163    835.10058   -154.77295    1199.0513   -290.21843    -5815.028 
11246000    184.70761    -6524.094   -6048.9449    -6524.094            0    3078.2159    23.138295    21.529358    21.872367    10895.777     4123.333    2634.9452    2476.3696   -696.60888    363.34291   -562.76019   -5559.8049 
11247000    188.89095   -6530.5405   -6044.6301   -6530.5405            0    2659.1134    23.340275    21.306062    21.953284    10917.134    2898.6837    3002.7171    2075.9394   -182.27076   -299.62393     823.0611   -5621.2588 
11248000    184.16588   -6508.6574   -6034.9019   -6508.6574            0    1535.4113    23.348512    21.506304    21.908774    11001.276    1414.7457    1786.0112    1405.4768    886.93994   -476.80122   -250.53708    -5788.557 
11249000    174.27707   -6497.0596   -6048.7425   -6497.0596            0    1670.6231    23.243878    21.526247    21.962808    10989.167    2484.1585    1454.3932    1073.3176    833.12895   -701.28435   -699.28767   -5780.9988 
11250000    188.87276   -6482.6521   -5996.7885   -6482.6521            0    2919.3435    23.286309    21.401258    21.966243    10947.016     3474.744    4380.3427    902.94381    74.079842    -61.49228   -827.83031   -5530.7124 
Loop time of 499.913 on 64 procs for 250000 steps with 1296 atoms

Performance: 86.415 ns/day, 0.278 hours/ns, 500.087 timesteps/s
196.6% CPU use with 32 MPI tasks x 2 OpenMP threads

MPI task timing breakdown:
Section |  min time  |  avg time  |  max time  |%varavg| %total
---------------------------------------------------------------
Pair    | 33.916     | 46.926     | 55.981     |  74.1 |  9.39
Bond    | 0.64996    | 0.94299    | 1.1077     |  12.0 |  0.19
Kspace  | 256.1      | 266.13     | 277.18     |  31.5 | 53.24
Neigh   | 2.2144     | 2.3191     | 2.4677     |   5.0 |  0.46
Comm    | 67.887     | 71.224     | 74.296     |  21.4 | 14.25
Output  | 0.54854    | 0.54891    | 0.55032    |   0.0 |  0.11
Modify  | 96.889     | 100.53     | 102.19     |   9.7 | 20.11
Other   |            | 11.29      |            |       |  2.26

Nlocal:        40.5000 ave          50 max          31 min
Histogram: 1 2 2 5 7 7 1 3 3 1
Nghost:        3041.34 ave        3073 max        3009 min
Histogram: 3 2 5 0 4 5 6 2 2 3
Neighs:        12755.6 ave       15716 max        9740 min
Histogram: 2 1 2 5 7 7 1 2 4 1

Total # of neighbors = 408178
Ave neighs/atom = 314.95216
Ave special neighs/atom = 2.0000000
Neighbor list builds = 5543
Dangerous builds = 0

unfix		3
unfix		2
unfix		1

write_data	data.final.${pid}
write_data	data.final.0
System init for write_data ...
PPPM initialization ...
  extracting TIP4P info from pair style
  using 12-bit tables for long-range coulomb (../kspace.cpp:340)
  G vector (1/distance) = 0.36666505
  grid = 30 40 32
  stencil order = 5
  estimated absolute RMS force accuracy = 0.0046611284
  estimated relative force accuracy = 1.403685e-05
  using double precision FFTW3
  3d grid and FFT values/proc = 7752 1200
Last active /omp style is kspace_style pppm/tip4p/omp
WARNING: Not all mixed pair coeffs generated from mixing. Use write_data with 'pair ij' option to store all pair coeffs. (../write_data.cpp:312)

write_restart   restart.lmp.${pid}
write_restart   restart.lmp.0
System init for write_restart ...
PPPM initialization ...
  extracting TIP4P info from pair style
  using 12-bit tables for long-range coulomb (../kspace.cpp:340)
  G vector (1/distance) = 0.36666505
  grid = 30 40 32
  stencil order = 5
  estimated absolute RMS force accuracy = 0.0046611284
  estimated relative force accuracy = 1.403685e-05
  using double precision FFTW3
  3d grid and FFT values/proc = 7752 1200
Last active /omp style is kspace_style pppm/tip4p/omp
Total wall time: 0:08:20
