LAMMPS (30 Jul 2021)
  using 1 OpenMP thread(s) per MPI task
package omp 0
using multi-threaded neighbor list subroutines
echo both

include		in.partitions
variable        pid world 0
include		in.temp
variable        temperature equal 264.02
variable	tempDamp equal 100.0
include		in.pressure
variable        pressure equal 8750.0
variable        pressureDamp equal 1000.0 # This is 1 ps
include		in.seed
variable        seed world 745823

units		real
atom_style	full
read_restart    restart.lmp.${pid}
read_restart    restart.lmp.0
Reading restart file ...
  restart file = 30 Jul 2021, LAMMPS = 30 Jul 2021
  restoring atom style full from restart
  triclinic box = (-3.1867109 -0.13235875 -0.10921132) to (14.796710 22.712358 19.339209) with tilt (-0.34453754 -6.1742247 0.18737991)
  4 by 4 by 4 MPI processor grid
  restoring pair style lj/cut/tip4p/long/omp from restart
  restoring bond style harmonic/omp from restart
  restoring angle style harmonic/omp from restart
  1008 atoms
  672 bonds
  336 angles
Finding 1-2 1-3 1-4 neighbors ...
  special bond factors lj:    0        0        0       
  special bond factors coul:  0        0        0       
     2 = max # of 1-2 neighbors
     1 = max # of 1-3 neighbors
     1 = max # of 1-4 neighbors
     2 = max # of special neighbors
  special bonds CPU = 0.031 seconds
  read_restart CPU = 0.221 seconds

include 	in.setup
variable	out_freq equal 1000
variable	out_freq2 equal 10000
variable	out_freq3 equal 1000

timestep	2.0

neigh_modify    delay 7 every 1

include		in.tip4p
# This is TIP4P/Ice

# create groups ###
group ox type 2
336 atoms in group ox
group hy type 1
672 atoms in group hy

# set charges - beside manually ###
set group ox charge -1.1794
Setting atom values ...
  336 settings made for charge
set group hy charge 0.5897
Setting atom values ...
  672 settings made for charge

# ### TIP3P Potential Parameters ###
pair_style lj/cut/tip4p/long/omp 2 1 1 1 0.1577 8.5
pair_coeff 1 1*2 0.000 0.000
pair_coeff 2 2 0.21084 3.1668
bond_style  harmonic
bond_coeff  1 450 0.9572
angle_style harmonic
angle_coeff 1 55 104.52
kspace_style pppm/tip4p/omp 1.0e-5
pair_modify tail yes

thermo          ${out_freq}
thermo          1000
thermo_style    custom step temp pe etotal epair emol press lx ly lz vol pxx pyy pzz pxy pxz pyz enthalpy

restart 	${out_freq3} restart.lmp.${pid} restart2.lmp.${pid}
restart 	1000 restart.lmp.${pid} restart2.lmp.${pid}
restart 	1000 restart.lmp.0 restart2.lmp.${pid}
restart 	1000 restart.lmp.0 restart2.lmp.0


include         in.dump
dump            myDump all atom ${out_freq2} dump.water.${pid}
dump            myDump all atom 10000 dump.water.${pid}
dump            myDump all atom 10000 dump.water.0
dump            myDump2 all dcd ${out_freq2} dump.dcd
dump            myDump2 all dcd 10000 dump.dcd
dump_modify     myDump append yes
dump_modify     myDump2 append yes


variable natoms 	equal  "count(all)"                        # NUMBER ATOMS
variable H      	equal  "enthalpy/v_natoms"                 # ENTHALPY-per-atom
variable Vol      	equal  "vol/v_natoms"                 # volume-per-atom
fix AVG all 		ave/time ${out_freq} 1 ${out_freq} v_Vol v_H file vol_enthalpy.dat
fix AVG all 		ave/time 1000 1 ${out_freq} v_Vol v_H file vol_enthalpy.dat
fix AVG all 		ave/time 1000 1 1000 v_Vol v_H file vol_enthalpy.dat



fix 		1 all shake 1e-6 200 0 b 1 a 1
       0 = # of size 2 clusters
       0 = # of size 3 clusters
       0 = # of size 4 clusters
     336 = # of frozen angles
  find clusters CPU = 0.033 seconds
fix             2 all nph tri ${pressure} ${pressure} ${pressureDamp}
fix             2 all nph tri 8750 ${pressure} ${pressureDamp}
fix             2 all nph tri 8750 8750 ${pressureDamp}
fix             2 all nph tri 8750 8750 1000
fix             3 all temp/csvr ${temperature} ${temperature} ${tempDamp} ${seed}
fix             3 all temp/csvr 264.02 ${temperature} ${tempDamp} ${seed}
fix             3 all temp/csvr 264.02 264.02 ${tempDamp} ${seed}
fix             3 all temp/csvr 264.02 264.02 100 ${seed}
fix             3 all temp/csvr 264.02 264.02 100 745823


run             250000
PPPM initialization ...
  extracting TIP4P info from pair style
  using 12-bit tables for long-range coulomb (../kspace.cpp:340)
  G vector (1/distance) = 0.37968565
  grid = 24 27 32
  stencil order = 5
  estimated absolute RMS force accuracy = 0.0023847278
  estimated relative force accuracy = 7.1815371e-06
  using double precision FFTW3
  3d grid and FFT values/proc = 3825 384
Last active /omp style is kspace_style pppm/tip4p/omp
Neighbor list info ...
  update every 1 steps, delay 7 steps, check yes
  max neighbors/atom: 2000, page size: 100000
  master list distance cutoff = 10.8154
  ghost atom cutoff = 10.8154
  binsize = 5.4077, bins = 5 5 4
  1 neighbor lists, perpetual/occasional/extra = 1 0 0
  (1) pair lj/cut/tip4p/long/omp, perpetual
      attributes: half, newton on, omp
      pair build: half/bin/newton/tri/omp
      stencil: half/bin/3d/tri
      bin: standard
Per MPI rank memory allocation (min/avg/max) = 9.312 | 9.326 | 9.337 Mbytes
Step Temp PotEng TotEng E_pair E_mol Press Lx Ly Lz Volume Pxx Pyy Pzz Pxy Pxz Pyz Enthalpy 
19250000    267.89518   -4802.6707   -4266.8472   -4802.6707            0    7229.6501    17.983421    22.844717    19.448421    7989.9198    7866.3689    6845.2982    6977.2833    2146.7191   -811.24889   -618.73929   -3424.4138 
19251000    261.89649   -4809.1976   -4285.3723   -4809.1976            0    8900.7254    18.052662    22.755738    19.216046    7893.9832    7231.3104    10159.816    9311.0493   -620.97928    -154.1878    1991.1846   -3260.6705 
19252000    261.14247   -4803.5463   -4281.2291   -4803.5463            0     7662.372    17.898766     22.86294     19.51132    7984.3914    8041.6033    7709.7635    7235.7493   -1002.7323    591.38221   -433.88201   -3388.9907 
19253000    254.17825   -4803.3371   -4294.9492   -4803.3371            0    9531.4456    18.107185    22.863747    19.220849    7957.3951    9780.6639    9119.5498    9694.1232    1708.0298    301.06177    300.90317   -3188.8207 
19254000    256.67302   -4835.7895   -4322.4118   -4835.7895            0     7893.578    17.862886    22.839121    19.424746    7924.7645    7885.6484    8534.0943    7260.9912    818.78154   -168.10426   -780.82641    -3410.115 
19255000    264.89738   -4817.1302   -4287.3027   -4817.1302            0    7833.0491     17.96371    23.041811    19.220294    7955.5951    9245.6598    7142.5256    7110.9619      147.936   -655.89988   -32.900902   -3378.4795 
19256000    263.19895   -4792.7313   -4266.3009   -4792.7313            0    9508.9326    17.840436    22.989642     19.32063    7924.2644    9448.7891    9799.3059    9278.7029    1742.8856    690.32154    431.78516   -3167.3795 
19257000    262.01838   -4805.6424   -4281.5732   -4805.6424            0    10321.772    17.835601    22.999865    19.175005    7865.9018    10039.551    10021.298    10904.466   -17.454662   -128.08501      2160.86   -3097.4997 
19258000    277.14839   -4829.0246   -4274.6936   -4829.0246            0    8897.7566    17.755193    23.133964    19.217515    7893.5558     9711.386    7821.8787    9160.0051   -1073.7753   -850.99175   -2059.6723   -3250.3891 
19259000    275.05159   -4799.2246   -4249.0874   -4799.2246            0    9158.1268    17.897645    23.327994    19.041759    7950.2421    10017.432    8152.8512    9304.0967   -247.74202    363.96328   -64.365746   -3187.2381 
19260000    269.64039   -4812.2299   -4272.9158   -4812.2299            0         7762    17.951265    23.134694    19.187275    7968.4181    6531.4895    8447.0431    8307.4675   -680.90093   -443.02015   -776.81189   -3370.8844 
19261000    258.44656   -4802.7684   -4285.8434   -4802.7684            0    9784.6386     17.88583    23.113051    19.148781    7916.0317    9573.8125    8313.0611    11467.042    306.20251   -49.645171    517.37406   -3156.2342 
19262000    269.73278   -4768.0493   -4228.5504   -4768.0493            0    8188.0651    17.797166    23.269284    19.234793    7965.6532    7970.1465    7899.9592    8694.0895    745.13089   -1076.3118    1314.4419   -3277.3357 
19263000    282.76159   -4815.8271    -4250.269   -4815.8271            0    7450.9111    17.953181     22.96756      19.3416      7975.33    9262.6197    7245.6046    5844.5091    293.84435   -161.98417     210.6353   -3383.6386 
19264000    264.81858   -4810.4281   -4280.7582   -4810.4281            0    9414.8904    18.161245    22.631513    19.286142    7926.9216    8008.4582    10600.051    9636.1619    1397.8676    1295.8859   -272.19442   -3192.3402 
19265000    262.83795   -4800.6981   -4274.9897   -4800.6981            0    9897.9079    17.995281    22.803425    19.285429    7913.8536    10500.893    9621.9745    9570.8559    882.44569   -332.85061   -866.29955   -3132.6184 
19266000    260.40241   -4791.6966   -4270.8596   -4791.6966            0    10442.562    17.773523    22.793831    19.500329    7900.1035    11445.408    10829.323    9052.9564   -436.41221    -567.2481   -1033.0984   -3067.7207 
19267000    272.80979   -4827.7931   -4282.1399   -4827.7931            0    7848.3023    18.106918    22.778314    19.205949    7921.3989    6773.0686    9963.3361    6808.5023    593.69655    53.920117   -133.14654    -3375.461 
19268000    254.66428   -4821.2321   -4311.8721   -4821.2321            0     6954.313    17.989984    22.947265    19.352789    7989.2361    6754.3676    7037.2141    7071.3573    1544.2409   -589.30461    955.97344   -3501.5916 
19269000    261.32646   -4807.7344   -4285.0492   -4807.7344            0    10250.549    17.789858    22.997728    19.264195    7881.4893    12447.042    9972.9168    8331.6884   -1086.3289    603.09405   -682.72373   -3106.8158 
19270000    268.08336   -4827.8463   -4291.6465   -4827.8463            0    8320.3184    18.028398     23.08271    19.118469    7956.0419    6926.2492     8445.835    9588.8711    781.35511    1827.1804   -1053.9401    -3326.234 
19271000    263.96271   -4841.7869   -4313.8288   -4841.7869            0    8750.8817    17.772856    23.195629    19.172568    7903.9404    7617.4324    8786.7781    9848.4347    -132.5677    710.14817    205.54406   -3305.1071 
19272000    255.68155   -4794.7005   -4283.3058   -4794.7005            0    5911.9791    17.765638    23.330604    19.255003    7980.8727    5066.2968    5001.8052    7667.8354   -1219.8528   -711.68247    632.37594   -3595.1937 
19273000    265.23497   -4843.4483   -4312.9456   -4843.4483            0    8979.7773    17.838331    23.236731    19.108565    7920.5861    7542.5443    8519.0658    10877.722     -585.052   -151.52239    62.261464    -3275.659 
19274000    282.53777    -4802.881   -4237.7705    -4802.881            0     9248.366    17.923021    22.924817    19.266932     7916.435    9236.2192    9898.9635    8609.9154     1769.124    903.97799    2518.4848   -3170.0181 
19275000    277.65681   -4813.9159   -4258.5679   -4813.9159            0    9626.7884    18.000127    22.846306    19.307192    7939.8202    10650.636    9850.8355    8378.8941   -689.79221    100.37747   -546.79909   -3143.8423 
19276000    272.14038   -4803.8111   -4259.4967   -4803.8111            0    7760.7499    17.980778    22.774346    19.343476    7921.1625    9327.4876    6925.6854    7029.0766    1237.6372   -2025.9734    2229.6781   -3362.9591 
19277000    274.54938    -4798.766   -4249.6333    -4798.766            0    7479.1047    17.962846    23.031366     19.29982    7984.5068     5901.839    8641.5282    7893.9471    900.22938    324.63452    358.04039   -3378.7226 
19278000    249.48262   -4809.2252   -4310.2291   -4809.2252            0    7742.9982    18.130985    22.816184    19.316589    7990.8842    7422.8562    9166.0099    6640.1285   -724.80135    947.36683    158.75668    -3407.869 
19279000    277.78007   -4839.6885    -4284.094   -4839.6885            0    9873.3224    18.042898    22.825368    19.220827    7915.8245    9335.9818    10361.721    9922.2643     343.6899    793.54977    363.58419   -3144.2764 
19280000    275.24838   -4806.4371   -4255.9063   -4806.4371            0    8274.2669    17.907549    22.936493    19.311934    7932.1137    7809.8072    8859.6599    8153.3336    644.00691   -1243.8575   -788.41971   -3298.7247 
19281000    265.36836   -4787.1725   -4256.4029   -4787.1725            0    7974.6984    17.980505    22.995263    19.300504    7980.1104    8065.2255     8326.602    7532.2677   -343.20042    -696.1688   -929.90169   -3328.2938 
19282000    261.67673   -4799.4629   -4276.0771   -4799.4629            0    9013.2968    17.879144     22.84536    19.392171     7920.839    8560.5348    8987.8493    9491.5064   -546.63408   -372.90288   -369.70249   -3234.8853 
19283000    254.60158   -4784.8309   -4275.5963   -4784.8309            0    9043.7145     17.96727    22.928846    19.247898    7929.5325    8182.0708    9315.7895    9633.2831    226.53285    54.013664     3790.235   -3229.7441 
19284000    268.32644     -4845.82   -4309.1339     -4845.82            0    9424.7719    17.966377    22.787559    19.289019    7897.1151    10943.088    9154.5241    8176.7034   -2138.0556    867.74658   -296.71943   -3223.6705 
19285000    261.03352   -4842.2075   -4320.1082   -4842.2075            0    7610.3205    17.861022    22.937958    19.436606    7963.0876    8596.4847    7728.5672    6505.9096   -1373.2141    104.96038   -220.42858   -3436.2954 
19286000     253.1239   -4820.7126   -4314.4336   -4820.7126            0    8206.8516    18.030353    22.776179    19.265609    7911.6642    6999.4331     9244.898    8376.2237   -763.27524   -419.85785    635.66864   -3367.4982 
19287000    280.22906   -4837.8814   -4277.3887   -4837.8814            0     9411.429    17.970086    22.734014    19.361498    7909.7949    8606.7811    9294.5722    10332.934   -1254.5673   -83.694217   -1041.8295   -3191.7215 
19288000    256.35677   -4806.4575   -4293.7123   -4806.4575            0    7448.4127    18.081355    22.663069    19.483917    7984.0997    6250.2432    8578.2655    7516.7295   -298.59912   -382.34194    783.76376   -3426.4198 
19289000    272.43245   -4834.7995   -4289.9009   -4834.7995            0    10293.416    17.801258    22.823515    19.407887    7885.1774    12288.233    10872.449    7719.5647    151.70752    221.07708    831.67496   -3106.1867 
19290000    274.01904   -4824.3687   -4276.2967   -4824.3687            0    8056.6105    17.903201    23.083406    19.160698    7918.4813    9326.1732    6812.0407    8031.6175   -1909.1655   -1149.4367    565.94556   -3345.8958 
19291000     260.4264   -4811.7422   -4290.8572   -4811.7422            0    5717.0755    17.978787     23.19289    19.298958    8047.2803    6329.7489    4983.1322    5838.3455   -658.05277   -63.321073    103.01304   -3619.8936 
19292000    270.49247   -4824.7855   -4283.7671   -4824.7855            0    9764.2456    17.691849    23.064676    19.277849    7866.4567    9509.6072    9868.6555     9914.474   -3040.5408    1551.9951   -942.60071   -3163.5719 
19293000    259.28904   -4776.6939   -4258.0838   -4776.6939            0    10941.141     17.99467    22.989471    19.129647    7913.7041    9489.1756    11039.881    12294.368    502.14358    338.87927   -830.46159    -2995.331 
19294000    256.43444    -4825.588   -4312.6875    -4825.588            0    8086.9052    17.765013    23.166921    19.255441    7924.7817    7253.6484    8770.7702    8236.2971    -1087.253   -86.453136    -649.6015   -3378.0449 
19295000    251.62605    -4803.152   -4299.8688    -4803.152            0    10175.964    17.748778    23.043191    19.206203    7855.1159    9590.8309    10802.706    10134.356    1362.6869   -521.33573      1226.59   -3134.1225 
19296000     259.1083   -4827.6036   -4309.3549   -4827.6036            0    7241.5307    17.925581    23.126137    19.311824     8005.706    6706.2777    6630.8028    8387.5116   -1560.7581   -95.444951   -2889.2909   -3463.8699 
19297000    256.44537   -4800.8556   -4287.9332   -4800.8556            0    9135.8842    17.921865    23.173355     19.14003    7949.0406    7673.8093    9036.5981    10697.245     1164.267    1207.9026    364.27731   -3228.8229 
19298000    261.24228   -4828.7817   -4306.2649   -4828.7817            0    8294.5828    17.866754    23.026088    19.303358    7941.4296    8853.0063    7601.0977    8429.6445   -204.31213   -54.714152   -768.49267   -3345.6062 
19299000    281.68531   -4825.7925   -4262.3871   -4825.7925            0    10053.533    17.828276    23.099585    19.097927    7865.0184    8451.8948    10613.967    11094.737    -265.9475    860.30199   -1361.8032   -3109.2145 
19300000    266.78654   -4840.0359   -4306.4298   -4840.0359            0    9206.2441    17.735659    23.103634    19.235401    7881.8625    10699.199    8781.4224    8138.1111    315.11621     754.4727   -417.30611   -3248.1824 
19301000    278.07442   -4775.0411   -4218.8579   -4775.0411            0    8698.9603    17.834525    23.268292    19.191139    7963.9187    9291.2967    8688.0155    8117.5687   -1320.8586    462.20283   -1932.9781   -3208.5121 
19302000    264.72143   -4830.0861   -4300.6105   -4830.0861            0    10937.028    17.647339    22.953198    19.413608     7863.732    11725.967    11487.332    9597.7863    1587.4855    190.56724    1477.7361   -3046.3033 
19303000    262.65113   -4854.8817    -4329.547   -4854.8817            0    8662.6683    17.849085    23.201384    19.113696    7915.4301    8471.6746    7875.6239    9640.7065    133.50788   -1013.1037    1317.9969   -3329.5422 
19304000    274.46832   -4798.9802   -4250.0097   -4798.9802            0    10266.711    17.813392    23.130992    19.177653    7901.9874     10151.53    10367.445    10281.159    1221.6475    342.45555    268.30285   -3066.8494 
19305000    272.58502   -4820.4019   -4275.1981   -4820.4019            0    8077.2245     17.78748    23.198206    19.312779     7969.179    7848.0578    7362.6482    9020.9676   -1016.7825   -526.84755   -968.01405   -3336.4445 
19306000    279.61803   -4796.4771   -4237.2065   -4796.4771            0    10160.593      17.9087     23.01901    19.128711    7885.6301    9713.5485    10613.838    10154.393    2438.4503   -449.48586    1688.8427   -3068.6994 
19307000    247.74957   -4811.8897     -4316.36   -4811.8897            0    8487.4718    17.695955    23.131891    19.303923    7901.8852    10266.324    7448.3057    7747.7859   -692.64842   -1439.6986   -1317.3147   -3338.2562 
19308000    271.59008   -4835.5109   -4292.2972   -4835.5109            0    7977.1734    17.977146    23.077474    19.220549    7973.9738      7471.58    7942.5789    8517.3612    1421.5408   -581.32124    1056.8097    -3364.614 
19309000    253.15781   -4808.2808   -4301.9339   -4808.2808            0    7418.6986     18.00456    22.814748    19.461633    7994.2452    8116.1616     7255.904    6884.0303   -321.98292    454.65737   -772.36705   -3437.0036 
19310000    265.25905   -4823.5759   -4293.0251   -4823.5759            0     6829.278    18.087819    22.761405    19.334483    7960.0873    7811.0817    6843.1632    5833.5892     988.6075   -1016.3468   -2419.7113   -3500.2162 
19311000    273.99211   -4810.8849   -4262.8668   -4810.8849            0    8967.6808    17.890143    22.911815    19.327433    7922.2305    7510.8701    9680.9573    9711.2151   -722.77741    219.97493    -1500.493   -3226.7624 
19312000    281.45968    -4796.354   -4233.3999    -4796.354            0    7988.9864    17.973094    23.011977    19.248984    7961.3111     8156.263    6761.4487    9049.2475    1256.2879   -502.51296   -2327.8733   -3305.8182 
19313000    270.62884   -4805.3163   -4264.0252   -4805.3163            0    7335.5644      17.9417    23.065837    19.317167    7994.2225    7598.8614    6874.1859    7533.6457   -861.27131   -1032.8072   -963.82016   -3408.7898 
19314000    264.74859   -4825.0608    -4295.531   -4825.0608            0    8176.9353    17.844481    23.121629    19.235653    7936.5048    7521.2577    7146.1381    9863.4102    240.06498    25.152065   -1011.6886   -3349.0852 
19315000    255.20947   -4812.4402   -4301.9897   -4812.4402            0    9418.6315    17.874406    23.039229    19.140071    7882.1211    9271.4619    9210.0334    9774.3991    327.09702    558.64039   -1527.6612    -3219.293 
19316000    268.21822   -4785.2956    -4248.826   -4785.2956            0    7754.5434    17.823446    23.409739    19.126359    7980.3244     6841.561    7230.9951    9191.0743   -185.18359    1006.4284   -594.44963   -3346.3147 
19317000    266.36636   -4839.8278   -4307.0622   -4839.8278            0    6781.8156    17.804544     23.44091    19.108629    7975.0764    6526.8756     4479.013    9339.5582    854.26637   -304.18917   -573.88681   -3518.2806 
19318000    256.67643   -4797.0443   -4283.6598   -4797.0443            0    8842.4435    17.912909    23.101812     19.19172    7941.9302    7635.8657    10018.708    8872.7567   -1927.1613    982.97479    -1426.104   -3259.4846 
19319000    251.76101    -4817.312   -4313.7589    -4817.312            0    11872.483     17.73845    22.971262    19.226288    7834.2233    14640.023    10985.173    9992.2543    56.720561    79.652202    -180.3059   -2957.2789 
19320000    264.90745   -4806.8187   -4276.9711   -4806.8187            0    6719.2501    18.017829    23.158376    19.187378    8006.1955    5563.3882    7170.9169    7423.4453   -1185.7854    787.07231   -718.28241    -3492.417 
19321000    270.94345   -4824.9851   -4283.0647   -4824.9851            0     9460.074    17.757511    23.018889    19.370078    7917.6779    10339.246    8687.3492    9353.6274      -273.13    94.514614    348.93812   -3190.6985 
19322000    274.45112   -4783.4796   -4234.5434   -4783.4796            0    7012.3413    17.939934    23.128785    19.322906    8017.6314    6355.2855    8006.6672     6675.071   -299.97458   -575.67955   -1209.1847   -3414.5979 
19323000     251.7836   -4829.7649   -4326.1666   -4829.7649            0    9266.3325    17.788228    23.146107    19.179402    7896.7015    10795.619    8814.9602     8188.418    932.15596   -409.46566   -493.19877   -3259.0067 
19324000    258.42617   -4846.5414   -4329.6571   -4846.5414            0     8802.326    17.840186    23.064682    19.250781    7921.2771    7890.3533    9589.5965    8927.0281     612.7524   -22.561345    628.16443   -3312.7799 
19325000    259.44861    -4815.916   -4296.9867    -4815.916            0    8680.1273     17.86832    23.175729    19.116562    7916.3853    7737.4211    8545.3882    9757.5725    1737.5689   -538.87641    406.67468   -3294.8455 
19326000    265.13717   -4800.3046   -4269.9975   -4800.3046            0    8209.1719    17.544025    23.387685    19.370791    7948.1096    11353.958    6226.2381    7047.3195    -508.0955   -1140.9042   -843.23918   -3318.4312 
19327000    258.10803   -4837.3295   -4321.0816   -4837.3295            0    10117.198    17.852186    23.048857    19.070634    7847.0412    10005.647    9946.0821    10399.864   -303.94875   -996.67986   -858.23507   -3163.2588 
19328000    267.23537    -4763.397   -4228.8933    -4763.397            0    9842.4672    17.734322    23.096059     19.28356      7898.41    11108.029    9742.9712    8676.4018   -704.38789    266.97371    996.48522   -3095.1374 
19329000    254.92722   -4813.6191   -4303.7332   -4813.6191            0    8675.3918    17.987865    23.088541     19.11683     7939.479    7305.0086    8941.6161    9779.5506   -1078.4224    1603.4229    1338.2965   -3299.2169 
19330000     276.6328   -4807.2569   -4253.9571   -4807.2569            0    8650.3793    17.781609    23.099138     19.25591    7909.1695    9884.9582    8070.1785    7996.0012   -160.97827    224.65144    1596.7423   -3256.1608 
19331000    277.57486    -4834.846    -4279.662    -4834.846            0     7432.904    17.796604    23.242621    19.213379    7947.4168    9205.3434    6304.5025    6788.8661   -1231.0465    -1111.827   -162.56048   -3418.1518 
19332000    268.15503   -4855.8332     -4319.49   -4855.8332            0    7601.2191    17.850734    23.195602    19.169963    7937.4866    7132.4256    7287.9235    8383.3081    1353.8796   -271.69368    642.56151   -3439.5721 
19333000    277.77147   -4816.6452   -4261.0679   -4816.6452            0    10968.286    17.630903      23.2149    19.248222    7878.2907    10943.297    12399.499    9562.0618   -743.84394    2191.5756   -1213.6087   -3000.8471 
19334000     262.6149   -4777.1017   -4251.8395   -4777.1017            0    8162.4785    17.895249    23.248955     19.23144    8001.1608    9240.6302    7565.9422    7680.8632    521.05746    209.67351    843.07995   -3299.3703 
19335000    259.05021   -4828.1411   -4310.0087   -4828.1411            0    7828.5694    17.790027    23.161062     19.26103     7936.236    9401.4501    6136.8945    7947.3637   -266.79039   -1292.2299   -1624.8681   -3403.9155 
19336000    257.05644   -4821.6018   -4307.4571   -4821.6018            0    8413.3995    17.856009    23.009659    19.242671    7906.0566    8196.9135    7750.1705    9293.1144    366.20246   -836.72952   -128.14185   -3337.3777 
19337000    252.74653   -4811.2105   -4305.6862   -4811.2105            0    8950.0454    17.884068    22.963528    19.317226    7933.2235    7920.9767    9249.8897    9679.2697   -826.86167   -205.97791   -559.90665   -3270.1845 
19338000    258.37043   -4805.9184   -4289.1456   -4805.9184            0    7658.8141    17.913217    23.149514    19.245945    7980.9523     5873.799    8033.6569    9068.9862    -1497.721    643.93249    405.02344   -3397.7056 
19339000    254.11279   -4853.7963   -4345.5393   -4853.7963            0    7262.4702     17.80149    23.040322    19.398742    7956.4341    8499.8774    6438.4788    6849.0543   -130.12813   -304.75866    834.17558   -3502.8282 
19340000    258.01843    -4812.585   -4296.5162    -4812.585            0    10597.244    17.954107    23.010394    19.091587    7887.3279    9962.9148    10323.889    11504.928    95.564322    448.01442    1704.4162   -3077.5303 
19341000    257.01738   -4824.3713   -4310.3048   -4824.3713            0    7085.6129    17.982685    22.981272    19.345658    7994.8828    8325.0473    7274.5266    5657.2649   -1160.2954    373.75204    321.85918   -3484.1424 
19342000    266.04587   -4832.6157   -4300.4911   -4832.6157            0    7594.6901    17.887091    23.025331    19.315681    7955.2828     6743.995    8528.5102     7511.565    2050.4945   -164.37682   -1284.9738   -3419.3579 
19343000    273.88937   -4811.4185   -4263.6059   -4811.4185            0    9911.4726    17.952027     22.77784    19.297413    7890.8741    9446.7354    10154.577    10133.106    1419.3786    475.15577   -922.54745   -3122.9906 
19344000    258.67611   -4803.2451   -4285.8609   -4803.2451            0    9871.9234    17.934687    22.760537    19.361325    7903.3534    9180.7571    9935.4634     10499.55   -846.70997   -750.47309   -25.528884   -3148.0003 
19345000    251.24039   -4835.7945   -4333.2827   -4835.7945            0    7940.6736    17.991051    22.812468    19.381847    7954.7031    8310.0321    8026.9334    7485.0553    838.14935   -269.23591    487.10908   -3412.0757 
19346000    254.52475    -4787.232   -4278.1511    -4787.232            0    7722.4715    18.032764    22.841942    19.363955    7976.0779    6833.0112    8558.3168    7776.0865   -766.63391     681.7803   -2221.2238   -3379.8507 
19347000    260.72298   -4806.4693   -4284.9912   -4806.4693            0    8791.4332    17.857974     22.68308     19.56594    7925.6508    9642.6954    8426.1981     8305.406     1470.683   -540.62748   -2408.7584   -3268.8115 
19348000    251.22016   -4798.0103   -4295.5389   -4798.0103            0    9815.5848    18.100154    22.757355    19.349055    7970.1007    7399.4182    10959.587    11087.749   -903.31665    675.04656   -703.91528   -3154.6171 
19349000    261.49126   -4818.4871   -4295.4723   -4818.4871            0    9394.4568    17.992465    22.721644    19.299546    7890.0094    9630.4651    8523.3166    10029.589   -234.99995   -625.17077    1139.4837   -3214.4738 
19350000    259.12907   -4811.1226   -4292.8324   -4811.1226            0    9958.0068    17.862815    23.010265    19.220321    7900.0924    10040.861    9386.9062    10446.253   -151.46472   -220.40124   -1377.3186   -3145.5232 
19351000     256.1745   -4846.6262   -4334.2456   -4846.6262            0    8306.8526    17.858807    22.878884    19.406598    7929.3335    8209.4635     8849.687    7861.4073    1606.0548   -866.60847   -581.21308   -3373.6312 
19352000    260.14349   -4805.1823   -4284.8632   -4805.1823            0    8146.7551    17.798623    23.049432    19.301218    7918.2885    10393.931     7026.605    7019.7292    905.31169   -1877.7821    1310.7078   -3344.0749 
19353000    266.24916   -4809.1026   -4276.5714   -4809.1026            0    9034.8064    17.949691     22.90752    19.256372    7917.8908    9962.7857    10087.495    7054.1386   -280.05715    613.97963   -553.46777   -3233.2833 
19354000    273.25122   -4819.3239   -4272.7877   -4819.3239            0    7896.9154    18.040408     22.94187    19.216277    7953.2461    6904.3479    8950.1856    7836.2127    650.18736    454.10664   -554.36247    -3356.825 
19355000    278.32499   -4796.0198   -4239.3354   -4796.0198            0    10444.827    17.859885    22.905454    19.343958    7913.3957    8480.3224    11085.794    11768.365    1476.0767   -270.86466   -1418.2737   -3033.9109 
19356000    258.03329   -4833.3154   -4317.2169   -4833.3154            0    8257.2706    17.916293    22.827825    19.399074    7934.0272    10011.057    7714.4781    7046.2768    413.34613    154.49449   -961.74433    -3361.771 
19357000    266.57974   -4808.7849   -4275.5925   -4808.7849            0     9203.995    18.249554    22.492243     19.28536    7916.1274    5902.0952    11291.421    10418.469    453.96126   -621.79868    583.98542   -3213.0042 
19358000     271.4433   -4802.8787   -4259.9586   -4802.8787            0    9839.4409    17.914624    22.760624    19.389475    7906.0201    11541.472    9704.2648    8272.5857    256.23212   -254.45561    1218.3328   -3125.4593 
19359000    263.94709    -4828.975   -4301.0482    -4828.975            0    8844.3776    18.167121    22.753263    19.174835    7926.1346    6803.0637    10059.555    9670.5141    166.28481    812.37133   -63.557952   -3278.6864 
19360000    268.42107    -4794.636   -4257.7607    -4794.636            0    8936.8221    17.798951    22.803237    19.534536    7928.5544    10614.591    9699.8422    6496.0331   -359.97303   -240.45473   -160.39566   -3224.3974 
19361000    278.42782   -4801.2575   -4244.3675   -4801.2575            0    8527.5935    18.194484    22.682876    19.230093    7936.3218     8477.234    8096.0975    9009.4488    956.00323   -686.74938   -449.00152   -3257.3573 
19362000    271.19033   -4815.1014   -4272.6872   -4815.1014            0    9446.4186    17.800342    22.844891      19.4111    7893.4631    9944.8106     8466.824    9927.6212   -196.48606   -876.76907    75.522171   -3185.2338 
19363000    266.95747   -4839.1307   -4305.1828   -4839.1307            0    7627.6073    18.129448     22.95266    19.134383    7962.1813    8102.5694    6640.5108    8139.7418    140.59385   -1635.5549      161.543   -3419.4631 
19364000    260.22721   -4794.6415   -4274.1549   -4794.6415            0    8919.4466    17.661673    23.140811    19.420247    7937.1604    11304.275    8216.7553      7237.31    -1164.325    273.43534    744.19401   -3241.6813 
19365000    263.83483     -4826.33   -4298.6278     -4826.33            0    8073.4493    17.945444    23.276323    19.027218    7947.7442     5841.704    7818.7529    10559.891   -1218.4504   -149.25236   -1072.3923   -3362.8367 
19366000    262.21406   -4834.1053   -4309.6448   -4834.1053            0    10289.064    17.711867    23.137082    19.277489    7899.9326    10316.249    9978.7075    10572.235    450.10243    33.674828    408.38504   -3124.2169 
19367000    264.31573   -4848.4969   -4319.8328   -4848.4969            0    8145.4399    17.740071    23.262716    19.170912    7911.4949    8394.3414    8048.3975    7993.5809   -123.60991    257.44526    368.23593   -3380.0034 
19368000    265.77934   -4835.6973   -4304.1058   -4835.6973            0    9575.4174    17.766763    23.088393    19.173406    7865.0463    9588.4203    9684.4873    9453.3447   -1700.8788   -466.98828   -2169.1509   -3205.7707 
19369000    258.57434   -4825.7968   -4308.6162   -4825.7968            0    9364.8532    17.886532    23.089553    19.216779    7936.3765    7076.2121    9319.4867    11698.861    1564.9174    1120.5142    455.52112   -3224.6915 
19370000      267.822   -4829.2351    -4293.558   -4829.2351            0    7918.8985    18.022214    23.054549     19.17949    7968.9636    7486.2507    7374.5915    8895.8533    962.47418    255.33803    194.95675   -3373.2303 
19371000    253.24166   -4815.7784   -4309.2638   -4815.7784            0    7987.1206    17.779337    23.071049    19.417893    7964.9857    10931.411    6524.4035    6505.5474     108.4296   -578.90741    1167.7403   -3381.4707 
19372000    258.54582   -4776.9301   -4259.8066   -4776.9301            0    7962.1746    17.976991    23.093676    19.184542    7964.5553    8917.5069    6879.6286    8089.3883   -845.38264   -102.75534   -547.16108   -3334.9612 
19373000     261.7214   -4820.3604   -4296.8853   -4820.3604            0    8523.5355    17.832261    22.881579     19.48607    7950.9067    9908.0415    8597.0914    7065.4736    1429.3197    1209.5391    -939.6782   -3308.5318 
19374000    264.99586   -4800.4328   -4270.4084   -4800.4328            0    11249.518    18.079215    22.865189    19.048239    7874.2502    11027.747    10651.043    12069.764    -1602.715   -178.10988   -201.24737   -2978.5378 
19375000    268.66517    -4791.368   -4254.0045    -4791.368            0    10144.252     17.74108    23.021077    19.390323    7919.3722    10127.008    10121.531    10184.216    168.11729    736.23813    1211.0499   -3082.3848 
19376000    262.25132   -4830.7064   -4306.1713   -4830.7064            0    8466.2036    17.920934    23.018743    19.223003    7929.8228    8358.6587    9134.9955    7904.9566   -57.624049   -259.19408   -1543.8161    -3327.069 
19377000    264.14296    -4834.438   -4306.1195    -4834.438            0    7064.5806    17.841404      22.8835    19.476742    7951.8428    8817.6116    7662.0722     4714.058   -808.96734    262.61322   -1479.7963   -3486.8438 
19378000    263.33669   -4834.6289   -4307.9229   -4834.6289            0    7434.3242    18.013834    22.858043    19.283391    7940.1482    6973.0385    8086.0927    7243.8414    335.27734   -362.15073   -393.77028   -3447.0363 
19379000    270.14204    -4778.466   -4238.1486    -4778.466            0    8473.1299    17.883523     23.14224    19.159765    7929.5523    8632.2234    8218.6516    8568.5147    884.69742   -760.38612   -95.718153   -3258.2787 
19380000    251.93947   -4838.1517   -4334.2416   -4838.1517            0    7061.6958    17.998704    23.135341    19.124204    7963.4362    6034.6734    6013.3509    9137.0631   -387.61772    380.47892   -853.71346   -3514.1065 
19381000    254.46267   -4840.2837   -4331.3269   -4840.2837            0    9021.7146    17.788647    22.947528    19.432186    7932.3244    11017.477    9509.4412    6538.2254    14.123825   -220.70853   -800.17873   -3287.6516 
19382000    272.53225   -4807.1139   -4262.0157   -4807.1139            0    7550.3129     17.99405    23.064147    19.230616    7981.0404    4940.7025    7279.0135    10431.223   -761.82738   -1390.9602   -1489.5323   -3383.1949 
19383000    272.59817    -4804.789    -4259.559    -4804.789            0    8458.9697    17.880926     23.06575    19.305127     7962.148    9256.2618     7989.457    8131.1902   -782.83889   -630.50291   -1670.9034   -3277.3054 
19384000    252.71288   -4825.2745   -4319.8175   -4825.2745            0    7233.9443    17.868548    22.972435    19.394034    7960.9416     7018.854    8897.1312    5785.8477   -518.33597    965.92081    635.81344   -3479.9409 
19385000    260.02304     -4822.74   -4302.6618     -4822.74            0    9397.5585     17.87285    23.092558    19.161053    7908.3384    11568.282    8291.6035      8332.79    -259.7174    671.41972     1302.497   -3218.7944 
19386000    279.13432     -4812.73   -4254.4269     -4812.73            0    9660.0762    17.874337    22.835769    19.242734    7854.3879    7595.7542    11582.593     9801.881    -1277.314    300.91978    676.00159   -3147.8826 
19387000    257.53231   -4812.6429   -4297.5465   -4812.6429            0    8312.6531    17.791073    23.182667    19.232469    7932.3264     7783.175    8524.4779    8630.3065   -952.59212   -182.70767   -1234.9188   -3335.8985 
19388000    270.50044   -4830.8792   -4289.8449   -4830.8792            0    9349.0326     17.87034    23.093916    19.131166    7895.3584    8345.9953     9428.328    10272.775   -749.30229    639.81049   -2811.8124    -3213.344 
19389000     263.1533   -4845.3388   -4318.9997   -4845.3388            0    9747.0888    17.877016    22.961573    19.261468    7906.5326    10100.507    9275.5775    9865.1815   -848.85756   -126.56238   -1706.0576   -3195.0759 
19390000    260.33017   -4796.1435    -4275.451   -4796.1435            0    8431.9265    18.104911    22.824768    19.253017    7956.1243     10450.31    7104.8418    7740.6281   -1240.5301    1046.0425    728.35997   -3297.0784 
19391000    260.97522   -4824.8018   -4302.8191   -4824.8018            0     7327.955    17.895331    22.930303    19.377557    7951.4904    7443.1503    7574.1781    6966.5367    823.08194   -1137.1045    1686.7043   -3453.0377 
19392000    261.27905   -4814.3736   -4291.7833   -4814.3736            0    8854.9415    17.908177     22.96263     19.25099    7916.3698    8562.7917    9862.9109    8139.1218    94.799838    183.89244     270.4506   -3269.4614 
19393000    265.55562   -4847.5188   -4316.3748   -4847.5188            0    6541.1384    18.009584    22.931468    19.371626    8000.2142    6742.1222    6145.9441    6735.3489   -519.90827   -277.70155   -63.424506    -3553.188 
19394000    265.19504   -4810.4633   -4280.0405   -4810.4633            0    9957.7598    17.877789    22.759731    19.486345    7928.8706    12464.356    8953.5238    8455.4001    1343.5998    519.74274   -205.62872   -3128.5805 
19395000    269.45773   -4822.2738   -4283.3251   -4822.2738            0    9092.9196    18.014514    22.765225    19.272868    7903.8895    8104.5571    10375.241    8798.9612   -362.11446   -702.28677    154.26679   -3235.1832 
19396000    256.72377   -4805.7092   -4292.2299   -4805.7092            0    8759.4811     17.88416    22.928627    19.272123    7902.7117    8324.6164    9337.3149     8616.512   -365.94578    878.39724   -248.17035    -3282.674 
19397000    256.77066    -4843.143   -4329.5699    -4843.143            0    8521.4987    17.980557    22.886899    19.338434    7958.1369    8413.7218    8925.5781    8225.1961    851.38474     1020.031    189.10526    -3340.554 
19398000    261.62243   -4810.7061   -4287.4289   -4810.7061            0    10393.269    17.963437      22.9331    19.137283    7883.7434    6892.2871    12195.846    12091.673    563.55751    1823.9994    765.53468   -3092.4492 
19399000    277.03554    -4806.526   -4252.4207    -4806.526            0    9051.1266    17.861703    23.077206    19.217516    7921.4255    8110.5704    9369.3538    9673.4555   -278.04379   -812.02929    2370.0027   -3206.7815 
19400000    262.87616   -4827.2645   -4301.4797   -4827.2645            0    8373.5896    17.830165    23.005496     19.27728    7907.3819    8844.9731    8425.8851    7849.9107    270.37084    -285.6504    342.44967   -3335.8285 
19401000    271.15502   -4783.3901   -4241.0465   -4783.3901            0    9083.4378    17.869873    23.216337    19.221942    7974.6645    9779.1381    8312.7223     9158.453   -457.22686   -411.77691    363.93915   -3184.6218 
19402000     257.4689   -4796.0108   -4281.0412   -4796.0108            0    7629.5702    17.997533    22.770531    19.402592    7951.4421     7257.403    9314.0039    6317.3038    758.28837    288.20815     616.1908   -3396.2886 
19403000    256.72688   -4794.0081   -4280.5226   -4794.0081            0    8399.1373    17.918291    22.965871    19.325314    7952.5436    8328.3063     8194.095    8675.0105     -65.0364    82.658525   -769.87106   -3306.3932 
19404000    262.32869    -4822.083   -4297.3932    -4822.083            0    8888.8664    17.831584    22.992451    19.321857    7921.8029    8930.5301    9181.7769    8554.2922   -1907.8109    386.66026    481.95547   -3270.4503 
19405000    253.14634   -4817.2368   -4310.9128   -4817.2368            0    8107.8001    17.818241    23.222555    19.178265    7935.6798    7402.2285    7679.5346    9241.6372   -1045.4245   -275.72028    380.13769   -3372.5667 
19406000    273.56291   -4861.9359   -4314.7763   -4861.9359            0    8149.5075     17.93631    23.115225    19.050777     7898.487    5716.4096    7962.1481    10769.965   -553.83242   -146.71124   -1061.8855   -3376.0237 
19407000    255.93784     -4810.01   -4298.1027     -4810.01            0    8460.4998    17.654972    23.195253    19.404876    7946.5206    9927.0622    7368.3121    8086.1251   -783.94229   -98.306204   -791.03368   -3317.5997 
19408000    250.32913   -4807.7722    -4307.083   -4807.7722            0    10113.511    17.919322    23.156094     18.90927    7846.2411    8498.3163    10379.644    11462.571    444.07048   -95.052364    830.30149   -3149.8003 
19409000    256.47705   -4830.5112   -4317.5254   -4830.5112            0    6868.2428    17.728601    23.071727    19.513795    7981.7169     8102.005    6625.0039    5877.7196    227.93945   -719.73873    1163.8734   -3518.0265 
19410000    258.17752   -4793.1129    -4276.726   -4793.1129            0    8006.4952    18.009252    23.014453    19.171523    7946.0802    7326.0285    8294.7741    8398.6831   -57.135674   -124.47098    2909.3177   -3348.8898 
19411000    257.22665   -4831.0142   -4316.5291   -4831.0142            0    8163.9789    17.735167    22.879084    19.494222     7910.061    10490.329    8970.0234    5031.5837    1045.0027    477.12793   -1474.0137   -3374.7315 
19412000     262.3961   -4812.8282   -4288.0036   -4812.8282            0    7865.6744    18.188496    22.683401    19.270166    7950.4263    6199.5812    8244.2852    9153.1569   -618.74573   -1060.1149   -1284.2722    -3375.988 
19413000    262.76226   -4815.9846   -4290.4276   -4815.9846            0    8673.2044    17.936603     22.73244    19.419359    7918.1028    7690.3763    9692.0056    8637.2314    28.272688    452.40402    199.86373   -3288.8685 
19414000    262.20893   -4821.2798   -4296.8296   -4821.2798            0    10572.331    18.013896    22.662797    19.371774    7908.4346     10819.47    11093.234    9804.2876    1151.7149    426.68372   -1030.8343   -3077.4549 
19415000    254.04492   -4809.2275   -4301.1063   -4809.2275            0    8645.3288    17.883265    22.817726    19.422221    7925.3431    8796.9917    9812.3874    7326.6073   -155.10913   -261.14346   -1075.6771   -3301.8533 
19416000    279.07853   -4808.7222   -4250.5307   -4808.7222            0    7640.0227    18.025619    22.894615    19.280247     7956.757    7015.1905    7792.0609    8112.8167    1169.3603    267.53864    345.71348   -3363.9737 
19417000    263.67768   -4834.0809   -4306.6929   -4834.0809            0    7318.7961    17.844189    22.917045    19.543118    7991.8861    8252.0316    6864.0403    6840.3163    47.690724    330.58162     586.3419   -3453.6619 
19418000    259.52689   -4792.6589   -4273.5731   -4792.6589            0    8123.5825    18.247729    22.844936    19.153661    7984.5523    8487.5878    6577.4776    9305.6821   -2669.5976   -132.13469   -131.95558   -3327.6103 
19419000    285.31199   -4826.3929   -4255.7337   -4826.3929            0    7446.5408    17.969448    22.698619    19.565958    7980.5953    8201.6561    8179.9232    5958.0431    1343.4597    464.63242    394.39136   -3389.0398 
19420000    257.18585   -4789.7388   -4275.3354   -4789.7388            0    9473.8812     18.08406    22.707867    19.236831    7899.6128    8619.3491    10691.729    9110.5656    856.43573   -543.39408    1491.9448   -3183.8709 
19421000    267.42271   -4812.9233   -4278.0448   -4812.9233            0    6935.7833     18.00188    22.834298     19.47311    8004.6224    7983.4526    7423.0511     5400.846   -425.44663   -521.19559    848.17656    -3468.367 
19422000    256.14745   -4819.6327   -4307.3062   -4819.6327            0    9016.0893    18.127606    22.733591    19.281138    7945.8644    9285.6428     8253.414    9509.2112   -1705.1217   -957.05621   -489.91698   -3262.5011 
19423000    257.63172   -4826.5317   -4311.2364   -4826.5317            0    9258.9098    17.859994    22.882916    19.410214    7932.7359    8852.5071    10452.102    8472.1201    503.51245    1431.6658     2730.222   -3240.0656 
19424000    255.33504   -4813.8674   -4303.1658   -4813.8674            0    7964.8535    17.933652     23.03397    19.248092    7951.0633    7305.2623    7611.0701    8978.2283    129.51717   -589.66225    1723.8804   -3379.5765 
19425000     270.0077   -4835.4903   -4295.4415   -4835.4903            0    10844.523    17.746941    22.969984    19.274119    7857.0359    11697.845    11300.228    9535.4967   -1373.6225    13.862816    897.13226   -3052.8022 
19426000    257.04704   -4809.9415   -4295.8156   -4809.9415            0    9883.3106    17.802835    23.208772    19.124396    7901.8548     11258.57    8712.3652    9678.9969   -1229.4832    174.83156     1360.733   -3156.8585 
19427000    271.29616   -4805.5148    -4262.889   -4805.5148            0    10404.032    17.862063     22.93812    19.261091    7891.6959    8791.5304    9967.4568    12453.108   -1057.7381    218.53096    1547.9838   -3065.4651 
19428000    280.86468   -4829.2153   -4267.4512   -4829.2153            0     9415.185    17.863091    22.937698    19.231701    7879.9625    11314.365    7842.0706    9089.1197   -638.64843    273.97072   -1425.1875   -3185.4471 
19429000    265.57584   -4802.0737   -4270.8892   -4802.0737            0    9135.5524    17.895398    22.941792     19.32637    7934.4896    7953.5378      9747.52    9705.5995   -368.92218    277.05773   -619.96205    -3213.756 
19430000    273.67511   -4830.4978   -4283.1138   -4830.4978            0    7006.2303      18.1372    22.848464    19.223383    7966.3075    7140.8271    7055.1189    6822.7449   -1025.2195    122.91511    404.33218    -3469.127 
19431000    273.32402    -4851.007   -4304.3252    -4851.007            0    10266.683    17.952281    22.762344    19.319304     7894.563    11558.306    9633.2928    9608.4484    839.63251    430.13635    2032.8549   -3122.2799 
19432000    261.00834   -4803.9369    -4281.888   -4803.9369            0    8168.3498     17.93299      23.0166    19.229446    7937.0781     6894.678    8846.7102    8763.6612   -2112.1914    516.59319    876.79974   -3336.3677 
19433000    265.33962   -4836.6254   -4305.9133   -4836.6254            0    10673.971    17.897762    23.010029    19.156329    7889.1129    10618.901    9369.8286    12033.183   -1927.4122   -422.28858    275.05052   -3077.8237 
19434000    258.82807    -4835.874   -4318.1859    -4835.874            0    7726.5129     17.92361    23.012534    19.247814    7939.1011    7396.3307    7378.5628    8404.6451    399.75125   -174.10633    2377.4578   -3423.5821 
19435000    254.19747   -4776.2048   -4267.7785   -4776.2048            0    7807.4423    17.956907     22.91547    19.395952    7981.2586    8064.9932    7584.3809    7772.9528   -2310.2706    834.53811   -2516.9507   -3359.0041 
19436000    265.58544   -4788.4754   -4257.2717   -4788.4754            0    10056.655    17.973865    22.861361    19.177334    7880.1012    7428.1514    10819.856    11921.959    186.81724    240.46242    591.89388   -3101.5288 
19437000    258.36213   -4813.0207   -4296.2645   -4813.0207            0    7878.0364    17.969141    22.764659    19.476503    7967.0849    9463.2264    7909.6131    6261.2697   -1145.0802   -158.99276    1636.9905   -3380.9016 
19438000    272.90239   -4817.8102   -4271.9717   -4817.8102            0     9297.314    18.014704    22.650126    19.413578    7921.4254      8342.54     10821.18    8728.2226   -253.60235    822.74239    614.25857   -3197.8915 
19439000    251.00855   -4819.5426   -4317.4945   -4819.5426            0    10468.756    17.858268     22.76439    19.342147    7863.2127    11251.008    10582.232    9573.0295    570.77012    640.59775    578.32679     -3116.97 
19440000    279.84279   -4800.5837   -4240.8635   -4800.5837            0    8337.5778    18.079075    22.619239    19.483768     7967.593    8362.9827    8957.3332    7692.4174   -693.35616    178.08997    114.75391   -3272.0439 
19441000     260.5172   -4801.6872   -4280.6206   -4801.6872            0     7853.557    18.085912    22.654124    19.448763    7968.5568    7920.0686     8394.469    7246.1335   -148.11958   -550.98998    2228.2683   -3367.9334 
19442000    277.89188   -4824.7467   -4268.9286   -4824.7467            0    8824.3888    18.075395    22.676505    19.300293    7910.9351    8768.1201    9251.7272    8453.3192    -3001.648   -1365.2014   -3025.7604   -3250.8335 
19443000    261.85049   -4816.1685   -4292.4352   -4816.1685            0     9580.954    17.876101    22.836691    19.410828    7924.1015    10777.073    9958.1107    8007.6781    710.04408   -326.28164    1664.4049   -3185.2132 
19444000    260.42965   -4806.3145    -4285.423   -4806.3145            0    7857.0126    18.107831    22.819149    19.307971    7978.1557      7862.87    6765.7048    8942.4629    -323.0359    297.08965    74.553404   -3371.2343 
19445000    265.91714   -4809.2127   -4277.3456   -4809.2127            0    11009.504    17.765439    22.903922    19.325246    7863.4082    11271.961    11094.693    10661.857   -238.07171   -709.51627    733.98525   -3014.7785 
19446000    262.99408   -4820.4421   -4294.4214   -4820.4421            0    8050.3914    17.905502    22.986365    19.283545    7936.7678    9275.8875    6674.9283    8200.3584    1034.5503   -675.57774   -282.32135   -3362.5917 
19447000    270.13956   -4828.0667   -4287.7542   -4828.0667            0    8618.4714     17.89458    22.941723    19.291236    7919.6794    9050.2154    8799.3686    8005.8302    1013.4336    145.09717    693.57793   -3292.3173 
19448000    263.73987   -4818.1789   -4290.6666   -4818.1789            0    6980.9085     17.98346    22.968979    19.338991    7988.1969    6735.0655     7516.595     6691.065    1142.7834   -102.90976   -538.69139   -3477.3931 
19449000    271.40471   -4808.7869    -4265.944   -4808.7869            0    8978.6383    17.916814    22.861082    19.310412    7909.5014    8694.1165    10178.189    8063.6089    238.40125     572.2863     166.2595   -3230.2404 
19450000    265.17156   -4823.2521   -4292.8762   -4823.2521            0    9430.2452    17.898716    22.942216    19.254578    7906.6266    10895.899    7839.2954    9555.5412   -696.05331   -1375.9274   -172.57776   -3205.4743 
19451000    264.05114   -4813.5548   -4285.4199   -4813.5548            0     7787.958    17.799993    22.960168    19.401784    7929.3313     6314.541    8743.8877    8305.4453    259.68621    82.454898   -851.57774   -3384.8114 
19452000    265.11093   -4819.8509   -4289.5963   -4819.8509            0    9568.1137    18.018788     22.93558     19.15102    7914.5677    9430.7222     9907.446    9366.1728   -646.09639    707.10599   -194.08987   -3185.1887 
19453000    253.55655    -4833.487   -4326.3425    -4833.487            0    9762.6169    17.877508    22.935663    19.288528    7908.9233    10613.209    10085.092    8589.5496    -514.6537    430.06148    1174.7553   -3200.2878 
19454000    251.53678   -4815.2973   -4312.1927   -4815.2973            0    9627.7014    17.794017    22.970379    19.299141    7888.2401    10178.876    9678.9028     9025.325    1415.8468   -694.57874   -1853.7935   -3204.6037 
19455000    256.08487   -4833.6048   -4321.4034   -4833.6048            0    8147.4736    17.826179    23.007294    19.360777    7940.4771    6908.4298    8783.9069     8750.084   -411.15222   -377.16028    1015.0527   -3377.8957 
19456000    259.46567   -4824.6233   -4305.6599   -4824.6233            0    8887.6895    18.024866     22.79714    19.230968    7902.3009      9555.34    8742.8202    8364.9084   -88.451106    841.41763    -902.3177   -3281.3808 
19457000    256.49124   -4803.0363   -4290.0221   -4803.0363            0    8267.6737    17.970016     22.91089    19.359552    7970.5035    9199.4065    7823.6397    7779.9749    -2111.239    626.99716   -2578.8516   -3328.9744 
19458000     268.6159   -4810.7272   -4273.4622   -4810.7272            0    9521.0478    18.013364    22.797233    19.288724     7921.008    9134.5674     8320.065    11108.511    1280.9149    337.13576    163.91647   -3173.5929 
19459000    261.94808    -4815.657   -4291.7285    -4815.657            0    8216.4895    17.969196    22.834185    19.384163    7953.5539    7410.9762    8912.7183    8325.7739      290.612   -31.625549   -635.64269   -3338.6615 
19460000    265.44754   -4806.6058   -4275.6779   -4806.6058            0    7358.2793    18.060775    22.930014    19.234479    7965.6483    7229.7774    8304.2408    6540.8197    1380.2089   -614.26501    273.62682   -3420.8606 
19461000    265.69004   -4817.7007   -4286.2878   -4817.7007            0    8154.3798     17.75679    22.876973    19.541774    7938.2909    9241.7898    8367.7219    6853.6276   -302.37357   -260.57485   -228.23184   -3342.2404 
19462000    273.91776   -4842.9901   -4295.1207   -4842.9901            0    7460.9081    18.158068    22.804573    19.210835    7954.9571    6818.3327    7329.0142    8235.3773   -220.62032   -791.45439    15.806144   -3429.5443 
19463000     264.6612   -4830.1059   -4300.7508   -4830.1059            0    7251.8106    17.913173    22.790278    19.543204    7978.4385    8284.3728    8946.0421     4525.017   -1000.0604    608.77552   -2091.8436   -3456.9494 
19464000    250.05433   -4789.0532   -4288.9137   -4789.0532            0    8873.3396    18.108613    22.798143    19.255557    7949.5171    7741.1309    9188.1634    9690.7243   -116.84256    41.702976   -633.75989   -3260.1781 
19465000    255.29224   -4848.4589   -4337.8429   -4848.4589            0    9388.5689    17.911337     22.75996    19.318343    7875.3415    10403.336    8460.7179    9301.6527   -806.68118   -177.33365   -1440.1564   -3259.5302 
19466000    263.24292   -4824.1819   -4297.6636   -4824.1819            0    7585.4427    18.011046    22.975462    19.240896    7962.1153    7731.8351     6619.536    8404.9568   -1041.4468    415.42969    294.04646   -3416.8474 
19467000     256.7146   -4841.6608   -4328.1998   -4841.6608            0    7431.2245    17.820371      22.9511    19.376749    7925.0348     8854.617    7653.8233    5785.2331   -459.42842    -1335.402   -221.08191     -3469.31 
19468000    266.72269   -4799.1778   -4265.6994   -4799.1778            0    9444.9336    17.919327     22.96012     19.23537    7914.0065    9102.9562    9620.7528    9611.0919   -58.899717   -658.91317   -415.02073   -3175.5872 
19469000    264.15303   -4833.7309   -4305.3922   -4833.7309            0    7505.9408    17.977445    22.948706    19.333422    7976.1792    6331.0794    8355.8546    7830.8884   -217.23154    124.89775    308.63133   -3432.2682 
19470000    252.96314   -4830.8488   -4324.8913   -4830.8488            0    9190.2205    17.979414    23.041989    19.145736    7931.7235    7717.1799    8304.8119     11548.67   -374.34479    212.47439    644.88261   -3261.8028 
19471000    262.24075   -4829.8209    -4305.307   -4829.8209            0    6959.3105    17.975941    22.973705    19.313609    7976.0176    7878.5147      7165.96    5833.4568    1193.8155   -187.46057    1750.6442   -3495.7859 
19472000    264.13028   -4850.1856   -4321.8924   -4850.1856            0    9964.4549    17.906836     22.90015    19.208255    7876.7142    9526.2842    9844.6622    10522.418   -270.96465   -1022.6203   -658.61832   -3177.2376 
19473000    249.76889   -4823.9909   -4324.4222   -4823.9909            0    7864.0841    17.756284    22.988533    19.463361    7944.7673    10177.362    7046.6227    6368.2678   -21.978263   -393.77474   -287.20851   -3413.2401 
19474000     261.7955   -4814.7115   -4291.0881   -4814.7115            0    9220.9158    17.999693    23.031496    19.112805    7923.4016     10557.24    8454.8262     8650.681    926.27177   -476.41028   -47.843405   -3225.5681 
19475000    260.94344    -4823.757   -4301.8379    -4823.757            0    10394.127    17.751969    22.974338     19.28763    7866.2621    10218.915    10824.725    10138.743    1521.5022    817.19681    77.179693   -3109.4094 
19476000    250.90645    -4794.253   -4292.4092    -4794.253            0     9312.166    17.825301    23.362512    18.995066    7910.3779    8782.3172    8708.5247    10445.656    771.93966     342.4792     716.7489   -3218.1135 
19477000    285.20245   -4790.9278   -4220.4877   -4790.9278            0    8627.6686    17.763671    23.250775    19.216655    7936.8458    11185.817    7974.6279    6722.5608    1174.5372    1843.1413    1171.3383   -3221.8286 
19478000    273.94512   -4810.9809   -4263.0568   -4810.9809            0    8912.7176    17.761678    23.427939    19.093124    7945.0215    8084.6381    8136.7217    10516.793    2126.3525    456.56368    578.99333   -3230.3403 
19479000    276.96834    -4830.508   -4276.5371    -4830.508            0    7321.5297    17.727355    23.499825    19.139916    7973.4925    8061.6289    6423.5471    7479.4131   -624.47252    884.42675   -2404.0852   -3425.1515 
19480000    265.74029   -4787.5974    -4256.084   -4787.5974            0    6472.6586      17.9062    23.265916    19.157054    7980.9084     4286.501    7024.7318    8106.7432    88.124015    37.661779   -589.56928   -3502.7095 
19481000    277.19366   -4814.2621   -4259.8405   -4814.2621            0    9857.6959    17.646687    23.335796    19.123285    7874.9589    10170.842    8977.4925    10424.753    722.52759     983.5526   -808.02426   -3127.7019 
19482000    265.74846   -4817.0514   -4285.5216   -4817.0514            0    8538.8014    17.885521    23.154385    19.127282    7921.1477    9470.8622    8652.1238    7493.4183    420.83612    738.14652   -553.92831   -3299.1038 
19483000    266.04296   -4826.2867   -4294.1679   -4826.2867            0    10789.668    17.757578    22.960435    19.320656    7877.4509    11773.024     10955.32    9640.6598    1312.7182   -383.92868    713.62758   -3054.6019 
19484000     278.6978   -4824.8447   -4267.4146   -4824.8447            0    8222.7957    18.136921    22.845806    19.210576    7959.9517    6413.7288    8571.0933    9683.5651   -15.848523   -1739.9138     1340.977   -3312.8489 
19485000    259.27848   -4839.4467   -4320.8577   -4839.4467            0    7293.8397    17.997704    22.629576    19.563512    7967.8351    7308.6717    8907.1198    5665.7277    960.79335    759.02063   -148.15084   -3473.2938 
19486000    264.02227   -4830.3279   -4302.2508   -4830.3279            0    8298.5402     17.99818    22.951059    19.246518    7950.2998    7969.2943    9289.2388    7637.0874   -497.60485   -235.68398    290.87009   -3340.0602 
19487000    254.84129   -4816.3193   -4306.6053   -4816.3193            0    8043.2756    17.938704    22.788814    19.440236    7947.2031    8787.0546    8461.8308    6880.9412   -547.36171   -1110.1449   -646.66491   -3374.3751 
19488000    265.11476   -4794.2144   -4263.9521   -4794.2144            0    9552.3994     17.81777    23.077083    19.249728    7915.1444    10127.194    10821.029     7708.976   -963.38484    493.62833   -434.51219    -3161.278 
19489000    263.35218   -4816.2927   -4289.5558   -4816.2927            0    7795.9568     17.89275    22.927667    19.374356    7948.1168    7948.3181    7868.8472     7570.705    577.95833    -1088.574   -1290.9246   -3385.8865 
19490000    271.44014   -4817.2981   -4274.3843   -4817.2981            0    9587.3389    17.942591     22.89563    19.249967    7908.0198    9040.8256    10323.624    9397.5672   -845.40115    390.21604    -1404.149   -3168.6731 
19491000    255.29708   -4813.6345   -4303.0088   -4813.6345            0    10210.743    18.013573    22.709895    19.268281    7882.3905    10583.646    10205.122    9843.4605    540.00646    850.06198   -140.68167   -3129.2168 
19492000    258.07559   -4813.3581   -4297.1751   -4813.3581            0    7939.8838     17.88347    22.931712     19.44801    7975.6013    7872.3748    8922.4534    7024.8232   -102.27371    276.22062    785.23015   -3373.6398 
19493000    279.34752   -4816.0067   -4257.2771   -4816.0067            0    9575.1671    18.091943    22.970438    19.148012    7957.5285    9861.1747     8841.333    10022.994    2187.9856   -567.99364    953.39977   -3146.0561 
19494000    264.62642   -4789.6897   -4260.4041   -4789.6897            0    11451.415    17.754959    22.744661     19.37586    7824.5639    10482.625    11866.226    12005.395    264.03043   -351.24993    -2112.141   -2953.6461 
19495000    267.74949   -4784.2459   -4248.7138   -4784.2459            0    8803.7786    18.046963    22.912235    19.173946    7928.3551    7603.8492    9103.2915    9704.1953   -136.83452   -1906.2905   -703.37648     -3230.76 
19496000    260.31822   -4827.8912   -4307.2226   -4827.8912            0    7147.9083    17.961816    22.680605    19.620269    7993.0005    7494.4529    8173.4912    5775.7809    681.92698    767.25083    528.82724    -3473.993 
19497000    263.82176   -4815.8576   -4288.1815   -4815.8576            0    9037.6245    17.991138    22.854258    19.240268    7911.1002    9147.8334    7912.8752    10052.165    401.64788    -186.1847   -1080.3205    -3245.463 
19498000    276.53113   -4823.4951   -4270.3987   -4823.4951            0    7586.3752     18.03872    22.796547    19.354577    7958.9995    4704.6291    8376.4374     9678.059   -707.81351   -75.343282    1302.5294    -3389.819 
19499000    258.93118   -4828.0784    -4310.184   -4828.0784            0    8890.4501    17.958946    22.812584    19.383988    7941.4255    9226.9376    9741.3963    7703.0163   -222.87487    47.620964    928.71586   -3280.5139 
19500000     268.8981   -4795.4193   -4257.5899   -4795.4193            0    5777.9292    18.028457    22.767286    19.478491     7995.123    5307.9882    6463.4503    5562.3492   -403.94836   -2286.4743   -396.52613   -3583.8795 
Loop time of 532.548 on 64 procs for 250000 steps with 1008 atoms

Performance: 81.119 ns/day, 0.296 hours/ns, 469.441 timesteps/s
99.2% CPU use with 64 MPI tasks x 1 OpenMP threads

MPI task timing breakdown:
Section |  min time  |  avg time  |  max time  |%varavg| %total
---------------------------------------------------------------
Pair    | 28.33      | 32.67      | 36.205     |  34.1 |  6.13
Bond    | 0.27556    | 0.28384    | 0.29928    |   1.0 |  0.05
Kspace  | 240.06     | 253.73     | 267.58     |  44.7 | 47.65
Neigh   | 4.4332     | 5.4403     | 6.5156     |  29.2 |  1.02
Comm    | 99.504     | 112.71     | 127.89     |  72.4 | 21.16
Output  | 1.0265     | 1.0294     | 1.0419     |   0.3 |  0.19
Modify  | 114.48     | 119.56     | 124.13     |  22.9 | 22.45
Other   |            | 7.131      |            |       |  1.34

Nlocal:        15.7500 ave          20 max          11 min
Histogram: 1 2 5 5 18 11 11 7 1 3
Nghost:        2485.97 ave        2513 max        2465 min
Histogram: 1 9 7 11 13 12 5 3 1 2
Neighs:        5222.39 ave        6686 max        3646 min
Histogram: 1 2 5 5 18 11 11 7 1 3

Total # of neighbors = 334233
Ave neighs/atom = 331.58036
Ave special neighs/atom = 2.0000000
Neighbor list builds = 9772
Dangerous builds = 0

unfix		3
unfix		2
unfix		1

write_data	data.final.${pid}
write_data	data.final.0
System init for write_data ...
PPPM initialization ...
  extracting TIP4P info from pair style
  using 12-bit tables for long-range coulomb (../kspace.cpp:340)
  G vector (1/distance) = 0.37938398
  grid = 24 27 32
  stencil order = 5
  estimated absolute RMS force accuracy = 0.0024237093
  estimated relative force accuracy = 7.2989286e-06
  using double precision FFTW3
  3d grid and FFT values/proc = 3825 384
Last active /omp style is kspace_style pppm/tip4p/omp
WARNING: Not all mixed pair coeffs generated from mixing. Use write_data with 'pair ij' option to store all pair coeffs. (../write_data.cpp:312)

write_restart   restart.lmp.${pid}
write_restart   restart.lmp.0
System init for write_restart ...
PPPM initialization ...
  extracting TIP4P info from pair style
  using 12-bit tables for long-range coulomb (../kspace.cpp:340)
  G vector (1/distance) = 0.37938398
  grid = 24 27 32
  stencil order = 5
  estimated absolute RMS force accuracy = 0.0024237093
  estimated relative force accuracy = 7.2989286e-06
  using double precision FFTW3
  3d grid and FFT values/proc = 3825 384
Last active /omp style is kspace_style pppm/tip4p/omp
Total wall time: 0:08:53
