LAMMPS (30 Jul 2021)
  using 1 OpenMP thread(s) per MPI task
package omp 0
using multi-threaded neighbor list subroutines
echo both

include		in.partitions
variable        pid world 0
include		in.temp
variable        temperature equal 253.06
variable	tempDamp equal 100.0
include		in.pressure
variable        pressure equal 5875.0
variable        pressureDamp equal 1000.0 # This is 1 ps
include		in.seed
variable        seed world 745823

units		real
atom_style	full
read_restart    restart.lmp.${pid}
read_restart    restart.lmp.0
Reading restart file ...
  restart file = 30 Jul 2021, LAMMPS = 30 Jul 2021
  restoring atom style full from restart
  triclinic box = (-3.1401908 -0.40945993 -0.035628675) to (14.750190 22.989459 19.265627) with tilt (0.040563451 -6.1575209 0.15182990)
  4 by 4 by 4 MPI processor grid
  restoring pair style lj/cut/tip4p/long/omp from restart
  restoring bond style harmonic/omp from restart
  restoring angle style harmonic/omp from restart
  1008 atoms
  672 bonds
  336 angles
Finding 1-2 1-3 1-4 neighbors ...
  special bond factors lj:    0        0        0       
  special bond factors coul:  0        0        0       
     2 = max # of 1-2 neighbors
     1 = max # of 1-3 neighbors
     1 = max # of 1-4 neighbors
     2 = max # of special neighbors
  special bonds CPU = 0.881 seconds
  read_restart CPU = 1.130 seconds

include 	in.setup
variable	out_freq equal 1000
variable	out_freq2 equal 10000
variable	out_freq3 equal 1000

timestep	2.0

neigh_modify    delay 7 every 1

include		in.tip4p
# This is TIP4P/Ice

# create groups ###
group ox type 2
336 atoms in group ox
group hy type 1
672 atoms in group hy

# set charges - beside manually ###
set group ox charge -1.1794
Setting atom values ...
  336 settings made for charge
set group hy charge 0.5897
Setting atom values ...
  672 settings made for charge

# ### TIP3P Potential Parameters ###
pair_style lj/cut/tip4p/long/omp 2 1 1 1 0.1577 8.5
pair_coeff 1 1*2 0.000 0.000
pair_coeff 2 2 0.21084 3.1668
bond_style  harmonic
bond_coeff  1 450 0.9572
angle_style harmonic
angle_coeff 1 55 104.52
kspace_style pppm/tip4p/omp 1.0e-5
pair_modify tail yes

thermo          ${out_freq}
thermo          1000
thermo_style    custom step temp pe etotal epair emol press lx ly lz vol pxx pyy pzz pxy pxz pyz enthalpy

restart 	${out_freq3} restart.lmp.${pid} restart2.lmp.${pid}
restart 	1000 restart.lmp.${pid} restart2.lmp.${pid}
restart 	1000 restart.lmp.0 restart2.lmp.${pid}
restart 	1000 restart.lmp.0 restart2.lmp.0


include         in.dump
dump            myDump all atom ${out_freq2} dump.water.${pid}
dump            myDump all atom 10000 dump.water.${pid}
dump            myDump all atom 10000 dump.water.0
dump            myDump2 all dcd ${out_freq2} dump.dcd
dump            myDump2 all dcd 10000 dump.dcd
dump_modify     myDump append yes
dump_modify     myDump2 append yes


variable natoms 	equal  "count(all)"                        # NUMBER ATOMS
variable H      	equal  "enthalpy/v_natoms"                 # ENTHALPY-per-atom
variable Vol      	equal  "vol/v_natoms"                 # volume-per-atom
fix AVG all 		ave/time ${out_freq} 1 ${out_freq} v_Vol v_H file vol_enthalpy.dat
fix AVG all 		ave/time 1000 1 ${out_freq} v_Vol v_H file vol_enthalpy.dat
fix AVG all 		ave/time 1000 1 1000 v_Vol v_H file vol_enthalpy.dat



fix 		1 all shake 1e-6 200 0 b 1 a 1
       0 = # of size 2 clusters
       0 = # of size 3 clusters
       0 = # of size 4 clusters
     336 = # of frozen angles
  find clusters CPU = 0.069 seconds
fix             2 all nph tri ${pressure} ${pressure} ${pressureDamp}
fix             2 all nph tri 5875 ${pressure} ${pressureDamp}
fix             2 all nph tri 5875 5875 ${pressureDamp}
fix             2 all nph tri 5875 5875 1000
fix             3 all temp/csvr ${temperature} ${temperature} ${tempDamp} ${seed}
fix             3 all temp/csvr 253.06 ${temperature} ${tempDamp} ${seed}
fix             3 all temp/csvr 253.06 253.06 ${tempDamp} ${seed}
fix             3 all temp/csvr 253.06 253.06 100 ${seed}
fix             3 all temp/csvr 253.06 253.06 100 745823


run             250000
PPPM initialization ...
  extracting TIP4P info from pair style
  using 12-bit tables for long-range coulomb (../kspace.cpp:340)
  G vector (1/distance) = 0.38273767
  grid = 24 30 32
  stencil order = 5
  estimated absolute RMS force accuracy = 0.0020044997
  estimated relative force accuracy = 6.0364914e-06
  using double precision FFTW3
  3d grid and FFT values/proc = 3825 384
Last active /omp style is kspace_style pppm/tip4p/omp
Neighbor list info ...
  update every 1 steps, delay 7 steps, check yes
  max neighbors/atom: 2000, page size: 100000
  master list distance cutoff = 10.8154
  ghost atom cutoff = 10.8154
  binsize = 5.4077, bins = 5 5 4
  1 neighbor lists, perpetual/occasional/extra = 1 0 0
  (1) pair lj/cut/tip4p/long/omp, perpetual
      attributes: half, newton on, omp
      pair build: half/bin/newton/tri/omp
      stencil: half/bin/3d/tri
      bin: standard
Per MPI rank memory allocation (min/avg/max) = 9.327 | 9.333 | 9.336 Mbytes
Step Temp PotEng TotEng E_pair E_mol Press Lx Ly Lz Volume Pxx Pyy Pzz Pxy Pxz Pyz Enthalpy 
 4750000    246.16787   -4790.6485   -4298.2823   -4790.6485            0     4664.903    17.890381    23.398919    19.301255    8079.8059     5952.559    3314.3991    4727.7509   -1154.4986   -1347.3592     49.38586   -3748.5903 
 4751000    249.38721   -4833.2315   -4334.4262   -4833.2315            0    5849.0941    17.884793    23.220009    19.252879    7995.4328    6230.9479    5620.5123    5695.8222   -1818.6982   -262.18441   -219.51378   -3652.3915 
 4752000    247.75339   -4816.4962   -4320.9588   -4816.4962            0    6066.9106    17.964593    23.080059    19.343936    8020.4577    7048.4673      5804.86    5347.4043   -617.23312    731.73344   -639.37892   -3611.3114 
 4753000    250.91135    -4847.252   -4345.3983    -4847.252            0    5161.3899     17.98267    23.108103     19.41102    8066.1602    5429.8029    5602.7304    4451.6363    1407.2173    1010.0178    573.15647   -3738.2295 
 4754000    249.31044   -4865.7204   -4367.0688   -4865.7204            0    6335.7459      18.0454    22.939625    19.322655     7998.704    6076.2233    5445.4238    7485.5906    583.32833   -98.169975   -164.86047   -3627.9857 
 4755000    241.27199   -4801.2329   -4318.6591   -4801.2329            0    7554.1894    18.132114    23.043003    19.173677    8011.1142    6544.4521    7495.3387    8622.7773    675.12608   -252.02522   -451.87701   -3436.0738 
 4756000    258.02792     -4832.04   -4315.9523     -4832.04            0    5277.2209    17.899677    22.985788    19.503446    8024.4624      7707.17    4283.5457     3840.947   -813.50585   -409.95242     -799.626   -3698.3667 
 4757000     257.2523   -4850.8656   -4336.3293   -4850.8656            0    6928.5774     18.06945    22.976088    19.246707    7990.5642     7883.533    6266.5035    6635.6958   -355.59658   -960.65367    1139.3009   -3528.9132 
 4758000    251.45526   -4828.6981   -4325.7565   -4828.6981            0    4469.6507    18.180501    22.822208    19.447756    8069.2467    4089.6038     4917.544    4401.8043    2915.4916    971.06719   -495.24763   -3799.7605 
 4759000    259.20453   -4812.7588   -4294.3177   -4812.7588            0    6209.0209    18.109719    22.947386    19.317006    8027.5821    5626.2935    5051.3669    7949.4022   -1059.3024    500.12632    -232.3297   -3567.4025 
 4760000    261.12191   -4839.5772   -4317.3011   -4839.5772            0    5721.7431    18.144217    22.816506    19.417721     8038.696    5841.8078    5546.1211    5777.3003    1015.5063    585.89169   -914.21619   -3646.5061 
 4761000    246.35353   -4835.2056   -4342.4681   -4835.2056            0     4610.036    18.233318     22.79811     19.41332    8069.8292    2942.9119    4890.3029    5996.8931    142.98487    340.76668   -24.502415   -3799.9121 
 4762000     270.7474   -4828.0954   -4286.5671   -4828.0954            0    4316.3333     17.95411    23.089577    19.418686     8050.071    3459.6269    4429.9427    5059.4302   -2051.2039    100.41394    757.06915   -3779.8208 
 4763000    261.39095   -4807.4711   -4284.6569   -4807.4711            0    6616.8075    18.026498    23.045356    19.303665     8019.265     6346.182    6301.9809    7202.2595    -1499.452   -811.47188    129.04582    -3510.803 
 4764000    251.04608   -4836.7812    -4334.658   -4836.7812            0    4356.3497    18.039719     22.96346    19.460584    8061.6319    4187.7635    5218.7057    3662.5801   -368.29034   -365.97231   -681.49199   -3822.4792 
 4765000     252.9158   -4831.1978   -4325.3349   -4831.1978            0    5908.2145    18.107517    23.030172    19.225694    8017.4843    7171.6534    5002.5615    5550.4287    -502.6858   -254.90919    834.26791   -3634.5064 
 4766000    258.93929   -4844.0645   -4326.1539   -4844.0645            0     5826.342    17.986839    22.983859     19.39093    8016.3454    7554.9011    4859.6078    5064.5172    774.12832    216.77004    520.33647   -3644.9953 
 4767000    257.34754   -4837.1379   -4322.4111   -4837.1379            0    7070.1413    18.133096    22.806004    19.398158    8021.9815    7458.6919    7174.5531    6577.1787    63.618072    904.80435   -596.33201   -3495.2585 
 4768000    248.15613   -4846.5449   -4350.2019   -4846.5449            0    6811.3639    18.255959    22.769343    19.291175    8018.8824    6124.7399    6157.4704    8151.8815   -266.33666    -1533.137   -317.80241   -3553.6322 
 4769000     246.9695    -4825.686   -4331.7165    -4825.686            0    7286.4402    17.920291    22.823388    19.564409    8001.8776    8339.9027     7285.083    6234.3349    391.20225    497.47437   -499.69275   -3481.3949 
 4770000    256.65142   -4843.3022   -4329.9677   -4843.3022            0    5732.6491    18.231851     22.89195    19.229962    8025.8672    4359.4775    6022.3876    6816.0821    -415.4912   -178.33824   -381.92287   -3658.9666 
 4771000    243.97263   -4842.2199   -4354.2445   -4842.2199            0    5198.6348    17.969683    22.758727    19.722051    8065.6702    6537.7456    5950.4904    3107.6683   -581.31791    622.39451   -935.78302   -3742.7315 
 4772000    256.80099   -4850.2102   -4336.5765   -4850.2102            0    5440.6258    18.213037     22.90857    19.305723    8055.0163    5263.5111    5855.5275    5202.8389    421.81329    1496.9338    -490.6013   -3697.4436 
 4773000    249.79603    -4861.677   -4362.0541    -4861.677            0    5140.1357    18.122853    22.746341    19.488041    8033.5279    6075.5666    4312.1119    5032.7285    1337.5336   -831.09668   -228.91647   -3759.8319 
 4774000    259.25175    -4795.985   -4277.4495    -4795.985            0    6246.2298    18.035322    22.882553    19.448954    8026.4708    5293.2605     7943.651    5501.7779    364.51037    521.86891   -1298.2182   -3546.2793 
 4775000    268.06352   -4837.4348   -4301.2747   -4837.4348            0     6280.881    18.047016    23.089337    19.278036    8033.0346    5394.5896    6123.0898    7324.9634    513.82938   -170.91238    3559.6772    -3565.447 
 4776000    257.75129   -4825.0577   -4309.5233   -4825.0577            0    6167.3928    17.965183    23.107197    19.316141    8018.6135    6219.3787    7381.3357    4901.4641   -1260.0768    760.60915   -2921.8474   -3588.2883 
 4777000    258.03792   -4803.8503   -4287.7425   -4803.8503            0    7343.9349    17.939429    23.362713    19.086649    7999.4768    8458.6487    5313.7274    8259.4286    364.55804   -1969.1224    158.59641   -3430.9685 
 4778000    252.20124    -4848.879   -4344.4453    -4848.879            0    5892.1793    17.770211    23.395492    19.285506    8017.8106    8187.9589     3794.133     5694.446    375.93186   -509.93159    1005.6746   -3655.4637 
 4779000    259.29339   -4852.7126   -4334.0938   -4852.7126            0    4473.4421    17.970691    23.091846    19.423508    8060.2978    4748.5637    4378.5063    4293.2562   -320.89635     280.7412     172.6109   -3808.2354 
 4780000    256.25691   -4822.6646   -4310.1192   -4822.6646            0    4164.6564    18.222138    22.852914    19.470502    8108.0807    4076.5268    4436.4471    3980.9952   -434.76063   -542.76485    821.28725   -3817.6567 
 4781000    254.09645   -4814.8242   -4306.5999   -4814.8242            0    5114.7312    18.146423     22.79406    19.500522    8066.0133    5296.3423    5063.5505    4984.3007    801.01217   -24.537465    1188.9487   -3704.9309 
 4782000    251.02496   -4817.4431   -4315.3622   -4817.4431            0    7327.6488    18.183807    22.563583    19.488871    7996.1249    6175.1339    9359.9164    6447.8961    11.573004    528.71137   -717.26835   -3460.8464 
 4783000    252.04886   -4832.0985   -4327.9696   -4832.0985            0    5822.2357    18.237886    22.563791    19.520249    8032.8918    4637.8145    6322.4182    6506.4746   -595.01668   -811.51324    646.97676    -3645.886 
 4784000    243.08679   -4844.7231   -4358.5195   -4844.7231            0    5745.8059    18.085774    22.708349     19.49849    8007.9924    6313.1862     6637.367    4286.8646    1028.5848   -788.91806   -192.93751   -3687.4763 
 4785000    239.20396   -4839.1139   -4360.6764   -4839.1139            0    6536.5934    18.072505    22.899165    19.292679     7984.184    6089.6923    6790.1832    6729.9046   -183.72729     439.6277     826.9016   -3599.5481 
 4786000    252.83051   -4865.9928   -4360.3005   -4865.9928            0    5701.8621    17.997611    22.980732    19.409688    8027.8137    4752.1115    5476.5341    6876.9406   -1113.1006    583.82163   -648.56128   -3692.7412 
 4787000    268.00023   -4855.7433   -4319.7098   -4855.7433            0    4631.0697    17.931543    23.405294    19.105027    8018.2468    5246.8845    3339.2244    5307.1001    173.14766    200.12488    641.59259   -3778.1622 
 4788000    251.33099   -4835.3865   -4332.6935   -4835.3865            0    5092.3589    17.888268    23.137679    19.408345     8032.978    5514.6889    5061.5248    4700.8629    170.17348    195.57487    657.78996   -3736.1097 
 4789000    239.22768   -4814.2024   -4335.7175   -4814.2024            0    5406.9762    18.081612    22.977055    19.339523    8034.8408    6294.1119    4617.6289     5309.188   -1198.0781    730.21303   -619.89452   -3702.1285 
 4790000    258.40847   -4848.9416   -4332.0928   -4848.9416            0     5163.677    18.130392    22.828495     19.53517    8085.4029    4891.2912    5884.1005    4715.6391   -170.64774    355.47213   -549.40343   -3723.2059 
 4791000    254.72018   -4840.4166   -4330.9447   -4840.4166            0    5457.5198     18.22526    22.652555    19.496465    8049.0903     4576.504     6756.945    5039.1105   -1399.6837    305.71222    974.43425   -3690.2989 
 4792000     263.2543   -4858.3169   -4331.7758   -4858.3169            0    6984.6562    18.083021    22.761616    19.458612    8009.1408    8455.3945    6189.1655    6309.4086   -52.756041   -479.69906    786.75661   -3515.9323 
 4793000    254.09465   -4816.2384   -4308.0177   -4816.2384            0    8480.9394    18.105739    22.654395    19.411517    7962.1101    8120.0802    9381.2051    7941.5328   -1284.6151    -746.0422   -644.80384   -3323.2177 
 4794000    245.34931   -4836.2944   -4345.5655   -4836.2944            0    7980.4351    17.981052    22.837369    19.407213    7969.3766    9367.6289    7153.0443    7420.6321   -1168.0861   -1052.6585   -318.59204    -3418.038 
 4795000    254.09837   -4877.8139   -4369.5858   -4877.8139            0    3806.2206    18.089685    23.063092    19.376606    8083.9993     2893.601    4022.8778     4502.183   -1293.6084    12.322236   -404.35721   -3920.8444 
 4796000    238.60891   -4825.7908   -4348.5435   -4825.7908            0    5902.9768    18.016374    23.130118      19.3371    8058.1727    4983.3558    6135.0855    6590.4891    67.609007   -22.358247   -238.25347   -3654.8246 
 4797000    258.26648   -4846.5511   -4329.9863   -4846.5511            0    4867.9494    17.980784    22.980455    19.444917    8034.7676    6484.3656    4196.5136    3922.9689    24.237081    1059.4826    42.149866   -3759.5656 
 4798000    248.68854   -4845.2825   -4347.8747   -4845.2825            0    6255.7133    18.159356    22.963479    19.197643    8005.4551    4041.1486    6625.0376    8100.9539   -756.70413    1856.9449    696.52618   -3617.5117 
 4799000    265.34098   -4842.9508    -4312.236   -4842.9508            0    6796.3351    17.939161    22.939802    19.446367    8002.5848     8252.826    6592.1598    5544.0193   -932.48245    77.893537    211.20158   -3519.0392 
 4800000     251.5314   -4860.0518   -4356.9579   -4860.0518            0    5625.3282    18.000766    23.054566    19.372163    8039.4447    6618.7986    4958.6982    5298.4877     1299.596    240.23033    1253.7509   -3697.4047 
 4801000    275.66628   -4820.1877   -4268.8211   -4820.1877            0     4285.458    18.022577    23.234031    19.294035    8079.1288     3978.593    3461.3946    5416.3863    153.21333   -1071.5502   -1166.7701   -3763.8835 
 4802000    261.65567   -4867.6324   -4344.2887   -4867.6324            0    7383.5484    17.792438    23.240447    19.212468    7944.4363    7938.3641     6461.647    7750.6341    221.32307   -608.19883    1462.6809   -3488.8201 
 4803000    256.62447   -4881.5966    -4368.316   -4881.5966            0    5613.0108    18.026269    23.013932    19.281446     7999.011    6448.8593    5351.4479    5038.7253    116.25056     495.5697   -1311.8388   -3713.5169 
 4804000    263.43782   -4835.9203   -4309.0122   -4835.9203            0    4101.9115    18.150726     22.95038    19.474824    8112.5504    5257.8497    3330.8226    3717.0623   -1618.8928    890.63427   -113.02197   -3823.7018 
 4805000    267.51974   -4840.5653   -4305.4927   -4840.5653            0    6167.7762    18.125665    22.596471    19.613041    8033.0321    5949.7424     6773.996    5779.5902   -1413.5317   -158.94357    1733.8327    -3582.916 
 4806000     274.3874   -4834.3178   -4285.5091   -4834.3178            0    5832.6689    18.149382     22.78188    19.431429      8034.45    6520.5976    5132.9267    5844.4823   -883.44664    286.15707   -451.79846   -3602.0707 
 4807000    240.04288   -4836.5312   -4356.4158   -4836.5312            0    6108.3299    17.979516    22.702116    19.595462    7998.3396    8438.8686    5630.6136    4255.5073    1052.1851   -454.34735   -975.61886   -3643.8939 
 4808000    252.33735   -4829.7225   -4325.0167   -4829.7225            0    6404.3818    18.060602    22.850978    19.424152    8016.3944    6432.7947    5824.1658     6956.185    336.43723    12.231485   -1991.2223   -3576.2747 
 4809000    253.96513   -4843.7002   -4335.7386   -4843.7002            0    5958.8127    18.088993    22.832941    19.382709    8005.5414    5186.3505    6677.9666     6012.121   -169.14314    151.20892   -257.31769   -3640.0316 
 4810000    259.43702   -4852.0447   -4333.1386   -4852.0447            0    6844.9723    18.078728    22.855282     19.37548    8005.8404    6874.7994    6845.1157    6815.0017    -97.18806   -44.715822    499.87337   -3533.9404 
 4811000    249.46711   -4810.3219   -4311.3569   -4810.3219            0    5601.2894    18.034448    22.959801    19.424134    8042.8995    5412.3641    6423.4288    4968.0754     147.2312     683.5089    807.74433     -3654.34 
 4812000    260.19705    -4798.233   -4277.8068    -4798.233            0    4300.1717    18.105231    23.054179    19.356206    8079.3043    4544.9273    3356.9051    4998.6827    154.05591   -813.27118    1267.1872   -3771.1246 
 4813000    264.47808   -4819.9347   -4290.9459   -4819.9347            0    7614.8228    17.929414    23.032039    19.303636     7971.455    6705.5205     7336.468    8802.4798    -624.8753    -946.5908   -842.36444   -3405.6809 
 4814000    261.39548   -4860.2378   -4337.4146   -4860.2378            0     4638.756    17.968832    23.006965    19.563426    8087.6821    5593.1377    3962.3759    4360.7542    673.21215   -809.03314    1975.3646   -3790.2708 
 4815000    239.87005   -4827.2564   -4347.4867   -4827.2564            0    7617.4067    17.896637    23.046339    19.325846    7970.9832      6360.89    8406.9389     8084.391    500.76767    863.75549    -21.05341   -3461.9737 
 4816000     260.9979   -4806.1354   -4284.1073   -4806.1354            0     7001.162    17.876513    23.120242    19.348177    7996.7817    9067.7119    7170.0655    4765.7086    980.35663   -610.12016   -485.52367   -3467.5978 
 4817000    246.14721   -4836.5797   -4344.2548   -4836.5797            0    6222.9331    17.947585    23.121472    19.326236    8019.8965    6342.0495     5772.424    6554.3257   -262.46579   -1334.9905    452.08368   -3616.4083 
 4818000    251.67818    -4832.089   -4328.7015    -4832.089            0    4689.9756    18.080899    23.141344    19.268096    8062.0855    4283.5958    4825.7547    4960.5762    1055.0825    502.30401    613.21667   -3777.2671 
 4819000    248.05565   -4867.6764   -4371.5345   -4867.6764            0    3886.3935    18.126913    22.864351    19.474424    8071.3719    4716.3099    3419.2633    3523.6072   -918.90264   -249.77993    691.85424   -3914.0567 
 4820000    251.52779   -4817.4136   -4314.3269   -4817.4136            0    6401.3369    18.058932    22.801641    19.508457    8033.0614    8304.6454    4958.5881    5940.7772    1589.1318    -111.4189   -132.22606    -3564.385 
 4821000     249.2639   -4816.1651   -4317.6065   -4816.1651            0    6778.9628    18.285652    22.813511    19.170156    7997.0209    5223.4164    6679.8018    8433.6703   -9.9429537    305.00193     811.3462   -3526.9873 
 4822000    267.50772   -4818.0514   -4283.0029   -4818.0514            0     5181.851    18.120676    22.981085    19.418299    8086.4164     5258.975    4128.1854    6158.3925   -420.93728   -226.28804    2202.1382   -3671.8964 
 4823000    240.93403   -4850.6004   -4368.7026   -4850.6004            0    6416.2337    18.009872    22.781872    19.503792    8002.3786    7046.6976    7043.9687    5158.0348   -1006.7114   -1428.0398   -708.25726   -3619.8865 
 4824000    241.16844     -4847.22   -4364.8533     -4847.22            0    5613.1996    18.199916    22.966206    19.232651    8038.9214    4951.5569    5763.7349     6124.307   -937.36394     -176.457    75.141552   -3706.7651 
 4825000     251.9677   -4842.9551   -4338.9885   -4842.9551            0    7473.2091    17.916765    22.976085    19.371396    7974.3731    7088.3327    6602.7264    8728.5683   -950.90293   -389.86668   -1274.2671   -3469.8689 
 4826000    254.91193   -4832.9518   -4323.0964   -4832.9518            0    4834.5017    18.068112    23.207563    19.290248    8088.7259    4599.6025     4960.808    4943.0946    1073.6231    1088.9577    409.98855   -3752.7907 
 4827000    240.49505   -4866.3375   -4385.3177   -4866.3375            0    4589.5904    17.935406    23.159433    19.316228    8023.4561    5357.5504    3135.8529    5275.3677   -330.32796   -531.79064   -1351.5599   -3848.2719 
 4828000    262.86605   -4804.1769   -4278.4123   -4804.1769            0    6692.4962    17.955371    23.194903    19.201471    7996.8958    5553.6006    6550.8525    7973.0355     1134.413    -97.19263    93.473098   -3497.8898 
 4829000    248.92441   -4836.4721   -4338.5925   -4836.4721            0    6644.6141    18.085859    23.136843    19.120769    8001.0797    5420.1308    7393.2832    7120.4284    -835.7391    234.25355   -556.75175   -3563.2488 
 4830000    257.24997   -4815.3902   -4300.8584   -4815.3902            0    5509.3458    17.784044    23.265169    19.454918    8049.4491    6874.2596    3736.3724    5917.4052    4.2949117   -332.71326    993.51525   -3654.1001 
 4831000    248.06519   -4828.3673   -4332.2063   -4828.3673            0    4686.6914    18.047613     22.97692    19.456803    8068.3191    5802.2986    4109.3719    4148.4038    37.156257   -441.84358    48.785284   -3780.7319 
 4832000    251.89005   -4866.4849   -4362.6737   -4866.4849            0    5773.1967    18.144144    22.799104    19.400843    8025.5507    5929.0592    6068.3887    5322.1422    1177.4275    299.60367     824.3917   -3686.9532 
 4833000    256.62984   -4828.0364    -4314.745   -4828.0364            0    6512.0676    18.058037    22.672262    19.605239    8026.7091    7559.4444    7066.4798    4910.2785    -693.8114   -568.55201     30.53803   -3552.4338 
 4834000     258.2419   -4801.9565   -4285.4408   -4801.9565            0    7426.3363    18.180298     22.63882    19.406535    7987.3511    6269.7392    9262.9515    6746.3183    1518.7083    830.93685    1255.9499   -3420.3668 
 4835000    253.50569   -4856.4688   -4349.4261   -4856.4688            0    6092.8106    18.072792    23.075202    19.219551    8015.1929    5752.1626    4755.4522    7770.8171   -381.52197   -1596.8923   -514.16327    -3637.217 
 4836000    246.24185   -4844.5969   -4352.0828   -4844.5969            0    5121.8428     17.95575    23.074896    19.433441    8051.8007    4558.1309     4158.809    6648.5884   -570.93893   -369.98873   -632.79607   -3750.6388 
 4837000    244.89365   -4834.5098   -4344.6922   -4834.5098            0    6066.5195    18.073701    23.073196    19.200975    8007.1532    5266.7996     5337.258     7595.501   -208.62716     228.9621   -94.601536   -3636.2676 
 4838000    247.37833   -4826.6847   -4331.8975   -4826.6847            0    5896.8179    18.043669    22.930877    19.423414    8036.5766    6137.3456    5809.5836    5743.5246   -291.64936    49.165872   -109.04865   -3640.7596 
 4839000    240.37935    -4853.341   -4372.5527    -4853.341            0    6911.1117    18.200673    22.813425    19.277598    8004.4381    4869.6154    8423.9903    7439.7295   -380.14919    1150.7859   -397.83253   -3565.7735 
 4840000    259.06126   -4863.7687   -4345.6142   -4863.7687            0    6540.0913    18.068912     22.77165    19.504872    8025.4543    6107.3236    6322.8929    7190.0574    1228.3006    277.67743    273.34751   -3580.1422 
 4841000    252.43135   -4851.0069    -4346.113   -4851.0069            0    5494.0512    18.146873    22.874828    19.362951    8037.6887    5331.9807    5515.6572    5634.5158   -1733.2409   -993.17273    -2286.185   -3702.0924 
 4842000    255.70363   -4853.6892   -4342.2504   -4853.6892            0    5833.9189    17.989588    22.812154      19.4521    7982.7773    7013.9221    5775.8751    4711.9596    833.45613   -688.74606     811.5754   -3663.0619 
 4843000     266.0573   -4833.3411   -4301.1936   -4833.3411            0    6473.9731    18.054688     22.78701    19.483679    8015.8261    8700.6324    5563.3784    5157.9084   -2057.8002   -1699.9544   -1677.8439   -3544.3693 
 4844000    251.92449   -4844.3159   -4340.4358   -4844.3159            0    5530.8391    18.082763     22.78749    19.531336    8048.0978    5866.6774    5613.5207    5112.3194   -1041.3292    504.37169   -126.89189   -3691.2633 
 4845000    246.33777   -4874.1739   -4381.4679   -4874.1739            0    5824.6041    18.065465    22.929896    19.296999    7993.5741    5508.3643    7305.1961    4660.2519     453.3102    1452.7844   -323.93728   -3702.4468 
 4846000    258.40208   -4830.6702   -4313.8342   -4830.6702            0    6055.7876     18.11144    22.932953    19.322012    8025.3745    6453.0238    5240.9849    6473.3541    922.41223   -573.35979    459.79542   -3605.0535 
 4847000     249.9964   -4834.2927    -4334.269   -4834.2927            0     5798.047    18.014957    22.957132    19.416804    8030.2415     6668.621    4589.0905    6136.4294    1377.3717   -1447.5508    1687.4032   -3655.2433 
 4848000    245.44918    -4824.019   -4333.0904    -4824.019            0    6114.0421    18.043965    22.986405    19.360508    8030.0782    5804.0526    5526.6419    7011.4319    818.37277   -487.40274    603.65557   -3617.0721 
 4849000    240.67847   -4816.0092   -4334.6226   -4816.0092            0    5827.1406    18.042768    22.813944    19.452771    8007.2799    6236.0605    6486.4887    4758.8726   -607.55283   -744.84123   -531.63559    -3654.141 
 4850000    252.88994   -4842.2082   -4336.3971   -4842.2082            0    6309.6097    18.047619    22.810418    19.487338    8022.4255    5844.6616    6649.4906    6434.6769    -345.5837    1000.9289   -794.32677     -3598.18 
 4851000    250.08486   -4878.6991   -4378.4985   -4878.6991            0    5436.8515    18.201877    23.095607    19.168671    8058.1911    5356.1204    5408.4994    5545.9347    1463.7743    911.11388    912.98113   -3739.5573 
 4852000    244.79793    -4823.973   -4334.3469    -4823.973            0    4143.6207    17.972687    23.098427     19.50293    8096.4618    4615.7054     2926.985    4888.1716    637.15447    613.81868   -665.45098    -3845.074 
 4853000    270.35193   -4858.1917   -4317.4544   -4858.1917            0    4669.8126    18.126737    22.868108    19.401304    8042.3097    4800.2349    4542.7461     4666.457    118.30666   -914.15088    -721.5752   -3769.7375 
 4854000    256.77311   -4827.0155   -4313.4375   -4827.0155            0    6229.8652    18.360166    22.485686    19.508712    8053.9947    5543.0279    6348.1038    6798.4638    386.28782    41.443185   -859.69611   -3581.6823 
 4855000    266.28285   -4818.0544   -4285.4558   -4818.0544            0    5818.3816    18.084418    22.700703    19.632319    8059.6365    5927.0872    7246.5008    4281.5569    1023.8514   -104.49825   -682.88129   -3601.5543 
 4856000    250.81297   -4864.3922   -4362.7353   -4864.3922            0    3350.9861    18.187607    22.629915    19.647477    8086.5872    2861.4969    4508.3256    2683.1357    374.35881    25.344664    1881.3519   -3967.5382 
 4857000    254.47599   -4837.8843   -4328.9008   -4837.8843            0    5524.1856    18.112816    22.896934    19.446472    8064.9955    6515.9688     5345.865     4710.723   -988.14533    98.895082   -459.31294   -3679.1479 
 4858000    257.74606   -4825.7583   -4310.2343   -4825.7583            0    6615.9843    18.106797    22.822174    19.360437    8000.4388    6159.0207    6770.6968    6918.2354   -2904.3773    329.25519   -1737.6236   -3538.2932 
 4859000    250.68152   -4840.7587   -4339.3647   -4840.7587            0    5359.4051    18.052952    23.046816    19.277871    8020.8099     4094.361    6217.9665    5765.8878    336.41739   -19.523164   -796.18714   -3712.4467 
 4860000    240.53461   -4795.0224   -4313.9234   -4795.0224            0      4710.31    17.947272    23.259653    19.413774    8104.2279    4993.3941    4566.2038    4571.3321   -568.15651    279.41142   -234.71451   -3757.2032 
 4861000    262.89395   -4810.9476   -4285.1272   -4810.9476            0    6340.1894    17.760511      23.3852    19.255949    7997.6333    6657.2436    5372.8854    6990.4393   -1369.4306   -438.16832   -629.26035   -3545.6248 
 4862000    250.49578   -4821.2288   -4320.2063   -4821.2288            0    6768.6373    18.100874    23.092385    19.230894    8038.3665    5923.4818    6547.2474    7835.1827   -555.27148    123.69498   -681.59883     -3526.71 
 4863000     250.8458   -4852.2451   -4350.5225   -4852.2451            0    7594.1903    18.036403    22.792305    19.460617    8000.0883    10167.302    6798.8384    5816.4306    510.79517    1480.0982    553.21232   -3464.4849 
 4864000    252.75444   -4825.7856   -4320.2455   -4825.7856            0    3386.0958    18.203438    22.778663     19.58506    8120.9446     2581.862    4075.2999    3501.1254   -1315.4058   -209.96188   -404.27945    -3919.211 
 4865000     244.7149   -4819.0489   -4329.5889   -4819.0489            0    4840.4569    18.059809     22.91964    19.407453    8033.2169    5923.8171    5469.9872    3127.5663   -1280.5891   -340.85783    147.62106   -3762.4992 
 4866000     247.2053   -4851.5831    -4357.142   -4851.5831            0    5290.6797    17.961458    23.044669    19.459334    8054.5266    6464.9247    4782.4948    4624.6197   -6.8956119   -479.85043    1326.2185   -3735.6617 
 4867000    236.69316   -4843.6293   -4370.2137   -4843.6293            0    7191.3544    18.113024    22.890431    19.337698    8017.6982    7460.3743    6832.7571    7280.9319    1494.3553     427.3239    1721.4349   -3529.3294 
 4868000    251.38655   -4855.9619   -4353.1577   -4855.9619            0    7138.5986    18.182412    22.698226    19.343864    7983.3768    6887.1899    7878.3816    6650.2245   -1305.4896    893.71885   -1117.6507   -3522.0152 
 4869000    252.95843   -4862.0672   -4356.1191   -4862.0672            0    6010.9283    18.115841    22.791093    19.499556    8050.9729    6624.9944    6998.4039    4409.3867    1430.7804   -388.49524   -49.230615   -3650.3449 
 4870000    248.36617   -4825.9508   -4329.1878   -4825.9508            0    5934.1836    18.088687    22.858886    19.410857    8026.1416    5093.1167     5868.604    6840.8301   -729.21448    149.46859   -625.08972   -3634.5736 
 4871000    244.12339   -4836.5726   -4348.2957   -4836.5726            0    5482.1889    18.159505    22.972024    19.265192    8036.6786    6661.5639    5367.7446    4417.2581    1139.9568   -1361.4754    2300.5626   -3705.7463 
 4872000    258.92965   -4825.6144   -4307.7231   -4825.6144            0     5196.122    17.913468    23.153746    19.398181     8045.665    3999.9684     5273.613    6314.7847    985.41767    133.23761    828.44171   -3698.0217 
 4873000    243.92412   -4823.7337   -4335.8554   -4823.7337            0     6127.565    17.978537    23.161554    19.285375    8030.6395    5930.8416    4955.7393    7496.1141    934.38568    151.67197    1064.3486   -3618.2033 
 4874000    263.05548   -4840.6741   -4314.5307   -4840.6741            0    6681.5494    18.037752    23.110482    19.230565    8016.4751    7335.3981    6162.0739    6547.1761   -1514.4976    10.755744    796.76672   -3533.3769 
 4875000    259.74774   -4819.5701   -4300.0426   -4819.5701            0    5888.2579    18.005826    23.129147    19.322417    8047.0025    5884.0435    5604.2506    6176.4796    856.78955    362.29495   -911.19355   -3609.0127 
 4876000    244.44202    -4845.344   -4356.4298    -4845.344            0    5419.4469    18.156125    23.072042    19.229003    8055.0079    4762.6917    4666.6305    6829.0184    -1556.872     317.3176   -1781.1777   -3719.7855 
 4877000    247.46203   -4842.8266    -4347.872   -4842.8266            0    5398.8597    18.027628    22.809641    19.479652    8010.1054    5186.0687    6170.3531    4840.1574    701.10833    1204.0027   -465.97968   -3717.1817 
 4878000    245.15835   -4842.7516   -4352.4046   -4842.7516            0    4725.2172    18.283137    22.813621    19.341815    8067.5592     3925.973    5624.5812    4625.0972    244.23034   -927.02327    342.07123   -3796.4494 
 4879000    268.51241   -4822.3705   -4285.3125   -4822.3705            0    5808.8635    17.920259    22.797402    19.642051    8024.4719    3917.6842    6413.4135    7095.4929    123.72472   -512.67817    260.50273   -3605.5088 
 4880000    239.17705   -4839.7732   -4361.3896   -4839.7732            0    6488.8618    18.105823    22.956638    19.276313    8012.1765    5120.5471    7017.0467    7328.9915   -469.66009   -210.11369   -935.16751   -3603.1701 
 4881000    244.75575   -4864.3977    -4374.856   -4864.3977            0    5140.1284    17.966927    23.177313    19.311108    8041.6297     5752.172    4520.2483    5147.9648    785.00769     -859.379     1381.807   -3772.0273 
 4882000    260.59221   -4839.0413   -4317.8246   -4839.0413            0    5087.4801    17.966882    23.167769    19.407243    8078.3149    4230.4154    5721.5302    5310.4946   -459.78195    2005.0938   -363.25668   -3718.4486 
 4883000    262.25708   -4830.8364   -4306.2898   -4830.8364            0    7105.5106    18.136888    23.182073     19.07956    8022.0139    7614.4626    5912.9717    7789.0976   -269.94568   -85.185231    712.32828   -3474.9959 
 4884000    236.09253   -4836.6664   -4364.4522   -4836.6664            0    5024.7403    17.826028    23.224148    19.424642     8041.691     6532.063    4074.3201    4467.8378   -869.22939    100.32768    -1946.556   -3775.1516 
 4885000    250.84074   -4847.8192   -4346.1067   -4847.8192            0    6568.1353    17.941744    23.005683    19.335336    7980.8935    7672.9031    6389.7195    5641.7834    -2001.977    286.74758   -768.73749   -3581.6208 
 4886000    256.61639   -4825.9894   -4312.7249   -4825.9894            0    5432.3089    18.124577     22.79571     19.39882    8014.8667    5246.3312    6067.2645    4983.3309   -107.45285   -351.81895    565.54764   -3677.7499 
 4887000    257.82564   -4852.0007   -4336.3175   -4852.0007            0    7593.2342    17.936016    22.713542    19.501164     7944.588    7699.9593    7530.0222    7549.7212    1370.0498   -933.87804   -399.80376   -3456.5376 
 4888000    254.35011    -4842.804   -4334.0724    -4842.804            0     5712.393    18.312702     22.63999    19.361236    8027.1569    3571.2092    7335.2549    6230.7149    112.60582    161.28034   -502.98793   -3665.3348 
 4889000    246.97177   -4858.2004   -4364.2263   -4858.2004            0    6311.2499    18.086905     22.79123    19.434071    8011.1677    5949.1949    6327.2966    6657.2581   -278.48607    801.78776   -1677.9443   -3626.8536 
 4890000    258.75735   -4833.7056   -4316.1589   -4833.7056            0    6088.4934    18.114474    22.915025    19.451512    8074.1984    7146.6889    5143.0509    5975.7403   -718.81707    369.83437    959.59277   -3599.2151 
 4891000    240.64894    -4823.228   -4341.9004    -4823.228            0    5890.1981    17.961322    22.912623    19.487052     8019.721    6957.9912    5639.8137    5072.7894   -122.74684    303.61113   -1309.4924   -3652.9864 
 4892000    258.64669   -4843.3032   -4325.9779   -4843.3032            0    6534.4204    18.225842    22.867651    19.189714    7997.9311    5944.3765    6581.1371    7077.7476    854.20686   -451.43763    283.55196   -3563.7925 
 4893000    247.47767   -4840.5311   -4345.5452   -4840.5311            0    6254.8616     17.95531    22.831417    19.593904    8032.4262      7631.86    7362.5256    3770.1992   -845.09623    392.11192    760.74767   -3612.8214 
 4894000    264.84616   -4859.1254   -4329.4004   -4859.1254            0    4607.8012    18.160658    22.864266    19.401664    8056.1551    2262.4876    6439.6523    5121.2636    629.36655     1370.924    874.95783   -3788.0264 
 4895000    255.72086   -4851.7824   -4340.3091   -4851.7824            0    4593.0204    18.192274    22.936912    19.327752    8064.9794    2442.2968     4775.035    6561.7293    2041.9523    1102.8516     702.7093   -3800.0805 
 4896000    244.42016   -4834.0643   -4345.1938   -4834.0643            0    6063.2656    17.948775    22.970896     19.39322    7995.8139    6864.9829    4984.1392    6340.6747   -1098.8397   -1745.3014   -1812.1695   -3638.1519 
 4897000     255.3069   -4875.7546   -4365.1092   -4875.7546            0     5438.513    17.964959    22.952689    19.459577    8024.0419    6571.9671    5764.1585    3979.4132    852.95318   -190.70857     20.01408   -3728.6813 
 4898000    247.97648   -4842.9272   -4346.9436   -4842.9272            0    6905.0912    17.949123    23.058164    19.292189    7984.5322    8477.4849    6783.3916     5454.397    -50.88581   -239.76011   -719.53159   -3542.8719 
 4899000    253.01646   -4800.3847   -4294.3205   -4800.3847            0    7371.6357    17.988811    23.140447    19.188378    7987.5294    7623.9679    7672.3438    6818.5955   -1591.9085   -67.015916    72.160082   -3435.5992 
 4900000    249.11917   -4839.1699   -4340.9008   -4839.1699            0    6655.9514    17.854351    23.273336    19.229188    7990.3103    8209.7789    5186.6509    6571.4244    611.64212   -95.046278    813.52107   -3565.2796 
 4901000    261.06537   -4802.8604   -4280.6974   -4802.8604            0    6105.9186    18.165005     22.91318     19.39038    8070.6255    6401.5857    5503.5736    6412.5965    168.90165   -64.084365   -236.19291   -3562.0198 
 4902000    252.41719   -4831.5326    -4326.667   -4831.5326            0     6588.724    18.131918    22.729213    19.498054    8035.6204    7301.3763    6786.2006     5678.595    1374.6192    -629.4022    1237.3304    -3554.526 
 4903000    259.09079   -4832.6367   -4314.4231   -4832.6367            0    6730.0445    18.173065    22.759521    19.407223    8027.0261    5436.4096     7386.547     7367.177   -1153.7696    1998.4287   -2412.0825   -3526.5641 
 4904000    247.07735   -4836.9791   -4342.7939   -4836.9791            0     4462.614    18.126217    22.885055    19.444993    8066.1619    5679.3705     4216.534    3491.9375    272.09111    91.282912     250.8585   -3817.8267 
 4905000    252.94562   -4850.2208   -4344.2983   -4850.2208            0    6061.8018     18.07857    22.825271    19.456978     8028.888    5009.9092    6468.6381    6706.8579    1048.7341    609.89628    2880.3566   -3634.5032 
 4906000    251.09219   -4872.6544    -4370.439   -4872.6544            0    4513.6217    18.179927    23.060646    19.278886    8082.4969    4743.4697    3771.9912     5025.404   -982.64248   -516.04742    515.59072   -3838.3962 
 4907000    237.19534   -4814.4477   -4340.0277   -4814.4477            0    5345.0112    17.933922    23.097957    19.426022    8046.9768    5266.5592    5172.6341    5595.8403   -74.584347   -280.47573    1523.4918   -3712.7537 
 4908000    239.39652   -4849.0205   -4370.1979   -4849.0205            0    6269.9559    18.035218    23.066392    19.260962    8012.7029    6305.8576    6194.2383    6309.7717   -783.56247   -404.10503   -1713.6287   -3637.5093 
 4909000    248.41385   -4853.5261   -4356.6677   -4853.5261            0    4394.3982     17.98123    23.089207    19.410297    8058.6184    6090.3498    3547.0921    3545.7527    266.31435   -596.93096   -812.96629   -3840.2086 
 4910000    245.32134   -4819.3156   -4328.6427   -4819.3156            0    3912.6177    17.901363     23.15387    19.526854    8093.6045    6588.9876    2618.2949    2530.5705   -1098.8154   -1142.2758   -1.7713598   -3866.8093 
 4911000    246.92974   -4851.8463   -4357.9563   -4851.8463            0    5825.3255    18.154563    22.958195    19.308374    8047.6533    5620.2289    5712.2972    6143.4504    568.34136   -566.14994    1470.3583   -3674.2566 
 4912000    245.50047   -4818.1004   -4327.0692   -4818.1004            0      6045.76     18.05582    22.786975    19.602406    8065.1656    7023.0924    5623.1149    5491.0727   -401.17855    1256.9077    305.64327   -3615.9538 
 4913000    248.38754   -4832.5248   -4335.7191   -4832.5248            0      5199.62    18.318428    22.657597    19.403396      8053.41    2480.3634    6643.1298    6475.3667    691.38713   -126.97142    1638.3498   -3725.0199 
 4914000     250.0002   -4844.0781   -4344.0468   -4844.0781            0    5449.8076    18.241343    22.447029    19.672291    8055.0944    4920.2563    6891.3436     4537.823   -1119.7094    145.46105     1029.605   -3703.8291 
 4915000    243.13848   -4828.3021   -4341.9951   -4828.3021            0     7887.186    18.138345    22.674942     19.37166     7967.291    7891.3706    8357.3288    7412.8587   -361.78823   -771.43413   -695.39671   -3425.5454 
 4916000    254.00095   -4806.1271   -4298.0938   -4806.1271            0    5376.7213    18.046806     22.95227    19.481513    8069.5382    6218.6145    4935.7843    4975.7651    404.89713    641.92296   -937.11066   -3665.3293 
 4917000    248.69172   -4843.5526   -4346.1385   -4843.5526            0    6611.4384    17.942754    23.057848    19.314853    7990.9658    5897.2441    7389.3303    6547.7408   -818.05816    697.74805   -342.88701   -3575.6412 
 4918000    255.41289   -4824.5033   -4313.6459   -4824.5033            0    6734.6576    17.860614    23.293521    19.301162    8029.9895    6212.3984    6864.5272    7127.0471    1034.2756    1936.6387    -1819.897   -3524.9558 
 4919000    259.78249   -4806.8185   -4287.2214   -4806.8185            0    7087.8418    17.799554     23.30341    19.257954    7988.0121    6495.1923    6570.7126    8197.6205   -496.62471    114.31467    523.29143   -3461.5094 
 4920000    252.22175   -4828.2597   -4323.7851   -4828.2597            0    7921.9762    17.960918    23.190904    19.172235    7985.8094     8084.675    7597.2518    8084.0019    645.29648    260.21184    52.522395   -3401.1534 
 4921000    258.88916   -4829.6894   -4311.8791   -4829.6894            0     6316.746    17.965834    22.910265    19.491392     8022.696    5281.8684    7307.6764    6360.6932    475.83872    720.13849   -543.08374   -3572.8022 
 4922000    247.02293   -4848.5162   -4354.4398   -4848.5162            0    4953.4043    18.161352    22.856259    19.452933    8074.9235    5777.7377    5177.8006    3904.6746   -112.13359   -399.56973   -727.96594   -3771.1048 
 4923000    239.57476   -4838.6144   -4359.4352   -4838.6144            0    5152.3488    18.033372    22.870666    19.545339    8061.1864    5293.8633    4552.1613    5611.0217   -1315.2589   -345.66803   -2154.5672   -3753.7038 
 4924000    244.39843   -4835.4713   -4346.6443   -4835.4713            0    4875.0893    18.118022    23.117996    19.315097    8090.1741    4445.3165    4225.8557    5954.0957    667.50514    886.72806    688.17667   -3771.4476 
 4925000    239.04825   -4821.3789   -4343.2529   -4821.3789            0    5842.0381    17.979777    23.015052    19.397203    8026.6696    5071.0669    6083.0269    6372.0205   -371.32348    278.41189    1475.7316   -3659.3795 
 4926000    258.75738   -4863.6498    -4346.103   -4863.6498            0    6092.9356    18.065468    23.014488    19.297331    8023.2027    5623.9667    6130.2478    6524.5924   -506.79331   -105.10876    72.600128   -3633.1675 
 4927000    262.73762   -4834.8836   -4309.3758   -4834.8836            0    6717.0605    18.001716    22.709998     19.54842    7991.7639    4623.5727    8591.1437     6936.465    17.276099   -427.83911    799.34851   -3526.4912 
 4928000    250.37859   -4818.5757   -4317.7876   -4818.5757            0    5582.2188    18.197454    22.829631     19.36811    8046.3099    4673.1591    6257.8342    5815.6631    -612.0605   -1205.2575    865.91153     -3662.73 
 4929000    271.08353   -4864.7943   -4322.5937   -4864.7943            0    4820.8009    18.013818    22.793322    19.547285    8026.0122    4876.1843    5270.1437    4316.0748     904.9478    1160.8795    1703.7709   -3758.3134 
 4930000    248.78727   -4818.7836   -4321.1784   -4818.7836            0    5509.2695    18.233497    22.823804     19.30661    8034.5954    4580.0692    6836.8416    5110.8976   -450.26829   -251.10877   -1032.8979   -3675.6224 
 4931000    257.09521   -4864.7635   -4350.5413   -4864.7635            0    5946.0332    17.966315    22.867097    19.430318    7982.7025     5625.497    5110.8798    7101.7226    417.81384   -796.73175    588.35671   -3658.3069 
 4932000    261.24829   -4842.5822   -4320.0534   -4842.5822            0    6469.1077     17.96387    22.990848    19.344953    7989.5546    5517.3391    7817.5053    6072.4788    1995.3117   -682.44759    1244.8923   -3566.2764 
 4933000    244.88422    -4851.548   -4361.7493    -4851.548            0    4550.4809    18.156215    23.120361    19.236372    8075.0105    2108.6503     5813.039    5729.7534    369.85263    106.88402    3014.0521   -3825.8585 
 4934000     255.3784   -4872.9063   -4362.1179   -4872.9063            0    6199.4261    17.985639    22.942647    19.387154    7999.8794    6235.0666    6029.5022    6333.7097    411.64658   -627.17643   -678.28629   -3638.8307 
 4935000    255.59429   -4817.5904   -4306.3702   -4817.5904            0    7240.5487    18.003369    22.873552    19.453674    8011.0422     6183.659    8052.1854    7485.8017    483.99566    1107.6995    34.578847   -3460.4364 
 4936000    247.74002   -4814.6171   -4319.1065   -4814.6171            0    4750.0378    18.093524    23.003264    19.391122    8070.7809    3563.2001    4819.1559    5867.7573     108.3433    182.20945    300.58744   -3760.0077 
 4937000    242.21544   -4838.8115   -4354.3507   -4838.8115            0    5928.8795    18.036389    23.129825    19.314269    8057.4983    6037.7296    5491.9933    6256.9157    1012.6701    1138.8253      695.364    -3657.646 
 4938000    250.41814   -4817.8596   -4316.9924   -4817.8596            0    5875.4985    17.988757    23.057968    19.327643    8016.8005    7140.0868    6091.2328     4395.176    388.69313    1288.8452    16.992341   -3630.0478 
 4939000    244.54295   -4855.6107   -4366.4946   -4855.6107            0    6555.7271    18.026784    23.069719    19.200721    7985.0579    4995.7429    6300.0313    8371.4072    497.64886   -510.22221     905.4039   -3603.0547 
 4940000    263.06477   -4810.0759   -4283.9138   -4810.0759            0    5602.2311    18.099627    22.959583    19.353718    8042.6287    5309.0624    5530.6769    5966.9539      323.962    314.16353    -778.5556   -3626.8086 
 4941000    256.83296   -4836.8514   -4323.1537   -4836.8514            0     4543.732    17.946951    22.894153    19.614263    8059.1127    5720.8022    3790.4036    4119.9901      10.4049   -1990.4399     425.4154   -3789.1112 
 4942000    258.57019   -4851.5401   -4334.3677   -4851.5401            0    5151.7867    18.281572    22.889747    19.281188    8068.4169    2665.7312    5652.9702    7136.6588    -1297.706   -118.08081   -845.14514   -3728.1591 
 4943000    246.93127   -4835.7721   -4341.8791   -4835.7721            0    7534.5021    18.117267     22.69041    19.457211    7998.6303     5807.517    8022.3754    8773.6139    -97.77048    132.90912   -699.81793   -3462.9657 
 4944000      264.115   -4855.3534   -4327.0907   -4855.3534            0    4466.5662    18.203776    22.712747    19.445579    8039.9254    4428.7019    4832.1637     4138.833   -728.53232    608.35979    -1668.783   -3803.3677 
 4945000    249.63475   -4835.2791   -4335.9787   -4835.2791            0     5070.361    18.017648    22.913131    19.558017     8074.346    6093.9515    3752.0971    5365.0343     1397.339   -770.41864    1448.6883    -3738.913 
 4946000    251.21428   -4847.0047   -4344.5451   -4847.0047            0    5498.4275    18.058067      23.0497    19.326403    8044.2875    5789.7715    4762.7531    5942.7579    21.523102    570.78531   -680.66096   -3699.4823 
 4947000     241.4957   -4815.7997   -4332.7784   -4815.7997            0    4916.6493      18.0321    23.027937    19.385237    8049.5659    3741.6889    5504.8933    5503.3656    459.11263    -182.4074    313.29664   -3755.5901 
 4948000    252.94423   -4836.7166   -4330.7969   -4836.7166            0    6786.3245    17.943533    22.989504    19.396345    8001.2432    8725.5867    5477.8032    6155.5836   -725.75784   -1791.0905   -318.00465   -3538.9012 
 4949000    258.36575   -4824.2347   -4307.4713   -4824.2347            0    5904.4075    18.020321    23.239868    19.207368    8043.8513    8183.5255    5153.2488    4376.4482    1170.4626   -612.97635    1677.6163   -3614.8174 
 4950000    254.82188   -4854.5847   -4344.9095   -4854.5847            0    4834.0364    17.821577    23.151826    19.538798    8061.7482    6565.6579    4934.9556    3001.4955    981.75031      -184.06   -540.74845   -3776.5606 
 4951000    255.68217   -4848.6913   -4337.2954   -4848.6913            0    5800.1928    18.144682    22.952578    19.304684    8039.7681    6589.6001    5175.1186    5635.8596    427.82331    455.02951    939.81349   -3657.2125 
 4952000    253.38674   -4846.8862   -4340.0814   -4846.8862            0    5249.4659    18.018733    22.881539    19.460933    8023.6714    5278.0234    6267.5169    4202.8574    -321.3831      230.261   -1244.1504   -3725.8046 
 4953000    244.63388   -4844.1384   -4354.8404   -4844.1384            0    6355.9849    18.050754    22.762828    19.454971    7993.7794    6438.6215    6043.3673    6585.9658    218.63109    -193.8486   -1716.6382   -3613.8529 
 4954000    245.05972    -4852.572   -4362.4223    -4852.572            0    6287.8522    18.143247    22.689455    19.478475    8018.5165    6537.8903    6548.6974    5776.9687   -1907.7242   -981.46517    877.16515   -3627.1093 
 4955000    243.66273    -4849.689   -4362.3335    -4849.689            0     6557.755    18.139304    22.748292     19.39099    8001.4627    3491.3126    7207.6182    8974.3344   -990.02844     269.4008    576.67083   -3597.0886 
 4956000    254.85456   -4861.6367    -4351.896   -4861.6367            0    5932.3416    18.080205    22.817356    19.389206    7998.8709    7028.4687    5637.8331    5130.7228     801.8515    560.60931    1008.4559   -3659.8568 
 4957000    258.22021    -4854.775   -4338.3027    -4854.775            0    3976.7488     18.14577    22.854311    19.404903    8047.3893    3971.1779     3887.664    4071.4044   -433.84423    138.13884   -515.11726   -3871.5798 
 4958000    269.62024   -4857.4606   -4318.1868   -4857.4606            0     5396.312      18.1833    22.688929    19.423884    8013.5097    6386.6701    5117.9155    4684.3503    413.56937    -507.2036    477.62329   -3687.5262 
 4959000    269.65889   -4872.7449   -4333.3938   -4872.7449            0    4448.9046     18.26479    22.553929    19.544677    8051.2882    4007.3917    6394.6039    2944.7182   -480.92972     1119.679   -1305.8467   -3811.0044 
 4960000     257.1058   -4822.0361   -4307.7928   -4822.0361            0    6702.6568    18.084202    22.719845    19.529174     8023.957    6902.8038    6571.6506    6633.5159   -238.93651   -774.22527    292.49418     -3523.44 
 4961000    249.70198   -4829.5677   -4330.1329   -4829.5677            0     7209.302    18.052033    22.833969    19.407717    7999.8523    8202.4586    7063.0881    6362.3593   -1353.1206   -1457.7157    531.90331   -3489.0262 
 4962000    252.94692   -4833.9786   -4328.0535   -4833.9786            0    6111.9368    17.910836     23.13142     19.38897    8032.9098    6190.9064      6105.75     6039.154    399.43887   -247.33509   -731.90955   -3612.0294 
 4963000    252.68059   -4842.7874    -4337.395   -4842.7874            0    4826.1119    18.107887    23.089742    19.252771    8049.7076    3465.6813    4197.3293    6815.3253    418.25123    46.539427   -570.34669   -3770.8252 
 4964000    249.99835    -4843.608   -4343.5804    -4843.608            0    5909.4833    17.978729    23.156568    19.282738    8027.8987    6481.8459    5103.6105    6142.9934   -441.35039    991.70688   -463.63157    -3651.706 
 4965000    240.60843   -4862.3148   -4381.0682   -4862.3148            0    5038.3573    17.823075    23.488491    19.225873    8048.6647    6846.8577    4116.2685    4151.9458    652.48603    513.04798    2293.3634   -3789.6581 
 4966000    240.44497   -4815.1279   -4334.2082   -4815.1279            0    7141.6086      18.0291    23.134424    19.189377    8003.7516    7267.2491    6502.1051    7655.4716   -533.67323   -650.09002   -456.63817   -3500.5932 
 4967000    252.67721   -4881.0343   -4375.6486   -4881.0343            0    5204.6472    17.950267    23.071438    19.367218    8020.7102    6237.0536     4286.822    5090.0659    519.72139    588.55071   -1233.2815   -3766.8411 
 4968000    258.71183   -4836.3541   -4318.8985   -4836.3541            0    4676.6771    18.186845    23.110623    19.210705    8074.4384    4347.6999     3651.172    6031.1593    595.76837   -204.73987    457.41247   -3768.1852 
 4969000    249.55746   -4845.7437   -4346.5979   -4845.7437            0    5182.9768    18.125282    22.988937    19.233696    8014.3148    3030.8398    4709.8499    7808.2406   -273.01936   -402.91462   -9.6490023   -3740.8087 
 4970000    250.85014   -4865.9825   -4364.2512   -4865.9825            0    5880.9188    17.969577     22.95016    19.354076    7981.7111      6105.34    6289.3916    5248.0248    72.216811    221.91168    579.63217   -3679.6825 
 4971000    241.61666   -4832.8227   -4349.5596   -4832.8227            0    5407.7753    18.171157    22.915182    19.344667    8055.0302    4967.5607     4736.883    6518.8821     466.9063    537.03991   -2787.6297   -3714.2847 
 4972000    237.14765   -4845.4556    -4371.131   -4845.4556            0    6346.0454    18.104213    22.836914    19.359625    8004.1277    5019.3322    5643.6556    8375.1483    724.25952    170.02039   -1010.6968   -3630.3445 
 4973000    235.87211   -4832.7237   -4360.9503   -4832.7237            0    5682.3603    17.973273    22.843966    19.551888    8027.6308    6059.0682    6417.6357    4570.3771    604.31824    99.730596    313.07182   -3695.6893 
 4974000    251.76863   -4829.3266   -4325.7583   -4829.3266            0    6676.3172    18.190454    22.722835    19.335284    7992.0207    4132.5507    8215.5296    7680.8712   -482.85836    526.60426    398.94141   -3547.5973 
 4975000    244.93975   -4838.8809   -4348.9711   -4838.8809            0    5556.7947    17.972172    23.052855    19.378219    8028.5876    5794.1502    4348.3057    6527.9283    135.56845    402.28449   -846.48418   -3698.3332 
 4976000     249.9937    -4843.278   -4343.2597    -4843.278            0    5428.0741    18.083018    23.000495    19.304676    8029.1692    3819.4791     5752.907     6711.836    901.17303    519.86907    365.68245   -3707.6475 
 4977000    267.15893    -4804.506   -4270.1552    -4804.506            0    7058.7367    18.150581    23.022496    19.154851    8004.2699    7007.8758    6316.2046    7852.1298   -393.49626    26.361934   -50.680956   -3446.1601 
 4978000    264.35634   -4839.5725   -4310.8272   -4839.5725            0    6653.5815    17.936215    22.777838    19.605047    8009.6067    9781.6571    6855.8466    3323.2408    56.346803    1051.4581   -575.87748   -3533.6097 
 4979000      256.656    -4838.533   -4325.1893    -4838.533            0    4018.1709    18.147114    23.014785     19.34673    8080.1991    2541.3823    4668.8209    4844.3095    619.40861    118.28845   -1438.8165   -3851.6823 
 4980000    256.20255   -4805.9544   -4293.5176   -4805.9544            0    4898.6277    18.103023    22.943444    19.417109    8064.8125    4688.3786    5773.8313    4233.6731   -1666.2526    134.66227    668.08398   -3717.3556 
 4981000    255.70149   -4811.7346   -4300.3001   -4811.7346            0    7854.3365    18.008547    22.905646    19.418504    8010.0823    9032.8461    6206.2228    8323.9405    1652.6136   -460.27763   -524.78936   -3382.7656 
 4982000    256.27161   -4836.1305   -4323.5556   -4836.1305            0    7076.6217    18.030726    22.755265    19.472962    7989.6386    6036.4067    6995.5877    8197.8707    1354.9665     347.6306   -1445.8384   -3498.9828 
 4983000    248.61007    -4838.887   -4341.6361    -4838.887            0    6080.3059    18.205375    22.977975    19.169052    8018.8485     4366.922    5997.8611    7876.1347   -265.26267   -850.03207    1497.0428   -3630.5645 
 4984000    255.71575   -4829.8398   -4318.3767   -4829.8398            0         4993    18.122339    22.989582    19.393155     8079.673    5221.7443    4222.4523    5534.8034   -166.08338    194.91768    352.79066   -3730.0328 
 4985000    254.38503    -4864.827   -4356.0255    -4864.827            0    7240.9251    17.851042    22.935316    19.402952    7943.9429    6178.1921    7430.9558    8113.6273   -65.743521    444.04376    351.40182   -3517.1335 
 4986000    255.83248   -4849.8375   -4338.1409   -4849.8375            0    5909.9764    18.123396    23.081771    19.147421    8009.7505    6114.6005    4206.4914    7408.8374   -512.69401   -982.06819    354.34323    -3647.773 
 4987000    238.46096   -4816.8024   -4339.8511   -4816.8024            0    5328.9675    17.883889    23.198619    19.428006    8060.3209    5254.9682    4646.1342    6085.8002    1628.4546   -377.28322    217.87271   -3713.4229 
 4988000    250.94074   -4817.4081   -4315.4956   -4817.4081            0      5378.95    17.954494    23.171126    19.354944    8052.1567    6250.7992    4381.2214    5504.8296    809.73697    235.29472   -412.94088   -3683.8324 
 4989000    242.75491   -4826.5868    -4341.047   -4826.5868            0    4893.1704    18.152034    23.112688    19.227021    8066.5485    4361.0196    4516.5927    5801.8991   -14.633397   -156.95406    497.38591    -3765.403 
 4990000    253.01311   -4829.3934    -4323.336   -4829.3934            0    7363.5305    17.995064    22.902683    19.397412    7994.3573    6962.2377    7412.3316    7716.0222   -710.07025   -79.425707    455.52076   -3464.8256 
 4991000    244.20719   -4844.7133   -4356.2688   -4844.7133            0    5753.7603    18.221403    22.513291    19.555381     8022.082    5813.3921    6126.2742    5321.6146    483.21179     346.6608   -43.375094   -3683.1143 
 4992000     247.4335   -4839.5001   -4344.6025   -4839.5001            0    4491.4382     18.16413     22.78614    19.510128    8075.0545    3462.2943    5735.0395    4276.9809   -56.913072   -1150.5489   -356.22314   -3815.6621 
 4993000    271.63184   -4844.0939   -4300.7967   -4844.0939            0     5736.884     18.15019     22.88858    19.305716    8020.2137    4490.3542    6771.8467    5948.4509    8.3814241    145.00914    690.51671   -3629.7729 
 4994000    262.39434   -4834.9823   -4310.1612   -4834.9823            0    8542.5721    17.970071    22.867222    19.431406    7984.8624    8398.6675    8800.0879    8428.9608    443.51624    788.27333   -1562.8564   -3315.3699 
 4995000     261.6331   -4823.9943   -4300.6957   -4823.9943            0    5865.8147    18.053803    23.116135    19.298605    8053.9668    6402.7745    5755.1588    5439.5108    162.35811    944.89924    917.37069   -3611.7039 
 4996000    255.56948   -4840.0195    -4328.849   -4840.0195            0    5370.4291    17.865611    23.364875     19.22872    8026.6018    6730.1575    5111.8132    4269.3166   -66.381486    855.29631    -95.06306   -3700.1879 
 4997000    255.86387   -4840.5402   -4328.7809   -4840.5402            0    7013.4025    17.910376    23.111719    19.217279    7954.7925    5772.5992    7462.5103     7805.098   -308.38153   -731.41872    170.68542   -3515.1386 
 4998000    253.98914   -4813.2894   -4305.2798   -4813.2894            0    5681.8492     18.02581     23.16615    19.302633    8060.5598    6216.2234    4936.8541      5892.47   -1927.2127   -152.57587    296.73029     -3637.35 
 4999000    249.01505   -4845.8655   -4347.8046   -4845.8655            0    4742.7542    18.124819    22.874675    19.412936    8048.5905    4794.6515    4982.4631     4451.148   -85.581789     1526.571   -329.41387    -3791.098 
 5000000    257.55059   -4817.7227   -4302.5897   -4817.7227            0    5569.4939    18.155189    22.840923    19.445311    8063.6062    5247.2492    4727.6022    6733.6304   -472.78974    -23.12398     1852.732   -3647.6204 
Loop time of 579.731 on 64 procs for 250000 steps with 1008 atoms

Performance: 74.517 ns/day, 0.322 hours/ns, 431.234 timesteps/s
99.0% CPU use with 64 MPI tasks x 1 OpenMP threads

MPI task timing breakdown:
Section |  min time  |  avg time  |  max time  |%varavg| %total
---------------------------------------------------------------
Pair    | 28.283     | 32.043     | 35.606     |  30.2 |  5.53
Bond    | 0.28824    | 0.29777    | 0.3098     |   0.8 |  0.05
Kspace  | 278.39     | 285.82     | 295.55     |  26.4 | 49.30
Neigh   | 4.7764     | 5.2506     | 5.8596     |  15.3 |  0.91
Comm    | 107.56     | 116.75     | 124.27     |  41.3 | 20.14
Output  | 1.6257     | 1.6265     | 1.6286     |   0.1 |  0.28
Modify  | 126.53     | 129.56     | 131.59     |  12.5 | 22.35
Other   |            | 8.383      |            |       |  1.45

Nlocal:        15.7500 ave          21 max          10 min
Histogram: 1 1 6 9 15 8 11 7 5 1
Nghost:        2486.14 ave        2517 max        2462 min
Histogram: 4 7 6 10 12 9 9 3 2 2
Neighs:        5197.53 ave        6954 max        3237 min
Histogram: 1 1 5 10 15 8 11 7 5 1

Total # of neighbors = 332642
Ave neighs/atom = 330.00198
Ave special neighs/atom = 2.0000000
Neighbor list builds = 9036
Dangerous builds = 0

unfix		3
unfix		2
unfix		1

write_data	data.final.${pid}
write_data	data.final.0
System init for write_data ...
PPPM initialization ...
  extracting TIP4P info from pair style
  using 12-bit tables for long-range coulomb (../kspace.cpp:340)
  G vector (1/distance) = 0.37833699
  grid = 24 27 36
  stencil order = 5
  estimated absolute RMS force accuracy = 0.0025557229
  estimated relative force accuracy = 7.6964835e-06
  using double precision FFTW3
  3d grid and FFT values/proc = 4050 480
Last active /omp style is kspace_style pppm/tip4p/omp
WARNING: Not all mixed pair coeffs generated from mixing. Use write_data with 'pair ij' option to store all pair coeffs. (../write_data.cpp:312)

write_restart   restart.lmp.${pid}
write_restart   restart.lmp.0
System init for write_restart ...
PPPM initialization ...
  extracting TIP4P info from pair style
  using 12-bit tables for long-range coulomb (../kspace.cpp:340)
  G vector (1/distance) = 0.37833699
  grid = 24 27 36
  stencil order = 5
  estimated absolute RMS force accuracy = 0.0025557229
  estimated relative force accuracy = 7.6964835e-06
  using double precision FFTW3
  3d grid and FFT values/proc = 4050 480
Last active /omp style is kspace_style pppm/tip4p/omp
Total wall time: 0:09:42
