#include		in.partitions
include		in.temp
variable        temperature equal 261.90
variable	tempDamp equal 100.0
include		in.pressure
variable        pressure equal 7750.0
variable        pressureDamp equal 1000.0 # This is 1 ps
include		in.seed
variable        seed equal 745823

units		real
atom_style	full
read_restart	restart.lmp.${pid}
read_restart	restart.lmp.1
Reading restart file ...
  restart file = 30 Jul 2021, LAMMPS = 30 Jul 2021
  restoring atom style full from restart
  orthogonal box = (0.57179803 1.7650338 0.69759226) to (17.635774 21.864144 21.515604)
  2 by 4 by 4 MPI processor grid
  restoring pair style lj/cut/tip4p/long/omp from restart
  restoring bond style harmonic/omp from restart
  restoring angle style harmonic/omp from restart
  864 atoms
  576 bonds
  288 angles
Finding 1-2 1-3 1-4 neighbors ...
  special bond factors lj:    0        0        0       
  special bond factors coul:  0        0        0       
     2 = max # of 1-2 neighbors
     1 = max # of 1-3 neighbors
     1 = max # of 1-4 neighbors
     2 = max # of special neighbors
  special bonds CPU = 0.002 seconds
  read_restart CPU = 0.007 seconds
include 	in.setup
variable	out_freq equal 1000
variable	out_freq2 equal 10000
variable	out_freq3 equal 1000

timestep	2.0

neigh_modify    delay 7 every 1

include		in.tip4p
# This is TIP4P/Ice

# create groups ###
group ox type 2
288 atoms in group ox
group hy type 1
576 atoms in group hy

# set charges - beside manually ###
set group ox charge -1.1794
Setting atom values ...
  288 settings made for charge
set group hy charge 0.5897
Setting atom values ...
  576 settings made for charge

# ### TIP3P Potential Parameters ###
pair_style lj/cut/tip4p/long/omp 2 1 1 1 0.1577 8.5
pair_coeff 1 1*2 0.000 0.000
pair_coeff 2 2 0.21084 3.1668
bond_style  harmonic
bond_coeff  1 450 0.9572
angle_style harmonic
angle_coeff 1 55 104.52
kspace_style pppm/tip4p/omp 1.0e-5
pair_modify tail yes

thermo          ${out_freq}
thermo          1000
thermo_style    custom step temp pe etotal epair emol press lx ly lz vol pxx pyy pzz pxy pxz pyz enthalpy

restart 	${out_freq3} restart.lmp.${pid} restart2.lmp.${pid}
restart 	1000 restart.lmp.${pid} restart2.lmp.${pid}
restart 	1000 restart.lmp.1 restart2.lmp.${pid}
restart 	1000 restart.lmp.1 restart2.lmp.1


include         in.dump
dump            myDump all atom ${out_freq2} dump.water.${pid}
dump            myDump all atom 10000 dump.water.${pid}
dump            myDump all atom 10000 dump.water.1
dump            myDump2 all dcd ${out_freq2} dump.dcd
dump            myDump2 all dcd 10000 dump.dcd
dump_modify     myDump append yes
dump_modify     myDump2 append yes


variable natoms 	equal  "count(all)"                        # NUMBER ATOMS
variable H      	equal  "enthalpy/v_natoms"                 # ENTHALPY-per-atom
variable Vol      	equal  "vol/v_natoms"                 # volume-per-atom
fix AVG all 		ave/time ${out_freq} 1 ${out_freq} v_Vol v_H file vol_enthalpy.dat
fix AVG all 		ave/time 1000 1 ${out_freq} v_Vol v_H file vol_enthalpy.dat
fix AVG all 		ave/time 1000 1 1000 v_Vol v_H file vol_enthalpy.dat


timer           timeout 23:50:00 every 1000
New timer settings: style=normal  mode=nosync  timeout=23:50:00

fix 		1 all shake 1e-6 200 0 b 1 a 1
       0 = # of size 2 clusters
       0 = # of size 3 clusters
       0 = # of size 4 clusters
     288 = # of frozen angles
  find clusters CPU = 0.001 seconds
fix             2 all nph iso ${pressure} ${pressure} ${pressureDamp}
fix             2 all nph iso 7750 ${pressure} ${pressureDamp}
fix             2 all nph iso 7750 7750 ${pressureDamp}
fix             2 all nph iso 7750 7750 1000
fix             3 all temp/csvr ${temperature} ${temperature} ${tempDamp} ${seed}
fix             3 all temp/csvr 261.9 ${temperature} ${tempDamp} ${seed}
fix             3 all temp/csvr 261.9 261.9 ${tempDamp} ${seed}
fix             3 all temp/csvr 261.9 261.9 100 ${seed}
fix             3 all temp/csvr 261.9 261.9 100 745823

run             250000
PPPM initialization ...
  extracting TIP4P info from pair style
  using 12-bit tables for long-range coulomb (../kspace.cpp:340)
  G vector (1/distance) = 0.3738299
  grid = 24 24 24
  stencil order = 5
  estimated absolute RMS force accuracy = 0.0032106099
  estimated relative force accuracy = 9.6686564e-06
  using double precision FFTW3
  3d grid and FFT values/proc = 3549 432
Last active /omp style is kspace_style pppm/tip4p/omp
Neighbor list info ...
  update every 1 steps, delay 7 steps, check yes
  max neighbors/atom: 2000, page size: 100000
  master list distance cutoff = 10.8154
  ghost atom cutoff = 10.8154
  binsize = 5.4077, bins = 4 4 4
  1 neighbor lists, perpetual/occasional/extra = 1 0 0
  (1) pair lj/cut/tip4p/long/omp, perpetual
      attributes: half, newton on, omp
      pair build: half/bin/newton/omp
      stencil: half/bin/3d
      bin: standard
Per MPI rank memory allocation (min/avg/max) = 10.19 | 10.20 | 10.20 Mbytes
Step Temp PotEng TotEng E_pair E_mol Press Lx Ly Lz Volume Pxx Pyy Pzz Pxy Pxz Pyz Enthalpy 
23000000    274.04044   -3858.0267   -3388.3307   -3858.0267            0    6416.5043    17.063976     20.09911    20.818011    7139.9687    5428.0624     6842.695    6978.7555   -437.88715    -800.4333    503.74714   -2720.1858 
23001000    260.75208   -3865.7658   -3418.8457   -3865.7658            0    7852.6661    17.013003    20.039071    20.755824    7076.1748    8738.0467    5874.4615    8945.4901    201.27148    566.92272     49.83405   -2608.4603 
23002000    261.58256    -3866.004   -3417.6605    -3866.004            0    7167.4209    17.036288    20.066497    20.784231    7105.2684    7766.1866    6539.4667    7196.6095    264.65713   -386.53468    23.746034   -2674.9504 
23003000    258.62813   -3839.0053   -3395.7256   -3839.0053            0    6809.2914    17.064602    20.099847    20.818775    7140.7542    5825.0848    8105.3634    6497.4259    580.50265   -591.62977   -1363.2914   -2686.6021 
23004000    254.99089    -3865.398   -3428.3523    -3865.398            0     8098.694    17.024533    20.052651    20.769891    7090.5713     7444.781    8738.0501    8113.2509    1346.5197    278.45887   -2448.8508   -2590.8768 
23005000    271.59149   -3854.1529   -3388.6544   -3854.1529            0     6161.036    17.053495    20.086765    20.805225    7126.8204    7429.1283    5585.3571    5468.6227   -489.84062   -610.01893   -673.70334   -2748.2925 
23006000    283.68854    -3886.821   -3400.5885    -3886.821            0     7883.239    17.016029    20.042634    20.759516    7079.9507    7638.1267    8919.6518    7091.9384   -828.17737   -684.64428    -979.6861    -2586.614 
23007000    262.44374   -3852.9164   -3403.0968   -3852.9164            0    7160.3516    16.993228    20.015778    20.731699    7051.5282    5911.1176    7760.3685    7809.5688    419.22609   -532.02452    538.78625   -2666.7312 
23008000    265.44704   -3873.5672      -3418.6   -3873.5672            0    8864.4381    17.025794    20.054136    20.771429    7092.1465    7591.1591    9486.6434    9515.5118    415.37593    -672.0801   -568.87323   -2501.7363 
23009000    283.90057   -3875.7133   -3389.1175   -3875.7133            0    7481.1578    17.064179    20.099349    20.818258    7140.2228    7876.0026    6926.6223    7640.8486    -709.1759   -467.41078    -1255.029   -2610.0834 
23010000    265.14027   -3858.0739   -3403.6326   -3858.0739            0      7344.64    17.089077    20.128675    20.848634    7171.5228    4714.1913    8468.5571    8851.1717    477.00129    533.42161    488.97588   -2635.4618 
23011000    271.50258   -3869.2845   -3403.9383   -3869.2845            0    7224.8515    17.059747    20.094129    20.812852    7134.6613    8278.8106    8481.5378    4914.2062    487.09901    1374.2426   -628.32567   -2652.1801 
23012000    270.05607   -3797.9791   -3335.1122   -3797.9791            0    8112.4982    17.033088    20.062727    20.780327    7101.2654      8714.75    8244.9525    7377.7921    -1290.566   -360.27926   -406.99681    -2494.944 
23013000    271.22576   -3808.5358   -3343.6642   -3808.5358            0    7003.7549    17.044575    20.076258    20.794342     7115.643    7191.2878    5496.7018     8323.275   -230.59523    977.16404    906.66433    -2616.854 
23014000    259.45573   -3871.9417   -3427.2435   -3871.9417            0    9269.1824    17.011904    20.037776    20.754483    7074.8033    10119.116    9475.2006    8213.2309    1084.3301    1056.1131    554.22027   -2470.8608 
23015000    264.84692    -3861.553   -3407.6145    -3861.553            0    7601.2848    17.110592    20.154017    20.874882    7198.6437    6620.2312    7049.5474    9134.0759     -951.445    1098.4676    868.02592   -2609.5948 
23016000    264.85553   -3863.2411   -3409.2878   -3863.2411            0    7293.0536    17.030567    20.059758    20.777252    7098.1131    7119.1398    6639.7668    8120.2542   -1408.8043    509.92775   -715.25942   -2654.3204 
23017000     263.9023   -3846.5593   -3394.2398   -3846.5593            0    8802.5081    17.059794    20.094184    20.812909    7134.7199    9614.8761    9031.4383    7761.2098   -772.55613     1124.255    1672.5205   -2478.3162 
23018000    244.98541   -3861.5588   -3441.6622   -3861.5588            0    6171.0074     17.06929    20.105369    20.824494    7146.6412    6554.5321     5114.122    6844.3683   -467.37498   -34.259328    1689.0436   -2798.4801 
23019000    248.60138   -3825.3074   -3399.2131   -3825.3074            0    7002.5891    17.019272    20.046454    20.763472    7083.9993    6768.8286    5526.9549    8711.9837    486.73506    919.39833   -283.58477   -2675.7556 
23020000    259.87836   -3862.7571   -3417.3345   -3862.7571            0    6961.6188    17.023085    20.050945    20.768123    7088.7615    6514.7481     7353.439    7016.6695    1227.1889    674.27353    127.07655   -2697.6262 
23021000    269.74985   -3897.0366   -3434.6946   -3897.0366            0    7259.3212    16.983607    20.004446    20.719961    7039.5585    6820.0584    6623.1843     8334.721    1068.6422    188.98008    526.52164   -2689.4183 
23022000    263.25165   -3843.0095   -3391.8052   -3843.0095            0    7851.1058    17.006316    20.031193    20.747665    7067.8333    6344.8119    8435.5782    8772.9273   -365.82994   -1167.9669   -69.643843    -2582.536 
23023000    252.88655   -3862.6138   -3429.1749   -3862.6138            0    8853.5242    17.008806    20.034127    20.750704    7070.9386    8354.0748    8410.6719    9795.8258    -440.9281   -1349.9872     499.6084   -2516.1783 
23024000    273.13956   -3801.1455   -3332.9937   -3801.1455            0    6507.4623    17.022274    20.049991    20.767135    7087.7491    7863.6299    4880.5754    6778.1817   -497.75309   -939.57532    85.673843   -2660.3332 
23025000    255.87961   -3813.8741   -3375.3052   -3813.8741            0    7365.4953    16.966343    19.984111    20.698899    7018.1129    6464.3097    8536.5302    7095.6461   -675.76387    825.62036    1481.1105   -2621.4322 
23026000    266.47876   -3826.6898   -3369.9543   -3826.6898            0    7521.6708    17.068936    20.104952    20.824062    7146.1965    8350.9214    6526.5684    7687.5226   -1665.8475   -106.43557   -675.20957   -2586.0462 
23027000    267.77743   -3847.5835   -3388.6222   -3847.5835            0    6519.1264    17.070315    20.106576    20.825744    7147.9284    8276.0208    4996.3347    6285.0239    127.36527     -180.478    1.2501168   -2709.0345 
23028000    271.05231   -3881.7308   -3417.1565   -3881.7308            0     8365.402    16.977678    19.997462    20.712727    7032.1878    7904.7773    9046.6092    8144.8193   -48.510828    251.79137    400.41876   -2559.2239 
23029000    253.69447   -3885.9367    -3451.113   -3885.9367            0    9033.4866    17.012605    20.038601    20.755338    7075.6773    8362.3682     8780.795    9957.2967   -156.74856   -135.08044   -877.50876    -2518.934 
23030000      272.606   -3850.7546   -3383.5172   -3850.7546            0    7624.5839    17.077637      20.1152    20.834677      7157.13    7193.4995    6073.3925    9606.8599    1121.3149    365.82817     1863.953   -2587.6677 
23031000    268.81769    -3832.493   -3371.7486    -3832.493            0    8844.4998    17.032927    20.062538    20.780131    7101.0644    6980.5054    9942.5022    9610.4917   -171.09229    466.22155    1120.7914   -2455.7968 
23032000    266.68568   -3830.8999   -3373.8097   -3830.8999            0    7339.0034    17.059373    20.093688    20.812395    7134.1913    7539.9224    6084.9715    8392.1162     649.5959    744.11956   -1054.3525   -2610.2241 
23033000    269.82756   -3861.8336   -3399.3584   -3861.8336            0    6603.6971    17.095351    20.136066    20.856289    7179.4252    6665.7877    7734.1879    5411.1156    1437.0378   -1592.1021    118.26431   -2707.9213 
23034000    256.62191   -3866.7112     -3426.87   -3866.7112            0     8045.171    17.061162    20.095795    20.814578    7136.4365     8490.617    7620.5959    8024.3001    377.64473   -11.253376    794.69033   -2589.5479 
23035000    247.78256   -3858.9689    -3434.278   -3858.9689            0     8613.351    17.044834    20.076564    20.794658    7115.9675    9762.5824    6343.5884    9733.8822     452.9465   -85.446222   -550.92919   -2540.3924 
23036000    250.56246   -3851.6398   -3422.1844   -3851.6398            0    6700.1343    17.068729    20.104708    20.823809    7145.9362    4653.0619    7444.1201     8003.221   -1252.2974   -1691.1736   -56.364857   -2723.9222 
23037000    257.19922   -3829.8322   -3389.0015   -3829.8322            0    8032.1026    17.035888    20.066026    20.783744    7104.7686    8164.5039    7509.5747    8422.2292   -2056.6094    827.57735   -414.52699   -2556.7491 
23038000    251.71731   -3853.6071   -3422.1722   -3853.6071            0    8882.5528    16.966719    19.984553    20.699357    7018.5784    10879.371    7339.5861    8428.7013    27.007797    9.0445255   -848.33525    -2512.965 
23039000    261.42428   -3856.7649   -3408.6926   -3856.7649            0    6791.2238    16.993441    20.016029    20.731958    7051.7933    6044.3749    6111.7016    8217.5949    189.40994    920.16033    243.39829   -2710.2616 
23040000    257.18587   -3847.6167   -3406.8089   -3847.6167            0    9293.5695    16.979329    19.999406    20.714741    7034.2392    10597.213    8185.6899    9097.8062    533.72964    18.800949   -259.07859    -2453.408 
23041000    265.10027   -3868.5812   -3414.2084   -3868.5812            0    8107.3789     16.96381    19.981127    20.695808    7014.9694     9150.056    8782.4782    6389.6027   -293.69247     797.3256    590.72868   -2584.7738 
23042000    256.76584   -3860.5035   -3420.4157   -3860.5035            0    8152.4765    16.989796    20.011735    20.727511     7047.256    9078.7944     6269.721    9108.9141   -599.14503    67.895818    1946.5396   -2582.5286 
23043000    270.59734   -3873.6759   -3409.8813   -3873.6759            0    7305.9867    17.104163    20.146445    20.867039    7190.5329     8986.393    6549.5675    6381.9996    1530.2085    882.69596    426.46306   -2643.7277 
23044000    264.93356   -3851.0397   -3396.9527   -3851.0397            0    9310.5214    16.953345    19.968801    20.683041    7001.9945        10293     9845.356    7793.2084   -1223.2221    107.31044    829.79347    -2446.191 
23045000    247.26234   -3891.2039   -3467.4047   -3891.2039            0    6116.5463    17.016319    20.042976     20.75987    7080.3131    7577.2863     4679.705    6092.6476   -44.364975    -286.0644    1102.0553   -2835.8156 
23046000    277.19938   -3894.4482    -3419.338   -3894.4482            0    7653.1116    17.086123    20.125196     20.84503    7167.8046    6922.0157    8271.1325    7766.1865    919.67849    1300.7185   -1846.8526   -2619.3194 
23047000    261.81953   -3850.5961   -3401.8464   -3850.5961            0    7293.1225    17.049511    20.082072    20.800364    7121.8264    8056.5629    5480.1958    8342.6088   -517.07663     627.1278   -60.334688   -2644.3497 
23048000    273.98902   -3873.8051   -3404.1973   -3873.8051            0    7837.7215    17.026501    20.054969    20.772292    7093.0305    8849.3542    8560.9526    6102.8578    1130.1444    345.74162   -2085.9323   -2593.4275 
23049000    259.44637   -3838.4022     -3393.72   -3838.4022            0    7144.6026    17.014695    20.041063    20.757888    7078.2857     6829.787    7870.8205    6733.2002    1093.4242    -1195.145     491.4306    -2656.186 
23050000     261.0392   -3869.6269   -3422.2146   -3869.6269            0    6687.3771    17.095484    20.136222    20.856451    7179.5929    8090.3754    7066.2318    4905.5241    1649.7584   -334.06211   -1664.1611   -2721.9995 
23051000     269.0647   -3843.1067    -3381.939   -3843.1067            0    6165.5315    17.067941     20.10378    20.822848    7144.9465    7041.8495    5855.0893    5599.6557    564.09136   -77.984983    345.05065     -2739.48 
23052000    266.65575   -3871.3053   -3414.2664   -3871.3053            0    8328.7389    17.008757    20.034069    20.750644    7070.8777    9404.9063    6939.1456    8642.1648    217.21053    2223.9777   -31.223271   -2555.3944 
23053000    255.04189   -3859.1897   -3422.0566   -3859.1897            0    7857.8347    17.020386    20.047767    20.764832    7085.3913    7526.7651    8229.9045    7816.8345   -1265.8039   -690.36502    197.40259   -2610.0817 
23054000    279.61807   -3860.7441   -3381.4883   -3860.7441            0    7419.1753     17.03518    20.065192    20.782879    7103.8822    7571.1195      8287.62    6398.7863    733.80446   -990.43505    930.90088   -2612.8407 
23055000    260.29012   -3872.6305   -3426.5021   -3872.6305            0    6586.3009    17.021253    20.048788    20.765889    7086.4736    6377.5826    8661.6514    4719.6688    397.06294    1178.9682    326.72015   -2745.8148 
23056000    269.98007     -3823.11   -3360.3734     -3823.11            0    7400.1773    17.039986    20.070853    20.788743    7109.8965    6420.4318    9834.6442    5945.4558    2013.8385   -1056.0981   -736.70831   -2593.0449 
23057000    280.40014   -3894.3284   -3413.7322   -3894.3284            0    6132.4198    17.039408    20.070172    20.788038    7109.1732    5922.8243    6936.3531    5538.0819    1577.0195    355.14488    -699.6138   -2777.9229 
23058000    258.75116   -3877.4702   -3433.9796   -3877.4702            0    8528.9311    17.016976     20.04375    20.760671    7081.1329    6885.0001    7416.0308    11285.762   -733.19516   -493.29324   -1647.1698   -2553.1878 
23059000    282.98656   -3889.9766   -3404.9473   -3889.9766            0    6885.7027    16.947515    19.961935    20.675929    6994.7743    6191.8722    7057.1211    7408.1148   -720.24406    352.27319    1600.0542   -2702.5257 
23060000    250.31655   -3871.5411   -3442.5071   -3871.5411            0    7854.9633     16.96735    19.985297    20.700127    7019.3617    8840.9024    6884.0646    7839.9229    941.01111   -13.867811   -1377.5229    -2638.393 
23061000    247.65694   -3834.2254   -3409.7498   -3834.2254            0     8248.504    16.977077    19.996754    20.711994    7031.4407     6667.903      8656.07     9421.539    1340.5244    1696.0087   -572.37572   -2563.8959 
23062000    255.10428   -3830.3894   -3393.1494   -3830.3894            0    7182.0397    16.996471    20.019597    20.735654    7055.5655    8233.5631    7381.4066    5931.1495    714.86608    891.28227   -446.16864   -2654.1305 
23063000    281.56181    -3848.882   -3366.2947    -3848.882            0    6092.4285    16.971001    19.989598    20.704582    7023.8947    6852.6647    6086.4651    5338.1556    665.76591     400.3786    86.975431   -2742.2088 
23064000    260.95149    -3848.519    -3401.257    -3848.519            0    9122.4289    16.981531    20.002001    20.717428    7036.9769    6797.0401     11875.29    8694.9569   -76.371872   -62.055466    428.60969   -2465.0487 
23065000    251.14323   -3855.0367   -3424.5858   -3855.0367            0    6138.9405    17.084688    20.123506    20.843279    7165.9988    7216.5091    4781.8048    6418.5076   -731.92602   -982.47601    823.33119   -2783.0128 
23066000    284.32814   -3854.5703   -3367.2416   -3854.5703            0    7846.4957    17.101278    20.143046    20.863519    7186.8945    8191.0226    7972.2472    7376.2174    688.53478    799.02107   -148.73928    -2544.823 
23067000    246.54495   -3862.8329   -3440.2633   -3862.8329            0    7445.0667    17.098139    20.139349     20.85969    7182.9381    8177.1518    5499.6319    8658.4165   -255.92634    366.13725    340.32506   -2660.3495 
23068000    269.73454   -3876.7414   -3414.4256   -3876.7414            0    7187.3002    17.113947    20.157969    20.878975    7202.8788    4988.9826    8046.3448    8526.5731    870.77349    1177.6002    194.79369   -2659.4242 
23069000    260.37988   -3895.5337   -3449.2515   -3895.5337            0    8400.8785    17.016635    20.043348    20.760255    7080.7068    8261.6305    7376.0336    9564.9713   -164.01883   -381.62983   -849.08132   -2581.7361 
23070000    261.17114   -3863.2902   -3415.6518   -3863.2902            0    7754.0936    17.048141    20.080458    20.798692    7120.1093    7089.6805    7313.6844     8858.916    1472.6768   -1116.1279   -617.14331   -2610.4707 
23071000    242.70928   -3854.9205   -3438.9251   -3854.9205            0     5423.054    17.085225    20.124139    20.843935    7166.6752    4463.0892     5815.718    5990.3547    1197.7707    389.85441    267.10636   -2872.1151 
23072000    279.17299     -3848.89    -3370.397     -3848.89            0    6723.6792    17.029064    20.057987    20.775418    7096.2333    9551.0493     4029.119    6590.8693    449.27097    723.76774   -996.26301   -2674.5548 
23073000    245.75119   -3865.4496   -3444.2405   -3865.4496            0    9133.8609    16.962077    19.979086    20.693694    7012.8194    10908.323    7974.9969    8518.2632   -448.54623   -636.07427   -550.94496   -2510.0769 
23074000    276.96429   -3901.5533   -3426.8459   -3901.5533            0    7560.2066    17.030151    20.059268    20.776744    7097.5924    8778.9022    7650.8435    6250.8742    246.43521    181.20786    541.11878   -2644.2806 
23075000    260.17938   -3879.7123   -3433.7737   -3879.7123            0    7704.8974    16.992503    20.014924    20.730814    7050.6259    8789.7013    8521.2439    5803.7469    687.00891    584.60438   -1708.5711   -2641.5088 
23076000    263.64794   -3875.8557   -3423.9721   -3875.8557            0    8250.3106    16.970623    19.989153    20.704121    7023.4255    8368.9467    7271.3404    9110.6447   -153.16738    131.67215   -87.563824   -2578.8973 
23077000    257.69404   -3893.3252   -3451.6464   -3893.3252            0    7818.5572    17.024415    20.052512    20.769746     7090.423    6654.4718    9803.3507    6997.8491   -256.12043    444.24021   -1216.6514   -2643.1564 
23078000    276.16986   -3841.8946   -3368.5489   -3841.8946            0    5893.8141    16.997775    20.021133    20.737245    7057.1897    5832.6264    6278.3403    5570.4756   -444.11056    1162.3292    712.05003   -2761.9465 
23079000    256.50069   -3886.9194    -3447.286   -3886.9194            0    5810.4238    17.058632    20.092815    20.811491    7133.2619    4384.9462    7000.6213    6045.7038   -1113.9102    283.13971   -134.10305     -2842.82 
23080000    275.30873   -3870.3153   -3398.4456   -3870.3153            0    6712.7544    17.054699    20.088183    20.806693    7128.3295     5152.045    8995.6466    5990.5716   -157.89456    1814.3632   -60.169367   -2700.5918 
23081000    262.94034     -3884.75   -3434.0792     -3884.75            0     7185.406    16.996239    20.019325    20.735372    7055.2778    6574.9378     7557.588    7423.6922    315.56533    1025.9805   -2304.6185   -2694.7441 
23082000    250.48966   -3882.7805   -3453.4498   -3882.7805            0    8667.5078    16.988377    20.010064    20.725781    7045.4912    6709.9724    11708.164    7584.3867    993.49662    771.75295    658.41913   -2562.8524 
23083000    251.38205   -3871.7071   -3440.8468   -3871.7071            0    5938.4437    17.011142    20.036878    20.753553    7073.8521    6239.9219    5009.8708    6565.5383   -1540.3031    1602.0029    1099.6009    -2828.208 
23084000    269.83863   -3852.1362    -3389.642   -3852.1362            0    6409.6885    17.109477    20.152704    20.873522    7197.2373    4929.5866    8284.6253    6014.8534    41.261442    925.63428   -2438.7733   -2716.8534 
23085000     266.5706   -3897.1099   -3440.2171   -3897.1099            0    9186.3573    17.065309     20.10068    20.819637    7141.6417    8815.5949    6893.3437    11850.133    1203.4849    446.12924   -1499.6685   -2483.4256 
23086000    266.52845     -3904.71   -3447.8893     -3904.71            0    7114.4571    17.087216    20.126483    20.846363      7169.18    5806.9067    5574.3883    9962.0763    177.10724    837.85861   -1073.6128   -2704.0363 
23087000    260.16868   -3899.8284   -3453.9081   -3899.8284            0    9182.7431     17.05186    20.084839    20.803229    7124.7703    8546.9947    9315.5135    9685.7211    903.20415    925.54032    83.776608   -2499.7526 
23088000    279.34668   -3849.3753   -3370.5847   -3849.3753            0    7469.1505    17.053122    20.086325    20.804769    7126.3518    8414.7577    6218.7513    7773.9425   -302.40581   -480.38513   -827.28309   -2594.3119 
23089000    251.47297   -3881.7225   -3450.7065   -3881.7225            0    8173.8559    16.992987    20.015494    20.731404    7051.2279    8499.7764    7730.2858    8291.5055   -405.33096   -3.9850994    479.23149   -2610.1486 
23090000    255.33911   -3870.5125     -3432.87   -3870.5125            0    10042.056    17.015214    20.041674    20.758521     7078.933    8631.7757    10046.773     11447.62   -2230.3846    24.065894    -211.6685   -2396.1384 
23091000     253.1725   -3901.5876   -3467.6586   -3901.5876            0    7022.0686     17.00219    20.026335    20.742633    7062.6912     6718.975    6010.6558     8336.575   -648.53359   -163.78885    54.900943   -2744.3707 
23092000    258.76274   -3857.9435    -3414.433   -3857.9435            0    8223.1261    17.023185    20.051063    20.768245    7088.8863    8054.3626    7922.6273    8692.3884    158.77424    -1090.188   -730.29248   -2564.2923 
23093000    260.17351   -3909.4541   -3463.5256   -3909.4541            0    9301.4111    16.921001    19.930704    20.643582    6961.9957    7767.8803      9903.72    10232.633    472.06132    -120.0915    22.466204   -2519.1202 
23094000      255.858   -3889.9055   -3451.3736   -3889.9055            0    7305.9918     16.96438    19.981799    20.696504    7015.6772    7955.0608    6066.9665    7895.9479    515.50939    -703.4508   -1409.7923   -2703.8504 
23095000    252.87116   -3892.1109   -3458.6984   -3892.1109            0    7166.4746    17.037047    20.067391    20.785158    7106.2186    5386.1587    7387.6315    8725.6337   -859.92692   -11.564619   -1697.4081   -2715.9871 
23096000    269.45055    -3879.693    -3417.864    -3879.693            0    8509.9822    16.986936    20.008367    20.724022    7043.6983    10047.379    7662.3926    7820.1755   -274.88366    2163.3313    1093.0655   -2543.6751 
23097000    259.70011   -3856.1039   -3410.9868   -3856.1039            0    6851.4175    17.105688    20.148241    20.868899    7192.4562    8885.3851    5359.6569    6309.2104   -471.81005   -17.568552   -165.98339   -2692.3102 
23098000    252.64859   -3890.0155   -3456.9845   -3890.0155            0    6654.8763    17.105441     20.14795    20.868598     7192.145    5966.5129    7991.3211     6006.795     1266.259    532.03703   -1000.6271   -2758.9541 
23099000     262.7106   -3856.7395   -3406.4625   -3856.7395            0    8486.8242     17.06767     20.10346    20.822517    7144.6057     10752.14    6351.8151    8356.5178    1346.1985     546.9372   -831.70191   -2522.1631 
23100000    268.63481   -3908.4853   -3448.0544   -3908.4853            0    9226.3046    17.032099    20.061563    20.779121    7100.0287    9469.7347    8682.3353    9526.8439   -321.95163   -226.02055    -460.0964   -2492.7016 
23101000    252.28993   -3913.5032   -3481.0869   -3913.5032            0    6741.1852    17.122049    20.167512     20.88886    7213.1144     5896.829    7550.0906    6776.6359    1738.2763    647.04725    1448.6355    -2771.942 
23102000    271.22303   -3881.3018   -3416.4348   -3881.3018            0    7257.1163    17.106975    20.149757    20.870469    7194.0794    7204.5567     7448.342    7118.4501    409.14065    717.14975     339.3707   -2655.0307 
23103000    257.43268   -3839.7732   -3398.5424   -3839.7732            0    7813.9404    17.092191    20.132343    20.852433    7175.4445    7655.3829    6882.8711    8903.5673     597.8356    -1587.455   -1601.8931   -2580.8409 
23104000     259.6575   -3857.1342   -3412.0901   -3857.1342            0    9155.3609    16.987615    20.009167    20.724851    7044.5435    9671.3459    8451.3915    9343.3453   -554.52075   -587.64109    1706.6384   -2471.4917 
23105000      276.542   -3864.2118   -3390.2283   -3864.2118            0    6958.9945    17.097731    20.138868    20.859192    7182.4235    5676.8341    7489.3805    7710.7689   -249.86914   -341.57923    1006.5134   -2661.2856 
23106000    263.96844   -3892.8907   -3440.4578   -3892.8907            0    7886.7358    17.035525    20.065598    20.783301    7104.3142    7752.6625    9129.1534    6778.3914    -415.0875   -24.862984    710.95254   -2623.3199 
23107000    262.37771   -3870.7808   -3421.0743   -3870.7808            0    8880.2489    17.024783    20.052946    20.770196    7090.8837    8702.4979     9564.826    8373.4229   -216.22947   -819.46419   -703.56169   -2502.7388 
23108000    260.65864   -3853.5365   -3406.7765   -3853.5365            0    7531.5464     16.99494    20.017794    20.733787    7053.6594    6301.4023    6321.5573    9971.6797    428.96431   -442.74238    695.41434   -2632.0034 
23109000    249.15579   -3860.6083   -3433.5638   -3860.6083            0    7653.1567    17.075834    20.113076    20.832477     7154.863    6617.1124    8547.3213    7795.0365   -208.33027     1785.945   -393.62078    -2634.985 
23110000    260.25341   -3875.6574    -3429.592   -3875.6574            0    7260.6585    17.048515    20.080899    20.799149    7120.5785    7681.6431    6988.3059    7112.0265    1097.3755    -1907.531    669.78265   -2675.5992 
23111000    268.18513   -3889.4867   -3429.8265   -3889.4867            0    8380.4514    17.059123    20.093394    20.812091    7133.8787    8865.4625    8600.2789    7675.6126   -1391.7031   -85.379849    225.28845   -2557.9218 
23112000    255.82376   -3879.7893   -3441.3162   -3879.7893            0    7796.3286    17.077734    20.115315    20.834796    7157.2522    9696.6778     5636.073    8056.2349   -837.08473   -83.876855    5.7794832   -2627.5262 
23113000    254.10937   -3866.8557   -3431.3209   -3866.8557            0    6314.1647    17.026514    20.054984    20.772307    7093.0464    6213.8686    4603.0141    8125.6114    233.48682   -67.604733    678.58147   -2778.1534 
23114000    271.96126   -3864.6892   -3398.5569   -3864.6892            0    7689.1674    17.094424    20.134974    20.855158    7178.2575     8176.959    7152.7719    7737.7713    736.85709    505.88732    635.37052    -2593.597 
23115000     271.6783     -3873.38   -3407.7326     -3873.38            0    6046.8106    17.121148    20.166451     20.88776    7211.9752    7489.2082    4561.2388    6089.9848   -57.745363    1265.9205    296.02174   -2771.7336 
23116000     258.2697   -3876.1765   -3433.5111   -3876.1765            0    8470.1006    17.023497    20.051431    20.768627     7089.277    7681.2489    7670.0641    10058.989    1931.4962    655.03379    -452.2851   -2557.7888 
23117000    263.79241    -3911.579   -3459.4479    -3911.579            0      6572.11    17.060865    20.095445    20.814215    7136.0639    6770.1544     6319.001    6627.1745    1908.9676     785.6406   -1930.2643   -2775.4741 
23118000    260.58217   -3898.2312   -3451.6022   -3898.2312            0    8471.9057    17.035533    20.065608    20.783311    7104.3247    7280.2424    9497.2767     8638.198   -978.41981   -1634.7139   -833.36994   -2573.8341 
23119000    253.56477   -3866.5257   -3431.9243   -3866.5257            0    5368.3591    17.106356    20.149028    20.869715    7193.2994     4325.979    5320.7971    6458.3012    41.385361    1368.4766   -468.30726   -2868.7464 
23120000    262.98337   -3901.5555    -3450.811   -3901.5555            0    7175.5249     17.07861    20.116347    20.835864    7158.3538    5948.3271    8445.2234    7133.0242    125.23055    364.61472    165.36299    -2701.706 
23121000    258.36646        -3899   -3456.1687        -3899            0    6259.1007    17.061532    20.096231    20.815029    7136.9007     4482.702    5950.5003    8344.0996    181.59421   -3126.1649    139.01864   -2804.6942 
23122000    283.73546   -3888.7721   -3402.4592   -3888.7721            0    5370.2369    17.141551    20.190483    20.912652    7237.7889    4625.1341    7144.7794     4340.797   -1394.2833   -1051.8516   -406.62088   -2835.5999 
23123000    247.93556   -3879.2144   -3454.2614   -3879.2144            0    8739.2049     17.04728    20.079444    20.797642     7119.031    8589.0379    9810.2484    7818.3282    1587.0045    -16.13031     281.9996   -2546.9242 
23124000    264.77053   -3859.8434   -3406.0358   -3859.8434            0    7068.2451     17.06917    20.105227    20.824347    7146.4896    6007.8085    7592.9314    7603.9953   -1080.6863    -884.4364    133.77184   -2669.3534 
23125000    275.82619   -3850.8684   -3378.1118   -3850.8684            0    8327.1244    17.050874    20.083677    20.802026    7123.5339    7129.6186    9364.6944      8487.06   -356.97495    166.03474   -680.48401   -2513.0115 
23126000    257.07321   -3861.6683   -3421.0536   -3861.6683            0    6228.7353    17.061789    20.096533    20.815342    7137.2228    5611.8791    6902.5382    6171.7887   -29.898043   -1575.6205   -707.60208   -2772.7103 
23127000    268.53663   -3897.3782   -3437.1156   -3897.3782            0    7867.7717    17.045653    20.077528    20.795657    7116.9928    7026.3357    8357.3186    8219.6608     105.2668    735.57547     501.8681   -2620.4877 
23128000    270.74539   -3888.4591   -3424.4107   -3888.4591            0     8434.304    17.032224     20.06171    20.779273    7100.1845    6732.6207    8764.3224     9805.969   -1516.5284    530.04087    46.078019   -2551.0478 
23129000    268.36575   -3867.7133   -3407.7436   -3867.7133            0    6601.7025    17.077795    20.115387    20.834871    7157.3295    6701.7773    6020.3934    7082.9369    797.30873    845.61354   -809.32802   -2718.6427 
23130000    258.93776   -3901.1336   -3457.3231   -3901.1336            0    6942.3202    17.030176    20.059298    20.776776    7097.6248    6375.6722    5490.0616    8961.2269   -101.09058    279.34912   -329.11278   -2738.7126 
23131000    252.07598   -3880.3109   -3448.2613   -3880.3109            0     9640.459    16.964363    19.981779    20.696483    7015.6557    9180.2516    10102.419    9638.7069   -29.594069     593.9786    686.97444   -2461.8867 
23132000    277.37838   -3849.3798   -3373.9627   -3849.3798            0    8769.6475    17.073297    20.110088    20.829382    7151.6747    10620.673    6049.6934    9638.5761   -1837.4853   -1108.2179    -241.8475   -2459.2899 
23133000    265.65859   -3871.4455   -3416.1158   -3871.4455            0    6953.4549    17.009459    20.034895      20.7515    7071.7527    5728.8135     7846.226    7285.3253   -897.10278     310.1376    1125.0319   -2698.9764 
23134000    266.52604   -3886.9923   -3430.1758   -3886.9923            0    7877.6659    17.025853    20.054206    20.771501    7092.2207    7892.0834    7659.9032     8081.011   -1233.4873    1806.9529    1772.4027    -2615.367 
23135000    252.13367   -3888.6856   -3456.5372   -3888.6856            0    6181.3322     17.06252    20.097394    20.816234    7138.1405    4812.6305     6248.849    7482.5169   -747.19007    225.92836     -408.084   -2813.0453 
23136000    262.60252   -3855.1815   -3405.0898   -3855.1815            0    9598.9176    16.970434    19.988929    20.703889    7023.1897     8683.325    9384.6482     10728.78   -1126.5974    1152.9864   -472.37231   -2421.9109 
23137000    252.68701   -3865.6671   -3432.5703   -3865.6671            0     9007.131    16.962115    19.979131    20.693741    7012.8672    8661.2574    7086.3397    11273.796   -1166.0314   -224.54228    1386.2236   -2511.3616 
23138000    272.48472   -3893.0924   -3426.0629   -3893.0924            0    9342.6819     16.96967     19.98803    20.702958    7022.2417     10439.29    9173.5287    8415.2272    494.51055   -60.661402   -410.04146   -2469.2584 
23139000    241.89753   -3905.8362   -3491.2321   -3905.8362            0    6988.9939    17.018792    20.045889    20.762887    7083.4004    7905.9284    7085.7736    5975.2797   -797.86769    506.99966    105.73075   -2769.2402 
23140000    261.89728   -3893.8063   -3444.9233   -3893.8063            0    6427.6576    17.080306    20.118344    20.837933    7160.4866    5564.7378    6914.1289    6804.1062   -950.89944     1347.053   -488.64929   -2773.6936 
23141000    246.83227   -3893.6946   -3470.6325   -3893.6946            0    6318.7458    17.085243     20.12416    20.843957     7166.698    6862.1815    5020.8606    7073.1954   -924.66472    555.87164   -1339.5381   -2810.2039 
23142000    260.06504   -3880.7206   -3434.9781   -3880.7206            0    10831.571    16.980061    20.000269    20.715635    7035.1497    10119.294    12301.696    10073.724    153.27835    740.69508    1344.2281    -2323.654 
23143000    258.22973    -3868.706   -3426.1091    -3868.706            0    8018.7253    16.934494    19.946597    20.660043    6978.6637    6382.8709    8635.2516    9038.0536    1353.4747    63.465972    610.98863   -2609.9901 
23144000    269.90162   -3902.2201    -3439.618   -3902.2201            0    8477.3208    16.979499    19.999607    20.714949    7034.4506    9920.7241    8485.5656    7025.6728   -1489.5042   -118.23609   -1851.0334   -2569.9275 
23145000    269.75546   -3855.5806   -3393.2289   -3855.5806            0    7565.8748    17.010303     20.03589     20.75253     7072.806    8749.3946    7523.9854    6424.2443    903.57798    106.30711     943.0386   -2612.8118 
23146000     263.0144   -3908.4616   -3457.6639   -3908.4616            0    8406.3253    17.058373    20.092511    20.811176    7132.9378    7203.4342    9496.0485    8519.4933   -210.78351    289.08568    63.371116   -2583.1826 
23147000      242.464   -3877.3435   -3461.7685   -3877.3435            0    7728.9889    17.018224     20.04522    20.762193    7082.6907    7238.4542    7972.1159    7976.3964   -1859.7621    761.80095     40.46316    -2663.412 
23148000    242.03662   -3893.1968   -3478.3543   -3893.1968            0    8200.2906    17.067417    20.103163    20.822209    7144.2887     7502.954    8917.5582    8180.3596    1462.2077   -66.051612    1003.1979   -2623.9486 
23149000    269.87113   -3864.6758   -3402.1259   -3864.6758            0    7240.3305    17.031207    20.060512    20.778033    7098.9132    7579.8426    7583.7484    6557.4005    1691.1604    415.05568    1495.1158   -2652.5319 
23150000    251.70391   -3860.7617   -3429.3498   -3860.7617            0    5728.0258    17.082897    20.121396    20.841095    7163.7458    5466.4106     4826.338    6891.3288    1269.2519   -543.43186   -607.58487   -2830.9092 
23151000    265.40956   -3843.3879    -3388.485   -3843.3879            0    7014.1228    17.104896    20.147308    20.867933     7191.457    6373.1901    6247.0915    8422.0869   -923.06663   -355.92134   -798.47704   -2652.8437 
23152000    250.36101   -3859.0461   -3429.9359   -3859.0461            0    7153.7898    17.012273     20.03821    20.754933    7075.2635    6530.2544    8076.6005    6854.5144    451.52741    -763.2261    1457.9723   -2691.7688 
23153000    269.27823   -3877.2754   -3415.7417   -3877.2754            0    5702.7209    17.027648     20.05632    20.773691    7094.4637     5674.887    5609.6703    5823.6054    -1042.782   -510.04168    1470.9241    -2825.707 
23154000    244.91211   -3838.5174   -3418.7464   -3838.5174            0     6337.825    17.015116    20.041559    20.758402    7078.8116    7371.1439    5199.3172     6443.014   -77.745186    135.54149    1086.5333    -2764.447 
23155000    262.86575   -3859.3029     -3408.76   -3859.3029            0    7780.4259    16.982851    20.003555    20.719038    7038.6177    7393.7298    7339.0779    8608.4699   -131.35137   -1101.5287    859.82216   -2610.0914 
23156000    242.10552   -3878.5482   -3463.5877   -3878.5482            0    8340.2573    16.948747    19.963386    20.677432    6996.2997     8643.234    6402.7695    9974.7684     311.8651   -867.47213    357.19688   -2612.5991 
23157000    261.36628   -3869.5959    -3421.623   -3869.5959            0    7564.9574    17.048194    20.080521    20.798757    7120.1758    9202.3361    6320.4216    7172.1146    556.40849    222.43667   -6.3334246   -2636.0743 
23158000    265.38502   -3901.9959   -3447.1351   -3901.9959            0     6930.908     17.05074     20.08352    20.801863    7123.3669    8060.5699    6371.8078    6360.3463   -919.64222     514.5666   -664.47893   -2727.1038 
23159000    259.95296   -3900.0212   -3454.4707   -3900.0212            0    5884.2516    17.137964    20.186257    20.908275     7233.246    5785.1203    7120.3887    4747.2459     316.8883    255.86706   -335.08946   -2833.7441 
23160000    269.09602   -3843.0349   -3381.8136   -3843.0349            0    7443.2732    17.076644    20.114031    20.833465    7155.8814    8914.4865    7023.1587    6392.1742    1296.0412   -399.14748    949.29096   -2605.0247 
23161000    247.40458   -3865.8782   -3441.8352   -3865.8782            0    8226.8134    17.000454    20.024289    20.740514     7060.527    7263.6463    9684.9011    7731.8928    787.34338    453.52232    395.78267   -2594.7157 
23162000    246.63979    -3848.441   -3425.7089    -3848.441            0    6876.9621    17.151489    20.202189    20.924777    7250.3854    7469.5875     5679.123    7482.1759    13.436892    179.62159   -1892.1113   -2698.5428 
23163000    255.84928   -3838.9662   -3400.4493   -3838.9662            0    8023.7841    17.106035     20.14865    20.869323     7192.894    6835.9054    9227.1532    8008.2937   -640.72041   -303.12966   -488.39957   -2558.7465 
23164000    258.57571   -3843.7044   -3400.5144   -3843.7044            0    11109.161    16.963964    19.981309    20.695996    7015.1603    10906.661     10839.96    11580.863     26.65909    63.305819    883.77688   -2263.9482 
23165000    255.40673   -3845.5038   -3407.7454   -3845.5038            0    9203.4102    16.960829    19.977616    20.692171    7011.2715    9308.5571    9647.5027    8654.1708    22.421565    394.91351   -532.96792   -2466.6764 
23166000    272.38901   -3873.7741   -3406.9086   -3873.7741            0    8255.2372    17.015129    20.041575    20.758418    7078.8281    8754.4881    8396.1888    7615.0347    1391.2407   -623.31612   -220.45535    -2554.659 
23167000    249.69362   -3877.6372   -3449.6709   -3877.6372            0     6606.442    17.050691    20.083462    20.801804    7123.3056    6548.4182    6330.0431    6940.8647    806.71553   -928.73119   -1605.5946   -2763.3534 
23168000    280.51308   -3854.8644   -3374.0745   -3854.8644            0    6416.9565    17.038403    20.068988    20.786811    7107.9147    5632.8038    7182.4674    6435.5982   -61.982754   -1262.9087    365.88656   -2708.8823 
23169000    262.90298   -3816.9748   -3366.3681   -3816.9748            0    9512.0261    16.991575     20.01383    20.729681    7049.4699    7408.8923    9924.2476    11202.938   -16.424843    943.76926    887.72584   -2388.4434 
23170000    269.41756   -3862.4393   -3400.6669   -3862.4393            0    8972.3714    17.043049     20.07446     20.79248    7113.7313    9552.3506    9171.5242    8193.2395    301.93482   -329.48449    402.16931    -2469.815 
23171000    257.30063   -3851.6833   -3410.6788   -3851.6833            0    7624.1358    16.950164    19.965055    20.679161    6998.0547    8869.1879    5695.1732    8308.0461   -949.47421    780.44173    844.93413   -2632.5637 
23172000    263.58929   -3855.8997   -3404.1167   -3855.8997            0    7572.5929    16.955231    19.971023    20.685342    7004.3322    7672.4182    7886.6758    7158.6847    669.18078    293.31651    333.73765   -2630.5687 
23173000    252.86129   -3878.5469   -3445.1513   -3878.5469            0    8002.1477    17.012797    20.038828    20.755573    7075.9178    8830.3824    5767.5059    9408.5547     2100.857    1744.8253    221.67191   -2619.3696 
23174000    262.32502   -3902.8943   -3453.2782   -3902.8943            0    5868.9307    17.076452    20.113804    20.833231    7155.6399    6924.6187    6077.4982    4604.6753   -412.85276    2322.7311    561.29446   -2840.8103 
23175000    265.73063   -3838.5693   -3383.1161   -3838.5693            0    7270.6677     16.98063    20.000939    20.716329     7035.857     5115.227    8949.7862    7746.9899    756.48324   -941.05974   -41.071573   -2637.0674 
23176000    249.60563   -3879.4727   -3451.6571   -3879.4727            0    8396.3392     16.96161    19.978536    20.693125    7012.2406    8580.4003    9793.4654    6815.1518   -101.85137    22.866902   -345.08855   -2592.9943 
23177000    273.60347   -3864.7196   -3395.7726   -3864.7196            0     9583.337    16.992228      20.0146    20.730479    7050.2834    9174.9773    9171.9315    10403.102    595.06674    590.08823   -365.18961   -2410.4029 
23178000    260.71034   -3854.7921   -3407.9435   -3854.7921            0    6631.7862    17.095071    20.135735    20.855946    7179.0719    5488.6321    8717.4804     5689.246   -942.29725    446.61777   -1105.6358   -2713.5994 
23179000     262.8121   -3874.8717   -3424.4208   -3874.8717            0    8920.2921     17.02499    20.053189    20.770448    7091.1419    8677.0444    9630.2821    8453.5499    -972.8325    129.71223   -270.84025   -2501.9106 
23180000    258.33112   -3873.1532   -3430.3825   -3873.1532            0    8513.1099    16.985896    20.007142    20.722753    7042.4046    7031.4201    7855.1071    10652.802    -181.4441     2001.099   -673.55475   -2556.0329 
23181000    251.82925   -3851.2822   -3419.6554   -3851.2822            0    7889.8462    16.974133    19.993287    20.708403    7027.7843      7500.43    8255.8131    7913.2953    1679.7961    186.91138    130.50386   -2611.0012 
23182000    265.79357    -3832.833   -3377.2719    -3832.833            0    10826.862    16.979863    20.000035    20.715393    7034.9028    10654.153    11554.855    10271.579     172.9553    1171.6606   -299.04537     -2266.47 
23183000    267.17665   -3871.3875   -3413.4559   -3871.3875            0    8057.4167    17.005754    20.030532     20.74698    7067.1333    7977.6367    9051.6827    7142.9307   -416.31663   -1020.6453    267.04242    -2583.003 
23184000    255.05978   -3882.5611   -3445.3973   -3882.5611            0    4076.2264     17.14606    20.195794    20.918154    7243.5028    4317.5277    4195.7875    3715.3641    226.23476   -848.18574   -927.94548   -3014.7886 
23185000    270.21128   -3840.7906   -3377.6577   -3840.7906            0    8818.3025    17.036314    20.066528    20.784264    7105.3016    8863.3899    7864.0021    9727.5155   -96.306533   -422.80406   -447.09373   -2463.8741 
23186000    263.33618   -3828.0534   -3376.7042   -3828.0534            0    6865.8185    17.104934    20.147353    20.867979     7191.505    6131.3213     6948.353    7517.7813    1001.7051   -863.61259    910.39279   -2656.6122 
23187000    270.77277     -3866.77   -3402.6748     -3866.77            0    7037.3107    16.958718    19.975129    20.689596     7008.654    7236.6776    6314.3677    7560.8869     960.8842     154.4341    695.56826   -2683.3629 
23188000    271.91216   -3833.7532   -3367.7051   -3833.7532            0    9445.0757    16.963778    19.981089    20.695769    7014.9295    10324.912    8558.3149    9452.0007    896.76766    34.256227   -182.21147   -2401.4214 
23189000    254.92948   -3890.8933   -3453.9529   -3890.8933            0    7562.1064    17.087992    20.127397     20.84731    7170.1572    7445.3295    10053.764     5187.226    383.71866   -891.57152   -198.80031   -2663.1881 
23190000    262.95909   -3828.0048   -3377.3019   -3828.0048            0    6435.0353    17.079661    20.117585    20.837147    7159.6758    5952.1831    6200.9954    7151.9273    1145.9968   -291.21796    703.86405   -2705.3779 
23191000    269.14753    -3872.489   -3411.1794    -3872.489            0    5607.6751    16.970254    19.988718    20.703671    7022.9672    6296.1057    4745.5862    5781.3335   -716.92019    74.349039   -712.24537   -2836.8257 
23192000    257.79373   -3833.2041   -3391.3544   -3833.2041            0    8498.0712    16.984562     20.00557    20.721126    7040.7451    7982.0256    6892.0762    10620.112    804.08201   -879.87122    1045.4364   -2518.7551 
23193000    257.77451   -3840.5847    -3398.768   -3840.5847            0    8490.9231    17.089319    20.128961     20.84893    7171.8285    10417.075    8350.2011    6705.4928    457.58812    861.01076   -462.21426   -2510.6705 
23194000     273.2707   -3853.3181   -3384.9415   -3853.3181            0    9448.9032    17.024741    20.052896    20.770145    7090.8313     9841.894    9334.9983    9169.8173   -1083.5133   -287.73574    1000.0491   -2407.8068 
23195000    258.78899   -3880.4595   -3436.9041   -3880.4595            0    8786.2705    17.012614    20.038612     20.75535    7075.6891    8074.6959    8761.4065     9522.709    1631.0798   -358.05785    537.69034   -2530.2341 
23196000    257.51607   -3865.1284   -3423.7547   -3865.1284            0    6821.7278    17.040017    20.070889    20.788781    7109.9357     5428.274    6448.9582    8587.9511    1493.1227    1087.5358    405.46277   -2716.4021 
23197000    260.74346   -3878.8337   -3431.9283   -3878.8337            0    7770.8173    17.031322    20.060648    20.778173    7099.0573    6940.9827    7278.4103    9093.0589    213.87028    783.65481    1165.2183   -2627.3964 
23198000    257.88991   -3854.4853   -3412.4708   -3854.4853            0    8843.9905    16.898465     19.90416    20.616088    6934.2158    10452.852    9099.0635    6980.0557    876.36845    892.55521   -1201.4757   -2518.0919 
23199000    270.75457   -3877.3927   -3413.3287   -3877.3927            0    5979.9113     17.02424    20.052307    20.769534    7090.2055    6232.3233     5966.132    5741.2786   -914.55442    1826.2599    2003.6194   -2794.9857 
23200000    259.96985   -3881.7124   -3436.1329   -3881.7124            0    8690.8227    17.045052     20.07682    20.794923    7116.2397    8721.3291    8750.5563    8600.5828   -857.97787    230.51601    866.51794   -2534.1728 
23201000    252.72387   -3870.3632   -3437.2031   -3870.3632            0    7914.4589    17.001721    20.025782     20.74206    7062.1063     6326.495    7095.3103    10321.571   -909.44411     900.1992     957.5231   -2622.0647 
23202000    269.07018   -3873.2234   -3412.0463   -3873.2234            0    7885.8415    17.014373    20.040684    20.757495    7077.8838    8957.4081    6186.1316    8513.9847    -2491.034    547.31275    252.66921   -2598.0408 
23203000    262.96375   -3905.8877   -3455.1768   -3905.8877            0    7746.7983    17.039485    20.070263    20.788132    7109.2701     7529.756    8886.9304    6823.7086   -941.61795     237.2915   -766.75544   -2651.9778 
23204000    258.90891   -3889.1728   -3445.4118   -3889.1728            0    8119.2365    17.084671    20.123486    20.843259    7165.9779    6888.3704    8161.9219    9307.4172    93.908147   -649.05555   -171.98503   -2596.8831 
23205000    241.97527   -3869.4049   -3454.6676   -3869.4049            0     8452.049    17.004066    20.028543     20.74492    7065.0282    9743.7535    6857.9311    8754.4625   -409.84432   -938.17882     1411.645   -2583.8007 
23206000    252.33314   -3866.2868   -3433.7965   -3866.2868            0    7526.6608    17.090188    20.129984    20.849989    7172.9217    8663.2907    5852.3932    8064.2984   -1141.4597    792.67287    768.87944   -2646.4347 
23207000    250.89209   -3831.3236   -3401.3031   -3831.3236            0    6593.2672    17.092758    20.133011    20.853125    7176.1585    6475.8835    7158.5087    6145.4094    467.92861   -761.77283   -476.17575   -2711.2722 
23208000    268.14202   -3817.5018   -3357.9156   -3817.5018            0      10283.2     16.93013    19.941457     20.65472    6973.2703    10452.441    10045.109     10352.05   -463.53073    202.02456    1149.6777   -2312.1347 
23209000    269.59556   -3878.9826    -3416.905   -3878.9826            0    6674.3148    17.047243    20.079401    20.797597    7118.9847    5365.5587     6939.793    7717.5925   -195.74758    499.45475   -194.31914    -2723.957 
23210000    269.40387   -3839.6949   -3377.9459   -3839.6949            0    8484.4639    16.984712    20.005747    20.721309    7040.9321    7163.9959    9964.9737    8324.4222    616.56026   -828.65815   -681.41673   -2506.7207 
23211000    261.57857   -3873.0025   -3424.6658   -3873.0025            0     6919.393    17.066434    20.102005     20.82101    7143.0544    7307.8436    6324.9903    7125.3452   -2712.7706    1094.9644   -244.26526   -2703.8441 
23212000    263.22998   -3871.5623   -3420.3952   -3871.5623            0    7191.5996    17.096158    20.137015    20.857272    7180.4412    6030.4726     6040.744    9503.5822    1244.2897   -766.25005     1420.817   -2667.2954 
23213000     261.3113   -3837.2219   -3389.3433   -3837.2219            0    8933.8788    17.002935    20.027212    20.743541    7063.6195    7714.0533    9875.2661    9212.3171    2038.9321   -1072.0915    297.31202    -2469.014 
23214000    257.21359   -3883.2272   -3442.3719   -3883.2272            0    7239.0379    17.063402    20.098434    20.817311    7139.2481    8350.0184    7113.5542    6253.5409   -122.59052   -670.84323   -1120.0831   -2688.6533 
23215000     249.9251   -3910.2451   -3481.8821   -3910.2451            0    6050.8692    17.006746    20.031701    20.748191    7068.3701    6974.1221    5192.3253    5986.1602   -1262.9335    1113.9089    375.10543   -2858.1287 
23216000    264.27902   -3860.6833   -3407.7181   -3860.6833            0    8249.6571     16.93433    19.946404    20.659843    6978.4606    9437.7511    8451.5513    6859.6687   -2558.7709     1542.963   -126.27326   -2568.1201 
23217000    254.19397    -3853.776   -3418.0962    -3853.776            0     7958.335    17.053276    20.086506    20.804957    7126.5451    8461.0978    8243.1697    7170.7376    2168.5773    1541.7205   -817.80553   -2590.9598 
23218000    259.48846   -3825.4163   -3380.6619   -3825.4163            0    7145.7486     17.06628    20.101824    20.820822    7142.8609    8351.6861    7183.8399    5901.7197    413.13811   -179.05719    405.83647     -2636.28 
23219000     270.6815   -3855.8878   -3391.9489   -3855.8878            0    7445.5534    17.066702     20.10232    20.821336    7143.3904     9440.104    8958.3018    3938.2545    -959.0077    1768.4111    17.345021   -2616.2785 
23220000    255.72415   -3877.7389   -3439.4364   -3877.7389            0    9546.1874    16.922713     19.93272     20.64567    6964.1087    8905.1147    9372.7395    10360.708   -944.63357    405.88509    456.62306   -2469.8838 
23221000    260.05106   -3857.9945   -3412.2759   -3857.9945            0    7305.9204    16.991463    20.013699    20.729545    7049.3311    8260.0359    6787.3291    6870.3963   -1163.9149    1625.5653    280.64415   -2661.1742 
23222000    265.74917   -3894.6371   -3439.1521   -3894.6371            0    8594.8659    16.999007    20.022584    20.738748    7058.7242    9975.9264    8201.3939    7607.2773     916.4921   -512.89932   -579.04353   -2554.3601 
23223000     260.6505   -3900.2626   -3453.5166   -3900.2626            0    8445.5904    17.030366    20.059522    20.777007    7097.8617    9769.3147    8143.8097    7423.6468    317.17955   -398.17807    11.764446    -2579.271 
23224000     263.6407   -3875.3341   -3423.4629   -3875.3341            0     8456.238    16.980898    20.001255    20.716656    7036.1895    7738.1776    8949.6784    8680.8581    1637.0451    424.20998   -613.33382   -2555.7209 
23225000    251.30795   -3886.0304   -3455.2971   -3886.0304            0    7189.5477    17.029737     20.05878    20.776239    7097.0749    7408.0314     6933.815    7226.7969   -1697.1675   -802.21005    2281.6175   -2711.1534 
23226000    260.21514   -3872.6097   -3426.6099   -3872.6097            0    6462.0036    17.086981    20.126206    20.846077    7168.8845     5062.907    6795.9609     7527.143    2015.4045   -140.71237    916.97925    -2751.002 
23227000    275.40259   -3840.7916   -3368.7609   -3840.7916            0     7780.372    16.998839    20.022388    20.738544    7058.5161    7070.3302    7314.8198     8955.966    2783.6119   -1964.4309   -389.00772     -2567.84 
23228000    275.86626   -3862.5624   -3389.7371   -3862.5624            0    9815.1301    17.003207    20.027532    20.743873    7063.9579    10218.464    10039.572    9187.3543   -655.54502    1124.2778   -841.65812   -2378.5767 
23229000     264.8659   -3833.7567   -3379.7856   -3833.7567            0    7113.2882    17.041067    20.072126    20.790062    7111.2502     8198.362    6497.4096    6644.0929    268.15863   -947.28652   -349.58269   -2642.0644 
23230000    263.17027   -3823.7667   -3372.7018   -3823.7667            0    7320.8447    17.006666    20.031606    20.748093    7068.2705    9358.4922    5469.0956    7134.9463   -130.86648    -1027.866    -1186.945   -2618.0437 
23231000    266.47051   -3849.2443   -3392.5229   -3849.2443            0    6148.5267    17.083876     20.12255    20.842289    7164.9778    8145.7765    4168.8699    6130.9336    91.483187    795.31426   -94.532123   -2750.0397 
23232000     265.8498   -3840.4768   -3384.8194   -3840.4768            0    8065.7546    16.990231    20.012247    20.728042    7047.7974    7124.7239    8739.2668     8333.273    103.91371   -1134.1503   -359.48733   -2555.7816 
23233000    253.01697   -3871.1806   -3437.5182   -3871.1806            0    8272.9906    17.008363    20.033605    20.750163    7070.3862    10154.387    7158.2902    7506.2951   -42.958891    522.67445    882.75164   -2584.4543 
23234000    269.21259   -3842.3178   -3380.8966   -3842.3178            0     7778.097    17.003609    20.028006    20.744364    7064.4597    10564.679    4866.7944    7902.8178    262.55086    1938.4333    1116.6149   -2579.5357 
23235000    265.18873   -3885.4776   -3430.9532   -3885.4776            0    8568.6296    16.943223    19.956879    20.670693    6989.4612    9300.2296    9206.6043    7199.0547    557.99807   -1205.5642    333.95133   -2557.5174 
23236000    246.89084   -3839.8704   -3416.7079   -3839.8704            0    8015.3155    16.991051    20.013214    20.729043     7048.819    6988.3061    8606.8315    8450.8089    503.48445      239.225   -1564.0213   -2592.7351 
23237000    261.58476   -3866.4056   -3418.0582   -3866.4056            0    8791.4519     17.01106    20.036782    20.753454    7073.7506    9009.1867    8976.4974    8388.6716    200.65142    1542.8403    1422.0561   -2511.1022 
23238000    267.11999   -3869.7673   -3411.9328   -3869.7673            0    9115.7045    17.042875    20.074256    20.792268    7113.5138     8315.548    9734.0324    9297.5331   -258.12061   -757.36936   -448.90807   -2466.2395 
23239000    264.69276   -3882.4624    -3428.788   -3882.4624            0    8245.5879     16.98264    20.003307    20.718781    7038.3554     9078.543     8134.439    7523.7817    602.20127   -1401.0284   -646.98647   -2582.4016 
23240000    259.16347   -3858.2544   -3414.0571   -3858.2544            0    8906.9832    16.989263    20.011107    20.726861     7046.593    8689.6926    8999.9696    9031.2875    262.60981   -336.48562   -1482.1244   -2498.7102 
23241000    260.76704   -3898.0836   -3451.1379   -3898.0836            0    10208.187    17.004668    20.029253    20.745655    7065.7792    8345.0142    12565.671    9713.8742    560.99114    602.54545    981.42565   -2399.2134 
23242000    267.50041   -3895.1273   -3436.6407   -3895.1273            0    5506.1387    17.076728     20.11413    20.833568    7155.9872    3662.8841    4658.2378    8197.2941   -462.28815   -801.12308    1928.2778    -2862.005 
23243000    266.47888   -3885.2516   -3428.5159   -3885.2516            0    8673.7995    17.094669    20.135262    20.855456    7178.5658    6544.8707    9908.5448     9567.983   -1396.5137   -202.49571   -1551.0251   -2520.4383 
23244000    264.45664   -3895.4887   -3442.2191   -3895.4887            0    7536.4826    17.072344    20.108966    20.828219    7150.4771     5986.996    9963.8203    6658.6314    -750.9469   -50.610554    339.29956   -2656.2968 
23245000    262.40338   -3843.0918   -3393.3414   -3843.0918            0    7190.1299    17.090077    20.129853    20.849854    7172.7818    7582.6769    7192.0593    6795.6536    1555.2516   -953.41339   -677.15531   -2641.1987 
23246000    265.69946   -3883.0344   -3427.6346   -3883.0344            0    5540.5916    17.169624    20.223549    20.946901    7273.4076    5206.4862    4853.4599    6561.8288   -977.08478    31.782281   -587.45094   -2839.9153 
23247000    257.48658   -3856.4884   -3415.1652   -3856.4884            0    7394.1346    17.038273    20.068835    20.786653    7107.7522    6561.4487    8922.9968    6697.9584   -1131.9343   -237.66701   -1666.4628   -2648.6946 
23248000    259.39673    -3832.284   -3387.6868    -3832.284            0    8442.7624    17.057122    20.091037    20.809649    7131.3685    6942.5708    11075.999     7309.717   -1051.1696    1459.3377   -951.09017   -2509.6083 
23249000    255.07558   -3868.1375   -3430.9467   -3868.1375            0    9671.2881    16.947495    19.961911    20.675904     6994.749    10446.723    8707.1854    9859.9558    624.39933    -10.71663    -526.1143   -2444.3666 
23250000    268.39477   -3835.5964    -3375.577   -3835.5964            0    8273.1458    17.018878     20.04599    20.762991    7083.5077    8481.4593    8499.6958    7838.2823   -151.30538    974.10705   -901.83185   -2520.9139 
Loop time of 363.76 on 64 procs for 250000 steps with 864 atoms

Performance: 118.760 ns/day, 0.202 hours/ns, 687.267 timesteps/s
194.8% CPU use with 32 MPI tasks x 2 OpenMP threads

MPI task timing breakdown:
Section |  min time  |  avg time  |  max time  |%varavg| %total
---------------------------------------------------------------
Pair    | 25.697     | 32.989     | 38.495     |  53.9 |  9.07
Bond    | 0.88799    | 1.1125     | 1.5954     |  13.9 |  0.31
Kspace  | 156.58     | 165.37     | 180.09     |  42.8 | 45.46
Neigh   | 3.6283     | 4.1572     | 5.1957     |  22.6 |  1.14
Comm    | 66.927     | 78.164     | 84.615     |  49.5 | 21.49
Output  | 0.44171    | 0.44207    | 0.4438     |   0.1 |  0.12
Modify  | 69.297     | 72.159     | 76.312     |  24.3 | 19.84
Other   |            | 9.368      |            |       |  2.58

Nlocal:        27.0000 ave          32 max          22 min
Histogram: 1 3 3 1 4 5 5 6 2 2
Nghost:        2606.94 ave        2642 max        2577 min
Histogram: 4 0 5 4 7 2 3 4 1 2
Neighs:        8720.12 ave       10999 max        6781 min
Histogram: 3 2 3 4 6 6 2 4 0 2

Total # of neighbors = 279044
Ave neighs/atom = 322.96759
Ave special neighs/atom = 2.0000000
Neighbor list builds = 14123
Dangerous builds = 0

unfix		3
unfix		2
unfix		1

write_data	data.final.${pid}
write_data	data.final.1
System init for write_data ...
PPPM initialization ...
  extracting TIP4P info from pair style
  using 12-bit tables for long-range coulomb (../kspace.cpp:340)
  G vector (1/distance) = 0.3740485
  grid = 24 24 24
  stencil order = 5
  estimated absolute RMS force accuracy = 0.0031854023
  estimated relative force accuracy = 9.5927444e-06
  using double precision FFTW3
  3d grid and FFT values/proc = 3549 432
Last active /omp style is kspace_style pppm/tip4p/omp
WARNING: Not all mixed pair coeffs generated from mixing. Use write_data with 'pair ij' option to store all pair coeffs. (../write_data.cpp:312)

write_restart   restart.lmp.${pid}
write_restart   restart.lmp.1
System init for write_restart ...
PPPM initialization ...
  extracting TIP4P info from pair style
  using 12-bit tables for long-range coulomb (../kspace.cpp:340)
  G vector (1/distance) = 0.3740485
  grid = 24 24 24
  stencil order = 5
  estimated absolute RMS force accuracy = 0.0031854023
  estimated relative force accuracy = 9.5927444e-06
  using double precision FFTW3
  3d grid and FFT values/proc = 3549 432
Last active /omp style is kspace_style pppm/tip4p/omp
Total wall time: 0:06:03
