LAMMPS (30 Jul 2021)
  using 1 OpenMP thread(s) per MPI task
package omp 0
using multi-threaded neighbor list subroutines
echo both

include		in.partitions
variable        pid world 0
include		in.temp
variable        temperature equal 269.59
variable	tempDamp equal 100.0
include		in.pressure
variable        pressure equal 11500.0
variable        pressureDamp equal 1000.0 # This is 1 ps
include		in.seed
variable        seed world 745823

units		real
atom_style	full
read_restart    restart.lmp.${pid}
read_restart    restart.lmp.0
Reading restart file ...
  restart file = 30 Jul 2021, LAMMPS = 30 Jul 2021
  restoring atom style full from restart
  triclinic box = (-3.1304879 -0.13865573 0.072967503) to (14.740487 22.718655 19.157030) with tilt (-0.17477492 -5.9343813 0.020546794)
  4 by 4 by 4 MPI processor grid
  restoring pair style lj/cut/tip4p/long/omp from restart
  restoring bond style harmonic/omp from restart
  restoring angle style harmonic/omp from restart
  1008 atoms
  672 bonds
  336 angles
Finding 1-2 1-3 1-4 neighbors ...
  special bond factors lj:    0        0        0       
  special bond factors coul:  0        0        0       
     2 = max # of 1-2 neighbors
     1 = max # of 1-3 neighbors
     1 = max # of 1-4 neighbors
     2 = max # of special neighbors
  special bonds CPU = 1.575 seconds
  read_restart CPU = 1.803 seconds

include 	in.setup
variable	out_freq equal 1000
variable	out_freq2 equal 10000
variable	out_freq3 equal 1000

timestep	2.0

neigh_modify    delay 7 every 1

include		in.tip4p
# This is TIP4P/Ice

# create groups ###
group ox type 2
336 atoms in group ox
group hy type 1
672 atoms in group hy

# set charges - beside manually ###
set group ox charge -1.1794
Setting atom values ...
  336 settings made for charge
set group hy charge 0.5897
Setting atom values ...
  672 settings made for charge

# ### TIP3P Potential Parameters ###
pair_style lj/cut/tip4p/long/omp 2 1 1 1 0.1577 8.5
pair_coeff 1 1*2 0.000 0.000
pair_coeff 2 2 0.21084 3.1668
bond_style  harmonic
bond_coeff  1 450 0.9572
angle_style harmonic
angle_coeff 1 55 104.52
kspace_style pppm/tip4p/omp 1.0e-5
pair_modify tail yes

thermo          ${out_freq}
thermo          1000
thermo_style    custom step temp pe etotal epair emol press lx ly lz vol pxx pyy pzz pxy pxz pyz enthalpy

restart 	${out_freq3} restart.lmp.${pid} restart2.lmp.${pid}
restart 	1000 restart.lmp.${pid} restart2.lmp.${pid}
restart 	1000 restart.lmp.0 restart2.lmp.${pid}
restart 	1000 restart.lmp.0 restart2.lmp.0


include         in.dump
dump            myDump all atom ${out_freq2} dump.water.${pid}
dump            myDump all atom 10000 dump.water.${pid}
dump            myDump all atom 10000 dump.water.0
dump            myDump2 all dcd ${out_freq2} dump.dcd
dump            myDump2 all dcd 10000 dump.dcd
dump_modify     myDump append yes
dump_modify     myDump2 append yes


variable natoms 	equal  "count(all)"                        # NUMBER ATOMS
variable H      	equal  "enthalpy/v_natoms"                 # ENTHALPY-per-atom
variable Vol      	equal  "vol/v_natoms"                 # volume-per-atom
fix AVG all 		ave/time ${out_freq} 1 ${out_freq} v_Vol v_H file vol_enthalpy.dat
fix AVG all 		ave/time 1000 1 ${out_freq} v_Vol v_H file vol_enthalpy.dat
fix AVG all 		ave/time 1000 1 1000 v_Vol v_H file vol_enthalpy.dat



fix 		1 all shake 1e-6 200 0 b 1 a 1
       0 = # of size 2 clusters
       0 = # of size 3 clusters
       0 = # of size 4 clusters
     336 = # of frozen angles
  find clusters CPU = 0.239 seconds
fix             2 all nph tri ${pressure} ${pressure} ${pressureDamp}
fix             2 all nph tri 11500 ${pressure} ${pressureDamp}
fix             2 all nph tri 11500 11500 ${pressureDamp}
fix             2 all nph tri 11500 11500 1000
fix             3 all temp/csvr ${temperature} ${temperature} ${tempDamp} ${seed}
fix             3 all temp/csvr 269.59 ${temperature} ${tempDamp} ${seed}
fix             3 all temp/csvr 269.59 269.59 ${tempDamp} ${seed}
fix             3 all temp/csvr 269.59 269.59 100 ${seed}
fix             3 all temp/csvr 269.59 269.59 100 745823


run             250000
PPPM initialization ...
  extracting TIP4P info from pair style
  using 12-bit tables for long-range coulomb (../kspace.cpp:340)
  G vector (1/distance) = 0.37953565
  grid = 24 27 32
  stencil order = 5
  estimated absolute RMS force accuracy = 0.0024342266
  estimated relative force accuracy = 7.3306012e-06
  using double precision FFTW3
  3d grid and FFT values/proc = 3825 384
Last active /omp style is kspace_style pppm/tip4p/omp
Neighbor list info ...
  update every 1 steps, delay 7 steps, check yes
  max neighbors/atom: 2000, page size: 100000
  master list distance cutoff = 10.8154
  ghost atom cutoff = 10.8154
  binsize = 5.4077, bins = 5 5 4
  1 neighbor lists, perpetual/occasional/extra = 1 0 0
  (1) pair lj/cut/tip4p/long/omp, perpetual
      attributes: half, newton on, omp
      pair build: half/bin/newton/tri/omp
      stencil: half/bin/3d/tri
      bin: standard
Per MPI rank memory allocation (min/avg/max) = 9.314 | 9.327 | 9.337 Mbytes
Step Temp PotEng TotEng E_pair E_mol Press Lx Ly Lz Volume Pxx Pyy Pzz Pxy Pxz Pyz Enthalpy 
18250000    268.03082   -4757.9803   -4221.8855   -4757.9803            0     13335.53    17.870975     22.85731    19.084063    7795.5042    12760.015    13726.054     13520.52     1218.429   -680.89054    649.49816   -2705.7767 
18251000    273.95729   -4822.8425   -4274.8941   -4822.8425            0    11433.531    17.679813    22.778192    19.447663      7831.85    11415.507    12835.072    10050.014    -840.6201    1484.6517   -2042.5873   -2968.9619 
18252000    256.33542    -4775.911   -4263.2085    -4775.911            0    10760.676    17.898456    22.852703    19.113269    7817.8637    11033.124    11299.337    9949.5666    1242.7566   -462.36373   -83.959211   -3036.3244 
18253000     268.1181   -4813.0481   -4276.7787   -4813.0481            0    10982.002     17.82918    22.819949    19.274544    7842.0598    10711.259    11988.255    10246.493    -882.3582    755.18612    48.758437   -3020.7847 
18254000    265.11205   -4837.5903   -4307.3334   -4837.5903            0    11309.549    17.749208    23.078972    19.062633    7808.6925    10143.754    10908.366    12876.528     724.4956   -236.80785    318.21514   -3019.3819 
18255000    267.24246   -4806.0832   -4271.5653   -4806.0832            0    12178.694    17.746166    23.038423    19.078301    7800.0429    12913.555    11601.008     12021.52    603.75919    196.01101    336.66922   -2886.1703 
18256000    269.39589    -4779.792   -4240.9669    -4779.792            0    12293.115    17.862474    23.004896    18.990717    7803.7483    11325.735    11204.499     14349.11   -362.98976   -862.14572   -405.14314   -2841.8917 
18257000    266.51844   -4810.7761   -4277.7063   -4810.7761            0    12110.343    17.737532    23.051432    19.147544    7828.9621    11175.574    11631.926    13523.527   -121.55982    199.12214    34.963696    -2894.979 
18258000    269.52042    -4797.215   -4258.1409    -4797.215            0    11393.931    17.730339    23.085263    19.161763    7843.0922    11738.668    11053.138    11389.988   -1682.5181    1421.1777   -1210.7964   -2954.8637 
18259000     283.8764   -4800.4995   -4232.7116   -4800.4995            0     12633.43    17.638035    23.074209     19.21518     7820.265    13076.677    12904.526    11919.087   -260.76108   -1468.5989    -512.7266   -2791.8621 
18260000    269.37066   -4779.4683   -4240.6937   -4779.4683            0    12324.517    17.731457    23.028452     19.10356    7800.5182    12665.575    11873.701    12434.274   -2907.9894   -1549.0834   -1686.5081   -2838.6252 
18261000    270.77134   -4827.2432   -4285.6671   -4827.2432            0    12169.879    17.916112    22.900876    19.136825    7851.7373    13101.676      11324.5    12083.461    998.58105   -502.05452       64.957   -2892.0999 
18262000    277.13207   -4781.5992   -4227.3009   -4781.5992            0    10722.975    17.813826    22.876034    19.270887    7853.0733    11557.601    10827.851    9783.4727    885.30482    928.84215    2376.5208   -2999.2091 
18263000    272.90598   -4784.0925   -4238.2468   -4784.0925            0    10406.521    17.838776     22.90774    19.312522     7891.986    10599.232    9724.6246    10895.706    406.13712   -823.62725    84.489727   -3040.4925 
18264000    278.26495   -4817.3498   -4260.7856   -4817.3498            0    12337.456    17.777893    23.065931    19.076895    7822.7413    12176.282    12020.372    12815.714    -1781.959    658.47472    972.68174   -2853.2465 
18265000    274.88124   -4826.4873   -4276.6909   -4826.4873            0    10730.234    17.807235    22.855201     19.31628    7861.4927    9313.1247    11540.915    11336.662   -545.87914   -89.951902     276.7889   -3046.4502 
18266000    269.07276   -4795.2878    -4257.109   -4795.2878            0    12528.151    17.827435    22.936323     19.12775    7821.2563    12113.464    12460.924    13010.064     437.8578   -241.24952   -434.75738   -2828.0855 
18267000    273.78076   -4804.2955   -4256.7001   -4804.2955            0    13089.408    17.594975    22.982222    19.174931    7753.7978    13014.291    13265.921    12988.011   -839.36987    48.166228    429.69192   -2776.5344 
18268000    263.30475   -4801.7431   -4275.1011   -4801.7431            0    13162.746    17.727483    23.113061    18.961962    7769.4059    11937.576    13113.594    14437.068   -226.24017   -92.348226     2496.269   -2783.6459 
18269000    261.11568   -4782.2902   -4260.0266   -4782.2902            0    12516.018    17.763709    22.985336    19.148459    7818.4082    12243.305    13210.874    12093.875   -229.24995    586.94282    1161.0437   -2832.9069 
18270000    258.71024   -4787.6631   -4270.2106   -4787.6631            0    10523.338    17.683265    23.223721    19.120048    7852.0532    11493.068    9681.6617    10395.284    201.48496   -273.88539    156.94241   -3065.1396 
18271000    259.43707   -4804.8495   -4285.9433   -4804.8495            0    11144.002    17.622509    23.235572     19.13104    7833.5694    10432.814    11410.601    11588.589    666.38568   -568.67195   -574.17122   -3012.8016 
18272000    268.44516   -4797.5705   -4260.6471   -4797.5705            0    12200.883    17.708929     23.15063    19.083712    7823.8042    11656.708    12785.162    12160.781     159.2453    1193.3489   -609.82359   -2868.4999 
18273000    261.95489   -4817.3651    -4293.423   -4817.3651            0    10371.752    17.666623    23.064052    19.288491    7859.3639    11936.993    10656.415     8521.847    403.11923   -1531.4342    1325.8089   -3104.6049 
18274000    287.33882    -4777.281   -4202.5679    -4777.281            0    12267.941    17.658088    22.994649    19.205248    7798.1283    11407.023    12380.586    13016.214    879.52089    237.37214    1812.7492   -2807.3631 
18275000    270.06969   -4778.2698   -4238.0971   -4778.2698            0    10830.325    17.853225    22.905878    19.195439     7849.856    11104.482    10542.806    10843.687    1050.9577    789.96005    1446.1287   -2998.2188 
18276000    270.96275   -4792.2264   -4250.2674   -4792.2264            0    9759.4349    17.878884    22.904477    19.280658    7895.5545    9454.3714    9534.7183    10289.215   -123.39913   -767.75612    1810.8658   -3126.4825 
18277000    288.38806    -4800.402   -4223.5903    -4800.402            0    12789.938    17.915433    22.619123    19.331491    7833.7267     12053.39    13146.393     13170.03   -964.23607   -940.87418    1787.7462   -2762.3799 
18278000    257.27522   -4801.4132    -4286.831   -4801.4132            0    10062.675    17.999594    22.731226    19.271072    7884.8141    8694.7184    11341.204    10152.104    468.76693   -75.815305    1557.4199   -3129.7045 
18279000    279.26663   -4818.8052   -4260.2375   -4818.8052            0    12039.953    17.797823    22.718197    19.345968    7822.2413    10780.168    12123.382    13216.311   -1316.0368   -887.58438   -566.31307   -2886.7272 
18280000    259.83701   -4751.6443   -4231.9382   -4751.6443            0    11641.418    18.086288    22.653131    19.159195    7849.7336     12773.36    11991.712    10159.183    1441.2423   -1182.1496    2696.4665    -2899.225 
18281000    277.78268   -4795.6998   -4240.1001   -4795.6998            0    10337.539    17.891072    22.829131    19.311458    7887.5261    9773.5869    9588.2701    11650.761    520.81012   -1108.5933   -857.84309   -3050.9576 
18282000    263.54403   -4776.4777   -4249.3571   -4776.4777            0    12622.609    17.826166    22.767167    19.223684    7801.9574    12105.473    13768.176    11994.179    1323.8103   -135.79763     286.1127   -2813.1118 
18283000    266.34694   -4794.5976   -4261.8708   -4794.5976            0    11002.437    17.763683    22.790829    19.370207    7842.0103    11736.525    10586.123    10684.663    163.44302   -929.87572   -1156.6296   -3003.5476 
18284000    263.23429   -4824.8668   -4298.3657   -4824.8668            0    10513.482    17.923999    22.742995     19.31586    7874.0222    10601.359    11180.815    9758.2715   -2222.1559    -678.5821   -738.70342   -3091.0549 
18285000    266.13862   -4838.8708   -4306.5607   -4838.8708            0    11243.349    17.798771    22.950568    19.151573     7823.263     10800.78    11211.607    11717.659    870.05785   -770.51431    1158.8847   -3023.7591 
18286000    268.09899   -4838.6717   -4302.4406   -4838.6717            0    10997.513    17.804658    22.841575     19.30804    7852.3177    11481.893    10593.432    10917.214   -412.00936    -81.55199   -1787.8193   -3043.0274 
18287000    267.12574    -4789.515   -4255.2306    -4789.515            0    12039.324    17.776233    23.091352    19.027674    7810.4276    11588.082    11431.707    13098.183    946.85444   -497.37858   -1179.9483   -2883.8664 
18288000    271.20517   -4803.4216   -4260.9778   -4803.4216            0    12464.093    17.729642    22.920145    19.161519    7786.5887    12169.569    12996.554    12226.156    1079.4009    1270.7767    695.54173   -2845.5627 
18289000    268.78964   -4804.0573   -4266.4448   -4804.0573            0    11599.471    17.712801    23.127824    19.075828     7814.576    11489.013    11453.189    11856.211   -160.04536   -24.060838   -2015.9041   -2944.4812 
18290000    274.63281   -4813.8012   -4264.5016   -4813.8012            0    12233.722    17.806198    23.042062     19.09745    7835.5218    12861.228     11954.33    11885.608    26.046633   -149.25757   -279.29733   -2866.5169 
18291000    273.11845    -4808.926   -4262.6554    -4808.926            0    11391.862    17.804869    22.900153    19.207018    7831.3587    11981.043    11239.231    10955.312   -1141.3654    1189.4614   -654.20845   -2961.5643 
18292000    278.49338   -4819.0658   -4262.0446   -4819.0658            0    11409.911     17.63261    23.021377    19.254547    7815.9398    12265.392    12337.021    9627.3211     -982.747   -203.69376    190.80753   -2961.4578 
18293000    278.78848   -4809.2177   -4251.6063   -4809.2177            0    11759.176    17.742249    23.164518    19.055926    7831.8072    13718.661    10507.218    11051.649    408.78415    671.21163   -486.43924   -2908.4865 
18294000    262.69179   -4829.9347   -4304.5187   -4829.9347            0    10503.323    17.703774    23.008489    19.284594    7855.3302    11598.743    10511.669    9399.5567   -1826.7498    479.67177   -1778.8587   -3101.2377 
18295000    260.39579    -4825.181   -4304.3572    -4825.181            0    11455.723    17.773782    23.120114    19.084112    7842.2697    11871.827    11179.524    11315.819    100.99944    1201.5459   -1330.5422   -2994.1494 
18296000    265.33539   -4817.5161   -4286.8126   -4817.5161            0    9406.0659    17.747805     23.07762     19.21022     7868.066     10151.74    9285.0276    8781.4299   -1186.2634   -587.67391   -338.24531   -3207.4884 
18297000    264.20402   -4801.0665   -4272.6258   -4801.0665            0    10555.421    17.882008    23.088458    19.135749    7900.5383    10256.566    10607.241    10802.455    -234.3512   -113.27164    956.01848    -3056.417 
18298000    272.35948   -4839.6702   -4294.9176   -4839.6702            0    11463.668     17.69092    22.947857    19.300036    7835.2103    11745.818     11109.31    11535.877   -2514.4302   -260.64432    -2159.485   -2984.9814 
18299000    268.53744   -4779.4308   -4242.3228   -4779.4308            0    11572.843    17.790875     23.12722    19.078416     7849.881    11493.211    12099.593    11125.724    958.64152    311.61253    199.55242   -2917.4352 
18300000    264.72902   -4818.7991   -4289.3084   -4818.7991            0    12148.385    17.629578    23.055288    19.183119    7797.0744    11576.269    12538.235    12330.651   -117.88908   -347.75012    780.80507   -2907.8872 
18301000    282.14324   -4757.2021   -4192.8808   -4757.2021            0     11463.77    17.862446    23.142333    18.997652    7853.2242    12101.123    10015.335    12274.853    1633.4771   -1610.3518    3956.9972   -2879.9212 
18302000     259.8895   -4803.6236   -4283.8125   -4803.6236            0    13172.756    17.620527    23.037108    19.155911    7775.8818    13880.262    12996.916    12641.089     372.3339    375.57584   -558.06345    -2789.979 
18303000    269.66623   -4834.2081   -4294.8423   -4834.2081            0    13251.205    17.621221    22.956016    19.235338    7780.9446    15648.744    12547.307    11557.564    487.42382   -129.30812     1227.183    -2791.134 
18304000    273.25367   -4778.5031    -4231.962   -4778.5031            0    10787.939    17.771994    23.105748    19.135477    7857.7004    12412.187    9649.7593    10301.873   -832.21645   -768.65652    1388.7107   -2995.7019 
18305000    280.59421   -4801.2005   -4239.9774   -4801.2005            0    12016.094    17.862887    22.812273    19.195367    7821.9789    11015.008    11956.083    13077.191   -1111.0278   -154.98939    1204.2804    -2869.235 
18306000    288.73334   -4799.2859   -4221.7836   -4799.2859            0    11557.063     17.74709    23.121285    19.147907    7857.0665    11197.669    12139.242    11334.278   -1652.3285     1553.906   -895.15258   -2897.4914 
18307000    266.53976   -4832.7243   -4299.6118   -4832.7243            0    13104.169    17.622539    22.968129    19.253729    7793.0768    12808.086    14457.302    12047.119    11.092905    1406.8479    -1107.933   -2810.2702 
18308000    269.58417   -4795.9625   -4256.7609   -4795.9625            0    11697.535    17.852104    23.026283    19.066005    7837.4169    9747.9205    11873.725    13470.958   -1268.1945   -658.14735   -1412.5561   -2919.7246 
18309000    274.24477   -4813.2239   -4264.7004   -4813.2239            0    11604.703    17.808809    22.803208     19.33481    7851.8273    11863.807    12644.597    10305.706   -129.64221    1498.5432   -1188.6964    -2935.836 
18310000    279.60454    -4838.412   -4279.1684    -4838.412            0     9244.379     18.04746    22.785064    19.167957    7882.1039    7273.4368    10349.526    10110.175    426.20849    339.99543    763.48191   -3216.5048 
18311000    279.91432   -4802.6626   -4242.7994   -4802.6626            0    11017.168    17.846368    22.820706    19.263005    7845.1806    11871.806    11095.304    10084.395    1051.5881    -904.7783    491.24247   -2982.2821 
18312000    279.84199   -4774.1462   -4214.4277   -4774.1462            0    11528.562    17.956074    22.855123    19.179472    7871.0307    9874.5301    12705.256    12005.899   -665.39965    682.21522   -1755.6421   -2891.0536 
18313000    283.42592   -4793.3012   -4226.4144   -4793.3012            0    13134.925    17.715161    23.052966    19.153816    7822.1693    15242.437    11740.417    12421.921   -385.37982   -379.34727   -3090.7934   -2728.0043 
18314000    282.09348    -4841.397   -4277.1752    -4841.397            0     10288.22    17.753586    23.207883    19.126216    7880.4435     12533.88    8447.9387    9882.8418   -324.91366   -849.84467    256.50991   -3094.7687 
18315000    261.98082   -4820.7909   -4296.7969   -4820.7909            0    11914.562    17.715891    22.943257    19.239017    7819.8954    12487.726    12908.758      10347.2    1482.7342     1565.021   -1414.7582   -2937.9989 
18316000    271.66012   -4776.7936   -4233.4398   -4776.7936            0     12186.08    17.649107    23.106875    19.260283    7854.6457    11302.838    13320.689    11934.711   -287.43955    2240.3266    193.89877   -2837.5006 
18317000    276.21564   -4823.4997   -4271.0344   -4823.4997            0    11751.658    17.652131    23.223671    19.014071    7794.7671    10908.998    12211.371    12134.607    262.21091   -110.11477    7.6248107   -2935.1213 
18318000    265.17723   -4795.1357   -4264.7485   -4795.1357            0    12403.107    17.714364    23.086801    19.183019    7845.2411    13313.721    11364.315    12531.285    281.74193   -736.05666   -1503.6745   -2845.6495 
18319000    263.27271   -4827.6045   -4301.0265   -4827.6045            0     10530.08    17.684518    23.116706    19.123723    7817.9274    11127.651    9952.8579    10509.732   -791.15451    137.31001    751.73274   -3100.4241 
18320000    276.96632   -4811.4023   -4257.4354   -4811.4023            0    11217.752    17.718655    23.176825    19.124748    7853.8103    12738.892    9546.7787    11367.584   -1355.7251   -207.92602   -682.89694   -2972.5567 
18321000    276.76312   -4809.1269   -4255.5665   -4809.1269            0    12652.565    17.651149    23.123947    19.079542    7787.5865    11915.928    12503.264    13538.505    973.47259    10.750857    1425.4713   -2818.5646 
18322000    285.28158   -4776.4568   -4205.8584   -4776.4568            0    11323.699     17.70014    23.204095    19.199009    7885.3351    12466.778    9613.1309    11891.187    232.68884    198.64542   -207.59693   -2903.6385 
18323000    274.35783   -4853.9248   -4305.1752   -4853.9248            0    9515.5352    17.634277    23.324151    19.052919     7836.552    11027.136    7209.4711    10309.998    465.95437    170.08281    831.59871   -3217.6631 
18324000    259.66035   -4819.1435   -4299.7907   -4819.1435            0    12062.539     17.61094    23.165088    19.103309    7793.3664    11786.148    12990.026    11411.441   -559.86596    227.59116    162.89954   -2928.7836 
18325000    258.47217   -4787.4216   -4270.4453   -4787.4216            0    12219.651    17.762667    22.939147    19.150651    7803.1326    11963.992    13210.886    11484.076    86.375931    504.24127   -45.332656   -2879.8406 
18326000    269.90146   -4800.3474   -4260.5111   -4800.3474            0    10347.561    17.924428    22.841007    19.268668    7888.8236    7979.3769     11974.12    11089.186   -177.95563    59.197579   -830.76725   -3070.0201 
18327000     251.7976   -4821.8834   -4318.2571   -4821.8834            0    11693.319    17.883921    22.754729    19.256181     7836.183    10302.182    13305.408    11472.365    346.92043    918.23827    1270.1898   -2981.9131 
18328000    278.93925   -4781.7221   -4223.8091   -4781.7221            0    11301.471    17.984374     22.66989    19.313641    7874.2449    10066.082    12924.234    10914.097   -736.29282    49.153547    390.34051   -2925.9732 
18329000     263.0142   -4798.3954   -4272.3345   -4798.3954            0    12478.882    17.923034    22.622456    19.275025      7815.31    12206.673    12121.393    13108.581    136.34154   -1606.0335   -1316.2007    -2850.013 
18330000    276.61844   -4781.4906   -4228.2195   -4781.4906            0     12501.79    17.857981    22.609674    19.383348    7826.2811    12560.521    13554.959     11389.89    1688.4423    71.190963    1680.4923   -2801.2867 
18331000    274.40514   -4813.4637   -4264.6195   -4813.4637            0    10242.168    18.066717     22.69124    19.204879    7873.1596    10907.938    10683.784     9134.784    1724.8494   -956.71115    1503.2242   -3088.5937 
18332000    269.76343   -4844.7922    -4305.232   -4844.7922            0    9427.6898    17.871518    22.859014     19.28141    7876.9436    9279.5568    9749.0776    9254.4351     340.4503   -270.25895   -489.29591   -3222.2059 
18333000    263.79572    -4767.465    -4239.841    -4767.465            0    11599.198    17.766039    23.213699    19.000269    7836.0054    11448.677    11824.888     11524.03   -342.48648    10.972807   -542.67858   -2914.2834 
18334000     280.9826    -4791.257    -4229.257    -4791.257            0    9484.9229    17.521429    23.291371    19.253778    7857.4305    9743.0492    9725.9226    8985.7968    -592.3838   -127.45974    657.06885   -3142.3554 
18335000    262.03132   -4808.5173   -4284.4223   -4808.5173            0    10833.699    17.715554    23.218816     18.99049     7811.438    11229.181    9754.2499    11517.665     -1836.04   -1382.4531   -588.63623   -3050.2277 
18336000    260.84268   -4792.9097   -4271.1921   -4792.9097            0    12517.173    17.458763    23.473317    19.027535    7797.7707    13354.413    10484.515    13712.592    422.07217    -32.87368   -9.8340469   -2847.7081 
18337000    266.10072   -4814.1326   -4281.8983   -4814.1326            0     10822.48    17.659637    23.375506    19.008597     7846.805    13396.321    8995.4226    10075.695   -24.703316   -69.506106   -616.56845   -3043.3997 
18338000    278.87263   -4823.3756   -4265.5959   -4823.3756            0    9886.3947    17.482209    23.375394    19.212029    7851.0634    11961.605     9065.083    8632.4957     586.0539    35.759348    1505.1236   -3133.6066 
18339000    262.62691     -4840.56   -4315.2738     -4840.56            0      10667.7    17.587974    23.413902    18.941006    7799.9649    9104.7033     9762.271    13136.125   -73.560278   -836.11829   -540.06971   -3101.7751 
18340000    270.17656   -4816.7257   -4276.3392   -4816.7257            0    11380.789    17.668293    23.245701    19.071095    7832.7252    12438.159    9600.9231    12103.285   -1060.8652    526.86085   -1613.2875    -2976.286 
18341000    266.30984   -4825.5201   -4292.8676   -4825.5201            0    9305.1007    17.715886    23.209428    19.242344    7911.9819    10817.355    8168.8027    8929.1445    855.28432    672.58877    747.28997   -3219.1693 
18342000    264.58023    -4804.978   -4275.7848    -4804.978            0    11496.818    17.723545    23.249314    18.987508    7823.9974    11222.121    11744.317    11524.014    589.34628    1205.3777    695.00356   -2963.9407 
18343000    269.98991   -4790.9958   -4250.9826   -4790.9958            0    10814.386    17.750591    23.077093    19.217646    7872.1638    10712.926    10304.239    11425.992    79.162186    310.94554    1007.9642   -3009.4108 
18344000    264.62458    -4797.994   -4268.7121    -4797.994            0     11928.35    17.707945    23.031828    19.179664    7822.3562    11600.301    12696.971    11487.778    -799.0092    1032.5307   -1309.3635   -2907.9135 
18345000     271.2884   -4859.6052   -4316.9949   -4859.6052            0    11858.916    17.702903     23.03168    19.150929    7808.3621     12246.38    10927.435    12402.933    112.61217   -1034.7957    33.349768   -2966.5376 
18346000    267.23056   -4784.5789   -4250.0848   -4784.5789            0    11696.433    17.850647    22.957308    19.120063     7835.455    10533.689    11478.271    13077.339    368.00039    1455.7283    1104.9342   -2913.5091 
18347000    266.94753   -4801.2139   -4267.2859   -4801.2139            0    11522.707    17.703859    22.975714    19.255076    7832.1717     11946.86    11934.795    10686.466   -885.82906    661.02442   -706.60771    -2951.114 
18348000    283.07859   -4824.1449   -4257.9528   -4824.1449            0    12530.723    17.756616    23.013954    19.067847    7792.0743    12314.846    13704.589    11572.735   -2327.2034   -184.97738   -1332.7235   -2833.9687 
18349000    256.71136   -4794.7655   -4281.3111   -4794.7655            0    12395.462    17.751767    22.792918    19.317986    7816.3388    12317.141    12857.693    12011.551     582.8188   -756.28754    202.52078   -2868.3117 
18350000    272.90203   -4806.1506   -4260.3129   -4806.1506            0    13446.058    18.068012     22.51722    19.148146    7790.2583    10948.204    13848.663    15541.307   -1659.9205   -493.07987    -792.5221   -2732.6668 
18351000    260.31471   -4822.4912   -4301.8296   -4822.4912            0    12460.342    17.848844    22.632538    19.368176    7824.0585     12845.22    13129.302    11406.503   -78.448641   -556.46687    2128.0125   -2880.0315 
18352000    265.46689   -4800.3445   -4269.3779   -4800.3445            0    11358.001    17.841307    22.820103    19.244456    7835.1966    12061.034    11211.836    10801.133   -606.87649   -507.49954   -3.5356987   -2971.5183 
18353000    267.87669   -4782.9659   -4247.1794   -4782.9659            0    13592.961    17.848777    22.823642    19.145934    7799.5572     14729.59     13842.27    12207.024    580.44955    497.53215    580.23106   -2700.9999 
18354000    274.98724   -4805.5403   -4255.5318   -4805.5403            0    11500.874    17.760301    22.752292    19.375526     7829.409    8654.1041    13807.052    12041.465   -1502.2169    1230.2269   -3209.8063   -2942.3172 
18355000    269.34968    -4761.491   -4222.7584    -4761.491            0    9918.4169    17.840411     23.12817    19.090873    7877.2008    11917.414    8914.7067      8923.13   -621.30343   -655.28477   -553.06058   -3083.3218 
18356000     251.4377   -4793.5317   -4290.6253   -4793.5317            0    11996.825    17.566452    22.990439    19.291976     7791.266    12501.153    12292.497    11196.825    695.43091   -293.72832   -175.69836   -2927.4545 
18357000    265.59745   -4785.0927    -4253.865   -4785.0927            0    10656.239     17.99574    23.042584     18.90702    7840.1428    10160.278    11167.965    10640.475    769.23762     188.4718      1144.12   -3035.4259 
18358000    269.79529   -4796.6241   -4257.0002   -4796.6241            0    11045.415    17.722538    23.044706    19.283798    7875.7091    11592.521    11106.904    10436.821   -215.69452    492.37237    -661.3088   -2988.3333 
18359000    256.73022   -4784.7792   -4271.2871   -4784.7792            0    11993.728    17.796983    22.989268    19.074577    7804.1651    10417.573    13007.183    12556.428    23.331083     944.4085   -1904.6903    -2906.212 
18360000    275.80271   -4782.6038   -4230.9643   -4782.6038            0    12236.474    17.823612    22.633246    19.327136    7796.6862      11815.3    12052.157    12841.965    2128.0338   -1104.5332    82.585008   -2839.5956 
18361000    275.82446   -4782.6174   -4230.9344   -4782.6174            0    12251.764    17.907095    22.758636    19.298566    7864.9578    13236.015    11043.958    12475.319   -941.47753    906.52474   -2401.0887   -2825.6284 
18362000    270.92863   -4802.0602   -4260.1695   -4802.0602            0    11811.503    18.033548    22.693527    19.190244    7853.5076    10952.632    11363.854    13118.023    839.93144    470.65435    1080.9009   -2907.3348 
18363000    266.08666   -4806.8798   -4274.6736   -4806.8798            0    13785.182    17.785295     22.72691    19.231445    7773.4425    12330.666    14916.636    14108.243   -384.57062    259.09964   -76.363665   -2711.8795 
18364000    273.82901   -4807.2644   -4259.5726   -4807.2644            0    9408.3841     17.86962    23.069814    19.203399    7916.5784    7534.2359    9710.5144    10980.402    1808.9886   -275.19887    282.42174   -3173.3259 
18365000    271.54787   -4802.7909   -4259.6616   -4802.7909            0    11010.718    17.564714    23.194167    19.184577     7815.776    11450.614    11013.764    10567.777    895.80531   -265.50414    286.62211   -3004.6041 
18366000    274.74079   -4841.2097   -4291.6941   -4841.2097            0     12405.62    17.693177    23.255282    18.978995    7809.0935    12164.858    11600.609    13451.394    1943.2596    1093.7624   -1246.2723   -2878.8476 
18367000    259.77894   -4828.0456   -4308.4556   -4828.0456            0    10330.857    17.549265    23.342167    19.177478    7855.8213    11662.466    9482.8811    9847.2253   -606.84256    574.12735   -1104.1837   -3124.8586 
18368000    268.03988   -4835.6715   -4299.5587   -4835.6715            0    9984.2925    17.760739    23.369824    18.951735    7866.2085    8778.0431    10151.172    11023.662    1588.4233    -709.2733    943.08138   -3154.1548 
18369000    269.17255    -4826.676   -4288.2977    -4826.676            0     13616.28    17.586606    23.183853    19.110488     7791.829    13870.741    12903.602    14074.497    2147.6853   -1293.2955    1732.3757   -2741.0003 
18370000    272.51377   -4824.7736   -4279.7124   -4824.7736            0    9971.5323    17.787666    23.233255    19.029544    7864.2517    8825.2704    11325.289    9764.0373   -783.17186     62.37295    -1175.532    -3136.057 
18371000    257.82581   -4810.2261   -4294.5427   -4810.2261            0    9583.3925    17.691958    23.479468    18.967153    7878.9126    10442.361    8714.0335    9593.7833    1526.6082    694.12336    805.92143   -3193.3547 
18372000    283.41031   -4811.0973   -4244.2417   -4811.0973            0    10925.177    17.675135    23.220915    19.159116    7863.5298    12640.951    9333.0626    10801.516    751.12232   -339.59647     1647.632   -2991.3258 
18373000     267.2824   -4786.6958    -4252.098   -4786.6958            0    14207.947    17.688671    23.196247    18.895624    7753.0784    13557.429    13616.313      15450.1   -926.44297    285.18455   -2348.5662   -2645.5955 
18374000    265.22447   -4780.6474   -4250.1657   -4780.6474            0     12064.41    17.510185     23.20372    19.285165    7835.5901    11509.801    12933.255    11750.173   -1159.0404    1782.6108    138.17726   -2871.5168 
18375000    265.84254   -4757.5939    -4225.876   -4757.5939            0    13819.051     17.78257    23.163359    18.883741    7778.2898      11563.3    14289.033    15604.821    50.795945    917.78185    913.76584   -2658.2652 
18376000    272.14273   -4817.5404   -4273.2213   -4817.5404            0    11941.507    17.471387    23.067182    19.355456    7800.5518    14511.709     11702.39    9610.4218   -695.11565    1145.2018   -756.44433   -2914.7191 
18377000    259.82682   -4804.7399   -4285.0541   -4804.7399            0    11722.134    17.990457    22.816631    19.087243    7834.9624    9965.5453    12022.044    13178.812   -652.16227   -460.63981   -1026.9993   -2945.6258 
18378000    261.77005   -4807.2021   -4283.6297   -4807.2021            0    12839.938    17.770343    22.707273    19.336653    7802.6498    11601.109    14654.785    12263.921   -906.53085    354.39638   -464.04286   -2822.5263 
18379000    276.66377   -4769.0171   -4215.6554   -4769.0171            0    12043.218    17.922069    22.729359    19.239733    7837.4425    11854.148    12678.289    11597.218    336.40918   -1419.0983    1486.9637   -2839.1028 
18380000    243.24725    -4796.058   -4309.5334    -4796.058            0    10367.513    17.918794    22.787745    19.329454     7892.775    11000.231    11399.848    8702.4582   -47.580399    299.75013   -1494.8175   -3116.1495 
18381000    257.00947    -4823.277   -4309.2263    -4823.277            0    11765.077    17.816201     22.73741    19.313009    7823.5892    11773.102    12049.327    11472.801   -3.7744223   -818.56603    870.97059   -2966.8425 
18382000    271.68071   -4784.4324   -4241.0374   -4784.4324            0     11049.39    18.081266    22.771217    19.201569    7905.9087    8033.9675    12854.874    12259.329   -713.09751     1677.287   -3041.6894   -2967.0475 
18383000    272.02604   -4787.0877    -4243.002   -4787.0877            0    11673.013    17.727342    22.997714    19.235148    7841.9454    14085.989    11099.951    9833.0997   -1040.0964   -1303.2828   -3720.9592   -2907.9976 
18384000    272.93881   -4840.9484   -4295.0371   -4840.9484            0    13288.546    17.848688    22.912436    19.063459    7796.1336     11881.85    13335.476     14648.31   -174.28828    229.02833   -1581.4101   -2784.1479 
18385000    269.85007   -4809.1832   -4269.4497   -4809.1832            0    13160.218    17.760314    22.935678    19.113685    7785.8612    10782.568    14270.731    14427.356    312.46093     1670.117    -2013.453   -2775.1227 
18386000    270.90598   -4787.5533   -4245.7078   -4787.5533            0    11671.492    17.847679    22.902659    19.245573    7866.8071     12897.58    12965.124    9151.7715    1298.3881    29.939888   -631.94552   -2906.6456 
18387000    269.59417     -4822.07   -4282.8484     -4822.07            0    11616.033    17.778109    22.964494    19.196231    7837.1546     11781.82    11860.302    11205.976    698.16186   -1412.9157   -489.22513   -2955.1723 
18388000    275.00105   -4829.6667   -4279.6306   -4829.6667            0    10671.214    17.828025     22.88277    19.255898    7855.5322    11342.627     10173.48    10497.536    1479.1064   -989.21772    274.16418   -3057.0842 
18389000    252.75639     -4808.64   -4303.0959     -4808.64            0    11811.521    17.825753    23.118344    19.033672     7843.812    13996.567    10324.401    11113.595    836.29815   -112.39661    705.83981   -2951.9293 
18390000    267.94297   -4791.7494   -4255.8304   -4791.7494            0    10911.961    17.699655    23.003306    19.274344    7847.5602    9900.8432    10926.684    11908.356    155.44982    208.33899    916.91297   -3006.9715 
18391000    275.11225   -4830.4177   -4280.1592   -4830.4177            0    10216.456    17.812989    22.969881    19.153082    7836.7179    9952.7547    9143.5568    11553.055    1174.3149   -1090.9434    858.64531   -3112.5155 
18392000    266.98897   -4794.7929   -4260.7819   -4794.7929            0    11511.324    17.786322    23.059997    19.051717    7814.1098    12148.291    11440.975    10944.705    1536.9928   -740.11394    816.75717   -2948.9426 
18393000    260.18514   -4801.9182   -4281.5158   -4801.9182            0     11859.25    17.694417    22.990118    19.264732    7836.8299    11025.243    11021.856    13530.653    239.00404    -248.2257    -831.2127   -2926.0969 
18394000    260.69158   -4785.7906   -4264.3753   -4785.7906            0    10943.679    17.808395    23.121426    19.067587    7851.1837    10903.295    10320.247    11607.496    -100.1237   -346.77485    -2141.064    -3011.308 
18395000     269.9017   -4815.8956   -4276.0588   -4815.8956            0    11203.792    17.830747     22.78531    19.359271     7865.267    12014.684    11497.377    10099.314   -742.44981    820.36915    875.06364   -2990.9072 
18396000    271.13206    -4820.348   -4278.0504    -4820.348            0    10295.897     17.84273    22.782424    19.309922    7849.4959    10640.609    10289.975    9957.1057    2136.5724    151.75783    691.38816   -3099.4086 
18397000    257.86267   -4812.6576   -4296.9004   -4812.6576            0    12718.399    17.896024    22.658814    19.233527    7799.2465    12425.639      13291.1    12438.459    373.51451   -940.45657    16.622246   -2850.2587 
18398000    269.41912   -4818.1331   -4279.2616   -4818.1331            0    10406.041    17.812122    22.844131    19.342675    7870.5815    9243.9176    11997.376    9976.8306    1078.9139    827.79524    821.80686   -3084.8108 
18399000    273.63954   -4790.4449    -4243.132   -4790.4449            0    10244.482    18.133894    22.738319    19.162893    7901.5175    10723.164    8891.0079    11119.275    2672.2872   -1747.6657   -706.51923   -3062.6037 
18400000    269.52011    -4823.106   -4284.0324    -4823.106            0    10882.621    17.717639    22.911657    19.322341    7843.7202    10736.401     10809.86    11101.601   -66.665942    62.501784    1055.2507    -3039.141 
18401000    277.12673   -4768.2217    -4213.934   -4768.2217            0    11206.571    17.751889    22.908149    19.259118    7831.9689    11093.829    11319.155    11206.729    2151.1352    137.15452    1074.9243   -2933.9057 
18402000    266.52935   -4795.4967   -4262.4051   -4795.4967            0    11400.608    17.923125    22.858488     19.12183    7834.1283    11231.563    11410.141    11560.119    558.25887    34.469997    1064.6792   -2959.8546 
18403000    268.85632   -4806.2876   -4268.5417   -4806.2876            0    10955.717    17.796463    22.902423    19.356916    7889.5329    10638.313    11088.588     11140.25    320.31196   -289.21884    1234.3111   -3007.9688 
18404000    269.80899   -4817.4544   -4277.8031   -4817.4544            0     11134.06     18.04747    22.884723    19.030226    7859.6996    11320.287    11128.507    10953.385    995.31467    980.19717    708.42266   -3001.5541 
18405000    262.55215   -4812.1327    -4286.996   -4812.1327            0    10615.744    17.597271    22.979413    19.424731     7854.875    11472.595     11491.83    8882.8065    1252.8306     17.48845    698.34418   -3070.9063 
18406000    264.43982   -4833.8094   -4304.8971   -4833.8094            0    10525.349    17.906639    22.811138     19.20754    7845.7193    9159.0512    10467.464    11949.532     728.5646   -1795.8653    1411.7575   -3100.5681 
18407000     265.9783   -4814.0685    -4282.079   -4814.0685            0     10484.34    17.826056    22.970941    19.174209    7851.4797    10071.436    10581.178    10800.406    749.56022    1092.9421   -203.44679   -3081.5615 
18408000    251.64273   -4797.5028   -4294.1862   -4797.5028            0      11806.3    17.899135    22.906094    19.036147    7804.8062    11812.899    12354.557    11251.444    154.03492    1360.9106   -1650.8162   -2950.3331 
18409000    263.88589   -4821.5852   -4293.7808   -4821.5852            0    12838.382    17.771526    22.820322    19.318386    7834.6092    12156.243    13145.964    13212.938    2037.0071    671.57118   -373.25336   -2826.8707 
18410000     279.2924   -4814.6091   -4255.9898   -4814.6091            0    11069.836    17.930376    22.700654    19.244451    7833.0932     10763.77    10400.134    12045.604    356.86932   -878.03721   -1601.2612    -2991.398 
18411000    264.22577   -4830.0638   -4301.5796   -4830.0638            0    10042.024    17.860514    22.798348    19.357306     7882.106    10617.306    10616.612    8892.1543   -436.63828   -149.63794    251.38073   -3147.2245 
18412000    263.87467   -4792.0823   -4264.3004   -4792.0823            0    10491.054    17.971257    22.921134    19.099225    7867.3835    8466.7119    10242.422    12764.028   -224.54889   -296.60277   -382.33185   -3060.5808 
18413000    269.22829   -4823.3425   -4284.8526   -4823.3425            0    9741.4633    17.700597    23.083599    19.275602    7875.8851    10164.075    9957.1242     9103.191   -42.211279    618.92209   -423.97644   -3165.9316 
18414000    265.62381   -4823.2053   -4291.9249   -4823.2053            0    10394.552     17.75649    22.981329    19.236725     7849.887    10783.937    9994.9629    10404.757   -1056.5312   -538.39951    1508.2255     -3101.93 
18415000    271.04222   -4813.0849   -4270.9669   -4813.0849            0    12216.277    17.747081    23.076465    19.047573    7800.7411    12197.124    11442.857    13008.849   -1888.7718    290.24522    963.12048   -2881.1723 
18416000     282.2543   -4796.1348   -4231.5913   -4796.1348            0    10110.099    17.690081    23.134203    19.234735     7871.737    11782.296    9286.1663    9261.8338    52.612666   -447.24043    2370.1493   -3070.9398 
18417000    273.40851   -4834.0555   -4287.2047   -4834.0555            0    11298.966    17.754204    23.139395    19.052415    7827.1424    9504.5129    10933.675    13458.709   -300.05008    428.64091    772.33264   -2997.4182 
18418000    260.86199   -4757.5411   -4235.7849   -4757.5411            0     12780.19    17.562712    23.185995    19.168747    7805.6859    14248.725    11940.355    12151.489   -394.04811   -795.00944    1643.7719   -2780.9147 
18419000    283.15697   -4788.8316   -4222.4826   -4788.8316            0    13347.404    17.555536    23.274062     19.08675    7798.6291    12561.266    13415.305    14065.642   -626.35417     1247.685    1072.5058   -2704.4156 
18420000    265.29893   -4787.6461   -4257.0154   -4787.6461            0    11093.105    17.607343    23.268287    19.076695    7815.5831    11567.684    10335.713    11375.918      3.16166   -1306.2507   -862.04925   -2992.5982 
18421000    275.14693   -4805.2767   -4254.9489   -4805.2767            0    10410.676    17.722648    23.281888     19.09037    7877.0057    10717.637    8571.8355    11942.555    -1698.059   -1107.1072    -745.5075   -3058.9908 
18422000    268.54981   -4823.5172   -4286.3844   -4823.5172            0    10679.895    17.592794    23.456568    18.982682    7833.5184    11966.611    8940.1807    11132.893    1087.4948   -1238.9687   -287.94583   -3066.2723 
18423000    265.96868   -4824.4951   -4292.5249   -4824.4951            0    11878.662    17.700824    23.174549    19.001654    7794.6422    10925.939    11372.044    13338.002    250.66561    182.85952    184.18384   -2942.1959 
18424000    272.02287   -4824.3346   -4280.2552   -4824.3346            0     11043.96    17.765215    23.042414    19.139145    7834.6747     10809.51    9905.7851    12416.585   -438.79324   -25.130371   -1109.8771   -3018.3647 
18425000    265.49596   -4809.0662   -4278.0415   -4809.0662            0    10522.921    17.741526    23.031108    19.148868    7824.3617    9676.1962    10236.031    11656.535     1328.929   -1106.6225   -972.96662    -3077.268 
18426000    265.16018   -4808.3362   -4277.9831   -4808.3362            0    11525.472    17.830845    22.978531    19.058351    7808.7139    11159.004    11329.424    12087.988    1584.7981   -1084.3587    796.72048   -2965.4383 
18427000    276.91331   -4793.4804   -4239.6196   -4793.4804            0     14294.68    17.870284    22.833631    19.086588    7788.1576    13154.303    14542.843    15186.893    1229.2251   -623.69015    686.24316   -2615.9971 
18428000    271.82441   -4795.6389   -4251.9565   -4795.6389            0    13077.169    17.803463    22.817269    19.223823    7809.2247    13319.174    12355.014    13557.318   -601.04987    584.45765    463.85197   -2762.6038 
18429000    267.95192   -4789.3502   -4253.4132   -4789.3502            0    9824.3748    17.799494    22.830541    19.371173    7871.9038    10950.438    9822.2585    8700.4278   -49.095098   -589.44348   -812.16759   -3125.5392 
18430000    270.68889   -4809.2132   -4267.8019   -4809.2132            0    10601.887    17.948347     22.79756    19.254167    7878.3918     10599.16    10802.927    10403.573   -623.18071    -746.3987   -2550.5642   -3049.6636 
18431000    270.51565   -4829.4934   -4288.4286   -4829.4934            0    10077.353    17.856147    22.792726    19.307743    7858.0634    10607.374    9641.8839       9982.8    499.50859   -665.73211    164.33454   -3133.5459 
18432000    268.96552   -4798.8673    -4260.903   -4798.8673            0    11064.389    17.930812    22.729737    19.275888    7856.1319    10811.651    10753.836     11627.68   -104.90827   -490.63042     423.9439   -2993.2158 
18433000     263.3239   -4825.7914   -4299.1111   -4825.7914            0    11807.312    17.967599    22.696869    19.189342    7825.5718    10346.842    12896.563     12178.53   -116.86532   -444.78709   -601.86646    -2951.567 
18434000    256.83709    -4829.356   -4315.6501    -4829.356            0    10517.272    17.706178    22.795471    19.476871    7861.2673    8826.5722     12437.96    10287.283   -203.60637     595.8117   -1911.6193   -3109.8604 
18435000    275.64202    -4783.569   -4232.2509    -4783.569            0     13498.26    17.894712    22.815754    19.066447    7784.4747    14501.464    11898.042    14095.274    535.23998   -2292.8914    52.123245   -2699.8127 
18436000    275.08442   -4802.2856   -4252.0827   -4802.2856            0    12052.713    17.775788    22.741658    19.374166    7832.0242    13092.284    11663.198    11402.656     775.8701    213.26494    911.00076   -2875.3973 
18437000    265.30194   -4827.7205   -4297.0838   -4827.7205            0    8988.5342     17.92529    22.909474    19.218702    7892.3325    7497.5423    10752.183    8715.8774   -801.87671    853.19451    304.50153   -3262.4894 
18438000    278.50391   -4802.6425   -4245.6003   -4802.6425            0    11956.368    17.703744    23.027924    19.234591    7841.5671    12888.509    11528.562    11452.035    1483.6315   -613.25397    -1243.452   -2878.2555 
18439000    263.16991   -4822.1887   -4295.8164   -4822.1887            0    14072.376    17.749047    23.004441    19.009035      7761.52    14440.032    12726.441    15050.654   -352.89072   -1920.8873     421.7917   -2702.9106 
18440000    276.72298   -4774.5377   -4221.0575   -4774.5377            0    11111.772     17.66363    23.269447    19.130287    7862.9861    10873.641    10164.414    12297.259   -759.54322    172.23775   -544.91169   -2946.8308 
18441000    273.31683   -4814.7901   -4268.1227   -4814.7901            0    8484.0202     17.89832    23.272224    18.970535    7901.8675    6705.6817    8146.9751    10599.404    367.94456   -860.56072   -130.38597   -3290.4188 
18442000    261.70771   -4768.1984   -4244.7506   -4768.1984            0    12971.439    17.735721    22.719754    19.318543    7784.4305    12045.506    13438.125    13430.687   -1435.0538   -45.056874   -1903.1987   -2772.1299 
18443000    276.53677   -4823.9402   -4270.8326   -4823.9402            0    11347.656    17.799934    22.937175    19.229696    7851.1037     9830.862    11246.851    12965.255   -699.90252   -626.21376    564.14319   -2971.5226 
18444000    266.15386   -4784.6744   -4252.3338   -4784.6744            0    13099.016    17.945732    22.725523    19.112023    7794.3827     14091.83    12521.179    12684.039    239.66028   -1254.2822   -337.68965   -2763.3284 
18445000    274.97791   -4826.3261   -4276.3363   -4826.3261            0    10700.389    17.775201    22.829725    19.417218    7879.5643    11745.765    11876.674    8478.7269   -327.51384    1262.9826     1550.643   -3046.6973 
18446000    272.77848   -4828.3501   -4282.7594   -4828.3501            0    10640.132    17.866457    22.919966     19.16668    7848.7282    11047.745    9991.1475    10881.503   -544.86311   -1290.5771    737.26994   -3064.8298 
18447000    278.58861   -4829.1397    -4271.928   -4829.1397            0    10699.101    17.863011    22.678339    19.417417    7866.0618    11284.866    11088.995    9723.4411    191.34564    54.168882    2476.3313   -3044.5438 
18448000    272.03371   -4817.0279   -4272.9269   -4817.0279            0    11874.541    17.937167    22.766805     19.17187    7829.2546    11826.005    12067.113    11730.503    97.024478    339.35082   -2484.9236   -2917.0723 
18449000    283.25695   -4810.0219    -4243.473   -4810.0219            0    11715.072    17.858412    22.925225    19.136685    7834.7145    12033.242    10860.463    12251.511     -368.998    325.77934   -1625.1911    -2904.894 
18450000    270.54433   -4804.9278   -4263.8057   -4804.9278            0    14976.068    17.836957    22.849875    19.014677    7749.8545    14454.086    15129.654    15344.464    306.38868   -504.12796   -103.48218   -2571.1554 
18451000    278.82105   -4816.6963   -4259.0197   -4816.6963            0    11268.326    17.598326      23.0676    19.303936     7836.455    13071.194    11081.346     9652.437    1659.3101   -983.64078    813.80515   -2971.2004 
18452000    268.26591   -4807.8011   -4271.2362   -4807.8011            0    11341.797    17.839813    23.033084    19.038642    7823.0908    10156.958    11211.122    12657.312    492.51485   -834.73868    1232.1796   -2977.2306 
18453000    259.06324   -4819.3352   -4301.1767   -4819.3352            0    11285.556    17.842224    23.062254    19.033669      7832.01    8531.9017    12180.021    13144.746    294.47357    1098.3691    -170.2468   -3012.1198 
18454000    263.34505   -4828.8348   -4302.1122   -4828.8348            0     11068.73    17.692457    23.282604    19.006129    7829.1277    12038.414    10458.178    10709.598     949.0999    1962.0847   -646.95096   -3038.2869 
18455000    266.48591   -4829.7746   -4296.7699   -4829.7746            0    10735.803    17.703114    23.284475    19.018692    7839.6518    11373.758    10227.682     10605.97    584.32853    77.444712   -1867.3079   -3069.3103 
18456000    264.59621   -4817.5642   -4288.3391   -4817.5642            0    10219.505     17.63203    23.269289    19.129683     7848.618    12008.279    10029.012    8621.2245    1185.0167   -584.94342     1199.032   -3118.5732 
18457000    273.85459   -4814.5734   -4266.8304   -4814.5734            0    12267.557     17.79588    23.016386    19.098593    7822.7233    11842.544    13613.343    11346.783    2275.7396    255.26561    1138.8967    -2867.269 
18458000    271.29289   -4797.9538   -4255.3345   -4797.9538            0    9236.6802    17.818384    23.041611    19.212346    7887.9031    9731.4794    9264.2439    8714.3173    366.33294   -62.639186   -866.84107   -3192.7747 
18459000     271.4053   -4805.4554   -4262.6112   -4805.4554            0    11454.174    17.733881    23.083521    19.137859    7834.2821    11189.656    11728.757     11444.11    2128.7205    1144.7189    1338.2673   -2953.9149 
18460000    276.48128   -4801.7989   -4248.8022   -4801.7989            0    10468.287     17.71191    23.033072    19.275553    7863.6488    11281.607    10431.458    9691.7966   -1085.3293    631.44145   -1535.2417    -3048.265 
18461000    274.41953   -4816.6247   -4267.7518   -4816.6247            0     11341.14     17.80213    23.007617    19.135373    7837.5543    12718.924    9286.1695    12018.327    300.97171   -1434.9112    1057.3266   -2971.4289 
18462000    265.06286   -4805.0084     -4274.85   -4805.0084            0    11430.338     17.71285     22.97945    19.280463    7847.7566    11869.356    10933.441    11488.217   -2.0193936    1088.2769   -709.73462   -2966.6309 
18463000    277.75646   -4828.2058   -4272.6586   -4828.2058            0    11478.687     17.95221    22.952283    18.996875    7827.5525    10452.408    11825.907    12157.746    783.75674    595.18916   -2337.3907   -2962.2881 
18464000    270.28213   -4812.4028   -4271.8052   -4812.4028            0     11392.52    17.722723     22.95038    19.222631    7818.6751     13451.05    9360.7076    11365.804   -43.997494   -1650.3631     2459.765   -2972.7462 
18465000    257.92525    -4827.432   -4311.5496    -4827.432            0    12420.706    17.769367    22.962131    19.113063    7798.5606    13442.993    11529.654    12289.473    681.61642   -927.68022    73.424003   -2898.8929 
18466000    273.96023   -4826.6104   -4278.6561   -4826.6104            0    11122.239    17.815301    22.881491     19.25386    7848.6558    11625.983    10324.861    11415.873    605.59435   -1336.7362    959.58344   -3005.5535 
18467000    260.64389   -4828.2399   -4306.9199   -4828.2399            0    10708.946    17.882476    22.875688    19.208694    7857.7757    12032.601    10347.097    9747.1406   -1610.5087    26.112182   -2086.1791   -3079.7004 
18468000    277.35281   -4797.9085   -4243.1686   -4797.9085            0    11898.783    18.011441    22.630213    19.268804    7854.0177    11149.844    11519.061    13027.445    1016.3195    570.35086    2546.4936   -2880.2488 
18469000    265.72635   -4804.3133   -4272.8277   -4804.3133            0    10449.699    17.733063    22.887976    19.374254     7863.504    9108.5942      11669.8    10570.703   -1449.5163    677.80123   -1799.7074   -3074.4443 
18470000     263.2207   -4836.6864   -4310.2124   -4836.6864            0    10893.707    17.863572    22.936303    19.141145    7842.5923    10146.867    11019.439    11514.814    1849.8198   -149.65459    611.96365    -3064.232 
18471000    270.44767   -4819.7637   -4278.8349   -4819.7637            0    11698.335    17.632897    23.041513     19.27641    7831.7864    12052.114    10502.836    12540.055    -447.1947    1916.6669   -1252.3796   -2942.6678 
18472000    244.72106   -4794.6246   -4305.1522   -4794.6246            0     11901.56    17.874882    23.086337    18.983138    7833.6866    10170.097    12286.118    13248.464    1359.7985    323.66814    1361.1204   -2945.4433 
18473000    270.17376   -4843.4805   -4303.0996   -4843.4805            0    11286.609    17.569979    23.016219    19.297487    7803.7972    12635.938    10907.717    10316.172    808.55588   -621.60217   -1023.6023   -3018.5664 
18474000    269.49335   -4800.8167   -4261.7967   -4800.8167            0    11559.405    17.887511    23.062347    18.888266    7791.9386    8949.6046    12076.026    13652.585    673.42816    -452.4981    778.56944   -2948.2156 
18475000    267.51763   -4824.6179   -4289.5496   -4824.6179            0    11581.475     17.53137    23.211695    19.160378    7796.9865    14871.788    10382.209    9490.4286    163.88467   -672.07878   -1015.8569   -2972.6079 
18476000    278.22345   -4829.5335   -4273.0523   -4829.5335            0    11104.096    17.699412    23.338764    18.957087     7830.839    10879.003    9832.6799    12600.606    401.20409   -221.98086   -24.163365   -3004.9117 
18477000    284.37549   -4766.1818   -4197.3957   -4766.1818            0    12544.451    17.497699    23.318348    19.161591    7818.2631    11796.141    12027.776    13809.436   -216.27034    2340.7074    1098.6124   -2767.0605 
18478000    279.84461   -4795.2311   -4235.5074   -4795.2311            0    12867.043    17.559707    23.510582    18.880434    7794.5783    11783.881    12453.916    14363.332   -1129.2271     933.4969    589.96799   -2772.8343 
18479000    273.36055    -4792.305   -4245.5501    -4792.305            0    11630.113    17.596941    23.418074    19.007934     7832.912    14554.202    9558.3395    10777.798   -534.30001   -889.01069   -2820.9317   -2916.9843 
18480000    272.87613   -4769.6511   -4223.8652   -4769.6511            0    11993.306    17.545927    23.310234    19.120163    7820.1404    12272.921    11986.498    11720.499   -1441.0802   -469.63474    705.98327   -2856.0439 
18481000    292.59655   -4815.3517   -4230.1224   -4815.3517            0    12318.265    17.628235    23.330268    18.972063    7802.6677    13621.804    11573.608    11759.383    535.82753   -628.93475    2424.9229   -2828.3789 
18482000    266.20951   -4792.1869    -4259.735   -4792.1869            0    13320.734    17.574936    23.151209    19.197555    7811.1205    13132.639     13176.65    13652.913    47.827016   -549.18952   -1666.2715   -2742.2745 
18483000    260.32523   -4808.1132   -4287.4305   -4808.1132            0    11168.396     17.88063    23.092093    18.980087    7836.9005    12943.212    9956.4168    10605.558   -966.45748   -825.71989    2435.7809   -3010.9594 
18484000     282.5262   -4810.3191   -4245.2318   -4810.3191            0    9594.1523    17.590427    23.089086    19.316076    7845.1641    12814.527    7802.3394    8165.5907   -166.05698   -38.830689    -1689.928   -3147.5296 
18485000    251.97189   -4794.8304   -4290.8555   -4794.8304            0     13944.94    17.907584    22.853276    19.020418     7784.048    13443.375    13180.808    15210.636    63.019586     363.3268    488.72577   -2707.7931 
18486000    277.93777   -4824.7652   -4268.8554   -4824.7652            0    12280.469    17.625539    22.948548    19.336464     7821.223     12041.86    12209.326     12590.22    193.20162    7.6178161    949.99289   -2868.0896 
18487000    260.06572   -4800.5231   -4280.3595   -4800.5231            0    11269.195    18.110816    22.841267    19.019366     7867.817    9370.4013    11567.282    12869.903    755.68122    398.14514   -238.06163   -2987.2865 
18488000    274.51864   -4818.3389   -4269.2678   -4818.3389            0    10820.082    17.830569    22.804031    19.326021     7858.131    9484.0481    11977.949    10998.248    404.81391    107.19657   -541.14192   -3029.2563 
18489000      264.259   -4795.9126   -4267.3619   -4795.9126            0    12599.754    17.997732    22.802651    19.051368     7818.605    11283.762     12772.42     13743.08   -221.53371    963.87914   -141.99233   -2830.6582 
18490000     261.6694   -4784.1283   -4260.7571   -4784.1283            0    10076.945    17.675605     23.08962     19.32573     7887.275    11334.348    9895.6802    9000.8075   -706.38909    -144.3227    13.673417   -3101.6281 
18491000    276.30815   -4851.1271   -4298.4767   -4851.1271            0    10300.687    17.792779    23.150582    19.057717     7850.125    10378.144    9096.2697    11427.647    -177.7606    301.32032    506.50513    -3119.192 
18492000    267.79141   -4829.4036   -4293.7877   -4829.4036            0    9091.6443    17.687262    23.258915    19.226286    7909.4348    10887.131    7462.5653    8925.2362     880.1076   -1012.2976    2.9466204   -3245.0575 
18493000    283.74626   -4814.8883   -4247.3608   -4814.8883            0     11664.99    17.814499     22.97818    19.149653    7838.8103    11206.263    11642.607    12146.101    935.55563    24.036538    1244.6429   -2913.8074 
18494000    270.52168   -4781.4777   -4240.4009   -4781.4777            0    13817.273    17.616236    23.186141     19.05407     7782.683    14187.762     12190.12    15073.939   -501.04107    87.936744   -1352.7774   -2672.1065 
18495000    263.22767   -4747.4605   -4220.9727   -4747.4605            0    11495.912    17.626231    23.542977    18.851116    7822.7221     11650.03    10378.017    12459.691    137.98619   -1646.7753    738.54939   -2909.4457 
18496000    265.51397   -4802.0657   -4271.0049   -4802.0657            0    11045.607    17.643758    23.260217    19.063651    7823.6774    12565.752    8919.3714    11651.698    365.56519    104.52083     301.9032   -3010.6977 
18497000     263.5484   -4810.0957   -4282.9663   -4810.0957            0    9475.5305    17.727958    23.107904    19.242931     7882.981    8937.6102    10396.031    9092.9499    339.52493     184.4502    236.72184   -3193.6101 
18498000    272.38522   -4795.6363   -4250.8322   -4795.6363            0    10968.863    17.835258    22.692276    19.418704    7859.1884    10302.537    12575.941    10028.111    24.484186   -37.677774    827.93231   -2993.6009 
18499000    263.25365   -4809.0035   -4282.4637   -4809.0035            0    10303.216    17.898047    22.881041    19.143551    7839.7811     9836.795    10049.169    11023.683     789.2588    623.86711    2109.3467   -3104.4438 
18500000    270.14498   -4778.3459   -4238.0226   -4778.3459            0    10983.929    17.858848    22.902837    19.251424    7874.1847    10586.917    10320.277    12044.593   -1952.1198   -1343.9123   -2741.1913   -2976.6622 
Loop time of 567.159 on 64 procs for 250000 steps with 1008 atoms

Performance: 76.169 ns/day, 0.315 hours/ns, 440.793 timesteps/s
99.1% CPU use with 64 MPI tasks x 1 OpenMP threads

MPI task timing breakdown:
Section |  min time  |  avg time  |  max time  |%varavg| %total
---------------------------------------------------------------
Pair    | 28.257     | 32.933     | 36.774     |  33.6 |  5.81
Bond    | 0.28688    | 0.29767    | 0.31394    |   0.9 |  0.05
Kspace  | 257.93     | 269.32     | 285.11     |  39.2 | 47.49
Neigh   | 4.8418     | 5.7054     | 6.7642     |  23.7 |  1.01
Comm    | 104.63     | 118.84     | 131.49     |  62.0 | 20.95
Output  | 0.82315    | 0.82382    | 0.82507    |   0.0 |  0.15
Modify  | 127.32     | 130.83     | 133.89     |  16.5 | 23.07
Other   |            | 8.407      |            |       |  1.48

Nlocal:        15.7500 ave          21 max          12 min
Histogram: 2 4 11 9 18 12 4 2 1 1
Nghost:        2516.75 ave        2552 max        2485 min
Histogram: 1 9 8 7 9 12 6 5 6 1
Neighs:        5306.80 ave        7152 max        4037 min
Histogram: 3 7 7 10 17 12 4 2 1 1

Total # of neighbors = 339635
Ave neighs/atom = 336.93948
Ave special neighs/atom = 2.0000000
Neighbor list builds = 9895
Dangerous builds = 1

unfix		3
unfix		2
unfix		1

write_data	data.final.${pid}
write_data	data.final.0
System init for write_data ...
PPPM initialization ...
  extracting TIP4P info from pair style
  using 12-bit tables for long-range coulomb (../kspace.cpp:340)
  G vector (1/distance) = 0.37754757
  grid = 24 27 32
  stencil order = 5
  estimated absolute RMS force accuracy = 0.0026941041
  estimated relative force accuracy = 8.1132144e-06
  using double precision FFTW3
  3d grid and FFT values/proc = 3825 384
Last active /omp style is kspace_style pppm/tip4p/omp
WARNING: Not all mixed pair coeffs generated from mixing. Use write_data with 'pair ij' option to store all pair coeffs. (../write_data.cpp:312)

write_restart   restart.lmp.${pid}
write_restart   restart.lmp.0
System init for write_restart ...
PPPM initialization ...
  extracting TIP4P info from pair style
  using 12-bit tables for long-range coulomb (../kspace.cpp:340)
  G vector (1/distance) = 0.37754757
  grid = 24 27 32
  stencil order = 5
  estimated absolute RMS force accuracy = 0.0026941041
  estimated relative force accuracy = 8.1132144e-06
  using double precision FFTW3
  3d grid and FFT values/proc = 3825 384
Last active /omp style is kspace_style pppm/tip4p/omp
Total wall time: 0:09:29
