LAMMPS (30 Jul 2021)
Processor partition = 0
  using 2 OpenMP thread(s) per MPI task
using multi-threaded neighbor list subroutines
variable        pid world 0 1
variable        phase world IceIII Liquid

shell cd ${phase}
shell cd IceIII
include Restart.lmp
echo both
log log.lammps
#include		in.partitions
include		in.temp
variable        temperature equal 261.19
variable	tempDamp equal 100.0
include		in.pressure
variable        pressure equal 8125.0
variable        pressureDamp equal 1000.0 # This is 1 ps
include		in.seed
variable        seed equal 745823

units		real
atom_style	full

read_restart	restart.lmp.${pid}
read_restart	restart.lmp.0
Reading restart file ...
  restart file = 30 Jul 2021, LAMMPS = 30 Jul 2021
  restoring atom style full from restart
  orthogonal box = (0.078919314 0.16445140 0.040483233) to (19.921082 19.835550 20.659515)
  4 by 2 by 4 MPI processor grid
  restoring pair style lj/cut/tip4p/long/omp from restart
  restoring bond style harmonic/omp from restart
  restoring angle style harmonic/omp from restart
  972 atoms
  648 bonds
  324 angles
Finding 1-2 1-3 1-4 neighbors ...
  special bond factors lj:    0        0        0       
  special bond factors coul:  0        0        0       
     2 = max # of 1-2 neighbors
     1 = max # of 1-3 neighbors
     1 = max # of 1-4 neighbors
     2 = max # of special neighbors
  special bonds CPU = 0.002 seconds
  read_restart CPU = 0.009 seconds
include 	in.setup
variable	out_freq equal 1000
variable	out_freq2 equal 10000
variable	out_freq3 equal 1000

timestep	2.0

neigh_modify    delay 7 every 1

include		in.tip4p
# This is TIP4P/Ice

# create groups ###
group ox type 2
324 atoms in group ox
group hy type 1
648 atoms in group hy

# set charges - beside manually ###
set group ox charge -1.1794
Setting atom values ...
  324 settings made for charge
set group hy charge 0.5897
Setting atom values ...
  648 settings made for charge

# ### TIP3P Potential Parameters ###
pair_style lj/cut/tip4p/long/omp 2 1 1 1 0.1577 8.5
pair_coeff 1 1*2 0.000 0.000
pair_coeff 2 2 0.21084 3.1668
bond_style  harmonic
bond_coeff  1 450 0.9572
angle_style harmonic
angle_coeff 1 55 104.52
kspace_style pppm/tip4p/omp 1.0e-5
pair_modify tail yes

thermo          ${out_freq}
thermo          1000
thermo_style    custom step temp pe etotal epair emol press lx ly lz vol pxx pyy pzz pxy pxz pyz enthalpy

restart 	${out_freq3} restart.lmp.${pid} restart2.lmp.${pid}
restart 	1000 restart.lmp.${pid} restart2.lmp.${pid}
restart 	1000 restart.lmp.0 restart2.lmp.${pid}
restart 	1000 restart.lmp.0 restart2.lmp.0


include         in.dump
dump            myDump all atom ${out_freq2} dump.water.${pid}
dump            myDump all atom 10000 dump.water.${pid}
dump            myDump all atom 10000 dump.water.0
dump            myDump2 all dcd ${out_freq2} dump.dcd
dump            myDump2 all dcd 10000 dump.dcd
dump_modify     myDump append yes
dump_modify     myDump2 append yes


variable natoms 	equal  "count(all)"                        # NUMBER ATOMS
variable H      	equal  "enthalpy/v_natoms"                 # ENTHALPY-per-atom
variable Vol      	equal  "vol/v_natoms"                 # volume-per-atom
fix AVG all 		ave/time ${out_freq} 1 ${out_freq} v_Vol v_H file vol_enthalpy.dat
fix AVG all 		ave/time 1000 1 ${out_freq} v_Vol v_H file vol_enthalpy.dat
fix AVG all 		ave/time 1000 1 1000 v_Vol v_H file vol_enthalpy.dat


timer           timeout 02:55:00 every 1000
New timer settings: style=normal  mode=nosync  timeout=02:55:00

fix 		1 all shake 1e-6 200 0 b 1 a 1
Finding SHAKE clusters ...
       0 = # of size 2 clusters
       0 = # of size 3 clusters
       0 = # of size 4 clusters
     324 = # of frozen angles
  find clusters CPU = 0.001 seconds
fix             2 all nph aniso ${pressure} ${pressure} ${pressureDamp}
fix             2 all nph aniso 8125 ${pressure} ${pressureDamp}
fix             2 all nph aniso 8125 8125 ${pressureDamp}
fix             2 all nph aniso 8125 8125 1000
fix             3 all temp/csvr ${temperature} ${temperature} ${tempDamp} ${seed}
fix             3 all temp/csvr 261.19 ${temperature} ${tempDamp} ${seed}
fix             3 all temp/csvr 261.19 261.19 ${tempDamp} ${seed}
fix             3 all temp/csvr 261.19 261.19 100 ${seed}
fix             3 all temp/csvr 261.19 261.19 100 745823


run             250000
PPPM initialization ...
  extracting TIP4P info from pair style
  using 12-bit tables for long-range coulomb (../kspace.cpp:340)
  G vector (1/distance) = 0.37207841
  grid = 24 24 24
  stencil order = 5
  estimated absolute RMS force accuracy = 0.0035261378
  estimated relative force accuracy = 1.0618859e-05
  using double precision FFTW3
  3d grid and FFT values/proc = 3211 432
Last active /omp style is kspace_style pppm/tip4p/omp
Neighbor list info ...
  update every 1 steps, delay 7 steps, check yes
  max neighbors/atom: 2000, page size: 100000
  master list distance cutoff = 10.8154
  ghost atom cutoff = 10.8154
  binsize = 5.4077, bins = 4 4 4
  1 neighbor lists, perpetual/occasional/extra = 1 0 0
  (1) pair lj/cut/tip4p/long/omp, perpetual
      attributes: half, newton on, omp
      pair build: half/bin/newton/omp
      stencil: half/bin/3d
      bin: standard
Setting up Verlet run ...
  Unit style    : real
  Current step  : 24500000
  Time step     : 2
  Walltime left : 2:54:59.93
Per MPI rank memory allocation (min/avg/max) = 10.19 | 10.19 | 10.19 Mbytes
Step Temp PotEng TotEng E_pair E_mol Press Lx Ly Lz Volume Pxx Pyy Pzz Pxy Pxz Pyz Enthalpy 
24500000    274.88353   -4677.4864   -4147.3504   -4677.4864            0    9542.2766    19.842162    19.671098    20.619032    8047.9611    7974.6405    10940.632    9711.5574   -278.12176   -940.30885   -137.32669   -3027.3614 
24501000    251.47133   -4691.0203   -4206.0367   -4691.0203            0    6609.7689    19.926341    19.854123    20.574173    8139.5548    7897.7612    5466.9164    6464.6291    -124.3728   -782.44134   -1181.1773   -3421.4104 
24502000    261.99514    -4689.374   -4184.0944    -4689.374            0    8218.0913    20.132149    19.817807    20.259649    8083.0947    8117.0021    8609.6485    7927.6232    23.097273    327.23624    186.69258   -3215.3158 
24503000    255.86464   -4697.6665     -4204.21   -4697.6665            0    7472.5391     19.84219    19.914119    20.527057    8111.0557    6651.9739     7442.233    8323.4105    115.84376    716.22201    509.70747   -3320.2727 
24504000     261.0769   -4735.8462   -4232.3374   -4735.8462            0    6228.4528    19.787496    19.895827    20.595319    8108.1426    7167.7268    6344.9348     5172.697    -150.8339   -745.98471    1063.2585   -3495.8294 
24505000    252.31328   -4682.0695   -4195.4621   -4682.0695            0    7563.8448    19.854499    19.832573     20.70408     8152.559    6988.9599    7308.4172    8394.1573    655.36456   -729.71967    1160.9082   -3296.1458 
24506000    268.29091   -4694.2022   -4176.7806   -4694.2022            0    8219.0253    20.005268    19.776531    20.468224    8097.9419    6927.8027     10193.35    7535.9233   -644.67837    1420.3366    -213.9788   -3206.1123 
24507000    274.47515   -4715.2281   -4185.8797   -4715.2281            0    9291.3867    19.856594    19.975967    20.400096    8091.7929    11160.257    9080.0634    7633.8395   -37.122976    726.77746   -468.24481   -3089.3985 
24508000    255.76096   -4701.0162   -4207.7597   -4701.0162            0    7038.8571    20.167344    20.008808    20.373523    8221.2157     4174.068    8738.9164    8203.5869    564.73551    -1100.118   -170.06312   -3363.8148 
24509000    264.76328   -4680.2532   -4169.6349   -4680.2532            0    8865.0711    19.973451    19.946869    20.551153      8187.74    8036.0059    9270.7363     9288.471   -753.73021    435.62488    930.46484   -3111.0587 
24510000    262.21619   -4684.6574   -4178.9515   -4684.6574            0     8217.939    19.965424    19.671998    20.767759    8156.7404    8785.2539    9130.1441    6738.4191    178.83029    366.85442   -574.16495   -3201.3644 
24511000    256.68914   -4695.7296    -4200.683   -4695.7296            0    7569.1352    19.909495    20.099701    20.336925     8138.327    7326.4604    6845.7727    8535.1726    383.38504    1068.7005   -1444.9422   -3302.3087 
24512000    270.73827   -4669.4491   -4147.3076   -4669.4491            0    7716.1863    19.959146    19.988858    20.420769    8147.0812    7951.6832    6101.7613    9095.1146   -318.28986   -644.62622    332.54988   -3230.4948 
24513000    275.89279   -4693.8712   -4161.7887   -4693.8712            0    8882.7121    19.973649    19.788735    20.584394    8136.0484    8293.8937    8742.5307    9611.7119   -425.84026   -140.27344    946.29454   -3107.8024 
24514000    266.92345   -4719.7905   -4205.0062   -4719.7905            0    7225.8844    20.009302    19.666989    20.612466    8111.4738    6190.6091    7874.0305    7613.0137   -98.624034    1028.3265    38.552575    -3350.202 
24515000    270.74471   -4728.6048   -4206.4509   -4728.6048            0    7393.0103     19.92206      20.1598    20.277156    8143.8076    8795.2823    5324.6953    8059.0534   -75.228092    1186.0414   -575.24107   -3328.3898 
24516000    257.46567   -4684.1353   -4187.5911   -4684.1353            0    8283.4941    19.919476    19.927508    20.348779    8077.3564    8239.6503    8099.5471    8511.2849    1509.3557   -227.10586   -1143.4797   -3211.7959 
24517000    257.79617   -4694.0934   -4196.9118   -4694.0934            0    8340.0352    19.780641     19.91035    20.717479    8159.3611     9131.951    8598.0736    7290.0811   -922.79536    326.34985   -1250.9312   -3204.4817 
24518000    250.85019   -4713.1504   -4229.3647   -4713.1504            0    8096.8532    20.027152     19.78852    20.601152    8164.3949    7462.3909    8210.2901    8617.8787    116.98852    229.77142   -102.49929   -3265.2779 
24519000    260.96097   -4704.7667   -4201.4816   -4704.7667            0    6080.6685    19.989869    19.772839    20.597769    8141.4011    5978.5155    6405.9124    5857.5775   -388.44787    1338.4214   -15.020639   -3479.4996 
24520000    261.66593    -4711.254   -4206.6093    -4711.254            0    6753.6816    20.262263    19.765351    20.468815    8197.5708    5300.6244    6920.0544    8040.3659    785.10137    132.48938    2120.5427   -3399.1853 
24521000    257.76089   -4704.1917   -4207.0782   -4704.1917            0    9269.0707    19.764228    19.773755    20.582322    8043.8395     9492.281    9049.2275    9265.7038    -20.36987   -98.897557    -1228.889   -3119.7129 
24522000    262.91569    -4696.177    -4189.122    -4696.177            0    8859.6916    19.924992     19.93936    20.380874    8097.1496    8459.0838    8897.6544    9222.3365   -925.68105    477.73879   -488.74575   -3142.8932 
24523000    251.64921   -4705.2475   -4219.9209   -4705.2475            0    8374.7319     19.94422     19.95021    20.288242    8072.5164     9831.768    7293.3496     7999.078   -157.14343   -1269.3393    631.85025    -3233.969 
24524000    278.17939   -4679.6265   -4143.1341   -4679.6265            0    8478.6163    19.993309    19.717801    20.563338    8106.5631    9820.3385    8778.5451    6836.9653   -911.63193   -526.05261   -1970.2636    -3140.742 
24525000    277.43519   -4688.6274   -4153.5703   -4688.6274            0    10585.195    19.889892    19.760319     20.52046    8065.1685    10798.667    9961.3977    10995.521   -674.98748    -1.855361   -1046.3132   -2908.5163 
24526000    277.10814   -4695.5514    -4161.125   -4695.5514            0    7961.9937    20.010058    19.865897     20.45817     8132.486    6509.3795    7821.5025    9555.0991     245.0167    2894.6493   -610.53382    -3216.801 
24527000     269.6496   -4680.0584   -4160.0165   -4680.0584            0     9547.276    20.065235    19.888461    20.317488    8108.0317    9911.5087    9104.9897    9625.3296    209.87899    907.67625   -967.14783   -3031.0766 
24528000    252.15725   -4702.5957   -4216.2893   -4702.5957            0    8631.6561    19.880799    20.012872    20.515767    8162.6469    8958.6147    9735.9118    7200.4419    28.956574    1654.0226   -924.44765   -3188.7438 
24529000    264.74503     -4707.15   -4196.5669     -4707.15            0     7654.679    19.964601     19.78413    20.678058    8167.4659     6498.475    8529.9125    7935.6495    189.22692     115.0083    112.75819   -3284.7866 
24530000    261.52496   -4680.0751   -4175.7022   -4680.0751            0    9953.1544    19.901582    19.854599    20.561937    8124.8013    9941.4928    9651.8119    10266.159    600.28399    572.52806    211.15588   -2996.3341 
24531000    258.92804   -4663.5707   -4164.2062   -4663.5707            0    9936.1642    20.022936    19.631693    20.605896    8099.8504    7452.8628    12819.668    9535.9619   -208.01805   -173.04794    84.765226   -2990.4669 
24532000    265.52903   -4696.0151     -4183.92   -4696.0151            0    5901.5028    19.805297    20.078895    20.617694    8199.0071    4788.3177    7172.6921    5743.4987    355.46389    1449.5239   -28.531637    -3478.253 
24533000    254.05319   -4676.8022   -4186.8392   -4676.8022            0    9085.4169    19.994419    19.742137    20.504717    8093.8791    8416.2864    10511.916    8328.0485    736.21193   -29.758937    54.001396   -3114.3882 
24534000    248.80752   -4689.1858   -4209.3395   -4689.1858            0    7981.1633    19.899373    20.251883    20.127733     8111.472    8726.2743    6439.7616    8777.4539    415.89506    319.30839   -414.33453   -3265.1879 
24535000     255.3231   -4731.2484   -4238.8363   -4731.2484            0    8078.6152    19.967964    19.870816    20.394367    8092.0715    7710.4474    8359.8136    8165.5847    499.97449     294.4654    291.77406   -3285.4421 
24536000    248.15154   -4700.3191   -4221.7379   -4700.3191            0    8442.7368    20.109792    19.541363    20.672169     8123.599    7668.6361    11068.476    6591.0981   -1120.4244    82.532212   -362.23402   -3221.4901 
24537000    257.76224   -4704.5105   -4207.3943   -4704.5105            0      8293.61    19.834066    20.008761    20.585187    8169.3363    7755.3088    9065.9844    8059.5366   -610.63359   -2773.0364    2186.4117   -3219.2821 
24538000    268.56741   -4685.1826   -4167.2278   -4685.1826            0    10220.402      19.9622    19.794886    20.370161    8049.2583    11003.703    9369.4726    10288.031    494.36298    1005.1783   -1595.9892    -2967.453 
24539000    254.63106   -4702.7495   -4211.6721   -4702.7495            0    8162.9558    19.737038    19.830557    20.757458    8124.3958    7870.4017      10339.5    6278.9658   -282.81899   -1742.8346    787.23736   -3244.4763 
24540000    263.10429   -4700.9275   -4193.5087   -4700.9275            0    7287.5493    19.975039    19.671113    20.609552     8098.137    7333.7226    5848.7996    8680.1258     343.0999    279.10936    441.35035   -3332.8272 
24541000    251.66847   -4680.2763   -4194.9125   -4680.2763            0    8912.4369    19.980406    20.056476    20.284072    8128.5688     8043.568     8898.422    9795.3206    327.64386   -450.45001    758.69417   -3138.3713 
24542000    270.62234   -4728.4668   -4206.5489   -4728.4668            0     9787.587    19.914573    19.821385    20.423495    8061.8565    9692.7926    10200.233    9469.7351   -404.68696    151.15107   -855.84412    -3055.784 
24543000    260.63808   -4677.9708   -4175.3084   -4677.9708            0    8422.2089    19.993618     19.86867    20.476347    8134.1589    9437.3166    7614.0137    8215.2965    719.50532   -297.18957   -625.69703   -3176.1955 
24544000    246.03396   -4707.3709   -4232.8737   -4707.3709            0    7861.8028    19.634148    19.982026    20.788935    8156.1241    7678.8036    7951.9433    7954.6615    385.19193    992.36821    83.593254   -3297.7225 
24545000    254.94091   -4713.8019   -4222.1269   -4713.8019            0    9405.8327    19.695077    19.777933    20.571616    8013.2184    8914.3322    8604.5112    10698.655    340.58382   -1574.1091     375.4793   -3122.9183 
24546000    255.34736   -4717.3741   -4224.9152   -4717.3741            0    5809.8068    19.776152    19.995878    20.753792    8206.9111    6368.7401    4584.3386    6476.3418   -999.60262    316.54429    283.11031    -3529.543 
24547000     264.1551   -4695.0559   -4185.6106   -4695.0559            0    9814.7032     19.92357    19.667526    20.498964    8032.4647    9074.2469    10006.262    10363.601    546.38074   -120.64811    -2148.633   -3035.8647 
24548000     255.1502   -4715.6735   -4223.5949   -4715.6735            0    7738.2016    19.765171    19.853968     20.59869    8083.2777    9395.1332    8004.4561    5815.0156   -255.22723   -258.66572   -925.29538   -3311.3668 
24549000    257.47745   -4675.4297   -4178.8628   -4675.4297            0    9129.5454    19.946062    19.832972    20.361732    8054.8911     10318.84    8312.7919    8757.0041    212.46045   -367.27705   -473.38231   -3106.3939 
24550000    269.02395    -4741.761   -4222.9257    -4741.761            0    6841.6594     19.78804    20.135612    20.400481    8128.4556    6285.2454    6742.7855    7496.9473   -287.13782   -120.65909   -1401.5379   -3411.8799 
24551000    287.81277   -4685.9054   -4130.8343   -4685.9054            0    7410.9341    19.945014    19.719032    20.827408     8191.344    5549.9425    10439.238    6243.6218    964.49228    107.01483   -473.11582   -3245.5067 
24552000    251.21182   -4694.4882   -4210.0051   -4694.4882            0    8063.9757     19.83419    20.016096    20.311614    8063.7725    7232.2654    7736.4913    9223.1705    -358.8392    133.51178   -393.02865   -3261.6666 
24553000    258.41443   -4734.0294   -4235.6555   -4734.0294            0    7636.2321    19.824454    19.840839    20.638669    8117.8863    7704.3135    8700.9599    6503.4229    478.65395    326.82336   -225.88948    -3331.594 
24554000    271.61717   -4703.0596   -4179.2231   -4703.0596            0    6910.2455    19.981084    19.805385    20.653562    8173.2976    4807.0519    9402.9265    6520.7579    -321.3362   -186.45198    1007.1933   -3355.5276 
24555000    269.51309   -4706.0738   -4186.2952   -4706.0738            0    8923.4179    19.940212    19.923202    20.378523    8095.8344    8703.7966    8109.4544    9957.0026    32.154276    898.40631    965.95817   -3132.7122 
24556000    287.00483    -4715.087    -4161.574    -4715.087            0    7240.3989    19.931906    19.833977    20.584876    8137.7976     7235.603    6221.1249    8264.4689    390.88141     141.1973     1052.465   -3302.2731 
24557000    265.15073   -4746.6753   -4235.3098   -4746.6753            0    7939.4896    20.030805    19.808008    20.494541    8131.6257    5553.6468    10858.015    7406.8067   -39.503813    1091.8786   -1746.2589   -3293.7545 
24558000    274.95372   -4719.7607   -4189.4893   -4719.7607            0    8729.8011    19.861132    19.797981    20.519971    8068.6644    7258.8148    8904.6479     10025.94    214.54797   -324.63725   -631.09529   -3162.2258 
24559000     252.1913   -4692.8039   -4206.4317   -4692.8039            0    7071.2315    20.129061     19.88482    20.379669    8157.2227    5512.5701    7142.4438    8558.6807    1128.1796   -119.66932    559.12871   -3365.2046 
24560000    263.11615   -4708.0032   -4200.5615   -4708.0032            0    8459.4685    19.880932    20.127014    20.357643    8145.9843    11224.331    5341.5331    8812.5419    10.165968    523.49999    62.725667   -3195.5697 
24561000    255.57252   -4691.7478   -4198.8547   -4691.7478            0    6807.0505    20.062668    19.862526    20.606876    8211.7428    7647.9876    6802.0737      5971.09   -632.63863   -78.275164    1367.1386   -3383.6434 
24562000    276.56847   -4686.6257   -4153.2402   -4686.6257            0    8609.2976    19.858411    20.095834    20.319186    8108.8047    8195.2973    9488.1022    8144.4932    588.61672   -691.69689   -418.72883   -3135.1167 
24563000    264.92909   -4687.0283   -4176.0903   -4687.0283            0    8746.3752      20.0339    19.920474    20.434109    8154.9417     7396.356    9238.6792    9604.0905   -134.39676    1012.3348     1181.772   -3135.8711 
24564000    274.25416    -4726.003   -4197.0808    -4726.003            0     8433.378    19.859276    19.685258    20.815907    8137.6659    9255.3247    8702.9538    7341.8554   -94.767517    312.36618   -461.65917   -3196.2116 
24565000     259.1093   -4712.5552   -4212.8411   -4712.5552            0    8342.3678    19.928099    19.880543    20.547006    8140.3423     7880.305    9608.5335    7538.2649    523.20466   -1236.9746     400.9949   -3222.4474 
24566000    270.42983   -4673.9087    -4152.362   -4673.9087            0    7477.5928    20.127317    20.056127      20.3002    8194.7045    8365.4616    5213.6748     8853.642    141.56076    725.29475   -1344.1826   -3258.7048 
24567000    264.31517   -4723.3895   -4213.6355   -4723.3895            0    8724.5425    19.995469    19.859108    20.410864    8104.9947    8851.8212      8286.77    9035.0364   -86.993339     1498.419   -57.833313   -3182.3681 
24568000    265.36436   -4701.5296   -4189.7521   -4701.5296            0    8748.4169    20.124441     19.65586    20.508809      8112.53    9477.8084    6426.4614    10340.981     680.4785    1085.4024   -838.41685   -3154.7013 
24569000    250.34157   -4716.5945   -4233.7898   -4716.5945            0    8619.7961    19.785884    19.827501    20.688591    8116.2304    9235.1532     8938.488    7685.7472    642.24051   -327.26628   -201.35714   -3213.4913 
24570000    257.83096   -4684.5645   -4187.3158   -4684.5645            0    7797.6291    19.872716    19.847462    20.659528    8148.5924    8569.2033     7327.926    7495.7579   -247.48194    1328.2652     886.0744   -3260.6544 
24571000     253.9385   -4669.6136   -4179.8719   -4669.6136            0    8851.5672    19.749511    19.932077    20.571223    8097.8366    10244.166    6828.7188    9481.8166   -121.42483     1180.405   -767.36544   -3134.5138 
24572000    278.41104   -4669.4154   -4132.4763   -4669.4154            0     6746.997    19.847061    19.876066    20.617449     8133.202    5943.0398    6356.3822    7941.5689    740.25344   -89.111394    247.65202   -3332.1852 
24573000    258.63293   -4723.6893   -4224.8939   -4723.6893            0    9153.6285    19.872669    19.756027    20.449276    8028.4879    7364.7409    10365.121    9731.0241    35.697894    216.74736    187.52632   -3153.1206 
24574000     249.5557   -4699.5136   -4218.2245   -4699.5136            0    9674.5173     20.03785    19.803647    20.348119    8074.5919    7833.6669    12548.727    8641.1583    91.952277    -432.1024   -1003.4038   -3078.9568 
24575000    257.78079   -4714.2693   -4217.1173   -4714.2693            0    6674.9949    19.856613    20.039482    20.646893     8215.734    7936.1513    6417.6162    5671.2172   -832.44457    743.65566    55.493609   -3417.3324 
24576000    258.43548   -4695.5606    -4197.146   -4695.5606            0    8710.6021    19.952642    19.775843     20.46057    8073.3383      8882.08    9850.6663    7399.0601    294.37137    443.96548     83.43467   -3171.5479 
24577000    254.86984   -4734.6613   -4243.1234   -4734.6613            0    9065.2389    19.780377    19.970812    20.458248    8081.6257     9359.063    8084.8384    9751.8151   -231.66869    500.15944    205.74075   -3174.6742 
24578000     267.7269   -4676.2111   -4159.8773   -4676.2111            0    8689.9522    20.084089    19.902001    20.281639    8106.8459     6143.083    9593.3053    10333.468    641.94025    -430.7236    2188.7571   -3132.4639 
24579000    246.37001   -4702.6201   -4227.4748   -4702.6201            0    8601.5001    19.774663    20.116791     20.48209    8147.8322    8738.6327    9229.0902    7836.7775   -372.71896    184.11574    1013.3314   -3205.3777 
24580000    264.13923   -4695.5635   -4186.1488   -4695.5635            0    8588.9097    20.051967    19.893986    20.573524    8207.0578    7681.3435    8854.4778    9230.9078    1088.5959    678.90056   -81.579301   -3158.1291 
24581000    259.21957   -4690.5203   -4190.5935   -4690.5203            0    7031.3701    19.787733    20.051807    20.588729    8169.1917    7136.0095    7121.3162    6836.7845    41.225371    -310.7752    520.49376   -3352.8811 
24582000    245.55398    -4703.962   -4230.3905    -4703.962            0    7236.4518    19.892448    19.643361    20.827373    8138.3904    7119.4765    8197.7315    6392.1473    724.07419   -738.16623   -812.26022   -3371.4955 
24583000    264.59527   -4690.3858   -4180.0916   -4690.3858            0    9478.5153    19.884659    19.976812    20.432261    8116.3499    8566.4718    9763.7511    10105.323   -440.88395    472.52668   -1774.0997   -3058.1326 
24584000    272.59077   -4669.6546   -4143.9404   -4669.6546            0    9581.4393    19.954468    19.713119    20.475717    8054.4263    9009.0538    10819.838    8915.4256   -770.34779    312.82194     414.8434   -3018.4514 
24585000    251.57017   -4699.1066   -4213.9324   -4699.1066            0    9485.5551      19.9209    19.934579    20.454049    8122.6046    9249.7228    10342.387    8864.5557   -384.10697   -940.08198   -86.083539   -3090.2749 
24586000    257.32079   -4710.7451   -4214.4803   -4710.7451            0    7402.1892    19.977931    19.772535      20.6277    8148.2372    6622.9511     8255.008    7328.6085    571.60173    626.62285   -648.15289   -3334.8509 
24587000    252.74951   -4693.0419   -4205.5932   -4693.0419            0    7375.1254    19.824595    19.724181    20.724282    8103.6898    9006.2462    5142.4872    7976.6428    882.31556   -283.61239    232.02629   -3333.9714 
24588000    252.57984   -4693.0022   -4205.8808   -4693.0022            0    6662.0134    20.054448    19.907677    20.583444    8217.6822    6122.8332    7896.9641     5966.243   -523.61492    360.14761    1286.8157    -3407.462 
24589000    233.42007   -4702.0477   -4251.8775   -4702.0477            0    7304.0482    19.978964    19.882557     20.46859    8130.7974    7764.9136    7295.3288    6851.9022   -210.37111   -1041.9774   -269.35361   -3385.7683 
24590000    270.81612   -4727.0445   -4204.7528   -4727.0445            0    8596.0582    19.915838    19.945623    20.331412    8076.3238    8235.1936    8709.3718    8843.6091    148.74876    261.25207    20.746579    -3192.267 
24591000    258.20504   -4707.2886   -4209.3185   -4707.2886            0    8757.5657    19.990202    19.669442    20.684634    8133.1179    7761.3161    10617.072    7894.3088    289.05789   -726.55488   -452.30053   -3170.5558 
24592000    263.57446   -4707.7505    -4199.425   -4707.7505            0    8249.7079    19.649387    19.926815    20.606998     8068.664    6385.2497    10443.016     7920.858   -455.77118   -69.924173    1494.1933   -3228.6556 
24593000     256.2026   -4653.9865   -4159.8782   -4653.9865            0    9423.9274    19.965092    19.765196    20.302297    8011.5697    7343.6522    10218.082    10710.048   -1065.3803   -1122.1823    361.41283   -3058.7816 
24594000    265.89387   -4719.7369   -4206.9382   -4719.7369            0    6839.5278    20.164463    19.992932    20.393891    8221.7306    6307.8528    6072.1864    8138.5441   -193.82139   -62.491376    673.96182   -3386.8411 
24595000    247.53462   -4717.6104   -4240.2191   -4717.6104            0    8877.5527    20.014877    19.824333    20.511143    8138.4442    8371.7266    9710.2012    8550.7302    146.93505   -16.427761    305.26419   -3186.5347 
24596000    272.31651   -4713.4632   -4188.2779   -4713.4632            0     7228.588    19.995475    19.836071    20.537349    8145.7631    6169.0143    7231.7575    8284.9923    502.66987    1455.3462   -1476.9952    -3329.539 
24597000    252.41238   -4677.4971   -4190.6986   -4677.4971            0     8389.642     19.59974    19.910808    20.703888    8079.6229    11340.217    6658.1192    7170.5898    231.70424    25.260058    -1188.307   -3202.1218 
24598000    260.79998   -4694.0428   -4191.0681   -4694.0428            0    10726.269    19.837072    19.829015    20.343041    8001.9268    12082.267    10626.206    9470.3327   -501.32653    584.36221   -266.61834   -2939.3137 
24599000    257.55116   -4693.3043   -4196.5953   -4693.3043            0    9848.3803    19.953505    19.834467    20.307982    8037.2321    8545.1729    9753.1223    11246.846   -259.96547    623.81159   -114.68901   -3042.2195 
24600000     254.3542    -4674.395   -4183.8515    -4674.395            0    10403.047     19.86644    19.775066    20.330678    7987.1131    10725.056    10285.572    10198.514   -1077.9481      5.33628   -1809.1685   -2972.0645 
24601000    251.36568   -4726.2766   -4241.4968   -4726.2766            0    7826.9863     19.94884    19.821929    20.551487    8126.5611    8359.1299    8479.7325    6642.0965   -922.44979   -227.43344    704.13937   -3313.8615 
24602000    256.92003   -4682.3208   -4186.8289   -4682.3208            0    8511.1511    19.821922    19.508115    20.917995    8088.7448    8056.2331    11042.915    6434.3051   -452.92222    -1042.687   -580.69986   -3182.8021 
24603000    279.87535   -4717.8704   -4178.1072   -4717.8704            0    7139.8101    19.867878     19.91803    20.474038    8102.1706    6702.6579    6363.6283    8353.1441    856.21816   -523.57562   -1782.3362   -3334.4541 
24604000    266.69553   -4703.8225   -4189.4777   -4703.8225            0     7535.596    19.903306    19.948848     20.54384    8156.8912    7939.5857    7042.8389    7624.3633    205.35831    -261.7485    599.50278    -3293.044 
24605000    261.14207   -4662.4615   -4158.8271   -4662.4615            0    8479.0387    19.818195    19.933399    20.617457    8144.8025    8832.8775     7637.816    8966.4227    477.08426    -849.5469     928.5029   -3151.6564 
24606000    259.00171   -4719.9751   -4220.4685   -4719.9751            0     7270.323    19.904207    19.833702    20.507922    8095.9967    7076.1628    7820.9163    6913.8899   -517.83152    526.70178    16.994533   -3362.0484 
24607000    255.06558   -4680.1543   -4188.2389   -4680.1543            0    8562.1079    19.860849    19.766534    20.515649    8054.0366    8537.8216    8599.0696    8549.4326    373.68213    244.38019    -302.7961   -3182.5348 
24608000    257.05736    -4661.458   -4165.7013    -4661.458            0    8230.3753    20.010705    19.832228    20.396382    8094.4443    9286.0776    8172.6659    7232.3823   -798.13399   -246.89632   -840.69648   -3194.1123 
24609000    261.07448   -4704.6401    -4201.136   -4704.6401            0    9010.9991    20.094093     19.81931    20.363829    8109.9167    7693.7936    8175.6242     11163.58   -950.42635   -951.38875   -1180.4052   -3135.3617 
24610000    266.48805   -4692.0403   -4178.0957   -4692.0403            0    9185.7315    19.765002    19.915117    20.586322    8103.2361    9721.8717    8567.4659    9267.8568    335.91001    153.05842   -1034.8067   -3092.5499 
24611000    269.68229   -4679.6771   -4159.5721   -4679.6771            0    10579.479    19.966892    19.571896    20.701778    8090.0463     9513.365    12570.356    9654.7163   -806.60005    1113.4926   -1059.2118    -2911.352 
24612000    254.94843   -4661.7689   -4170.0795   -4661.7689            0    9458.6995    19.722341    20.080997    20.443145    8096.3903    7186.8688     9706.238    11482.992    1068.0885   -253.95992   -507.68217   -3053.2194 
24613000    268.98193   -4727.5901   -4208.8358   -4727.5901            0    9628.5548    19.925025    19.610105    20.554985    8031.4872    10030.462    10318.645    8536.5566    821.63235    569.51703    894.87056   -3081.0336 
24614000    260.15325   -4695.9175     -4194.19   -4695.9175            0    6703.3332    19.966325    19.962622    20.508848    8174.4208    6922.8949    6311.2741    6875.8306   -651.14984   -342.12498    1120.9907   -3395.0485 
24615000    261.45824   -4704.2357   -4199.9915   -4704.2357            0    6968.5837    19.923669    20.006511    20.392974    8128.7028    6344.8039    7429.8823    7131.0649    464.67802    646.80678   -458.71934   -3373.8743 
24616000    256.70894   -4717.8746   -4222.7898   -4717.8746            0    7180.4113     19.90833    20.042566    20.373068    8129.1396    6419.1193    7103.0563    8019.0584    387.07886    898.61512   -1238.3049    -3371.515 
24617000     249.8267   -4704.7443   -4222.9325   -4704.7443            0    8227.0256    19.849274     19.75727    20.634986    8092.3702    7812.6617    10195.299    6673.1162   -834.56452    47.324697    1976.5451   -3251.9878 
24618000    254.10847   -4705.2956    -4215.226   -4705.2956            0    7198.8288    19.837149    19.868624     20.60899    8122.7628    7922.5247    6748.5698    6925.3921    292.40058   -185.39811   -754.32441   -3362.4372 
24619000    251.30179   -4707.3269   -4222.6703   -4707.3269            0    6770.2272    20.180941    19.881217    20.308887    8148.3655    6167.1473    6604.3295    7539.2048    154.22735    -169.8958    -803.6388   -3418.1266 
24620000    264.67666   -4699.9953   -4189.5441   -4699.9953            0    7877.3965    19.989372    19.822245    20.616212    8168.8491    8175.6658    7456.8393    7999.6845   -36.326008   -1686.5958    487.34339   -3251.0761 
24621000    247.11425   -4714.9032   -4238.3226   -4714.9032            0    6850.2787    19.986403    19.673285    20.770725    8167.0118     6192.878    8260.1732    6097.7849    60.746536    1056.6955   -1083.2718   -3422.4031 
24622000    266.82886   -4676.6856   -4162.0837   -4676.6856            0    9265.8109    19.944685    19.943658    20.381422    8107.1178    9702.3317    8850.5404    9244.5606   -332.56276    1164.1588    497.48731   -3066.5498 
24623000    261.16192   -4693.2035   -4189.5308   -4693.2035            0    9494.2706    19.907973    19.782875    20.575056    8103.2174     11000.53    10303.808    7178.4738   -361.65146   -529.32964    603.80333   -3067.5253 
24624000    265.33939   -4694.9108   -4183.1814   -4694.9108            0    9229.1435    19.831421     19.86082    20.502506     8075.287    8487.4931    10045.901    9154.0367    227.96323    203.92112   -215.73994   -3096.2672 
24625000    275.11069   -4700.9596   -4170.3855   -4700.9596            0    6226.5977     19.98558    19.799096    20.616562    8157.8999    6583.3158    6218.2863    5878.1909    925.45318    878.91582    971.40999   -3429.5786 
24626000    251.20659   -4713.8806   -4229.4076   -4713.8806            0    8964.6874    20.078248     19.93351    20.264548     8110.479    9793.2014    6656.2701    10444.591   -441.84125    583.90173   -1147.3913   -3169.0373 
24627000    268.50809   -4711.7527   -4193.9123   -4711.7527            0    9099.2891    19.707746    19.991441    20.468915     8064.471    11126.697    6936.5214    9234.6484    216.47359    -1828.392   -630.86903   -3123.7263 
24628000    257.10406   -4706.3018    -4210.455   -4706.3018            0    8987.2444    19.908591    19.745722    20.618863    8105.4709    9146.8447    9188.3725    8626.5158    482.53277    80.581035    8.7510736    -3148.073 
24629000    273.22798   -4681.3347   -4154.3915   -4681.3347            0    9074.0614    19.832838    20.054784    20.539595     8169.486    7692.0009    10800.006    8730.1778    266.95237    1219.2474    1074.3286   -3073.2754 
24630000    259.42452   -4737.6442   -4237.3222   -4737.6442            0    8081.5814    20.028835     19.79485     20.40832    8091.2411    6674.9723    10262.513    7307.2592    509.42048    200.60786    1400.3066   -3283.6758 
24631000    242.16141   -4709.5704   -4242.5417   -4709.5704            0    8422.8649    19.803106    20.078433    20.456504    8133.8195    10169.202    6684.6571    8414.7358   -56.611214   -741.11376   -988.28861   -3243.3927 
24632000    254.78109   -4643.3603   -4151.9936   -4643.3603            0    9212.4125     19.83153    19.909237    20.391486    8051.1833    9689.4281    8443.1244    9504.6849    557.60911    1543.9015    937.73337   -3070.2882 
24633000    270.05494    -4677.713   -4156.8893    -4677.713            0    8489.4958    19.944177    19.865326    20.435799    8096.6141    7835.5106    10272.781    7360.1962    350.09296    626.81442    1588.0774   -3154.4428 
24634000    248.73881   -4698.5456   -4218.8318   -4698.5456            0    8306.6196    20.001081      19.6512    20.735061    8149.8171    7153.2075    11243.688    6522.9632    709.09712   -158.89886   -353.16201   -3231.5343 
24635000    262.25572   -4706.1528   -4200.3705   -4706.1528            0    7771.6485    19.867728    19.711707    20.568686    8055.2492    7748.6366    6903.8318    8662.4771    515.65016    799.28833   -1510.4872   -3287.3763 
24636000    269.73666   -4711.5295   -4191.3197   -4711.5295            0    7677.6246    20.009156    19.819583    20.405505    8092.2748    7234.6552    8805.0483    6993.1703   -1372.5107   -468.04197    159.26977   -3285.2254 
24637000    261.59451   -4708.4123   -4203.9053   -4708.4123            0     6900.758    19.954768    19.880549    20.392718    8090.0308    5447.4342    7696.8369    7558.0027   -67.502884    1542.0781    530.90201   -3389.7208 
24638000     249.7841   -4692.8954   -4211.1658   -4692.8954            0    5573.5704    19.885131    19.920912    20.568709    8147.8813    5664.0679    5028.5707    6028.0726    321.35378    662.44315   -376.42027   -3548.8668 
24639000    247.00652   -4716.5395   -4240.1666   -4716.5395            0    7444.4195    20.040959    19.873402    20.324264    8094.7893    6727.1959    7927.1828    7678.8799    107.19743   -1490.8705    660.30493   -3361.3216 
24640000     267.8961   -4700.3747   -4183.7145   -4700.3747            0    7872.8015    19.748323    19.922772    20.613774    8110.3103    7366.9299    9483.6081    6767.8666    48.134442    1366.4904    422.16149   -3252.5152 
24641000    259.47729    -4673.614   -4173.1902    -4673.614            0     11422.77     20.00642    19.709167    20.279273    7996.3179    9944.6027    12367.069    11956.638   -552.01294    1146.0955   -1479.3813   -2841.0886 
24642000    253.93814   -4684.9997   -4195.2586   -4684.9997            0    9906.4517     19.72692    19.907862    20.544878    8068.4008    11279.248    10118.619    8321.4879   -137.65738     -105.656    39.383296   -3029.5729 
24643000    257.99997    -4695.074   -4197.4994    -4695.074            0    9523.6004    19.867252    19.621023    20.681223    8061.8679    8873.9319    8989.2487    10707.621    330.08929    1571.9914   -1142.2505   -3077.7709 
24644000     270.0104   -4718.8238    -4198.086   -4718.8238            0    7615.5863    20.012863    19.597531    20.716711    8125.1498    6790.6953    8964.9521    7091.1116     311.2736   -1093.7213    781.69248   -3295.6621 
24645000    258.64476   -4710.8175   -4211.9994   -4710.8175            0    7038.0761    19.869753    20.108922    20.540907    8207.3106    7819.2248    6646.3462    6648.6571   -1017.9753    635.63521   -2534.4028   -3369.5754 
24646000    254.40675   -4714.0215   -4223.3767   -4714.0215            0    6634.3589    19.995298    19.868613    20.529674    8156.0052    8376.0798    4955.4802    6571.5168   -108.09901   -396.94519   -642.69999   -3434.2398 
24647000    257.70808   -4714.8391   -4217.8274   -4714.8391            0    7519.2736    19.909113    19.961581    20.352889    8088.5917    8452.6541    6470.9708    7634.1958   -577.38481   -526.22291   -16.303206   -3330.8252 
24648000    262.33212   -4726.6874   -4220.7579   -4726.6874            0    8829.7804    19.927868    19.635718    20.652481    8081.2743    8223.2606    10668.616    7597.4642   -170.17581    76.773618    882.21595   -3180.1056 
24649000    268.31948   -4688.3085   -4170.8318   -4688.3085            0    9338.9482    19.958426    19.819517    20.404319    8071.2623    10624.079    7783.5479    9609.2173   -35.118381   -146.68086   -821.00278   -3071.5341 
24650000    256.84645   -4704.5966   -4209.2466   -4704.5966            0    8493.7548    19.555417    19.957553    20.672782    8068.1376    10370.906    7376.1659    7734.1926    352.37809   -502.01819    409.80768   -3209.8246 
24651000    260.84458   -4662.3518   -4159.2911   -4662.3518            0    7860.2567    20.100064     19.58461    20.697194    8147.4899    5938.1715    11089.406    6553.1929    264.61874    1699.2881    975.67978   -3225.3135 
24652000    259.19116   -4673.9747   -4174.1028   -4673.9747            0    8225.1662    20.029034    19.933691    20.264012     8090.459    7745.8436    8814.0987    8115.5562   -98.095503  -0.53325908    1255.6868   -3203.6068 
24653000    248.00004   -4677.5481   -4199.2592   -4677.5481            0    10265.179    19.898663    19.725328    20.571763    8074.5746    11571.649     9227.999    9995.8876   -672.13947    143.86153    257.89559   -2990.4381 
24654000    259.01338   -4699.7386   -4200.2095   -4699.7386            0    8948.3931    20.025976    19.843414    20.534746     8160.174    8858.2871    9003.5791    8983.3133    27.848188    145.06749   -496.61673   -3135.2812 
24655000    263.55253   -4715.6051   -4207.3219   -4715.6051            0    7842.9414    20.047297     19.97077    20.351534    8147.9394    5624.4356     8973.229    8931.1596   -514.43037   -803.26699   -207.92239   -3275.3504 
24656000    257.03735   -4710.2957   -4214.5776   -4710.2957            0    10396.177    19.807893    20.043128     20.27848    8050.8025    11732.529    8041.8692    11414.132    254.92983    315.38349   -932.01873   -2993.9344 
24657000    267.54353   -4706.8256   -4190.8454   -4706.8256            0    8463.8279    20.012844    19.548958     20.70682    8101.1345    6941.3644    10653.379    7796.7407   -280.80252    243.67394   -1215.3434   -3190.8717 
24658000    257.97166   -4740.2022   -4242.6822   -4740.2022            0    6797.0639    19.724547    19.942828    20.724321    8152.1861    7009.5231    7211.9709    6169.6977    206.03852     652.3505    32.428164   -3434.5706 
24659000    261.00054   -4732.1224   -4228.7609   -4732.1224            0    6291.1191    20.156895    19.778972    20.506098    8175.4254    6726.9372    5391.2451    6755.1751    683.40707    383.91358   -650.62042   -3478.6695 
24660000     267.6398   -4706.7104   -4190.5446   -4706.7104            0     6604.335    20.053803    20.034049     20.25875    8139.1328    6147.8258    6737.1147    6928.0646    419.98698   -558.64436   -973.94541    -3406.604 
24661000    252.37524   -4708.5923   -4221.8655   -4708.5923            0     8840.107    19.804268    19.942113    20.450681    8076.7703    7935.7386    8576.1641    10008.418   -458.81012   -371.07471    296.08921   -3180.5768 
24662000    267.34692   -4703.0248   -4187.4238   -4703.0248            0    8911.8116    19.876935    19.827252    20.487608    8074.2689    9995.8198    8021.2583    8718.3566   -473.13856    393.39131   -284.32394    -3138.014 
24663000    255.50945   -4681.0604    -4188.289   -4681.0604            0    7328.2975    19.862686    19.917804    20.564223    8135.6404    6945.1547    8826.5104    6213.2275    116.34429    1194.8336    355.96444   -3318.7867 
24664000    256.83074   -4709.6667    -4214.347   -4709.6667            0    8006.0584    20.043209    19.996394    20.248713    8115.5204    7081.3345    7697.6879    9239.1527   -126.47387   -241.09625   -1112.9318   -3266.7777 
24665000    262.84126   -4705.0034   -4198.0919   -4705.0034            0    7887.4928     19.84847      19.8443    20.535165    8088.3703    7012.9655    8413.1431    8236.3698   -383.19826   -24.641199   -1314.2963   -3267.6787 
24666000    270.91689   -4690.4643   -4167.9783   -4690.4643            0    7735.0164    19.973554    19.622841    20.589988    8069.9963    8024.1976    7708.4875    7472.3641   -1014.1064    373.36359    41.521792    -3257.624 
24667000    263.44035   -4707.9212   -4199.8543   -4707.9212            0    8769.2469    19.862677    19.739225    20.659455    8100.0325     6913.396    10859.053    8535.2915    486.31681   -1149.5644   -161.95869   -3163.9373 
24668000    274.25753   -4707.7881   -4178.8594   -4707.7881            0    6108.4165    19.909551    19.889318    20.678498    8188.4246    5092.4071    6382.9661    6849.8763   -382.07826   -696.83105   -1131.8544   -3449.3937 
24669000    270.23075   -4685.1141   -4163.9514   -4685.1141            0    7347.9629    19.941279    20.212484    20.199169    8141.5335    5437.1691    7404.0595    9202.6602    87.794503    305.93132     -1391.59   -3291.4843 
24670000    267.33466   -4702.6243   -4187.0469   -4702.6243            0     6404.229    19.941886    19.984925    20.496117    8168.4625    6879.2574    5159.8262    7173.6032   -153.91595    170.70173   -322.69088   -3424.1198 
24671000    264.38758   -4693.6274   -4183.7337   -4693.6274            0    8253.9254    19.920759    19.751387     20.64537    8123.1814    7374.2135    8879.0557    8508.5072   -206.20175    1541.3041    704.06124   -3205.9055 
24672000    259.45803   -4703.6727    -4203.286   -4703.6727            0    9622.4554     19.86568    19.628149    20.641146    8048.5306    8742.7446    10627.887    9496.7347    -407.7772    225.23366    606.53852   -3073.8064 
24673000    254.31286   -4708.8687   -4218.4049   -4708.8687            0    8581.1849    19.923179     19.88125    20.459597    8103.9995    8549.8059    8750.5448    8443.2041    215.83261   -503.21127    552.14554   -3204.2074 
24674000    274.73026   -4732.1351   -4202.2947   -4732.1351            0    8417.2243    20.123945    19.930605    20.244198    8119.5912    8610.7211    7077.3994    9563.5525    648.43351   -862.13839   -752.53833   -3205.5614 
24675000    260.79373   -4705.5356   -4202.5729   -4705.5356            0     9733.081    19.816764    19.838717     20.55572    8081.2588     9477.873    10467.483     9253.887   -211.93777   -18.079462    495.33401   -3055.4624 
24676000    253.49055   -4700.5151   -4211.6372   -4700.5151            0     8483.713    20.005957     19.58552    20.523699    8041.7408    7964.3494    8438.8413    9047.9482     498.7997     1474.898      1092.26   -3216.6628 
24677000    260.76812   -4693.1953    -4190.282   -4693.1953            0    8621.7357    19.908556    19.872326     20.43863    8086.1214    8063.7183    9053.3947    8748.0942    365.02792   -1650.3781    1040.5064   -3173.5398 
24678000    266.96574   -4714.8198   -4199.9539   -4714.8198            0    6566.8642    19.812331    19.839848    20.757706    8159.3065    8173.7218    7231.2233    4295.6476    368.85599    764.04054   -585.02657   -3418.5292 
24679000    260.50413   -4675.0585   -4172.6544   -4675.0585            0    6651.6662    20.129939     19.82284     20.58268    8213.1597    7765.4561    5910.2485    6279.2939   -580.29192    1118.7662   -1346.9231   -3375.9144 
24680000    267.20563   -4693.1969   -4177.8684   -4693.1969            0    7907.1264    19.866133    20.043225    20.346263    8101.5028    7990.3947    7773.3736    7957.6108    535.85996   -648.01656   -701.90104   -3243.6247 
24681000    258.21282   -4702.3543   -4204.3692   -4702.3543            0    8840.6492    20.027096    19.701611    20.470987    8077.1567    7898.6737    9333.3038    9289.9701    389.96977     403.6649   -886.35875   -3162.9668 
24682000    257.58907   -4689.5052   -4192.7231   -4689.5052            0    9608.0916    19.695942    19.908141     20.65963    8100.8389    10733.528    8472.0551    9618.6916   -843.54039    667.22353    -1305.179   -3057.5998 
24683000    252.74227   -4705.3237    -4217.889   -4705.3237            0    8352.7302    20.007291    19.837388    20.389699    8092.5165    7615.6677    8348.3099    9094.2129   -1.7625459   -1731.1603    25.170085    -3232.091 
24684000     253.5027   -4720.4297   -4231.5285   -4720.4297            0    7886.0937    19.999585    20.018117    20.390083    8163.2516    7923.9004    7530.9828    8203.3978   -20.997699   -957.67892    -32.40674   -3292.6681 
24685000    273.29097   -4698.7604   -4171.6958   -4698.7604            0    8823.7555    19.784365    19.900423    20.448301    8050.8486    11365.852    7135.1826    7970.2315    869.55128    558.69651   -1266.0291   -3135.6689 
24686000    268.36707   -4684.6073   -4167.0388   -4684.6073            0    8807.6879    19.701022    19.756288     20.89614    8133.1763    10180.207    10210.282    6032.5749    346.05802    1160.1106   -492.09906   -3122.3234 
24687000    262.72568   -4711.6107   -4204.9221   -4711.6107            0     8876.897    19.864129     19.59836    20.688897    8054.2775    7622.2462    9122.4029    9886.0421     1082.189   -257.15804   -684.10851   -3162.2118 
24688000    263.95422   -4690.5297   -4181.4718   -4690.5297            0    10139.007    19.970551    19.726313    20.497023    8074.7067    10222.317    9082.6489    11112.055    399.66956    1429.7779    365.28717   -2987.4891 
24689000    254.30475   -4717.7971    -4227.349   -4717.7971            0    8968.1475    19.880585     19.99056    20.368114     8094.778    8420.9082    10400.042    8083.4921   -305.02439    1920.7199   -276.43154    -3168.623 
24690000    268.04507    -4675.846   -4158.8986    -4675.846            0    7853.8503    20.029625    19.728768    20.556093    8122.9422     6471.149     8462.884    8627.5178    367.58833    16.048816   -291.61492   -3228.4939 
24691000    247.84274   -4673.7873   -4195.8018   -4673.7873            0    7471.1385    19.839682    19.846929     20.72556    8160.8296    8676.9597    7446.6875    6289.7684    377.52625   -126.30141   -948.13369   -3306.6068 
24692000    278.27663   -4718.5376   -4181.8577   -4718.5376            0    9767.5084    19.742841    19.950937    20.493047     8071.969     10157.64    10183.856    8961.0288   -543.18388    1609.9272   -54.857913   -3032.0131 
24693000    261.89184   -4696.8137   -4191.7333   -4696.8137            0     8641.005    19.887332    19.982654    20.391708    8103.6989    6364.4648    11102.145    8456.4049    331.94672    -144.7723    392.63557   -3170.5036 
24694000    254.48903   -4664.6568   -4173.8533   -4664.6568            0    8546.4931    20.095127    19.873785    20.349798    8127.0223    8516.9447     8104.839    9017.6955    -639.0959    1039.3745    429.55361   -3160.8863 
24695000    257.43049   -4698.3232   -4201.8469   -4698.3232            0    6306.4462    19.992828    20.083908    20.378205    8182.5445    6862.9919    4971.9801    7084.3666   -361.47661    953.47695    196.96305   -3449.2733 
24696000    251.98427   -4691.9006   -4205.9277   -4691.9006            0    5593.7509    20.115415    19.769594    20.610494    8196.2491    3620.6768    6775.7868    6384.7892    440.77612     491.7174    946.95086   -3537.2849 
24697000    254.45778   -4688.6952    -4197.952   -4688.6952            0    8078.9859    19.762024    19.882805    20.667619    8120.8134    8167.8759     8850.144    7218.9379   -325.16953    1335.9965    -972.4342   -3241.1275 
24698000    260.08288   -4690.9554   -4189.3637   -4690.9554            0    8335.0873    19.706546    19.919366    20.637695    8101.1601    7028.3306    8735.5607    9241.3707   -744.91188   -726.29345   -514.67703   -3204.5972 
24699000    261.04523   -4682.0137    -4178.566   -4682.0137            0    7589.9946    20.079329     19.93637    20.289405    8122.0298    7365.1879    7818.0993    7586.6967    769.25903   -438.34017   -299.81431   -3279.5199 
24700000    255.31214   -4703.0296   -4210.6387   -4703.0296            0    6156.2268    20.039421    19.997325    20.314274    8140.6368    5463.5422     5289.903    7715.2351    187.87239    468.20435   -8.2525677    -3479.754 
24701000    246.35258   -4681.0109   -4205.8992   -4681.0109            0    7847.5911    19.894039    19.776229     20.78559    8177.6558    8223.6533    8519.0031     6800.117    170.16956    1035.5165   -805.33975   -3269.9742 
24702000    261.08176   -4694.2233   -4190.7052   -4694.2233            0    7958.5997    19.967545    19.847355    20.638898    8179.2566    7343.0192    9393.2005    7139.5796     476.0318   -464.00605    22.487137   -3241.3551 
24703000    259.94198   -4736.2266   -4234.9067   -4736.2266            0     6599.413    19.703209     20.04791    20.646094    8155.3756    7725.9792    5387.2712    6684.9885    57.743312    568.42149   -364.59024   -3449.9871 
24704000    255.78971   -4704.3306   -4211.0186   -4704.3306            0    8400.9447    20.066821    19.696663    20.375064    8053.2322    8468.7045    7832.5649    8901.5647    1166.1668   -1157.9537    208.36685   -3224.3433 
24705000    256.21671   -4727.0027   -4232.8672   -4727.0027            0    7506.6933    19.762116    20.175417    20.292003    8090.6027    6852.2993    6858.2845    8809.4961   -390.60747   -390.99544   -258.27457   -3347.1289 
24706000    243.42884   -4700.2031   -4230.7301   -4700.2031            0    7484.1825    19.865496     19.86276    20.677575     8159.032    7262.5379    6971.5997      8218.41   -68.578691   -1285.3066   -292.05691   -3340.1789 
24707000    261.25555   -4718.2923    -4214.439   -4718.2923            0    6828.1344    19.888358    20.030145    20.486743    8161.2362    5784.1844    7301.4999    7398.7191     269.3364   -373.40632   -157.65756   -3401.7322 
24708000     261.0505   -4691.9766   -4188.5187   -4691.9766            0    6913.6451    19.945059    20.009499    20.342644    8118.5588    7560.1505    5085.5775    8095.2074    756.32939   -1169.2212   -242.43555   -3369.9372 
24709000    261.38766   -4705.8086   -4201.7005   -4705.8086            0    7926.1191    19.854997    19.936529    20.545756    8132.8266    8987.5875    7384.8256    7405.9441    -23.84181    64.838057    575.49164    -3261.592 
24710000    268.86902   -4687.1326    -4168.596   -4687.1326            0    9370.1492    19.980608    19.753628    20.492055    8087.9987    8516.6228    9980.6343    9613.1903   -63.569025    903.28026    115.43413   -3063.3386 
24711000    263.44313   -4698.5018   -4190.4296   -4698.5018            0    9328.4996    19.742677    19.900092    20.498472    8053.4623    8645.6426    8942.0884    10397.768    577.03393    -534.4221    105.34993   -3094.7834 
24712000    267.02287   -4727.2151    -4212.239   -4727.2151            0    8475.2143    20.005059    19.904613    20.462458    8148.0065    9565.2007    7076.7565    8783.6856   -258.20377    12.800953    193.32165   -3205.1266 
24713000    251.67117   -4660.1539   -4174.7849   -4660.1539            0     7476.028    19.929512    19.818186    20.670755    8164.2614     8877.274    7607.0636    5943.7464    869.55691   -391.14379   -1649.4554   -3284.6339 
24714000    273.43595   -4715.7861   -4188.4419   -4715.7861            0     7600.085    19.983067    19.839003    20.478765    8118.6862    5952.9133    9856.1837    6991.1578   -473.92627   -984.63771    891.79798   -3288.5712 
24715000    245.83328   -4715.1812    -4241.071   -4715.1812            0    8292.2012    19.928966     19.87848    20.456612    8104.0415     6699.565    8815.3032    9361.7355   -381.23724    42.979486   -772.51366    -3261.023 
24716000    260.47528     -4722.64   -4220.2915     -4722.64            0    6636.0493    19.906509    19.945646    20.559249    8163.0123    7794.3485    6337.7841    5776.0152   -1.9689066   -577.11842    134.63677   -3430.2754 
24717000    263.62392   -4749.4241   -4241.0032   -4749.4241            0    9255.7773    19.963641    19.981708    20.318682    8105.2774    10976.937    8068.9637    8721.4314   -238.67149    1332.2749   -728.78363   -3146.9041 
24718000    266.01212   -4687.0079   -4173.9812   -4687.0079            0    8707.4431    19.790315    19.978285    20.448703    8084.9379    7624.0261    8075.6496    10422.654    154.88341    928.63551   -840.14999    -3147.282 
24719000    253.15886   -4674.0006   -4185.7624   -4674.0006            0    7566.0967    19.842149    19.721264    20.813331    8144.5116    8200.7715    7909.8642    6587.6543   -484.07045    883.17807    558.81961   -3287.0664 
24720000    255.11423   -4724.0617   -4232.0524   -4724.0617            0    7238.7995    19.951024    19.951102    20.439654    8135.9003    6674.3671    6366.4598    8675.5717    198.17701    755.80084    1414.7059   -3373.1417 
24721000     260.7713    -4711.272   -4208.3527    -4711.272            0    7294.8844    19.903509    19.898955    20.687868    8193.6171     5902.114    8686.6094    7295.9299    645.61779   -2598.0035    1087.0468   -3336.6468 
24722000    252.89164   -4722.2925   -4234.5697   -4722.2925            0    7262.0248    19.959377    19.809467    20.616002    8151.2504    6793.3733    8384.8877    6607.8132    43.395897   -445.62756   -2322.7635   -3371.2774 
24723000      257.062   -4703.2348   -4207.4691   -4703.2348            0    7665.3803    19.686089    19.997435    20.554076    8091.5493    7329.7664    8322.0491    7344.3256    -82.13197    261.04425   -1114.9219   -3302.9009 
24724000    257.83241   -4697.0316   -4199.7801   -4697.0316            0    8343.8712    20.092038    19.737925    20.449517      8109.77     7671.884    9255.3196    8104.4099   -548.84317    -15.96185   -1512.8241   -3212.9281 
24725000    263.94985   -4728.2313   -4219.1818   -4728.2313            0    8979.4512    19.761837     20.05341    20.322555    8053.6705    10166.508    8709.9923    8061.8529   -608.51701    809.95842    1501.2898   -3164.5047 
24726000    258.33741   -4692.2854     -4194.06   -4692.2854            0    8870.4898     20.08707    19.720354    20.451255    8101.2351    9002.2501    9212.5294      8396.69   -501.67118    668.84784   -240.35851   -3146.0276 
24727000    272.50205   -4660.3535   -4134.8104   -4660.3535            0    7326.6866    19.693394    20.028699     20.50178    8086.5796    6650.3948    7479.1217    7850.5433   -87.895779    881.88384    94.729211   -3270.7415 
24728000    283.04058   -4710.7394   -4164.8719   -4710.7394            0    9598.3372    19.888399    19.773563    20.477093    8052.9142    8068.5447    10310.007    10416.459    199.92775   -248.59942    857.39536   -3037.6096 
24729000    274.18845   -4706.6471   -4177.8516   -4706.6471            0    8617.6822    19.730761    20.116258    20.389647    8092.8362    10054.629    7599.8474    8198.5706    142.52057   -493.79477    1679.0752   -3160.7435 
24730000    276.47658   -4702.1251   -4168.9167   -4702.1251            0    6638.0886    19.942109    19.920127    20.563216    8168.7238    6932.3923    6381.8168    6600.0566   -223.80316    773.54864   -410.21902   -3378.1049 
24731000    249.69409   -4659.9726   -4178.4165   -4659.9726            0    6169.8249    19.960172    19.933143    20.600568    8196.3269    5280.9162    7067.0264    6161.5322   -114.97567   -92.059682    297.23965   -3440.9064 
24732000    261.34053   -4702.5353   -4198.5181   -4702.5353            0    8280.3854    20.001524     19.51416    20.836588    8132.7896    8940.8291    8063.6282    7836.6989    618.55249    447.03865    225.38095   -3216.3949 
24733000    272.51287   -4733.6408   -4208.0768   -4733.6408            0    9047.7705    19.701294    20.062579    20.434999    8077.1125    10776.205    5981.4604    10385.646    146.30164   -1082.5503   -609.58104    -3142.282 
24734000    275.46365   -4713.4145   -4182.1596   -4713.4145            0    8141.7907    19.935013    19.727096    20.555528    8083.6651    5976.5233    10078.418    8370.4307    382.06007   -520.69291   -511.36893    -3222.308 
24735000    260.27261   -4706.3155   -4204.3578   -4706.3155            0    9362.4662    19.761828    19.992269    20.358653    8043.3736    10113.656    8074.3827    9899.3599    197.28909    622.10163   -511.90354   -3106.0998 
24736000    254.10015   -4707.9091   -4217.8555   -4707.9091            0    9791.9448    19.891946    19.874624    20.470725    8092.9975     7817.537     11525.31    10032.987   -472.06119     -1034.58    1272.7364   -3062.1312 
24737000    252.01468   -4680.1304   -4194.0989   -4680.1304            0    7709.6264    19.857765    19.716014    20.734381    8117.8409    5917.4651     9551.457    7659.9571   -15.519283    291.93041   -2466.2267   -3281.3532 
24738000    266.55467   -4700.0836   -4186.0105   -4700.0836            0    9524.5137    19.827739    20.051382    20.430666    8122.6929    8418.3274    9176.7174    10978.496   -247.47961   -231.26181   -1197.3314   -3057.7257 
24739000    252.90222    -4683.071   -4195.3278    -4683.071            0    9126.4549    19.956596     19.89324    20.268652    8046.6827    9060.5696    10091.285    8227.5097    415.66634    509.27005    194.79652   -3124.3145 
24740000    255.86758   -4684.7559   -4191.2937   -4684.7559            0    8245.5821    19.876742    19.933023     20.54374    8139.5032    8044.4821    7791.2551     8901.009   -352.70946   -405.55054    7.5442494   -3212.4912 
24741000    259.49275   -4722.7772   -4222.3236   -4722.7772            0    8820.9885    19.943729    19.693773    20.649864    8110.5906    7995.0415    10127.314      8340.61    1051.1334   -346.00503   -930.81056   -3178.9361 
24742000    259.18737   -4703.3254   -4203.4608   -4703.3254            0    6909.0268    20.078987    19.965771    20.328994    8149.7405    6364.0587     6419.854    7943.1677   -278.75181   -639.72341    -1169.524   -3382.2842 
24743000    263.89782   -4689.7834   -4180.8342   -4689.7834            0    6999.5556    20.054454    19.852021    20.551011    8181.7981    4984.1744    8516.3099    7498.1826    40.630114   -49.788872    -773.6584   -3345.6253 
24744000    253.52254   -4671.8261   -4182.8866   -4671.8261            0    8461.7337    19.783442    20.166919    20.437232    8153.8642    10424.454    5156.9794    9803.7678   -1474.5089     567.5728     823.9856   -3176.6532 
24745000    277.53919   -4692.8233   -4157.5656   -4692.8233            0    7361.9511    20.059945    19.784275    20.624748    8185.3739    7192.6847    8727.6294    6165.5393    94.591549    214.81274    282.67228   -3278.7306 
24746000    267.82744   -4695.4238    -4178.896   -4695.4238            0    7887.9875    19.976649    19.852222    20.608677    8173.0072     7432.047     8141.203    8090.7125       840.38   -757.13005   -1882.4472   -3238.6879 
24747000    259.16211   -4703.2623   -4203.4464   -4703.2623            0    8973.7251    19.856828    19.661693    20.734258    8095.0455    7868.1295    9768.5647    9284.4811    454.29252   -734.52753    910.38409   -3144.0269 
24748000     265.2845    -4692.587   -4180.9635    -4692.587            0    7542.0458    20.037356    20.004953    20.345275    8155.3295    6666.7272    6947.8336    9011.5767   -168.18427    628.40137   -667.84018   -3283.9343 
24749000    249.91727   -4704.5019   -4222.5154   -4704.5019            0    7375.7891    19.845013    20.083556    20.401132    8131.0429    6514.2381    7845.3558    7767.7736   -226.27387    1152.7526    917.06612   -3347.8728 
24750000    266.25368   -4663.1421   -4149.6494   -4663.1421            0    8031.2736    19.855863    19.788883    20.705242    8135.6144    8517.6382    8072.0283    7504.1543    -923.2544     573.3967    199.86476   -3196.7421 
Loop time of 438.115 on 64 procs for 250000 steps with 972 atoms

Performance: 98.604 ns/day, 0.243 hours/ns, 570.627 timesteps/s
194.4% CPU use with 32 MPI tasks x 2 OpenMP threads

MPI task timing breakdown:
Section |  min time  |  avg time  |  max time  |%varavg| %total
---------------------------------------------------------------
Pair    | 26.973     | 35.805     | 43.109     |  75.1 |  8.17
Bond    | 0.86168    | 1.1429     | 1.9866     |  21.0 |  0.26
Kspace  | 186.84     | 200.38     | 221.3      |  63.3 | 45.74
Neigh   | 2.1097     | 3.0338     | 4.0041     |  34.0 |  0.69
Comm    | 73.249     | 92.452     | 107.97     |  91.5 | 21.10
Output  | 0.40268    | 0.40307    | 0.40463    |   0.0 |  0.09
Modify  | 84.329     | 89.93      | 96.285     |  35.9 | 20.53
Other   |            | 14.96      |            |       |  3.42

Nlocal:        30.3750 ave          35 max          23 min
Histogram: 2 1 2 0 1 11 3 3 4 5
Nghost:        2667.47 ave        2714 max        2614 min
Histogram: 1 1 3 3 5 5 6 3 3 2
Neighs:        9658.75 ave       11932 max        6847 min
Histogram: 1 4 0 3 3 4 9 2 5 1

Total # of neighbors = 309080
Ave neighs/atom = 317.98354
Ave special neighs/atom = 2.0000000
Neighbor list builds = 7843
Dangerous builds = 0

unfix		3
unfix		2
unfix		1

write_data	data.final.${pid}
write_data	data.final.0
System init for write_data ...
PPPM initialization ...
  extracting TIP4P info from pair style
  using 12-bit tables for long-range coulomb (../kspace.cpp:340)
  G vector (1/distance) = 0.37301737
  grid = 24 24 25
  stencil order = 5
  estimated absolute RMS force accuracy = 0.0033337006
  estimated relative force accuracy = 1.003934e-05
  using double precision FFTW3
  3d grid and FFT values/proc = 3458 576
Last active /omp style is kspace_style pppm/tip4p/omp
WARNING: Not all mixed pair coeffs generated from mixing. Use write_data with 'pair ij' option to store all pair coeffs. (../write_data.cpp:312)

write_restart   restart.lmp.${pid}
write_restart   restart.lmp.0
System init for write_restart ...
PPPM initialization ...
  extracting TIP4P info from pair style
  using 12-bit tables for long-range coulomb (../kspace.cpp:340)
  G vector (1/distance) = 0.37301737
  grid = 24 24 25
  stencil order = 5
  estimated absolute RMS force accuracy = 0.0033337006
  estimated relative force accuracy = 1.003934e-05
  using double precision FFTW3
  3d grid and FFT values/proc = 3458 576
Last active /omp style is kspace_style pppm/tip4p/omp
Total wall time: 0:07:18
