#include		in.partitions
include		in.temp
variable        temperature equal 124.15
variable	tempDamp equal 100.0
include		in.pressure
variable        pressure equal 5418.8
variable        pressureDamp equal 1000.0 # This is 1 ps
include		in.seed
variable        seed equal 745823

units		real
atom_style	full

read_restart	restart.lmp.${pid}
read_restart	restart.lmp.1
Reading restart file ...
  restart file = 30 Jul 2021, LAMMPS = 30 Jul 2021
  restoring atom style full from restart
  orthogonal box = (0.087135161 0.060799141 0.071376536) to (19.912866 19.939202 20.628621)
  4 by 4 by 4 MPI processor grid
  restoring pair style lj/cut/tip4p/long/omp from restart
  restoring bond style harmonic/omp from restart
  restoring angle style harmonic/omp from restart
  972 atoms
  648 bonds
  324 angles
Finding 1-2 1-3 1-4 neighbors ...
  special bond factors lj:    0        0        0       
  special bond factors coul:  0        0        0       
     2 = max # of 1-2 neighbors
     1 = max # of 1-3 neighbors
     1 = max # of 1-4 neighbors
     2 = max # of special neighbors
  special bonds CPU = 0.006 seconds
  read_restart CPU = 0.025 seconds
include 	in.setup
variable	out_freq equal 1000
variable	out_freq2 equal 10000
variable	out_freq3 equal 1000

timestep	2.0

neigh_modify    delay 7 every 1

include		in.tip4p
# This is TIP4P/Ice

# create groups ###
group ox type 2
324 atoms in group ox
group hy type 1
648 atoms in group hy

# set charges - beside manually ###
set group ox charge -1.1794
Setting atom values ...
  324 settings made for charge
set group hy charge 0.5897
Setting atom values ...
  648 settings made for charge

# ### TIP3P Potential Parameters ###
pair_style lj/cut/tip4p/long/omp 2 1 1 1 0.1577 8.5
pair_coeff 1 1*2 0.000 0.000
pair_coeff 2 2 0.21084 3.1668
bond_style  harmonic
bond_coeff  1 450 0.9572
angle_style harmonic
angle_coeff 1 55 104.52
kspace_style pppm/tip4p/omp 1.0e-5
pair_modify tail yes

thermo          ${out_freq}
thermo          1000
thermo_style    custom step temp pe etotal epair emol press lx ly lz vol pxx pyy pzz pxy pxz pyz enthalpy

restart 	${out_freq3} restart.lmp.${pid} restart2.lmp.${pid}
restart 	1000 restart.lmp.${pid} restart2.lmp.${pid}
restart 	1000 restart.lmp.1 restart2.lmp.${pid}
restart 	1000 restart.lmp.1 restart2.lmp.1


include         in.dump
dump            myDump all atom ${out_freq2} dump.water.${pid}
dump            myDump all atom 10000 dump.water.${pid}
dump            myDump all atom 10000 dump.water.1
dump            myDump2 all dcd ${out_freq2} dump.dcd
dump            myDump2 all dcd 10000 dump.dcd
dump_modify     myDump append yes
dump_modify     myDump2 append yes


variable natoms 	equal  "count(all)"                        # NUMBER ATOMS
variable H      	equal  "enthalpy/v_natoms"                 # ENTHALPY-per-atom
variable Vol      	equal  "vol/v_natoms"                 # volume-per-atom
fix AVG all 		ave/time ${out_freq} 1 ${out_freq} v_Vol v_H file vol_enthalpy.dat
fix AVG all 		ave/time 1000 1 ${out_freq} v_Vol v_H file vol_enthalpy.dat
fix AVG all 		ave/time 1000 1 1000 v_Vol v_H file vol_enthalpy.dat


timer           timeout 02:55:00 every 1000
New timer settings: style=normal  mode=nosync  timeout=02:55:00

fix 		1 all shake 1e-6 200 0 b 1 a 1
       0 = # of size 2 clusters
       0 = # of size 3 clusters
       0 = # of size 4 clusters
     324 = # of frozen angles
  find clusters CPU = 0.002 seconds
fix             2 all nph aniso ${pressure} ${pressure} ${pressureDamp}
fix             2 all nph aniso 5418.8 ${pressure} ${pressureDamp}
fix             2 all nph aniso 5418.8 5418.8 ${pressureDamp}
fix             2 all nph aniso 5418.8 5418.8 1000
fix             3 all temp/csvr ${temperature} ${temperature} ${tempDamp} ${seed}
fix             3 all temp/csvr 124.15 ${temperature} ${tempDamp} ${seed}
fix             3 all temp/csvr 124.15 124.15 ${tempDamp} ${seed}
fix             3 all temp/csvr 124.15 124.15 100 ${seed}
fix             3 all temp/csvr 124.15 124.15 100 745823


run             250000
PPPM initialization ...
  extracting TIP4P info from pair style
  using 12-bit tables for long-range coulomb (../kspace.cpp:340)
  G vector (1/distance) = 0.37193718
  grid = 24 24 24
  stencil order = 5
  estimated absolute RMS force accuracy = 0.0035412354
  estimated relative force accuracy = 1.0664325e-05
  using double precision FFTW3
  3d grid and FFT values/proc = 2197 216
Last active /omp style is kspace_style pppm/tip4p/omp
Neighbor list info ...
  update every 1 steps, delay 7 steps, check yes
  max neighbors/atom: 2000, page size: 100000
  master list distance cutoff = 10.8154
  ghost atom cutoff = 10.8154
  binsize = 5.4077, bins = 4 4 4
  1 neighbor lists, perpetual/occasional/extra = 1 0 0
  (1) pair lj/cut/tip4p/long/omp, perpetual
      attributes: half, newton on, omp
      pair build: half/bin/newton/omp
      stencil: half/bin/3d
      bin: standard
Per MPI rank memory allocation (min/avg/max) = 9.224 | 9.226 | 9.229 Mbytes
Step Temp PotEng TotEng E_pair E_mol Press Lx Ly Lz Volume Pxx Pyy Pzz Pxy Pxz Pyz Enthalpy 
13750000    127.47677   -4982.8928   -4737.0431   -4982.8928            0     6366.825    19.825731    19.878403    20.557245    8101.6895    6849.6377    5915.8695    6334.9677   -334.14984   -77.334029    703.50387    -3984.772 
13751000     125.6641   -5003.1362   -4760.7824   -5003.1362            0    5854.7806    19.836732    19.773414    20.579739    8072.1949    6157.0375    5785.2108    5622.0937   -638.16184     1139.655    618.31076   -4071.5303 
13752000    125.11854   -4997.0323   -4755.7306   -4997.0323            0    5701.5396    19.925701    19.837941    20.464083    8089.1426    5430.9971    5984.5126     5689.109    32.436606    -34.38526    -263.4016   -4083.1095 
13753000    127.24425   -5003.5106   -4758.1093   -5003.5106            0    6313.1105    19.846303    19.808976    20.506625     8061.871    7132.3929    5235.4873    6571.4513    409.68328   -384.60481   -597.76882   -4015.8509 
13754000    124.43412   -5015.5183   -4775.5367   -5015.5183            0    5939.9121    19.970981    19.666582    20.558208    8074.4608    7269.0904    5331.9445    5218.7015   -215.45961    646.93051   -282.27532   -4076.0661 
13755000    118.06892    -4988.459   -4760.7532    -4988.459            0    4955.5384     19.84508    19.819907    20.649766    8122.1239    5022.9188    6638.3051    3205.3912    211.42595    1233.6524   -784.85183   -4173.7555 
13756000    128.99879   -5000.8709   -4752.0859   -5000.8709            0    5088.3607    19.778297    19.879593    20.583702    8093.1926    5360.1415    5174.6043    4730.3363    439.78612     1041.517   -314.81417    -4151.502 
13757000    127.28502   -5002.1758   -4756.6959   -5002.1758            0    5565.7372    19.732282    19.817313    20.701904    8095.2891    5243.3673    6907.9833    4545.8608   -964.69975   -37.305943     626.5801   -4099.5967 
13758000    123.57275   -5001.8924    -4763.572   -5001.8924            0    4556.3888    19.945294    19.847364    20.651819    8175.2603    3364.7954    5346.2092    4958.1618    290.93034   -566.47403   -546.75882   -4220.3238 
13759000    129.04083   -4991.6962   -4742.8301   -4991.6962            0    6335.2603    19.902168    19.727726    20.597371    8087.0326    6004.8732    6353.1622    6647.7455    816.46764    44.150023    65.613189   -3995.6427 
13760000    127.37298   -4993.1649   -4747.5153   -4993.1649            0    5425.1648    19.843445     19.80659    20.538583    8072.2999    5703.8294    5675.4352    4896.2299   -343.77117    880.89855   -499.73389   -4108.8312 
13761000    120.83358   -4995.5349   -4762.4972   -4995.5349            0    6057.8394    19.989273    19.805835    20.468408    8103.5295    5461.8066    6037.0075     6674.704     77.66615    594.62351   -1011.0361   -4046.5716 
13762000    131.10646   -4990.6445   -4737.7947   -4990.6445            0    5089.3064    19.874249    19.820424    20.653714    8135.8291    4206.0506    6581.0038    4480.8647   -53.222097   -347.43316    342.68779   -4133.9346 
13763000    124.62753   -4974.7704   -4734.4157   -4974.7704            0    6494.6082    19.728057    19.858475    20.563912    8056.3058    7428.2567    6189.0853    5866.4827    -28.40878     347.7761    949.83797    -3971.345 
13764000    123.45945    -5008.141   -4770.0391    -5008.141            0    3941.8884    20.013564    19.839247    20.589947    8175.3215    2780.5354    4937.3678    4107.7619   -109.67317   -154.11987     608.0175   -4300.0529 
13765000     122.6303   -4996.0256   -4759.5228   -4996.0256            0    4750.8526    19.919073    19.784372    20.561366    8102.9539    3315.8956    6359.9593     4576.703   -658.21742    354.64383    -1099.061    -4198.099 
13766000    123.43676   -4991.6279   -4753.5697   -4991.6279            0     7135.065    19.857807    19.828341    20.394055    8030.1056    6265.8761    7994.5252    7144.7937   -823.98357    1354.9805   -314.57527   -3917.9761 
13767000    123.74424   -4999.9395   -4761.2883   -4999.9395            0    4711.4284    19.986831    19.862965    20.467467     8125.538    3569.6606    5415.5011    5149.1236   -345.08882    17.180646    1502.3522   -4202.9716 
13768000    125.93141   -5014.7205   -4771.8511   -5014.7205            0     5496.759    19.967628    19.882794    20.352338    8080.1272    4851.8447    4545.3211    7093.1112   -158.09915    394.07351   -223.19587    -4124.111 
13769000     120.3398   -4991.0955   -4759.0101   -4991.0955            0    5542.3872     19.83019    19.837278     20.49775    8063.3433    4355.6369    6095.5232    6176.0015   -237.65683    273.08942    451.45144   -4107.2498 
13770000    123.31622   -5000.0923   -4762.2666   -5000.0923            0    5602.5574    19.866903    19.783724    20.529348    8068.8821    5317.6756    6084.3122    5405.6843   -317.31663   -93.460755    428.10444    -4102.978 
13771000    121.25955   -5006.2591   -4772.3998   -5006.2591            0    5376.2239    19.989986    19.745357    20.503325    8092.8549    4274.7868    6610.5416    5243.3434    31.971502  -0.87495487   -681.44172   -4137.8657 
13772000    127.69897   -5000.4003   -4754.1221   -5000.4003            0    5825.5001    19.751995    19.799544    20.620113    8064.1243    5761.1236     6029.612    5685.7647    434.73669    1278.8139   -936.62881   -4069.0026 
13773000     119.3027   -4998.2175   -4768.1323   -4998.2175            0    5129.6214    19.721172    19.879549    20.661379    8100.2524     5355.523    5539.1538    4494.1875   -237.37373   -224.38804    250.93849   -4162.1502 
13774000     133.4546   -4995.9027   -4738.5243   -4995.9027            0    4427.7476    19.941068    19.855993    20.582429     8149.607    4933.9322    3786.0937     4563.217   -380.94788    77.819636    -832.9389   -4212.2703 
13775000    131.11463   -5000.4248   -4747.5592   -5000.4248            0    5331.4701    19.774494    19.992019    20.564868    8129.9514    6057.6085    4835.4061    5101.3956   -98.526355    104.84357   -1279.6524   -4115.4227 
13776000    125.90664   -4990.4903   -4747.6688   -4990.4903            0    4153.8442    19.840595    19.914495    20.622863    8148.4113    3601.1204    4373.6348    4486.7773     739.8487    967.89247    787.37882   -4254.0416 
13777000    131.39295   -5000.2972   -4746.8949   -5000.2972            0    5497.8651    19.799333    19.982987    20.563917    8136.1101    5348.1485    5275.6346     5869.812   -454.48389    851.37971   -295.59888   -4094.5357 
13778000    124.84854   -5009.7273   -4768.9464   -5009.7273            0    4136.9474    19.831294    19.992068    20.501016    8128.0091    3381.1242    4847.3397    4182.3785   -289.42573    41.052052   -115.94429   -4278.5581 
13779000    120.16964   -4992.0215   -4760.2642   -4992.0215            0    4757.1713    19.939553    19.911812    20.500314    8139.2933    3933.1384    4756.2121    5582.1636     47.42668   -167.80895   -2.1430161   -4195.5726 
13780000    124.84159   -4987.7829   -4747.0154   -4987.7829            0     5804.899     19.71437    19.837558    20.674338    8085.4225    5731.8451    6757.9936    4924.8583    320.25524   -86.244213    470.28962   -4062.5157 
13781000    129.36237   -4998.8684   -4749.3822   -4998.8684            0     4373.143    19.806082    20.047163    20.559445     8163.246    4693.5651    4337.8647    4087.9991   -292.18808    -236.0898   -96.331502   -4228.7483 
13782000    127.22774   -4997.4421   -4752.0727   -4997.4421            0    5426.9772    19.904877     19.79243    20.567262    8102.7994    4932.1713    5535.4698    5813.2906      -158.56    436.89021    384.79279   -4110.7613 
13783000    130.01725   -5009.8289   -4759.0797   -5009.8289            0    3120.9384    19.860776    19.920041    20.589383    8145.7253    4976.9369    1559.9066    2825.9716   -213.27082    440.76392   -308.36746   -4388.3214 
13784000     122.0971   -5003.2842   -4767.8096   -5003.2842            0    4655.7399    19.851276    19.897122    20.516338    8103.6099    3371.4606    6477.0994    4118.6597   -197.58113    744.99943    20.201119   -4217.5811 
13785000    116.06282   -5001.2104   -4777.3735   -5001.2104            0    5649.0382    19.933099    19.854104     20.37068    8061.7741     4836.203    6190.3879    5920.5238     -2.96582    231.06744    326.95703   -4113.2008 
13786000    117.77312   -4994.4504    -4767.315   -4994.4504            0    6231.9486    19.880874     19.83484    20.410698    8048.6311    5435.6281    5961.0582    7299.1596   -47.068322    406.29674    251.34877   -4035.8025 
13787000      126.567    -5008.363   -4764.2679    -5008.363            0    4249.1272    19.828691    19.911417    20.566703    8120.0906    4618.1903    3940.3875    4188.8037    385.14833   -62.381441     341.9578   -4261.0727 
13788000    127.79905   -4993.6272    -4747.156   -4993.6272            0    5671.5739    19.739102    19.934106    20.509182    8069.9804    5781.7408    4534.1233    6698.8575    64.743454    899.17416    646.49408    -4079.655 
13789000    123.62025   -5006.2381   -4767.8261   -5006.2381            0    5252.7184    19.845562    19.862451    20.601088    8120.5674    5516.7513    5222.3886    5019.0154   -293.56833    165.79903    250.31789   -4145.7459 
13790000    121.94125   -4992.8494   -4757.6755   -4992.8494            0    4904.6742    19.754067    19.924697    20.545319    8086.5101    4328.9697    4992.3674    5392.6854   -72.229627    107.48071   -151.50831   -4179.2503 
13791000    124.36868   -4993.2575   -4753.4021   -4993.2575            0    5137.1125    19.847735    19.898635    20.448818    8076.1138    4837.9258    4644.2062    5929.2054   -153.54851   -472.84401    663.01553   -4148.3435 
13792000    124.53981   -5002.9541   -4762.7686   -5002.9541            0    5767.4983    19.841241    19.818852    20.538869    8076.5127    4591.1845    6873.8272    5837.4833   -87.523737    1175.2487   -224.10502   -4083.4285 
13793000    130.26831   -4997.8933   -4746.6599   -4997.8933            0     6016.131    19.691619    19.792729    20.722571    8076.6399    5491.9487    6690.1582     5866.286   -139.61167   -167.92243   -379.22505   -4038.0228 
13794000    121.87383   -5010.0166   -4774.9726   -5010.0166            0    4840.9802    19.984186    19.732432    20.523126    8093.0198    4337.6205    5145.4587    5039.8615   -174.95512   -44.504482    1427.0197   -4203.5995 
13795000    121.06883   -5003.3341   -4769.8427   -5003.3341            0    6612.9221    19.835628    19.877613    20.352776     8024.793    6114.2404     6576.018    7148.5079    -129.1737    1719.0443   -262.35864   -3995.9101 
13796000    118.69294   -4991.6908   -4762.7815   -4991.6908            0    6250.0416    19.867567    19.898963    20.369781    8053.0704    7087.1349    5706.8708    5956.1191   -177.08327   -1036.4991   -696.00391   -4028.7405 
13797000    124.43599   -4997.6066   -4757.6213   -4997.6066            0    6940.8386     19.81474    19.876642    20.413081    8039.7021    7341.6621     7356.117    6124.7368    143.98249    -357.4933    490.08405   -3943.8024 
13798000    115.64377   -4995.4477   -4772.4189   -4995.4477            0    5335.5288    19.878233    19.915641    20.483402    8109.1283    4698.9871    5302.6928    6004.9063    714.45467    144.93544   -1453.3529   -4141.4216 
13799000    129.17745   -5000.9309   -4751.8013   -5000.9309            0    6010.6263     19.80545    19.764889    20.552668    8045.3936    5750.8404    6257.0862    6023.9523    -600.0942   -755.01633    512.54211   -4046.5516 
13800000    124.80205   -5010.0523   -4769.3611   -5010.0523            0    5598.5474    19.721981    19.900099     20.62801     8095.862    5898.4693    5826.8982    5070.2746    29.476201   -191.60815    164.13537   -4108.3415 
13801000    128.77858   -4971.4764   -4723.1161   -4971.4764            0    7046.5507    19.920749    19.730971    20.565658    8083.4495    7209.8366    6548.8962    7380.9194    560.86999   -81.019583    -418.7993   -3892.4066 
13802000    124.96812   -5009.7351   -4768.7236   -5009.7351            0    5487.0993    19.818618    19.783027    20.617297    8083.4701    6342.1648      4233.29    5885.8431   -826.73368   -623.57013    -205.8545   -4121.8543 
13803000     119.6121   -5008.1803   -4777.4983   -5008.1803            0    5185.1356    19.819888    19.753302    20.684915    8098.3143    4159.1373    6392.6087    5003.6608   -98.209697    399.46775   -368.29743   -4165.1047 
13804000    130.04683   -4996.0958   -4745.2895   -4996.0958            0    6324.5268    19.840688    19.811417    20.597363    8096.2495    6600.5077    5850.5227      6522.55    176.28082    262.55984    358.25551   -3998.5179 
13805000    123.08159   -4993.4317   -4756.0585   -4993.4317            0    5175.8439    19.876622    19.808381    20.586533    8105.4059    5183.2803    4141.0691    6203.1822   -525.54005   -309.24433    297.96552    -4144.227 
13806000    134.37896   -5001.8108   -4742.6497   -5001.8108            0    5468.5262    19.812683     19.94027    20.600397     8138.604    3774.7804    7147.7364    5483.0617    126.39984    217.61957     264.5497   -4093.5729 
13807000    115.72838   -4997.7107   -4774.5187   -4997.7107            0    4874.9022    19.942876    19.758998    20.582223    8110.4506    5229.0411    5094.0874    4301.5781    218.10511    1728.1876   -73.130163   -4197.9026 
13808000    122.24427   -4995.2894   -4759.5311   -4995.2894            0    5631.4819    19.778485    19.973896    20.495278    8096.7293    4906.4986    6611.9397    5376.0073    123.63024   -829.52427   -258.14039   -4094.5517 
13809000    127.14614   -5003.1546   -4757.9426   -5003.1546            0    6532.9187    19.812876    19.834289    20.470297    8044.3009    7520.7328    6238.4139    5839.6094   -261.98532    150.17097    494.99921   -3991.5145 
13810000    125.09751   -4999.2923   -4758.0313   -4999.2923            0    5477.1042    19.827683    19.767197    20.673691    8102.7989    6532.0766    5183.2974    4715.9385    87.075581    1724.6337    1170.2885   -4110.7963 
13811000    118.65906   -4980.4974   -4751.6534   -4980.4974            0    5108.2325    19.846204     19.70961    20.728223    8108.0714    4981.1024    6578.2783    3765.3169    -157.7969    408.07609   -365.29171   -4147.6156 
13812000    128.25987    -4982.858   -4735.4981    -4982.858            0    6147.5515    19.849962    19.881787    20.545259    8108.2426     5703.088    6464.5467    6275.0198   -134.83989   -14.151211   -71.369711   -4008.5476 
13813000    128.20987   -4997.6897   -4750.4262   -4997.6897            0    4654.2792    19.899596    19.765309    20.782974    8174.3937    5450.2795    4748.4154    3764.1428   -374.54294   -442.48947    276.85616   -4195.5656 
13814000    124.52779   -4995.5834   -4755.4211   -4995.5834            0    6128.9799    19.854332    19.851035    20.490115    8075.7489    5111.4565    7253.9945    6021.4886    -73.68763    -945.1654   -918.69532   -4033.5712 
13815000    127.03601    -5005.777   -4760.7774    -5005.777            0    6144.0789    19.824514    19.819028    20.540086    8070.2531    7704.9096    5134.5961    5592.7308    6.6233621    73.469508    845.15929   -4037.6416 
13816000    133.43035   -4996.6484   -4739.3167   -4996.6484            0    5948.8683    19.839195    19.961395    20.415193    8084.7842    6030.8361    5671.6258    6144.1431    288.89378   -791.59403    1047.9207   -4037.8959 
13817000    122.38392    -4994.901   -4758.8733    -4994.901            0    6611.6036    19.778802    19.952476    20.342173    8027.7552     6026.305    7179.1905    6629.3153    2.8856017    520.69841   -498.60943   -3984.8094 
13818000    124.16341   -4996.8114   -4757.3518   -4996.8114            0    6448.3331    19.801781    19.909617    20.423629    8051.9314    5688.2832    6709.6305    6947.0857    286.55858     -191.496    1303.9793   -4000.1294 
13819000    116.69042   -5000.5271   -4775.4798   -5000.5271            0     5511.139     19.92702    19.706935    20.585723    8084.0239    5103.6431    6343.2474    5086.5265    117.61317    31.866799    214.43342    -4125.732 
13820000    122.42854    -4984.902   -4748.7882    -4984.902            0    6237.4813    19.976486    19.683937    20.492859    8058.1181    5163.8886    6567.5985    6980.9569     153.0399   -317.27598   -631.56675   -4015.7632 
13821000    123.52513   -4991.9309   -4753.7023   -4991.9309            0    6025.4647    19.913779    19.805258    20.438745    8060.9901    4761.8665    7233.2935     6081.234    93.477068    197.04826     1360.095    -4045.341 
13822000    135.46573    -4990.289   -4729.0319    -4990.289            0    5790.9388    19.831067    19.812856    20.560046     8078.249    6872.6582    4451.2809    6048.8775   -516.87779   -348.75619    475.55575   -4046.7842 
13823000    123.37603   -5012.3475   -4774.4064   -5012.3475            0    6433.8713    19.787054    19.692202    20.759284    8088.8688    7322.7422    6491.9404    5486.9313   -261.62532    65.051344    382.84537   -4015.4164 
13824000    121.35901   -5005.6017   -4771.5507   -5005.6017            0    5337.8859    19.809552    19.909771    20.509601     8089.061    5957.6401    4420.7745    5635.2431   -333.65721    567.59467    529.81783   -4141.8368 
13825000     126.5078   -5006.5982   -4762.6173   -5006.5982            0    6127.6241    19.905456    19.854519    20.414179    8067.9542    3840.4959    7224.6477    7317.7286   -101.69581   -176.70043   -504.76599   -4041.6237 
13826000    121.15779   -4991.4538   -4757.7908   -4991.4538            0    5535.6634    19.928839    19.806625    20.465284     8078.119    4930.6365    7072.9279    4603.4258   -536.74625    1064.2716   -534.64301   -4105.6283 
13827000    114.23601   -4996.9315   -4776.6177   -4996.9315            0    5646.4073    20.058845    19.683356    20.452861    8075.3084    4090.6589    6242.0178    6606.5451   -591.61789   -244.36063   -535.47283   -4111.6398 
13828000    125.24693   -4985.6741   -4744.1249   -4985.6741            0    4229.6825    19.943032    19.731491     20.64909    8125.5359    3945.7667    5158.0677     3585.213   -576.00734    142.61202   -264.07407   -4242.8965 
13829000    125.95779    -5010.776   -4767.8558    -5010.776            0    5182.8658    19.717866    19.809369     20.70893    8088.8766    4126.4512    7144.8181     4277.328   -5.3290308    273.04096    897.93581   -4156.4437 
13830000    124.20823   -4988.4739   -4748.9279   -4988.4739            0    4154.2213    19.732693    19.879802    20.646667    8099.3166    4078.1305     4650.947    3733.5864    249.44054    1067.0929    314.22383   -4258.2303 
13831000    126.65131   -4996.5087    -4752.251   -4996.5087            0    5896.7655    19.882863    19.733976    20.673748    8111.7159    5934.2479    6194.5273    5561.5213   -208.53874   -618.54787    831.24654   -4054.6575 
13832000    121.21406   -5007.9192   -4774.1477   -5007.9192            0    3884.5853    19.817353    19.901744    20.610863    8128.9223    3798.9369     3456.612    4398.2071   -297.83506    431.93531    530.38668   -4313.6224 
13833000    125.92794   -4997.4491   -4754.5865   -4997.4491            0    5008.3289    19.817168     19.84176     20.66931    8127.3281    6229.1028    4408.5361    4387.3479    260.28246    422.40772    -30.83723   -4160.9555 
13834000    130.72587   -4994.7064   -4742.5906   -4994.7064            0    4858.3823    19.813567     19.90185    20.553355    8104.7355    5097.9192    4457.1337     5020.094    174.94194   -131.62591    272.89853   -4168.3334 
13835000    120.62243    -5002.529   -4769.8985    -5002.529            0    4250.9413    19.836184    19.909748    20.530486    8108.1752    4531.7992    4078.9844    4142.0403    239.81278   -299.48185    1225.9053   -4267.2272 
13836000    121.73989   -5000.1499   -4765.3643   -5000.1499            0    5616.3879    20.034852    19.792005    20.500385    8129.0155    6454.3178    4546.2676    5848.5783   -550.63187    990.90704    143.36435   -4099.5227 
13837000    120.49065   -4997.7274    -4765.351   -4997.7274            0    4523.1358    19.782482    19.970387    20.475411    8089.0937    4662.9663    3417.9565    5488.4847     299.5581    515.68401    1783.3788   -4231.7516 
13838000    124.97792   -4998.2232   -4757.1927   -4998.2232            0    4761.5309    19.887387    19.980749    20.451053    8126.5303    3045.1094    6222.6008    5016.8826    206.47563     660.3447   -18.744299   -4192.8698 
13839000    116.71135   -5006.8396   -4781.7519   -5006.8396            0    4964.9005    20.011143    19.956729    20.346304    8125.4382    4106.0738    4732.7626    6055.8652    -231.7495    420.65027    632.66957   -4193.4053 
13840000    119.00905   -4989.3908   -4759.8718   -4989.3908            0    5327.6318    19.883486     19.86315    20.512592    8101.4206    5644.7322    4836.2195    5501.9437   -15.870637   -490.14909    -157.8136   -4130.4073 
13841000    118.45145   -4997.4216    -4768.978   -4997.4216            0     5631.023    19.825473    19.842088    20.590817    8099.9905    4927.1016    5967.9796    5997.9879     250.8416    1125.9974     1016.256    -4103.785 
13842000     123.4229   -4998.5325    -4760.501   -4998.5325            0    6343.3656    19.798902    19.850181    20.453316    8038.3943    5663.2954    6924.3421    6442.4592    222.93132   -1104.3547   -427.68742   -4016.8573 
13843000    127.96547   -4994.5956   -4747.8035   -4994.5956            0    4854.5644    20.037322    19.713812    20.517635    8104.7119     5006.754    4170.3381    5386.6013    172.56267   -470.66591    124.26167   -4173.9992 
13844000    127.25896   -5002.5132   -4757.0836   -5002.5132            0    5488.7675    19.726423    19.940855    20.506668    8066.5389    6289.4257    5190.4117    4986.4652    -386.0671    1221.9637    213.41969   -4111.3729 
13845000    122.54461   -5008.8989   -4772.5613   -5008.8989            0    6000.4882    19.775064    19.567159    20.799607    8048.2382    5331.1015     7993.401    4676.9621   -11.680827    173.57587   -1234.9995   -4068.2522 
13846000    124.01103   -4992.7444   -4753.5787   -4992.7444            0    5257.8987      19.8051    19.908685    20.568802    8110.1448    5075.2398     5670.743    5027.7134     -660.922    -128.2398      246.794   -4131.6842 
13847000    125.78136   -5001.3499   -4758.7699   -5001.3499            0    5447.3186    19.751062    19.853246    20.597437    8076.7225    6903.9281    4490.7822    4947.2456    58.123576    456.23767    325.50936   -4117.1264 
13848000    127.32165   -5006.5763   -4761.0258   -5006.5763            0     4483.644    19.821163    19.896563     20.60896    8127.6173     5298.314    3529.8722    4622.7458   -138.10935   -290.83689   -751.26223   -4229.5662 
13849000    125.12949   -5004.9658    -4763.643   -5004.9658            0    5458.5335    19.845702    19.956069    20.547289    8137.5934    6931.4231    4710.9539    4733.2237   -157.39501    72.058254    463.80132   -4115.8327 
13850000     122.6069   -4995.5843   -4759.1266   -4995.5843            0    6012.0474    19.908006    19.877561    20.408269    8076.0134    5572.8276    5887.4533    6575.8614   -314.46553    179.89751   -664.47825   -4051.0254 
13851000    119.13464   -5009.4751    -4779.714   -5009.4751            0    4424.5313    19.991028    19.827609    20.420354    8094.1033    4257.7826    3323.0571    5692.7541    144.74938    104.33451   -1310.6822   -4257.4237 
13852000    122.81647   -4995.2246   -4758.3627   -4995.2246            0    4969.1287    19.838897    19.900795    20.568568    8120.6722    4947.0991    5129.5592    4830.7277   -337.64187    1207.5598   -1166.8275   -4169.8604 
13853000     122.8246   -4992.1634   -4755.2858   -4992.1634            0    4450.5941    19.941195    19.881978    20.532907    8140.6895    4998.3528    3772.7202    4580.7092    -850.0562   -117.97502    904.53768   -4226.8952 
13854000    126.53373   -4986.9651   -4742.9342   -4986.9651            0    5801.2201    19.854101    19.868406    20.307947    8010.8622    4571.6342    6608.6002     6223.426    667.33548   -159.58712   -379.48263   -4065.1764 
13855000    130.32057    -4986.139   -4734.8048    -4986.139            0    5662.4787    19.971873    19.905265    20.327286    8081.0194    4415.7271    6084.6325    6487.0766    38.551882    1092.6745   -644.94581   -4067.4625 
13856000    119.43912   -5003.0525   -4772.7041   -5003.0525            0    5762.4402    19.878682    19.898054    20.512539    8113.6753    6120.7454    5702.3603     5464.215    273.96344     554.0468   -291.60349   -4090.8367 
13857000    124.55277   -4999.6739   -4759.4634   -4999.6739            0    4568.6569    19.896395    19.933515    20.484925    8124.4254    4027.3884    4544.8805    5133.7017    316.64887    963.37316    4.3571648   -4218.1396 
13858000    118.84466   -4975.8715   -4746.6696   -4975.8715            0    6233.1076    19.821985    19.820351    20.562893    8078.7226    5596.5002    6897.2533    6205.5692   -175.06346     720.7169   -1399.8062   -4012.2856 
13859000    129.59437    -5004.281   -4754.3474    -5004.281            0    5712.0686    19.640589    19.911718    20.588471    8051.6956    6341.2972    5416.8111    5378.0976   -44.147607    500.46882    523.33776   -4083.6036 
13860000    124.40398   -4983.3082   -4743.3847   -4983.3082            0    7304.2572    19.839502    19.785935    20.497867    8046.2963    8081.5296    6656.1275    7175.1146    165.59702   -41.483284   -466.66135   -3886.2522 
13861000    124.05775   -4982.4364   -4743.1806   -4982.4364            0    5784.4118    19.927011    19.694177    20.647164    8102.8984    7022.6143    5696.9457    4633.6754    559.00759   -494.21176    216.28905   -4059.6224 
13862000    119.65422   -4982.0144   -4751.2512   -4982.0144            0     5365.565    19.614112    19.911605    20.686184    8078.9571    5983.5452      5920.79    4192.3597   -36.488643   -279.80517   -1218.6284   -4119.0626 
13863000    122.56435   -5007.0031   -4770.6274   -5007.0031            0    5000.8852    19.766859    19.777316    20.714076    8097.8658     5836.475    5457.9063    3708.2744   -509.48592    463.41391   -557.95987   -4180.0276 
13864000    124.35245   -4993.9522    -4754.128   -4993.9522            0    5230.1025     19.77935    19.827543    20.744532    8135.5056    6063.2819    5044.1019    4582.9237   -433.84868   -767.39635    320.34848   -4133.5868 
13865000    121.63737   -4987.0196   -4752.4317   -4987.0196            0    5289.7571    19.791666     19.80165     20.55017    8053.7689    4856.9512    5486.6239    5525.6964   -456.38059   -819.95407    651.57142   -4131.1182 
13866000    118.40847   -4998.6652   -4770.3045   -4998.6652            0    6811.7582    19.844857    19.772723    20.535383    8057.8145    7069.6572    6093.7641    7271.8534   -476.99155   -757.86442    728.19635    -3969.821 
13867000    120.69561    -5005.245   -4772.4733    -5005.245            0    5867.6269    19.832829    19.847682    20.537333     8084.227    5378.0776    6445.0034    5779.7996    24.285861   -109.12375   -221.21138   -4080.6792 
13868000    123.38119   -5007.1451   -4769.1941   -5007.1451            0    5032.3996    19.785706    19.974825    20.519252    8109.5369    5257.1854    4451.3513    5388.6622   -22.985295    228.54501   -735.10353   -4174.0158 
13869000    120.19472   -4997.7149   -4765.9093   -4997.7149            0    6544.1273    19.800284    19.924662     20.43833    8063.2068    6299.9964    6779.6534    6552.7321    111.95545     46.63698    193.75488   -3996.3618 
13870000    121.19585   -4988.9388   -4755.2024   -4988.9388            0    6006.2819    19.862555    19.948062    20.401724    8083.5602    7096.8762    4582.2016    6339.7681   -557.99488    1086.4064      192.009   -4047.1192 
13871000    124.44413   -5011.7021   -4771.7011   -5011.7021            0    5658.4447     19.95174    19.931038    20.285587    8066.7441     4819.315    5579.9317    6576.0874   -371.14198    502.13532    443.62209   -4106.0123 
13872000    123.89406   -4986.6736   -4747.7335   -4986.6736            0    4774.6227    19.929455    19.874401    20.539581    8135.4401    5297.5731    4191.2575    4835.0375   -512.51795   -122.85709    861.80137   -4181.2386 
13873000    123.95115   -5000.2968   -4761.2466   -5000.2968            0    5416.8651    19.795882    19.920785    20.593029     8120.851     8179.182    3361.6724    4709.7407    30.973537    1111.7765    350.05293   -4119.7041 
13874000    125.37134   -4997.7228   -4755.9336   -4997.7228            0    5921.6289    19.835642    19.784523    20.563078    8069.7477      4569.84    7576.5583    5618.4886   -635.97603    28.640371   -528.53697   -4059.0231 
13875000    123.84247   -4980.7061   -4741.8655   -4980.7061            0    5980.8054    19.698647    19.806994    20.671795    8065.5342    8083.5873    5082.1954    4776.6336   -58.555272   -246.62846    415.23248    -4038.358 
13876000    118.60248   -5001.6579    -4772.923   -5001.6579            0    5474.9661     19.92006    19.760179     20.51579    8075.5065    5105.8686    6124.1758    5194.8538    649.52171    366.22317    318.69041     -4128.12 
13877000    124.11158   -5004.3368   -4764.9772   -5004.3368            0    5306.2433    19.827532    19.770984    20.658922    8098.5002    5347.1385    5699.3668    4872.2245   -6.0018174    818.60133    457.75695   -4138.2657 
13878000    120.97226   -4999.2047   -4765.8995   -4999.2047            0    5980.3916    19.799017    19.826043     20.56803    8073.6953    6054.1665    5468.8295    6418.1788   -214.41087    635.39131    711.88388    -4061.729 
13879000    128.10431   -4984.8765   -4737.8166   -4984.8765            0    5290.8393    19.814642    19.811491    20.605698    8088.9235    4333.9099    6239.2837    5299.3242    35.502914    1672.6987    1254.2597   -4113.6634 
13880000    116.74003   -5004.7725   -4779.6296   -5004.7725            0    4413.7731    19.942586    19.748213    20.607454    8115.8423    4501.4062    4488.5113    4251.4017   -367.41915      25.8106   -124.05822   -4257.2099 
13881000    116.96569   -5003.6342   -4778.0561   -5003.6342            0    6022.7632    19.921931    19.878398    20.436555    8093.2039    6253.5454    5008.3002    6806.4439   -79.267423    1513.5059    648.59055   -4067.1828 
13882000    125.36985   -4988.0437   -4746.2573   -4988.0437            0    4651.4313    19.974467    19.924651    20.393838    8116.4269    4210.7732    4653.0893    5090.4312   -702.28835   -121.74552    178.90482   -4195.6685 
13883000    128.30657   -4991.1522   -4743.7022   -4991.1522            0    6013.3617    19.836098    19.837044    20.624587    8115.5595     4139.109    8385.8101    5515.1661    216.35461     564.5683   -700.62691   -4031.9781 
13884000    120.84617   -5003.0914   -4770.0294   -5003.0914            0    5282.6858     19.67546    20.031894    20.620622    8127.3443    5180.9433    5693.3779    4973.7361    39.375481   -141.12741   -114.57549   -4143.8781 
13885000    123.91729   -5003.0663   -4764.0814   -5003.0663            0    5200.6169    19.977471    19.743274    20.523885    8095.0451    3662.9364     5852.488    6086.4263   -487.72313    744.79824   -39.863322   -4150.1074 
13886000    122.32398   -4992.0014   -4756.0894   -4992.0014            0    5246.3861    19.920524    19.769438    20.592896    8109.8443    4457.6073    4908.0861    6373.4649   -131.70796    1011.1279    360.00837   -4135.5795 
13887000    126.98189   -5010.8372   -4765.9419   -5010.8372            0    6588.9086     19.84639    19.745444      20.5562    8055.4773      5913.94    7300.2666    6552.5192    234.91215   -883.06841   -30.402403   -3991.8712 
13888000    126.26178   -5006.5269   -4763.0205   -5006.5269            0    6108.4146    19.790394    19.809125    20.577541    8067.0217    5994.4141    7490.2666    4840.5633   -314.56284    746.69849   -799.35737   -4044.3701 
13889000    116.17932   -5006.4854   -4782.4238   -5006.4854            0    4883.0373    19.881834    19.822232    20.619761    8126.2957     4434.149    5232.1895    4982.7734    5.4054798   -800.12922    291.97705    -4203.717 
13890000    124.11524   -4992.3331   -4752.9664   -4992.3331            0    5731.0701    19.682039    19.950269    20.579725    8080.8756    7184.1978    4559.4327    5449.5797    12.470462    955.87173   -972.68437   -4077.5525 
13891000    124.48146   -5004.8539    -4764.781   -5004.8539            0    4668.1928    19.847306    19.863352    20.538542     8096.992    4989.5181    4905.7996    4109.2608    89.027307    271.65709    70.636105   -4213.5312 
13892000    126.30533   -5007.1744    -4763.584   -5007.1744            0    5878.7903    19.828201    19.908327    20.532715    8105.2132    6040.2794    6888.4373    4707.6541    -181.8101   -417.74495   -128.47911   -4068.6744 
13893000    118.67098   -4994.6471   -4765.7801   -4994.6471            0    5117.1472    19.794148    19.826135    20.679534    8115.5065    4840.5293    6134.6853     4376.227    -78.41924    946.68813   -646.07592   -4160.1333 
13894000     122.9367   -4994.1379   -4757.0442   -4994.1379            0    5103.8167    19.836478    19.713537    20.618735    8062.8979    5001.7822    4858.9015    5450.7664   -310.17812    356.76004   -422.73323    -4156.891 
13895000    122.47117     -4998.29   -4762.0941     -4998.29            0    5994.6753    19.830428    19.862016    20.527923    8085.3799    6658.2083    4148.7259    7177.0918   -288.88232    1046.5317    240.67267   -4055.2201 
13896000    117.56645   -4996.7034   -4769.9666   -4996.7034            0    4382.6038    19.889988    19.941271    20.429955    8103.1663     3660.537    4373.3244    5113.9499    5.8858161    1694.5359    307.22628   -4252.0464 
13897000    125.48476   -5014.5351   -4772.5272   -5014.5351            0    5276.1888    19.984446    19.772664    20.424915    8070.8183    6656.4617    3830.2731    5341.8317   -379.15654    197.78318    496.23104   -4151.4955 
13898000    122.71389   -5005.6968   -4769.0327   -5005.6968            0    4588.6739     19.87206     19.84588    20.518093    8091.8952    3088.0932    5677.0521    5000.8763    399.95477   -268.04845   -376.91294   -4227.5142 
13899000    130.40159   -5001.8713   -4750.3808   -5001.8713            0    5863.4578    19.821574    19.901906    20.539812    8102.6907    5537.9875    5583.6168    6468.7691     374.5714    67.658236    -93.37021   -4057.4993 
13900000    124.47869   -5002.3295   -4762.2619   -5002.3295            0    6381.9367    19.958293    19.821475    20.400712    8070.5789    5207.5714     7659.998    6278.2407   -772.12973    616.20891    142.72805   -4011.1008 
13901000      131.182   -4995.7145    -4742.719   -4995.7145            0    4046.5022    19.874729    20.004409    20.503078    8151.6594    4811.6286    3633.4807    3694.3972   -264.00888    1769.2202   -257.71317   -4261.6563 
13902000    126.25797   -4991.8435   -4748.3444   -4991.8435            0    5605.6385    19.756129    19.916096    20.528463    8077.2306     5952.386    4550.1384    6314.3912    497.82423    -535.1462    470.66167   -4088.0107 
13903000     123.5602   -5004.4978   -4766.2015   -5004.4978            0    4235.4545    19.984411    19.848359    20.505773    8133.7744     4367.655    3606.4931    4732.2152    26.764394    96.854339     466.5193   -4263.7803 
13904000     125.4579   -5006.5254   -4764.5693   -5006.5254            0    4366.4725    19.872822    19.887248    20.552729    8122.7622    2527.6563    5490.6396    5081.1216    515.16359    56.230394   -824.17053   -4247.3076 
13905000    122.75332   -4999.7542   -4763.0141   -4999.7542            0    6776.4558    19.875084    19.838091    20.403673    8044.8364    5998.1866    6675.3296    7655.8511    380.03253    537.34968    -340.3128   -3967.9617 
13906000    123.90059   -5003.7533   -4764.8006   -5003.7533            0    5199.8157    19.953514    19.868987    20.287609    8043.1464     4525.049    5294.1424    5780.2557   -53.379748   -1098.9958    33.596061   -4154.8568 
13907000    127.32055   -5003.0992   -4757.5508   -5003.0992            0    4226.6954    19.900686    19.972441    20.483455    8141.4624    3942.4077    4005.3651    4732.3135    93.973404    373.91494    248.45619   -4255.6946 
13908000    116.81987   -4995.2284   -4769.9315   -4995.2284            0    6051.9947     19.71936    19.761174    20.676429     8057.143    6076.8702    5778.3095    6300.8043    264.73769   -864.17026   -104.86827   -4058.7908 
13909000    118.43601   -5002.7199   -4774.3061   -5002.7199            0    5051.9116     19.78547    19.871126    20.690328    8134.6004    4582.2466     6063.879    4509.6092   -130.16016    476.02366    622.38351   -4174.9735 
13910000    125.55635   -4999.1996   -4757.0536   -4999.1996            0    5522.4037    19.853869     19.75885    20.642209    8097.7244    4920.6162    6072.5806    5574.0142   -298.43447    1890.8922   -582.73512   -4104.8743 
13911000    119.20467   -4997.3272    -4767.431   -4997.3272            0    6627.5263    19.686249    19.834041    20.615228    8049.3782     6915.604    7615.4752    5351.4996     123.5173    438.16864    113.67165   -3989.4129 
13912000    122.95671   -4994.2761   -4757.1437   -4994.2761            0    4354.6426    19.757943     19.82825    20.706405    8112.0536    5055.8014    4177.0477    3831.0788    100.09755   -222.65973   -558.63669   -4241.9635 
13913000    126.85813   -5003.1294   -4758.4728   -5003.1294            0     4699.482    19.874856    19.849934    20.624065    8136.4946    5200.6787    5059.3915    3838.3757    -103.5192    -121.3153    828.55917   -4200.8209 
13914000    124.21478    -5007.255   -4767.6964    -5007.255            0    5886.4819     19.88019    19.773756    20.593585    8095.4623    5573.7835    6805.7847    5279.8775     448.5124    514.86814    167.54399   -4072.7147 
13915000    120.62277   -4989.8349   -4757.2037   -4989.8349            0     7334.912    19.806557    19.757306    20.585372    8055.5542    7100.3125    7820.9652    7083.4582    634.50899    -546.4149    607.71824   -3895.4836 
13916000    124.72732   -4994.6785   -4754.1313   -4994.6785            0    6253.9071    19.671083    19.930089    20.625993    8086.3472    6581.0886    6313.9644    5866.6681    141.06686     947.2736    286.49818   -4016.6013 
13917000    125.21179   -5004.3454   -4762.8639   -5004.3454            0    5413.4717    19.813596    20.005065    20.477034    8116.5283    6285.8958    3701.8655    6252.6539   -567.31405    684.49028    312.20242   -4122.0646 
13918000    125.59159   -4985.7116   -4743.4976   -4985.7116            0     5972.466    19.818186    19.879403    20.528228    8087.5825    5784.8857    6849.9656    5282.5466   -539.27227     770.7747    1277.6693   -4039.0507 
13919000       129.04   -4992.6376   -4743.7731   -4992.6376            0    5746.5246    20.001935    19.764709    20.439853    8080.5364    5483.9091    5660.6487    6095.0159   -330.68446     488.3089   -242.10106   -4066.5662 
13920000    125.88975   -4993.6646   -4750.8757   -4993.6646            0    5859.5959    19.734227    19.796831    20.584534    8041.8658    5295.4507    6496.1704    5787.1667    333.53806   -381.46878    354.78578   -4063.6484 
13921000    127.40961   -4997.5082    -4751.788   -4997.5082            0    5601.2881    19.743106    20.049126    20.515696    8120.7693    6405.0597    4973.4398    5425.3647    271.90778    772.09842   -916.33867   -4088.4101 
13922000    122.21506   -5001.7688   -4766.0668   -5001.7688            0    5688.1049    19.907044    19.783112    20.557537    8096.0369    4485.0639    6918.1048    5661.1461    164.86765    131.06021    12.812869   -4094.4586 
13923000    118.82811   -5001.1235   -4771.9535   -5001.1235            0     5531.187    19.886107    19.866511    20.427918    8070.4078    3970.6425    6577.3103    6045.6081   -38.445825    121.57553   -195.13685   -4120.9404 
13924000    129.85459   -5006.6911   -4756.2556   -5006.6911            0     6509.437    19.804231    19.831835    20.440574    8028.1223    7905.9928    4523.5183    7098.7999    289.32442    339.23699    291.10863   -3994.1181 
13925000    123.58487   -4998.3808   -4760.0369   -4998.3808            0    5463.2883    19.782338    19.896508    20.528242     8079.905    5221.1882    5386.3495    5782.3271    163.97161    666.96057    253.59149   -4116.2588 
13926000    120.90566   -5008.6332   -4775.4565   -5008.6332            0    4916.1263    19.846911    19.908361    20.556238      8122.17    5384.8156    4591.9792    4771.5842    26.924505    560.85202   -770.35428    -4193.124 
13927000    125.51534   -4996.5498   -4754.4829   -4996.5498            0    5871.7918     20.01002    19.832254    20.367068    8082.5447    5124.7277    6793.8943    5696.7534   -189.64587    325.22352    424.07658   -4062.3418 
13928000    119.52355    -4988.179   -4757.6678    -4988.179            0    5919.1837    19.847966    19.844268    20.510692    8078.5128    6470.9866    6495.3456     4791.219   -118.51957    525.30167    866.77753   -4060.2884 
13929000    126.31429   -4994.3529   -4750.7451   -4994.3529            0     3241.508    19.884085    19.719191    20.765143    8141.9727    2747.2858    4076.9748    2900.2634   -191.40738    815.76069    37.698493    -4365.841 
13930000    122.15784    -4983.379   -4747.7874    -4983.379            0    5842.6654    19.863883    19.750199    20.592782    8078.8707    6639.9696    5529.3574    5358.6691   -228.66477    480.06278   -31.072181   -4059.3926 
13931000    126.46286   -5008.2675   -4764.3733   -5008.2675            0    5110.6419    19.837381    19.801644     20.62161    8100.4314    4041.1715    6687.7813    4602.9729   -248.98135   -130.06597    -840.8395     -4160.62 
13932000    119.30907   -4991.9288   -4761.8312   -4991.9288            0    5159.1056    19.752672    19.902166    20.598139    8097.5604    4821.2283    5258.8435    5397.2451   -90.083121    424.38972    390.28778   -4152.5686 
13933000    126.22948   -5014.9034   -4771.4593   -5014.9034            0    6116.8603    19.856518    19.798663    20.525037    8069.0592    6952.2951    5383.2466    6015.0392   -756.35303    398.84778   -254.18816   -4051.6336 
13934000    118.96532   -5003.5611   -4774.1264   -5003.5611            0    5416.1495    19.923442    19.846747    20.545285    8123.9243    5394.0443     4923.329    5931.0751    257.57229    404.52787    -819.4303   -4132.4259 
13935000    124.55149   -4987.8297   -4747.6217   -4987.8297            0    6103.9178    20.018657    19.736848    20.445171    8077.9933    6058.0576    6679.4924    5574.2032   -357.27665    426.69224   -329.62888   -4028.5238 
13936000    125.74836   -4992.3747   -4749.8584   -4992.3747            0    5143.0233    19.876475    19.935262    20.461804    8107.8413    5651.8829    4449.6159     5327.571   -42.485599   -157.27488    104.11541    -4141.724 
13937000    119.05779   -4996.5889    -4766.976   -4996.5889            0    4300.1041    19.924608    19.903317    20.428981    8101.4348    3906.4967    4583.0845     4410.731    344.44553      553.927   -295.13416   -4258.9139 
13938000    132.05547   -5003.7276   -4749.0475   -5003.7276            0    6342.4296    19.960336     19.67466    20.491123    8047.1264    7149.1995    6634.9096    5243.1797    6.9873056     230.1819   -106.81662   -4004.7058 
13939000    120.52916   -5008.5249   -4776.0743   -5008.5249            0     4855.633    19.979337    19.738152    20.485681    8078.6344    3878.3942    6900.6714    3787.8333   -121.88906   -120.97195    157.76094   -4203.9905 
13940000    130.55601   -4989.1089   -4737.3206   -4989.1089            0    6429.7877    19.755868    19.875385    20.531554    8061.8274    6519.7969    5532.3998    7237.1664   -57.080767    325.76655    -497.6789   -3981.3481 
13941000    119.33335   -4987.8441   -4757.6997   -4987.8441            0    5355.1507    19.945904    19.768504    20.602421    8123.5491    6240.4579    4679.3299    5145.6644   -256.42003   -291.30025     366.8939   -4123.2556 
13942000    128.59755   -4998.4607   -4750.4495   -4998.4607            0    6718.9587    19.834283     19.72248    20.506898    8021.9142    7979.4698    5412.0196    6765.3866    -174.6809     242.0034    172.15286   -3964.3892 
13943000    129.59177    -5009.828   -4759.8994    -5009.828            0    5152.7545    19.842456    19.879096    20.603341    8126.9899    5742.3209    4171.8713    5544.0713   -269.17716    434.70731    98.119374   -4149.1753 
13944000      124.326   -4989.4251    -4749.652   -4989.4251            0    5567.8916     19.91806    19.650379    20.668245    8089.4982     4959.095    6833.0243    4911.5556   -79.898438    1274.1997    577.51909   -4092.7687 
13945000    121.12736   -4992.6134   -4759.0091   -4992.6134            0    5608.0472    19.862173    19.948427    20.520402    8130.5757    6119.6618    4535.8566     6168.623    62.130609   -77.328178   -397.00323   -4094.0287 
13946000    123.09495   -4998.4322   -4761.0333   -4998.4322            0    5017.4334    19.758629    19.852903    20.652984    8101.4664    5442.3075    5288.1508    4321.8421   -757.56344    481.28309    -575.0594   -4168.2156 
13947000    120.60571   -4989.0082   -4756.4099   -4989.0082            0     6249.031    19.711748    19.885799    20.578931    8066.6087    7905.4729    4876.7466    5964.8734    137.09383    928.74971     374.1397   -4021.2538 
13948000    128.11497   -5001.2092   -4754.1287   -5001.2092            0    7511.2843    19.971631     19.65513    20.544597    8064.6786    7307.8474     7344.255    7881.7504   -623.35137    590.35116   -211.89733   -3870.6885 
13949000    125.43805   -4989.0226   -4747.1047   -4989.0226            0    6440.4371     19.80599     19.88072    20.477588    8063.2007    6341.3167    7040.9955     5938.999   -75.205074   -506.52791   -1022.8198   -3989.7511 
13950000    118.49931    -4994.549   -4766.0131    -4994.549            0    4737.4676    19.954604    19.776053    20.519664    8097.5376    4700.0794    4892.4197    4619.9038    179.94537   -529.66468    404.07857   -4206.5453 
13951000    119.88673   -4997.2276   -4766.0159   -4997.2276            0    5746.4785    19.885096    19.953874    20.419928     8102.315    6739.5043    4027.0134    6472.9178   -146.78143    630.12611    1463.7666   -4086.9893 
13952000    119.30601   -4983.3471   -4753.2554   -4983.3471            0    6446.9707    19.746094    19.997984    20.415531    8061.7272    7302.1046     3854.395    8184.4124    181.28909    478.73108    137.20233   -3995.2721 
13953000    114.73889   -4992.2689   -4770.9853   -4992.2689            0    6249.2046    19.759469    19.913321    20.547749    8085.0595    6836.2205    6085.1851    5826.2082   -91.366641    203.03756    340.93511   -4034.1273 
13954000    118.83261   -5003.1655   -4773.9868   -5003.1655            0    5045.5363    19.847249    19.809744     20.69902    8138.2116    5416.4185    5383.9315    4336.2589   -6.6297406    -100.8118   -1039.1262   -4175.1449 
13955000    121.33101   -5009.8274   -4775.8304   -5009.8274            0     6550.162    19.892494     19.85887    20.470223    8086.6069    6261.3622    6606.4001    6782.7236   -204.91792    200.95233     636.8384   -4003.3379 
13956000     125.7978   -5013.9904   -4771.3788   -5013.9904            0    5430.7784    19.845004    19.777566     20.62725    8095.9039    5187.2412    6014.4328     5090.661    256.34759   -264.47972   0.39441915   -4130.1643 
13957000    127.42201   -5004.0216   -4758.2775   -5004.0216            0    5260.2972    19.798219    19.697197     20.70224    8073.2406    5317.2827    5531.3446    4932.2643      18.2857    709.50426   -672.97687   -4138.9305 
13958000     124.4029   -4994.9303   -4755.0088   -4994.9303            0    5361.0764    19.827287    19.847288    20.579734    8098.4931    6313.0448    4110.5062    5659.6783    513.24902   -438.24202    1129.0541   -4121.8216 
13959000    128.14815   -5011.4525    -4764.308   -5011.4525            0    4128.7914    19.831585     19.91022    20.606596    8136.5395    3988.0587    5463.1903     2935.125   -515.64567   -690.65836    427.94788   -4274.3729 
13960000    128.58909   -4993.0736   -4745.0787   -4993.0736            0    6353.4006    19.832421      19.8558    20.521602    8081.1728     6248.398     6821.106    5990.6978    120.11537     53.07821    1030.8653   -3996.2948 
13961000    126.57966   -5000.4158   -4756.2963   -5000.4158            0    6889.2473    19.904088    19.912126    20.345587    8063.6215    6317.5097    7239.3853    7110.8469   -124.64808   -1588.8424    861.79048   -3946.1232 
13962000    125.58201   -5002.7471   -4760.5516   -5002.7471            0    5832.7023     20.03582    19.782043    20.455485    8107.5203    5621.2505    6574.5232    5302.3332   -399.58045    573.15455   -254.64834   -4070.8937 
13963000    123.70028   -4984.3921   -4745.8257   -4984.3921            0    4926.9892     19.91295    20.027342    20.323276    8104.9925    4420.7626    3719.5151    6640.6898    55.709728    1343.3213    338.80926   -4163.4408 
13964000    125.68001   -4996.3262   -4753.9417   -4996.3262            0    6617.3328     19.83856    19.801044    20.488367     8048.326     6304.069     6681.579    6866.3504   -389.78305    78.182072   -380.13449   -3977.2218 
13965000    121.28671   -5018.2848   -4784.3732   -5018.2848            0    5169.3182    19.856869     19.88153    20.594674    8130.4674    5036.0707    4850.8464    5621.0374   -443.16191    1001.2977     92.35778   -4171.4238 
13966000    118.27145   -4994.0935    -4765.997   -4994.0935            0    5510.8342    19.685528    19.861157    20.707953     8096.341    6065.9884    5693.3941    4773.1201   -506.83971    71.731249    552.20518   -4115.2952 
13967000     122.6337   -5014.4357   -4777.9263   -5014.4357            0    6362.3449    19.767741    19.775777     20.67818    8083.5646    6312.7092    6291.9375    6482.3882   -512.88778   -191.11503     213.3877   -4027.8663 
13968000    130.24579   -5000.5421   -4749.3521   -5000.5421            0    5724.7132    19.913032    19.684721     20.71657    8120.5323    5671.0883    6268.2163     5234.835   -284.19611   -560.98316    610.00564   -4071.3764 
13969000    125.80131   -4998.0495   -4755.4311   -4998.0495            0    5923.4891    19.900254    19.755501    20.561957    8083.7172    4961.4461    7151.0774    5657.9439    75.448472    1516.4549   -58.507634   -4057.0948 
13970000    120.28797   -5001.9133   -4769.9278   -5001.9133            0    6864.2051    19.740722    19.771854    20.567316    8027.6434    7058.6962    7667.4602    5866.4589    1.7382742   -338.96742    307.79453   -3966.3014 
13971000     123.7824   -4998.4667   -4759.7419   -4998.4667            0    5881.8197    19.877276    19.857975    20.507232    8094.6646    6291.9495     5265.397    6088.1126   -312.60887    869.24626   -28.528458   -4065.3791 
13972000    121.18382   -5003.5818   -4769.8686   -5003.5818            0    5088.6699     19.98002    19.772468    20.474621    8088.5874    4159.1728    5703.2715    5403.5653   -81.576948    82.592858    795.01537     -4169.59 
13973000    121.50693   -5006.4859   -4772.1495   -5006.4859            0    4285.1135    19.912887    19.939629    20.470162    8127.7922    5510.3851    3294.8105    4050.1448   -261.09387     29.37242    -66.98035   -4264.2114 
13974000    121.53815   -4991.1102   -4756.7137   -4991.1102            0    5919.0736    19.871962    19.878658    20.411305    8063.0358    6130.4816    6003.9257    5622.8134    389.35882    302.61882    1127.9483   -4060.6833 
13975000    119.95923   -5000.2226   -4768.8711   -5000.2226            0    5997.6014    19.884345    19.903323    20.413299    8078.8598     5099.735    6709.3717    6183.6974   -168.30603    864.57415   -315.64056   -4062.2224 
13976000    122.78723   -4997.9954   -4761.1899   -4997.9954            0    5480.7935    19.836211     19.86388    20.616369     8123.347     5724.336     4844.943    5873.1014     22.08216    -733.6226   -289.23448   -4111.8765 
13977000     125.8689   -4969.1756   -4726.4268   -4969.1756            0    5347.6839    19.863872    19.842638    20.509453    8083.8339    3959.2955    5660.6904    6423.0657    278.07472    1146.7475   -603.00828   -4095.9647 
13978000    123.84798   -4987.7083   -4748.8571   -4987.7083            0    4405.5002    19.853724    19.953993    20.477399    8112.3483     5383.757    3255.2121    4577.5314   -282.01996    138.78889      360.676   -4227.6411 
13979000    129.99751   -5005.1058   -4754.3946   -5005.1058            0    5475.6316    19.758669    20.012648    20.461086    8090.7899    5694.9452    4983.5355     5748.414   -180.72072    1373.2134    305.06851   -4108.2927 
13980000    129.92843    -4998.579   -4748.0011    -4998.579            0    5079.8708    19.909764    19.913323    20.541199    8143.9604    4989.3712    4641.9076    5608.3335     386.1673    415.36015    198.61659   -4144.6582 
13981000    125.69808   -4996.0476   -4753.6283   -4996.0476            0    4288.3389    19.904158      19.8991    20.613447    8164.4673    5234.4703     4066.307    3564.2394    -23.90564    979.38981     497.8287   -4243.0141 
13982000    123.00457   -4994.9776   -4757.7529   -4994.9776            0    5509.3811     19.94271    19.717664    20.590715    8096.7561    6575.9084    4601.9585    5350.2765    438.92913    990.60752     26.65562   -4107.1893 
13983000    122.52353   -5005.2928   -4768.9958   -5005.2928            0     4322.972    19.833828    19.928683    20.492429    8099.8801    5338.3805    3598.9687    4031.5668    -305.2277   -250.57064    81.985076   -4258.3299 
13984000    128.50334    -4995.839   -4748.0095    -4995.839            0    5736.2047    19.859086    19.816222     20.48785    8062.6258    5570.8635    6050.9536    5586.7969    -247.0398    447.09705   -234.00217   -4073.5171 
13985000    117.10819   -5002.0325   -4776.1795   -5002.0325            0     4691.952    19.856507    19.771529    20.608509    8090.7664      4504.73     5467.437    4103.6891   -392.96128   -877.14483   -59.619034   -4222.5501 
13986000    116.69894   -4999.3956   -4774.3319   -4999.3956            0    4067.2998    19.919771    19.868383    20.587639    8148.0443    4095.0975    4803.5521    3303.2499   -91.571848     -95.6523   -568.11962   -4291.0112 
13987000    124.64587   -4997.1934   -4756.8034   -4997.1934            0    5830.2239    19.897946    19.731278    20.559365    8071.8517    4102.0955    6554.8549    6833.7214    189.12778    765.64921    -721.4412   -4070.4713 
13988000    125.40454   -4990.5887   -4748.7355   -4990.5887            0    6186.0335    19.908021    19.813328     20.48566    8080.4486    6638.5666    5255.3574    6664.1765   -503.04987    1945.6418   -122.82583    -4019.742 
13989000    118.96799   -4994.2917   -4764.8519   -4994.2917            0    4218.7593    19.858366    19.908505    20.585778    8138.5955    5336.2452    3511.2407    3808.7918   -472.92406    742.22018   -1068.5906   -4264.1144 
13990000    128.39105   -5000.1862   -4752.5733   -5000.1862            0    6942.1651    19.961358    19.669803    20.482993    8042.3601    5362.7033     8468.271    6995.5209   -423.69673    827.44991    557.22405   -3938.3297 
13991000    125.07874   -5012.4596   -4771.2348   -5012.4596            0    4001.1278    19.787843    19.839623    20.662079    8111.5878    3281.5884    5227.5561     3494.239   -356.82296    402.52892     46.70501   -4297.9046 
13992000    114.46838   -4985.0495   -4764.2876   -4985.0495            0    5097.9618    19.833557    19.801666     20.70375     8131.138    5206.3631    5047.8629    5039.6595     551.5313    496.47653   -162.82736   -4159.7493 
13993000    122.97781   -4987.4704   -4750.2973   -4987.4704            0    6050.0508    19.933736    19.717073     20.61091    8100.8075    5209.6711    7196.8553    5743.6258   -258.12954    621.84988    556.88009   -4035.5324 
13994000     127.4649   -4996.2293   -4750.4025   -4996.2293            0    5574.3767    19.885566    19.792929    20.491311    8065.2487    5501.9094    5983.4763    5237.7443    346.56724    690.57966    683.89162   -4094.7255 
13995000    130.07712   -4988.2122   -4737.3475   -4988.2122            0    6480.3378    20.012814    19.854733    20.358117     8089.279    5616.4004    6564.5291    7260.0838    255.79446    962.31801    -63.40255   -3972.8372 
13996000     124.3861   -4992.4113   -4752.5223   -4992.4113            0    4964.8524    19.937603    19.806785    20.572519    8124.0838    4671.4329    4524.5477    5698.5765    41.708594    306.24043   -644.34906   -4164.2795 
13997000    124.66477   -4998.3477   -4757.9212   -4998.3477            0    5950.1666    19.733697    19.853838    20.527255    8042.3655    7114.1083    5765.7132    4970.6782   -162.69978    964.81426   -1119.4302   -4060.0282 
13998000    125.18315   -4991.3434   -4749.9172   -4991.3434            0    4449.0787     19.80179    19.959661    20.567457    8129.0205    4807.5623    3649.1718     4890.502   -163.85814    569.43955   -738.40668   -4222.4637 
13999000    122.66281   -5001.8342   -4765.2687   -5001.8342            0    6014.4767    19.919162    19.730257    20.519726    8064.4615    5122.3824    6105.9046    6815.1431    316.39808    252.97669    406.10872   -4057.8946 
14000000    130.37919   -4991.8006   -4740.3533   -4991.8006            0    4946.0715    19.962623    19.838537    20.538994    8134.0424    4965.4197    4672.7979     5199.997   -609.69564    53.096226   -506.98055   -4153.6173 
Loop time of 343.388 on 64 procs for 250000 steps with 972 atoms

Performance: 125.805 ns/day, 0.191 hours/ns, 728.040 timesteps/s
99.1% CPU use with 64 MPI tasks x 1 OpenMP threads

MPI task timing breakdown:
Section |  min time  |  avg time  |  max time  |%varavg| %total
---------------------------------------------------------------
Pair    | 19.216     | 28.225     | 38.494     |  86.3 |  8.22
Bond    | 0.25422    | 0.27544    | 0.29144    |   1.1 |  0.08
Kspace  | 132.83     | 142.92     | 152.39     |  39.3 | 41.62
Neigh   | 0.8608     | 0.87203    | 0.88824    |   0.6 |  0.25
Comm    | 82.03      | 82.926     | 84.505     |   6.6 | 24.15
Output  | 0.58171    | 0.58256    | 0.58393    |   0.0 |  0.17
Modify  | 81.511     | 82.605     | 83.088     |   4.6 | 24.06
Other   |            | 4.982      |            |       |  1.45

Nlocal:        15.1875 ave          19 max          11 min
Histogram: 1 5 9 12 0 7 12 7 9 2
Nghost:        2276.56 ave        2319 max        2238 min
Histogram: 3 3 7 7 16 14 4 5 4 1
Neighs:        4835.52 ave        6766 max        3134 min
Histogram: 4 3 3 14 13 12 5 5 3 2

Total # of neighbors = 309473
Ave neighs/atom = 318.38786
Ave special neighs/atom = 2.0000000
Neighbor list builds = 2640
Dangerous builds = 0

unfix		3
unfix		2
unfix		1

write_data	data.final.${pid}
write_data	data.final.1
System init for write_data ...
PPPM initialization ...
  extracting TIP4P info from pair style
  using 12-bit tables for long-range coulomb (../kspace.cpp:340)
  G vector (1/distance) = 0.37184007
  grid = 24 24 24
  stencil order = 5
  estimated absolute RMS force accuracy = 0.0035526992
  estimated relative force accuracy = 1.0698848e-05
  using double precision FFTW3
  3d grid and FFT values/proc = 2197 216
Last active /omp style is kspace_style pppm/tip4p/omp
WARNING: Not all mixed pair coeffs generated from mixing. Use write_data with 'pair ij' option to store all pair coeffs. (../write_data.cpp:312)

write_restart   restart.lmp.${pid}
write_restart   restart.lmp.1
System init for write_restart ...
PPPM initialization ...
  extracting TIP4P info from pair style
  using 12-bit tables for long-range coulomb (../kspace.cpp:340)
  G vector (1/distance) = 0.37184007
  grid = 24 24 24
  stencil order = 5
  estimated absolute RMS force accuracy = 0.0035526992
  estimated relative force accuracy = 1.0698848e-05
  using double precision FFTW3
  3d grid and FFT values/proc = 2197 216
Last active /omp style is kspace_style pppm/tip4p/omp
Total wall time: 0:05:43
