LAMMPS (30 Jul 2021)
  using 1 OpenMP thread(s) per MPI task
package omp 0
using multi-threaded neighbor list subroutines
echo both

include		in.partitions
variable        pid world 0
include		in.temp
variable        temperature equal 261.37
variable	tempDamp equal 100.0
include		in.pressure
variable        pressure equal 7875.0
variable        pressureDamp equal 1000.0 # This is 1 ps
include		in.seed
variable        seed world 745823

units		real
atom_style	full

read_restart	restart.lmp.${pid}
read_restart	restart.lmp.0
Reading restart file ...
  restart file = 30 Jul 2021, LAMMPS = 30 Jul 2021
  restoring atom style full from restart
  orthogonal box = (-0.077062289 -0.0073722434 0.21583631) to (20.077063 20.007373 20.484162)
  4 by 4 by 4 MPI processor grid
  restoring pair style lj/cut/tip4p/long/omp from restart
  restoring bond style harmonic/omp from restart
  restoring angle style harmonic/omp from restart
  972 atoms
  648 bonds
  324 angles
Finding 1-2 1-3 1-4 neighbors ...
  special bond factors lj:    0        0        0       
  special bond factors coul:  0        0        0       
     2 = max # of 1-2 neighbors
     1 = max # of 1-3 neighbors
     1 = max # of 1-4 neighbors
     2 = max # of special neighbors
  special bonds CPU = 0.329 seconds
  read_restart CPU = 0.541 seconds
include 	in.setup
variable	out_freq equal 1000
variable	out_freq2 equal 10000
variable	out_freq3 equal 1000

timestep	2.0

neigh_modify    delay 7 every 1

include		in.tip4p
# This is TIP4P/Ice

# create groups ###
group ox type 2
324 atoms in group ox
group hy type 1
648 atoms in group hy

# set charges - beside manually ###
set group ox charge -1.1794
Setting atom values ...
  324 settings made for charge
set group hy charge 0.5897
Setting atom values ...
  648 settings made for charge

# ### TIP3P Potential Parameters ###
pair_style lj/cut/tip4p/long/omp 2 1 1 1 0.1577 8.5
pair_coeff 1 1*2 0.000 0.000
pair_coeff 2 2 0.21084 3.1668
bond_style  harmonic
bond_coeff  1 450 0.9572
angle_style harmonic
angle_coeff 1 55 104.52
kspace_style pppm/tip4p/omp 1.0e-5
pair_modify tail yes

thermo          ${out_freq}
thermo          1000
thermo_style    custom step temp pe etotal epair emol press lx ly lz vol pxx pyy pzz pxy pxz pyz enthalpy

restart 	${out_freq3} restart.lmp.${pid} restart2.lmp.${pid}
restart 	1000 restart.lmp.${pid} restart2.lmp.${pid}
restart 	1000 restart.lmp.0 restart2.lmp.${pid}
restart 	1000 restart.lmp.0 restart2.lmp.0


include         in.dump
dump            myDump all atom ${out_freq2} dump.water.${pid}
dump            myDump all atom 10000 dump.water.${pid}
dump            myDump all atom 10000 dump.water.0
dump            myDump2 all dcd ${out_freq2} dump.dcd
dump            myDump2 all dcd 10000 dump.dcd
dump_modify     myDump append yes
dump_modify     myDump2 append yes


variable natoms 	equal  "count(all)"                        # NUMBER ATOMS
variable H      	equal  "enthalpy/v_natoms"                 # ENTHALPY-per-atom
variable Vol      	equal  "vol/v_natoms"                 # volume-per-atom
fix AVG all 		ave/time ${out_freq} 1 ${out_freq} v_Vol v_H file vol_enthalpy.dat
fix AVG all 		ave/time 1000 1 ${out_freq} v_Vol v_H file vol_enthalpy.dat
fix AVG all 		ave/time 1000 1 1000 v_Vol v_H file vol_enthalpy.dat


timer           timeout 02:55:00 every 1000
New timer settings: style=normal  mode=nosync  timeout=02:55:00

fix 		1 all shake 1e-6 200 0 b 1 a 1
       0 = # of size 2 clusters
       0 = # of size 3 clusters
       0 = # of size 4 clusters
     324 = # of frozen angles
  find clusters CPU = 0.051 seconds
fix             2 all nph aniso ${pressure} ${pressure} ${pressureDamp}
fix             2 all nph aniso 7875 ${pressure} ${pressureDamp}
fix             2 all nph aniso 7875 7875 ${pressureDamp}
fix             2 all nph aniso 7875 7875 1000
fix             3 all temp/csvr ${temperature} ${temperature} ${tempDamp} ${seed}
fix             3 all temp/csvr 261.37 ${temperature} ${tempDamp} ${seed}
fix             3 all temp/csvr 261.37 261.37 ${tempDamp} ${seed}
fix             3 all temp/csvr 261.37 261.37 100 ${seed}
fix             3 all temp/csvr 261.37 261.37 100 745823


run             250000
PPPM initialization ...
  extracting TIP4P info from pair style
  using 12-bit tables for long-range coulomb (../kspace.cpp:340)
  G vector (1/distance) = 0.3717569
  grid = 24 24 24
  stencil order = 5
  estimated absolute RMS force accuracy = 0.0035594886
  estimated relative force accuracy = 1.0719294e-05
  using double precision FFTW3
  3d grid and FFT values/proc = 2197 216
Last active /omp style is kspace_style pppm/tip4p/omp
Neighbor list info ...
  update every 1 steps, delay 7 steps, check yes
  max neighbors/atom: 2000, page size: 100000
  master list distance cutoff = 10.8154
  ghost atom cutoff = 10.8154
  binsize = 5.4077, bins = 4 4 4
  1 neighbor lists, perpetual/occasional/extra = 1 0 0
  (1) pair lj/cut/tip4p/long/omp, perpetual
      attributes: half, newton on, omp
      pair build: half/bin/newton/omp
      stencil: half/bin/3d
      bin: standard
Per MPI rank memory allocation (min/avg/max) = 9.221 | 9.223 | 9.225 Mbytes
Step Temp PotEng TotEng E_pair E_mol Press Lx Ly Lz Volume Pxx Pyy Pzz Pxy Pxz Pyz Enthalpy 
15500000     262.4871   -4663.9694   -4157.7409   -4663.9694            0    7473.8989    20.154126    20.014745    20.268325    8175.8309    6246.7637    7384.0101    8790.9229    409.89276   -1051.5913    480.42505   -3266.5823 
15501000    267.35499   -4715.5118   -4199.8952   -4715.5118            0    9070.7109    19.820021    19.855037    20.615628    8112.8114     9775.794    10473.199    6963.1394    840.00168    445.51695    501.14404   -3126.6756 
15502000    266.48046   -4703.5153   -4189.5853   -4703.5153            0     9740.112    19.754715    19.909003    20.600725     8102.197    10804.107    10007.821    8408.4073    632.44061    38.613104    425.86975   -3038.6719 
15503000    258.47549   -4698.8055   -4200.3138   -4698.8055            0    7876.1572    19.982375    20.014108    20.359108    8142.2057    6476.9672    8191.8082    8959.6962    278.83963    616.86341   -269.19735   -3265.0539 
15504000    254.02742   -4717.7311   -4227.8179   -4717.7311            0    7602.3094    20.036961     19.59199    20.693163    8123.3895    5085.6651    9973.0724    7748.1908    302.76258     495.3511    288.32097   -3327.1624 
15505000    261.37244   -4703.3025   -4199.2237   -4703.3025            0     6279.214    19.632351    20.205229    20.602015    8172.3275    8228.6463    4037.6898     6571.306   -324.83804   -131.23249    -113.1651   -3450.8355 
15506000    276.35924   -4710.2807   -4177.2986   -4710.2807            0    6915.4326    20.190169    19.644072     20.53257    8143.5691     4552.116    8017.1858    8176.9962   -481.19158    786.19378   -903.52589   -3355.9831 
15507000     262.0926   -4685.2755   -4179.8079   -4685.2755            0    7696.8929    19.773633    20.013552    20.465649    8099.0888     8945.812    6127.5434    8017.3232   -221.74264    633.65272    49.714754   -3270.6747 
15508000    268.99911   -4705.7435   -4186.9561   -4705.7435            0    8080.4628    19.967993     19.69195    20.582491    8093.2148    8459.0369    8830.9687    6951.3827   -68.583732    273.50208    765.53624   -3233.2091 
15509000    268.69585   -4687.8663   -4169.6638   -4687.8663            0    8584.0053    19.843675    19.935517    20.587116    8144.1378    8403.7559    9543.5325    7804.7275   -98.596771   -1204.3339    1360.9403    -3150.108 
15510000    265.58845    -4688.431   -4176.2213    -4688.431            0    7978.5629    19.975446    19.927061    20.477345    8151.0467    8255.1651    7437.8353    8242.6883     755.5368    -8.136063   -82.126326   -3227.7724 
15511000    256.50508   -4686.8476    -4192.156   -4686.8476            0    7534.6433    19.671995    20.087999    20.573807    8130.1723    6484.0129    8606.7807    7513.1363     111.8613   -121.88713   -40.742268   -3298.7716 
15512000    275.11099   -4673.2116   -4142.6369   -4673.2116            0    6430.4507    20.041474    19.862652    20.567617     8187.492    6623.8782    6278.6446    6388.8294   -117.25008   -110.82342   -953.99913   -3374.8014 
15513000    264.40539   -4673.5131   -4163.5851   -4673.5131            0    6431.4616    20.098457    19.970055    20.455821    8210.2974    5744.1108    6960.5937    6589.6803    698.60499   -258.43993   -419.33317   -3393.4898 
15514000    255.55321   -4704.7767   -4211.9208   -4704.7767            0    8105.4253    19.808172     20.01169     20.50488    8128.0321    9815.3735      7708.22    6792.6826    -101.7441   -924.04561   -561.12847   -3251.1117 
15515000    251.80456   -4680.4487   -4194.8224   -4680.4487            0    7339.6791    19.998583     19.92609    20.471885    8157.9144    8460.6977    6296.2621    7262.0774   -10.610793   -517.13337   -976.77997   -3321.5854 
15516000    263.14813   -4692.1545   -4184.6512   -4692.1545            0    9766.5703    20.124631    19.527599    20.572405    8084.6617    8411.7531    12061.822    8826.1357   -229.15567    202.03096   -49.509666   -3033.1091 
15517000    258.59712   -4698.6252   -4199.8989   -4698.6252            0    7821.3986    19.944006    19.803165    20.562037     8121.068     8248.693     7904.002    7311.5009    -202.8414    604.15279    1352.2138   -3273.5525 
15518000    253.45046   -4710.0842   -4221.2837   -4710.0842            0    6462.6381    19.571802    19.910351    20.904371    8146.0457    7778.4141    6374.7318    5234.7684   -411.74297    835.72751   -2215.4229   -3453.5112 
15519000    248.01556   -4680.3733   -4202.0544   -4680.3733            0    8334.7978    19.954741    19.888205    20.499864    8135.6574    6804.2756    10862.738    7337.3795    152.72101    783.42031   -1603.1773   -3213.1288 
15520000    267.36903     -4725.06   -4209.4163     -4725.06            0    6767.6687    20.008487    19.883874    20.449811    8135.8804    8149.3681    6319.4164    5834.2217    421.64576    1079.9987    1257.1296   -3406.4089 
15521000    259.85451    -4726.671   -4225.5197    -4726.671            0    5497.3601    20.054726    20.009748    20.429225    8198.0442    4376.4322    6089.1993    6026.4488   -344.16844   -136.90772   -1708.8755    -3568.255 
15522000    268.55267   -4713.7798   -4195.8533   -4713.7798            0    7850.1205    19.842374    19.951365    20.592037    8152.0258    8351.0878    7737.2774    7461.9962   -911.40122   -467.66152    671.17562   -3262.5609 
15523000    247.97047   -4699.0148   -4220.7828   -4699.0148            0    8662.7254    19.813103    19.926855    20.575641    8123.5271    10531.406    6875.1279    8581.6424    468.19488   -121.04217   -701.74263   -3194.4811 
15524000    272.56076   -4673.8575   -4148.2011   -4673.8575            0    9268.6555    19.897446    19.810595    20.588587    8115.6145    6518.6031     11356.04    9931.3232   -86.357148     674.5441   -697.25046   -3051.1824 
15525000    278.22568   -4701.2849   -4164.7032   -4701.2849            0    9181.2573     20.06312    19.771675    20.489555    8127.8272    8284.8392    9776.3583    9482.5743    596.25375    96.174842    647.02654   -3076.3935 
15526000    279.22239   -4693.0408   -4154.5369   -4693.0408            0    11110.742    19.923555    19.675814    20.452957    8017.8078    11527.859    11034.244    10770.122    253.50015   -448.38223   -566.68655   -2855.3412 
15527000    272.96674   -4681.8314   -4155.3921   -4681.8314            0    8168.5217    19.749949     20.09599    20.547431    8155.1679    9073.5555    7204.0035    8228.0059   -555.08055    1193.7706    97.525988    -3183.871 
15528000    260.18067   -4713.3716   -4211.5913   -4713.3716            0    7451.0462      20.1326    19.743854    20.486013      8143.09    7316.7448    8125.9797    6910.4142    -496.2929     483.1151   -403.47542   -3326.7153 
15529000    266.03595    -4699.718   -4186.6453    -4699.718            0    9070.9752    19.600444     20.14121    20.499887    8092.8769     9692.988    8106.4475    9413.4903    262.39288   -25.975409   -268.36221   -3116.0316 
15530000    270.30628   -4684.6962   -4163.3878   -4684.6962            0    8967.7575    19.954983    19.600732     20.70962    8100.2006    8711.4725    9696.5358     8495.264    -483.1521    480.52353   -717.95728   -3103.9986 
15531000    266.32717   -4681.4002   -4167.7659   -4681.4002            0    7478.8757     19.80162    20.026525    20.516154    8135.8378    9339.7604    6109.0879    6987.7786   -110.80737    256.27195   -117.14103    -3280.376 
15532000    264.40723   -4686.0137   -4176.0821   -4686.0137            0    7616.8787    19.939649    20.084777    20.262205    8114.6768    8358.3457    6329.2879    8163.0025   -290.03134   -501.49857   -255.43299   -3274.6684 
15533000    260.26229   -4694.0876   -4192.1499   -4694.0876            0    8618.2015    19.820865    19.820917    20.656674    8115.3406    10209.244    8356.6818    7288.6786    265.97411   -799.51173   -179.92236   -3172.1519 
15534000    247.08278    -4697.646   -4221.1261    -4697.646            0    9073.7374    19.874628    19.801999    20.754371    8168.0355     9606.733    9487.9049    8126.5744    164.19183    1244.7273   -590.16683   -3140.2405 
15535000    247.10031   -4715.8588   -4239.3051   -4715.8588            0    9429.8099    19.930286    19.778607    20.524288    8090.5365    8306.3592    11006.611    8976.4594   -230.28015   -933.93672    1340.2266   -3126.6613 
15536000    245.60899   -4705.2468   -4231.5692   -4705.2468            0    7396.1779    19.835716    20.010283    20.521626    8145.4085    7408.0763    6954.0818    7826.3756   -393.67375   -990.43786    606.64939   -3352.9593 
15537000    254.55996   -4696.2474   -4205.3071   -4696.2474            0    6946.5345    20.036487    19.893944    20.544621    8189.1836    4516.3615    9273.0272    7050.2149   -280.59246    580.34392   -1440.1883   -3375.6766 
15538000    255.99976   -4665.5372   -4171.8201   -4665.5372            0    7666.7396    19.907903    19.841525    20.727466    8187.4147    8864.6407    6654.3057    7481.2724   -239.47219   -540.67527    712.81779   -3256.3727 
15539000    252.11433   -4709.6307    -4223.407   -4709.6307            0    7372.2993    20.024787    19.982592    20.495805    8201.3383    8148.2514    6319.0578    7649.5888     727.8501    193.72171     1361.066   -3341.6203 
15540000    268.08954   -4717.9539   -4200.9207   -4717.9539            0    7564.3418    19.882647    19.863623    20.501233    8096.7861    6998.5326    9033.5227      6660.97    78.196525    -901.0128   -475.92473   -3307.6981 
15541000    259.25092   -4688.9163   -4188.9291   -4688.9163            0    7529.2474    19.961304    19.877987    20.537486    8149.0799    7336.9746    7778.3758    7472.3917    -297.3357    547.60473    502.49861   -3294.1083 
15542000    258.77663   -4699.5607   -4200.4882   -4699.5607            0    8298.7126    19.769574    19.833316    20.702031    8117.1877    9231.7111    8871.3055    6793.1213   -192.42381   -48.605548   -12.914968   -3218.0795 
15543000    264.57409   -4684.2185   -4173.9651   -4684.2185            0    9114.7654    19.822585    19.890106    20.584992    8116.1131    12762.545    6573.7688    8007.9826    387.90886   -1191.8998    -350.9636   -3095.0942 
15544000    252.31408   -4704.9094   -4218.3005   -4704.9094            0    9330.3071     19.83699    19.877746    20.366226    8030.7014    8800.5724    8985.7534    10204.595    509.00691   -58.537435   -216.40005   -3125.5392 
15545000    261.30072   -4736.9998   -4233.0593   -4736.9998            0    9195.6913     19.78112    19.827007    20.565953    8065.9749    11137.191    7110.4219    9339.4607    554.79714   -732.18492   -827.51568   -3151.3337 
15546000    257.27072   -4714.1123   -4217.9441   -4714.1123            0    5851.2763    19.994809    19.893254    20.592955    8191.0911    5455.4233    5328.7017     6769.704    256.37828   -416.50878    411.14826   -3518.9584 
15547000    267.63401   -4710.5548   -4194.4001   -4710.5548            0    9253.4442    19.947994    19.963984    20.377884    8115.3173    9048.4634    9379.0543     9332.815    917.48324   -143.76265    648.57616   -3099.2219 
15548000    251.57588   -4713.0604   -4227.8751   -4713.0604            0    7275.0789    20.108783    19.877257     20.45203    8174.8288     8252.203    7527.3768     6045.657   -356.49424    375.82084    626.42208   -3360.5294 
15549000    268.27457   -4700.8604   -4183.4704   -4700.8604            0    9390.9623    19.757202    19.991376    20.644799    8154.1516    10301.926    7267.8163    10603.144   -393.49801    490.20257    1075.7981   -3066.6977 
15550000    246.31898   -4694.4936   -4219.4467   -4694.4936            0    7702.7606    20.039526    19.783831    20.524235    8137.0091    6494.7903    9499.0185    7114.4731    371.56567   -55.890165   -501.16719   -3305.3606 
15551000    263.89926   -4645.5388   -4136.5868   -4645.5388            0    7660.0572     20.12192    20.143817    20.313501    8233.7176    8611.9926    5542.6976    8825.4814   -458.45109    983.97129    1521.2409   -3216.7647 
15552000    257.43155   -4720.7892   -4224.3108   -4720.7892            0    6876.2995    19.879597    20.085549     20.47527    8175.6241    6847.8973     6137.336    7643.6651     148.3312    983.96765   -199.42419   -3404.4283 
15553000    243.52927   -4704.4146   -4234.7479   -4704.4146            0    8148.0019    20.044514    19.689834    20.671761    8158.5889    8339.8719    8011.3917    8092.7422    501.51708    1634.2556    2129.5613   -3265.2608 
15554000    270.00034   -4693.0027   -4172.2843   -4693.0027            0    8832.2592    19.884884    19.922033    20.492069    8117.8781    11115.763    8148.8534    7232.1606    1087.7702    20.480537    886.88779    -3126.625 
15555000    273.12257   -4715.4223   -4188.6825   -4715.4223            0    6436.4528    20.136703    19.906789    20.397805    8176.6052    5323.7117    7330.5232    6655.1233     235.0347    1164.0293    643.15904   -3421.1522 
15556000    274.23048   -4681.5716    -4152.695   -4681.5716            0    8139.9239    20.032798    19.882437    20.522451    8174.1094     6838.532    9916.9471    7664.2927   -433.99092      1066.09    396.41631   -3182.3266 
15557000    253.57046   -4723.8781   -4234.8461   -4723.8781            0     7747.218    20.041335    19.848054    20.526464    8165.0478    6327.5856    8768.5022     8145.566   -401.32913    -116.6125    679.94686   -3312.3164 
15558000    255.54184   -4685.5223   -4192.6884   -4685.5223            0    8014.2173    19.892918    20.181191    20.208411    8112.9245    7581.8845    6566.7567    9894.0106    -159.8938    303.18187    922.76709   -3244.4568 
15559000    257.86541   -4690.2631    -4192.948   -4690.2631            0    9375.7883    19.877626    19.858871    20.351917    8033.8625    10250.509    8014.2458    9862.6102   -277.59918   -1423.4431    46.083061   -3094.4277 
15560000    268.10511   -4713.1203   -4196.0571   -4713.1203            0    6898.7432    19.752884    20.057389    20.664401    8187.0555    9054.5746    5289.9421    6351.7129    69.773816    336.94331   -358.16754   -3372.3485 
15561000    255.95837   -4674.5516   -4180.9143   -4674.5516            0    8594.4983     20.24442    19.749853    20.431152    8168.8712     7755.557    9356.6411    8671.2968    11.168042    1193.2094   -499.28244   -3157.0121 
15562000    264.94439    -4662.921   -4151.9534    -4662.921            0    7359.1025    20.008059    20.001621    20.541818    8220.7042    6195.1503    7824.2721     8057.885    1118.8611    34.619558    166.59205   -3269.6667 
15563000     274.5902   -4696.6701   -4167.0998   -4696.6701            0    8321.2448    19.959933     19.81163    20.584343    8139.8481    10688.746    6097.7271    8177.2608    1010.1617   -905.47424    -1487.642   -3179.2737 
15564000     268.3984   -4716.2652   -4198.6363   -4716.2652            0    6618.4466    19.946395      20.0171    20.478568    8176.4571    4865.2495    8109.9785    6880.1118    162.31555   -105.45787    524.45544   -3409.4181 
15565000    267.50012   -4709.7814    -4193.885   -4709.7814            0    7553.3475    19.952231    19.709085    20.633287     8113.838    7900.1684    7484.5692    7275.3049   -34.867697   -633.84899   -953.89938   -3300.0822 
15566000    279.62916   -4690.2234   -4150.9351   -4690.2234            0    7366.4423    19.778449    19.902464    20.732106    8160.9835    6418.9041    8546.5371    7133.8858   -565.76154    292.33666   -380.02082   -3274.1843 
15567000    258.74001   -4709.5818     -4210.58   -4709.5818            0    8539.1185    19.869175    19.610279    20.737979    8080.3473    7878.8809    9741.5998    7996.8748    843.41144    1031.4709   -569.18888   -3204.2997 
15568000    256.23617   -4695.0747   -4200.9017   -4695.0747            0    6303.9906    19.878267    20.109161    20.416205    8161.0775    7038.6299    4870.4537    7002.8882    101.11311     167.0959    15.536875   -3450.5948 
15569000     252.5056   -4715.7187   -4228.7404   -4715.7187            0    8972.3559    19.939761    19.990299    20.344713    8109.4389    7654.7226    10716.508    8545.8373   -314.04061   -225.77958    355.74843   -3167.5992 
15570000    273.88831   -4706.5476   -4178.3309   -4706.5476            0    6159.3702    20.110517    19.612757    20.639307    8140.6106    7253.6851    5552.0792    5672.3464   -571.50031    574.80774    117.53599   -3447.0754 
15571000    266.35927   -4709.4766   -4195.7803   -4709.4766            0    6710.3816    19.695502    20.038104    20.776939    8199.8378    7753.9245     5401.892    6975.3284   -522.10661    977.07018    927.17365   -3393.3111 
15572000    275.83931   -4671.6951   -4139.7158   -4671.6951            0    8360.6624    19.832971    20.043839    20.427915    8120.6861    9359.7892    7033.4116    8688.7865     50.44985    667.26039   -104.61903   -3149.5468 
15573000    258.28674    -4739.339   -4241.2113    -4739.339            0    6980.2189    20.004446    19.970801    20.354476    8131.7111    5977.7798    5729.2217    9233.6552   -156.91325    433.45337   -550.67695   -3413.4085 
15574000    254.22265   -4714.9222   -4224.6324   -4714.9222            0    7837.7107     19.71064    19.960751    20.710264    8148.2294    10911.449    6189.1032    6412.5802   -15.685904    441.38898   -429.01248   -3293.2493 
15575000    251.97845   -4694.2298   -4208.2682   -4694.2298            0     8824.968    20.058864    19.739803    20.499466     8116.928    7260.0039     10005.39    9209.5101   -754.76616    -277.6039   -409.60327   -3163.5943 
15576000    257.06873   -4694.8083   -4199.0296   -4694.8083            0    8434.3668    19.884854    19.863569    20.662958    8161.5413    9915.4721    8439.0069    6948.6215    1196.3281    31.795487    79.754366   -3195.1063 
15577000     245.2669   -4710.8578     -4237.84   -4710.8578            0    7986.5397    19.924762    19.821625    20.613177    8140.9922    8673.8429     7674.722    7611.0544    470.38705   -606.45467   -135.55427   -3289.6139 
15578000     274.0478   -4688.7706   -4160.2464   -4688.7706            0    7898.8938    20.007445    20.046716    20.320477    8150.2093     8638.554    6945.2396    8112.8877    -393.7338    566.90636   -1004.5494   -3221.3646 
15579000    256.37354    -4712.159   -4217.7211    -4712.159            0    8067.3249    19.668396    19.946719    20.711295    8125.4545     10189.05    5626.8982    8386.0265   -448.72849    820.25182   -208.75393   -3261.7317 
15580000    266.03317   -4690.6701   -4177.6027   -4690.6701            0    8326.5297    20.114925    19.861979    20.453414    8171.5935    7959.9333    8160.5516    8859.1042   -849.65788    884.20549   -1202.8728   -3185.2943 
15581000     258.4171    -4690.721   -4192.3419    -4690.721            0    7761.1957    19.777441    20.039288     20.57226    8153.3181    8875.3673    8239.6298    6168.5898   -812.56828    1579.4658   -1589.8256   -3269.4753 
15582000    263.94326    -4733.857   -4224.8202    -4733.857            0    6970.6145    19.982634    19.870845    20.616619    8186.2783    8056.1617    6213.1074    6642.5744    369.49499   -73.746488   -895.00361   -3392.6092 
15583000    265.51652   -4698.2974   -4186.2265   -4698.2974            0    7914.3128    19.949309    20.102581    20.381621    8173.6943    9879.8069    6796.0376    7067.0941   -197.16698   -502.29453    377.64034   -3242.8013 
15584000    269.64614   -4682.4905   -4162.4552   -4682.4905            0    6606.4648    19.942386     20.06229    20.488973     8197.432    6713.5086    5660.5937     7445.292    664.30398   -620.86161    765.00894   -3372.6448 
15585000     256.5666    -4709.391   -4214.5807    -4709.391            0     7288.623    20.082801    19.705894     20.56122    8137.0936     7147.967     7709.822    7008.0802   -32.904534    1452.7885    -646.0932   -3349.6313 
15586000    265.97249   -4729.3631   -4216.4128   -4729.3631            0     8123.875    19.979072    19.910404    20.547271    8173.5277    5685.1827    10508.937    8177.5051   -41.697178   -889.18331     1093.603   -3248.0264 
15587000    256.25222   -4701.6042   -4207.4002   -4701.6042            0    8818.1373    19.856915    19.684455    20.811335    8134.5796    10514.941    8078.1426     7861.328    572.43207    320.22064   -64.829724   -3161.2649 
15588000     263.5709   -4700.3122   -4191.9935   -4700.3122            0    7113.3282      19.7999    19.942726    20.643852    8151.5134    7264.8427    7252.1316    6823.0102    98.183423   -1099.6375    7.2278103   -3346.3507 
15589000    253.07636   -4740.0245   -4251.9455   -4740.0245            0    6952.0976    19.912283     19.78812    20.793504    8193.1949    5416.7265    6827.2931    8612.2731   -605.47699     180.8386    958.22946   -3421.2439 
15590000    255.14395    -4709.101   -4217.0344    -4709.101            0    6062.8543    19.978822    20.007172    20.435684     8168.546    5445.3632    6632.4066     6110.793    35.360432   -88.828402    149.09648   -3494.7674 
15591000     256.4742   -4713.1866   -4218.5545   -4713.1866            0    7292.2079    20.112847    19.859451    20.379001    8139.9866    6824.6724    7033.2192     8018.732   -212.26826    520.21052    945.63605   -3352.8721 
15592000     262.2001    -4703.427   -4197.7521    -4703.427            0    8284.7976     19.73322    19.895332    20.619476    8095.1847    8833.2838    7853.2788    8167.8302    363.93444    205.72712    29.168421   -3219.6492 
15593000    265.52635   -4688.0171   -4175.9272   -4688.0171            0    8036.2055    19.806395    19.988952    20.567658    8142.9224    9678.1296    5587.5701    8842.9167    245.81175    829.30077    1147.8946   -3221.5782 
15594000    261.95694   -4709.6639   -4204.4579   -4709.6639            0    9039.3185     19.90235    20.108202    20.406307    8166.6136    9200.8296    7477.6575    10439.468   -458.30217     771.1281   -982.36538   -3127.8598 
15595000    251.79584   -4723.1879   -4237.5785   -4723.1879            0    7997.9681    19.843141    19.702114    20.651911    8073.9022    9229.3622    7681.4609    7083.0813    69.262838    1019.4513   -297.45814   -3295.8211 
15596000    265.47286   -4687.9687    -4175.982   -4687.9687            0    9443.1952    19.629968    20.030959    20.524276    8070.2907    9919.1975    9328.2859    9082.1023     396.6288    93.408564   -1304.6217    -3064.547 
15597000    258.28132   -4693.9155   -4195.7982   -4693.9155            0    7709.6371    19.965141    19.889492    20.431761    8113.3812    8238.5776    7202.1488    7688.1849   -183.80717    780.39089   -851.95232   -3283.5528 
15598000    260.54455   -4701.0916   -4198.6095   -4701.0916            0    7925.5079    20.133635    19.971779    20.189128    8118.1393    6788.3499    8203.2211    8784.9527    742.40528     554.6236      -1305.9   -3260.2711 
15599000    244.14435   -4667.1665   -4196.3136   -4667.1665            0    9574.9536    19.897823    19.798478    20.571591    8104.1085    8750.0388    10291.095    9683.7272    347.81984   -250.63631   -1269.3945   -3064.6488 
15600000    271.69946   -4723.7667   -4199.7715   -4723.7667            0    6004.4837    20.035798    20.054374    20.398904    8196.3896     4009.538    6043.8472    7960.0659     526.3479   -775.31085   -774.69744   -3482.0199 
15601000    258.95725   -4746.5423   -4247.1214   -4746.5423            0    7000.2685    19.876348    19.930787    20.717999    8207.4616    9232.6777    5251.2241    6516.9038    355.34604    297.45173    543.21532   -3409.2074 
15602000    261.75296   -4707.7449   -4202.9323   -4707.7449            0    5875.6264     20.10314    19.766508    20.541778    8162.6634    4725.3875    6081.8609    6819.6306    186.26066   -153.25225    594.26155   -3503.4738 
15603000    265.74103   -4676.0244   -4163.5205   -4676.0244            0    10476.549    19.736428    20.050396    20.336613    8047.6697    9690.3251    10223.333     11515.99    785.84033   -349.09894    815.40958   -2933.9192 
15604000    258.26587   -4674.6366   -4176.5492   -4674.6366            0    8692.8007    19.891928    19.884094    20.496673      8107.11    9713.2947    7354.0246    9011.0827   -159.39342   -70.601813   -965.60268   -3148.7656 
15605000    271.30697   -4686.8858   -4163.6475   -4686.8858            0    7935.4776    20.042356    19.975237    20.490945    8203.5665    9965.1616    6206.1675    7635.1036    484.10646    201.67275     486.7033   -3214.2422 
15606000    253.38457   -4707.5528   -4218.8793   -4707.5528            0    9029.2743    19.987111    19.678079    20.626111    8112.4134    8386.6989    9095.0827    9606.0414    187.84204     741.7129    952.88806   -3150.6148 
15607000    265.28012   -4694.9121   -4183.2971   -4694.9121            0    8794.4962    19.603553    19.987386    20.582077     8064.547    7166.6584     8653.069    10563.761    73.218588     150.9158     1971.684   -3148.9487 
15608000    264.23071   -4675.0737   -4165.4826   -4675.0737            0    8528.0591    20.070339     19.57382    20.706897     8134.771    8230.3179    10540.531    6813.3285   -431.22633     -999.612   -328.14421   -3153.7367 
15609000    258.65846   -4693.7413   -4194.8967   -4693.7413            0    7498.5501    19.794873    20.035147    20.511373    8134.6709    7520.5749     8928.371    6046.7044   -67.050499    193.38329    419.34569   -3305.2999 
15610000    272.24931   -4702.8684   -4177.8128   -4702.8684            0    7131.9822    19.897395    20.013942    20.547815    8182.6599    7040.7514    7343.9879    7011.2073   -196.33836   -48.932557    317.34296   -3326.7127 
15611000    262.05891    -4668.509   -4163.1063    -4668.509            0    8374.6043    19.808094    19.890054    20.704401     8157.204    10526.052    6854.2894    7743.4717     1063.211   -715.56263    206.33102   -3166.8261 
15612000    260.82333    -4675.787   -4172.7673    -4675.787            0    10115.468    19.753993    20.072351    20.406091    8091.2004    10888.318    8650.9489    10807.139    166.34375    1261.4924   -459.03036   -2979.1232 
15613000    260.14201   -4724.2135   -4222.5077   -4724.2135            0    7074.4412    20.121737    19.775375    20.412805    8122.5591    4945.9556    8964.2543    7313.1136      68.3351    936.56172   -218.72193   -3384.4751 
15614000    271.05178   -4704.6081    -4181.862   -4704.6081            0    7780.0705    19.940886    19.861653    20.549565    8138.8395    8989.9549    7002.7904    7347.4662   -654.61555    586.58946    -1451.116   -3258.3938 
15615000    256.74998   -4685.0596   -4189.8957   -4685.0596            0    8846.7173    19.728827    19.839706    20.662901    8087.7519    9338.0251    9570.8117     7631.315    733.81189   -927.15831    3459.7037   -3146.4116 
15616000    240.87111   -4690.0631   -4225.5229   -4690.0631            0    7463.5181     20.19322    19.786418    20.428057    8162.0604    5602.2247    8377.9426     8410.387   -702.24986    357.10272    47.849851   -3337.1009 
15617000    247.15982    -4717.648   -4240.9795    -4717.648            0    6766.1511    19.731793     20.09924     20.69643    8208.0813    6912.8471    5888.6545    7496.9516    278.45776   -27.710051    350.16006   -3431.0276 
15618000    261.73378   -4721.7581   -4216.9826   -4721.7581            0    8291.9926     20.18882    19.700247    20.469135    8141.0817    7541.2545    9002.5151    8332.2081     632.9397     1930.783    1014.3224   -3232.4799 
15619000    255.60884   -4708.3136   -4215.3505   -4708.3136            0    9084.9717    19.770248    20.049115    20.441507    8102.5223    8608.1931    7894.4622     10752.26   -218.49353    299.60368    396.50571   -3141.8068 
15620000    257.23194   -4688.0364   -4191.9429   -4688.0364            0    7694.6052    19.913753     19.93082    20.578558    8167.5768    8932.6439    5906.2469    8244.9247   -1226.2148    435.48153    1491.3012   -3275.3944 
15621000    251.89651   -4711.1358   -4225.3322   -4711.1358            0    8275.0936    19.889388    19.863692    20.601215    8139.0597     6941.795    8431.4419     9452.044   -175.39837   -1768.9294    525.05362   -3243.0799 
15622000    265.19793   -4672.5507   -4161.0942   -4672.5507            0    8259.0324    19.785812    19.887177      20.5337    8079.6812    11245.104    7215.4934    6316.5001     82.92624    601.41774   -208.90589   -3187.9005 
15623000    260.27872   -4687.0231   -4185.0537   -4687.0231            0    9150.3471    20.117847    19.630366    20.429885    8068.1845    9207.6025    7456.1019    10787.337   -7.4498348     88.98207    943.74273   -3108.3671 
15624000     269.9005   -4721.7359   -4201.2101   -4721.7359            0    7907.5171    19.796324    20.176325    20.505003    8190.0482    9306.5002    6968.1367    7447.9142    -96.38278    646.19172   -914.21447   -3256.7089 
15625000    266.51932   -4678.5642   -4164.5593   -4678.5642            0    9551.4782    20.057525    19.980306    20.380909    8167.7611    9464.3988    9648.0938    9541.9421   -541.57409    -635.6706    302.77711   -3026.8023 
15626000    246.33483   -4710.7124    -4235.635   -4710.7124            0    7076.0979    19.934788    19.870175    20.592692    8156.9246    8859.2069    6562.5603    5806.5265    -174.7478    1043.9637   -406.84131   -3393.8597 
15627000    254.16048   -4691.0192   -4200.8494   -4691.0192            0    7570.6053    20.087394    19.898886    20.457153    8177.0668    9527.0122    5481.4915     7703.312     106.2383   -641.68997    609.21662   -3298.0234 
15628000    254.81368   -4694.7982   -4203.3686   -4694.7982            0    9498.5278     19.93108    20.031048    20.265558    8090.8302    11049.274    8942.0594    8504.2497   -187.81806    499.93257    1189.9925   -3082.5759 
15629000    281.94476   -4695.8555   -4152.1014   -4695.8555            0    7822.8097    20.016332     19.96041    20.440323    8166.6078    7532.5816    7813.9788    8121.8688   -160.94268     910.0347    679.16658   -3220.3922 
15630000     257.5667   -4733.6326   -4236.8935   -4733.6326            0    8404.4606    19.767523    19.882168     20.49686    8055.7009    10345.429    6372.3483    8495.6043    435.25321    411.87062    70.878631   -3249.5027 
15631000    248.77616   -4721.4474   -4241.6616   -4721.4474            0    8340.0088    20.029234    19.838685    20.530487    8157.8643    8124.9142    8334.4167    8560.6956   -196.41498     234.6128   -179.57877   -3249.4167 
15632000    276.45324    -4687.242   -4154.0787    -4687.242            0    9533.8241    19.935279    20.081816     20.23458    8100.6431    11965.348    6657.0007    9979.1237    926.28886     652.3769    690.62013   -3027.7568 
15633000    263.99097    -4665.647   -4156.5182    -4665.647            0    9010.3538    19.928845    19.884197    20.612522     8168.105    9968.6618     7779.113    9283.2865    327.02469   -989.42048   -706.24734   -3083.1739 
15634000    258.21796   -4703.9092   -4205.9142   -4703.9092            0    8441.9933    19.922869    19.970388    20.297229     8075.606    9775.6675    6793.7457    8756.5668   -242.35108   -125.23039   -1251.4803   -3211.6632 
15635000    262.40853   -4714.1176   -4208.0407   -4714.1176            0    8936.2475    19.931656    19.930396    20.428708    8115.2188     9493.732    8061.9959    9253.0146   -855.54143   -607.49415   -1018.9168   -3150.4166 
15636000    264.26748   -4691.7379   -4182.0758   -4691.7379            0    10254.423    19.673501    19.800031    20.645655    8042.2246    10199.222    11250.029    9314.0176   -630.57852    1977.5108   -534.53933   -2979.3592 
15637000    257.25733   -4715.1083   -4218.9659   -4715.1083            0    7302.9794    20.200515    19.587249    20.529742     8123.055    5487.7724    7448.0182    8973.1475    486.88244   -305.30306   -2458.6493    -3353.808 
15638000    247.05718   -4674.8103   -4198.3397   -4674.8103            0     8258.878    19.627584    20.001378    20.732152    8139.0021       8676.3    8424.5318    7675.8021    181.97609   -131.73798      2015.39   -3218.0192 
15639000    249.64726   -4720.2727    -4238.807   -4720.2727            0    7556.8412    19.994466    19.867872    20.452391    8124.6611    8678.8413    6194.7998    7796.8825   -546.85366   -565.38745    1130.3094    -3343.398 
15640000    264.76818   -4689.2435   -4178.6158   -4689.2435            0    8034.1427    19.768297    19.908653    20.630437    8119.3178    8068.4459    8364.7837    7669.1984    697.69521    -30.38994   -385.44559   -3227.2775 
15641000    261.46737   -4702.6505   -4198.3887   -4702.6505            0    7549.9966     20.00362    19.705408    20.627963      8131.12    7557.4855     7976.189    7116.3154   -203.23813    168.79139    134.99676   -3303.0796 
15642000    252.90947   -4693.1526   -4205.3954   -4693.1526            0    7604.9165    19.951043    19.866551    20.559291     8148.848    7207.9046    8575.9247    7030.9204     254.5774    171.69013   -114.21622   -3301.6075 
15643000    253.23313   -4692.4888   -4204.1074   -4692.4888            0    8463.9763    19.771822     20.19355    20.368481    8132.3865    10052.228    6841.2401     8498.461   -609.83904    738.69495   -25.165072   -3200.2585 
15644000    272.75453   -4721.2734   -4195.2433   -4721.2734            0    7234.4869    19.808032    19.844074      20.7515    8156.8349    7382.1671    7302.2931    7019.0007    384.53442   -481.17346    450.89544   -3334.6355 
15645000      261.349   -4698.1329   -4194.0994   -4698.1329            0     7795.159    19.766555    19.849821    20.631465    8095.0145    8051.2138    7453.3443    7880.9188    444.68785     585.8761    1902.1385   -3273.8225 
15646000    250.36554   -4710.0538   -4227.2028   -4710.0538            0    6773.9709    20.081724    19.919112    20.382868    8153.3532     6532.325    6651.2767    7138.3109    243.57456    1789.2031    649.31451   -3421.7215 
15647000    254.65567   -4721.7567   -4230.6318   -4721.7567            0    7277.8678    19.761969    19.821282    20.900162    8186.7513    8203.1611    7248.8818    6381.5604    180.56814    146.39576   -478.54384   -3361.6881 
15648000    255.23726   -4699.9888   -4207.7422   -4699.9888            0    8833.1983    19.668345    19.950221    20.596224    8081.7079     9502.628    7834.8412    9162.1256   -679.72843   -181.46235    75.177475   -3166.6313 
15649000    257.75399   -4681.1797   -4184.0795   -4681.1797            0    5480.1485    20.115929    19.865105    20.720093    8279.8534    5379.9666    5602.8205    5457.6582    82.267181    523.62932    1516.3996   -3522.3342 
15650000    256.60818   -4706.8522   -4211.9617   -4706.8522            0    7264.7312    20.007815     19.77559    20.550757    8131.2432    8666.3286    6991.3009    6136.5642    171.10489    161.00743    573.79237   -3350.4674 
15651000    263.84156   -4664.6054   -4155.7648   -4664.6054            0    8286.6193    19.923691    19.925024      20.4271    8109.1506    7493.2697    7826.7814    9539.8068    923.65552      525.227   -544.48958    -3175.759 
15652000    266.91192   -4689.6344   -4174.8723   -4689.6344            0    7996.0828    19.748144     19.86293    20.669864    8107.8784    8769.4685    7001.4414    8217.3384   -882.16166    425.30153   -594.36282   -3229.3748 
15653000    254.41723   -4686.0681   -4195.4031   -4686.0681            0    10695.492    19.699696    19.892996    20.615367     8078.873    12289.413     9422.375    10374.689    129.54097    24.771871    271.86892    -2935.238 
15654000    261.20003   -4692.9548   -4189.2086   -4692.9548            0     9254.092    19.946634    19.885555    20.317795    8059.0513    8248.3028    10182.846    9331.1266    759.22196    285.69243   -95.708674   -3101.5474 
15655000    254.68773   -4680.6629   -4189.4761   -4680.6629            0    7559.8836    19.667102    19.980782    20.633864    8108.3676    6610.7662    8606.8317     7462.053    745.77233    1848.9286    382.86593   -3295.5031 
15656000    259.60997   -4716.3464   -4215.6668   -4716.3464            0    9702.6294    19.716768    20.012783     20.52515    8098.9654    9915.2216    9126.8315    10065.835   -1034.8465   -465.62927   -1044.7133   -3069.6397 
15657000     272.0456   -4720.3012   -4195.6384   -4720.3012            0    5735.9946    19.965837    19.964662    20.596665    8210.0613    5219.2337    7065.6007    4923.1496   -48.159875   -1455.1567    333.39319   -3508.8372 
15658000    242.09682     -4702.36   -4235.4559     -4702.36            0    6658.3777    19.914458    20.008081    20.548187    8187.4265    7983.9299     5400.014    6591.1892    282.15738    75.397263   -424.97096   -3440.4109 
15659000    252.61932   -4706.4423   -4219.2447   -4706.4423            0    8346.6682     19.94535     19.92329    20.377369    8097.4979    7127.2041    10163.813    7748.9872   -154.91617   -748.58266    617.85974   -3233.5557 
15660000    271.69692   -4716.7808   -4192.7905   -4716.7808            0    6886.3867    19.596693    20.007369    20.907772    8197.4832    7651.4604     7244.935    5762.7647    186.74507    610.53599   -732.17385     -3369.51 
15661000    247.54194   -4689.8219   -4212.4164   -4689.8219            0    8561.6458    19.905452    19.800707    20.573877    8109.0294    7333.6171    11674.527    6676.7937   -398.85701     1085.629    -522.3483   -3199.9001 
15662000     266.7379   -4704.1099   -4189.6834   -4704.1099            0    7670.7169     20.08342    20.197485    20.152365    8174.4958    7890.0031    5699.5764    9422.5712   -194.90641    249.98334    -336.1647   -3275.2063 
15663000    263.76714   -4695.7415   -4187.0444   -4695.7415            0    7676.1758    19.867886    19.935397    20.527294    8130.3315    6789.2035    9145.2669    7094.0571    40.779126    1014.6375    144.12795   -3276.8607 
15664000    272.13648   -4739.2995   -4214.4614   -4739.2995            0    8553.0819     19.90375    19.641764    20.752628    8113.1311    9559.4739    9307.9756    6791.7961    102.25717   -628.49951    981.44981   -3202.4462 
15665000    263.47499   -4711.8799   -4203.7463   -4711.8799            0    8216.2998    19.901521    19.833697     20.45458    8073.8469    7376.5987     9645.183    7627.1177   -785.56624    1002.1303    540.24966    -3236.287 
15666000    271.71382   -4701.6238   -4177.6008   -4701.6238            0    7355.1909    19.890037     20.03227    20.457267    8151.0467    8540.0559    6888.5214    6636.9952    183.94772     1079.512   -75.715255    -3303.255 
15667000    269.98747   -4714.3055    -4193.612   -4714.3055            0    8092.0948    20.121006     19.65443    20.608456    8149.9622    5842.6365    10301.529    8132.1193    75.805377   -209.09035   -166.19491    -3231.795 
15668000    277.60864   -4697.5606    -4162.169   -4697.5606            0    9439.7477    19.819507    19.956068    20.611756    8152.3498     10064.27    8298.4072    9956.5662   -1.1800386    418.71113   -451.00598   -3039.8429 
15669000    259.86765   -4677.2925   -4176.1159   -4677.2925            0    5738.8503    19.924892    19.965222     20.68946    8230.3683    6647.2727     6069.136    4500.1423    179.28734    1108.7058    656.56441   -3487.2732 
15670000    257.65639   -4686.5266   -4189.6145   -4686.5266            0     8863.329    20.052849    19.860569    20.374397    8114.3275    9614.1495    8047.7531    8928.0843    114.25987    610.10123   -556.28951   -3140.7358 
15671000    259.13023   -4679.1896   -4179.4352   -4679.1896            0    8378.5383    19.960059    19.918989    20.380946     8103.142    6638.6314    7981.9352    10515.049    393.58337    718.94296   -924.36219   -3189.2929 
15672000    257.13146   -4700.0749   -4204.1753   -4700.0749            0    7918.8037     19.65992    19.821626    20.744684    8084.0291    8753.5853    7317.1036    7685.7222    935.90294    917.97356    827.16348   -3270.5699 
15673000    245.95756    -4693.982   -4219.6322    -4693.982            0    10188.912    19.845415    19.905841    20.472149     8087.311    9972.7967    10500.558     10093.38   -164.63686   -1543.6093    374.38619   -3017.8996 
15674000    262.78586   -4708.5868   -4201.7822   -4708.5868            0    5529.7527    19.935043    20.115221    20.485197    8214.5186    4421.4893    6451.7914    5715.9775    401.06413   -272.22831   -86.578766    -3539.316 
15675000    262.29152   -4699.7209   -4193.8696   -4699.7209            0    10654.236    19.699658     19.79018    20.569191    8019.1001    10151.686    12035.374    9775.6482   -323.50706   -305.36549    1496.8727    -2947.853 
15676000    251.81781   -4705.7439   -4220.0921   -4705.7439            0    10867.386    19.571714    20.178725    20.311719    8021.7526    13130.863    8198.2171    11273.077    697.56023    918.19608    539.08679   -2948.7271 
15677000    257.84655   -4686.8117    -4189.533   -4686.8117            0    7028.8103    19.964606    19.787474    20.617021    8144.7363    7246.8816    6178.4644     7661.085    856.98908   -249.58759   -161.09888   -3354.6324 
15678000    250.22032   -4674.1044   -4191.5335   -4674.1044            0    8101.0284    19.836941    19.779975      20.6723    8111.2772    11159.222    7170.9959    5972.8668   -555.58188    1062.2723    719.46797   -3233.2251 
15679000    260.81819   -4674.7324   -4171.7226   -4674.7324            0    7586.8486    20.169742    19.880137    20.464346    8205.7371    6211.8384    7413.0771    9135.6302   -383.67469    833.64592   -405.85639   -3263.7873 
15680000    270.88039     -4700.66   -4178.2444     -4700.66            0    9158.1074    19.823819    19.857566    20.570073    8097.4665    10434.033    9921.2047    7119.0845   -135.19792     -344.802    165.33069   -3096.7338 
15681000    251.77202   -4691.3648   -4205.8013   -4691.3648            0    7740.6402    19.667528    20.092399    20.546131    8119.1695    7360.3293    8061.0428    7800.5485    113.65005   -503.88528   -409.42051   -3289.2339 
15682000    260.40924   -4699.6123   -4197.3912   -4699.6123            0    7075.2054    20.034154    19.876392    20.461367    8147.8533    7192.7135     6298.082    7734.8208    1.0048458   -943.55187    622.80377   -3356.6581 
15683000    253.93725    -4715.708   -4225.9687    -4715.708            0    7157.1285    19.725833    20.090075    20.559994    8147.7908    8477.7653    6158.5463    6835.0739    587.00155   -1368.0663   -96.235617   -3375.5073 
15684000     249.6827   -4707.1486   -4225.6145   -4707.1486            0     6693.643    20.068131    19.734669    20.616833    8165.0481    6190.1264    6875.6457     7015.157    235.98638    934.19168   -1410.3081   -3428.5432 
15685000    269.73482   -4700.7124   -4180.5061   -4700.7124            0    7767.8513    19.772417    19.886116    20.700634    8139.4184    7426.8238    8595.5881    7281.1421    266.28771    593.37031   -1526.0631   -3258.4228 
15686000    270.24253   -4675.1101   -4153.9247   -4675.1101            0    8489.0077    19.650803    20.092382    20.370904     8043.073    8779.4325    7778.9204    8908.6701   -1325.4123   -1759.2327   -1494.2531   -3158.1643 
15687000     266.8183     -4717.15   -4202.5685     -4717.15            0     7202.658     19.92346    19.820044    20.531163     8107.425    7112.3234    8560.8462    5934.8044   -617.09873    601.76624    -1074.479   -3350.9372 
15688000    261.44234   -4683.8394   -4179.6259   -4683.8394            0    8951.7588     19.94475    19.952413    20.342364    8095.1602    8674.7078    8602.7106     9577.858   -1305.2998    -1901.449   -1026.3674   -3122.7848 
15689000    260.39462   -4738.5174   -4236.3244   -4738.5174            0      5143.04    19.983661    19.928063    20.646722    8222.2609    5909.2795    6033.2635    3486.5771   -246.08413    166.57528    181.82102   -3619.6058 
15690000    276.76198   -4697.1534   -4163.3947   -4697.1534            0    9733.1376    19.895824    20.051742    20.338531    8113.9738    11225.706     7962.348    10011.358   -491.34049    1738.1265   -325.54229   -3011.6337 
15691000    262.37881   -4696.4924   -4190.4728   -4696.4924            0    8502.8318    19.900858    19.890827    20.521642    8123.3798    8666.5159    9523.2838    7318.6957   -87.246869   -1014.5331   -238.71799   -3183.1325 
15692000    277.80212   -4721.8647      -4186.1   -4721.8647            0    8001.1837    19.987902    19.777908    20.544181    8121.5026    7736.1778    7856.5855    8410.7878   -640.74971   -447.07361   -430.51826   -3238.4095 
15693000    255.36617   -4673.7268   -4181.2317   -4673.7268            0    9330.5011    19.597149    19.939061    20.573494    8039.0668    10285.314    8233.6369    9472.5529    921.24202   -170.86927    809.36657   -3087.3093 
15694000    250.66064   -4654.2669   -4170.8468   -4654.2669            0     8958.652    19.839563    19.924938    20.502982    8104.8713    10748.941    8205.7112    7921.3033   -185.28556   -349.44737    1525.5261    -3111.923 
15695000      260.991   -4694.0237   -4190.6806   -4694.0237            0    8841.5522    20.256316    19.808264    20.223763    8114.6323    7426.6615    8712.7905    10385.205    382.09228   -533.43735   -765.50265   -3144.3396 
15696000    250.41039   -4688.5905    -4205.653   -4688.5905            0     7292.706    19.913913    19.924516    20.642524    8190.4392    6061.7061    9868.5462    5947.8658    214.62033   -557.53802   -183.32603   -3334.5454 
15697000    247.32845   -4670.4736   -4193.4799   -4670.4736            0      7874.97    19.874078    19.608711    20.900087    8144.8698     7378.977    9597.9185    6648.0143    229.04799     1166.076   -117.24659    -3258.055 
15698000    266.01411   -4709.7016    -4196.671   -4709.7016            0      6104.15    20.045592    20.008321    20.464046    8207.6915    7241.0926    5056.1812    6015.1761   -244.43569    257.86991   -731.71045   -3465.9996 
15699000    274.56897   -4699.4604   -4169.9311   -4699.4604            0    8681.8313    19.850464     19.89147    20.520404     8102.582    8545.6469    9243.8376    8256.0094   -342.67361    1524.3374    734.52425   -3144.0178 
15700000     248.5485    -4686.948   -4207.6013    -4686.948            0    8366.5606    19.889891    19.626019    20.784425    8113.3956     11275.47    6419.5012    7404.7103    1016.1469    1489.5768    1242.0948   -3217.6234 
15701000    254.01666   -4699.0945    -4209.202   -4699.0945            0    7135.4767     19.89659    20.050595    20.516073    8184.6509    6227.7459    7694.4395    7484.2447    355.58894     243.2542    1049.2239   -3357.4777 
15702000    265.64949   -4696.2455   -4183.9181   -4696.2455            0    6053.7887    19.880859    20.004959     20.46199    8138.0562    4994.8335    5636.0748    7530.4576    207.49378     217.6311    668.74665    -3465.423 
15703000    261.07873   -4716.7861   -4213.2738   -4716.7861            0    8661.0327    19.838782    19.616339    20.824029    8103.9684    8625.3432    9516.6058    7841.1491    348.28777     1473.428    301.07307   -3189.6431 
15704000    260.15358   -4722.5569   -4220.8289   -4722.5569            0    6346.6985    19.834203    19.831337    20.686387    8136.7578     8158.186    5924.8691    4957.0405    701.21562    1581.7238   -2392.5207   -3467.6899 
15705000    260.63257   -4733.2167   -4230.5649   -4733.2167            0    7570.0016    19.778638    19.930887    20.503243    8082.4973    8590.5051     6898.396    7221.1038   -386.08255    31.694674    702.45402   -3338.2515 
15706000    252.45176   -4715.6647   -4228.7902   -4715.6647            0    8551.8117    20.034637    19.956615    20.266595    8103.0618    7439.6198    8753.6785    9462.1367   -484.77464   -256.91322   -258.53535   -3218.1812 
15707000    251.40847     -4689.06   -4204.1977     -4689.06            0    6884.7002    19.833156    19.935262    20.663583    8169.9498    7150.4052    7287.3778    6216.3176   -547.43849   -978.56852    920.70458   -3383.8833 
15708000    261.29321   -4691.8888   -4187.9629   -4691.8888            0    8587.9304    20.023272    19.742201    20.609585    8147.0405    8691.3226    8081.4447     8991.024    40.214355     897.1142    76.615047   -3167.5774 
15709000    255.13264   -4694.3814   -4202.3367   -4694.3814            0    8926.0152    19.887129    20.085679    20.259786    8092.7005    11543.747    4585.9555    10648.343    183.66949    759.79429    577.40506    -3148.855 
15710000    265.91456   -4674.5207   -4161.6821   -4674.5207            0    7531.8225    19.921789    19.822292    20.711207    8178.7626      7250.89    8301.3851    7043.1925    -149.8369   -419.59652    505.04487   -3263.2949 
15711000    261.35317   -4695.6874   -4191.6458   -4695.6874            0    9284.3722    19.832679    19.683397    20.736827    8095.1284    8301.5428    10073.184    9478.3902   -165.43952   -1513.3171    821.94483   -3095.5407 
15712000    252.15099    -4663.889   -4177.5946    -4663.889            0    11794.641    19.729309    19.870454    20.487335    8031.6566    10814.472    12891.981     11677.47    275.48847   -733.88286    396.57232   -2796.0473 
15713000    266.56661   -4694.5477   -4180.4516   -4694.5477            0    6341.3931    19.884155    19.921352    20.605434    8162.2092    6343.3357    6949.2028    5731.6409   -587.51988   -67.875978   -1398.4571   -3425.5883 
15714000    262.13723   -4690.1925   -4184.6388   -4690.1925            0    7581.3294    19.779434     20.00807    20.504323     8114.551    7824.7428    7501.9608    7417.2847   -178.19035   -495.43989    2035.4429   -3287.4461 
15715000    242.80391   -4713.4619   -4245.1941   -4713.4619            0    8346.6608    19.857823    19.945037    20.496262    8117.8527    8565.8022    9490.1054    6984.0747   -50.407058   -125.98342    633.28637   -3257.0283 
15716000    260.75863   -4727.8845   -4224.9896   -4727.8845            0    6761.2584    19.867219    20.034576    20.475651    8149.9503    5350.2128    6538.5079    8395.0544   -477.85093    -1063.533    155.04886   -3421.3554 
15717000    247.83614   -4715.1476   -4237.1747   -4715.1476            0    8412.5052    19.779864     19.87344    20.629068    8109.1618    9515.4499    7241.5068     8480.559    -83.85975     599.7868    145.22415   -3242.2798 
15718000    263.56114   -4693.9937   -4185.6939   -4693.9937            0    7234.5591    20.109136    19.662237    20.693414    8181.9814    6820.8368    8514.6933     6368.147     1215.581   -1136.2846   -476.87097   -3322.4243 
15719000    264.51481   -4677.1198   -4166.9807   -4677.1198            0    9116.5777    19.651244     19.98491    20.349542    7991.8419    8242.5167      7910.28    11196.936    -308.8088     186.3202    234.59269   -3104.4179 
15720000    255.78189   -4724.2586   -4230.9617   -4724.2586            0    7613.0407    19.776869    20.044355    20.543221    8143.6322    6111.8644    9683.8222    7043.4355   -450.30773   -183.00722    1669.9925   -3326.7874 
15721000     256.5264   -4704.2586   -4209.5259   -4704.2586            0    8125.3086    20.002313    19.801933    20.618092    8166.5056    8455.1739    7684.0928    8236.6592   -99.251335   -1545.4869    340.25595   -3241.8007 
15722000     249.1042   -4702.3035   -4221.8851   -4702.3035            0    7657.4774    19.742051    20.049605    20.551979    8134.8911    8377.5611    6307.5814    8287.2897    14.961678    832.33768    899.45322   -3313.4093 
15723000    247.52294   -4703.1818    -4225.813   -4703.1818            0    5865.4825     20.14466     19.92608    20.389157    8184.2915    2183.4774    8419.5382    6993.4321   -327.68236    528.63072    804.17817   -3525.7119 
15724000    267.25618   -4707.9889   -4192.5629   -4707.9889            0    7669.7065    19.790096    20.229107     20.34394    8144.4112    8144.1032    7377.2429    7487.7736   -255.75057   -95.493211    364.10647   -3281.5714 
15725000    250.97247   -4695.5169   -4211.4954   -4695.5169            0    8437.9816    19.922006    19.698441    20.648333    8103.0759    7721.3252    9367.7153    8224.9042       323.11    -1241.892    729.33846   -3214.3365 
15726000    254.17966   -4682.0381   -4191.8313   -4682.0381            0    8667.8138    19.912202     19.80552     20.46401    8070.4228    7998.1438    8028.0193    9977.2783   -141.41534    -550.8411     600.3985   -3171.6397 
15727000     266.5821   -4643.0834   -4128.9574   -4643.0834            0     7868.195    20.177137    19.991546    20.233175    8161.4997    7241.5036    8698.1726    7664.9087    59.629408    -925.9191    1063.8211   -3192.4289 
15728000    270.88959   -4700.6009   -4178.1675   -4700.6009            0    6713.0839    19.990192    20.118437    20.451899    8225.1692    6784.9504      6654.04    6700.2612    299.08118    1291.8806   -140.38758   -3372.8951 
15729000    263.38219   -4702.9392   -4194.9845   -4702.9392            0    7090.4112    19.965627    19.731214    20.805804    8196.3645    6102.9611     7758.177    7410.0956    133.13506   -506.63726   -1190.7084   -3347.4282 
15730000    275.61531   -4688.2899   -4156.7426   -4688.2899            0    8072.4623    19.806508    19.888044    20.599328    8114.3373    8730.9422    7804.0361    7682.4087   -380.01327   -214.55695   -366.67302   -3201.4532 
15731000    274.43406   -4698.6739   -4169.4047   -4698.6739            0    8331.4475    19.637127    20.026154    20.510232    8065.7748    7272.5177    8050.1652    9671.6596    314.19452    483.62638   -674.23447   -3189.3678 
15732000    267.69838   -4708.4837   -4192.2049   -4708.4837            0    6119.8763    19.808892    19.809604    20.713294     8128.027    5509.1442    7088.8633    5761.6213    381.74821    1224.4903    1413.8188   -3466.7612 
15733000    271.67828   -4738.7666   -4214.8122   -4738.7666            0    8025.2897    19.917633     19.92344    20.398787    8094.8053    7132.7457    7625.7842    9317.3391    283.33198    721.26122    292.26657   -3267.3912 
15734000    259.86389   -4685.2809   -4184.1116   -4685.2809            0     7867.515    19.967678     20.12091    20.349039    8175.5897    8928.3896    6620.4667    8053.6885    28.709456    844.86629   0.88915509   -3246.0474 
15735000    254.12115   -4725.0488   -4234.9548   -4725.0488            0    5489.4969    19.967278    19.928845    20.589661    8193.1366    2960.0512    6754.6131    6753.8264   -721.76537    387.62792    1050.2706   -3579.0231 
15736000    254.51342   -4703.5191   -4212.6686   -4703.5191            0    7718.0867     19.98833    19.852428    20.538587    8150.0582    7049.2026    7718.1519    8386.9056    159.88308    281.07929    4.5827877   -3295.2949 
15737000    265.44154   -4716.7863     -4204.86   -4716.7863            0    7902.6787    19.873029    19.906171    20.709376    8192.5443    9241.2371    7676.6663    6790.1328     824.4053    92.504514    243.62395   -3260.6491 
15738000    269.36293   -4711.4724   -4191.9834   -4711.4724            0    7876.0092    19.938795    19.813939    20.690622    8174.1628    9371.0836    6555.1066    7701.8373    404.26166    279.59295   -1053.9242   -3253.0703 
15739000     254.4607   -4696.6514   -4205.9025   -4696.6514            0    7731.8327    19.760516    20.008779    20.547002    8123.9517    8920.3918    7105.5787    7169.5276   -316.75356     284.6395   -61.862417   -3289.8388 
15740000    265.03713   -4707.6417   -4196.4953   -4707.6417            0    7622.2153    19.903574    19.959401     20.57013    8171.7601     7706.151    9236.3628    5924.1322    1079.0433     -510.184   -145.52852   -3288.1046 
15741000      252.026   -4704.5991   -4218.5458   -4704.5991            0    6017.1586    20.001634    19.809873    20.564402    8148.2294    7080.1463    6313.2251    4658.1043    155.93731    1384.4952   -528.32941   -3503.5053 
15742000    262.81145    -4710.485    -4203.631    -4710.485            0     8016.708    19.925655    19.873802    20.619844    8165.4279    11162.469    6962.9532    5924.7017   -222.02468    517.69945    1582.8921   -3248.9662 
15743000    260.23187   -4670.1103   -4168.2312   -4670.1103            0    8901.4061    19.931582    19.867578    20.401531    8078.8487     6834.667    10987.552    8881.9989    332.65872   -114.39697    355.75838   -3119.4522 
15744000    264.92874    -4694.296   -4183.3587    -4694.296            0    7802.0397    19.956421    19.886393    20.581129    8167.8522    8153.0244     7525.768    7727.3268   -24.595738    181.19908    765.87904   -3253.9817 
15745000    265.61699   -4672.3672   -4160.1025   -4672.3672            0    8460.6398    19.983637    19.886507    20.550523    8166.8749    8019.5863    9572.2509    7790.0821    790.80418    144.46195   -364.59988   -3152.3938 
15746000    261.71657   -4689.6204    -4184.878   -4689.6204            0    5442.8467    19.830032    20.144991     20.50031    8189.3781    4182.2211    5299.1457    6847.1732   -79.755278    432.48238    140.46109   -3534.8188 
15747000     260.8222   -4705.6868   -4202.6693   -4705.6868            0    9853.4004    19.946371    19.766946    20.542665    8099.5385    9680.4014    11274.047    8605.7525   -423.31496    248.55735    1275.3059   -3038.7515 
15748000    272.14896   -4692.4081   -4167.5459   -4692.4081            0    8541.5092    19.679153    20.150158    20.462396    8114.1187    10440.274     7619.286    7564.9673     303.8546    668.88513   -433.23225    -3156.777 
15749000    249.99091   -4704.9968   -4222.8683   -4704.9968            0    8345.7885    19.985491    19.948738    20.462363    8158.0439    7472.1817       9049.5    8515.6837   -499.70616    1043.2339   -319.08716   -3229.9139 
15750000    270.43295   -4680.9868   -4159.4341   -4680.9868            0    8190.5764    19.945803    19.884834    20.638205    8185.5039    6572.9063    10489.814    7509.0086    577.39494    1188.0817   -1525.5288   -3181.6662 
Loop time of 429.966 on 64 procs for 250000 steps with 972 atoms

Performance: 100.473 ns/day, 0.239 hours/ns, 581.441 timesteps/s
99.1% CPU use with 64 MPI tasks x 1 OpenMP threads

MPI task timing breakdown:
Section |  min time  |  avg time  |  max time  |%varavg| %total
---------------------------------------------------------------
Pair    | 20.636     | 28.9       | 37.844     |  79.9 |  6.72
Bond    | 0.27074    | 0.28137    | 0.29059    |   0.9 |  0.07
Kspace  | 174.12     | 185.5      | 198.14     |  41.6 | 43.14
Neigh   | 3.0147     | 3.5636     | 4.1007     |  18.1 |  0.83
Comm    | 86.774     | 96.629     | 106.98     |  54.6 | 22.47
Output  | 1.2256     | 1.2271     | 1.24       |   0.2 |  0.29
Modify  | 105.21     | 108.29     | 111.63     |  19.1 | 25.19
Other   |            | 5.57       |            |       |  1.30

Nlocal:        15.1875 ave          20 max          11 min
Histogram: 1 6 7 13 10 4 15 6 1 1
Nghost:        2268.53 ave        2291 max        2239 min
Histogram: 2 3 6 8 7 7 6 9 10 6
Neighs:        4801.06 ave        6722 max        3322 min
Histogram: 3 11 5 10 10 10 5 5 2 3

Total # of neighbors = 307268
Ave neighs/atom = 316.11934
Ave special neighs/atom = 2.0000000
Neighbor list builds = 7867
Dangerous builds = 0

unfix		3
unfix		2
unfix		1

write_data	data.final.${pid}
write_data	data.final.0
System init for write_data ...
PPPM initialization ...
  extracting TIP4P info from pair style
  using 12-bit tables for long-range coulomb (../kspace.cpp:340)
  G vector (1/distance) = 0.3716487
  grid = 24 24 24
  stencil order = 5
  estimated absolute RMS force accuracy = 0.0035781512
  estimated relative force accuracy = 1.0775496e-05
  using double precision FFTW3
  3d grid and FFT values/proc = 2197 216
Last active /omp style is kspace_style pppm/tip4p/omp
WARNING: Not all mixed pair coeffs generated from mixing. Use write_data with 'pair ij' option to store all pair coeffs. (../write_data.cpp:312)

write_restart   restart.lmp.${pid}
write_restart   restart.lmp.0
System init for write_restart ...
PPPM initialization ...
  extracting TIP4P info from pair style
  using 12-bit tables for long-range coulomb (../kspace.cpp:340)
  G vector (1/distance) = 0.3716487
  grid = 24 24 24
  stencil order = 5
  estimated absolute RMS force accuracy = 0.0035781512
  estimated relative force accuracy = 1.0775496e-05
  using double precision FFTW3
  3d grid and FFT values/proc = 2197 216
Last active /omp style is kspace_style pppm/tip4p/omp
Total wall time: 0:07:11
