LAMMPS (30 Jul 2021)
  using 1 OpenMP thread(s) per MPI task
package omp 0
using multi-threaded neighbor list subroutines
echo both

include		in.partitions
variable        pid world 0
include		in.temp
variable        temperature equal 231.99
variable	tempDamp equal 100.0
include		in.pressure
variable        pressure equal 3250.0
variable        pressureDamp equal 1000.0 # This is 1 ps
include		in.seed
variable        seed world 745823

units		real
atom_style	full
read_restart    restart.lmp.${pid}
read_restart    restart.lmp.0
Reading restart file ...
  restart file = 30 Jul 2021, LAMMPS = 30 Jul 2021
  restoring atom style full from restart
  triclinic box = (-3.2659109 -0.17901860 -0.14163813) to (14.875910 22.759018 19.371636) with tilt (0.038092744 -6.3256242 -0.066156667)
  4 by 4 by 4 MPI processor grid
  restoring pair style lj/cut/tip4p/long/omp from restart
  restoring bond style harmonic/omp from restart
  restoring angle style harmonic/omp from restart
  1008 atoms
  672 bonds
  336 angles
Finding 1-2 1-3 1-4 neighbors ...
  special bond factors lj:    0        0        0       
  special bond factors coul:  0        0        0       
     2 = max # of 1-2 neighbors
     1 = max # of 1-3 neighbors
     1 = max # of 1-4 neighbors
     2 = max # of special neighbors
  special bonds CPU = 1.268 seconds
  read_restart CPU = 1.528 seconds

include 	in.setup
variable	out_freq equal 1000
variable	out_freq2 equal 10000
variable	out_freq3 equal 1000

timestep	2.0

neigh_modify    delay 7 every 1

include		in.tip4p
# This is TIP4P/Ice

# create groups ###
group ox type 2
336 atoms in group ox
group hy type 1
672 atoms in group hy

# set charges - beside manually ###
set group ox charge -1.1794
Setting atom values ...
  336 settings made for charge
set group hy charge 0.5897
Setting atom values ...
  672 settings made for charge

# ### TIP3P Potential Parameters ###
pair_style lj/cut/tip4p/long/omp 2 1 1 1 0.1577 8.5
pair_coeff 1 1*2 0.000 0.000
pair_coeff 2 2 0.21084 3.1668
bond_style  harmonic
bond_coeff  1 450 0.9572
angle_style harmonic
angle_coeff 1 55 104.52
kspace_style pppm/tip4p/omp 1.0e-5
pair_modify tail yes

thermo          ${out_freq}
thermo          1000
thermo_style    custom step temp pe etotal epair emol press lx ly lz vol pxx pyy pzz pxy pxz pyz enthalpy

restart 	${out_freq3} restart.lmp.${pid} restart2.lmp.${pid}
restart 	1000 restart.lmp.${pid} restart2.lmp.${pid}
restart 	1000 restart.lmp.0 restart2.lmp.${pid}
restart 	1000 restart.lmp.0 restart2.lmp.0


include         in.dump
dump            myDump all atom ${out_freq2} dump.water.${pid}
dump            myDump all atom 10000 dump.water.${pid}
dump            myDump all atom 10000 dump.water.0
dump            myDump2 all dcd ${out_freq2} dump.dcd
dump            myDump2 all dcd 10000 dump.dcd
dump_modify     myDump append yes
dump_modify     myDump2 append yes


variable natoms 	equal  "count(all)"                        # NUMBER ATOMS
variable H      	equal  "enthalpy/v_natoms"                 # ENTHALPY-per-atom
variable Vol      	equal  "vol/v_natoms"                 # volume-per-atom
fix AVG all 		ave/time ${out_freq} 1 ${out_freq} v_Vol v_H file vol_enthalpy.dat
fix AVG all 		ave/time 1000 1 ${out_freq} v_Vol v_H file vol_enthalpy.dat
fix AVG all 		ave/time 1000 1 1000 v_Vol v_H file vol_enthalpy.dat



fix 		1 all shake 1e-6 200 0 b 1 a 1
       0 = # of size 2 clusters
       0 = # of size 3 clusters
       0 = # of size 4 clusters
     336 = # of frozen angles
  find clusters CPU = 0.238 seconds
fix             2 all nph tri ${pressure} ${pressure} ${pressureDamp}
fix             2 all nph tri 3250 ${pressure} ${pressureDamp}
fix             2 all nph tri 3250 3250 ${pressureDamp}
fix             2 all nph tri 3250 3250 1000
fix             3 all temp/csvr ${temperature} ${temperature} ${tempDamp} ${seed}
fix             3 all temp/csvr 231.99 ${temperature} ${tempDamp} ${seed}
fix             3 all temp/csvr 231.99 231.99 ${tempDamp} ${seed}
fix             3 all temp/csvr 231.99 231.99 100 ${seed}
fix             3 all temp/csvr 231.99 231.99 100 745823


run             250000
PPPM initialization ...
  extracting TIP4P info from pair style
  using 12-bit tables for long-range coulomb (../kspace.cpp:340)
  G vector (1/distance) = 0.37822578
  grid = 24 27 32
  stencil order = 5
  estimated absolute RMS force accuracy = 0.0025623226
  estimated relative force accuracy = 7.7163584e-06
  using double precision FFTW3
  3d grid and FFT values/proc = 3825 384
Last active /omp style is kspace_style pppm/tip4p/omp
Neighbor list info ...
  update every 1 steps, delay 7 steps, check yes
  max neighbors/atom: 2000, page size: 100000
  master list distance cutoff = 10.8154
  ghost atom cutoff = 10.8154
  binsize = 5.4077, bins = 5 5 4
  1 neighbor lists, perpetual/occasional/extra = 1 0 0
  (1) pair lj/cut/tip4p/long/omp, perpetual
      attributes: half, newton on, omp
      pair build: half/bin/newton/tri/omp
      stencil: half/bin/3d/tri
      bin: standard
Per MPI rank memory allocation (min/avg/max) = 9.312 | 9.325 | 9.336 Mbytes
Step Temp PotEng TotEng E_pair E_mol Press Lx Ly Lz Volume Pxx Pyy Pzz Pxy Pxz Pyz Enthalpy 
15000000     237.2713   -4855.8419     -4381.27   -4855.8419            0    3066.9216    18.141821    22.938036    19.513274    8120.2099    3349.8186    3509.0414    2341.9048   -8.4503307   -548.09419    507.74685     -4018.07 
15001000    232.10961   -4883.6124   -4419.3645   -4883.6124            0    3496.6026    18.231236    22.923866    19.438718    8124.0317    1960.3965    3366.4898    5162.9217    462.44255   -729.82042   -729.66325   -4005.0847 
15002000    230.32159   -4872.4369   -4411.7653   -4872.4369            0    2075.2937    18.061615    23.090948    19.557393    8156.6023    1166.7557    1864.4684    3194.6569   -1037.5807   -133.36809    440.79435   -4164.8973 
15003000    238.25207   -4905.3859   -4428.8523   -4905.3859            0     1888.534    18.253022    22.928414    19.474965    8150.5229     3241.445    1385.9923    1038.1646    21.631069   -565.18702    1088.6888   -4204.3679 
15004000     228.0866   -4910.3792   -4454.1779   -4910.3792            0    3795.6801    18.241677     22.74301     19.41284    8053.8171    4966.0201    2536.5071    3884.5132   -753.62359   -218.24277   -1098.6466   -4008.3499 
15005000    228.16083   -4870.8268   -4414.4769   -4870.8268            0    2373.4664     18.17525    22.921445    19.550333    8144.7273    2295.5214     3195.255    1629.6228   -1004.7994    717.39782    386.12339   -4132.5507 
15006000     234.9276   -4878.0276   -4408.1434   -4878.0276            0     2725.849    18.207979    22.935678     19.48931    8138.9766    3931.6204    2839.0633    1406.8634    -190.4425    69.924244    -510.5926   -4084.5889 
15007000    222.94855   -4864.1696   -4418.2449   -4864.1696            0    5626.3133    18.004294    22.946834    19.427044    8026.1186    5151.2962    5511.2906    6216.3532    498.88539   -605.83337   -1074.1954   -3759.6697 
15008000    231.25369    -4867.709    -4405.173    -4867.709            0    5028.1726    18.096419    22.869676    19.465447     8055.955    6065.6864     4785.284    4233.5474   -898.69427    685.64832   -266.51799   -3814.4239 
15009000    249.53218   -4891.9829   -4392.8877   -4891.9829            0    3130.5401     18.24729    22.836832    19.531785    8139.0956    1549.9888    4791.6891    3049.9426   -959.51314    235.57503   -404.28071   -4021.2914 
15010000    233.99802   -4867.8708   -4399.8458   -4867.8708            0    1266.1436    18.303202    22.536225    19.853651    8189.3347    2113.2545     2115.231   -430.05455   -105.25445   -687.72091     671.7198   -4248.6264 
15011000     233.0177   -4888.5597   -4422.4955   -4888.5597            0    4049.6719    18.190694    22.870944    19.322696    8038.9825     4735.631    3802.2319    3611.1529     582.1396   -512.28971    464.88761   -3947.7107 
15012000    238.98124   -4850.0703   -4372.0783   -4850.0703            0    3094.2778    18.012957    23.315019    19.368821    8134.3709    2397.9503    2719.0302    4165.8529   -266.41345    717.68696    232.83262   -4004.9996 
15013000    238.88426   -4853.2095   -4375.4115   -4853.2095            0    2727.7498    17.911543    23.294541    19.458312    8118.8088    4180.6642    1918.9124    2083.6727     203.3739   -222.08806    237.94954   -4052.4336 
15014000     232.4669   -4885.7205    -4420.758   -4885.7205            0    4131.8985    18.281325    23.037398    19.167087    8072.2982    2110.1828     4324.355    5961.1579    1401.0309    318.71826   -46.070051   -3934.3253 
15015000    230.44338   -4871.7579   -4410.8426   -4871.7579            0    3611.4742     18.19573    22.722644    19.546271    8081.5055     2031.326    4455.2813    4347.8154   -491.57468    702.38945   -989.41454   -3985.1926 
15016000    235.27637   -4877.5902   -4407.0084   -4877.5902            0    2690.1554    18.408962    22.647155    19.536762    8145.0837    2314.9531    3390.1292     2365.384     1699.755    1245.6581   -23.911069    -4087.451 
15017000    234.82441   -4887.8294   -4418.1516   -4887.8294            0    3191.7736    18.151694    22.978568    19.440603    8108.6742     2958.166    3605.6329    3011.5219    1082.7147    902.15097    605.30438    -4040.703 
15018000    219.47208   -4873.7879   -4434.8166   -4873.7879            0     1796.322    18.108714    23.248985    19.363311    8152.1321    2490.8205    35.018207    2863.1273   -285.79225   -1642.9974   -1635.1849    -4221.251 
15019000    225.42823    -4866.988   -4416.1037    -4866.988            0    2810.0776     17.92123    23.239754    19.510262     8125.731    4157.4927    2625.0612    1647.6787    -36.46503    623.95962    357.11071   -4083.0942 
15020000    225.82592   -4874.5243   -4422.8446   -4874.5243            0    3786.5854    18.229655    22.820842    19.506254    8114.9154    3545.9173    4780.1738    3033.6651    291.44207   -136.14053    775.13849   -3974.7108 
15021000     227.0236   -4893.5608   -4439.4855   -4893.5608            0    3229.9011    18.288746    22.805468    19.399454    8091.1904    1911.8652    4561.0253     3216.813    -640.8651    127.58793    526.09803   -4058.3517 
15022000    236.93896    -4889.394   -4415.4868    -4889.394            0     2629.686    18.212693    22.989966     19.41609    8129.6951    1762.4153    2678.1632    3448.4794    -1166.081   -198.08662   -1089.4664   -4103.7026 
15023000    226.12358   -4893.7493   -4441.4742   -4893.7493            0    4171.9142    17.863638    23.279034    19.428866    8079.4594      6902.38    2760.3611    2853.0014   -786.22819    570.91014   -918.83236    -3949.895 
15024000    253.80989   -4877.9971    -4370.346   -4877.9971            0    1930.9177     18.08871    23.193209    19.400053    8139.0054    2832.4655    1521.6383    1438.6492    300.95957   -48.422707   -1665.0082   -4141.1479 
15025000    247.48673   -4882.6973   -4387.6932   -4882.6973            0    3554.7595    18.101565    22.901439    19.533434    8097.6218    4182.9352    3218.4128    3262.9304     1375.656   -22.706288   -754.23217   -3967.8921 
15026000    236.75871   -4869.3384   -4395.7917   -4869.3384            0    2988.6641    18.283929    22.613724    19.646247    8123.0891    3282.3596    3465.2779    2218.3548    -444.0067    331.97929    1701.0539   -4041.7339 
15027000    239.40846   -4872.1649   -4393.3184   -4872.1649            0    2983.2963    18.257435    22.890504    19.481725    8141.8395    1424.0862    3751.8872    3773.9156     183.8953    848.27936   -59.370808   -4039.0807 
15028000    236.06094    -4892.713    -4420.562    -4892.713            0    5891.6631    18.111593    22.855506    19.341402    8006.3661    4554.7186    5920.6871    7199.5836       1213.9   -160.73578    201.69174   -3732.6241 
15029000     233.5097   -4879.3532    -4412.305   -4879.3532            0     3023.374    18.102593    23.096599    19.508946    8156.8529    4409.1899    2558.4083    2102.5237    2160.6418   -176.40824    602.76477   -4052.6464 
15030000    236.52951   -4865.2462    -4392.158   -4865.2462            0    1992.1855    18.015575    23.169166    19.505872    8141.8651    3017.3142    1066.3167    1892.9257   -715.77425   -395.33837    -1145.325   -4155.6044 
15031000    233.72982   -4846.2173   -4378.7287   -4846.2173            0    2084.0587    18.209181    23.076412    19.426723    8163.1589    2062.3496    1457.7965    2732.0299    2727.5803   -1417.8065    2018.9401   -4130.6188 
15032000    234.78617   -4876.5401   -4406.9387   -4876.5401            0    3359.5651    18.077183    22.997079    19.445147    8083.7829     5009.328    2079.2126    2990.1548    1047.9423   -860.60729    -833.1861   -4010.8672 
15033000      238.154   -4887.1667   -4410.8293   -4887.1667            0    4485.7366    18.183522    22.919796    19.380959     8077.259     3677.835    5693.3365    4086.0383    638.41384    787.61872    1732.5311   -3882.4161 
15034000    219.52021   -4882.6015    -4443.534   -4882.6015            0     2546.103    18.093855    22.856231     19.58298    8098.6848    3347.4661    2614.5473    1676.2958   -1064.4142   -915.28891   -2206.4691   -4142.8112 
15035000     228.0102   -4903.4019   -4447.3533   -4903.4019            0    4053.8046    18.266398    22.857074    19.335225    8072.7737    2631.4666    5221.2337    4308.7134    1887.4327    1610.1625    1028.7011   -3970.0863 
15036000    220.44307   -4885.8601   -4444.9467   -4885.8601            0    3097.7963    18.221076    23.001094    19.424655    8140.9634    2851.0053    3221.7398    3220.6437    410.87198    591.93774    1487.6253   -4077.1528 
15037000    240.92324   -4888.0621   -4406.1859   -4888.0621            0    4490.6784    18.009666    22.768322    19.643236    8054.7066    4246.8545    5556.0588    3669.1219    506.38846   -40.532557   -502.00982   -3878.6676 
15038000    232.29866    -4885.776     -4421.15    -4885.776            0    3150.3745    18.274391    22.862555    19.377706    8095.9914    2817.8145    2748.3075    3885.0015    297.03351    -1067.395    -411.5345   -4049.1798 
15039000    223.17112   -4868.3703   -4422.0005   -4868.3703            0    2187.4507     18.25824    22.932334     19.45423    8145.5649    3145.8906    1842.4738    1573.9876    712.63628   -1198.4785    756.47824   -4162.1429 
15040000    229.06001   -4868.6382   -4410.4899   -4868.6382            0    2335.6088    18.117116    22.886666    19.594634    8124.7264    3330.6044    1791.2881     1884.934   -813.51442   -1319.0718    455.93978   -4133.7417 
15041000    241.28344   -4897.1599   -4414.5632   -4897.1599            0    2387.7569     18.20895    23.029009    19.407794    8138.3493     2554.864    1932.6482    2675.7585    671.77803     1662.695    375.34015   -4131.1616 
15042000    231.62785   -4880.9507   -4417.6664   -4880.9507            0    1281.1091    17.933469    23.299382    19.593652    8186.9871    2380.9944    1216.5488    245.78423    -2411.816    66.558739    947.65244   -4264.7035 
15043000    242.00649   -4882.0994   -4398.0565   -4882.0994            0     3288.135    18.180869    23.083681    19.340611    8116.8941    3724.8662    2890.9707     3248.568   -140.60802   -70.933651    734.77501   -4008.8184 
15044000    220.08793   -4884.7456   -4444.5425   -4884.7456            0    4303.9535    18.083273    22.920039    19.467522    8068.6907    4273.9752    4474.8951    4162.9902    434.17965    125.49967   -875.89956   -3938.0809 
15045000    223.90239   -4894.3958   -4446.5633   -4894.3958            0    3778.5064    18.255782    22.842393    19.367814    8076.4901    2416.3872    4037.2061     4881.926    836.17521   -718.96591   -251.03651   -4001.5032 
15046000    229.32061   -4890.1057   -4431.4362   -4890.1057            0    3512.6676    18.052846     22.88069    19.680537    8129.2739    4169.1718    3337.7439     3031.087   -363.20099   -122.63836    -1605.608   -4014.9844 
15047000    226.20697   -4862.1999    -4409.758   -4862.1999            0    3102.2811    18.134231     22.94566    19.435484    8087.1419    2806.1999    3678.7815     2821.862    315.47471   -600.29455   -337.44223   -4043.8667 
15048000    230.47885   -4892.1028   -4431.1166   -4892.1028            0    3345.0234    18.135098    22.796526    19.560318    8086.5724    3302.2357    4235.7728    2497.0616    852.62593   -384.54767    120.43897   -4036.6234 
15049000    248.03738    -4886.355   -4390.2496    -4886.355            0    5852.7199    18.337281    22.569696    19.341787    8004.9245    4278.6291    6508.7709    6770.7597    767.42432   -109.47221    195.16756   -3706.9819 
15050000    225.20496   -4885.9313   -4435.4935   -4885.9313            0    2778.2011    18.170664    22.772791     19.69473     8149.615     4379.581    2469.9739    1485.0483   -656.10244   -17.192459    355.32374   -4105.2938 
15051000    246.72311   -4860.2584   -4366.7817   -4860.2584            0    2200.8501    18.165646    23.066818    19.448282    8149.2902    3130.0808    1754.2471    1718.2225    187.35207   -248.88233    -1351.837   -4105.2128 
15052000    231.68895   -4900.0748   -4436.6683   -4900.0748            0    3729.0312    18.063422    23.146432    19.258485    8052.0452    5279.4074    2749.2034    3158.4828    265.52839    1263.5689   -633.81959   -3998.7651 
15053000    227.57365     -4902.76   -4447.5846     -4902.76            0     3736.622    18.009747    23.255548    19.326642    8094.5107    5039.9709    3020.9231    3148.9719    43.494028   -80.710318    658.98827   -4006.4759 
15054000    233.55648   -4853.3181   -4386.1763   -4853.3181            0    4693.9058    17.954501    22.963103     19.58728    8075.6607    7441.0976    3930.8411    2709.7787    26.651521    500.24591   -555.33781   -3833.3505 
15055000    237.66078   -4876.1152   -4400.7643   -4876.1152            0    3336.6281    18.319384    22.751005    19.472003    8115.6271     2606.068    3899.0635    3504.7527    676.53871    1079.5798    1370.9602   -4005.8474 
15056000    247.06109   -4871.7091   -4377.5564   -4871.7091            0    2431.6734     18.36586    22.925617    19.436315    8183.6349    1104.4578    2737.2791    3453.2833   -152.72242    508.81848    -662.5452   -4087.3363 
15057000    224.79351   -4898.5488    -4448.934   -4898.5488            0    3489.8635    17.988865    23.092966    19.489793    8096.3767     1035.867    4156.7713    5276.9523    444.06214    1893.5972    211.66486   -4036.8601 
15058000    232.86337   -4889.1942   -4423.4387   -4889.1942            0     1813.924    18.197427    23.213297    19.359352    8177.8216    1922.3118    589.96783    2929.4923   -1127.1057   -528.18694   -167.57789   -4207.1008 
15059000    222.20744   -4863.8344   -4419.3921   -4863.8344            0    2850.6192    18.005583    23.243752    19.408682    8122.8694    2169.5764    1872.5264    4509.7548    376.86197   -158.72468    235.63913   -4081.6971 
15060000    243.62838   -4899.6745   -4412.3876   -4899.6745            0    3112.3512    18.117452    22.803073    19.600255    8097.5235    2746.0956    3834.6457    2756.3124   -216.09975   -294.84124   -858.25752   -4044.8374 
15061000    235.70699   -4862.3307   -4390.8876   -4862.3307            0     3026.039    18.305641    22.803361    19.518899    8147.7765    2791.6374     2949.518    3336.9616   -1209.8722   -628.44011    683.36229   -4031.3126 
15062000    245.76516   -4865.2996    -4373.739   -4865.2996            0    2816.5576    18.197198     22.84101    19.595628    8144.7735    2189.0727    3342.7502    2917.8499   -173.99501   -237.12267   -103.73482   -4039.1793 
15063000    246.18694   -4888.9867   -4396.5824   -4888.9867            0    3499.8478    18.177924    22.927216    19.552451    8148.8593    4117.4037    4180.1506     2201.989    29.663769    258.68105     386.4394   -3980.6509 
15064000    232.92777   -4881.8537   -4415.9694   -4881.8537            0    2151.4391    18.276137    23.096148    19.276985    8136.9767    3360.5409     931.7701    2162.0064    466.31528   -50.440681   -1298.5416   -4160.6593 
15065000    229.96631   -4901.6713   -4441.7102   -4901.6713            0    3585.8406    17.941911    23.252802    19.370323    8081.2933    5335.1624    2322.4085    3099.9507    647.92337    231.07271    -670.3427   -4019.0925 
15066000    239.74568   -4860.9584   -4381.4374   -4860.9584            0    2866.9473    18.122965    23.147368    19.336278    8111.5482    3486.7144    2709.6707    2404.4569   -346.38043    776.96989    47.221679   -4042.2816 
15067000      223.384   -4873.7894   -4426.9938   -4873.7894            0    3129.9074    18.204831    22.773808    19.639277    8142.3131    4268.0839    3037.8861    2083.7521   -136.23451   -202.67065     2209.422   -4055.3258 
15068000    230.90246   -4870.5969   -4408.7635   -4870.5969            0    5108.7711    18.253563    22.605698    19.458858    8029.3967    3724.5288    6134.1727    5467.6116   -706.99958    80.920483    734.09347   -3810.5238 
15069000    231.24351   -4907.6767   -4445.1611   -4907.6767            0    3056.5824    18.278125    22.808054    19.473715    8118.3671    1764.0939    3882.9672     3522.686    1071.9323    578.04483    711.55885   -4083.2677 
15070000    239.83035   -4891.7705   -4412.0801   -4891.7705            0    1470.6671    18.100902    23.081377    19.565159    8174.2007    2734.3005    287.68783    1390.0128   -266.29112   -50.520082    508.42793   -4236.7585 
15071000    236.82515   -4890.8359   -4417.1564   -4890.8359            0    3593.2459    18.179774    23.036493    19.195281    8038.9498     3957.297    2873.7635    3948.6773    2284.5037    430.53799    1057.2585   -3995.8848 
15072000     235.5529   -4830.8993   -4359.7644   -4830.8993            0    1631.0444    18.222797    23.129321    19.429929    8189.3444    1352.4223    1254.3722    2286.3385   -1571.9953    3.6445539   -517.06408   -4164.9635 
15073000    228.83174   -4906.9347    -4449.243   -4906.9347            0    3386.2023    18.061294    22.854034     19.59592    8088.6749    4394.2881    3749.0492    2015.2696   -405.37788   -1195.7736     -222.308   -4049.7895 
15074000    228.53489   -4911.3187   -4454.2207   -4911.3187            0    1993.9172     18.32906    22.920284    19.407714    8153.3216    201.11297    2895.6994    2884.9391    937.11859    -82.54677   -271.54279   -4217.1283 
15075000    233.65536   -4891.1017   -4423.7622   -4891.1017            0    3101.7498    18.092035    22.971626    19.474857     8093.818    3143.1979    2572.2399    3589.8118   -487.79379   -228.47463    1428.1998   -4057.6315 
15076000    236.89748   -4887.7933   -4413.9691   -4887.7933            0    2185.5648    18.277075    22.945804    19.472073    8166.2407    1836.8185    2411.0867    2308.7892    415.24906   -158.17195   -1271.4135   -4153.6765 
15077000    219.24632   -4895.1968   -4456.6771   -4895.1968            0     3914.746    18.357074    22.730113    19.315841    8059.6962    3337.6204    4305.4945    4101.1232    416.29963    194.81456   -1048.0287   -3996.5284 
15078000    245.42046   -4862.2998   -4371.4285   -4862.2998            0    4292.4582    18.056535    22.930329    19.560256    8098.7728    5664.4153    3780.8167    3432.1426    1089.2403    79.677328    1213.3748   -3864.4364 
15079000    236.71085   -4902.1016   -4428.6507   -4902.1016            0    3636.8748    18.042986    23.090117    19.436843    8097.6736    5324.2141    3378.5479    2207.8624   -151.33179    10.089061    321.50126   -3999.1494 
15080000    246.45518    -4877.842   -4384.9012    -4877.842            0    1566.4683    18.162732    23.168134    19.416463    8170.3816    1893.3402    1511.4378    1294.6269    725.14783   -322.45752    1205.5447   -4198.2461 
15081000     242.0406   -4891.3509   -4407.2398   -4891.3509            0    3453.9542    17.988532    23.096935    19.472166    8090.2949    3967.2645    3075.7175    3318.8805   -679.90395   -478.43778   -2766.5924   -3999.7124 
15082000    233.78711   -4905.1368   -4437.5337   -4905.1368            0    3395.8324     18.14579    22.928517    19.480897    8105.1453     3538.074    3318.7021     3330.721   -118.61724   -221.69923    2012.3749   -4036.1285 
15083000    236.17779   -4878.0937    -4405.709   -4878.0937            0    4356.1187    18.228956    22.836905    19.498701    8117.1713    4234.0956    4894.7709    3939.4895   -122.78589    281.00766   -1175.0886   -3890.0289 
15084000    242.76171   -4867.4016   -4381.8482   -4867.4016            0    4316.3706      18.2674    22.609272    19.569443    8082.4267    4469.2597    4385.1043    4094.7479     321.4133   -700.82268    2105.6414   -3873.0608 
15085000      227.451   -4884.7114   -4429.7813   -4884.7114            0    4245.9059    18.181454    22.813362    19.522535    8097.5589    4510.4365    4158.3966    4068.8845    603.70981    999.46862   -554.73003   -3928.3628 
15086000    227.56625   -4886.1927   -4431.0321   -4886.1927            0     1821.907    18.194198    23.004382    19.463176    8146.2402    2967.7858    1403.8318    1094.1035   -1662.1214     258.4303   -1034.6375   -4214.5813 
15087000    235.13001   -4898.7881    -4428.499   -4898.7881            0    3775.7527    18.108836    22.878925    19.544479    8097.4866    5489.1427    3860.7539    1977.3614   -505.70159    483.55985    1784.2297    -3982.607 
15088000    238.54259    -4898.556   -4421.4413    -4898.556            0    1805.1936    18.170553    23.131878    19.407941    8157.5264    1619.3542    1739.7726    2056.4541   -2225.5512    1365.6417   -1286.3053    -4206.679 
15089000    220.93667    -4904.833   -4462.9324    -4904.833            0    2801.7445    17.971465    23.072884    19.531789    8098.9253    4892.9949    1668.0111    1844.2273    648.25684   -111.47482    700.29478   -4132.0057 
15090000    221.40134   -4866.8709   -4424.0408   -4866.8709            0    4273.6773     18.22199    22.853063    19.357589    8061.0476    2496.3044    4827.8459    5496.8817   -1521.7027   -269.07838   -1516.4799   -3921.6183 
15091000    216.98852    -4867.283   -4433.2791    -4867.283            0    1802.3515    18.132721    23.079201    19.506918    8163.4248    3702.7743    436.47332     1267.807    337.68803   -1530.4134    1478.6975   -4218.6998 
15092000    235.40843   -4901.5047   -4430.6587   -4901.5047            0    2994.4385    17.929438    23.077322    19.563103    8094.4962    2894.7821      3303.04    2785.4933    1576.4486    1080.0446    1792.0107   -4077.1655 
15093000    239.21534   -4884.9302   -4406.4699   -4884.9302            0    3670.2553    18.138549    23.033402    19.380307    8096.9465    3037.0247    3546.4264    4427.3147    832.86953    28.963531    -964.9266   -3973.0654 
15094000    233.92687    -4886.633   -4418.7504    -4886.633            0    3683.7551    18.269005    22.999732    19.317442    8116.8455    2877.7124    3807.0731    4366.4798    779.60972   -36.139271   -843.94748   -3982.6827 
15095000    215.21205   -4885.0554   -4454.6047   -4885.0554            0    3612.4309    18.052846    22.832277    19.623657    8088.6275    3932.8944    4861.5226    2042.8758    15.348324    388.19654   -348.96781   -4028.4667 
15096000    230.65529   -4874.6865   -4413.3475   -4874.6865            0    2910.4216    18.276866     22.90273    19.375623    8110.4448    1946.8844    2978.3321    3806.0484   -1257.3282    322.22557    -368.2275   -4069.0955 
15097000    230.03327   -4885.1845   -4425.0895   -4885.1845            0    4942.9591     18.09832    22.901679    19.441085    8057.9784    4051.7266    4885.9879    5891.1629    977.14236   -33.795831   -560.49659   -3844.2061 
15098000     228.7384   -4880.1956   -4422.6905   -4880.1956            0    3837.6621    18.134224    22.975653    19.486428    8118.9354    4424.6403    2913.4559    4174.8901     -942.525   -36.008493   -122.99812    -3968.287 
15099000    227.51195   -4885.1846   -4430.1326   -4885.1846            0    3349.2256    18.144533    22.886321     19.48552    8091.5885    3602.1086    3662.4139    2783.1543   -1443.8365    524.62606    908.81032   -4034.8988 
15100000    241.20099   -4898.5166   -4416.0848   -4898.5166            0    2644.5566    18.305446     22.84171    19.416127    8118.4202    2949.2666    2898.8706    2085.5326   -689.92059   -380.52123    531.28134   -4102.9724 
15101000    214.11965    -4887.133   -4458.8673    -4887.133            0    1418.0794    18.140184     22.96325    19.645698    8183.5645     1385.082    2141.5096    727.64665    -178.3555    1026.7769    1894.5876   -4289.6211 
15102000    230.56848   -4872.6304    -4411.465   -4872.6304            0     747.0318    18.258046     23.24009    19.286039    8183.4255    764.71298   -795.54129    2271.9237   -2446.4611    270.46506    -1132.678   -4322.3091 
15103000    236.60943    -4879.205   -4405.9569    -4879.205            0    2635.3572     18.11628    23.144287    19.301139    8092.7434    2907.0534    1458.6598    3540.3585   -99.072886   -1277.2255    1142.4025   -4094.9205 
15104000    231.13577   -4864.0381    -4401.738   -4864.0381            0    2608.1064    18.083217    22.956652    19.532773    8108.6427    3723.6501    3463.1101    637.55896   -646.76708    331.49268    690.68809   -4093.3132 
15105000    233.03513   -4841.5442   -4375.4451   -4841.5442            0    2212.8971    18.375294    22.962099    19.288842    8138.6437    1171.2424    2550.0647    2917.3842    241.95228   -689.90571    120.91976    -4112.788 
15106000    213.47982   -4873.8272   -4446.8412   -4873.8272            0    2276.0841    18.198056    22.949909    19.482196     8136.617    702.40537    2940.8083    3185.0387    1451.3732    570.70811    -78.89129   -4176.7515 
15107000    239.53315   -4882.5991   -4403.5032   -4882.5991            0     3144.012    18.020629     22.99325    19.596611     8119.911    3389.6625    3560.8762    2481.4973    621.09364    696.82993   -955.57291   -4031.1875 
15108000    231.26811   -4864.7191   -4402.1543   -4864.7191            0    3002.5715    18.249685    23.046923    19.299465    8117.3372     2156.398     3510.845    3340.4715    859.46287   -448.33115     316.7326   -4046.7008 
15109000    222.94298   -4870.7408   -4424.8272   -4870.7408            0    2453.7845    18.057693    23.209229    19.444571    8149.3193    2887.6264    2099.2413    2374.4859    1767.8663    226.96003    163.04634   -4133.1963 
15110000    238.12498   -4870.1845   -4393.9051   -4870.1845            0    3660.5607    18.097601    22.723272    19.660945    8085.3028    6130.9717     3936.163    914.54742    422.25342   -518.47379   -897.31872    -3962.267 
15111000    242.72166   -4863.3104   -4377.8371   -4863.3104            0    3664.6131     18.23343    22.825114    19.486175    8109.7589     2446.819    5265.6191    3281.4011   -727.24658   -557.40761    -608.0043   -3944.4141 
15112000    240.11867   -4896.1756   -4415.9085   -4896.1756            0    2299.8456    18.152725    22.957189    19.493206    8123.5115    2968.3381    2047.3734    1883.8254    -1553.274   -809.00735   -1406.6981   -4143.4387 
15113000    225.37988   -4884.2881   -4433.5005   -4884.2881            0     3886.621     17.98979    22.984954    19.534257    8077.3078    4205.8475    3840.9474    3613.0681    1179.2602    702.06008     3.062862   -3975.6595 
15114000    237.29157   -4887.1767   -4412.5642   -4887.1767            0    2356.3343    18.162673    23.180601    19.350654    8147.0451    2542.0851    2321.2674    2205.6505    238.59171    997.06232   -186.41682   -4132.5933 
15115000    223.77518   -4865.9734   -4418.3954   -4865.9734            0    2150.2483    18.338677    23.002434    19.311357    8146.1907    1423.2167    2492.1463    2535.3819   -1486.9404    1242.6825      322.669   -4162.9377 
15116000    224.85936   -4892.2442   -4442.4977   -4892.2442            0    3475.0813     18.17712    22.887282    19.461298    8096.3841    4274.4193    3302.6238    2848.2007   -467.69764   -90.560632    769.79494    -4032.169 
15117000    221.88491   -4889.6345   -4445.8372   -4889.6345            0    3074.2357    18.195196    22.936115    19.453091    8118.3023    3858.0006    3107.4277    2257.2789   -1191.2087   -135.58182    1238.7112   -4081.8566 
15118000    219.22102   -4873.3833   -4434.9141   -4873.3833            0    3108.5609    18.158656    22.928789    19.432856    8090.9861     3779.326    3157.8453    2388.5115    85.358807   -269.89587    948.49819   -4068.1079 
15119000    234.68843   -4901.2493   -4431.8435   -4901.2493            0    2786.7064    18.089335    23.081956    19.349894    8079.3017    2067.2429    3274.1379    3018.7384    69.280186   -79.380777    -979.1922   -4103.4905 
15120000    235.64209   -4892.4983    -4421.185   -4892.4983            0    2229.1145    18.118109    23.190168    19.395555    8149.2747    3062.5798    563.98002    3060.7838    1391.9451   -459.39545    283.40802   -4156.2573 
15121000    230.76054   -4902.2477   -4440.6981   -4902.2477            0    2751.9704    18.244455    22.969489    19.362994    8114.3688   -51.457885    4060.6226    4246.7465   -1639.4913    874.61402     431.5848   -4115.0306 
15122000    249.00364   -4891.2965   -4393.2585   -4891.2965            0    3144.7484     18.19641    22.900613    19.505709    8128.2035    3422.8033    3035.3608    2976.0811     704.3947      505.869    402.66861   -4020.4753 
15123000    238.18087   -4895.3134   -4418.9222   -4895.3134            0    3774.8534    18.269558    22.851377    19.357743    8081.5587    1959.5372    4274.0291     5090.994   -97.936837     936.0076   -694.92678   -3974.0133 
15124000    235.62371   -4876.9921   -4405.7156   -4876.9921            0    3949.3688    18.081341    22.808113    19.617982    8090.4807    4099.9558    3854.9808    3893.1699    328.24448    1390.2732   -671.17401   -3939.7242 
15125000     232.4236   -4853.4808   -4388.6049   -4853.4808            0   -333.47363    18.251258    23.153502    19.448056    8218.3698    966.87354   -797.02319   -1170.2712    1005.5704    331.83145    361.17094   -4428.5738 
15126000    229.20851   -4892.8846   -4434.4393   -4892.8846            0    2114.6954    18.035353    23.017146    19.594975    8134.3123     2668.126    3076.4348    599.52544    415.52272    744.80367    1042.2982   -4183.5717 
15127000    226.11529    -4875.646   -4423.3875    -4875.646            0    3108.2145    18.138843    23.040627    19.456767    8131.5728    2748.2629    3521.0718    3055.3089    -998.8366   -51.962178   -1115.3791   -4054.7823 
15128000    216.78407   -4867.4016   -4433.8067   -4867.4016            0    3678.1724    18.203308    22.907801    19.424035    8099.7789    4177.3786    3126.6551    3730.4835    1141.8602   -655.71068    117.74908   -3999.3153 
15129000    240.55944   -4851.5357   -4370.3871   -4851.5357            0    2515.8083     18.13967    22.828698    19.670685    8145.7302    3259.7342    3038.2449    1249.4459   -629.75108   -762.84308    762.77954   -4071.5163 
15130000    228.54292   -4908.2154   -4451.1013   -4908.2154            0     2885.711    18.359931    22.769367    19.405726    8112.4473    1898.5722    3401.5054    3357.0552    1470.4796   -575.05598    1781.3705   -4109.6879 
15131000    211.64459   -4882.3136   -4458.9983   -4882.3136            0    2649.1252    18.255082    23.004507     19.39847    8146.3714     1675.352    2924.5591    3347.4645   -388.97992    308.09211    102.08352    -4144.265 
15132000    239.20634    -4868.831   -4390.3888    -4868.831            0    3249.6429    17.870905    23.287129    19.500646    8115.4294     3243.823    2636.4316    3868.6741    518.32738   -424.21747    114.53734   -4005.7766 
15133000    230.89237   -4858.0574   -4396.2441   -4858.0574            0    2870.4703    18.183389    23.192501    19.307261    8142.2248     2654.682    1752.1718     4204.557    498.26852   -987.46702    13.532525   -4055.3873 
15134000    226.66112    -4899.683   -4446.3327    -4899.683            0    3301.9597    18.037434    22.870697    19.598582    8084.9776    4987.9293    2300.5767    2617.3729   -103.66021   -907.24216   -514.42651    -4056.995 
15135000    227.61606   -4888.6815   -4433.4213   -4888.6815            0    4245.5464    18.250072    22.601095    19.469626    8030.6684    2832.0458    4749.7629    5154.8306     50.52103    279.50097    -38.41166   -3936.1869 
15136000    233.14607   -4859.5628   -4393.2418   -4859.5628            0    4943.4271    18.205164    22.874628    19.356494    8060.7476    3991.8287    5090.9756    5747.4771   -499.05348   -59.867799    309.45825   -3812.1037 
15137000    217.02553   -4866.8088   -4432.7309   -4866.8088            0    2452.9966    18.047879    23.138698    19.457373    8125.4852    3827.6958    1145.5731    2385.7208    92.471462   -402.17933   -390.40459   -4142.0462 
15138000    234.82315   -4891.6842   -4422.0088   -4891.6842            0    3338.6507    18.077603    23.188569    19.302774    8091.6023    5226.9199    1946.1333    2842.8991   -413.94556   -765.53966   -1859.3897   -4028.0223 
15139000    228.04949   -4905.6819   -4449.5547   -4905.6819            0    2446.8633    17.957326    22.947542    19.642648    8094.2732     4265.862    2200.8018    873.92598    443.14776   -672.77097   -1271.7886   -4160.7107 
15140000    232.85337   -4872.8901   -4407.1546   -4872.8901            0     2181.484    18.278276    22.955645    19.419908    8148.3917    1736.1193    2126.1198    2682.2128    636.83927    -83.86479    1255.7221   -4147.9159 
15141000    239.53804   -4904.3125   -4425.2068   -4904.3125            0    3587.4956    18.079095    22.891113    19.491191    8066.4414    2708.7932    4641.4538    3412.2399    622.61602    -903.3067    891.94505   -4003.1711 
15142000    233.21915    -4892.974   -4426.5069    -4892.974            0    2726.2489    18.168027    22.755941    19.605384    8105.4646    3008.1426     3728.756    1441.8479   -1171.7071    199.23365   -251.26926   -4104.2373 
15143000    217.84766   -4870.9904   -4435.2682   -4870.9904            0    2008.8258      18.3928    22.972461    19.280876    8146.7077     1759.323    1216.9235    3050.2308   -629.94147   -258.13381   -285.52204   -4196.5968 
15144000    236.18509   -4889.4568   -4417.0574   -4889.4568            0    4163.2847    18.071371    22.847293    19.530043    8063.6016    3673.5691    5021.1216    3795.1633    366.50855    878.95003    995.38449   -3927.4578 
15145000    237.24114   -4891.7268   -4417.2152   -4891.7268            0    3047.5934    18.146033     23.05057    19.461845    8140.4308    1831.6714    3603.7612    3707.3477   -271.40686    376.70591     502.5232   -4055.4054 
15146000    227.72139   -4887.7265   -4432.2556   -4887.7265            0    2282.1432    18.244306    23.125618    19.290891    8139.0362    1996.9489    2449.3194    2400.1614   -96.737882   -406.69077    435.63128   -4161.3663 
15147000    228.44891   -4903.1726   -4446.2465   -4903.1726            0    2951.9157    17.983032    23.184887    19.442122    8106.0927     3212.529    2653.8472    2989.3709     255.0415    458.38352   -881.36842   -4097.2739 
15148000    233.05232   -4897.8541   -4431.7207   -4897.8541            0    1977.5485    18.059636    23.087509     19.50891     8134.279    3699.1416    1382.3193    851.18444   -773.72474   -63.824233    22.474598   -4197.1239 
15149000    238.78799   -4872.1794   -4394.5739   -4872.1794            0    4169.2175    18.235217    22.801947     19.40842    8069.9913    3231.0299    4565.8164    4710.8061     321.9026   -776.39695   -343.29503   -3903.8881 
15150000       224.37    -4884.317   -4435.5493    -4884.317            0    2572.4789    18.129201    22.747574    19.674374    8113.6201    2304.3526    3513.4722    1899.6121   -1021.5194   -225.59294   -51.579756   -4131.1509 
15151000     248.0893   -4876.3977   -4380.1884   -4876.3977            0    2674.3552    18.374612    22.753037      19.4801    8144.2053    1753.3261    3567.9563    2701.7832   -50.618757   -1507.3798   -2173.9243   -4062.5422 
15152000    230.57207   -4871.6641   -4410.4915   -4871.6641            0    6037.7531    18.159467    22.831215    19.371331    8031.4057     4844.261    6325.1699    6943.8285   -393.76752   -146.62504    653.14485   -3703.2906 
15153000    234.00394   -4866.8716   -4398.8348   -4866.8716            0    3298.5747     18.02861    23.014779    19.516366    8097.8181    3795.4652    3307.8598    2792.3991    258.24841    863.99314   -1982.9668   -4009.2785 
15154000    235.63169   -4893.6329   -4422.3404   -4893.6329            0    3645.8419    18.160876    23.106447    19.183105    8049.8702    4230.7627    2279.0849    4427.6782    362.96868   -217.85671    887.37851   -3994.3219 
15155000    227.09707    -4880.138   -4425.9158    -4880.138            0    3774.0659    18.037206    23.174842    19.404798    8111.3881    2842.7919    3030.6136    5448.7922   -593.49687    772.23764    1887.6967   -3979.4578 
15156000     231.6345   -4914.3665   -4451.0689   -4914.3665            0    600.42481    18.090965    22.978927    19.649461    8168.4961    798.43043     805.8659    196.97809   -864.13847   -726.71525   -57.935251   -4379.5408 
15157000    232.80613   -4893.0987   -4427.4577   -4893.0987            0    4439.6325    18.275855    22.844055    19.352039    8079.3724    3053.4187    4825.1025    5440.3763   -67.354917   -373.09162   -159.38186   -3904.3386 
15158000    226.66191   -4898.8136   -4445.4618   -4898.8136            0    3773.5594    18.120394    22.823196    19.490817    8060.7257    3077.4135    4546.8669    3696.3978   -1828.5647   -775.07137   -1251.2897   -4001.8519 
15159000     227.1735   -4896.4889   -4442.1138   -4896.4889            0     4332.121    18.266261    22.584345    19.533519    8058.1928    4618.2307     4509.597    3868.5354    1209.9504    -329.2341    1808.1307   -3933.0009 
15160000    236.55174   -4878.0732   -4404.9405   -4878.0732            0    4009.9862    18.258411    22.883975    19.416559    8112.7239    4169.3246    3934.3288    3926.3051    -897.8485   -79.630038   -1640.7898   -3930.4959 
15161000    228.36804   -4902.0737   -4445.3094   -4902.0737            0    2186.8152    17.962729    23.231392    19.450066    8116.4969    3265.1336    1063.1297    2232.1822    674.29032    311.40337    1054.0246   -4186.4543 
15162000    237.17586   -4884.2654   -4409.8844   -4884.2654            0     4660.307    18.016278    23.209218     19.22656     8039.465    4187.1701    3663.3129     6130.438    58.653874     717.4506    -139.9621   -3863.4757 
15163000    219.79582   -4863.9078    -4424.289   -4863.9078            0    3346.0694    18.211913    22.920846    19.481544    8132.2291    5074.5728    2335.3122    2628.3233    977.27538   -1088.2208    1225.0973   -4027.4444 
15164000    240.29845   -4913.4899   -4432.8633   -4913.4899            0    2329.1116    18.311741    22.773962    19.522521    8141.4943    2206.4536    3314.7627    1466.1185   -1138.6357   -365.28817   -1506.0708   -4156.3155 
15165000    222.73522   -4878.1024   -4432.6044   -4878.1024            0    2870.7139    18.224029    22.727434    19.655274    8140.9277    1381.1017    3749.7185    3481.3216   -283.79278   -538.36303   -397.81579    -4091.773 
15166000    242.83295   -4871.2999    -4385.604   -4871.2999            0    4650.8668    18.136854    22.867346    19.448802    8066.2296    5171.9687    4293.1473    4487.4844    121.89704   -528.91056    -811.8205   -3838.4868 
15167000    234.95732   -4895.1588   -4425.2152   -4895.1588            0    4869.0834    18.188672    22.833858    19.325539    8026.2359    4544.0687    4467.5753    5595.6063    993.88401   -429.17771    757.15497   -3855.2674 
15168000     230.4775    -4863.437   -4402.4536    -4863.437            0    2663.2053    18.009032     23.06954    19.515529    8107.9237    3612.8078    955.99925    3420.8088   -1440.8736   -1650.0269   -1244.0073   -4087.5408 
15169000    238.36558   -4855.6506     -4378.89   -4855.6506            0    4030.9725    18.100889    23.162944    19.331668    8105.1857    4235.5956    3763.1041    4094.2178     794.9044   -6.1594584   -20.352773   -3902.4056 
15170000    231.10548   -4872.2588   -4410.0193   -4872.2588            0    3369.7185    18.000144    23.098398    19.508963    8111.3294    4868.6775      2719.06    2521.4182    -234.7235    112.89242   -447.95109   -4011.3971 
15171000     229.9255   -4867.6606   -4407.7812   -4867.6606            0    3776.9476    18.157378    22.848021    19.542539     8107.421    4317.5308    3529.2546    3484.0576   -467.70505   -134.68993    1038.6819   -3961.2009 
15172000    222.87369   -4883.9869   -4438.2119   -4883.9869            0    3704.4274    18.289273    22.676989    19.467269    8073.9649    2756.2064    4880.9555    3476.1204   -397.44956   -118.91977   -1209.2866   -4002.0138 
15173000     222.0513   -4889.8993   -4445.7693   -4889.8993            0    2833.0605    18.017444    22.767397    19.816014    8128.7331    4301.2064    3007.7553    1190.2197    1153.7788     335.1013    642.37871   -4109.9121 
15174000    220.75915    -4872.457   -4430.9114    -4872.457            0    5583.9644    18.308236    22.922801     19.21226    8062.9258    4916.5041    5188.6268    6646.7624    -848.8098    634.95232   -438.47881   -3774.2958 
15175000    225.41056    -4879.738    -4428.889    -4879.738            0    4338.5594    17.995373    23.028036    19.488061    8075.8154    5489.5927     4169.086    3356.9994    105.19384    282.28899   -336.36183   -3917.9044 
15176000    241.52052   -4916.8937   -4433.8228   -4916.8937            0    3054.5749    18.115729    23.119477    19.305368    8085.5933     2619.476    3110.8758    3433.3729   -221.20087    211.08438    3263.1027   -4073.6271 
15177000    239.26791   -4878.3621   -4399.7967   -4878.3621            0     3271.272    18.165489    23.099547    19.305789    8100.9905    3857.8056    3171.8866    2784.1237   -1925.7037    97.981776   -847.91392   -4013.3135 
15178000    229.58024   -4858.7484   -4399.5595   -4858.7484            0    5458.2831    18.001989    22.934042    19.442075    8026.8234    7228.6832    4556.1091    4590.0569    70.748854   -38.600733    1138.5898   -3760.5966 
15179000    225.80203   -4856.6425   -4405.0105   -4856.6425            0    1810.0292    18.230492     23.10269    19.435839     8185.859   -731.79003    2498.6505     3663.227   -1047.6435    841.81582   -285.10103    -4188.925 
15180000    228.18097   -4870.8009   -4414.4107   -4870.8009            0    2667.0722    18.165554    22.794434    19.597526    8114.8166      1234.55    4345.6842    2420.9823    913.87627    522.14203    1541.0048   -4098.7727 
15181000    237.82257    -4908.837   -4433.1625    -4908.837            0    3754.5297    18.162125     22.83996    19.486536    8083.4474    2913.9249    4574.6566    3775.0076    673.95416     1304.887    261.83141   -3990.5455 
15182000    234.54296   -4875.2883   -4406.1734   -4875.2883            0    4161.7885    18.211599    22.676555    19.600602    8094.5844    3708.9533    5029.6248    3746.7873    597.42973    835.84359    1834.8666   -3914.8693 
15183000    221.72828   -4891.1897   -4447.7058   -4891.1897            0    3300.3663    18.342566    22.880913    19.288732     8095.378    1239.3551    4298.1599    4363.5838    125.51106    255.40168    441.96467   -4058.0553 
15184000    222.83188   -4891.7105   -4446.0192   -4891.7105            0    1427.9298    18.216423    22.987241    19.536098    8180.6494    1354.7069    2101.4607    827.62181    90.196672   -127.36168    422.30426   -4275.6581 
15185000    236.97737   -4867.4558   -4393.4718   -4867.4558            0    4822.6576    18.131901    22.930389    19.444655    8084.5342    3191.2127     6254.978    5021.7822    2040.2293    799.39152    717.95799   -3824.8581 
15186000     225.8164   -4849.8089   -4398.1482   -4849.8089            0    2943.3914    18.267401    22.973119    19.381675    8133.6978    1941.7985    2567.4958    4320.8798    246.86499    -583.3548   -746.04579   -4048.9983 
15187000     225.1567   -4876.9101   -4426.5689   -4876.9101            0    3369.3511    18.130969    22.953397    19.468041     8101.963     2284.036    3481.3838    4342.6335    437.24961   -605.60295    625.45028   -4028.4503 
15188000    240.90457   -4876.2911   -4394.4522   -4876.2911            0    4433.7682    18.144258     22.98549    19.320308    8057.6243    4003.5869    4174.7705    5122.9471   -62.091679   -1072.8599    1141.5749   -3873.4304 
15189000    226.01082   -4897.4423   -4445.3927   -4897.4423            0    2563.2466    18.088629    23.054264      19.4001    8090.2304    4855.5891    988.03002    1846.1207    42.711294   -1613.1033   -596.19959   -4142.9611 
15190000    237.28428   -4850.0276   -4375.4297   -4850.0276            0    4766.2601     18.09712    23.012153      19.4109     8083.741    5949.9814    4016.6494    4332.1495   -179.54883   -191.50525    864.22879   -3813.5207 
15191000     235.9688   -4886.3603   -4414.3936   -4886.3603            0    2196.6822    18.138784    22.976672    19.520674      8135.61    3916.9858    1550.8074    1122.2534    70.169941    143.54493    84.861951   -4153.7583 
15192000    239.69822   -4887.3784   -4407.9524   -4887.3784            0    2324.3995    18.345946    22.707858    19.539707    8140.1859     1457.346    2995.6938    2520.1585     1435.697    115.44016    809.96699   -4132.0084 
15193000    230.56682   -4887.9882   -4426.8261   -4887.9882            0    2970.2271     18.38018    22.646075    19.463208    8101.3446    2424.3243    3103.0838    3383.2731    207.35056    -592.4904   -101.34489   -4075.8944 
15194000    241.45533   -4896.6722   -4413.7317   -4896.6722            0    3445.7641    18.137156    22.857496     19.49663    8082.7176    2205.5479    4362.7497    3768.9947    -25.89721   -757.47801    238.90803   -4007.5514 
15195000    231.60227   -4881.4713   -4418.2381   -4881.4713            0    3384.0394    18.032583    23.360885    19.257248    8112.2526    4423.2289    1804.3664    3924.5229   -700.12064   -289.61414   -855.05063   -4017.8762 
15196000     234.5107   -4901.6803   -4432.6299   -4901.6803            0    3321.1992    17.970591    23.232333    19.423192    8109.1582    4860.6417    2922.8628     2180.093    105.74513    1040.9098   -474.44019   -4039.8525 
15197000    233.03718   -4884.8421    -4418.739   -4884.8421            0     3658.341    18.167159    22.888723    19.415995    8073.6183    4212.9769    3229.7926    3532.2534    1786.7959    283.01299    342.61752    -3987.986 
15198000    233.03982   -4879.9444   -4413.8359   -4879.9444            0      4193.53    18.255934    22.607343    19.599835    8089.2077    3796.1255    3780.4415    5004.0229   -432.91657   -1439.4657   -629.46286   -3919.1135 
15199000     239.8244   -4879.6414    -4399.963   -4879.6414            0    2262.6494    18.192521    22.866606    19.548072    8132.0216    2018.7002    2083.7109    2685.5373    512.03053   -573.79945    1098.5266   -4131.6191 
15200000    232.19792   -4889.6711   -4425.2465   -4889.6711            0    2222.5927    18.179054    23.063249      19.3448    8110.6564    3366.8485    1088.2504    2212.6792   -412.84168   -1639.0127   -996.63008   -4162.3458 
15201000    230.11455   -4883.7127   -4423.4552   -4883.7127            0    3696.8814    18.048237    23.145055     19.35473    8085.0017    3166.7825     4042.641    3881.2208   -1804.2799    796.24443    862.57081   -3987.5505 
15202000    228.49739   -4875.5184   -4418.4954   -4875.5184            0    4940.9254    17.973266    22.971182    19.569477    8079.5942    7801.9877    3624.6166    3396.1718   -44.806812     270.6765   -116.89852   -3836.2934 
15203000    226.69461   -4895.3993    -4441.982   -4895.3993            0    3233.1495    18.364416    22.816556    19.302209    8087.8711    1951.1557    3810.3678    3937.9249    -506.3624    260.81595    191.29814   -4060.6214 
15204000    228.51272   -4908.6456   -4451.5919   -4908.6456            0    2806.4412    18.230761    22.847602    19.477589    8112.9839     2394.245    2223.8459    3801.2327   -219.03102      14.5115    304.04005    -4119.535 
15205000    220.94749    -4891.097   -4449.1748    -4891.097            0    4329.9846     18.07336    22.928259    19.484928    8074.3726    5284.7406    4044.5044    3660.7088   -412.65395    806.53673    850.88096   -3939.2912 
15206000    231.72833   -4902.7798   -4439.2945   -4902.7798            0    2681.4558     18.30512    23.016838    19.227705    8101.1316    1079.9127    3257.7682    3706.6866   -669.94285   -1035.1914    42.791823   -4122.4893 
15207000    226.40192    -4866.541   -4413.7092    -4866.541            0    3311.5586    18.116117    23.054976     19.42512    8113.2247    3070.5531    3606.5275     3257.595    269.48026   -463.61468   -440.37592   -4021.8754 
15208000    236.28666   -4873.2362   -4400.6337   -4873.2362            0    3810.1827    18.084245    22.964335    19.495142    8096.1893    3884.4963    3953.8143    3592.2374    90.797541   -88.017782    79.467028   -3950.7479 
15209000      234.638   -4886.6013   -4417.2963   -4886.6013            0    2437.4478     18.17663    23.183172    19.268831      8119.73    2432.6431    1328.2089    3551.4916    -244.0867   -1093.4441   -601.70541   -4128.6588 
15210000    221.85224   -4849.4619     -4405.73   -4849.4619            0    2666.1676    18.018792    23.249175    19.369348    8114.2467    3452.8297    1586.7495    2958.9236   -551.29799   -735.97038    604.51841   -4090.2212 
15211000    235.88771   -4878.6675    -4406.863   -4878.6675            0    2846.9598    18.250554    22.911223    19.460431    8137.2336    3119.2331    3478.1278    1943.5184    886.08602    1133.7637    872.40337   -4069.0051 
15212000     222.0822   -4868.0731   -4423.8813   -4868.0731            0    2497.7678    18.243034    22.855004    19.601296    8172.6549    3745.9678    1763.9981    1983.3374    23.027442   -302.74515   -175.99612   -4126.1728 
15213000    229.86747   -4879.5063    -4419.743   -4879.5063            0    4838.0707    18.193914    22.782427    19.474297     8072.126    6505.7322    4909.1291    3099.3508   -84.061766    285.23751   -877.55767   -3850.1875 
15214000    233.36332   -4890.6027   -4423.8473   -4890.6027            0    3055.8167    18.284153    22.883364    19.383538    8110.1288    2031.4779    3524.2756    3611.6966    1555.5581    991.98622    1202.2126   -4062.4116 
15215000    219.77875   -4905.4431   -4465.8584   -4905.4431            0    3448.1415    18.012143    22.882483    19.638538    8094.2702    4848.1624    3536.8866    1959.3756    607.00569   -253.85922   -1402.2321    -4058.817 
15216000     226.9368    -4876.967   -4423.0653    -4876.967            0    2171.6789    18.053462    23.183061    19.409297    8123.4604     2187.903    2102.5173    2224.6165   -595.92031   -17.817006   -213.39163   -4165.7814 
15217000    220.89287    -4892.879    -4451.066    -4892.879            0    4053.1455    18.167213    23.040545    19.336726    8094.0151    3999.5048    3367.5248     4792.407    146.84158   -104.54788   -1266.4063   -3972.6209 
15218000    232.51685   -4867.8259   -4402.7635   -4867.8259            0    3157.5235    18.089959    22.957142    19.547404    8117.9149    4227.9445    2643.1776    2601.4484   -615.65047   -946.20654   -128.45184   -4028.9396 
15219000    230.20056   -4880.4749   -4420.0454   -4880.4749            0    4505.6967    18.291277    22.813367    19.311321    8058.3366    2777.0992    4522.4962    6217.4948    167.78171    1009.8204   -40.948878   -3890.5243 
15220000    216.90076   -4888.7876   -4454.9593   -4888.7876            0    4134.9094    18.138366    22.831959    19.526019    8086.3968    3148.4634    3918.3064    5337.9584    127.32465    575.93958   -2871.4793   -3967.3219 
15221000    234.44773   -4901.2989   -4432.3744   -4901.2989            0    3643.9328    18.259612    22.962426    19.329946    8104.7564    3089.3952    3773.4166    4068.9866   -883.17547    1240.8185   -486.62368   -4001.6632 
15222000    214.27041   -4890.2553    -4461.688   -4890.2553            0     1987.235    18.051755    23.046185    19.591698    8150.6181    2950.3767    1134.4994    1876.8289   -209.56183    955.50576    1417.6266   -4225.4686 
15223000    225.42738   -4897.5433   -4446.6607   -4897.5433            0    2673.2472    18.135771     23.01699    19.438521    8114.2384    2959.6065    1848.0349    3212.1003   -843.11327   -195.33686    -984.5207   -4130.3144 
15224000    230.62401    -4879.667   -4418.3905    -4879.667            0    3267.2337    18.137809    22.916554    19.534057      8119.45    2379.5925    3921.0126    3501.0959    880.86402    274.29217    1936.3271   -4031.5048 
15225000    220.70774   -4878.7998    -4437.357   -4878.7998            0    1861.2859    18.125305    22.908453    19.640587    8155.2178    1477.4932    3499.7663    606.59819   -872.58735   -50.906978    236.19644   -4215.9841 
15226000    228.67896   -4884.9143   -4427.5281   -4884.9143            0    2366.8278     18.24926    22.897666    19.506942     8151.277      2776.81    2108.7717    2214.9017   -664.97138   -1072.2513    2152.3821   -4146.1643 
15227000    240.97912    -4838.704   -4356.7159    -4838.704            0    3578.4357    18.135668    22.943204    19.480031    8105.4525     5046.083    2911.4331    2777.7911   -951.00076   -1237.2162    889.27139   -3933.7101 
15228000    234.46598   -4863.3063   -4394.3454   -4863.3063            0    3364.8292    18.117846    23.126343    19.386037    8122.7405    3309.8532    3134.9324    3649.7019    -676.4612   -4.6532412    100.05216   -3995.7415 
15229000    240.55129   -4882.6427   -4401.5104   -4882.6427            0    4467.7859    18.030285    23.137673    19.380883    8085.2943    4538.2403    4433.1056    4432.0119   -599.14382    802.34015     1133.683   -3874.6882 
15230000    240.79704   -4862.6151   -4380.9912   -4862.6151            0    4436.3066    18.008086    23.043199    19.490609    8087.8994    4352.5677    4878.3141    4078.0379   -1415.3067    951.67005    871.50811   -3857.7124 
15231000    240.72981   -4880.0929   -4398.6035   -4880.0929            0    3966.1845    18.192658    22.801618    19.446357    8066.7778    3385.6758    4028.0798    4484.7978   -813.76363     368.9825   -938.61712    -3931.999 
15232000    233.41961   -4881.3364   -4414.4684   -4881.3364            0    3420.0273    18.285334    22.703748    19.514015    8101.1575    2301.6363    4455.8727     3502.573    922.89384    -964.8634   -326.85001   -4010.4022 
15233000    225.92491    -4884.736   -4432.8583    -4884.736            0    2473.2791    18.017949    22.946272    19.646137    8122.5926    5067.4433    1973.8677    378.52641    254.27012   -1281.5199    2093.0701   -4139.8744 
15234000    227.99073   -4859.1278   -4403.1181   -4859.1278            0    1404.2316    18.162941    23.088097    19.476533    8167.4403    255.49787    2494.7293    1462.4676    256.24307   -697.88608   -676.98242   -4235.8548 
15235000    226.07241   -4891.5607    -4439.388   -4891.5607            0    3562.5196    18.139336    23.197951    19.249695    8100.1838     2575.223    3132.8844    4979.4514    897.34099   -555.40718   -723.34526   -4018.5373 
15236000    234.82862   -4902.7462   -4433.0599   -4902.7462            0    2745.6467    18.102205    23.107508    19.417955    8122.4694    2509.5358    2442.9942      3284.41    618.96868    386.54738   -857.34431   -4107.8164 
15237000    218.72925   -4866.6653   -4429.1798   -4866.6653            0    3742.8825    18.065207    22.937247    19.614928    8127.7614    4792.6101    3302.9438    3133.0936   -738.83582    175.42841   -267.00726    -3985.517 
15238000    232.14033    -4864.931   -4400.6217    -4864.931            0    3827.9263    18.301587    22.775026    19.428368    8098.1154    2819.3219    4392.8535    4271.6036    1168.4653    1925.4644    -248.2777   -3948.5332 
15239000    239.80654   -4899.4492   -4419.8065   -4899.4492            0    3392.3428    18.301278    22.865788    19.369311    8105.5365    2831.0696     3529.958    3816.0007    -656.5745     886.8744   -302.31412   -4018.7945 
15240000    230.47978   -4866.4991   -4405.5111   -4866.4991            0    2724.8208    18.096029    22.877722    19.575812     8104.306     4005.352    3426.5565    742.55391    1359.8735    1113.5387   -978.54629   -4083.4564 
15241000    235.87207   -4906.1034   -4434.3301   -4906.1034            0    2248.0923    18.222123    23.065316    19.325863    8122.6415    2786.3273    1950.7775     2007.172   -636.06261   -399.61933   -151.14851   -4168.0202 
15242000    232.84124   -4897.7464   -4432.0351   -4897.7464            0    2807.1022     18.11852    23.086802    19.390233    8110.9089    2089.5623     2678.451    3653.2932   -672.29943    1003.2116   -221.19978    -4099.985 
15243000    243.97765   -4883.8163   -4395.8309   -4883.8163            0    3200.1449    18.112956    23.117591    19.347562    8101.3646    2170.2933    3080.3144    4349.8269    1196.6371    -298.6722    18.121603   -4017.7335 
15244000    230.42522   -4864.1541   -4403.2752   -4864.1541            0    4141.3723    18.269433    22.976917    19.302714    8102.8016     3616.277    4010.8058    4797.0341   -1135.1742   -767.12362   -1814.1146   -3913.8849 
15245000    239.09512   -4862.2567   -4384.0369   -4862.2567            0    2190.9485    18.056829    22.993328    19.705062    8181.2776    2776.1696    2721.1043    1075.5714   -814.72702   -186.02347   -1673.9654   -4122.6227 
15246000    233.60417   -4892.3075   -4425.0703   -4892.3075            0    1710.3942    18.282065    22.971284    19.412125    8152.3648   -411.27776    2029.8248    3512.6356      1537.55   -364.57659    1635.8209   -4221.7149 
15247000    223.92805    -4872.165   -4424.2812    -4872.165            0    4680.2943    18.110026     22.90916    19.440908    8065.7507    3804.7788    5098.8981    5137.2061    -959.4471   -590.07112   -293.03893   -3873.7349 
15248000    244.53953    -4881.359   -4392.2497    -4881.359            0    4265.8702    18.096075    23.034024    19.425125    8096.8861    3665.8708     4065.948    5065.7919    53.029112    970.46286    1251.3978   -3888.5154 
15249000    223.24671   -4884.2885   -4437.7675   -4884.2885            0    1937.4287    18.170061    23.164362    19.361069    8149.0326    2424.9518    1294.3791    2092.9554   -2479.3269    283.66947    1447.7872   -4207.5132 
15250000    240.45112   -4876.0039    -4395.072   -4876.0039            0     721.8031    18.334356    22.907837    19.504068    8191.7174   -806.64149    827.76513    2144.2856   -1557.6982   -44.144462   -852.25129   -4308.8398 
Loop time of 526.236 on 64 procs for 250000 steps with 1008 atoms

Performance: 82.092 ns/day, 0.292 hours/ns, 475.072 timesteps/s
99.0% CPU use with 64 MPI tasks x 1 OpenMP threads

MPI task timing breakdown:
Section |  min time  |  avg time  |  max time  |%varavg| %total
---------------------------------------------------------------
Pair    | 27.794     | 31.631     | 35.19      |  30.9 |  6.01
Bond    | 0.2741     | 0.29678    | 0.30983    |   1.0 |  0.06
Kspace  | 243.81     | 253.07     | 260.97     |  23.2 | 48.09
Neigh   | 4.025      | 4.4347     | 4.8741     |  10.8 |  0.84
Comm    | 100.44     | 108.53     | 117.39     |  37.2 | 20.62
Output  | 1.8301     | 1.8374     | 1.844      |   0.5 |  0.35
Modify  | 113.73     | 117.61     | 121.35     |  17.4 | 22.35
Other   |            | 8.825      |            |       |  1.68

Nlocal:        15.7500 ave          20 max          13 min
Histogram: 4 9 17 0 20 4 0 5 3 2
Nghost:        2466.19 ave        2481 max        2453 min
Histogram: 5 6 5 7 6 15 10 5 3 2
Neighs:        5116.75 ave        6523 max        4181 min
Histogram: 4 9 9 8 20 4 2 3 3 2

Total # of neighbors = 327472
Ave neighs/atom = 324.87302
Ave special neighs/atom = 2.0000000
Neighbor list builds = 7735
Dangerous builds = 0

unfix		3
unfix		2
unfix		1

write_data	data.final.${pid}
write_data	data.final.0
System init for write_data ...
PPPM initialization ...
  extracting TIP4P info from pair style
  using 12-bit tables for long-range coulomb (../kspace.cpp:340)
  G vector (1/distance) = 0.3781037
  grid = 24 27 36
  stencil order = 5
  estimated absolute RMS force accuracy = 0.0025681836
  estimated relative force accuracy = 7.7340085e-06
  using double precision FFTW3
  3d grid and FFT values/proc = 4050 480
Last active /omp style is kspace_style pppm/tip4p/omp
WARNING: Not all mixed pair coeffs generated from mixing. Use write_data with 'pair ij' option to store all pair coeffs. (../write_data.cpp:312)

write_restart   restart.lmp.${pid}
write_restart   restart.lmp.0
System init for write_restart ...
PPPM initialization ...
  extracting TIP4P info from pair style
  using 12-bit tables for long-range coulomb (../kspace.cpp:340)
  G vector (1/distance) = 0.3781037
  grid = 24 27 36
  stencil order = 5
  estimated absolute RMS force accuracy = 0.0025681836
  estimated relative force accuracy = 7.7340085e-06
  using double precision FFTW3
  3d grid and FFT values/proc = 4050 480
Last active /omp style is kspace_style pppm/tip4p/omp
Total wall time: 0:08:49
