LAMMPS (30 Jul 2021)
Processor partition = 0
  using 2 OpenMP thread(s) per MPI task
using multi-threaded neighbor list subroutines
variable        pid world 0 1
variable        phase world IceII IceIh

shell cd ${phase}
shell cd IceII
include Restart.lmp
echo both
log log.lammps
#include		in.partitions
include		in.temp
variable        temperature equal 160.10
variable	tempDamp equal 100.0
include		in.pressure
variable        pressure equal 2071.6
variable        pressureDamp equal 1000.0 # This is 1 ps
include		in.seed
variable        seed equal 745823

units		real
atom_style	full
box tilt large
read_restart	restart.lmp.${pid}
read_restart	restart.lmp.0
Reading restart file ...
  restart file = 30 Jul 2021, LAMMPS = 30 Jul 2021
  restoring atom style full from restart
  triclinic box = (-10.597748 -9.3033192 0.035623127) to (12.577748 12.293317 21.824376) with tilt (-9.2008671 2.1612724 2.7909260)
  2 by 4 by 4 MPI processor grid
  restoring pair style lj/cut/tip4p/long/omp from restart
  restoring bond style harmonic/omp from restart
  restoring angle style harmonic/omp from restart
  1296 atoms
  864 bonds
  432 angles
Finding 1-2 1-3 1-4 neighbors ...
  special bond factors lj:    0        0        0       
  special bond factors coul:  0        0        0       
     2 = max # of 1-2 neighbors
     1 = max # of 1-3 neighbors
     1 = max # of 1-4 neighbors
     2 = max # of special neighbors
  special bonds CPU = 0.007 seconds
  read_restart CPU = 0.012 seconds
include 	in.setup
variable	out_freq equal 1000
variable	out_freq2 equal 10000
variable	out_freq3 equal 1000

timestep	2.0

neigh_modify    delay 7 every 1

include		in.tip4p
# This is TIP4P/Ice

# create groups ###
group ox type 2
432 atoms in group ox
group hy type 1
864 atoms in group hy

# set charges - beside manually ###
set group ox charge -1.1794
Setting atom values ...
  432 settings made for charge
set group hy charge 0.5897
Setting atom values ...
  864 settings made for charge

# ### TIP3P Potential Parameters ###
pair_style lj/cut/tip4p/long/omp 2 1 1 1 0.1577 8.5
pair_coeff 1 1*2 0.000 0.000
pair_coeff 2 2 0.21084 3.1668
bond_style  harmonic
bond_coeff  1 450 0.9572
angle_style harmonic
angle_coeff 1 55 104.52
kspace_style pppm/tip4p/omp 1.0e-5
pair_modify tail yes

thermo          ${out_freq}
thermo          1000
thermo_style    custom step temp pe etotal epair emol press lx ly lz vol pxx pyy pzz pxy pxz pyz enthalpy

restart 	${out_freq3} restart.lmp.${pid} restart2.lmp.${pid}
restart 	1000 restart.lmp.${pid} restart2.lmp.${pid}
restart 	1000 restart.lmp.0 restart2.lmp.${pid}
restart 	1000 restart.lmp.0 restart2.lmp.0


include         in.dump
dump            myDump all atom ${out_freq2} dump.water.${pid}
dump            myDump all atom 10000 dump.water.${pid}
dump            myDump all atom 10000 dump.water.0
dump            myDump2 all dcd ${out_freq2} dump.dcd
dump            myDump2 all dcd 10000 dump.dcd
dump_modify     myDump append yes
dump_modify     myDump2 append yes


variable natoms 	equal  "count(all)"                        # NUMBER ATOMS
variable H      	equal  "enthalpy/v_natoms"                 # ENTHALPY-per-atom
variable Vol      	equal  "vol/v_natoms"                 # volume-per-atom
fix AVG all 		ave/time ${out_freq} 1 ${out_freq} v_Vol v_H file vol_enthalpy.dat
fix AVG all 		ave/time 1000 1 ${out_freq} v_Vol v_H file vol_enthalpy.dat
fix AVG all 		ave/time 1000 1 1000 v_Vol v_H file vol_enthalpy.dat


timer           timeout 10:00:00 every 1000
New timer settings: style=normal  mode=nosync  timeout=10:00:00

fix 		1 all shake 1e-6 200 0 b 1 a 1
Finding SHAKE clusters ...
       0 = # of size 2 clusters
       0 = # of size 3 clusters
       0 = # of size 4 clusters
     432 = # of frozen angles
  find clusters CPU = 0.001 seconds
fix             2 all nph tri ${pressure} ${pressure} ${pressureDamp}
fix             2 all nph tri 2071.6 ${pressure} ${pressureDamp}
fix             2 all nph tri 2071.6 2071.6 ${pressureDamp}
fix             2 all nph tri 2071.6 2071.6 1000
fix             3 all temp/csvr ${temperature} ${temperature} ${tempDamp} ${seed}
fix             3 all temp/csvr 160.1 ${temperature} ${tempDamp} ${seed}
fix             3 all temp/csvr 160.1 160.1 ${tempDamp} ${seed}
fix             3 all temp/csvr 160.1 160.1 100 ${seed}
fix             3 all temp/csvr 160.1 160.1 100 745823


run             250000
PPPM initialization ...
  extracting TIP4P info from pair style
  using 12-bit tables for long-range coulomb (../kspace.cpp:340)
  G vector (1/distance) = 0.36663794
  grid = 30 40 32
  stencil order = 5
  estimated absolute RMS force accuracy = 0.0046767325
  estimated relative force accuracy = 1.4083841e-05
  using double precision FFTW3
  3d grid and FFT values/proc = 7752 1200
Last active /omp style is kspace_style pppm/tip4p/omp
Neighbor list info ...
  update every 1 steps, delay 7 steps, check yes
  max neighbors/atom: 2000, page size: 100000
  master list distance cutoff = 10.8154
  ghost atom cutoff = 10.8154
  binsize = 5.4077, bins = 7 5 5
  1 neighbor lists, perpetual/occasional/extra = 1 0 0
  (1) pair lj/cut/tip4p/long/omp, perpetual
      attributes: half, newton on, omp
      pair build: half/bin/newton/tri/omp
      stencil: half/bin/3d/tri
      bin: standard
Setting up Verlet run ...
  Unit style    : real
  Current step  : 16000000
  Time step     : 2
  Walltime left : 9:59:59.92
Per MPI rank memory allocation (min/avg/max) = 10.64 | 10.65 | 10.65 Mbytes
Step Temp PotEng TotEng E_pair E_mol Press Lx Ly Lz Volume Pxx Pyy Pzz Pxy Pxz Pyz Enthalpy 
16000000    168.82655   -6561.3807   -6127.0847   -6561.3807            0    2073.5414    23.175496    21.596636    21.788753    10905.549    2190.2386    1959.9795    2070.4061    1097.7244   -894.57964    283.84816   -5797.2957 
16001000    162.19457   -6588.5912   -6171.3556   -6588.5912            0    2802.6518    23.186149    21.493393    21.774572    10851.336    2919.7788    3170.0167    2318.1598    1020.0559    694.94133    33.068652   -5727.8202 
16002000    162.55832   -6593.5706   -6175.3992   -6593.5706            0    2272.4489    23.418737    21.386637     21.77846    10907.698    2946.2874    2573.1278    1297.9314    -756.1341   -349.57132    -954.9276   -5813.9035 
16003000    156.03166    -6578.184    -6176.802    -6578.184            0    1485.9893     23.57752    21.273527    21.721248    10894.878    1086.3054     2481.542     890.1205    11.503225     80.08819     391.5276   -5940.6923 
16004000    157.22415   -6605.1536   -6200.7041   -6605.1536            0    839.91552    23.507846    21.454933    21.680894     10934.96   -169.04543    1102.7957    1585.9963    419.75524   -19.433275   -180.54092   -6066.7584 
16005000    158.64705   -6587.6345   -6179.5247   -6587.6345            0    3083.3669    23.238855    21.558074    21.653996    10848.326    2605.0395    2214.1408    4430.9205   -352.79735     314.2343   -50.958135   -5691.6999 
16006000    164.52293   -6589.8294   -6166.6042   -6589.8294            0    1629.1044    23.248466    21.593344    21.754962    10921.254    1919.8201    938.71177    2028.7813    822.72379    317.10396     169.9198   -5907.1281 
16007000    157.58439   -6590.1583   -6184.7821   -6590.1583            0    2030.5456    23.342324    21.460085    21.743994    10892.181    2488.5747    2133.4046    1469.6575   -885.37681   -774.67743   -177.87698   -5862.2273 
16008000    162.00879   -6587.0119   -6170.2541   -6587.0119            0    1504.3951    23.372813    21.296364    21.925883    10913.738    2230.2697    526.10255     1756.813   -228.66608   -33.890154    874.51535   -5930.8061 
16009000    163.66893   -6568.2665   -6147.2382   -6568.2665            0    2856.9807    23.258299    21.435925    21.839199     10888.22     4377.472     2482.444    1711.0261   -263.54913    -597.6394   -831.05354   -5693.5681 
16010000    159.88017   -6575.7787   -6164.4967   -6575.7787            0    2019.2386    23.237672    21.496259    21.857831     10918.49     2657.993    1773.2953    1626.4276   -203.95179    130.71043    1177.1259   -5842.9633 
16011000    162.93333   -6595.2342   -6176.0981   -6595.2342            0     2138.569    23.332269    21.460647    21.726994    10879.262    2999.9383    1849.5176     1566.251   -567.98677    953.97247    115.35676   -5836.7866 
16012000    159.75077   -6557.6733   -6146.7242   -6557.6733            0    2254.8241    23.480744    21.400629    21.644985    10876.663    1300.5218    2521.5064     2942.444   -444.72782    527.30125    1367.2417   -5789.0528 
16013000    159.87079   -6566.5561   -6155.2982   -6566.5561            0    3176.3055    23.435149    21.382983    21.651211    10849.712    2941.8584    2294.8038    4292.2544    913.11379   -155.15561   -154.47941   -5652.7053 
16014000    158.13076   -6601.0162   -6194.2345   -6601.0162            0    2935.3049    23.213113    21.467831    21.751233    10839.405    2996.9144    2390.9473    3418.0532    519.67295    11.369467     1448.835   -5730.2168 
16015000    157.70149   -6579.7562   -6174.0787   -6579.7562            0    1280.6937    23.196959    21.586529    21.838382    10935.391    2252.4358    706.83036    882.81506   -492.42255   -473.92991   -202.87186   -5969.8318 
16016000    158.36328   -6580.3099   -6172.9301   -6580.3099            0    1557.0178    23.415841    21.311137    21.887582    10922.302    1580.1527    1797.7416    1293.1591   -55.000101   -953.85954   -1309.2064   -5924.9118 
16017000    158.99317   -6579.8788   -6170.8785   -6579.8788            0    1604.8998    23.450063    21.253089    21.917119    10923.191    2121.3023     1670.142    1023.2551   -928.91494   -377.06661    11.446559   -5915.2123 
16018000    155.67751   -6597.5125   -6197.0416   -6597.5125            0    1958.5891    23.303602    21.397854    21.866151    10903.492    1469.9748    2530.0604    1875.7321    -204.4439   -39.719893    470.93053   -5885.5941 
16019000    161.20734   -6595.1688   -6180.4727   -6595.1688            0     2082.956    23.256602    21.518899    21.773905    10896.892    2674.2227    1815.5174    1759.1279   -224.82331   -236.08406   -879.01727   -5849.4494 
16020000    158.15277   -6585.7703   -6178.9319   -6585.7703            0    2266.0028    23.174623    21.599835    21.722258    10873.468    3201.8048    531.25648    3064.9472   -634.95966   -198.26749    1919.5611   -5819.5929 
16021000    157.07138   -6600.3856   -6196.3291   -6600.3856            0    1932.3115    23.430683    21.442316    21.665818    10885.082    1524.8462    1767.0583      2505.03   -182.05855    349.06281   -332.56449    -5889.579 
16022000    164.88128   -6594.5335   -6170.3865   -6594.5335            0    3025.1694     23.45453    21.351814    21.652228    10843.366    3373.7708    3268.6783     2433.059   -87.567176   -892.87423    75.236734   -5691.9881 
16023000    159.50481   -6594.8033   -6184.4868   -6594.8033            0    3262.1466     23.35861    21.320042    21.784304    10848.726    2350.4296     3745.387    3690.6232   -153.34795    1199.9837   -778.00748    -5668.358 
16024000     172.2136   -6575.7648   -6132.7558   -6575.7648            0    1463.6322    23.212977    21.591951    21.775311    10914.079    1850.3548    1176.2671    1364.2747   -618.44614    519.58071     246.4788   -5899.7885 
16025000    170.22974   -6589.5828   -6151.6772   -6589.5828            0    2215.2134    23.203143    21.607969    21.740396    10900.043    2490.7841      1533.45    2621.4061     848.4767   -1094.8594    753.54465   -5799.5337 
16026000    162.48331   -6570.4898   -6152.5113   -6570.4898            0    2142.5437    23.420857     21.40807    21.756015    10908.365    2775.7185    2682.9445    968.96807   -286.20198    524.65757   -474.34731   -5811.6598 
16027000    158.44388   -6572.0391   -6164.4519   -6572.0391            0      1837.57    23.521944    21.266711     21.79409    10902.153    905.82942    3382.7905    1224.0901   -1096.5624    1045.8909    -632.9483   -5872.2842 
16028000    156.32883   -6594.9203   -6192.7739   -6594.9203            0     1789.648    23.347365    21.330704    21.823212    10868.303    1108.4553    2807.5284    1452.9602    1207.5947   -562.11462     196.6138   -5909.1092 
16029000    159.16436   -6599.1321   -6189.6915   -6599.1321            0     576.0596    23.300146    21.579325    21.776994    10949.503    1295.9127    305.62691    126.63919    503.79833    434.01082   -349.58393   -6097.7021 
16030000    167.47499   -6582.4918   -6151.6726   -6582.4918            0     2280.485    23.240199    21.509979    21.751485    10873.484    2855.7688    1575.3355    2410.3508    544.75257   -194.98097   -124.65368   -5790.0365 
16031000     161.4505   -6570.6452   -6155.3236   -6570.6452            0    3212.3153    23.366884    21.401868    21.688983    10846.551     2703.674    3769.9537    3163.3182    309.13048   -475.19908   -273.82811   -5647.1809 
16032000    164.06401   -6584.9705   -6162.9258   -6584.9705            0    1299.9321    23.403371    21.347457    21.931413    10956.988    2270.4858     1921.268   -291.95734   -894.24866    -868.3703   -109.22613   -5955.2013 
16033000    155.62977   -6582.3408   -6181.9927   -6582.3408            0    1784.9959    23.305545    21.413307    21.884457    10921.412    2231.2118    1701.3053    1422.4707    -806.8246    1072.1725    60.257465   -5897.6829 
16034000      156.183    -6586.298   -6184.5268    -6586.298            0    2040.1006    23.221977    21.510055    21.754286    10866.396     2685.664      1866.68    1567.9579    52.955657    591.58774   -552.10509   -5861.2213 
16035000    159.43332    -6603.426   -6193.2935    -6603.426            0    627.27238    23.391902    21.617353    21.653801    10949.699    181.47616    406.05559    1294.2854    469.84451     719.0901   -418.28088   -6093.1243 
16036000    159.62616    -6602.186   -6191.5574    -6602.186            0    1414.7774    23.427678    21.464524    21.692681    10908.468    865.22426    1992.6209     1386.487     479.6623   -5.4828633    724.60637   -5966.4821 
16037000    157.29384   -6569.8689   -6165.2401   -6569.8689            0    2769.9121    23.405903    21.381711    21.649893    10834.868    2178.9629    2863.8274    3266.9461     201.5905   -6.1152037    156.44118   -5727.5512 
16038000    160.12048   -6582.2969   -6170.3967   -6582.2969            0    1418.9356     23.39218    21.423907    21.794198    10922.203    1473.0923    1091.4767    1692.2378    189.84712   -548.06467    119.48106   -5944.3757 
16039000    161.77547   -6589.3105   -6173.1529   -6589.3105            0    2089.9052    23.283714    21.494352    21.745779    10883.074    2329.0251    1882.3183    2058.3721    744.35222   -591.15212   -13.588995   -5841.4464 
16040000    158.01034   -6592.8627   -6186.3908   -6592.8627            0    2159.9097    23.197954    21.420099    21.931645    10897.888    2163.3189     3002.029    1314.3813    502.91767   -511.76172    795.35729   -5843.1065 
16041000    159.48502   -6599.3123   -6189.0468   -6599.3123            0    2969.7624    23.322059    21.393655    21.765274    10859.655    3104.7103    3441.1397    2363.4372    820.02079   -580.48182   -519.61407    -5718.705 
16042000    160.02788   -6591.4547   -6179.7927   -6591.4547            0    1774.3728    23.443675    21.419404    21.693242    10893.251    1015.1922    2055.3558    2252.5704    611.46403   -342.74104    905.76365   -5897.9036 
16043000    165.57359   -6593.1531   -6167.2251   -6593.1531            0    616.80766    23.401406    21.556018    21.742981    10968.054    59.876126   -303.38926    2093.9361   -304.51558    1208.8502    381.52886   -6068.5619 
16044000    162.36741   -6589.6388   -6171.9585   -6589.6388            0    1716.9723    23.325983     21.44185    21.732432    10869.524    1389.9217     2339.301    1421.6942    979.37555    -97.25873    314.56926   -5899.7826 
16045000    155.73391   -6616.1777   -6215.5617   -6616.1777            0    1962.4194    23.314101    21.411527    21.751349    10858.067     2129.636    2189.7981    1567.8242    -349.3016   -410.37705    452.80667   -5904.8052 
16046000     163.8825   -6589.5193   -6167.9415   -6589.5193            0    522.26152    23.421465    21.351269     21.93295    10968.186    876.00015    1043.0415   -352.25709   -1093.6147     889.5687    -817.0925   -6084.4007 
16047000    162.45478   -6613.0824   -6195.1774   -6613.0824            0     2163.617    23.298558    21.259412    21.934311    10864.364    2413.3614    3360.8699    716.61967    -897.9447    180.61454   -429.93524   -5852.3618 
16048000    164.54062   -6588.2775   -6165.0068   -6588.2775            0    2387.8064    23.240444    21.446485    21.845057    10888.141    3215.8926    1980.7526    1966.7739   -86.174121   -445.49438    -599.9916   -5785.8413 
16049000    160.26005   -6574.6668   -6162.4076   -6574.6668            0    1707.2919    23.229693    21.473284    21.844493    10896.422    1452.2144    3072.0128    597.64837   -340.61962    571.77575   -267.32539   -5891.0965 
16050000    166.86342   -6602.1836   -6172.9376   -6602.1836            0     868.2732    23.324595    21.508126    21.817404    10945.101    762.20537    1731.0839    111.53034   -197.74116    413.56988    372.90277   -6034.3412 
16051000    167.19694   -6587.5905   -6157.4866   -6587.5905            0    2229.3011    23.480198    21.363527    21.712539     10891.44    1712.8698    2942.8881    2032.1456    564.15764    19.643234   -891.55702   -5803.3833 
16052000    163.37628   -6609.1763   -6188.9008   -6609.1763            0    2315.5777    23.434861    21.375667     21.67426    10857.412    1748.7033    2616.5198    2581.5099    1269.0181   -215.05842    331.64095   -5822.2424 
16053000    158.63639   -6594.2205   -6186.1381   -6594.2205            0    3100.3204    23.317854    21.544815    21.550545    10826.538    2495.5798     3988.373    2817.0084    85.671318    588.45003   -247.69895   -5696.6162 
16054000    164.76853    -6584.719    -6160.862    -6584.719            0     1813.041    23.262936    21.570997    21.733703    10906.075    2078.2452    1595.6594    1765.2183     425.1529    1122.2365    1395.8026   -5872.4907 
16055000    161.35329   -6587.9429   -6172.8714   -6587.9429            0    1336.1942    23.402223    21.473043    21.732507    10920.953   -126.13571    1759.7907    2374.9277   -312.10768    581.43263    492.45046   -5960.0545 
16056000    163.99235   -6572.7554   -6150.8951   -6572.7554            0    2650.0835    23.463356    21.262753    21.760136    10856.035    1545.9484    3579.9482    2824.3538    708.17669    285.93674    352.92805   -5731.3229 
16057000    157.39104   -6575.6933   -6170.8145   -6575.6933            0    1366.8994    23.453537    21.392626    21.775585    10925.524     409.4133    2075.6735    1615.6113   -535.43967   -116.30111   -777.43704   -5953.0161 
16058000    159.12164   -6587.1947    -6177.864   -6587.1947            0      1126.86    23.303512     21.50367    21.827779    10938.141    938.37752    1377.7405    1064.4621   -366.04302    764.75627    577.32557   -5998.1055 
16059000    161.88142   -6588.3849   -6171.9548   -6588.3849            0    2349.9289    23.108483    21.587174    21.832103    10890.876    2251.7417    1706.0457    3091.9993    843.60869    930.82186    245.55816   -5798.7103 
16060000     156.7889   -6602.7479    -6199.418   -6602.7479            0    1846.9466    23.146102     21.54029    21.883681    10910.629    2163.0821    2036.8586     1340.899   -500.68445    100.83569    575.41442   -5905.5312 
16061000    154.04576   -6571.8284   -6175.5551   -6571.8284            0    1470.0619     23.49718    21.351891    21.800596     10937.56    1340.8125    1442.4736    1626.8996    132.86743   -602.58699   -82.742132    -5941.061 
16062000    160.99264   -6582.5977    -6168.454   -6582.5977            0    1815.6921    23.500552    21.272387    21.825844     10911.02    1665.0308    2763.6477    1018.3978   -115.19805   -327.74171   -260.13502   -5879.5301 
16063000    158.07026    -6552.427   -6145.8009    -6552.427            0    3270.2928    23.272632     21.43296    21.796059    10871.904    3237.3658    3403.4618    3170.0508     -796.155    700.20767   -380.95588   -5627.2777 
16064000    161.95709   -6600.1971   -6183.5723   -6600.1971            0    1418.7612    23.221258    21.578694    21.775504    10911.366    2378.0106     139.0201    1739.2528    1092.5159   -166.40509   -73.950382   -5957.8033 
16065000    151.15901   -6596.9296   -6208.0822   -6596.9296            0    1586.4676    23.344868    21.557061    21.672947     10906.84    1853.0524    545.09008    2361.2604    296.90434   -599.62243   -90.107939   -5955.7307 
16066000    164.95415   -6583.0481   -6158.7136   -6583.0481            0    2543.6979    23.358275    21.391328    21.758326    10871.864    2503.7729    2369.9104    2757.4105    212.23093    353.32016    364.41926   -5755.3976 
16067000    156.31392   -6602.4485   -6200.3405   -6602.4485            0    1996.0462    23.350257     21.35933    21.815968    10880.623    1705.2581     3034.618    1248.2627   -905.16493    805.38294   -786.70986   -5883.6025 
16068000    155.08853   -6598.6848    -6199.729   -6598.6848            0    1073.8363    23.285256    21.453274    21.910926    10945.493    1585.7766    1068.2766    567.45563   -427.71739   -283.52196    97.800026   -6028.3138 
16069000    155.29716   -6610.1806   -6210.6881   -6610.1806            0    2615.8864    23.203164    21.470464    21.799836    10860.301    2770.9876    2552.0524    2524.6194   -120.15417     101.6643    -398.1919   -5796.3674 
16070000    154.08125   -6574.2367   -6177.8721   -6574.2367            0    2138.7668    23.197715    21.495013    21.833401    10886.902    2386.1585    2274.3945    1755.7473   -588.63064    1375.6422    927.68194   -5838.2909 
16071000    162.99479   -6590.3377   -6171.0435   -6590.3377            0    2319.3571    23.432066    21.413793    21.700444    10888.619    945.08517    3409.1374    2603.8486   -841.07418    440.05353   -249.28412   -5802.7312 
16072000    163.51183   -6558.8469   -6138.2226   -6558.8469            0     3407.364    23.411735     21.35521    21.721973    10860.172    3399.3995    2808.4669    4014.2256    126.34032    530.64905   -398.55845   -5598.5491 
16073000     156.9749   -6598.5075   -6194.6992   -6598.5075            0    1932.9442    23.364704    21.465751    21.664241    10865.503    1806.9278    1760.3312    2231.5737   -1030.8654    98.686977   -448.39252   -5888.4005 
16074000    161.70636   -6597.1501   -6181.1704   -6597.1501            0    2055.0101    23.259911    21.478993      21.7879    10885.223    2520.3328    1756.3833    1888.3141    60.250308   -295.90029   -82.419961   -5854.9379 
16075000    161.94227    -6592.207   -6175.6204    -6592.207            0    2494.9855    23.200387    21.485701    21.828645    10881.068    2600.8096    2472.3161    2411.8308   -208.30953    328.30777   -719.41524   -5779.6931 
16076000    159.30526   -6590.0152   -6180.2122   -6590.0152            0     1314.256    23.216133    21.433466    21.952043    10923.385    2234.4896    1741.5197   -33.241291   -1048.2642    73.324201   -298.75084   -5970.8428 
16077000    159.45422   -6596.3798   -6186.1935   -6596.3798            0    2822.6204    23.270154     21.44731    21.722597    10841.362    2819.8476    2580.7768    3067.2369    4.9919724   -409.13211   -875.20086   -5739.9086 
16078000    161.83553   -6564.4728   -6148.1608   -6564.4728            0    2115.7383    23.322648    21.538325    21.676153    10888.599    2501.5883    1464.2419    2381.3847    84.073243   -295.47502    1248.7851   -5812.1835 
16079000    149.34964   -6578.1057   -6193.9128   -6578.1057            0    2288.0673    23.443808    21.505336    21.601151    10890.587    1485.5154    2127.6874    3250.9992   -198.61725    261.84836    -1541.111   -5830.5036 
16080000    168.16492   -6577.4594   -6144.8654   -6577.4594            0    3403.4548    23.292067    21.353585    21.798467    10841.884    3076.9629    4087.2026    3046.1989    2.3105922    946.18897   -647.17482   -5606.7187 
16081000    156.51156   -6594.7396   -6192.1231   -6594.7396            0     1877.995    23.303798     21.47287     21.80809    10912.755    1877.1578    2118.1721    1638.6551   -930.54509   -361.33809   -658.68398   -5893.2377 
16082000     162.8113   -6600.3761    -6181.554   -6600.3761            0    2353.0101    23.233375     21.39263     21.84256    10856.255    2780.7883    2671.0747    1607.1674    137.94531    493.87048    -701.5224   -5809.0081 
16083000    154.04473   -6574.6162   -6178.3455   -6574.6162            0    1462.0539    23.256739    21.453536    21.921758    10937.626     1448.105     1590.268    1347.7888   -679.90501   -323.28935   -316.85012   -5945.1273 
16084000    168.99307   -6580.6738   -6145.9495   -6580.6738            0    2268.8505    23.293229    21.422184     21.78802    10872.045    2642.5786    1094.0294    3069.9434   -325.01145   -9.8844342    669.23413   -5786.2059 
16085000    160.94838   -6596.1164   -6182.0865   -6596.1164            0    2460.5494    23.379662    21.446967    21.668704    10865.183    1962.0436    2504.8603    2914.7442    378.16625    22.350829    158.30306   -5792.1939 
16086000    161.98645   -6608.7159   -6192.0157   -6608.7159            0    1271.8946    23.330981    21.437468    21.829525    10918.193    1622.1082    1343.1873    850.38828   -95.772473    -87.56554    570.07357   -5989.4911 
16087000    156.01879   -6600.0885   -6198.7397   -6600.0885            0    2277.1875    23.187474    21.482435    21.832361     10875.21    2955.7431    2171.7548    1704.0645    160.88609     274.6728   -699.68834   -5837.5692 
16088000    164.67854   -6594.7372   -6171.1117   -6594.7372            0    2460.2616    23.181949    21.455402    21.867833     10876.58    2898.9683    2937.9044     1543.912   -345.21554    -608.9368   -160.44856   -5780.8557 
16089000    154.27863   -6608.2502   -6211.3779   -6608.2502            0    1356.9278    23.374453    21.391308    21.797722    10899.082    886.76334    2435.1985    748.82168     945.1066   -142.51266   -463.63671   -5995.6915 
16090000    159.07595   -6600.7503   -6191.5371   -6600.7503            0    1788.2795    23.417989    21.338431    21.764941     10876.01     1291.735    1992.1408    2080.9627   -203.83707   -181.26714    465.13048   -5907.8883 
16091000    157.58499   -6602.3023   -6196.9245   -6602.3023            0    1421.3799    23.395926    21.510058    21.683644    10912.244    1077.6722    1686.0076    1500.4599    277.05868   -373.31221   -679.19568   -5970.7206 
16092000     161.3217    -6590.431   -6175.4407    -6590.431            0    2015.2548    23.207487     21.51328     21.78987     10879.01    3304.2052     992.7759    1748.7834    370.94212    429.87128    104.22505    -5855.702 
16093000    157.85302   -6583.0626   -6176.9953   -6583.0626            0    3334.4158    23.227358    21.520571     21.72184     10858.01    3016.8998    3441.5776    3544.7698   -817.40783    410.45687   -445.13048   -5648.9808 
16094000    162.64198    -6586.931   -6168.5445    -6586.931            0    3212.1866    23.375291    21.403248    21.697456    10855.392    2375.0283     3481.172    3780.3596    903.23419   -199.99525   -464.96651   -5660.0079 
16095000    152.88438   -6600.1022   -6206.8164   -6600.1022            0    1361.1313    23.435915    21.380369    21.761742    10904.124    1327.9126    1783.8229    971.65848   -42.071109   -37.429162    485.80383   -5990.3619 
16096000     160.2949   -6569.9429   -6157.5941   -6569.9429            0    2084.7147    23.399532    21.416307    21.728004    10888.588    1301.1929    2331.3861    2621.5652    323.51318    440.63774   -388.17895   -5826.5437 
16097000    159.32497   -6590.6144   -6180.7606   -6590.6144            0    1620.6412    23.368332    21.583806    21.594406    10891.733    925.71215    930.72066    3005.4907    495.59597    357.58999    70.101334   -5923.3302 
16098000    154.53664   -6604.6234   -6207.0873   -6604.6234            0     1824.931    23.227606    21.587134    21.710238    10885.892    2369.5787    652.64204    2452.5722   -169.78626   -813.32026   -520.03201    -5917.362 
16099000    159.67865   -6586.9756    -6176.212   -6586.9756            0    1920.8879    23.321868    21.401326    21.851779    10906.636    2307.7986    1630.6266    1824.2383    262.70695    62.409419    -563.2711   -5870.6716 
16100000    159.22763   -6601.3906   -6191.7872   -6601.3906            0    1254.6059     23.40348    21.365632     21.85556    10928.439    1426.1711    1467.6093    870.03722    341.87916   -1069.0648    490.14151    -5991.828 
16101000    156.23623   -6601.7493   -6199.8411   -6601.7493            0     2804.858    23.314219    21.370414    21.785376    10854.226    2998.3171    3273.7909    2142.4659   -267.08678    -423.3986   -528.04603   -5755.8384 
16102000    157.93045   -6584.9207   -6178.6542   -6584.9207            0    3310.0408    23.215362    21.529144    21.694134    10842.877      2871.33    3460.4609    3598.3315     499.4277    -31.35957   -99.228536     -5655.23 
16103000    160.66647    -6571.225   -6157.9203    -6571.225            0    1782.6032    23.379145    21.541435    21.687098    10922.063    1363.3568    1492.8514    2491.6013   -488.67882    138.60435   -205.28247   -5873.9746 
16104000    158.38468   -6580.4792   -6173.0443   -6580.4792            0     1881.711    23.390472    21.472108    21.696471    10896.895    2356.9626    1265.1731    2022.9972    744.81833     36.91146   -417.89966   -5874.0027 
16105000    163.66935   -6586.5307   -6165.5013   -6586.5307            0    1303.5815    23.527582    21.350925    21.801081     10951.46    1181.8764    1481.6782    1247.1898   -1398.5829   -457.84611   -243.60207   -5957.2987 
16106000      157.997   -6595.9288   -6189.4911   -6595.9288            0    2161.3145    23.366636    21.355296    21.835229     10895.81    1552.3693    2159.4903     2772.084    362.36321    1364.3421     293.5193   -5846.0491 
16107000    161.04133   -6601.2651   -6186.9961   -6601.2651            0    2047.0441    23.288787     21.42231    21.833029    10892.489    2494.0823    1141.5344    2505.5155   -34.664071   -442.03894   -345.50573   -5861.8113 
16108000     162.0964   -6602.2781    -6185.295   -6602.2781            0    2351.7692    23.231084    21.438013    21.869517    10891.638    2032.1163    2414.0477    2609.1435   -142.11919    498.80212    825.31287    -5811.732 
16109000    156.90312   -6593.7015   -6190.0778   -6593.7015            0    2820.4404    23.275528    21.507494    21.667865    10846.896    3898.5256    920.15898    3642.6365    -990.5508   -706.25825    219.50632   -5743.9099 
16110000      157.514   -6595.6776   -6190.4824   -6595.6776            0     775.8082    23.418609    21.532839    21.696983    10941.119    660.97835    668.18094    998.26533   -303.29451   -942.73403   -84.520677   -6066.6906 
16111000    158.89803   -6586.8657   -6178.1102   -6586.8657            0    1977.5793    23.397916    21.407997    21.749956    10894.608    1432.3851    2460.1221    2040.2308    196.12995    639.81889   -585.83891   -5863.8992 
16112000    162.23441   -6595.7003   -6178.3622   -6595.7003            0    2453.4712    23.288125    21.372306    21.860784     10880.57    2586.1714    3721.6268    1052.6153   -29.694885   -113.15738   -874.26975   -5789.0406 
16113000    159.05911   -6581.3854   -6172.2156   -6581.3854            0    1764.7216    23.401357    21.444728    21.765535    10922.724    1490.6224    2378.5058    1425.0365     731.0819   -60.046039   -939.38636   -5891.1012 
16114000    156.68182   -6572.5721   -6169.5177   -6572.5721            0    2291.1412    23.295209    21.506692    21.721701    10882.635    2714.7312    2041.8241    2116.8682    -829.1445   -885.20057    46.992639   -5805.8859 
16115000    158.01908   -6573.5324    -6167.038   -6573.5324            0    2945.5913    23.301725    21.457217    21.710952    10855.263    2915.4349    3090.0139    2831.3252    1172.2304   -280.50935    191.63998   -5700.7129 
16116000    158.75963   -6611.6803   -6203.2808   -6611.6803            0    1393.7206    23.381702    21.551938    21.618569    10894.051    1026.5294   -663.41892    3818.0514   -77.548711   -388.47321    2605.7767   -5981.8485 
16117000    150.23742   -6607.0576   -6220.5809   -6607.0576            0    1091.0346    23.398908    21.514678    21.664289    10906.236   -416.30612    1415.9581    2273.4519   -17.945493    587.33273   -357.46524   -6047.0451 
16118000    155.06988   -6599.3436   -6200.4358   -6599.3436            0    1404.8833    23.506193    21.395794    21.652711    10889.877    451.10124    1849.3354    1914.2133   -146.32237    222.59262   -644.99007   -5977.3155 
16119000    153.77247   -6579.5593    -6183.989   -6579.5593            0    2976.5267    23.414612    21.344733    21.691271    10840.834    2706.0896     3849.271    2374.2196   -25.548011   -1152.5641    238.68235   -5713.3928 
16120000    165.52523   -6610.0738   -6184.2702   -6610.0738            0    832.26987    23.389623    21.475445    21.778546     10939.42    795.36959    668.97776    1032.4623    706.13148    882.92238    438.41784   -6051.4897 
16121000     159.9447   -6595.4306   -6183.9826   -6595.4306            0    2349.0832    23.226123     21.47816    21.796967    10873.513    2352.7756    2994.1318    1700.3422   -509.24891    537.40222   -172.25256   -5811.4673 
16122000    164.88796   -6573.5127   -6149.3484   -6573.5127            0    2663.9363    23.232461    21.493182    21.796531    10883.869    3161.1335      2219.27    2611.4055   -221.76705    129.39383   -974.09575   -5726.5016 
16123000    157.01252   -6590.4472   -6186.5421   -6590.4472            0    972.66118    23.320654    21.378983     21.92038    10928.885    709.24154    1662.4609    546.28111    334.96303   -66.944386    622.26873    -6031.513 
16124000    158.84777   -6581.1573   -6172.5311   -6581.1573            0    1423.6888    23.348811    21.381705      21.8593     10912.98    1684.0324    1636.7366    950.29732   -329.20839   -249.22026    331.46828   -5945.9445 
16125000    163.09034   -6578.6429   -6159.1029   -6578.6429            0    1181.1624    23.275288     21.49442    21.877031    10944.834    1783.4207   -243.77719    2003.8436    767.34638   -474.30816   -203.48395   -5970.5668 
16126000    157.08417   -6585.2294     -6181.14   -6585.2294            0    2708.0009    23.206322    21.610086    21.712145    10888.437    3107.0941    2373.1113    2643.7973   -131.11324   -97.507731   -120.48907   -5751.1184 
16127000    162.84465   -6602.3572   -6183.4493   -6602.3572            0     2388.254    23.319876    21.442735    21.732782    10867.303    2672.7692     2116.368    2375.6247   -253.79528    170.78339    103.45383   -5804.9386 
16128000    159.78891   -6588.9509   -6177.9037   -6588.9509            0    2652.0652    23.505016    21.291466    21.711657    10865.734    2441.5715    2367.7475    3146.8767   -451.04323   -207.06168   -503.51552   -5757.6426 
16129000    166.36155   -6582.5176   -6154.5626   -6582.5176            0    1112.4965    23.447263    21.411327    21.783288    10936.017    869.96274    1973.8949     493.6318   -639.72622    360.17726   -647.67309   -5977.1299 
16130000    150.89648    -6602.598    -6214.426    -6602.598            0     2038.344    23.222487    21.503215    21.789561    10880.794    2956.1927    2040.1456    1118.6939   -303.20344    72.058168    114.96097   -5890.9709 
16131000    147.25098   -6579.9309   -6201.1367   -6579.9309            0    2726.5185    23.117631    21.611256     21.75252    10867.582    3552.8699    1613.9519    3012.7337   -827.24912    268.31625    531.51103   -5769.0039 
16132000    167.65468   -6588.3149   -6157.0334   -6588.3149            0    1849.4671    23.355363    21.532005    21.693171    10909.231    1529.5814    1567.5532    2451.2666   -754.52771    1081.0937   -93.936343   -5862.7833 
16133000    165.43718   -6592.6305   -6167.0535   -6592.6305            0    2947.7028    23.453978    21.344818    21.659166    10843.031    2096.8947    3640.6306    3105.5831   -191.28978   -242.84608   -929.16869     -5700.92 
16134000    154.45898   -6598.2465   -6200.9102   -6598.2465            0     1924.516    23.423461    21.379698    21.708039    10871.094    1509.4673     3455.402    808.67889    836.75886    845.98128   -133.46966   -5895.7902 
16135000    155.69008   -6606.6078   -6206.1046   -6606.6078            0     673.7313     23.33771    21.554827    21.739029    10935.608    755.05906   -176.35536    1442.4902   -355.00239    656.56486   -111.22137   -6098.6548 
16136000    162.01437   -6574.0989   -6157.3268   -6574.0989            0    3625.3273    23.136538    21.450294    21.754714    10796.551     3261.208    3994.2138    3620.5601    1181.0236    62.425244    289.93015   -5586.4951 
16137000    161.53742   -6599.9865   -6184.4413   -6599.9865            0    1842.7308    23.338468    21.402633    21.807371    10892.883    1274.5613     2431.687     1821.944     976.9279    667.53222   -1009.1458   -5891.7023 
16138000    157.16342   -6599.3971   -6195.1038   -6599.3971            0    1715.2559    23.451401    21.282875    21.893932    10927.552     1323.533    1947.9002    1874.3343   -1160.8353    159.52965    223.80851   -5921.7484 
16139000    157.89279   -6597.7343   -6191.5647   -6597.7343            0    2084.7741     23.39784    21.381176     21.72838    10870.129    1181.3715    2862.2298     2210.721   -239.67645   -152.13919    -452.0941   -5861.0661 
16140000    159.00748    -6589.728    -6180.691    -6589.728            0    2278.0522    23.296687    21.519162    21.697619    10877.563     2577.678    1241.8659    3014.6127    464.06469    326.72221   -822.93996   -5819.3051 
16141000    155.00082   -6588.1036   -6189.3735   -6588.1036            0     1455.471    23.284647    21.560297    21.748552    10918.293    2332.8534    1119.5867      913.973   -1115.8603    560.60863    268.22836   -5957.6158 
16142000    159.16267   -6587.2749   -6177.8387   -6587.2749            0    2045.8076    23.445297    21.448409    21.650111    10887.068    1942.9535    1385.2146    2809.2546    295.97867    329.47285    15.218429    -5853.012 
16143000      159.516   -6589.0075   -6178.6623   -6589.0075            0    2257.6381    23.346589    21.380223    21.753871    10858.559    3230.1012    1915.8999    1626.9133    387.85007   -456.48347    572.55601   -5821.1406 
16144000    155.35004   -6583.0845   -6183.4559   -6583.0845            0    2651.9173    23.275061    21.412791    21.854648    10892.007    2944.4866    3136.3258    1874.9396   -5.6131486    19.161902   -943.81873   -5762.2022 
16145000    163.03783   -6574.3724   -6154.9675   -6574.3724            0    2002.7335     23.20394    21.555468    21.798864    10903.177    2773.9663    1125.5856    2108.6486    781.90205   -1364.0709   -133.77282   -5836.5096 
16146000    160.96734   -6603.4664   -6189.3877   -6603.4664            0    2209.1085     23.33353    21.380599    21.801297    10876.337      2230.19    2535.9615     1861.174   -559.78089   -522.70977   -280.42637   -5838.9784 
16147000    154.95062   -6592.9338   -6194.3328   -6592.9338            0    1930.8947    23.393441    21.346522    21.806453    10889.457    2443.2325     2309.828    1039.6236    403.36213   -20.381502    123.09994   -5887.6844 
16148000    155.95869   -6598.8886   -6197.6944   -6598.8886            0    2143.7292    23.268814    21.452229    21.783171    10873.461    2084.1193    2689.7053     1657.363      568.354    209.58392   -245.53772   -5857.7455 
16149000    159.99491   -6572.0399   -6160.4628   -6572.0399            0    1586.7242    23.284355      21.6026    21.709391     10919.88    1851.7298      1899.27    1009.1726    184.12184   -441.53256   -403.32125   -5907.7686 
16150000    157.42575   -6591.4985   -6186.5304   -6591.4985            0    1999.5195    23.307334    21.450237    21.792386    10895.056    2312.2605      1842.92    1843.3781    267.21309    74.944798    132.04396   -5868.8203 
16151000    164.34169   -6587.1212   -6164.3623   -6587.1212            0    1392.0514    23.501538    21.369195    21.788725    10942.493    1146.2393    2241.6999    788.21491   -662.58138    550.10675    -897.5177   -5942.2117 
16152000    162.21808   -6616.5848   -6199.2887   -6616.5848            0    1791.1756    23.337304     21.38379    21.841113    10899.589     1960.275    1632.3167     1780.935    1062.9089   -1034.2226   -422.84189   -5914.5646 
16153000    162.69917    -6578.085   -6159.5513    -6578.085            0    1300.2946      23.2424     21.53465    21.854656    10938.626    1827.1812    1041.4188    1032.2839    -463.9358    -76.92832    511.29576   -5952.1171 
16154000    158.59478   -6588.8055   -6180.8301   -6588.8055            0    2203.7867    23.200542    21.487591    21.840969    10888.242    2822.9273    2886.7338    901.69901    503.35273    842.20905   -608.84473   -5830.8823 
16155000    158.00258   -6603.9214   -6197.4694   -6603.9214            0    1558.2711    23.408924    21.408552    21.727577    10888.801    1059.2533     2484.825     1130.735    680.26105   -258.10671    191.62205   -5950.0128 
16156000     150.6529   -6598.5532   -6211.0078   -6598.5532            0    1517.9175     23.50383    21.364581    21.685646    10889.436    1283.8214    911.73302     2358.198    31.250829    193.65766    392.30544   -5969.9454 
16157000    157.13245   -6598.1958   -6193.9822   -6598.1958            0    1086.0928    23.419415    21.428474    21.748725     10914.43    740.96635    1260.1202    1257.1919    274.67878   -189.79448    211.97936   -6021.1025 
16158000    156.80743   -6595.5761   -6192.1986   -6595.5761            0    2723.0003    23.284112    21.601451    21.571887    10850.025     2941.925    1792.2968    3434.7791   -57.924072   -236.15082   -357.66766   -5761.3206 
16159000    163.05709   -6598.0193   -6178.5649   -6598.0193            0    2021.8781    23.173646    21.539883    21.794036     10878.66    2363.7737    2621.0179    1080.8426    161.81228   -469.28635   -62.692212   -5857.7857 
16160000    158.88829   -6595.6564    -6186.926   -6595.6564            0    1946.5135    23.380938    21.409577    21.777797    10901.443     1081.087    2293.5118    2464.9417   -939.68228      1015.92   -390.87321   -5877.4569 
16161000    153.16864   -6594.8178   -6200.8008   -6594.8178            0    2119.0732    23.360125     21.31213    21.876502    10891.305    2444.5734    2043.3992    1869.2469    372.63355   -545.80099    456.23418   -5864.2104 
16162000    153.03706   -6574.2378   -6180.5593   -6574.2378            0    2133.5214    23.276043    21.480535    21.829011     10914.11    2435.0372    2669.1725    1296.3545    29.277395   -306.94131    -82.19054   -5840.9644 
16163000    165.60774   -6604.4582   -6178.4424   -6604.4582            0    2438.7522    23.155406    21.611325    21.710298    10864.246    3398.4419    721.15445    3196.6603    175.15805    468.20772    398.82476    -5792.037 
16164000    157.68224   -6600.9663   -6195.3384   -6600.9663            0    2367.5982    23.280492    21.547316    21.663042    10866.877     1615.938    2867.1252    2619.7313    -709.1207   -10.180507    4.2093015   -5820.1161 
16165000    154.39624   -6579.4544   -6182.2795   -6579.4544            0    1365.6032    23.471111    21.478106    21.672385    10925.374    69.872234    1619.6872    2407.2502   -21.377138    817.39642   -698.20048   -5964.6906 
16166000    161.12068   -6571.4959   -6157.0228   -6571.4959            0    1890.4284    23.583983    21.345304     21.67512    10911.413    1021.4549    2489.4008    2160.4294   -1222.9919    109.92409   -370.75382   -5856.1956 
16167000    158.91175   -6592.5111   -6183.7203   -6592.5111            0     2934.451    23.369373    21.290698    21.813093     10853.11    2008.9657    4114.9299    2679.4574   -20.389713    748.86589   -14.297345    -5719.251 
16168000    165.61425    -6588.335   -6162.3024    -6588.335            0    2401.4725    23.185823    21.482037    21.866194    10891.085    4059.4237    1771.4714    1373.5223   -989.38262    -608.8778   -316.31672   -5780.8638 
16169000    164.80276   -6568.4664   -6144.5213   -6568.4664            0    2575.0735    23.178128    21.532126    21.815109    10887.362    3239.8996    2431.5581    2053.7629    748.44376   -721.83746   -185.22478   -5735.6486 
16170000     155.2787   -6585.2155   -6185.7705   -6585.2155            0    2383.3198     23.27423    21.529102    21.742993    10894.833    2448.2692    2184.8554    2516.8349      519.628   -54.644907    633.48321   -5807.0849 
16171000    158.41317   -6587.5991   -6180.0909   -6587.5991            0    1305.1225    23.406382    21.333833    21.806378    10888.968    975.27094    2394.2719    545.82468   -331.47137    846.95367    168.28771   -5972.8317 
16172000    163.42465   -6598.7009    -6178.301   -6598.7009            0    1359.0526    23.493364    21.374382    21.723371    10908.524    458.58965    1701.0636    1917.5045    173.57901    133.47888    10.107677   -5962.0898 
16173000    156.46529   -6590.3813   -6187.8839   -6590.3813            0    2065.9442    23.374502    21.487638    21.652215    10875.103    1521.2147    2738.5968    1938.0211    172.08147    158.15318    827.28443   -5860.2206 
16174000    158.85996   -6604.1066    -6195.449   -6604.1066            0    1655.9378    23.242529    21.699823    21.590293    10889.254    784.60346    956.82421    3226.3858    43.570744    885.94516   -764.89006   -5932.4719 
16175000    165.81973   -6603.2911   -6176.7299   -6603.2911            0    2413.3631    23.239239    21.518725    21.762332     10882.88    3020.8659     1579.988    2639.2353    514.53682   -540.85626    538.83945   -5793.6914 
16176000    157.40396   -6600.3223   -6195.4103   -6600.3223            0    1863.4185    23.398106    21.388548    21.768957    10894.307    836.82185    2140.0181    2613.4157    26.312529    51.764807    1052.9995    -5899.346 
16177000    165.54399   -6577.4635   -6151.6116   -6577.4635            0    2389.6912    23.474386    21.267001    21.757641    10862.063     1846.833     2671.762    2650.4786    220.19434    229.17074   -338.60896   -5773.0558 
16178000    156.65864   -6572.5066   -6169.5118   -6572.5066            0    1806.6355    23.356627    21.558156    21.733137    10943.195    1387.3004    2201.5093    1831.0967   -518.03943   -72.137212    325.11154   -5881.1813 
16179000    162.08524   -6593.1077   -6176.1533   -6593.1077            0     2142.478    23.221867     21.51016    21.786614    10882.546    3182.7909     1859.785    1384.8579    904.09783   -807.97121   -752.25384   -5836.1189 
16180000    159.63787   -6585.7616   -6175.1029   -6585.7616            0    1880.9905    23.187773    21.521687    21.819466    10888.786    3396.3078    1233.3423    1013.3213   -453.87002   -217.32166   -445.20709   -5876.3983 
16181000    158.97012     -6593.55    -6184.609     -6593.55            0    2151.1063    23.341882    21.274882    21.882514    10866.764    2768.7874    3119.5037    565.02767   -690.95746   -637.65406     24.18566   -5843.7004 
16182000    161.01356   -6577.3749   -6163.1773   -6577.3749            0    2667.6152    23.460214    21.301256    21.772389     10880.36    1471.3729    3547.3066    2984.1659    412.37115   -167.76157    176.98601   -5739.8831 
16183000    163.49068   -6613.6498   -6193.0799   -6613.6498            0     2858.744    23.287443    21.419323    21.733549    10840.722     3247.073    3541.7553    1787.4037   -446.40393    390.07495   -600.03944   -5741.1102 
16184000    155.49264   -6591.2205   -6191.2252   -6591.2205            0    1737.1406    23.184591    21.761092    21.631037    10913.334    3097.0715    116.93602    1997.4142   -7.4902368    45.234053   -1059.0659   -5914.7422 
16185000     160.6429   -6576.0982   -6162.8541   -6576.0982            0    3439.5344    23.317514    21.519407    21.617179    10847.048    3158.7836    3094.3409    4065.4787    664.28925    490.02731    230.42308   -5618.7436 
16186000    159.39854   -6574.3417   -6164.2986   -6574.3417            0    2364.9435     23.42988    21.402967    21.701942     10882.85    2422.7321    2612.3085    2059.7899   -834.11048   -257.06686   -421.00023   -5788.9461 
16187000    154.92104   -6602.2575   -6203.7325   -6602.2575            0    2072.6924    23.465074    21.237254    21.841449    10884.331    1795.3798    2691.7199    1730.9774    645.98459   -428.47428    334.78127     -5874.72 
16188000    158.64026   -6563.7101   -6155.6177   -6563.7101            0    2164.7886    23.190772     21.48184    21.887897    10904.122      2216.95    2760.2191    1517.1968   -91.660919    130.94469   -792.06016   -5811.3612 
16189000    155.09964   -6609.2554    -6210.271   -6609.2554            0    2647.9041    23.176634    21.459284    21.828274    10856.379      3843.14    1975.0517    2125.5206   -34.545203   -89.794972    36.638364   -5791.0306 
16190000    171.37823   -6583.3588   -6142.4988   -6583.3588            0    2130.5271     23.18307    21.540955    21.852076    10912.609    4053.6203    1336.0614    1001.8997   -941.96019   -1129.3057   -526.99903   -5803.4271 
16191000    163.68897   -6581.4793   -6160.3994   -6581.4793            0    3027.1245    23.354329    21.296359    21.816601    10850.752    3304.3126    3779.9301    1997.1309    103.11485    695.49709    168.21688   -5681.3657 
16192000    162.19729   -6587.2589   -6170.0163   -6587.2589            0    1677.9911     23.45534     21.41568    21.741552    10921.044    432.78209    1984.9231     2616.268    719.07445    44.452547   -392.28797   -5902.7589 
16193000    159.87296   -6595.6337   -6184.3702   -6595.6337            0    2604.5063    23.319096    21.444888    21.703246     10853.26    1518.2974    3079.8017    3215.4198    516.56577   -652.72786    622.30577   -5772.1194 
16194000    161.79135   -6590.7375   -6174.5391   -6590.7375            0   -242.08499    23.314493    21.686946    21.746909    10995.676    20.472868    -1994.444    1247.7162    454.51321    149.10324     250.4968     -6213.36 
16195000    158.92655   -6575.8323   -6167.0035   -6575.8323            0    2985.4964    23.273256    21.329619    21.857951    10850.499     3137.016    2857.1928    2962.2805     30.54505    454.07053    576.32457   -5694.5684 
16196000    164.26476   -6605.1455   -6182.5844   -6605.1455            0    3402.2184     23.20856    21.406572    21.807898    10834.507     3908.019    3937.5637    2361.0725   -878.91515   -713.83907   -347.68063   -5644.9993 
16197000    166.04325   -6604.0199   -6176.8838   -6604.0199            0    1120.6165    23.378398    21.433809    21.833545     10940.53    480.03136    1778.2653    1103.5528    613.21944    1539.2133   -626.92258   -5998.0823 
16198000    166.78432   -6594.1667   -6165.1242   -6594.1667            0    3022.0093    23.364412    21.519022    21.575408    10847.669    2457.4999    3138.2267    3470.3012   -385.42191    255.49171   -1098.9271   -5687.0359 
16199000    161.71132   -6581.0232   -6165.0307   -6581.0232            0     1834.872    23.403548    21.467008     21.69148    10897.889    1604.7463    1534.1384    2365.7311     100.0797   -360.33293    559.58929   -5873.4061 
16200000      159.965   -6602.8193   -6191.3191   -6602.8193            0    1942.4496    23.355519      21.5069    21.674443    10887.177    1424.3592    669.78357    3733.2061    64.147001    67.616654    399.36357   -5882.9002 
16201000    161.51042   -6591.3773   -6175.9016   -6591.3773            0    1429.6672    23.217329    21.456085    21.904398    10911.741    2399.7767      1120.59      768.635   -526.89045    98.891096    343.05355   -5948.3892 
16202000    160.59797   -6592.6844   -6179.5559   -6592.6844            0     1682.905    23.277032    21.417026    21.906387    10920.877    2450.0063    1924.9877    673.72117   -224.22027    340.32867   -712.23921     -5911.52 
16203000    157.95469   -6620.1661   -6213.8373   -6620.1661            0    795.29228    23.285257    21.502376    21.858025    10944.059    1706.4408    495.51101    183.92499    -636.1405   -199.37044    797.56089   -6086.9024 
16204000    157.17727   -6591.2593   -6186.9303   -6591.2593            0    2717.8719    23.392532     21.40017    21.666935    10846.558    3185.4703    2598.6736    2369.4717    234.99103   -548.22436   -972.63158   -5757.0013 
16205000    157.91031   -6595.2129   -6188.9982   -6595.2129            0    2407.8629     23.37878    21.376275    21.734808    10861.997    1531.6158    2862.7443    2829.2286    -1036.256    303.32375    235.47349    -5807.566 
16206000    159.41196   -6619.0516   -6208.9741   -6619.0516            0    1024.3492    23.411258    21.521339    21.668551    10917.518   -180.15472    1424.7293    1828.4729   -70.684161    599.64943    573.56891   -6045.8764 
16207000    159.21657    -6610.646   -6201.0711    -6610.646            0    2292.0147    23.197916    21.535601     21.76189    10871.828    2956.8511    1257.9856    2661.2074     238.5564    198.22025    601.87791   -5837.6619 
16208000    159.03355   -6585.2519   -6176.1478   -6585.2519            0    2865.8798    23.142043    21.581571     21.75527    10865.488    4103.8586    1734.1466    2759.6343    1084.7397   -480.24411   -292.41912   -5722.0147 
16209000     160.8561   -6579.8413   -6166.0488   -6579.8413            0     1861.971    23.295581    21.435146    21.872271    10921.791    1466.6965    2424.6437    1694.5727    1323.6198    781.69125    279.03309   -5869.4682 
16210000    158.20708   -6597.0908   -6190.1128   -6597.0908            0    2262.1128     23.39017    21.338622    21.831792    10896.553    1931.2698    3642.6598    1212.4087   -152.43948   -239.52363   -371.52177    -5830.629 
16211000    162.99372   -6587.9199   -6168.6284   -6587.9199            0    3231.8918    23.329469    21.204169    21.905387    10836.201    3708.0721    3169.9939    2817.6095    1778.7616   -761.55983    265.68053   -5657.8768 
16212000    155.22587   -6590.1062   -6190.7971   -6590.1062            0     976.4717    23.309703    21.536448    21.820729    10954.185    1062.4617    442.21442     1424.739    139.69012   -184.41393     216.2238   -6034.8003 
16213000    158.39575   -6594.3218   -6186.8584   -6594.3218            0    2051.3922    23.239836    21.572972    21.740912    10899.857    2399.4164      1530.98    2223.7803    738.02505    114.51833    886.59946   -5860.7625 
16214000    156.66863   -6581.6278   -6178.6073   -6581.6278            0    2437.3948    23.396937    21.440653    21.649506     10860.38    2644.1793    2075.8369    2592.1682   -1103.0147   -25.279297    64.315673   -5792.5544 
16215000    148.42085   -6583.6976    -6201.894   -6583.6976            0    2883.8829    23.568649    21.245639    21.682161     10856.93    1938.3004     3501.029    3212.3192   -615.82931   -381.21247     484.6563   -5745.2681 
16216000    157.28967   -6591.5728   -6186.9547   -6591.5728            0    1937.1159    23.434819    21.396757     21.71878    10890.429    1083.9144    1848.8859    2878.5473   -633.30711    694.15415    399.02508   -5879.2908 
16217000    161.69124   -6599.6176   -6183.6767   -6599.6176            0     3066.974    23.169169    21.475159    21.766071     10829.96    3703.1752     3313.227    2184.5197   -524.10865    357.36754   -147.17188    -5699.267 
16218000    159.62115    -6571.732   -6161.1163    -6571.732            0     1887.433    23.127763    21.580927    21.855027     10908.25    2356.1164    1429.4212    1876.7615    75.507269    911.99621   -602.00508   -5860.8529 
16219000    161.68346   -6601.7276   -6185.8068   -6601.7276            0    1010.0764    23.279456    21.420547    21.925973    10933.577    769.75737    1382.8477    877.62409   -313.42079    425.47068    21.996007    -6024.745 
16220000    153.63363   -6604.7531     -6209.54   -6604.7531            0    1756.7515     23.48949    21.332572    21.721369    10884.388    1062.3243    2575.7129    1632.2171   -149.66196    -273.2093   -627.78588   -5930.6774 
16221000    159.12719   -6596.6445   -6187.2995   -6596.6445            0    2438.1806     23.45021    21.381558      21.6714    10866.084    2149.6411    2984.2183    2180.6824   -22.431969   -490.82655   -424.28891   -5800.9193 
16222000    154.97717   -6594.1127   -6195.4433   -6594.1127            0    2235.3557    23.258085    21.616431    21.613457    10866.312     1671.283    1681.7907    3352.9934     398.6673   -307.11533   -559.82651   -5841.1975 
16223000    155.91912   -6594.3872   -6193.2947   -6594.3872            0     2419.045    23.264481    21.510854    21.737288    10878.183    3006.8088    3044.9477    1205.3785    17.669503    810.01051   -755.73019   -5809.5201 
16224000    165.87808   -6586.8531   -6160.1419   -6586.8531            0    2104.3982    23.255988    21.464508    21.799358    10881.767    2683.6779    1661.2139    1968.3029    316.77385   -455.68185   -167.76129   -5826.1751 
16225000    161.49177   -6606.0597    -6190.632   -6606.0597            0    2081.2365     23.23079    21.330492    21.979528    10891.388    3160.6504    2438.2433     644.8157   -418.80196    133.46946   -273.16361    -5860.049 
16226000    153.71094   -6576.1127   -6180.7007   -6576.1127            0    1931.9231    23.296636    21.349794    21.955989    10920.434    1402.8113    2343.4536    2049.5043    83.155861   -566.88285    589.72043   -5873.0162 
16227000    170.55531   -6580.5707   -6141.8275   -6580.5707            0    1358.5332    23.392715    21.469333    21.791382    10944.198    1358.4252    1804.3817    912.79284   -414.14983    65.148754    255.45216   -5924.9922 
16228000    166.10269   -6577.2864   -6149.9974   -6577.2864            0    2662.2166    23.327343    21.524856    21.658094    10874.912     1851.059    3632.9881    2502.6028   -1075.5945    530.11217   -415.42657   -5727.7713 
16229000    167.28577    -6598.696   -6168.3635    -6598.696            0    2505.5251     23.33409     21.44036    21.698728    10855.685    2188.1209    2146.1787    3182.2757    303.66858   -471.19158    1136.5526   -5771.6913 
16230000    165.82359   -6585.7692   -6159.1981   -6585.7692            0    1013.6678    23.446378    21.566006    21.681394    10963.082    955.64274    630.94589    1454.4149    -1406.333    85.047024    -976.9933   -5997.1275 
16231000    165.06946   -6585.1281   -6160.4969   -6585.1281            0     2525.547    23.301325     21.33882     21.85263    10865.626    2549.3551      2944.96    2082.3258   -131.68381    176.91069    585.18274   -5760.2887 
16232000    161.76101   -6584.4283    -6168.308   -6584.4283            0    1716.0632    23.314504    21.468815    21.836249    10929.802    3316.0385    1070.4838    761.66733   -841.42294   -490.68683   -247.17908   -5894.7676 
16233000    158.00883   -6598.2748   -6191.8067   -6598.2748            0    1704.7362     23.20214    21.484445    21.852113    10892.952     1949.749    1470.4912    1693.9683    167.97677   -174.05925     851.7251    -5920.988 
16234000    165.90168   -6608.1686   -6181.3966   -6608.1686            0    1705.2317    23.284009    21.590528    21.695282    10906.523    1537.6393    421.62875    3156.4272    326.11292   -524.56174    572.48696   -5910.1617 
16235000    159.12195   -6593.2447   -6183.9132   -6593.2447            0    2233.2014    23.360772    21.388106    21.761798    10873.123    2347.4664    2951.0967    1401.0413    1311.9916    106.36906    539.46973    -5829.787 
16236000    156.72097   -6585.2062    -6182.051   -6585.2062            0    2323.3072    23.513878    21.263334    21.740559     10869.92    1590.2345     3062.768    2316.9193   -322.11063    213.23348   -875.53559    -5813.745 
16237000    158.84833   -6602.3783   -6193.7506   -6602.3783            0    814.55704     23.43602    21.387249    21.828389    10941.087   -186.67696    925.61622    1704.7318   -612.04083    413.75887   -152.32987   -6063.7762 
16238000    166.29434    -6589.251    -6161.469    -6589.251            0    1755.0682    23.126999    21.638974    21.791298    10905.336    3587.7078     679.6221    997.87454   -653.16712   -223.93561   -1354.5665   -5882.3374 
16239000    155.19956   -6583.8305    -6184.589   -6583.8305            0    2624.2475     23.03462    21.710186    21.720773    10862.252     4416.897    737.94325    2717.9022   -827.31575    521.67393   -318.74047   -5768.8694 
16240000    156.09408   -6575.0058   -6173.4633   -6575.0058            0    2330.9952    23.314828    21.444084    21.766999    10882.741    2972.7515    2199.7626    1820.4715   -802.08264   -136.87408   -471.67261   -5803.5026 
16241000    159.57474   -6598.7342   -6188.2379   -6598.7342            0    1922.7822    23.503993    21.321502    21.715437    10882.484    1256.7984    2537.6191     1973.929   -420.34002    81.961896    133.08945   -5883.0734 
16242000    156.35431   -6586.2599    -6184.048   -6586.2599            0    2829.4806    23.549752    21.330499    21.587592    10844.051    1444.1748    4255.2896    2788.9774    692.02175   -44.999081   -231.20674   -5736.5674 
16243000    154.41743    -6565.575   -6168.3455    -6565.575            0    2085.3841     23.38554    21.490583    21.679946    10895.666     1277.898    2509.7436    2468.5109    338.86266    624.95493   -753.55189   -5836.9736 
16244000    157.51235    -6584.361   -6179.1701    -6584.361            0    2310.3535     23.19855       21.576    21.747681    10885.408    2238.0335    2032.2085    2660.8184    263.31478    363.57851    230.63244   -5812.3956 
16245000    166.59026   -6578.4331   -6149.8898   -6578.4331            0    2932.1709       23.157    21.430923    21.876448    10856.754    3034.0226    2803.9213    2958.5689    1223.3497   -748.36484    558.68519   -5685.6257 
16246000    155.02631    -6584.351   -6185.5553    -6584.351            0    1341.9458    23.341885    21.407079    21.906229    10946.139    1121.4732    2268.4347    635.92944   -805.66323    817.31265   -109.49745   -5971.3295 
16247000     157.5778   -6588.9746   -6183.6153   -6588.9746            0    1854.6625    23.312232    21.377916    21.876816    10902.682    1965.8584    2032.1715    1565.9575    291.90331    102.06476    251.47857   -5888.7158 
16248000    165.47851   -6595.4417   -6169.7583   -6595.4417            0    1943.9831    23.297212    21.480879    21.766877    10893.115    2361.7818    2041.3028    1428.8648     117.4874   -1174.4784   0.53606739   -5860.9276 
16249000    164.99775   -6614.7176    -6190.271   -6614.7176            0    1672.0052    23.238337    21.515267    21.804949    10902.017    2163.3005    1465.7283    1386.9867   -287.18665   -179.21971   -32.139612   -5924.4309 
16250000    165.35743   -6570.5357   -6145.1637   -6570.5357            0    1180.8795    23.318489    21.559886    21.760073    10939.745    2037.6497    934.13519    570.85365   -360.65022   -79.866579    177.45744   -5956.7604 
Loop time of 549.65 on 64 procs for 250000 steps with 1296 atoms

Performance: 78.595 ns/day, 0.305 hours/ns, 454.835 timesteps/s
194.8% CPU use with 32 MPI tasks x 2 OpenMP threads

MPI task timing breakdown:
Section |  min time  |  avg time  |  max time  |%varavg| %total
---------------------------------------------------------------
Pair    | 34.539     | 47.281     | 57.027     |  78.9 |  8.60
Bond    | 0.71758    | 0.96175    | 1.2613     |  11.8 |  0.17
Kspace  | 284.19     | 295.11     | 306.17     |  32.8 | 53.69
Neigh   | 1.9829     | 2.0631     | 2.2796     |   5.3 |  0.38
Comm    | 71.036     | 78.76      | 82.549     |  24.2 | 14.33
Output  | 0.54964    | 0.54996    | 0.55167    |   0.0 |  0.10
Modify  | 106.14     | 108.12     | 110.06     |   8.8 | 19.67
Other   |            | 16.8       |            |       |  3.06

Nlocal:        40.5000 ave          53 max          29 min
Histogram: 2 0 4 4 7 5 5 4 0 1
Nghost:        3050.62 ave        3079 max        3026 min
Histogram: 2 2 4 8 2 6 3 1 2 2
Neighs:        12759.9 ave       16770 max        9174 min
Histogram: 2 1 3 5 8 3 6 3 0 1

Total # of neighbors = 408318
Ave neighs/atom = 315.06019
Ave special neighs/atom = 2.0000000
Neighbor list builds = 4523
Dangerous builds = 0

unfix		3
unfix		2
unfix		1

write_data	data.final.${pid}
write_data	data.final.0
System init for write_data ...
PPPM initialization ...
  extracting TIP4P info from pair style
  using 12-bit tables for long-range coulomb (../kspace.cpp:340)
  G vector (1/distance) = 0.3665896
  grid = 30 40 32
  stencil order = 5
  estimated absolute RMS force accuracy = 0.0046813976
  estimated relative force accuracy = 1.409789e-05
  using double precision FFTW3
  3d grid and FFT values/proc = 7752 1200
Last active /omp style is kspace_style pppm/tip4p/omp
WARNING: Not all mixed pair coeffs generated from mixing. Use write_data with 'pair ij' option to store all pair coeffs. (../write_data.cpp:312)

write_restart   restart.lmp.${pid}
write_restart   restart.lmp.0
System init for write_restart ...
PPPM initialization ...
  extracting TIP4P info from pair style
  using 12-bit tables for long-range coulomb (../kspace.cpp:340)
  G vector (1/distance) = 0.3665896
  grid = 30 40 32
  stencil order = 5
  estimated absolute RMS force accuracy = 0.0046813976
  estimated relative force accuracy = 1.409789e-05
  using double precision FFTW3
  3d grid and FFT values/proc = 7752 1200
Last active /omp style is kspace_style pppm/tip4p/omp
Total wall time: 0:09:09
