#include		in.partitions
include		in.temp
variable        temperature equal 88.97
variable	tempDamp equal 100.0
include		in.pressure
variable        pressure equal 6880.3
variable        pressureDamp equal 1000.0 # This is 1 ps
include		in.seed
variable        seed equal 745823

units		real
atom_style	full

read_restart	restart.lmp.${pid}
read_restart	restart.lmp.1
Reading restart file ...
  restart file = 30 Jul 2021, LAMMPS = 30 Jul 2021
  restoring atom style full from restart
  orthogonal box = (0.14120726 0.063059736 0.14886749) to (19.858794 19.936941 20.551131)
  2 by 4 by 4 MPI processor grid
  restoring pair style lj/cut/tip4p/long/omp from restart
  restoring bond style harmonic/omp from restart
  restoring angle style harmonic/omp from restart
  972 atoms
  648 bonds
  324 angles
Finding 1-2 1-3 1-4 neighbors ...
  special bond factors lj:    0        0        0       
  special bond factors coul:  0        0        0       
     2 = max # of 1-2 neighbors
     1 = max # of 1-3 neighbors
     1 = max # of 1-4 neighbors
     2 = max # of special neighbors
  special bonds CPU = 0.003 seconds
  read_restart CPU = 0.007 seconds
include 	in.setup
variable	out_freq equal 1000
variable	out_freq2 equal 10000
variable	out_freq3 equal 1000

timestep	2.0

neigh_modify    delay 7 every 1

include		in.tip4p
# This is TIP4P/Ice

# create groups ###
group ox type 2
324 atoms in group ox
group hy type 1
648 atoms in group hy

# set charges - beside manually ###
set group ox charge -1.1794
Setting atom values ...
  324 settings made for charge
set group hy charge 0.5897
Setting atom values ...
  648 settings made for charge

# ### TIP3P Potential Parameters ###
pair_style lj/cut/tip4p/long/omp 2 1 1 1 0.1577 8.5
pair_coeff 1 1*2 0.000 0.000
pair_coeff 2 2 0.21084 3.1668
bond_style  harmonic
bond_coeff  1 450 0.9572
angle_style harmonic
angle_coeff 1 55 104.52
kspace_style pppm/tip4p/omp 1.0e-5
pair_modify tail yes

thermo          ${out_freq}
thermo          1000
thermo_style    custom step temp pe etotal epair emol press lx ly lz vol pxx pyy pzz pxy pxz pyz enthalpy

restart 	${out_freq3} restart.lmp.${pid} restart2.lmp.${pid}
restart 	1000 restart.lmp.${pid} restart2.lmp.${pid}
restart 	1000 restart.lmp.1 restart2.lmp.${pid}
restart 	1000 restart.lmp.1 restart2.lmp.1


include         in.dump
dump            myDump all atom ${out_freq2} dump.water.${pid}
dump            myDump all atom 10000 dump.water.${pid}
dump            myDump all atom 10000 dump.water.1
dump            myDump2 all dcd ${out_freq2} dump.dcd
dump            myDump2 all dcd 10000 dump.dcd
dump_modify     myDump append yes
dump_modify     myDump2 append yes


variable natoms 	equal  "count(all)"                        # NUMBER ATOMS
variable H      	equal  "enthalpy/v_natoms"                 # ENTHALPY-per-atom
variable Vol      	equal  "vol/v_natoms"                 # volume-per-atom
fix AVG all 		ave/time ${out_freq} 1 ${out_freq} v_Vol v_H file vol_enthalpy.dat
fix AVG all 		ave/time 1000 1 ${out_freq} v_Vol v_H file vol_enthalpy.dat
fix AVG all 		ave/time 1000 1 1000 v_Vol v_H file vol_enthalpy.dat


timer           timeout 02:55:00 every 1000
New timer settings: style=normal  mode=nosync  timeout=02:55:00

fix 		1 all shake 1e-6 200 0 b 1 a 1
       0 = # of size 2 clusters
       0 = # of size 3 clusters
       0 = # of size 4 clusters
     324 = # of frozen angles
  find clusters CPU = 0.001 seconds
fix             2 all nph aniso ${pressure} ${pressure} ${pressureDamp}
fix             2 all nph aniso 6880.3 ${pressure} ${pressureDamp}
fix             2 all nph aniso 6880.3 6880.3 ${pressureDamp}
fix             2 all nph aniso 6880.3 6880.3 1000
fix             3 all temp/csvr ${temperature} ${temperature} ${tempDamp} ${seed}
fix             3 all temp/csvr 88.97 ${temperature} ${tempDamp} ${seed}
fix             3 all temp/csvr 88.97 88.97 ${tempDamp} ${seed}
fix             3 all temp/csvr 88.97 88.97 100 ${seed}
fix             3 all temp/csvr 88.97 88.97 100 745823


run             250000
PPPM initialization ...
  extracting TIP4P info from pair style
  using 12-bit tables for long-range coulomb (../kspace.cpp:340)
  G vector (1/distance) = 0.37232162
  grid = 24 24 24
  stencil order = 5
  estimated absolute RMS force accuracy = 0.0034917645
  estimated relative force accuracy = 1.0515345e-05
  using double precision FFTW3
  3d grid and FFT values/proc = 3211 432
Last active /omp style is kspace_style pppm/tip4p/omp
Neighbor list info ...
  update every 1 steps, delay 7 steps, check yes
  max neighbors/atom: 2000, page size: 100000
  master list distance cutoff = 10.8154
  ghost atom cutoff = 10.8154
  binsize = 5.4077, bins = 4 4 4
  1 neighbor lists, perpetual/occasional/extra = 1 0 0
  (1) pair lj/cut/tip4p/long/omp, perpetual
      attributes: half, newton on, omp
      pair build: half/bin/newton/omp
      stencil: half/bin/3d
      bin: standard
Per MPI rank memory allocation (min/avg/max) = 10.19 | 10.19 | 10.19 Mbytes
Step Temp PotEng TotEng E_pair E_mol Press Lx Ly Lz Volume Pxx Pyy Pzz Pxy Pxz Pyz Enthalpy 
34500000    93.753239   -5051.4873   -4870.6763   -5051.4873            0    5738.7051    19.717586    19.873882    20.402263    7994.9323    5948.4041    5738.2386    5529.4725    288.10586    -427.6491   -243.27839   -4201.5554 
34501000    87.311092   -5067.3108    -4898.924   -5067.3108            0    6320.0939    19.729604    19.822295     20.44896    7997.3026    6709.1308    6207.5484    6043.6023   -119.23773    431.91577    288.98334   -4161.7959 
34502000     86.94334   -5060.6981   -4893.0205   -5060.6981            0    8353.5681    19.668904    19.826712    20.420435    7963.3507    8666.5868    8700.3993    7693.7183   -180.15781   -198.09346    1121.3966   -3922.8597 
34503000    88.262131   -5062.5581   -4892.3372   -5062.5581            0    7499.0741     19.76225    19.643857    20.473762    7948.0542    9196.2026    6280.8277    7020.1919   -70.896089    867.80417    387.82074   -4023.0879 
34504000    84.994071    -5067.451   -4903.5328    -5067.451            0    7043.1913    19.719613    19.819592     20.32562     7943.957    6737.7532    7334.3711    7057.4496   -613.14537   -230.67782    895.59957   -4087.5476 
34505000    84.523346   -5051.3838   -4888.3734   -5051.3838            0    6665.0559    19.753505    19.681832    20.411528    7935.6992    7766.2286    5080.2147    7148.7244    92.040158    434.65807    141.38429   -4116.9996 
34506000    88.551444   -5062.9793   -4892.2004   -5062.9793            0    6624.6933     19.79883    19.799198    20.471937    8025.0189    6968.8872    6539.4321    6365.7604   -78.316007   -335.70945    183.29959   -4116.8684 
34507000    94.763914   -5078.5617   -4895.8015   -5078.5617            0    6355.9953    19.856908    19.734909    20.367278    7981.4119     5391.415    6925.0178    6751.5532   -100.05494   -256.45934   -748.01413   -4155.9592 
34508000    93.254376   -5072.4469    -4892.598   -5072.4469            0    6988.3231    19.697105    19.714647    20.497906     7959.777    7040.0987    7042.7801    6882.0904    100.55832   -415.28724    650.37542   -4081.3573 
34509000    90.909128   -5054.9695   -4879.6436   -5054.9695            0    7759.9326    19.549028     19.70436    20.601774    7935.8255    8073.2413     8394.569    6811.9875   -43.325243    454.51876   -8.9865574   -3981.5411 
34510000    89.292938   -5061.3263   -4889.1173   -5061.3263            0    6750.2847    19.727012    19.810581    20.420987    7980.5944    6684.6589    7465.7458    6100.4495   -82.457617    203.69564    205.30075   -4103.4599 
34511000    86.880232   -5063.6376   -4896.0818   -5063.6376            0    6642.8342    19.750225    19.850151    20.350854    7978.4495    8415.3317    4122.9553    7390.2156    214.34423    122.16543    607.57617   -4123.1382 
34512000    92.942285   -5055.0052   -4875.7582   -5055.0052            0    7856.1306    19.653339    19.810388    20.456794    7964.6537    8973.1994    7184.4556    7410.7368   -336.56541   -223.01326    1021.1884   -3963.2191 
34513000    93.342053   -5061.2866   -4881.2686   -5061.2866            0    7164.9958    19.626969    19.755254    20.588318    7982.8269    7593.5279    6833.0403    7068.4193   -688.36374   -48.838251   -226.51365   -4047.1102 
34514000    87.746347   -5066.6167   -4897.3905   -5066.6167            0    6731.5163    19.806287    19.759897    20.393678    7981.4774    6396.8945    7065.1992    6732.4552   -364.81156    237.41005    204.28138   -4113.8308 
34515000    86.542007   -5060.0512   -4893.1476   -5060.0512            0    7740.8024    19.689747     19.74995    20.430131    7944.6961    8793.6094    7650.4443    6778.3536   -348.87806   -43.175811    -34.08146   -3996.2577 
34516000     86.31954   -5060.2347   -4893.7602   -5060.2347            0    6709.8058     19.85247     19.77112     20.35361    7988.9054    6435.1717    6598.1953    7096.0504   -253.47405    517.42311    -8.216288   -4112.0008 
34517000     87.33493   -5066.2916   -4897.8589   -5066.2916            0    6332.8889    19.751575    19.841024    20.426295    8004.8909    6240.7573     6149.485    6608.4245   -725.93767    394.47143    577.78643   -4158.5376 
34518000    85.341451   -5067.3244   -4902.7362   -5067.3244            0    6431.9431     19.67705    19.758812     20.51529    7976.2451    6057.3341    6570.9415    6667.5539   -161.84875    510.02126    327.92849   -4154.5381 
34519000    87.821631   -5065.0056   -4895.6342   -5065.0056            0    6761.1296    19.693924    19.744994    20.544959    7989.0389    6709.8657    6618.4962     6955.027    -318.5298   -183.44084    209.37429   -4107.8819 
34520000    87.062035   -5060.2027   -4892.2962   -5060.2027            0    6922.0765    19.732562    19.782613     20.39609    7961.8511     7294.824    7182.0027    6289.4027   -97.976276   -18.896014   -884.08927   -4088.5364 
34521000    87.724879   -5071.5503   -4902.3655   -5071.5503            0    6002.2938    19.784438    19.724306    20.409607    7964.5289    5178.3042    6256.1386    6572.4385   -93.901329    208.44685    1360.7557   -4205.1721 
34522000    89.256759   -5063.5661   -4891.4269   -5063.5661            0    7332.5609    19.759903    19.841582    20.380697    7990.6138    7896.2494    5811.0834    8290.3498   -121.27353   -82.378814    625.76208   -4036.9276 
34523000    88.268499   -5076.4903   -4906.2571   -5076.4903            0    6195.8103    19.795795    19.718233    20.520017    8009.7447    5295.6621    6506.7984    6784.9705   -221.19286   -390.58598    405.75768   -4182.5003 
34524000    99.096476    -5071.211   -4880.0951    -5071.211            0    6336.4388     19.81533    19.769151      20.4228    8000.2694    6064.5928    6357.4775    6587.2462   -146.99711    210.05616   -635.49777   -4140.7865 
34525000    96.073107   -5068.3072   -4883.0221   -5068.3072            0    7353.1241    19.765424    19.755609    20.394533    7963.6165    7932.9002    6728.4858    7397.9865    -431.5981    660.14981    742.05802   -4029.0216 
34526000    92.745452   -5057.3737   -4878.5063   -5057.3737            0    7236.0632    19.697807    19.722617    20.432143    7937.7301    8123.0789    6488.5671    7096.5437    72.626571    124.09468    123.53428   -4040.8332 
34527000    91.957284   -5059.0854   -4881.7381   -5059.0854            0    7475.0426    19.650409    19.882704    20.454367    7991.5879    9506.4794    5321.7274    7596.9209   -590.09919    216.08836    759.49947   -4010.5285 
34528000    87.282071   -5064.5348    -4896.204   -5064.5348            0    7352.2999    19.694478    19.875934    20.337192    7960.9158    7629.1988    7020.6884    7407.0124    -210.2487    483.75832    473.06945   -4042.5888 
34529000    92.650554   -5065.7868   -4887.1025   -5065.7868            0    6854.9336    19.703711    19.878618    20.290831    7947.5642    6651.2344      6268.89    7644.6764   -471.00984    1145.1208    75.616716   -4092.5672 
34530000    91.679183   -5063.9323   -4887.1213   -5063.9323            0    7143.2185    19.765207    19.713103    20.431572    7960.8263    7009.9013    8025.5833     6394.171   -413.68215    322.41095    490.00782   -4057.7901 
34531000    93.379164   -5066.9659   -4886.8763   -5066.9659            0    6963.6099    19.782894    19.681819    20.546376    8000.0056    6542.1738    8048.8578    6299.7981    258.17174   -408.09719    614.91003   -4074.4189 
34532000    91.059376   -5062.2263   -4886.6107   -5062.2263            0    6530.3786    19.768699    19.714419     20.38688    7945.3463    6561.7332    6849.1784    6180.2242    445.23716    228.43964    323.71035   -4129.9048 
34533000    93.518638   -5070.9317   -4890.5731   -5070.9317            0    7007.4834    19.737759    19.770512    20.427946    7971.5076    7691.0539    6021.5907    7309.8056    457.63122    1229.5872    96.016699   -4075.9093 
34534000    90.336819   -5069.7025   -4895.4804   -5069.7025            0    7245.2027    19.726379    19.799768     20.29501    7926.7789    7846.9909    6548.3444    7340.2729   -471.00323    -176.2996   -328.04162   -4057.9064 
34535000    86.732767   -5075.5356   -4908.2642   -5075.5356            0    6943.3967    19.633647    19.805677     20.43468    7946.1822    7019.1321    6992.6197    6818.4383   -320.91315    1226.4577   -501.95535   -4103.6154 
34536000    87.105432   -5067.8024   -4899.8122   -5067.8024            0    6781.3327     19.64124     19.84647    20.390177    7948.2798    5385.9357    7547.3516    7410.7107   -395.31493    313.37742    423.75757    -4113.737 
34537000    90.726883   -5067.1029   -4892.1285   -5067.1029            0    7156.9092    19.760711    19.739029    20.355271    7939.7213    6234.9572    7979.5062    7256.2643   -114.77281    403.87305    13.440103   -4063.4107 
34538000    91.399356     -5066.49   -4890.2187     -5066.49            0      6212.86    19.809949    19.797627    20.384934    7994.7669    7717.3152    5146.5589    5774.7059     39.28147    577.86343   -574.70902   -4165.8273 
34539000    89.452731    -5069.764   -4897.2468    -5069.764            0    7715.7736    19.831718     19.74981    20.257332    7934.2432    7349.8715    7244.8894      8552.56   -284.36676    232.39858   -80.374748   -4004.4331 
34540000    95.305107   -5076.8628   -4893.0588   -5076.8628            0     6732.316    19.644762    19.808977     20.44273     7955.138    7197.4124    6331.1921    6668.3436   -208.23713    249.62239    10.267588   -4111.9922 
34541000    88.582384   -5062.5712   -4891.7326   -5062.5712            0    5851.0216    19.691674     19.84427    20.429439    7983.1488    6174.3753    5639.6312    5739.0583   -233.21431   -383.20425   -747.25983   -4210.5214 
34542000    89.344993   -5067.8716   -4895.5623   -5067.8716            0    6509.3658    19.701807    19.930357    20.307701    7974.1037    5851.0749    7006.3917    6670.6308    290.62221    452.84255    508.30817   -4138.5613 
34543000    94.905858   -5065.6559    -4882.622   -5065.6559            0    7992.3671    19.885843    19.681661    20.211841    7910.6403     5769.046    8519.3205    9688.7349   -412.59324    202.57616    906.01455   -3960.5539 
34544000    84.625375   -5060.1613   -4896.9541   -5060.1613            0    6924.0007      19.6849    19.705841    20.417959    7920.2797    6767.4239    7463.9773    6540.6009    269.56817    525.64693    188.18814   -4097.1686 
34545000    86.962756   -5073.8546   -4906.1396   -5073.8546            0    6192.8779    19.727616    19.641126    20.609323    7985.5478    7088.7097    5601.4727    5888.4513    32.072042   -649.47943    51.276846   -4184.9107 
34546000    85.265453   -5062.8319   -4898.3903   -5062.8319            0    6983.4346    19.823668    19.700329    20.391077    7963.3841     6583.613    7464.4532    6902.2375   -652.24898    131.27749   -340.64137   -4087.3496 
34547000    89.689611   -5068.4591   -4895.4851   -5068.4591            0    6870.9567    19.715063    19.834111    20.317771    7944.8733    6420.6389     6554.371    7637.8601   -120.63139   -179.26084    274.11007   -4099.3623 
34548000    88.787274   -5075.8438   -4904.6101   -5075.8438            0    6441.9524    19.792822     19.72571    20.467041    7990.8951    8026.2111    5606.8504    5692.7956   -282.90532    531.40968   -277.21519   -4153.8714 
34549000    91.543814   -5068.2085   -4891.6586   -5068.2085            0    6548.5078    19.719022    19.817411    20.415735    7978.0601    5179.4032     7279.841    7186.2791    381.73137    624.02921   -109.78027   -4129.7277 
34550000    84.432543   -5066.2649   -4903.4296   -5066.2649            0    6280.1096    19.683032    19.822171    20.467329    7985.5416    7024.5932    5979.8092    5835.9264    224.02123    69.632532    743.26739   -4172.0422 
34551000    96.140186    -5058.357   -4872.9426    -5058.357            0    7409.1561    19.803665    19.608702    20.634741     8012.969    8307.0416    7215.1918    6705.2351   -562.54904    839.79291   -436.86762   -4007.1017 
34552000    86.255024   -5071.3254   -4904.9753   -5071.3254            0    5966.5712    19.690739    19.841891    20.473184    7998.9039    6111.6891    5363.5692    6424.4554   -152.18993   -195.38269   -31.159855   -4208.9401 
34553000    87.793486   -5074.3414   -4905.0243   -5074.3414            0    6164.3955    19.840331    19.726722     20.38519    7978.4508     5552.903     6199.908    6740.3756    114.27515   -27.561652   -514.13028   -4187.7505 
34554000    89.809254   -5058.2625   -4885.0578   -5058.2625            0    6237.9757    19.854639    19.699919    20.408959     7982.654     5384.173    7111.7289    6218.0253   -315.77227   -541.11046    213.94924   -4158.8401 
34555000    90.883926   -5071.2854   -4896.0081   -5071.2854            0    6553.0586     19.73124    19.747182    20.504095    7989.1414    6042.5345    6598.7032    7017.9381   -60.597552    632.12316     299.6444   -4132.4888 
34556000    93.052597   -5053.6805   -4874.2207   -5053.6805            0    7011.9786     19.59376    19.778174    20.491352    7940.9886    8165.1542     5781.255    7089.5265   -80.968828   -463.77294    908.19763   -4062.1553 
34557000     86.44549   -5074.0277   -4907.3103   -5074.0277            0    6134.6378    19.821604    19.839458    20.374365    8012.2165    7223.5524    5014.0544    6166.3067    223.97242    481.39512    401.44403   -4190.4781 
34558000    89.384998   -5067.1934   -4894.8069   -5067.1934            0    6916.8098     19.70805    19.787217    20.451578      7975.45     7752.009    6601.2851    6397.1353   -139.03651    808.10295    -575.6003   -4090.2868 
34559000    87.869159   -5059.7546   -4890.2915   -5059.7546            0    7043.5241    19.697494    19.698477     20.48244    7947.4045    7790.8497    6503.7024    6836.0203   -417.83536    699.66267    388.21656   -4073.9137 
34560000    85.983406   -5063.2545   -4897.4283   -5063.2545            0    6578.1132    19.716296    19.963603    20.346891    8008.7053    6740.6034    6191.2659    6802.4703    -111.9561   -141.11879   -518.12791   -4129.1129 
34561000    87.434338    -5059.239   -4890.6145    -5059.239            0    6617.3648    19.788592    19.728533    20.438695    7979.2641    6302.7156    6949.4118    6599.9669   -166.43216    -116.6329    231.28083   -4120.5559 
34562000    94.161489   -5064.3552   -4882.7569   -5064.3552            0    6425.7604    19.739837    19.851584    20.422399    8002.8647    6740.7395    6497.6158    6038.9257   -722.65056    522.56881   -70.966566   -4132.7834 
34563000    90.411102   -5061.0405   -4886.6751   -5061.0405            0    6579.2715    19.720086    19.860356    20.428823    8000.9061    7946.0953     5267.534    6524.1853    8.4711102    863.38457    -276.2948   -4118.9727 
34564000     87.62711   -5061.3256   -4892.3293   -5061.3256            0    6945.7257    19.688605    19.815561    20.395551    7957.1361     7483.173     6127.093     7226.911   -22.423873    326.05211   -201.46462    -4086.301 
34565000    88.242706   -5068.5191   -4898.3356   -5068.5191            0    6433.2727    19.731493     19.78357    20.450945    7983.2184    7298.4712    5714.4774    6286.8694   -38.599611    201.32786    361.34874   -4149.3286 
34566000    90.928928   -5053.7949   -4878.4308   -5053.7949            0    7027.5451     19.74944    19.767204     20.41298    7969.0476    7797.1921    6623.7318    6661.7114    -263.5925    331.52493    539.50531   -4061.6868 
34567000    88.283761   -5064.7899   -4894.5273   -5064.7899            0    8056.9788    19.609952    19.846135    20.384081    7933.1124    9732.7668    6717.9971    7720.1725   -117.06911    897.69971     53.28483   -3962.3646 
34568000    88.044897   -5061.5648   -4891.7628   -5061.5648            0    7711.5677    19.661599    19.898546    20.298412    7941.4942    7517.1308    7023.1863    8594.3861    85.116515    484.19498   -665.29413   -3998.6203 
34569000    84.905248    -5068.348   -4904.6011    -5068.348            0    6985.3809    19.820433    19.721374    20.368752    7961.8639    6127.2895    7531.5043     7297.349    32.234048    317.55587    949.71078   -4093.4893 
34570000    84.948699   -5053.5503   -4889.7195   -5053.5503            0    6553.5627    19.660759    19.852786      20.4443    7979.8363    6497.8561    6546.7992    6616.0328   -6.8180296    371.47603   -2.8142894   -4127.0308 
34571000    88.123766     -5063.67   -4893.7159     -5063.67            0    6492.1382    19.803407    19.783932         20.4    7992.5009    6757.9202    6395.8464    6322.6479   -203.79502    64.599162   -560.02998   -4136.9765 
34572000    96.919313   -5062.8041   -4875.8871   -5062.8041            0    6810.0359    19.618387    19.845654    20.538478    7996.4452    7484.0354    6722.4481    6223.6242    424.29392     315.0632   -1101.8162    -4081.701 
34573000    86.299776   -5079.7372   -4913.3008   -5079.7372            0    5556.7582    19.739536    19.859844    20.493771    8034.0523    4887.0141    6226.2354     5557.025    -646.3639   -247.99808    244.92583   -4262.2243 
34574000      84.7078   -5069.0182   -4905.6521   -5069.0182            0    5467.8553    19.727397    19.841308    20.454372    8006.1963    5564.0018    5242.0845    5597.4796    64.061999   -548.31333   -34.126376   -4267.2135 
34575000    87.476947   -5065.4899   -4896.7832   -5065.4899            0    7580.4136    19.776321    19.711552     20.38135    7945.0985    8389.8934    7283.0336    7068.3139    285.00293   -615.36722    241.77777   -4018.4323 
34576000     90.83114   -5069.0074   -4893.8319   -5069.0074            0    7086.9726    19.658565    19.771418    20.451899    7949.1973    6854.5803    6951.5024     7454.835    162.16763    457.35126    744.86703   -4072.2329 
34577000    86.395004   -5074.6562   -4908.0362   -5074.6562            0    7040.2909    19.889327    19.493797    20.553855    7969.1103    7572.9322    7324.5276    6223.4128   -18.135896    325.64354   -1202.4157   -4089.8044 
34578000    92.273738    -5057.643   -4879.6853    -5057.643            0    6787.8038    19.805388    19.681026    20.457727     7974.225    6995.1882    6653.9126    6714.3106   -321.16741    450.39143   -644.99389   -4090.2916 
34579000      86.3981   -5070.4943   -4903.8683   -5070.4943            0    5783.2715    19.745694     19.74625    20.540816    8008.9342    6949.9182    4546.4762    5853.4201    83.990576    417.02604   -298.70686   -4228.3701 
34580000    90.476919   -5056.8469   -4882.3545   -5056.8469            0    7821.0913    19.606983    19.831355    20.400169    7932.2596    6933.6219    8068.6117    8461.0403   -319.22366    -53.72585    293.87773   -3977.5804 
34581000    91.906997   -5069.5196   -4892.2693   -5069.5196            0    7012.4719    19.643872    19.816292    20.507254    7982.8323    6350.3967    8364.4795    6322.5394    102.97157    453.16896    59.694831   -4075.8673 
34582000    89.664179    -5074.414   -4901.4891    -5074.414            0    6352.0386    19.732458    19.860625    20.299313    7955.2795    6316.4061    6025.6311    6714.0788   -38.303873    1319.9793   -454.59386   -4164.5281 
34583000    87.302498   -5056.6471   -4888.2768   -5056.6471            0    7144.2929    19.791777    19.742351    20.367342    7958.2579    6108.3958    7418.8931    7905.5899   -98.744071    348.05612   -181.58991   -4059.0886 
34584000    89.565551   -5054.5511   -4881.8164   -5054.5511            0    6510.4113     19.69552     19.75529    20.514607    7982.0429    6660.5373    7167.6737    5703.0228    101.58632   -695.48603   -38.872017     -4123.94 
34585000    92.533191   -5081.3701   -4902.9121   -5081.3701            0    5467.8672    19.840218    19.755153    20.375724    7986.1946    4603.8554    6043.3392     5756.407   -33.422546    1040.6288    135.52431   -4266.0671 
34586000    86.128203   -5062.6155     -4896.51   -5062.6155            0      7393.63    19.609473    19.841605    20.434733    7950.8158    7359.3108    7049.7707    7771.8084    -418.3118   -271.23523    252.66044   -4039.1854 
34587000    89.285538   -5072.8185   -4900.6238   -5072.8185            0    5906.4193    19.741832    19.755633    20.491734    7992.0299    6859.0879    5160.3091    5699.8609   -224.18813    757.93716    720.37255   -4212.1978 
34588000    92.338895   -5071.4172   -4893.3339   -5071.4172            0    7326.3719    19.889821    19.827332    20.193651    7963.6105    6003.6296    7636.1212    8339.3648     57.47515   -424.21563    -765.3079   -4042.4411 
34589000    84.979646   -5075.4267   -4911.5363   -5075.4267            0    6253.8098    19.714825    19.836445     20.43614    7992.0031    5997.1931    6693.5954     6070.641    48.286317   -787.11354    -351.2229   -4182.6224 
34590000    87.872523   -5074.4129   -4904.9434   -5074.4129            0    5293.6405    19.942664     19.73645    20.405162    8031.4183    4646.5574    5310.5261    5923.8378    8.3686573   -127.87016   -596.68634   -4284.8993 
34591000    86.563656   -5067.5401   -4900.5948   -5067.5401            0      6677.77    19.781193     19.78332    20.380094    7975.4983    6515.1738    6333.8042     7184.332   -98.639476    638.93078    519.49427   -4123.8736 
34592000    92.983438   -5078.6984    -4899.372   -5078.6984            0    7298.3956    19.617935    19.825036     20.52009    7980.8017    8657.8163    6769.8661    6467.5043   -402.92326    1138.6894     267.5487   -4049.8986 
34593000    91.948702   -5060.4325   -4883.1017   -5060.4325            0    6238.3027    19.735269    19.807816    20.367343    7961.8505    6206.2208    5981.9761    6526.7111   -128.82189    -197.2578     275.0345   -4158.7386 
34594000     89.47274   -5067.0008   -4894.4451   -5067.0008            0    7367.7509    19.704942    19.825435    20.419701    7977.1412    7952.9375     6915.935    7234.3803   -486.02022     6.392247   -190.02286   -4037.2926 
34595000    85.118175   -5071.7059   -4907.5484   -5071.7059            0    6974.6755    19.737764    19.734233    20.458865     7968.925    6639.8707    7896.1661    6387.9897   -97.526649   -247.37244   -935.06259   -4096.9614 
34596000    88.797351   -5058.0877   -4886.8346   -5058.0877            0    7835.3575    19.702684    19.696496     20.46452    7941.7449    8188.4975    7695.7018    7621.8732    268.86672    192.99119   -95.884978   -3979.3262 
34597000    91.141982   -5073.0984   -4897.3235   -5073.0984            0    6321.2623    19.762369    19.871438    20.444606    8028.7335    5899.7723     6572.831    6491.1835    190.34433   -714.10721   -755.94561   -4157.1615 
34598000    89.584513   -5070.7075   -4897.9362   -5070.7075            0    6451.0274    19.889056    19.808257    20.285794    7991.9443    6668.4733    6229.3878    6455.2213    49.067534   -526.64411    779.91126   -4146.0411 
34599000    87.890352   -5063.9117   -4894.4078   -5063.9117            0    6588.5764    19.750227    19.833511    20.322828    7960.7839    6784.2536    6392.6886     6588.787    386.75418   -409.19501    329.23122   -4129.4749 
34600000    87.809934   -5064.6687   -4895.3198   -5064.6687            0    7689.4884    19.835272    19.802806    20.303368    7975.0419     7784.359     7444.169    7839.9373    -93.10313    537.17539   -195.20441   -4000.9723 
34601000    85.304988   -5080.8216   -4916.3038   -5080.8216            0    5951.4746    19.889648    19.841284    20.356985    8033.6019    5001.2204    6025.9168    6827.2865   -295.03772    788.05166    68.860467    -4219.018 
34602000    87.652492   -5063.1215   -4894.0763   -5063.1215            0    5731.9326    19.733568    19.834369     20.41449      7990.29    4976.0984    5766.7737    6452.9257    284.85954    259.25449    667.19337   -4226.1331 
34603000    89.798138   -5057.3768   -4884.1936   -5057.3768            0    6631.4371    19.634069    19.757116    20.488409    7947.7117    7073.3885    6881.2839     5939.639   -520.24157    197.88094     732.2295   -4115.5489 
34604000    91.879504   -5066.0548   -4888.8574   -5066.0548            0    6731.2771    19.821911    19.743445     20.40434    7985.2954     5646.832    6793.6631    7753.3364   -496.36947   -525.65199   -90.937182   -4104.9508 
34605000    95.043141   -5059.8739   -4876.5753   -5059.8739            0    8463.8902    19.792449    19.697935    20.441037    7969.3551    8217.8866    9483.4648    7690.3191    535.75323    142.02483   -408.68569   -3892.8607 
34606000    83.786005   -5066.5367   -4904.9484   -5066.5367            0     5591.037    19.720893    19.847645    20.438434    7999.8746    5672.3899    4870.1209    6230.6003   -436.40301   -224.25384    209.59787   -4252.6423 
34607000    88.675406   -5057.6701   -4886.6521   -5057.6701            0     7446.492    19.846135    19.785371    20.186703    7926.5743    7462.8681    6777.1793    8099.4286   -208.01682   -659.33739   -769.97443   -4025.8305 
34608000    89.091905   -5058.7698   -4886.9486   -5058.7698            0    7009.7942    19.829753    19.722207    20.352232    7959.4829    6205.1362    8204.3068    6619.9395   -258.43766   -283.39374    -700.9969   -4073.2454 
34609000    87.827793   -5058.8637   -4889.4804   -5058.8637            0    8339.2504    19.638939    19.848101    20.333035    7925.7285    8612.5571    7517.0148    8888.1792    78.332768    333.43885   -165.45275    -3925.558 
34610000    88.762248   -5054.7021   -4883.5166   -5054.7021            0    7989.8277    19.713297      19.7609    20.431894    7959.2954    7515.5264     9018.506    7435.4506   -101.29644   -208.04795     1129.042   -3956.0722 
34611000    91.507378   -5059.8857    -4883.406   -5059.8857            0    7071.1584    19.724059    19.667733    20.520668    7960.5318    7143.8449    7379.8612    6689.7691   -18.054571   -288.08007    254.81096   -4062.4714 
34612000    85.790406   -5055.1189   -4889.6649   -5055.1189            0    6618.3043     19.81756    19.780799    20.386251    7991.5566    6215.2044    6871.5929    6768.1157    216.62013    155.62584    810.57065   -4118.3104 
34613000    90.627637   -5074.2019   -4899.4189   -5074.2019            0    7517.5944    19.708315    19.841836    20.342055    7954.7436    7374.0094    7611.4404    7567.3333   -163.24494   -288.08704   -952.69366   -4027.2894 
34614000    89.946101   -5066.5262   -4893.0576   -5066.5262            0    6576.1284     19.85261    19.752629    20.411851    8004.3286    7561.9696     6170.897    5995.5187   -134.39887   -112.46252    809.58366   -4125.3938 
34615000    84.883205   -5053.6913   -4889.9869   -5053.6913            0    7686.5735    19.722346    19.760002    20.403402    7951.4832    6589.3687    8269.8858     8200.466    252.35514   -34.391645    241.50014   -3998.6193 
34616000     87.65303   -5069.7762     -4900.73   -5069.7762            0    7567.6111    19.643999    19.731787     20.52155    7954.3825    8364.3401    7772.6145    6565.8786   -290.20977   -291.81471    893.72846   -4022.8378 
34617000    85.559321   -5069.5357   -4904.5273   -5069.5357            0    6902.2369    19.860473     19.67859    20.362384    7958.1511    5698.0492    7527.2385    7481.4229    -204.6322   -1389.2503    564.13806   -4103.4436 
34618000     85.79076   -5066.7973   -4901.3426   -5066.7973            0    6571.1268      19.7626    19.676741     20.51833     7978.831    5416.8452    8795.9516    5500.5837   -398.23428    870.45287    844.73202   -4136.7061 
34619000    86.207358   -5065.1566   -4898.8984   -5065.1566            0    7818.4871    19.690608    19.659515    20.519334    7943.1942    6593.5656    9304.3387    7557.5571   -101.80318   -12.502679    525.95842   -3993.1788 
34620000    87.217617   -5061.2691   -4893.0626   -5061.2691            0     6820.305    19.808266    19.766873    20.363586    7973.3107    5690.0003     8064.757    6706.1577   -45.221139    668.89805     266.5516   -4099.9801 
34621000    86.542625   -5075.4818   -4908.5771   -5075.4818            0    6424.6405    19.753417    19.807451    20.430985    7993.9261    6095.0305    6897.8453    6281.0457   -169.67011    77.093663    154.92372   -4159.5719 
34622000    88.045315   -5058.4822   -4888.6794   -5058.4822            0    5761.0407    19.792366     19.74344     20.53698    8025.2228     5981.691    5902.9145    5398.5166    290.19475    461.31272    11.389001   -4214.4092 
34623000    90.101003   -5066.3405   -4892.5731   -5066.3405            0     7784.584    19.767341     19.79382    20.392803    7979.1162    7599.8627    8103.8844    7650.0049   -342.08872   -493.67775    642.88346   -3986.7027 
34624000    90.041933   -5063.7677   -4890.1143   -5063.7677            0    6249.2517    19.740005    19.726815    20.462347    7968.1903    6291.6175    6075.5674    6380.5701   -606.71476    -298.5184    631.48533    -4163.902 
34625000     90.23107   -5063.1445   -4889.1263   -5063.1445            0      6831.09    19.662782    19.930885    20.428088    8005.6996    7370.5744    5929.0674    7193.6282    -231.4795    1240.8031   -131.87452   -4091.5629 
34626000    86.279515   -5068.6567   -4902.2594   -5068.6567            0    7211.7402    19.759778    19.704605    20.398066    7942.1631    7861.7217    7062.0909     6711.408     376.7591     422.5798     812.0633   -4066.9357 
34627000    84.453201   -5058.5961    -4895.721   -5058.5961            0    6420.7907    19.822247    19.829297    20.305378     7981.257      6088.45    5882.9277    7290.9943    264.77878   -101.32028    905.10734   -4148.3509 
34628000      90.1467   -5076.0986   -4902.2431   -5076.0986            0     6896.606    19.743407    19.882101    20.375464    7998.1926    7991.7094    6098.1414    6599.9671   -30.015925    681.69294     1406.906   -4097.7855 
34629000    94.514726   -5063.3526    -4881.073   -5063.3526            0    6112.9257    19.629049    19.727486    20.610082    7980.8793    7047.8385    6127.1942    5163.7446   -28.750093    601.55614    52.058349   -4169.5716 
34630000    86.713078   -5080.8238   -4913.5904   -5080.8238            0    5757.5152    19.693501    19.754188    20.565827    8000.7058     6086.184    5271.2298    5915.1318   -49.996281    80.444516    1030.8499   -4241.7915 
34631000    87.353656   -5074.7306   -4906.2618   -5074.7306            0    6494.9438    19.790592    19.741546    20.361171    7955.0459    6069.1812    6886.0569    6529.5933    329.73541    -191.2527   -641.52033   -4152.7432 
34632000      86.5362   -5048.9131   -4882.0207   -5048.9131            0    6293.6112    19.772076    19.750351    20.441591    7982.5524    5005.4869    7210.1008    6665.2459    60.403791    515.59825    64.254534   -4149.3353 
34633000    93.786974   -5058.1815   -4877.3054   -5058.1815            0    7940.7103    19.740046    19.822869    20.274692    7933.5749    9042.4387     7212.128     7567.564    644.40419    944.41619   -727.64269    -3958.541 
34634000    88.020135   -5065.1676   -4895.4134   -5065.1676            0    8100.7605    19.721192    19.688613     20.38675    7915.8269    6807.4731     9359.594    8135.2144    201.33343    1038.7657   -1016.1791   -3960.2274 
34635000    87.093354   -5066.7024   -4898.7355   -5066.7024            0    6377.5757    19.662854    19.837463    20.435957    7971.2727    6053.8322    7181.9205    5896.9744   -548.74654    923.01423   -391.17147   -4157.3243 
34636000     89.25944   -5068.5527   -4896.4083   -5068.5527            0    5709.9019    19.912279    19.787525    20.358099    8021.3906    4475.8942     6351.167    6302.6446   -418.49606    228.91789   -322.48282   -4228.4426 
34637000    88.331078   -5067.7741   -4897.4202   -5067.7741            0    6986.5512    19.778943    19.824206    20.280281    7951.9358    7218.2309    6565.5708    7175.8519   -490.73145    422.89231   -64.354069   -4087.1841 
34638000    85.165728   -5051.7037   -4887.4544   -5051.7037            0    8798.8858    19.746823     19.67792    20.315948    7894.2978    9893.0256    7650.5399    8853.0919   -583.37259    196.95867   -129.54114   -3874.4366 
34639000    84.925048   -5069.5443   -4905.7592   -5069.5443            0    7117.7914    19.704944    19.799095     20.34842    7938.7339    8194.8604    6596.1697    6562.3441    97.513538   -150.56083    392.51434   -4081.6735 
34640000    89.371892   -5063.8957   -4891.5345   -5063.8957            0    7286.3547    19.743331    19.793168    20.417883     7978.963    6764.4447    7636.1045    7458.5149    583.59473   -722.73106   -22.560732   -4043.6579 
34641000    88.950974   -5071.0539   -4899.5045   -5071.0539            0    6085.1163    19.693488    19.801046    20.534996    8007.6559    6278.3858     6716.237    5260.7262   -377.48851    429.94001   -1050.5574   -4188.8637 
34642000    89.606313   -5068.6572   -4895.8439   -5068.6572            0     6479.651    19.733025    19.923393     20.27953     7972.873    6508.5257    6124.4956    6805.9318    55.541557    -306.2537    139.40832   -4142.4148 
34643000    88.722189     -5073.81   -4902.7018     -5073.81            0    5743.6031    19.792576     19.73315    20.492485    8003.7474    5636.1805    5697.5127    5897.1161    214.88494    432.75178    286.64459   -4232.2714 
34644000    89.854253   -5068.9368   -4895.6453   -5068.9368            0    6779.1834    19.727035    19.776437     20.48092    7990.2312     6886.942     6505.812    6944.7961   -76.286317   -297.36728    142.05083   -4105.6716 
34645000    87.131468   -5060.5504   -4892.5101   -5060.5504            0    7204.6956    19.888616    19.831071    20.172445    7956.2657    6310.1217     7053.191     8250.774   -483.81762   -626.74202    324.12947   -4056.5206 
34646000    86.316792   -5062.4645   -4895.9953   -5062.4645            0    7241.9484    19.737549    19.641951    20.472061    7936.6896    7358.3399    7337.6086    7029.8966   -254.51488    288.04148   -575.11572   -4057.7508 
34647000    86.050658   -5065.1737   -4899.2177   -5065.1737            0    7902.8585    19.657635    19.666214    20.456919    7908.4662    7451.3157    8835.4966    7421.7631     -71.0337      40.5387    171.33737   -3987.7268 
34648000    87.486169   -5068.8801   -4900.1556   -5068.8801            0    6896.9718     19.79337    19.800589    20.348294    7974.9109     5778.644    7629.1969    7283.0745    259.37457   -476.80867    748.52741   -4097.9972 
34649000    85.586173   -5048.0726   -4883.0124   -5048.0726            0    7956.5785    19.787964    19.519631    20.566896    7944.0406    8387.6386    8247.5548    7234.5422    590.95271   -311.29835   -345.11056   -3961.1976 
34650000    90.638546    -5070.851   -4896.0469    -5070.851            0    7467.5917    19.600444    19.869849    20.416019    7951.1794    8428.5124    6254.2317     7720.031    143.45427    763.42912   -214.02287   -4030.1065 
34651000    91.912383   -5056.0601   -4878.7994   -5056.0601            0    6883.2145    19.684359     19.79696    20.431319      7961.89     7975.158    5401.6478    7272.8377    -310.6033    209.31887   -267.86328   -4079.5481 
34652000     88.91106   -5054.5674   -4883.0949   -5054.5674            0     7820.642    19.709866    19.767508    20.313412    7914.4083    7666.2086    7750.1436    8045.5739    19.343914    1224.6051   -631.43051   -3980.4088 
34653000    89.076745   -5070.5382   -4898.7462   -5070.5382            0    7120.9488    19.768484    19.842494     20.36367    7987.7721    8070.5015    6333.6807    6958.6642    34.818253    278.39815    546.62406   -4069.2022 
34654000     86.80861   -5066.3405   -4898.9228   -5066.3405            0    6551.2171    19.734394    19.762896    20.514441    8000.8121    6894.5049    6247.6904     6511.456   -181.94839    678.58189    447.37834   -4134.5029 
34655000    87.550316   -5065.2423   -4896.3941   -5065.2423            0    6094.7778     19.69418    19.690239    20.598721    7987.8363    6670.2303    5707.3928    5906.7103    -515.0171   -304.83546   -88.042095   -4186.3866 
34656000    85.933593   -5066.4727   -4900.7426   -5066.4727            0    6794.7505    19.694866    19.824567    20.374716    7955.1488    7334.0094    6790.5809    6259.6612   -101.80172   -247.14848    320.37233   -4112.4313 
34657000    89.052646   -5062.7662   -4891.0207   -5062.7662            0    6950.5609     19.79684    19.809237    20.318928    7968.2767    7014.3955    6235.7762    7601.5111    6.8299193    11.284758    70.571697    -4083.302 
34658000    86.694609   -5072.2468   -4905.0489   -5072.2468            0    6364.0369    19.811063    19.759789    20.357808    7969.3166    5895.8198     6736.123    6460.1678   -5.5736144    184.32556   -284.49734   -4165.3931 
34659000    88.109465   -5067.1355    -4897.209   -5067.1355            0    8124.7181     19.75279    19.814148    20.258631    7928.9182    8769.3727    7298.6973    8306.0843   -77.373503   -734.45487    882.70192   -3957.7061 
34660000    89.526388   -5063.4439   -4890.7847   -5063.4439            0    6490.3013    19.605281    19.805178    20.479555    7951.9261     7137.864    6010.1064    6322.9335   -114.01489    13.195855   -17.343383      -4138.1 
34661000    84.798735     -5063.66   -4900.1186     -5063.66            0    6815.0145    19.563922    19.823675    20.533604    7963.5238    6685.3501    7384.6843    6375.0091   -464.43616   -723.55062    411.99824    -4108.624 
34662000    89.006392   -5060.2725   -4888.6162   -5060.2725            0    8117.1902    19.743072    19.849045    20.256683    7938.2121    8263.3871    7693.0506    8395.1329    326.80017   -1115.8737   -228.67192   -3948.8835 
34663000     91.31608   -5070.1393   -4894.0286   -5070.1393            0    5767.5927    19.784213    19.807345    20.400723    7994.4869    5769.4498    6018.1212     5515.207   -338.90989     1219.988    683.26878   -4221.5769 
34664000    87.829386   -5073.4121   -4904.0257   -5073.4121            0    6599.6134    19.649691    19.865938    20.465231    7988.7983    6920.6037    6466.9789    6411.2575     113.9271   -106.19071   -281.55091   -4135.1151 
34665000    87.576915   -5065.3799   -4896.4805   -5065.3799            0    6387.9028    19.802336    19.761441    20.423085    7992.0168    6922.0337    6135.2336    6106.4412    41.728692   -902.19636    305.23435   -4151.9361 
34666000    86.580751   -5056.4421   -4889.4638   -5056.4421            0    7082.4421    19.777138     19.73574    20.424471    7972.0072     6089.704    8131.4992    7026.1233   -83.207412    434.23738    274.32976    -4066.034 
34667000    89.904298   -5063.1719   -4889.7839   -5063.1719            0     6928.489    19.640406    19.707563    20.532546    7947.4204    7069.9528     7706.792    6008.7221   -77.533749   -264.83318    265.57708   -4086.7375 
34668000    92.766661   -5058.8175   -4879.9092   -5058.8175            0    6412.3048    19.927596    19.696647    20.251012    7948.6605    5498.5337    6883.6537    6854.7271   -260.51277   -203.63421    560.09095   -4136.5752 
34669000    92.241552   -5060.6905   -4882.7949   -5060.6905            0    7400.4985    19.782433    19.656166    20.442852     7949.137    6983.5471     8266.586    6951.3624    15.277559    397.49098    148.79708   -4024.8551 
34670000    88.548839   -5059.2685   -4888.4946   -5059.2685            0    7610.1435     19.63183    19.816376      20.3598    7920.6081    7848.7051    6655.9264    8325.7991   -260.55005   -247.63986    -699.6258   -4009.4169 
34671000    91.097208   -5063.6925   -4888.0039   -5063.6925            0    6376.8061    19.777625    19.863395    20.293932    7972.4871    6541.1585     5767.847    6821.4128   -595.35003     378.8456   -39.116796   -4146.5691 
34672000    86.338663   -5067.7553   -4901.2439   -5067.7553            0    6589.6987    19.702323    19.823451    20.446218    7985.6394    8784.7537    5101.6024      5882.74    156.09613   -597.37635    619.57826    -4133.792 
34673000    85.866297   -5063.9648   -4898.3645   -5063.9648            0     7953.365    19.697436    19.887976    20.252938    7933.9295    7264.7024    7532.5762    9062.8164   -158.10777    387.36845    200.69138   -3978.0947 
34674000    87.558335   -5060.0127   -4891.1491   -5060.0127            0    7769.8542    19.691925    19.794948     20.42311    7960.9411    8567.3501    7431.1767    7311.0357   -448.64758     353.7231   -141.38879   -3989.0522 
34675000    90.642372   -5066.6254   -4891.8139   -5066.6254            0    7426.0567    19.580958    19.704396    20.512795    7914.4711    8678.2692     6745.956    6853.9449   -521.29916    302.97565   -185.17871   -4034.6655 
34676000    87.095196    -5073.535   -4905.5645    -5073.535            0    6781.2358    19.831472    19.781923    20.332885    7976.6853    5956.1595    6866.7493    7520.7986   -247.87182   -49.052367   -276.64633   -4116.6914 
34677000    91.673939   -5072.1232   -4895.3223   -5072.1232            0    6976.8636     19.84683    19.723817    20.348732     7965.618    7416.9376     5953.186    7560.4673    158.04099    862.98334   -237.97171   -4084.8175 
34678000    88.453495   -5065.6963   -4895.1063   -5065.6963            0    7305.1412    19.893789    19.616086    20.487292    7994.9258    6397.0883    7796.2652    7722.0701    371.68139    597.88441    931.86609    -4043.343 
34679000    86.928197   -5050.5836   -4882.9353   -5050.5836            0     7145.743    19.633413    19.809679    20.433974    7947.4183    7615.4001    6935.2939     6886.535   -388.94599     235.8274   -1057.1049   -4054.7083 
34680000    90.602041    -5061.696   -4886.9623    -5061.696            0    6527.3083    19.833519    19.654967    20.419975    7960.2609    6283.7486    6425.7192    6872.4571   -30.913842   -514.78868   -165.07729   -4129.1925 
34681000    89.004705   -5067.2238   -4895.5708   -5067.2238            0    6433.9503    19.665835    19.781486    20.456864     7958.118     6625.534    6867.5367    5808.7802    299.87456   -1011.0362    168.15676   -4148.8401 
34682000    90.628186   -5069.6386   -4894.8545   -5069.6386            0    6803.4204     19.92962    19.652866    20.372234    7979.2774    6502.5815    6798.7583    7108.9214   -35.794068   -110.33068    110.80066   -4103.1433 
34683000    88.486098   -5070.5594   -4899.9065   -5070.5594            0    7295.0424    19.609885     19.83819     20.40588    7938.3899    6947.2994     7802.805    7135.0228    127.32729    467.95658    725.14138   -4055.3356 
34684000    84.900462   -5064.7218   -4900.9841   -5064.7218            0    8185.5526    19.846068    19.625964    20.366939    7932.8865    7505.5684     8970.157    8080.9324    160.52746    1471.2578    23.059999   -3953.9729 
34685000    92.432355   -5067.8384   -4889.5748   -5067.8384            0    6414.1773    19.809484    19.698733    20.493312     7996.936    5769.2596    7319.2438    6154.0284   -383.36341   -350.72977    209.83973   -4141.5079 
34686000     91.26898   -5056.5809    -4880.561   -5056.5809            0     7704.419    19.636563    19.728451    20.486372     7936.399    7767.0763    7435.0137    7911.1669   -301.32074   -782.73988   -644.98252   -3988.8189 
34687000    82.464975    -5062.994   -4903.9534    -5062.994            0    6262.3886    19.733698    19.823809    20.526058    8029.7337    6145.0679    6271.6764    6370.4217   -510.84941    1382.0496    825.83837   -4170.5937 
34688000    90.881611   -5065.1273   -4889.8544   -5065.1273            0    6909.7649    19.897432    19.767925    20.294438    7982.4303    6769.3739     6714.663     7245.258   -282.41059    1444.0242   -499.00064   -4085.4503 
34689000    83.021582   -5064.7019   -4904.5878   -5064.7019            0    7528.8356    19.742804    19.845672    20.338242    7968.7104    6698.6853    7424.3177    8463.5037   -174.05965    1035.4917    340.72371   -4029.6206 
34690000    91.033146   -5057.4478   -4881.8828   -5057.4478            0    6392.0198    19.719684    19.857795    20.374472    7978.4282    6134.4036    6741.1864    6300.4695    413.17435    851.88247    510.42001   -4138.1253 
34691000    92.922018   -5071.6974   -4892.4895   -5071.6974            0    8315.2046    19.728638    19.743015    20.406515    7948.3943    6977.8917    9095.0978    8872.6242   -225.03806     309.1088   -1008.6511   -3928.5978 
34692000    86.236718      -5056.8   -4890.4852      -5056.8            0    6917.0268    19.756684    19.652506    20.511603    7964.0064     7554.932    6814.6729    6381.4754   -272.38417    1200.7806   -711.42395   -4087.0943 
34693000    87.278912   -5061.9521   -4893.6274   -5061.9521            0    6928.4692    19.659066    19.846684    20.449968    7978.9081    7108.9054    7509.2832    6167.2191    14.389841    145.58563     272.8496   -4087.4017 
34694000    90.684547   -5057.0929   -4882.2001   -5057.0929            0    6843.7585    19.704772    19.847661    20.316402    7945.6157     8193.197    5773.5236    6564.5548    265.29374   -729.22304    572.35714   -4089.1546 
34695000    84.776228   -5056.5564   -4893.0584   -5056.5564            0    7870.5043    19.811008    19.829354    20.278207    7966.0804    8792.6558    7185.2139     7633.643    -10.27276   -733.25802    800.25487   -3978.6859 
34696000    87.208095   -5067.8472    -4899.659   -5067.8472            0    6262.9895    19.796052    19.712942    20.502103    8000.7086    5964.8261    6128.5814    6695.5609   -391.05287    361.89102    299.83516   -4168.8801 
34697000      86.2187    -5058.839   -4892.5589    -5058.839            0    7490.6367    19.636819    19.888114    20.411137    7971.3511    6833.7863    7622.1575    8015.9665   -71.050873   -35.058699    428.84456   -4021.7426 
34698000    86.128495   -5062.1937   -4896.0877   -5062.1937            0    6095.4195    19.802284    19.893454    20.337705    8011.7509    6879.0515    4483.4109    6923.7961   -55.228991    430.77662    15.910884   -4183.8796 
34699000     92.82367   -5062.5551   -4883.5369   -5062.5551            0    7610.8657    19.654329    19.870094     20.31241    7932.6739     7956.054    7125.6888    7750.8542   -192.44621        959.6    459.87657   -4003.0365 
34700000    85.568638   -5063.6196   -4898.5933   -5063.6196            0    6909.8352    19.759711    19.821491    20.358588    7973.7857    6382.8864    6980.8488    7365.7703    37.008247    25.407338    895.38038   -4095.0521 
34701000    87.032014   -5066.0704   -4898.2219   -5066.0704            0    7044.5083    19.740648    19.827509    20.422522    7993.5356    7473.1869    6902.9939     6757.344   -131.23574    379.68333   -289.82626   -4076.9906 
34702000     86.68619   -5057.7919   -4890.6103   -5057.7919            0     6293.999    19.623465    19.781261    20.488474    7953.1521    6652.6791    5556.8069    6672.5108   -42.571868    316.70129    709.97119   -4160.5783 
34703000    85.095123   -5060.1181    -4896.005   -5060.1181            0    7490.4148    19.783984    19.727629    20.339457     7938.309    6485.6069    8981.3269    7004.3107   -66.208213    954.16808    -767.0474    -4028.824 
34704000    84.756479   -5071.2127   -4907.7527   -5071.2127            0    5782.3898    19.864833    19.723196    20.508025    8035.0031     6644.315    5680.5802    5022.2742    266.92127   -506.03162    249.20752   -4230.1591 
34705000    89.581064   -5073.1709   -4900.4063   -5073.1709            0    7410.3761    19.801551    19.787495    20.199632    7914.6819     7235.817    7639.1623    7356.1491    99.787885   -12.558345    1211.2721    -4045.045 
34706000    86.729419   -5070.1654   -4902.9004   -5070.1654            0    7279.6593    19.664976    19.762239    20.434483    7941.3298    6739.0735    7450.3022     7649.602     44.43862   -118.25736    477.11756   -4059.7983 
34707000    84.474048   -5058.9729   -4896.0576   -5058.9729            0    7812.1862    19.820886     19.68583    20.421442    7968.2544    7047.4479    9079.2193    7309.8914   -609.00095   -229.58304   -66.096265   -3988.2126 
34708000    90.413752   -5063.4097   -4889.0391   -5063.4097            0    7367.9005     19.62497    19.866943    20.424847    7963.4056    7355.0818    7130.4096    7618.2102   -172.90561    670.92406    299.81519   -4033.3451 
34709000    91.431843   -5069.6338   -4893.2998   -5069.6338            0    7283.1224    19.647381    19.862012    20.399336     7960.566    7717.3536    6678.4276    7453.5859    84.360793    104.30943   -7.7053799   -4047.7534 
34710000    93.084933   -5060.6282   -4881.1061   -5060.6282            0    6792.6854    19.726771    19.741356    20.412221    7949.1968    6433.3707     8083.508    5861.1774    241.68651    947.44495    273.44818   -4093.6241 
34711000    88.664087   -5068.3215   -4897.3254   -5068.3215            0    5946.1588     19.86864    19.725933    20.435904     8009.392    5241.7129    6273.0308    6323.7326   -468.80501   -229.00662   -246.14869   -4202.7619 
34712000     88.20774    -5064.597    -4894.481    -5064.597            0    7235.4937    19.725261    19.752952    20.460147    7971.9308    7175.8608    7150.0177    7380.6026   -274.47278    156.69874    425.07624   -4053.2649 
34713000    90.336705     -5056.22   -4881.9981     -5056.22            0    7175.0181    19.692813    19.691157    20.488301     7944.836     6283.636    7913.2514    7328.1667     10.22954   -232.16425   -1243.9707   -4050.6482 
34714000    91.206134   -5065.6099   -4889.7112   -5065.6099            0    6592.4587    19.632266    19.890016      20.3799    7958.0678    7189.4001    5976.0663    6611.9097    385.73863    86.500651    307.75284   -4124.5887 
34715000     83.80876   -5074.0721   -4912.4399   -5074.0721            0    5789.4683    19.713504    19.860185    20.405965    7989.2179    5289.5361    6310.8838     5767.985   -281.12368    458.34372    165.44468   -4237.8826 
34716000    85.492093   -5062.7801   -4897.9014   -5062.7801            0    6640.0661    19.803896     19.74611    20.382806    7970.6942    5873.3636     6980.784    7066.0508    33.214694    144.75594    83.105883   -4126.0309 
34717000    84.986634   -5071.4061   -4907.5023   -5071.4061            0    6819.2291    19.781689    19.779128    20.293748    7940.2241    5931.8977    7197.3747    7328.4147   -123.50734     150.7693    285.63051   -4117.8354 
34718000    92.547052   -5064.7631   -4886.2783   -5064.7631            0    6688.1303    19.710998    19.757859     20.45105    7964.6023    6619.0683    6854.8629    6590.4597   -80.989438   -94.068363   -291.86183   -4109.4148 
34719000    89.434642   -5062.7122   -4890.2299   -5062.7122            0    7020.6141    19.679735     19.81602    20.483224    7987.9252    7531.1605    6826.5575    6704.1242   -82.103338    221.28573   -66.639698   -4072.3586 
34720000    86.521522   -5067.2913   -4900.4272   -5067.2913            0    7073.9313    19.705257    19.748716    20.437908     7953.484    7271.2427    7303.8659    6646.6852    -148.6843    20.224661   -90.509015   -4079.8979 
34721000    91.682582   -5072.6813   -4895.8637   -5072.6813            0    7012.4762    19.730362    19.857988    20.337908    7968.5005     6239.008    6971.7522    7826.6683   -332.40666     915.6407    627.55507    -4080.927 
34722000    85.257644   -5064.7831   -4900.3566   -5064.7831            0    7184.0352    19.644185    19.895781    20.348848    7953.0704    8046.0467    5337.3552    8168.7036    -261.6003    7.3662497   -167.38312   -4067.0992 
34723000    85.927785   -5067.7561   -4902.0371   -5067.7561            0    6986.9731    19.882431     19.74742    20.343187    7987.2783    6992.9898    6826.2811    7141.6483   -418.10193    413.56531    638.85556   -4088.1507 
34724000    88.487904    -5066.709   -4896.0526    -5066.709            0    6623.5787    19.777821    19.780937    20.403189    7982.2138    6767.3191    6463.9787    6639.4382   -7.5430006    -402.3734    348.34475   -4124.9859 
34725000    85.936122   -5063.7548   -4898.0197   -5063.7548            0    8035.6327    19.611625    19.798884    20.461423    7944.9311    9098.7622    7504.2252    7503.9108    -115.8837     872.7003    460.18028   -3966.9416 
34726000    87.426573   -5061.2746   -4892.6651   -5061.2746            0     7226.269    19.760859    19.700495    20.413305    7946.8733    6769.0822    7397.0536    7512.6712    3.4429744    246.50788    -267.5718   -4055.1623 
34727000    91.766964   -5051.0797   -4874.0994   -5051.0797            0    6591.5299    19.794413     19.75152    20.454292    7997.0097    6597.0748     6169.516    7007.9988   -102.89171    834.90721    83.029302   -4105.3412 
34728000    94.362626   -5068.7485   -4886.7622   -5068.7485            0    6127.5005    19.729202    19.812138    20.408379    7977.1799    5839.1243     6109.881    6433.4963    78.195156   -413.43787   -553.15367   -4173.8951 
34729000    90.964399   -5065.9415    -4890.509   -5065.9415            0    6439.9959    19.857521    19.763944    20.370167    7994.5354     5627.372    6975.5283    6717.0875   -365.10003    600.63562    890.74728   -4139.6563 
34730000    89.453242   -5058.6636   -4886.1455   -5058.6636            0    5897.6633    19.797666    19.762598    20.492462    8017.7438    6704.4641    5307.8501    5680.6756    354.12552    1122.6023    524.92425   -4196.5284 
34731000    91.893542    -5061.259   -4884.0346    -5061.259            0    6935.0664    19.654122    19.837446    20.378954     7945.501    7550.1019     6334.203    6920.8943   -349.09256    2225.6724     190.2431     -4080.42 
34732000    88.772491    -5064.842   -4893.6368    -5064.842            0    6042.5071    19.841864    19.659829    20.444165    7975.0163    5024.4428    7354.1459    5748.9327    530.41105    284.04118    274.97869   -4190.8483 
34733000     88.80105   -5070.4195   -4899.1592   -5070.4195            0    7623.0858    19.665532    19.620919    20.663145    7972.9946    8494.7599    8635.6737    5738.8238   -34.921989   -523.35921    395.57601   -4012.7624 
34734000    89.360691   -5058.6215   -4886.2819   -5058.6215            0    7784.2404    19.744504    19.667991    20.440981    7937.9426    8322.4836    7606.1542    7424.0834   -22.900417    365.92627   -196.31672   -3985.1257 
34735000    88.443927   -5073.3556    -4902.784   -5073.3556            0    6975.9197     19.83141    19.631609    20.470556    7969.6477    6832.2962    8184.9107    5910.5521   -54.742784   -34.699513    -152.0449   -4091.9789 
34736000    86.395885   -5063.5395   -4896.9178   -5063.5395            0    7398.4792     19.63912    19.815485    20.393034    7936.1266    7875.9179    7491.8188     6827.701   -311.66594    271.38171    196.36817   -4040.6158 
34737000    91.435207   -5072.1545    -4895.814   -5072.1545            0    6648.8179    19.847053    19.808214    20.270019     7968.847      6199.89    6288.9662    7457.5975   -166.39283    49.912769   -88.591146   -4123.1053 
34738000    89.698891   -5062.6149   -4889.6231   -5062.6149            0    6401.3121    19.665339     19.81553    20.458459    7972.2343    6229.9359    6475.9204      6498.08     -502.693    139.43848   -446.10908   -4145.3626 
34739000     93.07072   -5077.1088   -4897.6141   -5077.1088            0    5574.7143    19.880364    19.697346    20.410309    7992.4815    4191.4464    6351.4001    6181.2964    92.295374   -186.40831    723.62857   -4247.8135 
34740000    92.063312   -5072.9831   -4895.4312   -5072.9831            0    6039.2429    19.766542    19.775992     20.45297    7995.1268    6032.8198    5967.6556    6117.2531    183.39353    2434.8373   -256.78659   -4191.2511 
34741000     86.71314   -5065.6774   -4898.4439   -5065.6774            0    7108.6985    19.691906    19.778616    20.411325    7949.7752    7763.8229    7120.0635    6442.2091   -84.417752    250.24507    69.420537   -4074.2662 
34742000    89.232271   -5066.7032   -4894.6113   -5066.7032            0    7099.0549     19.69548    19.715827    20.466115    7947.2519    6787.0508    7127.1982    7382.9157     27.17834    881.61208    349.45659    -4071.813 
34743000    89.384714   -5059.1171   -4886.7312   -5059.1171            0    7021.1856    19.789572    19.798148     20.29512    7951.5644    6771.8431    6595.1916    7696.5222   -561.21973    195.62959    305.77069   -4072.5165 
34744000     91.44264   -5068.3536   -4891.9988   -5068.3536            0    5909.7617    19.834684    19.743682    20.415645    7994.9643    5161.1071    6095.5641    6472.6139   -136.58433    -296.5154   -1178.4365   -4202.9303 
34745000    92.890397   -5057.3094   -4878.1625   -5057.3094            0    7855.6005    19.675488    19.729422    20.473018    7947.3391    7530.7721    8405.4875    7630.5418   -298.65772    154.17904    1565.6463   -3967.6686 
34746000    87.879742   -5062.3197   -4892.8362   -5062.3197            0    5972.4801    19.789298    19.844788    20.406005     8013.733      7143.05     5193.643    5580.7472   -599.27234   -90.428731     -204.956   -4194.8201 
34747000    85.435342   -5059.5724   -4894.8032   -5059.5724            0    6637.8306    19.799151    19.806411    20.318771    7968.0087    5851.0509    6373.6906    7688.7503    330.58063    666.40627    808.25333   -4123.4525 
34748000    91.731885   -5060.5709   -4883.6582   -5060.5709            0    6354.8039    19.708633    19.868773    20.302943    7950.3556    6918.3422    5085.7969    7060.2727    103.69758   -300.46759   -55.210647   -4146.8328 
34749000    88.333007   -5072.9568   -4902.5992   -5072.9568            0    6785.2398    19.699519    19.781237    20.444904    7966.9875    7069.7329    6123.4212    7162.5652   -307.21714    119.15541   -80.298789   -4114.2198 
34750000    93.371535   -5055.8639   -4875.7891   -5055.8639            0    8010.6482    19.670014    19.759338      20.4728    7957.0905    8861.3196    6871.2027    8299.4223    -133.9636    486.63711   -686.20712   -3946.1854 
Loop time of 392.714 on 64 procs for 250000 steps with 972 atoms

Performance: 110.004 ns/day, 0.218 hours/ns, 636.596 timesteps/s
193.1% CPU use with 32 MPI tasks x 2 OpenMP threads

MPI task timing breakdown:
Section |  min time  |  avg time  |  max time  |%varavg| %total
---------------------------------------------------------------
Pair    | 28.847     | 36.107     | 43.866     |  77.5 |  9.19
Bond    | 1.014      | 1.2051     | 1.7057     |  13.4 |  0.31
Kspace  | 169.46     | 180.51     | 188.6      |  40.5 | 45.97
Neigh   | 0.34346    | 0.38578    | 0.40653    |   2.7 |  0.10
Comm    | 69.607     | 73.201     | 79.117     |  25.9 | 18.64
Output  | 0.48816    | 0.48853    | 0.49002    |   0.0 |  0.12
Modify  | 78.029     | 80.731     | 84.408     |  15.0 | 20.56
Other   |            | 20.08      |            |       |  5.11

Nlocal:        30.3750 ave          36 max          27 min
Histogram: 4 7 2 3 5 5 2 2 1 1
Nghost:        2727.75 ave        2755 max        2698 min
Histogram: 1 1 8 4 2 2 2 8 1 3
Neighs:        9870.41 ave       12231 max        7926 min
Histogram: 5 1 4 3 6 3 2 6 1 1

Total # of neighbors = 315853
Ave neighs/atom = 324.95165
Ave special neighs/atom = 2.0000000
Neighbor list builds = 995
Dangerous builds = 0

unfix		3
unfix		2
unfix		1

write_data	data.final.${pid}
write_data	data.final.1
System init for write_data ...
PPPM initialization ...
  extracting TIP4P info from pair style
  using 12-bit tables for long-range coulomb (../kspace.cpp:340)
  G vector (1/distance) = 0.37242091
  grid = 24 24 24
  stencil order = 5
  estimated absolute RMS force accuracy = 0.0034813873
  estimated relative force accuracy = 1.0484094e-05
  using double precision FFTW3
  3d grid and FFT values/proc = 3211 432
Last active /omp style is kspace_style pppm/tip4p/omp
WARNING: Not all mixed pair coeffs generated from mixing. Use write_data with 'pair ij' option to store all pair coeffs. (../write_data.cpp:312)

write_restart   restart.lmp.${pid}
write_restart   restart.lmp.1
System init for write_restart ...
PPPM initialization ...
  extracting TIP4P info from pair style
  using 12-bit tables for long-range coulomb (../kspace.cpp:340)
  G vector (1/distance) = 0.37242091
  grid = 24 24 24
  stencil order = 5
  estimated absolute RMS force accuracy = 0.0034813873
  estimated relative force accuracy = 1.0484094e-05
  using double precision FFTW3
  3d grid and FFT values/proc = 3211 432
Last active /omp style is kspace_style pppm/tip4p/omp
Total wall time: 0:06:32
