#include		in.partitions
include		in.temp
variable        temperature equal 162.60
variable	tempDamp equal 100.0
include		in.pressure
variable        pressure equal 2078.4
variable        pressureDamp equal 1000.0 # This is 1 ps
include		in.seed
variable        seed equal 745823

units		real
atom_style	full
#include		in.box
read_restart	restart.lmp.${pid}
read_restart	restart.lmp.1
Reading restart file ...
  restart file = 30 Jul 2021, LAMMPS = 30 Jul 2021
  restoring atom style full from restart
  orthogonal box = (0.15114990 0.035150159 0.11910308) to (18.056422 23.594028 22.094093)
  2 by 4 by 4 MPI processor grid
  restoring pair style lj/cut/tip4p/long/omp from restart
  restoring bond style harmonic/omp from restart
  restoring angle style harmonic/omp from restart
  864 atoms
  576 bonds
  288 angles
Finding 1-2 1-3 1-4 neighbors ...
  special bond factors lj:    0        0        0       
  special bond factors coul:  0        0        0       
     2 = max # of 1-2 neighbors
     1 = max # of 1-3 neighbors
     1 = max # of 1-4 neighbors
     2 = max # of special neighbors
  special bonds CPU = 0.002 seconds
  read_restart CPU = 0.008 seconds
include 	in.setup
variable	out_freq equal 1000
variable	out_freq2 equal 10000
variable	out_freq3 equal 1000

timestep	2.0

neigh_modify    delay 7 every 1

include		in.tip4p
# This is TIP4P/Ice

# create groups ###
group ox type 2
288 atoms in group ox
group hy type 1
576 atoms in group hy

# set charges - beside manually ###
set group ox charge -1.1794
Setting atom values ...
  288 settings made for charge
set group hy charge 0.5897
Setting atom values ...
  576 settings made for charge

# ### TIP3P Potential Parameters ###
pair_style lj/cut/tip4p/long/omp 2 1 1 1 0.1577 8.5
pair_coeff 1 1*2 0.000 0.000
pair_coeff 2 2 0.21084 3.1668
bond_style  harmonic
bond_coeff  1 450 0.9572
angle_style harmonic
angle_coeff 1 55 104.52
kspace_style pppm/tip4p/omp 1.0e-5
pair_modify tail yes

thermo          ${out_freq}
thermo          1000
thermo_style    custom step temp pe etotal epair emol press lx ly lz vol pxx pyy pzz pxy pxz pyz enthalpy

restart 	${out_freq3} restart.lmp.${pid} restart2.lmp.${pid}
restart 	1000 restart.lmp.${pid} restart2.lmp.${pid}
restart 	1000 restart.lmp.1 restart2.lmp.${pid}
restart 	1000 restart.lmp.1 restart2.lmp.1


include         in.dump
dump            myDump all atom ${out_freq2} dump.water.${pid}
dump            myDump all atom 10000 dump.water.${pid}
dump            myDump all atom 10000 dump.water.1
dump            myDump2 all dcd ${out_freq2} dump.dcd
dump            myDump2 all dcd 10000 dump.dcd
dump_modify     myDump append yes
dump_modify     myDump2 append yes


variable natoms 	equal  "count(all)"                        # NUMBER ATOMS
variable H      	equal  "enthalpy/v_natoms"                 # ENTHALPY-per-atom
variable Vol      	equal  "vol/v_natoms"                 # volume-per-atom
fix AVG all 		ave/time ${out_freq} 1 ${out_freq} v_Vol v_H file vol_enthalpy.dat
fix AVG all 		ave/time 1000 1 ${out_freq} v_Vol v_H file vol_enthalpy.dat
fix AVG all 		ave/time 1000 1 1000 v_Vol v_H file vol_enthalpy.dat


timer           timeout 23:50:00 every 1000
New timer settings: style=normal  mode=nosync  timeout=23:50:00

fix 		1 all shake 1e-6 200 0 b 1 a 1
       0 = # of size 2 clusters
       0 = # of size 3 clusters
       0 = # of size 4 clusters
     288 = # of frozen angles
  find clusters CPU = 0.001 seconds
fix             2 all nph aniso ${pressure} ${pressure} ${pressureDamp}
fix             2 all nph aniso 2078.4 ${pressure} ${pressureDamp}
fix             2 all nph aniso 2078.4 2078.4 ${pressureDamp}
fix             2 all nph aniso 2078.4 2078.4 1000
fix             3 all temp/csvr ${temperature} ${temperature} ${tempDamp} ${seed}
fix             3 all temp/csvr 162.6 ${temperature} ${tempDamp} ${seed}
fix             3 all temp/csvr 162.6 162.6 ${tempDamp} ${seed}
fix             3 all temp/csvr 162.6 162.6 100 ${seed}
fix             3 all temp/csvr 162.6 162.6 100 745823


run             250000
PPPM initialization ...
  extracting TIP4P info from pair style
  using 12-bit tables for long-range coulomb (../kspace.cpp:340)
  G vector (1/distance) = 0.37165585
  grid = 24 27 25
  stencil order = 5
  estimated absolute RMS force accuracy = 0.0031675203
  estimated relative force accuracy = 9.5388933e-06
  using double precision FFTW3
  3d grid and FFT values/proc = 4410 672
Last active /omp style is kspace_style pppm/tip4p/omp
Neighbor list info ...
  update every 1 steps, delay 7 steps, check yes
  max neighbors/atom: 2000, page size: 100000
  master list distance cutoff = 10.8154
  ghost atom cutoff = 10.8154
  binsize = 5.4077, bins = 4 5 5
  1 neighbor lists, perpetual/occasional/extra = 1 0 0
  (1) pair lj/cut/tip4p/long/omp, perpetual
      attributes: half, newton on, omp
      pair build: half/bin/newton/omp
      stencil: half/bin/3d
      bin: standard
Per MPI rank memory allocation (min/avg/max) = 10.19 | 10.21 | 10.23 Mbytes
Step Temp PotEng TotEng E_pair E_mol Press Lx Ly Lz Volume Pxx Pyy Pzz Pxy Pxz Pyz Enthalpy 
15750000    160.36555   -4410.3386   -4135.4775   -4410.3386            0    1640.1169    17.905273    23.558877     21.97499    9269.6686    2864.8662    412.82405    1642.6606    287.17792   -26.657764   -113.07438   -3913.7524 
15751000     162.1776   -4441.6728    -4163.706   -4441.6728            0    1700.8063    18.074097    23.323441    21.957128    9256.0298    1264.4446    1984.1709    1853.8033   -56.025093   -136.99046    489.36673   -3934.1146 
15752000    161.24476   -4438.6025   -4162.2345   -4438.6025            0    2303.6672    17.759455    23.632242    22.036241    9248.5169    2840.6307    1345.2119    2725.1589     37.33328    483.90444    329.33992   -3851.5156 
15753000    158.21076   -4434.9151   -4163.7473   -4434.9151            0    2142.9175    18.053303    23.264848    21.981032     9232.195    1606.3055    1302.0763    3520.3708   -743.95927   -301.90293     372.6464   -3875.2204 
15754000    156.16522   -4454.1383   -4186.4764   -4454.1383            0    1504.4533    17.861972    23.465393    22.063296    9247.5697    2020.2427    1496.8333    996.28372   -744.14818   -118.46861    1346.5102   -3983.5764 
15755000     170.3622   -4447.5917   -4155.5967   -4447.5917            0    924.79279    18.151934    23.230491    22.001509    9277.5598    1796.1376    46.596015    931.64477   -138.03953    421.09714    564.56027   -4030.4688 
15756000     166.3505   -4433.2194   -4148.1003   -4433.2194            0    2153.9012    17.914282    23.635183    21.787521    9224.9962    1058.6866    1565.4138    3837.6033   -286.21962   -350.01754    119.85284   -3858.3207 
15757000    160.17495   -4437.5589   -4163.0245   -4437.5589            0    1750.9727    17.972701    23.374657    22.002734    9243.4742    2071.1865    1266.0739    1915.6575   -180.23615   -345.59495    262.85335   -3926.9818 
15758000    163.93367   -4430.5086   -4149.5319   -4430.5086            0     1545.702    17.936001    23.335492    22.031904    9221.3525    1971.6455      1417.46    1248.0006   -740.36907    176.01262     -552.164   -3941.6597 
15759000     170.7284   -4434.9126   -4142.2899   -4434.9126            0    2489.9156    17.878346    23.241801     22.17043    9212.3671    2533.6198    1477.4557    3458.6714    369.69453   -81.734246    117.68042   -3807.7625 
15760000    160.31917   -4432.5369   -4157.7554   -4432.5369            0    2567.2585    17.945391    23.433132    21.911823    9214.2877    2430.3673     2403.011    2868.3974   -660.90072    424.19526    52.033355   -3812.7648 
15761000    159.67327   -4436.3906   -4162.7161   -4436.3906            0    3294.6767     18.06326    23.371072    21.784008    9196.2877    3650.9181    3783.8247    2449.2873    92.064104   -165.58695    202.38872   -3720.8392 
15762000    169.03795   -4419.9651   -4130.2399   -4419.9651            0    1106.6232    18.023376    23.532106    21.890074    9284.1936    1134.4867    1402.5021    782.88083    191.14171   -547.71466    45.611174   -3980.4026 
15763000    159.74227   -4420.3961   -4146.6033   -4420.3961            0     1783.843    17.915235    23.311164    22.104818    9231.5246     1427.525    1770.6166    2153.3874   -76.377758    399.18736    272.07015   -3906.4404 
15764000     163.3404   -4458.3622   -4178.4024   -4458.3622            0    1087.4789    18.046495    23.405333    21.931764    9263.6313    1209.9599    1249.9054    802.57144   -185.68463    695.44315     376.5745   -4031.4834 
15765000    164.29733   -4442.6684   -4161.0684   -4442.6684            0    2010.1562     18.11173     23.31087    21.899462    9245.9567    1062.7087    3023.9942    1943.7657     586.4766    128.79342   -18.201011   -3890.0134 
15766000    162.51589   -4435.4048   -4156.8582   -4435.4048            0    3719.2423    17.925754    23.436112    21.834469    9172.8783    2726.0348    2625.5297    5806.1623    233.82751    196.32203   -636.19369    -3659.309 
15767000    160.09148   -4430.6088   -4156.2175   -4430.6088            0    2537.4107    17.902862    23.245831    22.121304    9206.1547    3598.0414    2985.4588    1028.7321    346.98278   -305.88488    665.38932   -3815.5388 
15768000    159.01127   -4454.7392   -4182.1993   -4454.7392            0    1778.2969    17.926306    23.364165    22.067651    9242.6639    1811.1654     2411.575    1112.1503   -680.25955    -540.0203    550.06385   -3942.4942 
15769000    170.41994   -4449.5627   -4157.4688   -4449.5627            0    3344.5278    18.053135    23.371483    21.631791    9127.0702     2403.617    2685.7165      4944.25   -236.67634   -373.76433    755.58403   -3712.2822 
15770000    161.14655   -4454.8858   -4178.6861   -4454.8858            0    1462.9306    18.034549    23.365173     21.99426     9267.949    710.50111    1458.9932    2219.2974   -115.06433   -244.95581    118.21451   -3980.9512 
15771000    162.77627   -4449.1596   -4170.1666   -4449.1596            0    1540.1899    18.193233    23.151439    22.022766    9275.9785    820.18722    2339.6375    1460.7449   -148.06279    213.50201    512.70184   -3961.8087 
15772000    162.58161   -4428.2443    -4149.585   -4428.2443            0    2709.9074    17.835341    23.531702    21.972854    9221.9176    2481.3813    2150.9974    3497.3434   -462.13136    21.684317    556.87846   -3785.1236 
15773000    155.15685   -4443.0765    -4177.143   -4443.0765            0     1256.745    18.043575    23.228313    22.066563    9248.5782     476.9909    1398.4366    1894.8076   -784.72896    -297.5741   -124.44966   -4007.6319 
15774000    171.65225   -4421.8975   -4127.6915   -4421.8975            0     1633.855    18.019323      23.6286    21.783442    9274.7664    344.11854   -23.414569     4580.861   -952.09226    432.86261   -584.36163   -3906.6914 
15775000    162.09839   -4434.1843   -4156.3532   -4434.1843            0    2158.6978    18.018692    23.244224    21.982283    9206.8509    532.65316    2879.8244    3063.6158   -178.61315   -143.24852   -44.922176   -3866.4995 
15776000    165.44161   -4421.3628   -4137.8015   -4421.3628            0    2767.7243    17.706199    23.382152    22.183874    9184.3242    4178.5396    3822.8863    301.74713   -116.03752    -136.3076   -36.984017   -3767.0816 
15777000    167.05653   -4434.4639   -4148.1348   -4434.4639            0    1643.1231    18.081941     23.27696    21.989626    9255.2714    541.20535    1839.8803    2548.2837    441.20532   -694.76946    59.478847   -3926.3482 
15778000    161.40044   -4446.7262   -4170.0913   -4446.7262            0      1565.33    17.890875    23.539251    21.995385     9263.088    2417.8048    1254.1624    1024.0228   -452.46825   -71.336541   -309.78429   -3958.6268 
15779000    159.87385   -4458.0561   -4184.0378   -4458.0561            0    2837.2327    18.008625    23.187957    21.974782    9176.3004    3348.3919    1920.1495    3243.1568    583.04019    337.20776    94.104575   -3804.3397 
15780000    170.13511   -4438.0218   -4146.4161   -4438.0218            0    2452.8885    17.896468    23.539873    21.880948    9218.0187    3412.8549    1122.6463    2823.1643   -34.968408   -528.54694   -160.42017   -3816.6611 
15781000    162.87261    -4416.353   -4137.1949    -4416.353            0    2582.2638    18.088568    23.077305    22.036808    9198.9438    2805.5068    3255.1387     1686.146   -82.756205   -89.735261   -118.26712   -3790.7658 
15782000    168.83813   -4441.3799   -4151.9972   -4441.3799            0    1184.4909    17.826443    23.688792    21.924425    9258.3978    1637.2617    137.63426    1778.5768    5.1421305    511.12662    551.63835   -3992.0622 
15783000    162.24369   -4429.8373   -4151.7571   -4429.8373            0    3082.9657    18.079736    23.218481    21.828767    9163.3672    3215.5281    2915.1582    3118.2107   -262.70205    236.37337    481.97384   -3739.7548 
15784000    155.93573   -4444.2707   -4177.0022   -4444.2707            0    1570.4771    17.997272    23.410121    21.931803    9240.2701    2305.0386    1167.3164    1239.0762   -277.39549     -633.481   -322.78091   -3965.3649 
15785000    151.84761   -4439.4472   -4179.1856   -4439.4472            0    2892.4661    17.963623    23.106982     22.09092     9169.612    3401.1525    3860.6592    1415.5867    396.84005     492.6856     672.8791   -3792.3779 
15786000    156.89031   -4443.2454   -4174.3407   -4443.2454            0    2513.3357    17.891943    23.321191    22.023682    9189.6331    3521.2485    1648.0934    2370.6652   -17.681984   -208.39479    971.74992      -3837.5 
15787000    164.63279   -4437.1804   -4155.0055   -4437.1804            0    2833.4552    18.072845    23.410892    21.681655     9173.539    2172.8377    2684.7164    3642.8115    1188.2954    198.77195    6.9297672    -3775.927 
15788000    164.98457   -4440.5998   -4157.8219   -4440.5998            0    2318.1009     17.90364    23.344119    22.001367     9195.355    2294.3027    2452.9452    2207.0548    1038.1459   -1012.7234   -527.56645   -3846.9534 
15789000    161.86567   -4434.4333   -4157.0011   -4434.4333            0    2249.5928    17.963843    23.260455    21.977128    9183.0805    2347.3513    2125.6415    2275.7856   -1162.4665    508.73718    -138.5662   -3855.7225 
15790000    169.61311   -4456.1745   -4165.4635   -4456.1745            0    1799.0289    18.039247    23.325213    21.864575    9199.9417    1626.7061    1942.5136    1827.8671   -504.47903    237.56963    665.80398   -3924.0847 
15791000    162.87807   -4446.0428   -4166.8754   -4446.0428            0    1926.6233    18.031497    23.208227    22.070676    9236.1162      2166.97    2062.0953    1550.8046    28.519911   -384.78027    83.156436   -3907.3606 
15792000     165.9956    -4457.367   -4172.8563    -4457.367            0     1432.134    17.907464     23.50684    22.036576    9276.2505     1766.466    927.62629    1602.3098    -1037.597   -63.385549    552.33065   -3979.1106 
15793000    158.60203   -4420.2045    -4148.366   -4420.2045            0    2486.7955    18.061223    23.434327     21.75233    9206.7305     1827.282    2333.9801    3299.1243   -236.94775   -1172.3203    466.84936   -3814.4622 
15794000    158.80649   -4430.4091   -4158.2202   -4430.4091            0    1317.6575    17.996531    23.448165    22.078495    9316.8073     1994.105    941.45474    1017.4128    146.41233   -721.04238    113.09029   -3979.1821 
15795000    157.51121   -4460.1541   -4190.1852   -4460.1541            0    2809.8545    17.910013    23.286292    22.007091    9178.2287    3384.8003    2037.0114    3007.7516   -162.47884    75.204386   -144.31305    -3814.072 
15796000    165.64471   -4432.1918   -4148.2825   -4432.1918            0    3785.4536    17.979262    23.271124    21.885173    9156.7048    4445.2174    4116.6156    2794.5279    685.15143   -191.17368    339.29302   -3642.7686 
15797000    156.91014   -4440.2611   -4171.3225   -4440.2611            0    2411.4008    18.036184    23.374276    21.765624    9176.0118      1730.55     2433.996    3069.6563    665.14743    260.69804    825.94385   -3848.6223 
15798000    160.88044   -4433.5383   -4157.7948   -4433.5383            0    2054.8753    17.990785    23.306019    22.086771    9260.8413    1615.0818    2293.1239    2256.4202   -283.49049   -805.22741    -356.5569   -3880.2636 
15799000    163.20858    -4428.316   -4148.5821    -4428.316            0    2593.5751    18.006027    23.446416    21.744517    9180.0308    3021.4075    2060.5522    2698.7656   -121.70124    65.146804   -492.51536   -3801.3508 
15800000    165.44671   -4453.9426   -4170.3726   -4453.9426            0    2573.5497     18.01477    23.283739    21.939849    9202.6964    1245.3699    3338.5516    3136.7277   -701.74462   -444.47275   -622.00729   -3824.9717 
15801000    168.97921   -4432.9557   -4143.3311   -4432.9557            0     2337.555    17.944441    23.223214    22.124697    9219.9716    1404.5271    2109.6616    3498.4762   -690.76415    -237.0356   -109.66424   -3829.0145 
15802000    160.12157   -4439.3368   -4164.8939   -4439.3368            0    1808.9229    17.936426    23.425811    21.938763     9218.127    2021.9813    2205.9998    1198.7877    432.44807    508.03227   -635.64475   -3921.7079 
15803000    168.35851   -4459.3559   -4170.7952   -4459.3559            0    1941.5382    18.177219    23.223637     21.85743    9226.9205    191.50269    3285.6661    2347.4459    852.43841   -991.59426    27.032317   -3909.5318 
15804000    168.48757   -4435.0976   -4146.3157   -4435.0976            0     2078.015    17.875331    23.455384    21.979367    9215.3497    1967.3584    1854.3192    2412.3675   -241.38896    1113.0191   -407.87975   -3867.0379 
15805000    154.28924   -4424.6564     -4160.21   -4424.6564            0    653.77538    18.051018    23.462814    21.959985    9300.6614    8.1174376    758.10657    1195.1021   -327.47148    140.79405   -139.29354   -4071.5315 
15806000    162.85368   -4422.3846   -4143.2589   -4422.3846            0    2125.7467    18.067683    23.436571    21.857703     9255.525    1612.6621    2178.3126    2586.2655   -517.40179   -398.81575    557.78418   -3856.3206 
15807000    156.98102   -4431.1209   -4162.0608   -4431.1209            0    3283.4692    17.951237    23.313962    21.961018    9191.0038    3194.8705     4684.538     1970.999    92.531505   -513.33584   -110.73073   -3721.9402 
15808000    160.38091   -4433.9855   -4159.0982   -4433.9855            0    2995.5228      17.7802    23.261664    22.190796    9178.0472    4590.8966    2556.0468    1839.6251     234.7673   -162.42457   -485.18113   -3758.1402 
15809000    161.63665   -4435.5476   -4158.5079   -4435.5476            0    2019.1734     18.06652    23.375312    21.872058    9236.8008     3397.275    1069.1123    1591.1329   -1027.6636    158.07699    389.15644   -3886.5065 
15810000    154.26965   -4451.6639   -4187.2511   -4451.6639            0    1561.5944    18.112157    23.317203    21.905412    9251.1995    219.28239    2807.5648     1657.936    159.61853   -41.210987    1062.6791   -3976.5619 
15811000    159.78954   -4438.3637   -4164.4899   -4438.3637            0     1683.681    17.794423      23.6141    22.020944    9253.1847    2538.1009     276.4864    2236.4557    1023.2058    363.40202   -162.57828   -3937.2801 
15812000    166.06487    -4430.249   -4145.6195    -4430.249            0    2690.3035    18.081841    23.096232    21.992713    9184.6497    2753.3267     3257.532    2060.0517    -313.5005   -727.60124   -88.627344   -3785.2569 
15813000    166.28188   -4421.8556   -4136.8542   -4421.8556            0    2082.4441    17.914128    23.481023    21.892467    9208.8925    1239.2457    1968.3836    3039.7031    176.74758   -1086.5348    83.057743   -3857.1773 
15814000    166.26834   -4448.9359   -4163.9576   -4448.9359            0    2015.6118    18.090945    23.172379    22.030608    9235.4565     1589.537    1620.9728    2836.3256    441.47984   -474.51223   -388.89052   -3892.4756 
15815000    155.96013   -4445.3427   -4178.0324   -4445.3427            0    3268.1169    17.892245    23.388153    21.880356    9156.1971    3844.3123     2924.191    3035.8473     202.4164   -37.333335    581.01984   -3741.6285 
15816000    162.51069   -4421.2025   -4142.6647   -4421.2025            0    2974.8716     18.03122     23.16335    22.013179    9194.1006    2921.9111    3452.8666     2549.837   -41.549544    -786.4423    241.58134   -3743.7745 
15817000    155.94233    -4455.259   -4187.9791    -4455.259            0    1784.2772    17.925794    23.420892    22.022578    9245.9171    619.60995    1945.1404    2788.0812   -63.254499   -388.88345    388.55254   -3947.3832 
15818000    158.31732   -4432.8164   -4161.4659   -4432.8164            0    771.52143    18.015991    23.155657    22.242306    9278.8695    764.78799    1823.0705   -273.29417    -72.39841    228.10297    98.138783   -4057.0615 
15819000    156.10977   -4457.4625   -4189.8957   -4457.4625            0    2546.4042    18.011313    23.468135    21.790608    9210.7138    1948.1118    3249.0266    2442.0742    309.87444      679.955    592.78975   -3847.8402 
15820000    165.24475   -4446.3012   -4163.0774   -4446.3012            0    2287.7185    17.961844    23.468298    21.850731     9210.824    3426.3462    1768.6081    1668.2012   -777.32664    -85.93752    16.243511   -3855.7672 
15821000    163.43956   -4438.8553   -4158.7255   -4438.8553            0    3406.9273    17.933099    23.262637    21.867192     9122.362    3677.5182    3364.4888    3178.7749   -188.29459   -116.16415    4.9451949   -3705.4669 
15822000    178.40856   -4430.7569   -4124.9707   -4430.7569            0    2971.8691    17.872523     23.46509     21.99597    9224.6779    4323.9642    1357.8074    3233.8355   -323.53057    167.54764   -256.72117   -3725.1578 
15823000    150.93458   -4443.7422   -4185.0455   -4443.7422            0    1233.0235    18.110211    23.267841    21.958857    9253.1443    758.98995    1582.1965    1357.8839   -434.03864   -53.068415    -748.4429   -4018.6519 
15824000    167.63666     -4456.04   -4168.7165     -4456.04            0    2598.8392    17.850177    23.413567    22.012467    9199.8093    2736.1086    1425.4683    3634.9406    432.22693   -247.60932    238.73987   -3820.0308 
15825000     158.0729   -4435.5247   -4164.5931   -4435.5247            0    3177.7411    18.052845    23.148238    21.936719    9167.1697    3965.8716    2695.6457     2871.706    48.503592   0.94761005    208.51436    -3739.749 
15826000    152.58137     -4428.19   -4166.6707     -4428.19            0    1183.1408    17.817603    23.619266    22.028388    9270.3981    415.97543    1313.3087    1820.1382    -193.5789   -324.02433    318.11372    -4006.711 
15827000    159.85059   -4450.1714    -4176.193   -4450.1714            0    1559.1405    17.966331    23.445979    22.029625    9279.7199    2651.2471   -57.794655    2083.9691    776.77405    423.12012    110.28727   -3965.1864 
15828000    172.02932   -4432.0241   -4137.1717   -4432.0241            0    2047.4103    18.084924    23.327314    21.939531    9255.6891    2856.9002     2964.781    320.54966   -1078.9883    -67.89873    351.54385   -3860.8026 
15829000    166.09145   -4449.5142   -4164.8392   -4449.5142            0     2938.791    17.903288    23.506374    21.875088    9205.9421    2901.4845    2270.1159    3644.7727   -612.81569   -386.61872    250.19776   -3770.2794 
15830000    169.97547   -4431.3131    -4139.981   -4431.3131            0    2044.3409    17.931558    23.248065    22.220686    9263.2271    2806.1174     1206.897    2120.0085    729.22793   -517.68501    151.32866   -3863.8014 
15831000    156.09568   -4430.2192   -4162.6766   -4430.2192            0    2307.6527     17.97077    23.381299    22.002168    9244.8697    2011.7091    2043.5064    2867.7426   -188.68242   -554.16235    322.17505   -3851.5428 
15832000     160.3684   -4449.1964   -4174.3304   -4449.1964            0    2225.7356    17.999136    23.549068    21.776485    9230.2438    2370.5821    1302.2641    3004.3606    413.94699    94.942084    27.544218    -3874.716 
15833000    155.67156   -4446.9123   -4180.0966   -4446.9123            0    2436.1032    18.070645    23.327863    21.908692    9235.5989    1036.6173    3108.6955    3162.9969    89.249354   -285.00253   -713.30046   -3851.9736 
15834000    169.68709   -4425.8906   -4135.0527   -4425.8906            0    2605.9712    17.859723    23.510113    21.962808    9221.8339    3892.6912    2882.1677    1043.0547     647.4518   -250.52179    75.852665   -3784.5731 
15835000    163.09325   -4440.1632    -4160.627   -4440.1632            0    1951.3817    17.959867    23.215464    22.120573    9223.0986    1010.7785      3167.18    1676.1866   -869.01908    400.44056    193.23376   -3898.1478 
15836000    158.33164   -4433.6615   -4162.2865   -4433.6615            0    2305.5857    17.924656    23.369444    22.050341     9236.651    1904.6758    1495.1649    3516.9164   -354.97059   -248.46545    476.64291   -3851.7078 
15837000    160.93539   -4452.5561   -4176.7183   -4452.5561            0    889.37904    18.047913     23.38516    21.998651    9284.6041    1363.0571    1047.1502    257.92975    -350.7396    410.50851    296.77849   -4056.2907 
15838000    173.12603   -4440.7183   -4143.9863   -4440.7183            0    2193.0842     17.91162    23.506005      21.8671    9206.7187    2729.8711    1918.6598    1930.7216    255.17325   -296.88093   -62.993839   -3849.5196 
15839000     154.0378   -4448.3835    -4184.368   -4448.3835            0    1467.6081    18.124506    23.330756    21.865701    9246.0958    1608.3731    1115.9379    1678.5135    165.72482    699.20929   -295.86724   -3986.4686 
15840000    164.23551    -4443.205   -4161.7109    -4443.205            0    2271.9806    17.820696    23.402779    22.108497     9220.433    3227.0207    1791.7091     1797.212   -337.72812   -108.34304    88.524915   -3856.1964 
15841000    154.09434    -4446.712   -4182.5995    -4446.712            0    2838.3469    18.009545    23.222012     22.01436    9206.7987    2630.9199    3449.1008    2435.0201   -515.61562     73.54659     325.3663   -3801.4898 
15842000    164.74833   -4430.6379   -4148.2649   -4430.6379            0    1647.9248    18.013862    23.423829    21.864261    9225.7041    1974.4815    592.21378     2377.079    817.92208   -82.368803    561.85293   -3926.5409 
15843000    157.46019   -4445.6341   -4175.7527   -4445.6341            0    3080.6857    17.923157    23.182717    22.044703     9159.739    3011.0758    2890.0513      3340.93   -257.80126   -767.82513    308.82826   -3764.2181 
15844000    156.80778   -4436.7742   -4168.0111   -4436.7742            0    2469.2265    17.838819    23.338443    22.085179    9194.7283    3481.1457    3013.4908    913.04307   -23.169395    155.06729    1451.5488   -3836.8985 
15845000     166.3133   -4457.5976   -4172.5423   -4457.5976            0    3052.4322    18.038379    23.353892    21.771203    9171.4752    2074.8729    3785.6446    3296.7791    328.22875    349.99363    331.46537   -3764.2595 
15846000    170.66892   -4442.5761   -4150.0554   -4442.5761            0    1079.4953    18.041978     23.39542    21.996999    9284.9256    688.96679    1357.0396    1192.4796   -554.06304   -608.24987   -944.65677   -4003.8797 
15847000    158.76411   -4431.0871   -4158.9709   -4431.0871            0     2069.686    17.966982    23.343405    22.003776    9228.6153    828.87341    2855.6454    2524.5393   -101.50502   -649.42258   -52.216763   -3880.4121 
15848000    150.18068   -4439.3359   -4181.9314   -4439.3359            0    1707.4175    17.954709      23.3291    22.038862    9231.3568    1097.4456    2985.1792    1039.6276   -1050.2145    433.08082    372.92189    -3952.062 
15849000    167.26691   -4445.2986   -4158.6089   -4445.2986            0    1968.6928    17.940504    23.363776     21.96537    9206.9586    2859.5561    1111.4229    1935.0993   -821.45673    54.034542   -227.05091   -3894.2645 
15850000    165.57619   -4460.7542   -4176.9623   -4460.7542            0    1802.8432    17.969918    23.286535    22.064313    9232.9688    1335.0621    2742.4076    1331.0597    428.27863    196.27815    329.53398   -3934.2034 
15851000    162.39889   -4462.7356   -4184.3895   -4462.7356            0    2020.4733    18.011278    23.419063    21.855696    9218.8913    1706.4083    1456.7653    2898.2462    -98.47701   -170.97768    318.79146   -3912.7408 
15852000    166.43125    -4437.084   -4151.8266    -4437.084            0    2196.5104    18.097069    23.381599    21.813921    9230.3077    2479.5612    2580.7465    1529.2235   -120.37405     107.9982   -201.86708   -3856.1443 
15853000    155.90095   -4418.4019    -4151.193   -4418.4019            0    1600.3675    17.893472    23.327404    22.188553    9261.6851    2390.5446    565.13009    1845.4279    226.68343   -177.84824   -427.38915   -3935.0279 
15854000    156.05365   -4429.1386    -4161.668   -4429.1386            0    2595.1884    17.945417    23.247558    22.099522    9219.6358    3595.5662    2338.2689    1851.7301   -455.15841   -538.16165   -1582.6397   -3812.7217 
15855000    167.64035   -4435.7114   -4148.3816   -4435.7114            0    2418.8548    17.965286    23.550281    21.764959    9208.4827    1331.4859    2053.5661    3871.5125    592.53618    260.05754    807.60657   -3823.5384 
15856000    166.72617   -4465.4697   -4179.7068   -4465.4697            0    3051.6169     17.94771    23.296118     21.95818    9180.9779    3426.6482    1985.7157    3742.4869   -483.66652    430.74697    -122.6057   -3771.1101 
15857000    156.40614    -4446.835   -4178.7602    -4446.835            0    910.95376    17.951837    23.446939    22.065663    9287.7828    1181.3496    1506.3082     45.20347   -759.20455    155.82226   -119.17275    -4055.369 
15858000    159.88755     -4436.59   -4162.5482     -4436.59            0    2388.1784    18.113321    23.469242    21.753043    9247.3473    2290.7127    1274.9315     3598.891    225.39438   -212.90834   -25.969128   -3840.4712 
15859000    161.17229   -4445.8124   -4169.5686   -4445.8124            0    3396.7504    17.932394    23.331222    21.938029    9178.5353    4032.3827    2965.1372    3192.7313    202.38929    508.72373   -235.47491   -3714.8812 
15860000    153.88208   -4438.2767   -4174.5281   -4438.2767            0    491.53691    18.019126     23.46546    22.036144    9317.4784   -154.33617    427.30577    1201.6411     259.8562    205.92479   -264.18292   -4107.7351 
15861000    162.75602   -4437.6032    -4158.645   -4437.6032            0    1130.7946    18.010206    23.372662    22.052964    9283.1171     1124.928    1251.4333    1016.0224    85.680002    383.55172    -170.6672   -4005.5527 
15862000    162.91336   -4439.8303   -4160.6024   -4439.8303            0    3369.1731    17.908955    23.369052    21.857647    9147.7599    3775.1774    2586.7276    3745.6143    292.36747    456.06329    234.86169   -3711.1187 
15863000    162.96705   -4444.5225   -4165.2025   -4444.5225            0    2487.4367    17.862396    23.417513    22.028602    9214.4072    2774.9694    627.97073      4059.37   -986.91982    324.42762   -4.0315134   -3830.9341 
15864000     169.2033   -4426.2764   -4136.2677   -4426.2764            0    2745.6358    18.104943     23.25398    21.847829    9198.1978    1412.2155    4210.7084    2613.9836   -175.28388   -601.04574     486.8802   -3767.9509 
15865000    168.44168    -4434.194   -4145.4907    -4434.194            0    1915.8143    17.923889    23.402477    21.976325    9218.2642    1922.2369     1603.725    2221.4808     -454.163   -29.879555   -637.85152   -3887.9307 
15866000    158.99111   -4446.1599   -4173.6546   -4446.1599            0    2149.3294    17.947962    23.240011    22.209498    9263.8227    1549.4003    1920.3423    2978.2455   -538.79663    651.34759     430.8038    -3883.273 
15867000    157.12993   -4454.8582   -4185.5429   -4454.8582            0    2338.6954    17.901886    23.464193    21.968619     9227.991    3110.3301    958.40581    2947.3504    373.10331    320.51099    179.64014   -3870.7994 
15868000    160.02917   -4447.2121   -4172.9276   -4447.2121            0    2594.9051    18.128937    23.095305    22.009047    9215.0411    2433.4852     3894.879    1456.3511    -956.2559   -724.21498    -732.4807   -3824.1933 
15869000    168.23109   -4443.3088   -4154.9665   -4443.3088            0    2282.0222    17.880209    23.542006    21.873198    9207.2159    3201.9861    1211.0515     2433.029    267.44833   -824.19522   -207.17057   -3848.5416 
15870000    163.31147   -4451.4582   -4171.5479   -4451.4582            0    1567.4438    18.109925    23.227276    22.003454    9255.6259    1954.2213    1994.8372    753.27287     286.3411    37.423153   -603.17047   -3959.9684 
15871000    158.73066   -4444.4229    -4172.364   -4444.4229            0    2244.5955    17.873898    23.438939    22.056807    9240.5933    3972.2076    1721.1894    1040.3894   -170.68414   -238.14483   -151.23528   -3869.8721 
15872000     170.7843   -4437.6703   -4144.9519   -4437.6703            0      2449.03    18.134803    23.189967     21.88966    9205.5979    3225.3999    3045.9317    1075.7585    688.35548   -294.92002    165.52061   -3816.1593 
15873000    154.42974   -4448.3129   -4183.6256   -4448.3129            0    1427.4864    17.948032    23.427566    21.982898    9243.3404    2005.5728    1370.4956     906.3906   -399.45138    148.36179   -194.99055   -3991.1938 
15874000     162.2887   -4427.7479   -4149.5906   -4427.7479            0    1718.7285    18.001116    23.162159    22.209881    9260.2926    1301.4964    2083.1327    1771.5565    638.13457    592.03267   -155.75198   -3917.4731 
15875000    169.84469   -4428.2637   -4137.1557   -4428.2637            0    3251.4107    17.980232    23.523463    21.712206    9183.3368    4095.5163    2306.2204    3352.4955   -586.90965    226.91777    154.07973   -3701.6957 
15876000    164.37089   -4445.1507   -4163.4246   -4445.1507            0    2305.2111    17.914091    23.369455    22.029502    9222.4866    3299.6649    1809.2851    1806.6831    677.04567   -206.37102    50.346701   -3853.3726 
15877000    160.45038   -4431.6586   -4156.6521   -4431.6586            0    2551.4861    17.867725    23.195993    22.228989    9213.0187    3269.8241       2072.8    2311.8343     78.21702    79.488064    781.33988   -3813.8283 
15878000    164.52858     -4440.45   -4158.4537     -4440.45            0    2937.7457    17.962001    23.361984    21.923853    9199.8627    3178.2761     3608.971    2025.9899    -1505.644    424.27869    580.93523   -3764.2947 
15879000    166.58696   -4432.3816   -4146.8573   -4432.3816            0    1252.7233     18.03012    23.511638    21.864414    9268.7114    140.93472    577.27808     3039.957     261.5809    265.44967    218.03178   -3977.5208 
15880000    157.64043   -4450.5026   -4180.3123   -4450.5026            0     2492.809    17.937653    23.209281    22.142121    9218.2083    3776.8989    2941.0346    760.49345    525.50242   -177.21218   -693.52989   -3845.1838 
15881000    159.29193   -4460.0952   -4187.0743   -4460.0952            0    2144.7984    17.966381    23.491749    21.871144    9230.9726    1354.7437      2146.93    2932.7214    665.99208   -206.38853    282.21277   -3898.3324 
15882000    168.01557   -4434.4618   -4146.4889   -4434.4618            0    1996.8568    17.973194    23.526908    21.867372    9246.6988    2306.7564    1903.8788     1779.935    727.96732    201.10026    130.43004   -3877.2056 
15883000    161.33005   -4448.2643   -4171.7502   -4448.2643            0    2272.2637     18.09673    23.166933    21.896033    9179.8189    1640.9675    1777.8364    3397.9872    198.87362   -468.98123   -164.98244   -3867.5435 
15884000    160.56317   -4453.1217   -4177.9219   -4453.1217            0    1997.2277    17.824616    23.331396    22.126664    9201.8861    2508.2583    1841.8642    1641.5606    115.33037   -227.50922   -39.540942   -3909.8939 
15885000    152.56132   -4449.3242   -4187.8393   -4449.3242            0    625.13501    18.100059    23.292329    22.022967    9284.7185    530.20307    1739.4497   -394.24772    181.37205    579.39449   -428.52268    -4103.191 
15886000    165.75317   -4444.3246   -4160.2293   -4444.3246            0    3545.2055    17.925195    23.382755    21.863478    9163.8677    2332.2035    3543.9445    4759.4686   -692.76419   -384.56206   -863.13208   -3686.4282 
15887000    163.06475   -4459.2657   -4179.7783   -4459.2657            0    1983.3402    18.046769    23.172434    22.057954    9224.3617    1200.1354    2801.6133    1948.2719    114.43991    308.39303    211.59671   -3912.9638 
15888000    159.05928   -4435.7677   -4163.1455   -4435.7677            0    2337.7529    17.934388    23.510753    21.916519    9241.1215    1995.2951     2642.339    2375.6245    88.464006   -286.39969    673.11362   -3848.0812 
15889000    148.13483   -4450.2714   -4196.3734   -4450.2714            0    1818.9214    18.023805    23.366635    21.943439    9241.6039    2012.6519    1308.5029    2135.6095   -47.299687   -478.01301    430.36655   -3951.2204 
15890000    163.24316   -4448.5991   -4168.8059   -4448.5991            0    1766.5387    17.850984      23.6681    21.907176    9255.7572     2572.429    409.41147    2317.7757    -724.7388    120.22505    508.59712   -3930.3484 
15891000    159.38225   -4454.7553   -4181.5796   -4454.7553            0    2045.3616    17.965454    23.150167     22.14388    9209.7122    2673.2559    3241.9626    220.86634   -342.06906   -783.87312    651.72948   -3906.8584 
15892000    155.80256   -4437.5632   -4170.5229   -4437.5632            0    3098.5451    17.768707    23.531685    21.927776     9168.609    2916.8499    3201.8631    3176.9224   -16.604141    176.29375     399.1714   -3756.2017 
15893000    156.28297    -4441.887   -4174.0234    -4441.887            0    2502.4604     18.13708    23.274385    21.838039    9218.4778    970.70972    2890.0405    3646.6309   -156.97813    -864.1732    467.69822   -3837.5875 
15894000    158.64838   -4439.8067   -4167.8888   -4439.8067            0    2101.2024     17.86152    23.462018    22.064524    9246.5207    3474.8737    1120.6558    1708.0778    -602.5505    227.98539    -493.3336   -3884.5395 
15895000    171.85978   -4443.8382   -4149.2764   -4443.8382            0    2109.3316    18.018259    23.232368    22.058477    9233.8289    974.56721    3022.6467    2330.7808    247.85463   -485.94329    811.51218   -3865.2214 
15896000    162.33233   -4451.4547   -4173.2226   -4451.4547            0    2574.1841     17.86933    23.523038    21.834495    9177.9317    4186.2985    2416.9894    1119.2646     225.9791    33.329913   -21.332603   -3828.6662 
15897000    159.53703   -4459.4257   -4185.9847   -4459.4257            0    2767.4775    18.119972    23.178479    21.920104    9206.2987     1873.255    2480.1823    3948.9951   -741.55355    40.401365    799.25165   -3814.4109 
15898000    152.24351   -4447.8505   -4186.9103   -4447.8505            0    3129.5103    17.891877    23.271004    21.978973    9151.2073    2436.3356    3102.8932    3849.3022     431.7863    -112.8701    252.33764   -3769.2428 
15899000    168.35449   -4427.9957   -4139.4419   -4427.9957            0    854.01952    18.117502    23.267599    22.075857    9306.0945    1525.2866   -361.43613    1398.2081   -618.91843   -8.4050705    387.11595   -4023.5345 
15900000    159.11406    -4446.732   -4174.0159    -4446.732            0    1279.0955    17.952104    23.419224    22.042851    9267.3512    1760.3058    1870.7956    206.18518   -646.63721    547.22515    349.54151     -4001.14 
15901000    166.58724    -4435.373   -4149.8481    -4435.373            0      1290.42    18.067186     23.37666     22.00386    9293.3403    1789.4118    862.11297    1219.7353    -203.6624   -115.24058    159.84638   -3974.9526 
15902000    153.89963    -4448.855   -4185.0763    -4448.855            0    916.27912    17.978964    23.636433    21.776917    9254.2876    1033.2635    912.45946     803.1144    687.27172    526.24266   -637.58423   -4061.4114 
15903000    162.33449   -4435.2068   -4156.9711   -4435.2068            0     1375.859    17.979383    23.288708     22.09718    9252.4563    1903.3508    1614.9699    609.25639   -816.64456   -463.18814    23.783319    -3971.316 
15904000     155.2935   -4441.9916   -4175.8239   -4441.9916            0    1582.5746    17.903593    23.516449    21.888014    9215.4867    1847.0134     2144.569    756.14142    171.73687   -257.76474    276.58685   -3963.1284 
15905000    170.45541   -4460.6196   -4168.4649   -4460.6196            0    2503.5487    18.131081    23.095773    22.024604    9222.8323    2758.8437    3730.0379    1021.7645    -662.9987   -20.881785    277.75371   -3831.7237 
15906000    150.09554   -4454.9917   -4197.7331   -4454.9917            0    1990.9778     17.87051     23.38686    22.130794    9249.2362    2699.7593    2417.3517    855.82241   -208.11964    1058.8494    107.99003   -3929.1688 
15907000    160.28371   -4448.9407   -4174.2199   -4448.9407            0     2764.239    18.162934    23.090277    21.946757    9204.1886    2256.5494    3332.1098    2704.0577    1180.2997   -470.42614    322.42502    -3803.166 
15908000    158.95964   -4442.7034    -4170.252   -4442.7034            0    2488.1041    17.890204    23.402236    21.997833    9209.8495    4275.0301    1516.8469    1672.4353    659.53747     43.99609    555.23741   -3836.0593 
15909000    165.45902    -4449.696   -4166.1049    -4449.696            0    1984.0876    18.179203    23.222895    21.889716    9241.2631    330.85738    2937.9051    2683.5003   -525.18723     95.72317   -158.05215   -3898.7008 
15910000    171.61299   -4439.5129   -4145.3741   -4439.5129            0    3100.5935    17.795462    23.534639    21.892044    9168.6022    4087.6601    2203.6419    3010.4784    902.96016   -728.25865    371.94195   -3730.7793 
15911000    157.52468   -4456.3076   -4186.3157   -4456.3076            0    1398.2915    18.116185    23.152122    22.089443     9264.934     211.3754    2752.6539    1230.8452    -1011.869   -399.41436    409.79254   -3997.3791 
15912000    163.41217   -4452.4287   -4172.3459   -4452.4287            0    1885.5039    17.774097    23.475127    22.105563    9223.5283    2393.0159     1104.354    2159.1418   -326.02897    -158.3165   -76.454865    -3918.716 
15913000    163.28113   -4443.4122    -4163.554   -4443.4122            0    2203.0072    18.184668    23.119596    21.971775    9237.4216    1482.9732    2166.7883    2959.2601    10.484594    517.03877    -549.4127   -3866.7685 
15914000    164.60762   -4453.8857   -4171.7539   -4453.8857            0    2923.6273    17.882532    23.471743    21.907552    9195.3486     2318.248    3313.3444    3139.2894   -470.28936   -741.94983   -667.41007   -3779.6817 
15915000    163.67503   -4445.0531   -4164.5197   -4445.0531            0    1125.1858    18.151264     23.39121    21.866329    9284.0069    1261.8756     306.7541    1806.9277    149.82403    31.553106   -459.53181   -4012.1721 
15916000     166.8137   -4438.3171   -4152.4042   -4438.3171            0    2800.7332    17.768192    23.552055    21.927382    9176.1146     3418.589    1861.2981    3122.3125    97.365718   -447.17323   -170.12951   -3777.5982 
15917000       157.61   -4452.3136   -4182.1754   -4452.3136            0    1629.5817    18.101804    23.153571    22.018554    9228.4471    1252.4583    1729.4348    1906.8521   -474.50519    299.04357    432.18205   -3962.8542 
15918000    170.39483   -4431.8506   -4139.7997   -4431.8506            0    2416.8488    17.941988    23.386205    21.973069    9219.7902    3132.9795    2073.5181    2044.0487   -351.49141   -371.06084    389.43838   -3814.8273 
15919000    164.83991   -4429.0876   -4146.5577   -4429.0876            0    2834.9605    18.045374    23.280959    21.933489    9214.5573    2005.6044    3254.5411     3244.736    102.07241   -189.44125   -322.15068   -3765.5819 
15920000    167.27138   -4454.0495   -4167.3521   -4454.0495            0    784.40871    17.904534     23.41388    22.097843    9263.7385   -205.75077    1240.0985    1318.8784   -415.26169    67.167478   -249.82165   -4061.3768 
15921000    155.65566   -4433.9178   -4167.1293   -4433.9178            0    1629.9268    18.145515     23.16763    21.954947    9229.6091    650.23356    2459.3334    1780.2133    314.50026   -57.345263   -56.383501    -3947.734 
15922000    160.14504   -4448.2501    -4173.767   -4448.2501            0    2408.9816      17.9029    23.481435    21.917577     9213.838    2093.9234    1896.1941    3236.8274    382.58036    372.08279   -540.79895   -3850.0616 
15923000    158.65811   -4443.4251   -4171.4905   -4443.4251            0    2149.6815     17.92811    23.417292    22.004418    9238.0662    3672.7618    1711.7274    1064.5554   -271.50931    185.23163   -111.03857   -3881.8688 
15924000    161.43323   -4452.3916   -4175.7005   -4452.3916            0     2005.055     17.94722    23.329484    21.971345    9199.3883    1480.7134    2507.7792    2026.6724   -857.36802     940.2201     643.9235   -3906.6951 
15925000    157.18238     -4424.64   -4155.2348     -4424.64            0    1469.4963    18.028948    23.459416    21.817171    9227.5417    2515.2104    1841.0816    52.196852    530.78925   -288.69457     304.8093   -3957.4784 
15926000     161.2107   -4450.2047   -4173.8951   -4450.2047            0    826.04889    17.998902    23.364249    22.095868    9291.9937    1758.1357    1289.4923   -569.48124   -123.26564   -248.15681    387.09291   -4061.9538 
15927000    175.45328   -4447.4321   -4146.7112   -4447.4321            0    1405.8459    17.906109    23.340323    22.095741    9234.5697    1867.8501    530.03564     1819.652   -567.77124   -102.19453     330.3716   -3957.3765 
15928000    168.68541    -4441.766    -4152.645    -4441.766            0    2248.5094     18.08293    23.229912    21.995963    9239.7316    1938.6955    3678.3582    1128.4745    1.6529384   -428.11127   -233.80762   -3849.6538 
15929000    156.05638   -4431.5505   -4164.0752   -4431.5505            0    2164.2201    17.825397    23.434551     21.97338    9178.9439    1580.0464    2300.0244    2612.5895    59.599535    -221.2042    216.58238   -3874.3608 
15930000    164.87487   -4453.6112   -4171.0213   -4453.6112            0    1710.5816    18.016704    23.176851     22.10569    9230.6832    1590.9469    2420.8257    1119.9722    364.64369   -302.75021   -673.74974   -3940.7428 
15931000    162.51207   -4434.7905   -4156.2503   -4434.7905            0    2575.1722    17.718018    23.492935    22.077428    9189.6904    1652.6151    2383.9913    3688.9101    262.89596   -563.13635    210.11578   -3811.1201 
15932000    171.78159   -4436.2097    -4141.782   -4436.2097            0       2496.1    18.067684    23.251636    21.886026    9194.3899    2669.3463    2438.7357    2380.2181   -650.12766   -76.571196   -349.09094   -3807.0781 
15933000    164.80569   -4451.9199   -4169.4486   -4451.9199            0    3523.9266    17.955523    23.451468    21.695967    9135.8113    2175.2053     3888.149    4508.4255    73.557962   -336.85953   -256.73143   -3699.9332 
15934000    160.34724   -4452.9464   -4178.1167   -4452.9464            0    1568.2214    18.004616     23.26979    21.978784    9208.3117    1606.3607    1136.3466     1961.957   -300.07106   -116.68422    132.57754   -3967.5143 
15935000    169.94582   -4440.8868   -4149.6055   -4440.8868            0    2142.1829    17.801961    23.369329    22.136453    9209.2043    1720.1744    2202.4509    2503.9233    65.302605     699.3669     976.7185   -3861.8958 
15936000    167.74408   -4438.5121   -4151.0045   -4438.5121            0    1652.6248    18.066806    23.302139    21.930849    9232.7828    855.33779     1171.455    2931.0815   -413.03933    628.78035   -424.40054   -3928.4774 
15937000    160.15064   -4443.3086   -4168.8159   -4443.3086            0    1556.9205    18.001124    23.421323    21.960053    9258.5814    2231.7039   -415.89442    2854.9519   -440.12747    302.85414    254.06194   -3958.5897 
15938000    169.95832   -4433.7598    -4142.457   -4433.7598            0    1847.2016    17.899465    23.305311     22.20539    9263.0359    2449.5965    1673.0923     1418.916   -324.66094   -108.86235    400.43095   -3892.9151 
15939000    156.09948   -4450.8883   -4183.3391   -4450.8883            0    1586.3931    18.028434    23.441304    21.932079    9268.7165    1562.5988    1143.5885    2052.9919    -143.7361    96.164639    -4.113441   -3968.8989 
15940000    174.65817    -4435.339   -4135.9809    -4435.339            0    1722.1566    18.038529    23.505501    21.820998     9252.205    874.51667    206.92946    4085.0238   -237.95832    117.03683    128.82144   -3903.6036 
15941000    162.47514   -4433.6066   -4155.1297   -4433.6066            0     2251.503    18.011277    23.356788    21.981243     9247.192    2683.3436    1324.3189    2746.8466    -346.8225   -127.39911    805.05825   -3851.4902 
15942000    161.07624   -4432.8301    -4156.751   -4432.8301            0    1969.3885    17.931371    23.580349    21.861786    9243.7751    2342.6312    1896.3029    1669.2315   -249.19758    8.8397188    276.93142   -3891.2558 
15943000    156.27149   -4430.6037   -4162.7597   -4430.6037            0     1087.266    18.045205    23.345363    22.074614    9299.4139    427.24886    2172.5856     661.9635   -279.99255   -496.75416    96.294661    -4015.302 
15944000    164.34831   -4425.0661   -4143.3787   -4425.0661            0     1351.865    17.929401    23.333199    22.120032    9253.9214    716.78325    1306.6943    2032.1173    900.26128    375.09987    235.34507   -3960.9325 
15945000    161.85978   -4443.7232    -4166.301   -4443.7232            0    2078.3431    18.041688    23.266957    21.991058    9231.3002    2238.6948    1749.1586    2247.1759   -567.54433   -16.160898   -360.19039   -3886.4957 
15946000    170.53347   -4454.6262   -4162.3377   -4454.6262            0    2713.7624    17.701406    23.639067    21.944711    9182.6481    3670.1269    2136.6515    2334.5089   -119.68262     174.8402    1103.6043    -3798.912 
15947000    167.40994   -4448.4813   -4161.5464   -4448.4813            0    1498.4174    18.152154     23.17055    21.995222    9251.0892    878.95034    1544.0791    2072.2227   -159.76508   -738.51376    240.99382   -3959.3835 
15948000    166.08362   -4442.6621   -4158.0004   -4442.6621            0    2393.9043    17.841649    23.563958    21.969649     9236.477    2535.3208    3171.2242    1475.1679   -1451.1501   -73.643295    -235.2312   -3835.5306 
15949000     174.0183   -4444.8409   -4146.5795   -4444.8409            0    2970.8223    18.203149    22.988717    21.923137    9174.1103    2073.7059    4099.5275    2739.2336   -655.81105    -51.25717    -487.7545   -3749.0984 
15950000    163.77542   -4446.9118   -4166.2063   -4446.9118            0     2495.633    17.931316    23.532895     21.82164    9208.2035     2452.757    1145.7311     3888.411   -560.81184   -470.20312    -236.9796   -3831.0622 
15951000    165.42532   -4446.8905   -4163.3572   -4446.8905            0    2790.9618    17.936775    23.342326    21.996479    9209.6188    2464.8761    3499.8166    2408.1929   -1236.1908   -282.29007    1152.4629   -3788.4952 
15952000    162.79661   -4438.7297   -4159.7019   -4438.7297            0    1413.9111    17.963432    23.390508    22.035351    9258.6774     2416.802    632.06205    1192.8692   -725.00723    95.006213    793.67636   -3968.7838 
15953000    156.79385   -4445.3215   -4176.5822   -4445.3215            0    2417.3206    18.018654    23.373522    21.870798     9211.092    1141.6111    2741.7437     3368.607    190.35595   -112.68893    109.99793   -3851.8531 
15954000    155.36337    -4444.067   -4177.7795    -4444.067            0    1428.7939    17.934165    23.547679    21.928938    9260.7653    745.90322    858.32733    2682.1511   -182.36841   -313.93094    83.797994   -3984.8083 
15955000    155.07529   -4445.6632   -4179.8695   -4445.6632            0    2987.8144    17.978718    23.256674    21.992324    9195.5441    1327.7791    4031.3448    3604.3191   -205.60792   -506.63888    -545.3584   -3779.1809 
15956000     158.3732   -4451.5122   -4180.0659   -4451.5122            0    1752.9189    17.984695    23.412672    21.952964    9243.7297    1102.4379    2599.1543    1557.1646   -1207.5851    671.21477    541.88819   -3943.7544 
15957000    159.25501   -4447.8907   -4174.9331   -4447.8907            0     1160.789    18.103459    23.488246    21.899354    9312.0104    563.06707    766.96048    2152.3394   -400.65735    35.541046    292.20258   -4017.2908 
15958000    154.31459   -4420.7803   -4156.2903   -4420.7803            0    1507.9534    17.984364    23.442593    22.067277    9303.5666    1690.1477    1272.2215    1561.4909   -1.8826023    13.898004     356.8988   -3951.6867 
15959000    169.39843    -4455.559   -4165.2158    -4455.559            0    2332.9123     17.84121    23.184944    22.175227    9172.7264    2114.6331    4210.0754    674.02851   -716.92545   -380.56314    -92.01565   -3853.1309 
15960000    165.26234   -4431.4116   -4148.1576   -4431.4116            0    1203.2468    18.044049    23.409312    21.987583    9287.5283    1289.9568    510.47913    1809.3045    517.55256   -290.71242   -399.54293   -3985.1789 
15961000    161.29932   -4443.9622   -4167.5007   -4443.9622            0    2745.3676    18.073859    23.180903    21.893571    9172.7136    732.34374    3752.2784    3751.4808   -872.24725   -424.70778   -324.46786   -3800.2402 
15962000    161.30546   -4439.4071   -4162.9351   -4439.4071            0    1381.8085    17.935186    23.598452    21.931737    9282.4459    2032.5263    1997.8529    115.04641   -453.99516   -966.12973   -271.28396   -3975.8728 
15963000    166.50881   -4437.7303   -4152.3399   -4437.7303            0    2475.0096    17.973263    23.345982    22.024085    9241.3827    2636.8497    2209.0312     2579.148   -138.31541   -622.68249    1074.4633   -3818.7678 
15964000    160.49096   -4444.8951   -4169.8191   -4444.8951            0    2701.5199    17.964559    23.313653    21.957799    9196.3542    2119.5316    2928.9148    3056.1132    272.72351   -530.84777    280.89192   -3807.4929 
15965000     153.9025   -4464.1065   -4200.3229   -4464.1065            0    2466.1112    18.110353    23.304589    21.836348    9216.1256    2131.2139    2356.0325    2911.0873    91.134161    4.7179089   -621.11965   -3868.8585 
15966000    162.59334   -4450.2158   -4171.5364   -4450.2158            0    2595.6613     17.92803     23.44855    21.915398    9212.9337    2416.5471    2151.8269    3218.6098   -345.05905    71.456264     277.5737   -3822.7803 
15967000    158.13483   -4453.9839   -4182.9463   -4453.9839            0    1306.2024    18.017135    23.441408    21.910024    9253.6335    1243.7655    1990.8372     684.0046   -7.3270308    358.97985   -162.30455    -4006.668 
15968000    156.62822   -4429.7635   -4161.3081   -4429.7635            0    1664.2782    18.021631    23.181498    22.163661    9259.2768    1617.3029    1644.5262    1731.0055    490.72867    590.81772     985.1377   -3936.5688 
15969000    166.57453   -4440.5083   -4155.0052   -4440.5083            0    1997.9991    17.871759     23.47349    22.046371    9248.7293    1594.4158    2318.2155    2081.3661   -235.08333   -310.85733    48.657822   -3885.5087 
15970000    156.00664   -4447.3908   -4180.0007   -4447.3908            0    3201.3839     18.09889     23.27086    21.845048     9200.626    2607.3509    2840.0963    4156.7046   -267.50736    448.11621    252.99775   -3750.4336 
15971000    160.49539   -4440.0316    -4164.948   -4440.0316            0    2113.6391    18.002613    23.422543    21.880331    9226.2129    2141.7888    1600.3082    2598.8203   -750.87247    410.81951     235.8378   -3880.5477 
15972000    159.83358   -4449.3914   -4175.4421   -4449.3914            0    2358.0759    17.975919    23.520617    21.754644    9197.9656    2009.6711    2662.9328    2401.6238   -742.91401   -452.09993   -292.54972    -3859.123 
15973000    162.32133   -4450.5224   -4172.3092   -4450.5224            0    2312.3072    18.063256    23.411272    21.835453     9233.859    441.28782    2434.2178    4061.4158   -410.22646    328.80298    -193.7268   -3860.9192 
15974000    164.68207   -4447.8555   -4165.5961   -4447.8555            0    2817.0378    17.967231    23.257823    22.050885    9214.5946    2743.8263    2633.5767    3073.7103    207.18155   -35.230769    550.07108   -3787.0273 
15975000    160.15178   -4452.5265   -4178.0319   -4452.5265            0    2058.3396    17.963204    23.384434    21.990161    9237.1726     2763.951    2009.5748    1401.4929    353.03473   -252.36373    18.880924   -3900.7433 
15976000     155.7973   -4430.1312   -4163.0999   -4430.1312            0    1786.8529    18.017389    23.340101    21.929361    9221.9035    863.33538    3340.4451    1156.7783    958.16894     105.1838    789.80298   -3922.7825 
15977000    167.52556   -4410.7725   -4123.6394   -4410.7725            0    2973.2414    17.964798    23.393323    21.808345    9165.0951    2416.3745    4323.1741    2180.1755   -875.18577   -295.39419   -76.566988   -3726.2256 
15978000    166.29001   -4434.4961   -4149.4807   -4434.4961            0    2587.1967    17.992517    23.246861     21.98412    9195.2875     3236.783     3982.311    542.49604   -141.11809   -723.22112    447.74219   -3802.5277 
15979000    163.06382   -4435.4736   -4155.9878   -4435.4736            0     2243.389    17.842646    23.398072    22.059425    9209.4458    3514.4712    3167.8545    47.841405    -145.1126    93.125248    5.7323957   -3854.6775 
15980000    163.08368   -4417.4812   -4137.9613   -4417.4812            0    1510.6242    18.042629    23.273754    21.903012    9197.5069    1005.2256    1771.6279    1755.0191   -153.14233   -124.09058    22.697369   -3935.3319 
15981000    171.10556   -4445.1017   -4151.8326   -4445.1017            0     2181.854    17.943511    23.415357    21.901543    9202.0147    1059.9698    2030.8942    3454.6978   -655.80886    218.50176   -561.55789   -3859.0235 
15982000    157.82775    -4432.707   -4162.1957    -4432.707            0    714.86463    18.049236     23.31808    22.087255     9295.941    100.36684    539.94545    1504.2816    257.72935   -338.96405    557.18613   -4065.2802 
15983000    160.60391   -4448.6862   -4173.4166   -4448.6862            0    2389.0252    17.923596    23.434667    21.934823    9213.3607    3139.7069     2532.273    1495.0956   -188.76706   -250.90972   -75.035157   -3852.4094 
15984000    163.98103   -4433.1494   -4152.0915   -4433.1494            0    1717.0995    18.034353    23.476096     21.90322    9273.3022    2049.4455    2268.6474    833.20552    -474.2185   -463.44981    529.27939   -3919.8682 
15985000    152.40846   -4441.5433   -4180.3205   -4441.5433            0    2813.3009    18.028496    23.361312     21.89477    9221.4049    3127.0869    1460.6547    3852.1611    490.92853   -105.43446     9.812077   -3801.9744 
15986000    158.66426   -4443.0986   -4171.1534   -4443.0986            0    1612.6484    18.068099    23.302956    22.021828     9272.073    1804.5063     1799.749    1233.6899   -370.04693   -909.60246   -364.17402   -3953.0852 
15987000    160.05834   -4441.9442   -4167.6096   -4441.9442            0    1822.0082    17.763435    23.539595    22.130141    9253.5872    3210.9149    1911.9966      343.113    391.76815   -169.60868    506.67889   -3921.7222 
15988000     160.4112   -4429.6713    -4154.732   -4429.6713            0    2612.5824    17.944173    23.211801    22.119899    9213.3045    3111.2243     2342.046    2384.4768    233.13204   -357.57078    290.14164   -3803.6882 
15989000    160.40518   -4434.8932   -4159.9642   -4434.8932            0    482.21991    17.821981    23.613538    22.089133    9295.9911    1049.5392    1126.1335   -729.01298   -325.60321   -304.52964    11.105907   -4094.5884 
15990000    166.57534   -4446.0363   -4160.5318   -4446.0363            0    1585.2127    18.087843     23.28305    21.947941     9243.159    577.66651    1616.7374    2561.2343   -538.36109   -74.115561   -82.404043    -3946.842 
15991000    161.21217   -4454.1633   -4177.8512   -4454.1633            0    2854.5798    17.869984    23.555932    21.758644    9159.1737    2439.0975    2462.8314    3661.8106    539.35429   -807.70876    305.44669   -3796.5445 
15992000    167.36977   -4449.8288   -4162.9628   -4449.8288            0    2252.9314     18.03175    23.280969    21.949182    9214.1926    2089.0224    1652.7848    3016.9869    443.84093   -30.641282   -40.722507   -3860.2149 
15993000     170.9305   -4440.8354   -4147.8664   -4440.8354            0    1464.5802    18.020261    23.491884    21.924534    9281.3104    687.45579    96.754375    3609.5306    90.810294   -135.98249   -473.57953   -3949.6231 
15994000    170.04048   -4446.5249   -4155.0813   -4446.5249            0    2724.9963    17.978062    23.201266     21.99147    9172.9457       2485.7    2618.2601    3071.0289   -130.14101   -571.14489   -543.01803   -3790.5367 
15995000    167.56815   -4429.3971   -4142.1911   -4429.3971            0    2124.9174    17.881007    23.361856    22.055289    9213.2333    2995.9316    2881.0116    497.80898    -201.9116    -800.7291   -268.16055   -3856.6754 
15996000    158.81665   -4438.2446   -4166.0383   -4438.2446            0    1953.7597     18.03957    23.302859      21.8669    9192.2662    1672.6067    1265.9224      2922.75   -324.31905    182.31615   -515.51581   -3904.1177 
15997000     160.5639   -4438.7518   -4163.5508   -4438.7518            0    2376.0481    17.982283    23.353454    21.895095    9194.8103    961.00825    2212.1254    3955.0107    483.67887    6.3116163    -399.4041   -3844.9302 
15998000    169.97083   -4434.0141   -4142.6899   -4434.0141            0    2169.5246    17.972683    23.228037    22.066827    9212.2417    2122.1154    1347.7435    3038.7149    87.977955    -98.05159    141.13119   -3851.2119 
15999000    159.12927   -4452.1681    -4179.426   -4452.1681            0    1239.3679    17.912155    23.494258    21.994047     9255.816     1340.997    1989.5757    387.53088    -409.3978    247.21176   -275.17716   -4012.1279 
16000000    167.87562   -4426.7569   -4139.0238   -4426.7569            0    1825.3486    18.113535     23.36033    21.852324    9246.5521    1747.7345    2193.4786    1534.8328   -316.00046   -235.31264   -220.72572   -3892.8728 
Loop time of 438.846 on 64 procs for 250000 steps with 864 atoms

Performance: 98.440 ns/day, 0.244 hours/ns, 569.676 timesteps/s
195.7% CPU use with 32 MPI tasks x 2 OpenMP threads

MPI task timing breakdown:
Section |  min time  |  avg time  |  max time  |%varavg| %total
---------------------------------------------------------------
Pair    | 17.492     | 25.712     | 35.352     | 112.9 |  5.86
Bond    | 0.82208    | 1.0978     | 1.3922     |  13.2 |  0.25
Kspace  | 225.07     | 237.35     | 249.9      |  45.0 | 54.08
Neigh   | 1.0362     | 1.1355     | 1.3237     |   7.7 |  0.26
Comm    | 65.106     | 72.502     | 78.834     |  38.0 | 16.52
Output  | 0.49803    | 0.49831    | 0.49985    |   0.0 |  0.11
Modify  | 77.683     | 80.68      | 86.327     |  23.2 | 18.38
Other   |            | 19.87      |            |       |  4.53

Nlocal:        27.0000 ave          38 max          18 min
Histogram: 4 5 4 3 1 3 3 1 2 6
Nghost:        2141.25 ave        2260 max        2025 min
Histogram: 5 6 5 0 0 0 1 4 6 5
Neighs:        6575.19 ave        9430 max        4458 min
Histogram: 6 4 5 2 2 4 1 0 6 2

Total # of neighbors = 210406
Ave neighs/atom = 243.52546
Ave special neighs/atom = 2.0000000
Neighbor list builds = 3434
Dangerous builds = 0

unfix		3
unfix		2
unfix		1

write_data	data.final.${pid} nocoeff
write_data	data.final.1 nocoeff
System init for write_data ...
PPPM initialization ...
  extracting TIP4P info from pair style
  using 12-bit tables for long-range coulomb (../kspace.cpp:340)
  G vector (1/distance) = 0.37193707
  grid = 24 27 25
  stencil order = 5
  estimated absolute RMS force accuracy = 0.0031236644
  estimated relative force accuracy = 9.4068224e-06
  using double precision FFTW3
  3d grid and FFT values/proc = 4410 672
Last active /omp style is kspace_style pppm/tip4p/omp

write_restart   restart.lmp.${pid}
write_restart   restart.lmp.1
System init for write_restart ...
PPPM initialization ...
  extracting TIP4P info from pair style
  using 12-bit tables for long-range coulomb (../kspace.cpp:340)
  G vector (1/distance) = 0.37193707
  grid = 24 27 25
  stencil order = 5
  estimated absolute RMS force accuracy = 0.0031236644
  estimated relative force accuracy = 9.4068224e-06
  using double precision FFTW3
  3d grid and FFT values/proc = 4410 672
Last active /omp style is kspace_style pppm/tip4p/omp
Total wall time: 0:07:19
