LAMMPS (30 Jul 2021)
  using 1 OpenMP thread(s) per MPI task
package omp 0
using multi-threaded neighbor list subroutines
echo both

include		in.partitions
variable        pid world 0
include		in.temp
variable        temperature equal 260.56
variable	tempDamp equal 100.0
include		in.pressure
variable        pressure equal 8250.0
variable        pressureDamp equal 1000.0 # This is 1 ps
include		in.seed
variable        seed world 745823

units		real
atom_style	full
read_restart	restart.lmp.${pid}
read_restart	restart.lmp.0
Reading restart file ...
  restart file = 30 Jul 2021, LAMMPS = 30 Jul 2021
  restoring atom style full from restart
  orthogonal box = (0.61327456 1.8138877 0.74819353) to (17.594298 21.815290 21.465002)
  4 by 4 by 4 MPI processor grid
  restoring pair style lj/cut/tip4p/long/omp from restart
  restoring bond style harmonic/omp from restart
  restoring angle style harmonic/omp from restart
  864 atoms
  576 bonds
  288 angles
Finding 1-2 1-3 1-4 neighbors ...
  special bond factors lj:    0        0        0       
  special bond factors coul:  0        0        0       
     2 = max # of 1-2 neighbors
     1 = max # of 1-3 neighbors
     1 = max # of 1-4 neighbors
     2 = max # of special neighbors
  special bonds CPU = 1.229 seconds
  read_restart CPU = 1.527 seconds
include 	in.setup
variable	out_freq equal 1000
variable	out_freq2 equal 10000
variable	out_freq3 equal 1000

timestep	2.0

neigh_modify    delay 7 every 1

include		in.tip4p
# This is TIP4P/Ice

# create groups ###
group ox type 2
288 atoms in group ox
group hy type 1
576 atoms in group hy

# set charges - beside manually ###
set group ox charge -1.1794
Setting atom values ...
  288 settings made for charge
set group hy charge 0.5897
Setting atom values ...
  576 settings made for charge

# ### TIP3P Potential Parameters ###
pair_style lj/cut/tip4p/long/omp 2 1 1 1 0.1577 8.5
pair_coeff 1 1*2 0.000 0.000
pair_coeff 2 2 0.21084 3.1668
bond_style  harmonic
bond_coeff  1 450 0.9572
angle_style harmonic
angle_coeff 1 55 104.52
kspace_style pppm/tip4p/omp 1.0e-5
pair_modify tail yes

thermo          ${out_freq}
thermo          1000
thermo_style    custom step temp pe etotal epair emol press lx ly lz vol pxx pyy pzz pxy pxz pyz enthalpy

restart 	${out_freq3} restart.lmp.${pid} restart2.lmp.${pid}
restart 	1000 restart.lmp.${pid} restart2.lmp.${pid}
restart 	1000 restart.lmp.0 restart2.lmp.${pid}
restart 	1000 restart.lmp.0 restart2.lmp.0


include         in.dump
dump            myDump all atom ${out_freq2} dump.water.${pid}
dump            myDump all atom 10000 dump.water.${pid}
dump            myDump all atom 10000 dump.water.0
dump            myDump2 all dcd ${out_freq2} dump.dcd
dump            myDump2 all dcd 10000 dump.dcd
dump_modify     myDump append yes
dump_modify     myDump2 append yes


variable natoms 	equal  "count(all)"                        # NUMBER ATOMS
variable H      	equal  "enthalpy/v_natoms"                 # ENTHALPY-per-atom
variable Vol      	equal  "vol/v_natoms"                 # volume-per-atom
fix AVG all 		ave/time ${out_freq} 1 ${out_freq} v_Vol v_H file vol_enthalpy.dat
fix AVG all 		ave/time 1000 1 ${out_freq} v_Vol v_H file vol_enthalpy.dat
fix AVG all 		ave/time 1000 1 1000 v_Vol v_H file vol_enthalpy.dat


timer           timeout 23:50:00 every 1000
New timer settings: style=normal  mode=nosync  timeout=23:50:00

fix 		1 all shake 1e-6 200 0 b 1 a 1
       0 = # of size 2 clusters
       0 = # of size 3 clusters
       0 = # of size 4 clusters
     288 = # of frozen angles
  find clusters CPU = 0.093 seconds
fix             2 all nph iso ${pressure} ${pressure} ${pressureDamp}
fix             2 all nph iso 8250 ${pressure} ${pressureDamp}
fix             2 all nph iso 8250 8250 ${pressureDamp}
fix             2 all nph iso 8250 8250 1000
fix             3 all temp/csvr ${temperature} ${temperature} ${tempDamp} ${seed}
fix             3 all temp/csvr 260.56 ${temperature} ${tempDamp} ${seed}
fix             3 all temp/csvr 260.56 260.56 ${tempDamp} ${seed}
fix             3 all temp/csvr 260.56 260.56 100 ${seed}
fix             3 all temp/csvr 260.56 260.56 100 745823

run             250000
PPPM initialization ...
  extracting TIP4P info from pair style
  using 12-bit tables for long-range coulomb (../kspace.cpp:340)
  G vector (1/distance) = 0.37423226
  grid = 24 24 24
  stencil order = 5
  estimated absolute RMS force accuracy = 0.0031643521
  estimated relative force accuracy = 9.5293523e-06
  using double precision FFTW3
  3d grid and FFT values/proc = 2535 216
Last active /omp style is kspace_style pppm/tip4p/omp
Neighbor list info ...
  update every 1 steps, delay 7 steps, check yes
  max neighbors/atom: 2000, page size: 100000
  master list distance cutoff = 10.8154
  ghost atom cutoff = 10.8154
  binsize = 5.4077, bins = 4 4 4
  1 neighbor lists, perpetual/occasional/extra = 1 0 0
  (1) pair lj/cut/tip4p/long/omp, perpetual
      attributes: half, newton on, omp
      pair build: half/bin/newton/omp
      stencil: half/bin/3d
      bin: standard
Per MPI rank memory allocation (min/avg/max) = 9.236 | 9.239 | 9.242 Mbytes
Step Temp PotEng TotEng E_pair E_mol Press Lx Ly Lz Volume Pxx Pyy Pzz Pxy Pxz Pyz Enthalpy 
17000000    269.31442   -3847.3415   -3385.7458   -3847.3415            0    7590.3365    16.981023    20.001402    20.716809    7036.3456    7300.0797     7926.501    7544.4288   -1034.1655   -795.61788    718.88137   -2606.8415 
17001000    250.51804   -3848.5709   -3419.1916   -3848.5709            0    7302.1276    17.099208    20.140609    20.860994    7184.2857    8671.2656    6797.1631     6437.954    583.10677   -297.92371    464.87938   -2654.1079 
17002000    252.76164   -3865.7401   -3432.5154   -3865.7401            0    7725.6275    17.019608     20.04685    20.763882     7084.419    9049.7047     7823.772    6303.4058   -331.90324   -327.38245   -625.78214   -2634.3114 
17003000    267.81766   -3879.7998   -3420.7695   -3879.7998            0    8434.1213    17.005113    20.029776    20.746198    7066.3334    8173.4848    8106.7273    9022.1518    554.48491   -51.580436   -433.63615   -2551.5892 
17004000    251.34683   -3900.2726   -3469.4727   -3900.2726            0    11404.266    16.900251    19.906263    20.618267    6936.4149    10248.682    12595.819    11368.295   -1124.6631    567.09074    159.00491   -2315.8115 
17005000    268.76243   -3898.5993   -3437.9496   -3898.5993            0      8499.84    16.989936      20.0119    20.727682    7047.4308    8190.1916    6149.7754    11159.553   -204.07645   -139.38074   -719.53088   -2564.3399 
17006000    265.89704   -3878.5252   -3422.7867   -3878.5252            0    8675.8394     17.02232    20.050044     20.76719    7087.8058    8729.4168    9415.5597    7882.5418    862.38558   -1279.8377     1309.839   -2525.9793 
17007000    268.36161   -3887.5492   -3427.5866   -3887.5492            0    7678.0004    16.982421    20.003049    20.718514    7038.0836    8353.5543    7138.0918    7542.3553    522.67036    827.21233    909.35026   -2639.4918 
17008000    271.23095   -3863.8695   -3398.9889   -3863.8695            0    7515.3761    17.006874    20.031851    20.748347    7068.5296    8362.6325    7148.9016    7034.5943   -210.97246    62.337842     1101.611   -2624.2495 
17009000    270.55119     -3840.05   -3376.3345     -3840.05            0    8920.8044    16.996735    20.019908    20.735976    7055.8943    8325.0995    10607.469    7829.8453    2035.5502   -187.86666    13.866667   -2458.3571 
17010000    276.88155   -3881.9472   -3407.3817   -3881.9472            0    7929.5153    16.909976    19.917718    20.630131    6948.3957    8833.7968    7506.6712    7448.0779   -822.04336    2511.9219   -677.88577   -2603.8425 
17011000    275.01727   -3893.8148   -3422.4446   -3893.8148            0    9763.9638    16.903733    19.910365    20.622515    6940.7033     9573.384    10866.862    8851.6454    228.96008   -558.55735    69.343907   -2434.1065 
17012000    282.21886    -3859.803   -3376.0896    -3859.803            0    8338.5077    16.966053    19.983769    20.698545     7017.752     9433.917    8669.0534    6912.5526    378.28507   -191.61622   -919.83343   -2522.6707 
17013000    253.44804   -3837.0515   -3402.6502   -3837.0515            0     8605.879    17.023053    20.050908    20.768085    7088.7223    8049.3833    9067.0121    8701.2415   -494.91209   -1939.8746    329.87176   -2512.9595 
17014000     259.6272   -3882.3757   -3437.3835   -3882.3757            0     8947.062     16.93997    19.953046    20.666723    6985.4351    8015.9954     9882.287    8942.9034   -142.55928    268.29503    1279.3779    -2525.898 
17015000    258.38528   -3857.5147   -3414.6511   -3857.5147            0    9279.1958    16.999071    20.022661    20.738828    7058.8051     8572.207    9187.7317    10077.649   -418.99205     409.6402    1806.1142   -2459.4003 
17016000    258.89691   -3866.5765    -3422.836   -3866.5765            0    8258.5343    16.962327     19.97938    20.693999    7013.1297    8761.4607     9371.213    6642.9293    27.113368    638.81081   -155.00377   -2578.1589 
17017000    257.79222   -3841.0911    -3399.244   -3841.0911            0    8436.5052    16.947337    19.961725    20.675712    6994.5539    8125.7071    9665.2545    7518.5539   -359.37054    578.81065    750.35449   -2538.6497 
17018000    253.55483   -3879.4628   -3444.8785   -3879.4628            0    9107.5645    16.945501    19.959562    20.673472    6992.2809    9759.2704     8991.221    8572.2019    -558.3784   -1587.0261    884.82091   -2516.1324 
17019000    263.75728   -3862.9433   -3410.8723   -3862.9433            0    8336.0854    17.025588    20.053894    20.771178    7091.8894     7598.234    10059.275    7350.7477    719.41747   -1230.3126    516.84719   -2548.6883 
17020000    261.62569   -3892.1794   -3443.7619   -3892.1794            0    8083.2096    16.976441    19.996005    20.711218     7030.651    7710.9116    7558.4054    8980.3119   -2021.6118    513.85437    1582.7821   -2614.9513 
17021000     246.7412   -3847.6723   -3424.7663   -3847.6723            0    8788.4077    17.009765    20.035257    20.751874    7072.1352      8438.27    8345.4372    9581.5159    1025.0231   -809.42538    464.37667   -2518.3314 
17022000    253.50856   -3849.0242   -3414.5192   -3849.0242            0    7973.8815    17.028947    20.057851    20.775276     7096.088     9650.597    7040.1741    7230.8733    1111.3251    975.39648    1602.5819   -2589.3089 
17023000    259.01009   -3886.2262   -3442.2918   -3886.2262            0    8921.7852    16.940929    19.954176    20.667893    6986.6216    8382.0405      7415.27    10968.045   -684.85843   -610.42005   -620.14057   -2533.2269 
17024000     275.5378   -3864.6081   -3392.3457   -3864.6081            0    7725.5284    17.020559     20.04797    20.765042    7085.6062    10133.472    8608.2007    4434.9123   -115.26088    726.64713   -910.56524   -2594.0182 
17025000    259.94449   -3892.7409   -3447.2049   -3892.7409            0    6951.4048    16.978381     19.99829    20.713585    7033.0611    6319.6585    7892.3669    6642.1891   -2034.1345   -1357.8951     466.3265   -2734.1995 
17026000    273.78984   -3869.7064     -3400.44   -3869.7064            0    7280.2492     16.94281    19.956393    20.670189    6988.9502    7683.3636    5971.8299    8185.5542   -236.82085   -131.43943   -21.427904   -2658.3884 
17027000    258.09464   -3861.5124    -3419.147   -3861.5124            0    7855.2888    16.924359    19.934659    20.647679    6966.1413    10269.999     6708.578    6587.2895    934.58749    -1351.603    1941.0977   -2621.0966 
17028000    250.25179   -3879.5059   -3450.5829   -3879.5059            0    8054.8465    16.910518    19.918357    20.630793    6949.0646    9244.5626    7505.7979     7414.179   -549.15716   0.88913206    8.8630244   -2634.2646 
17029000     256.0791   -3903.4107   -3464.4999   -3903.4107            0    8409.6932     16.90822     19.91565    20.627989    6946.2318    9085.0012    8558.2372    7585.8411   -602.23434   -790.92486   -704.12433   -2612.5671 
17030000    259.08084   -3865.9107    -3421.855   -3865.9107            0    8825.0913    16.958912    19.975358    20.689833     7008.895    10404.375    6387.7014    9683.1976    337.61841    856.59086   -659.60211   -2519.7758 
17031000    258.53389   -3835.1809   -3392.0627   -3835.1809            0    7446.0289    16.940746    19.953961     20.66767    6986.3957     7897.707    7641.1022    6799.2776   -1120.4371    394.99907   -918.30619   -2633.3912 
17032000     267.8632   -3879.7906   -3420.6822   -3879.7906            0    7956.1696    16.898114    19.903747     20.61566    6933.7842     7559.482    6836.1324    9472.8944   -527.51613     1666.624    1780.7588   -2616.1374 
17033000    263.34378    -3903.945   -3452.5828    -3903.945            0    9790.5452    16.928323    19.939328    20.652514    6971.0371    8478.9337    11199.329    9693.3729   -143.23051   -179.17749    740.18999   -2457.2229 
17034000    251.57978   -3908.2628   -3477.0636   -3908.2628            0    8367.7177    16.965904    19.983594    20.698363    7017.5673    8414.0441    7618.5544    9070.5547   -542.03834    878.14128    1901.0685   -2620.6778 
17035000    247.21387   -3892.4225   -3468.7064   -3892.4225            0    11788.153    16.864716    19.864408    20.574914    6892.7525    11424.629    11821.965    12117.863    1326.8296    516.61218   -887.83778   -2283.7174 
17036000    253.54119   -3886.1243   -3451.5634   -3886.1243            0    7721.2051     16.93164    19.943235    20.656561    6975.1353    8590.2197    8336.9939    6236.4018     497.4976    710.19098   -36.689601   -2666.1223 
17037000    270.44625   -3885.7197   -3422.1841   -3885.7197            0    9267.3991    16.982442    20.003073    20.718539    7038.1087    8824.2923    9459.2853    9518.6196    699.21402    102.95894     350.7278   -2470.9449 
17038000    262.92035   -3885.9824   -3435.3459   -3885.9824            0    8213.2081    17.015585    20.042112    20.758974    7079.3966    7361.8801    8302.8089    8974.9352    1041.2647    51.239877    1566.7225   -2587.3672 
17039000    268.58559   -3904.4343   -3444.0878   -3904.4343            0    7760.3822    16.968017    19.986083    20.700941    7020.1901    5507.3928    9685.0977    8088.6561    1159.8728   -1093.1294    320.14003   -2649.5622 
17040000     257.6528   -3896.1871    -3454.579   -3896.1871            0    6999.3142    16.947301    19.961682    20.675668    6994.5091    6994.9639     6346.707    7656.2716   -1038.2995   -302.77825     160.7898   -2740.5947 
17041000     248.2016   -3871.6882   -3446.2792   -3871.6882            0    7460.1989    16.977389    19.997122    20.712375    7031.8291    9121.7521    6045.8604    7212.9841   -1209.2598   -389.34663     438.0993   -2681.2207 
17042000    258.87304   -3874.3992   -3430.6997   -3874.3992            0    8554.7739    16.909422    19.917065    20.629455    6947.7129    7773.3353    10206.711    7684.2757   -769.52854   -752.76323    1419.4178    -2563.885 
17043000    266.68632    -3864.423   -3407.3318    -3864.423            0    8608.0219    16.976992    19.996654     20.71189    7031.3349    9046.5847    8214.4131     8563.068    759.29171   -807.37323   -305.01163   -2524.6238 
17044000    256.64569   -3823.5279    -3383.646   -3823.5279            0    7676.2753    16.962315    19.979367    20.693985    7013.1151    8763.7346    7338.7848    6926.3063   -1028.3458    134.67876   -415.29947   -2598.5235 
17045000    252.06948   -3886.8584   -3454.8199   -3886.8584            0    6646.1337    16.985686    20.006894    20.722497    7042.1428     6569.415    6877.8971     6491.089    1331.5618   -429.22198   -741.03309   -2772.2459 
17046000    265.06379   -3839.7586   -3385.4483   -3839.7586            0    7485.6396    16.926514    19.937198    20.650308     6968.803    8593.0859    5677.6028    8186.2301   -512.65711   -888.34611   -142.89668   -2624.6615 
17047000    251.89494   -3845.9487   -3414.2094   -3845.9487            0    8311.4959    16.970921    19.989503    20.704484    7023.7947    8546.0075     6639.734    9748.7461    211.95572    928.11564     369.5984   -2562.8226 
17048000    269.10943   -3866.0499   -3404.8056   -3866.0499            0    7834.3565    16.966071    19.983791    20.698567     7017.775    8813.0532    5628.2662    9061.7501   -155.67351   -49.761539    1781.6764   -2602.9823 
17049000    265.92657   -3873.5151    -3417.726   -3873.5151            0    9710.9515    16.985355    20.006504    20.722093    7041.7312    9141.3212    11506.735    8484.7985    1504.1542    86.010951   -991.40899    -2420.446 
17050000    263.69483   -3900.9094   -3448.9455   -3900.9094            0    10980.315    16.933754    19.945725     20.65914    6977.7485     12217.98    10769.106    9953.8583    1539.9962    -1563.134     1621.665   -2331.5524 
17051000      258.606   -3847.9953   -3404.7534   -3847.9953            0    7944.8036    17.021823    20.049459    20.766585    7087.1858    9520.7593    6747.6524     7565.999   -330.60456   -241.20979   -159.88456   -2583.5838 
17052000    264.57284    -3885.495   -3432.0262    -3885.495            0    9616.0601    16.943876    19.957648    20.671489    6990.2686     10086.65    7806.1703     10955.36   -615.62312   -2999.3569    372.17454   -2451.7083 
17053000     257.9693   -3886.6105   -3444.4599   -3886.6105            0     8213.835    17.003819    20.028253     20.74462    7064.7215    8481.6484     9084.666    7075.1907    457.06888   -431.27422    413.51335   -2598.1744 
17054000    268.54168   -3881.0052   -3420.7339   -3881.0052            0    7994.5081    17.049926    20.082561     20.80087    7122.3468    6822.2744    8049.3657    9111.8841   -180.18647   -10.444405    132.84752   -2590.3274 
17055000    250.04036    -3881.195   -3452.6344    -3881.195            0    8264.0581    17.027656     20.05633      20.7737    7094.4738    9225.5516    8385.3934    7181.2293    440.28737   -436.18875   -71.773084   -2597.5885 
17056000    270.52926   -3851.0087   -3387.3308   -3851.0087            0    8768.5666    17.001109    20.025061    20.741313    7061.3435     6698.183    9474.1244    10133.392    1013.1368    822.28306    89.775941   -2484.3223 
17057000    265.61345   -3879.4965   -3424.2442   -3879.4965            0    9897.8723     16.98565    20.006852    20.722453    7042.0982    7934.1949    11205.868    10553.554   -1278.3218    -904.0257   -1285.4689   -2407.7151 
17058000    260.67836   -3872.7655   -3425.9717   -3872.7655            0    7971.9709    16.961932    19.978915    20.693517    7012.6398    8868.7105    8499.1094    6548.0929    682.87962   -861.15535   -526.94119   -2610.6611 
17059000    265.62492   -3878.6113   -3423.3393   -3878.6113            0    7244.2397    17.043349    20.074814    20.792847    7114.1077    7779.6595    7734.3142    6218.7455   -216.12731   -427.19744   -272.40927   -2671.7352 
17060000    249.62315   -3881.7628   -3453.9172   -3881.7628            0    8004.8147    17.031939    20.061374    20.778926    7099.8286    10393.743    6421.7495    7198.9513    1610.9189   -351.23755    765.23144   -2625.0689 
17061000    256.36139   -3848.4776    -3409.083   -3848.4776            0    9135.6315    16.962233     19.97927    20.693884    7013.0129    8789.8655    9179.3764    9437.6525   -95.694588    -11.97624   -1164.2903   -2474.7125 
17062000    263.56856   -3859.0413   -3407.2938   -3859.0413            0    8061.0063    16.950622    19.965594    20.679719    6998.6216     6628.497    6942.6706    10611.851   -1375.7576   -1.4084588    967.99916   -2584.5253 
17063000    272.86414    -3852.684   -3385.0042    -3852.684            0    10195.104    16.935088    19.947297    20.660768    6979.3982    11433.319    11427.455    7724.5377    411.52265    159.62989    589.95537   -2347.2714 
17064000    261.16188   -3860.2452   -3412.6226   -3860.2452            0    7589.5741    16.956354    19.972346    20.686713    7005.7243    5812.3428    8877.7349    8078.6444   -374.50494   -1209.4097    1026.1582    -2637.186 
17065000    247.08165   -3882.7036   -3459.2141   -3882.7036            0    6799.5715    16.977508    19.997262     20.71252     7031.977    6779.4657    7770.0141    5849.2348    1003.3722    87.344861   -558.03956   -2761.8897 
17066000    266.37653   -3868.7884   -3412.2281   -3868.7884            0    8520.9385     16.95211    19.967346    20.681535    7000.4647    8446.6166    7683.3852    9432.8136    525.68421   -1299.3562    219.99372   -2542.2863 
17067000    260.08941    -3922.488   -3476.7037    -3922.488            0    6753.0168    17.027902    20.056619    20.774001    7094.7813    6457.6302    6811.8204    6989.5998   -1269.0939   -2252.4119    -81.65673   -2777.9683 
17068000    257.50845   -3872.5575   -3431.1968   -3872.5575            0    7746.5889    16.959684    19.976267    20.690774    7009.8517    9153.9989    6860.1474    7225.6203    804.69501    724.25457    81.550346   -2639.2514 
17069000     259.1255   -3922.0256   -3477.8933   -3922.0256            0      6727.57    16.990621    20.012707    20.728518    7048.2833     7527.492    5040.5742    7614.6437   -862.43125    527.36034   -46.530708   -2786.3531 
17070000    250.86237   -3872.5715   -3442.6019   -3872.5715            0    5894.3516    16.999861    20.023591    20.739791     7059.789    4931.0212    7042.7708    5709.2628    1319.8061    156.16755    342.65664   -2835.7208 
17071000    251.63184   -3883.7795   -3452.4911   -3883.7795            0    7433.1091    16.986289    20.007604    20.723232    7042.8929    7771.4888    5730.0254     8797.813    -678.9258   -438.95761    -223.3993   -2689.0114 
17072000    278.77283   -3869.7941    -3391.987   -3869.7941            0    7355.5755    16.958499    19.974871    20.689329    7008.3824    7080.7933    7148.1655    7837.7676    197.80869   -318.85992    287.18393   -2640.1732 
17073000    237.61529   -3881.6051   -3474.3406   -3881.6051            0    7475.5661    16.952433    19.967727    20.681929     7000.865    7470.8408    8682.5585    6273.2991   -1299.9783   -1701.1933   -1235.2197    -2711.082 
17074000     263.9683   -3910.4783   -3458.0457   -3910.4783            0    8411.1454    16.990503    20.012568    20.728374    7048.1364    8503.6246    9216.5644    7513.2472   -811.13189   -26.216614   -585.26606   -2593.4654 
17075000    255.67292    -3873.048   -3434.8334    -3873.048            0     8455.052    17.006978    20.031974    20.748473    7068.6591    8806.2515    8003.9871    8554.9174    787.96279   -390.14241   -897.17552   -2563.2093 
17076000    258.39164   -3883.7823   -3440.9079   -3883.7823            0       8951.9    16.987129    20.008594    20.724258    7043.9386    7314.7571    10953.279    8587.6635    633.23616    454.25199     1071.547   -2521.2916 
17077000    242.90467   -3871.5307   -3455.2004   -3871.5307            0    9052.6337    16.985652    20.006854    20.722455    7042.1007    9653.3164    8747.2751    8757.3097      1139.78   -315.87986   -1057.9789   -2525.4785 
17078000    272.72765   -3849.9149    -3382.469   -3849.9149            0    8515.5165    16.993072    20.015594    20.731508    7051.3341    8255.9593    9333.1584    7957.4317   -890.62526   -1283.8378   -229.27178   -2506.7633 
17079000    266.28403   -3868.2201   -3411.8184   -3868.2201            0    9286.9971    16.960089    19.976744    20.691269    7010.3539    7746.9005    11016.477    9097.6139    356.46781   -43.027299    -420.2107   -2462.3267 
17080000    275.67334   -3838.1763   -3365.6816   -3838.1763            0     6356.477    17.056044    20.089767    20.808334    7130.0165    6434.9968    5335.1635    7299.2706    604.33887   -443.79799   -413.51765   -2704.7099 
17081000    251.56469   -3842.6925   -3411.5193   -3842.6925            0    8390.0464    16.956406    19.972407    20.686776    7005.7883    8548.7467    9368.8894    7252.5032    1022.6377   -2190.1828    80.132996   -2554.2895 
17082000     246.5438   -3852.6938   -3430.1262   -3852.6938            0    8463.1849    17.000382    20.024204    20.740426    7060.4376    9382.2778    7700.7436    8306.5332    272.97803    1502.3959     2283.147   -2558.6784 
17083000    251.20712    -3852.036   -3421.4756    -3852.036            0    8248.6012    16.990672    20.012768    20.728581     7048.347    9166.1996     8383.775     7195.829   -66.313363    348.31115     895.9364   -2573.5778 
17084000    253.96522   -3804.8596   -3369.5719   -3804.8596            0    5790.7508    17.114469    20.158584    20.879613     7203.539    4543.2489    5708.0091    7120.9943    619.90539    673.98469   -455.63451   -2761.2174 
17085000    254.73423   -3890.4754   -3453.8697   -3890.4754            0    7503.6803    17.067719    20.103519    20.822577    7144.6679     7532.407    6960.5262    8018.1077   -116.95921    1569.1229    1717.2966   -2672.0038 
17086000    268.40607   -3898.3726   -3438.3337   -3898.3726            0    6416.2965     17.01995    20.047253      20.7643    7084.8468    5580.4144    5234.3812     8434.094    1664.7743   -633.06147    1270.6947   -2775.3685 
17087000    257.29305   -3889.7588   -3448.7673   -3889.7588            0    9422.9872    16.978863    19.998858    20.714174     7033.661    9708.7704    10312.372    8247.8191   -730.24896    532.05166    2178.0199   -2482.1692 
17088000    268.97746   -3869.6307   -3408.6125   -3869.6307            0    7049.2668    17.003863    20.028304    20.744673    7064.7751    8976.5834    5456.0818    6715.1352    -574.1195    1067.2663   -1662.2843   -2682.3089 
17089000    251.60692   -3914.5004   -3483.2548   -3914.5004            0     8613.048    16.955067    19.970829    20.685142    7004.1281    10277.785    6991.4075    8569.9514    651.14414   -91.766565   -428.71141   -2603.4489 
17090000     254.5597   -3862.7282   -3426.4216   -3862.7282            0    9413.2694    16.947449    19.961856    20.675848    6994.6917    8158.3586    11047.211    9034.2382    349.89545   -415.49369   -2113.5806   -2466.1702 
17091000    262.43468   -3926.2027   -3476.3986   -3926.2027            0    8290.1873    17.044527    20.076201    20.794283    7115.5824    8511.3785    8096.6341    8262.5492   -476.97888   -1009.1673   -609.04187   -2616.0971 
17092000     266.0145   -3878.6448   -3422.7051   -3878.6448            0    7017.1048    17.027158    20.055743    20.773093     7093.851    6557.0018    8048.4694    6445.8431   -1031.5394   -505.33693     995.6172   -2696.7397 
17093000    246.79447   -3894.2659   -3471.2687   -3894.2659            0    8773.8775    17.003189    20.027511    20.743851     7063.936    8679.1993    10798.413    6844.0196     698.5016   -83.723153   -103.16952   -2567.3815 
17094000    261.44088   -3881.0942   -3432.9935   -3881.0942            0     9130.042     17.00059    20.024449     20.74068    7060.6965    9297.5599    10199.245    7893.3212     1846.488    28.754498   -914.72566   -2492.8455 
17095000    258.60634   -3901.5849   -3458.3425   -3901.5849            0    10003.869    17.009512    20.034959    20.751565    7071.8194      9524.85    11063.416    9423.3419    -315.7955    675.88962   -549.96983   -2426.5912 
17096000    272.24466   -3873.8963   -3407.2783   -3873.8963            0    8392.9041     17.02417    20.052223    20.769447    7090.1171     8488.545    8880.4878    7809.6795   -1263.3241   -1180.1485   -277.80729   -2539.4345 
17097000    258.33788   -3850.4162   -3407.6339   -3850.4162            0    5366.3287    17.055149    20.088712    20.807242    7128.8934    7419.4781    3894.6999    4784.8081    52.412617    116.83052    266.92566   -2849.7096 
17098000    248.90121   -3850.6162   -3424.0081   -3850.6162            0    8757.8308     17.00112    20.025074    20.741327    7061.3578    8197.6513    9079.3949    8996.4462    593.49245    825.86221    560.39148   -2522.1034 
17099000    267.67881   -3876.1412   -3417.3489   -3876.1412            0    7199.1017    17.041876    20.073079    20.791049    7112.2632    6030.3814    7192.3373    8374.5863   -1008.0781    611.73408    2011.3815   -2670.6216 
17100000    252.63073   -3869.3087   -3436.3083   -3869.3087            0    7761.1332    17.074887    20.111961    20.831322    7153.6729    7655.5826    6694.7698    8933.0472    173.55949    -389.9138   -677.49574   -2626.5972 
17101000    257.13873   -3887.5192   -3446.7922   -3887.5192            0    8538.5936    16.995326    20.018249    20.734258    7054.1398    9498.0015    6258.8262    9858.9531   -2914.9121    149.10042   -301.29558   -2568.3639 
17102000    270.78615   -3848.6759   -3384.5577   -3848.6759            0    9882.6958    17.042078    20.073317    20.791296    7112.5159    10319.273    10731.264     8597.551   -193.16821   -615.24954   -411.01404    -2359.438 
17103000    261.53986   -3850.2708   -3402.0004   -3850.2708            0    9384.9067    16.957626    19.973844    20.688264    7007.3008    8167.1999    9999.3013    9988.2188    1222.3166    361.89403    287.62182   -2442.9165 
17104000    259.04832   -3843.8538   -3399.8538   -3843.8538            0    8213.3391    16.992675    20.015126    20.731023    7050.8393     8475.508    8671.4855    7493.0237    58.630456    174.02428   -231.89987   -2555.2823 
17105000    267.44267   -3864.5436    -3406.156   -3864.5436            0    6798.8927    17.012818    20.038852    20.755598    7075.9434    8408.8017    7182.1108    4805.7657   -349.35725    2143.2048    220.56631   -2704.5417 
17106000    238.26423   -3869.2649   -3460.8882   -3869.2649            0     9979.858    16.983202    20.003969    20.719467    7039.0544    11774.571    8846.6188     9318.384    -877.7028    460.84777   -1883.9815    -2436.382 
17107000    249.51507   -3871.5965   -3443.9362   -3871.5965            0    8107.7288    16.994684    20.017493    20.733475    7053.3407    9607.8405    7847.5792    6867.7666   -1385.6468   -1876.5309    282.35155   -2609.9287 
17108000    259.57944   -3861.0767   -3416.1664   -3861.0767            0    8623.5838    16.945975     19.96012    20.674049    6992.8665    11140.062    5942.0098    8788.6797    1363.8303   -582.71571    584.26316   -2536.7007 
17109000    254.74837   -3858.1961   -3421.5661   -3858.1961            0    9457.6724    16.955188    19.970972     20.68529    7004.2788     7345.646    9830.0279    11197.343   -140.14551    71.766759   -1253.7949   -2455.4628 
17110000    262.51651   -3844.8154   -3394.8711   -3844.8154            0    7926.6365    16.968984    19.987222    20.702121    7021.3902    6703.8184    8087.2265    8988.8648   -149.90551     503.7865     -1326.87   -2583.1853 
17111000    260.10098   -3820.8008   -3374.9967   -3820.8008            0    6647.5184    17.002673    20.026902    20.743221    7063.2921    6219.3557    6266.4186    7456.7809    636.50648    143.61307   -739.15502     -2690.23 
17112000     264.2248   -3858.8001   -3405.9279   -3858.8001            0    6321.1919    17.006254    20.031121     20.74759    7067.7563    7825.2343    4912.8178    6225.5236    264.60793   -677.33455    1257.4053   -2754.3648 
17113000    257.76926   -3865.1484   -3423.3407   -3865.1484            0     9307.745    16.958781    19.975204    20.689674    7008.7328    11568.733     8698.578    7655.9238   -422.01097    -594.1294   -1031.5848   -2471.9479 
17114000    276.79916   -3835.9248   -3361.5005   -3835.9248            0    7629.5035    17.004757    20.029358    20.745764    7065.8901    8558.6805    7618.4238    6711.4063   -691.21751    1805.9931    111.59122   -2575.2896 
17115000    261.28404   -3845.2183   -3397.3864   -3845.2183            0    6408.2114    17.110024    20.153348    20.874189    7197.9269    5801.7969    6557.4963    6865.3411   -458.34399   -345.74758   -1160.3891   -2724.6884 
17116000    260.41881   -3912.7057   -3466.3568   -3912.7057            0    8889.6546    16.979484     19.99959    20.714931    7034.4328     7245.275    9470.5585    9953.1301   -377.20978    1109.9099    -494.0552   -2554.3672 
17117000     249.3312   -3935.1275   -3507.7823   -3935.1275            0     8064.009    17.073468     20.11029    20.829591    7151.8895    7253.4401    8063.7727    8874.8142    463.70003    661.23753    315.45196   -2666.6822 
17118000    258.03983   -3916.9071   -3474.6357   -3916.9071            0    7775.7989    17.052749    20.085886    20.804314     7125.885    5291.5859    11063.161    6972.6496   -319.18321    951.35812   -370.57567   -2666.5457 
17119000    272.88675   -3908.2478   -3440.5292   -3908.2478            0    8541.8771    16.979038    19.999064    20.714387    7033.8785    7942.3585    9491.4818    8191.7909    794.92395    693.37829   -836.33758   -2564.2872 
17120000    259.71896   -3908.8565   -3463.7071   -3908.8565            0    9013.2696    16.952006    19.967224    20.681408     7000.336    8523.1609    7497.9217    11018.726   -191.17068   -691.06345   -315.86812   -2543.5178 
17121000    270.50788    -3905.062   -3441.4207    -3905.062            0     9077.074    16.932277    19.943986    20.657339    6975.9234     7501.932    10715.232    9014.0583    909.63965     128.4236    526.76229   -2517.9493 
17122000    264.85566   -3850.0564   -3396.1028   -3850.0564            0     7199.993    17.012071    20.037973    20.754687    7075.0116    7663.3538    6569.6679    7366.9573    50.877804   -1371.6507    651.63146   -2653.1947 
17123000    251.29827   -3889.4332   -3458.7166   -3889.4332            0    6449.3656    17.005715    20.030486    20.746932    7067.0843    6850.6585    5460.6265    7036.8117    -1492.477   -1246.8324   -1583.3724   -2794.0052 
17124000    265.88888   -3836.4205   -3380.6961   -3836.4205            0    8878.6858    16.991248    20.013446    20.729283    7049.0636    10453.035    9166.9811    7016.0417   -551.62123   -1080.4553   -881.97514   -2467.9374 
17125000    276.55185   -3827.2638   -3353.2634   -3827.2638            0    10001.256    16.964452    19.981884    20.696592    7015.7661    10459.154     9271.026    10273.587   -1103.0031   -1325.9538   -504.70577   -2329.9574 
17126000    262.18188   -3840.8755   -3391.5047   -3840.8755            0    8052.9555    17.017815    20.044738    20.761695    7082.1804    7607.3628    9002.4456    7549.0582   -439.51204   -316.36188   -198.22105   -2559.7444 
17127000    257.34809   -3830.0214   -3388.9356   -3830.0214            0    7480.0927    16.955761    19.971647    20.685989    7004.9891    7998.2688    6344.6921    8097.3173    1352.9976    361.93253   -847.70185    -2624.765 
17128000    272.31904   -3883.9656   -3417.2201   -3883.9656            0    7429.7547    16.970631    19.989162    20.704131    7023.4355    8508.4625      6153.94    7626.8617   -1484.3801    1524.7757     2066.213   -2656.1932 
17129000    265.71301   -3859.7458   -3404.3228   -3859.7458            0    8420.1024    16.988059    20.009689    20.725392    7045.0951    11040.043    8296.2874    5923.9769    1532.6109   -683.90857   -1453.8005   -2539.1953 
17130000    266.70786   -3925.9714   -3468.8433   -3925.9714            0    9103.0539    16.969128    19.987391    20.702297     7021.569    10942.322    7501.2611    8865.5783    471.71241   -289.95429   -1018.8095   -2536.6689 
17131000    253.52719   -3899.9685   -3465.4316   -3899.9685            0    8341.9762    16.989383    20.011249    20.727008    7046.7431    8611.7639    9046.4103    7367.7545    640.77758    399.91963    119.04932   -2608.1307 
17132000    260.31617   -3841.5091   -3395.3361   -3841.5091            0    9042.8008    16.950191    19.965086    20.679193    6998.0876     8847.195    8142.7964    10138.411   -417.01849    787.47752     626.3374   -2472.4285 
17133000    267.69741   -3877.0455   -3418.2213   -3877.0455            0    8192.6612    16.977345     19.99707    20.712321    7031.7739    9215.0628    8938.3985    6424.5224    -1004.534    -36.74229    344.00138    -2578.054 
17134000     242.5969   -3881.2818    -3465.479   -3881.2818            0    8940.7936     17.03891    20.069586    20.787431    7108.5504    9736.1353    9292.8432    7793.4022   -1461.8564   -130.20043    1747.7815   -2538.5788 
17135000    253.81059   -3905.8301   -3470.8075   -3905.8301            0    8817.9035    16.964473    19.981908    20.696617    7015.7919    7621.5157    11159.011    7673.1839    -51.23632    841.86226     165.5903   -2568.5761 
17136000    258.79605   -3864.7524   -3421.1848   -3864.7524            0     8056.878    16.963933    19.981272    20.695959    7015.1222    8309.1509    8363.1188    7498.3642   -323.76814    214.93423    1271.6949   -2596.8988 
17137000    255.82743   -3882.5812   -3444.1018   -3882.5812            0    9056.3225    16.922942     19.93299    20.645949    6964.3914    9179.3136    9386.9851    8602.6688    815.20359    1250.2824   -1355.5678   -2524.2646 
17138000    269.70755   -3897.7115    -3435.442   -3897.7115            0    7153.3162    16.945577    19.959651    20.673564    6992.3745    7701.3638    6586.2218    7172.3631   -223.62056    4.7358076    1336.2676   -2705.9711 
17139000    245.06787      -3900.1    -3480.062      -3900.1            0     9300.446    16.951154     19.96622    20.680368    6999.2806    7815.9762    10531.896    9553.4655   -597.67402    349.25479    832.67662   -2530.6974 
17140000     248.4163   -3848.1742   -3422.3972   -3848.1742            0    8390.2405    17.035923    20.066067    20.783787    7104.8125    9397.8313    8726.0519    7046.8382    -2253.352    67.077262   -753.80669   -2553.0306 
17141000    252.60549   -3906.2204   -3473.2632   -3906.2204            0    7181.5469    16.999366    20.023007    20.739186    7059.1716    8392.9168    7585.4934    5566.2305   -305.31497    484.28136    1273.7161   -2733.9174 
17142000    263.44114   -3909.4876   -3457.9585   -3909.4876            0    8119.4709    16.981964     20.00251    20.717956    7037.5151    7620.8212    9907.4617    6830.1296    66.729729    692.72689     698.3226   -2624.6171 
17143000    243.05207    -3862.693   -3446.1101    -3862.693            0    8167.4947    17.003181    20.027502    20.743842    7063.9261    8253.2993    8318.6445    7930.5403   -1296.9599    608.20562    414.71001   -2604.6938 
17144000    258.07209   -3881.2593   -3438.9326   -3881.2593            0    7783.3263    16.990132    20.012131    20.727921    7047.6741    8289.9534     7360.032    7699.9935   -1213.3513    293.14874   -490.57447   -2638.9382 
17145000    267.26003   -3845.0132   -3386.9387   -3845.0132            0    7743.4036    16.960128     19.97679    20.691316    7010.4021     8128.683       7218.7    7882.8278   -1591.5341   -596.03977     -25.4465   -2595.2568 
17146000    254.12843   -3877.1514    -3441.584   -3877.1514            0    8026.4402    17.032135    20.061605    20.779164    7100.0732    8238.4964    7917.3811    7923.4431    -616.4618   -386.07808   -181.50754   -2610.4679 
17147000    247.25748   -3864.2962   -3440.5054   -3864.2962            0    9163.1395    16.961964    19.978953    20.693557      7012.68    9595.7141    8461.7714    9431.9331   -68.650716    406.88213   -145.62172   -2503.3659 
17148000    249.51782   -3893.4996   -3465.8346   -3893.4996            0    9013.8463    16.984997    20.006083    20.721657    7041.2866    9250.7321    7735.8732    10054.934    629.56369    119.68562   -1163.6383   -2540.2033 
17149000    279.27752   -3872.4917   -3393.8196   -3872.4917            0     8473.021    17.006682    20.031625    20.748112    7068.2901    7333.4195    8289.0004    9796.6431   -22.709026    676.00672   -1111.7151   -2520.3887 
17150000    246.51347   -3835.0335   -3412.5178   -3835.0335            0    10077.742    16.922834    19.932863    20.645818    6964.2584    11106.341    9281.2437    9845.6418    731.68113   -513.57668    102.26611   -2388.9561 
17151000    276.62735   -3842.5854   -3368.4556   -3842.5854            0    7053.7007     16.95099    19.966027    20.680168    6999.0772    7894.1972    5395.0009     7871.904    637.23012   -1983.2628     196.4613   -2648.4536 
17152000    240.72826   -3832.8681   -3420.2681   -3832.8681            0    8142.4104    17.025542     20.05384    20.771122    7091.8324    9444.9457    6732.0336    8250.2517   -32.981356    829.02453   -491.55143   -2578.1222 
17153000    269.59042   -3867.4656   -3405.3968   -3867.4656            0    7263.5787    16.998065    20.021476      20.7376    7057.5518    5349.3577    8626.8775     7814.501    1485.1953    341.48002     997.9883   -2657.7773 
17154000    256.76058   -3869.5132   -3429.4343   -3869.5132            0    7534.1567     16.98884    20.010609    20.726345    7046.0668    9973.9351    5086.3714    7542.1637   -879.13401    207.46955    29.190711    -2655.227 
17155000    267.53304   -3909.9882   -3451.4457   -3909.9882            0    6892.9769     17.05069     20.08346    20.801802    7123.3036    7360.1816    5929.5978    7389.1514    272.74835   -1026.3037   -213.39629   -2735.3614 
17156000    243.78287   -3880.3456   -3462.5101   -3880.3456            0    6964.3481    17.036015    20.066175    20.783898    7104.9268    6918.0282    4040.5732    9934.4429   -661.00742    150.62072    1077.8798   -2740.8778 
17157000    261.17446   -3886.7657   -3439.1217   -3886.7657            0    7677.1292    16.983897    20.004787    20.720314    7039.9181    10184.017    5257.5186     7589.852   -1116.2445    1195.9481    755.91932   -2650.9109 
17158000    263.42709   -3887.2265   -3435.7214   -3887.2265            0    9548.5379    16.917873     19.92702    20.639766    6958.1354    9804.3176    8790.2393    10051.057   -74.107679   -78.849263    902.95109   -2466.7619 
17159000    260.46646   -3892.3861   -3445.9555   -3892.3861            0    8912.4451    17.009865    20.035374    20.751996    7072.2596    9744.9519    7035.1561    9957.2273    1257.0602   -505.03013    1470.8599   -2526.7111 
17160000    270.24906   -3873.6784   -3410.4808   -3873.6784            0    7992.1742    17.005799    20.030585    20.747035    7067.1894    6978.0675    9342.6779    7655.7774   -859.83034    -1731.516   -1045.1657   -2586.7457 
17161000     255.1128   -3879.2925   -3442.0379   -3879.2925            0     8712.648     16.95647    19.972482    20.686853    7005.8672    8958.1135    9083.1092    8096.7213   -1985.8682   -1153.0999    1392.3025   -2551.8372 
17162000    252.25173   -3871.0801   -3438.7292   -3871.0801            0    7504.1732    17.021969    20.049631    20.766762    7087.3676    8514.1455    8320.6138    5677.7601   -794.53003   -381.51964   -192.86195    -2663.083 
17163000    271.02577   -3869.0621   -3404.5332   -3869.0621            0    9065.9367    16.930865    19.942323    20.655616    6974.1782    10698.892    8390.0467    8108.8719   -258.88176   -241.42987   -593.02145   -2482.4255 
17164000    264.05529   -3886.8911   -3434.3094   -3886.8911            0    9499.2892    16.960059     19.97671    20.691233    7010.3174    8337.1869    9152.8862    11007.795   -288.81568    390.94466    1088.2139   -2463.1183 
17165000    244.02835   -3862.2767   -3444.0205   -3862.2767            0    7730.9534    17.029156    20.058097    20.775531    7096.3492    7011.1388     7066.199    9115.5224    168.45477    519.80357    615.23367   -2643.9211 
17166000    268.26736   -3884.7369   -3424.9358   -3884.7369            0    7710.6285    17.035746    20.065859    20.783571    7104.5909    9178.3984    6403.4257    7550.0612    203.81702   -2119.2633   -240.29238   -2626.0132 
17167000    245.05757   -3890.3231   -3470.3028   -3890.3231            0    5374.4556     17.06839    20.104309    20.823396     7145.511    6226.7776    4426.7741    5469.8151    998.63935    70.732711    997.77363    -2910.231 
17168000    274.15937   -3887.7355   -3417.8357   -3887.7355            0    7556.2817    17.031252    20.060565    20.778087    7098.9691     7587.938    7196.8037    7884.1035    1180.8766    1287.0887   -970.02107   -2635.5249 
17169000    271.94923   -3884.0679   -3417.9563   -3884.0679            0    7586.3939    16.993273    20.015831    20.731754    7051.5846    7784.6475    9396.2161    5578.3181   -648.44896    167.27906   -2034.8354   -2637.7705 
17170000    253.95666   -3854.8153   -3419.5423   -3854.8153            0    6486.3531    17.026793    20.055313    20.772648    7093.3951    9155.9274    5548.7517    4754.3803   -177.95143   -2077.7189    328.25226   -2748.5298 
17171000    262.53144   -3873.6703   -3423.7004   -3873.6703            0    8352.6297    16.990096    20.012089    20.727877    7047.6297    9195.8983    8776.4653    7085.5256   -432.47203   -1222.4728    1021.7029   -2565.1966 
17172000     268.5697   -3889.3621   -3429.0429   -3889.3621            0    8021.3732    16.951999    19.967216      20.6814    7000.3279    8474.6651    8546.4286    7043.0259    661.70016    48.646515   -233.97192     -2610.12 
17173000    251.76549   -3870.7057   -3439.1883   -3870.7057            0    7871.3019    16.971818     19.99056    20.705578    7024.9089    8870.1057    8354.3051    6389.4949    -661.7182   -505.53721   -1135.1845   -2632.7648 
17174000    249.83618   -3878.3884   -3450.1777   -3878.3884            0    8724.3379    16.904785    19.911603    20.623798    6941.9984    9668.9283    8966.7068    7537.3786   -1098.7401    770.25068   -1330.2471   -2566.9089 
17175000    269.26905   -3869.2249    -3407.707   -3869.2249            0    9433.8695    16.865603    19.865453    20.575996    6893.8403    10128.948    8216.2212    9956.4392    1395.9791     -1033.48   -1337.0329   -2459.2296 
17176000    251.08075   -3872.8405   -3442.4967   -3872.8405            0    6696.4854    16.949247    19.963975    20.678042     6996.919     6691.738    6449.6124    6948.1058    528.78055    523.28173     1085.196    -2759.168 
17177000    268.52004   -3850.9571    -3390.723   -3850.9571            0    8598.9955    16.928585    19.939637    20.652834    6971.3607    8715.6737     9539.629    7541.6839    672.62271    1290.9888   -124.10319   -2516.4618 
17178000    276.40668   -3865.3935   -3391.6419   -3865.3935            0    10024.423    16.899375    19.905232    20.617198    6935.3365    11190.953    9968.9038    8913.4131    2299.3585    2178.0136   -1486.3747   -2377.7239 
17179000    248.65847   -3856.4575   -3430.2654   -3856.4575            0    5935.8323    16.975803    19.995253     20.71044    7029.8581    5186.7092    6679.5198    5941.2678    221.36814   -308.42877   -2024.1914   -2821.7045 
17180000    254.99375   -3864.4847   -3427.4342   -3864.4847            0    8028.5262    16.950043    19.964912    20.679013    6997.9048    10437.776    6461.2884    7186.5147   -723.96402   -870.19597   -959.44411   -2608.0648 
17181000    276.54895   -3863.8849   -3389.8895   -3863.8849            0    7700.3796    16.926444    19.937115    20.650222    6968.7163    7932.1554    8264.8367    6904.1466   -497.88627   -506.52303   -177.74547   -2607.2877 
17182000    254.37285   -3829.5855   -3393.5992   -3829.5855            0    9049.7248    16.977186    19.996883    20.712128    7031.5771    8323.3317     6975.027    11850.816    838.94234    125.27516   -375.66814   -2465.5649 
17183000    264.05772   -3895.3447   -3442.7588   -3895.3447            0    9998.1973    16.930551    19.941953    20.655233    6973.7902    13448.952    10053.433    6492.2069   -952.46051   -1554.8156    382.26586   -2425.8864 
17184000    253.64373   -3889.5242   -3454.7876   -3889.5242            0     7112.065    17.038612    20.069235    20.787067    7108.1772    7138.5638    8444.6798    5752.9515   -1248.0757     1247.901     123.7177    -2717.512 
17185000    261.48156   -3839.1781   -3391.0077   -3839.1781            0    9513.9529    16.958867    19.975306    20.689778    7008.8394    10223.614    10450.858    7867.3868   -5.6295959    598.85557    890.78249   -2418.5225 
17186000    279.16386   -3860.2684   -3381.7911   -3860.2684            0    7411.9629    17.008124    20.033323    20.749871     7070.088    6121.5157    8928.9598    7185.4132    1595.3261    1774.1955    637.74472   -2617.5438 
17187000    254.30821   -3881.4815   -3445.6059   -3881.4815            0    8363.5118    16.977639    19.997417     20.71268      7032.14    7661.8817    9505.3521    7923.3016    218.05057    -1530.969   -382.00487    -2587.873 
17188000     262.1034   -3847.0386   -3397.8024   -3847.0386            0    9136.2169    16.918266    19.927482    20.640245    6958.6199    10678.987    8487.4991    8242.1644    2067.8411    166.85699     1132.295   -2470.6195 
17189000     256.7323   -3888.8612   -3448.8308   -3888.8612            0    9548.7452    16.997848     20.02122    20.737335    7057.2816    11260.283    8433.5556    8952.3975   -1230.6839     324.7759   -188.46849   -2466.0433 
17190000    273.17696   -3850.7677   -3382.5518   -3850.7677            0    5824.0497    17.041773    20.072958    20.790924    7112.1344    5324.1303     6508.945    5639.0737    290.05493    695.50546   -1165.0587   -2778.4628 
17191000    265.13936   -3852.5296   -3398.0898   -3852.5296            0    8268.0877    16.974151    19.993308    20.708425    7027.8066    8128.4128    7987.0865    8688.7637    50.867091    1110.6812    573.58447   -2550.6658 
17192000    264.76828   -3861.7113   -3407.9075   -3861.7113            0    10069.931    16.995678    20.018663    20.734687    7054.5779    10103.485    11015.195    9091.1145   -1534.4095    380.24092    3035.7402   -2371.8748 
17193000    254.11396   -3834.2489   -3398.7063   -3834.2489            0    7940.5928    16.983982    20.004887    20.720418    7040.0239    7676.5218     7052.006    9093.2507    628.23211    1153.4271   -765.32801   -2583.4335 
17194000    271.70276   -3869.2543   -3403.5651   -3869.2543            0    8242.9892    16.988991    20.010788     20.72653    7046.2552    6932.4757    11212.322      6584.17    1102.2704   -79.251406    2038.2757   -2556.4957 
17195000    267.51788   -3892.7599   -3434.2434   -3892.7599            0    10745.593    16.871588    19.872502    20.583298    6901.1822    8336.2752    14044.191    9856.3127   -1969.8028    331.41194    489.07697   -2352.7353 
17196000    247.09693   -3849.3106   -3425.7949   -3849.3106            0    8890.1635    17.000072     20.02384    20.740049     7060.052    6893.5058    9323.7274    10453.257     1896.481   -1271.3656   -1228.7406   -2510.4315 
17197000    260.42792   -3877.5469   -3431.1824   -3877.5469            0    7530.8501    16.989352    20.011213     20.72697    7046.7043    6750.2966    8897.9362    6944.3174    403.14814   -724.55033    282.19718   -2657.2448 
17198000    258.03319   -3890.1918   -3447.9317   -3890.1918            0    5877.3458    17.023261    20.051153    20.768338    7088.9816    5018.4821    6589.4533    6024.1021    302.23104   -476.65537    1267.5958   -2840.2992 
17199000    284.37505   -3894.2407   -3406.8316   -3894.2407            0    8912.3547    17.001991      20.0261     20.74239    7062.4432    9089.4046     9983.898    7663.7615    -1464.973   -506.30241   -1202.8616   -2488.8725 
17200000    254.32501   -3847.8911   -3411.9867   -3847.8911            0    6945.1587     16.97574     19.99518    20.710363    7029.7802    8750.5213    6926.3494    5158.6053    573.83793   -41.058636   -498.82074   -2699.9542 
17201000    249.24686   -3842.4066    -3415.206   -3842.4066            0    6923.0325    17.045047    20.076814    20.794917    7116.2334    5829.5561     7534.484    7405.0575    1680.2453    587.60575   -1030.1396   -2696.7131 
17202000    252.18252   -3856.7273    -3424.495   -3856.7273            0    7547.7327    17.011811    20.037666     20.75437    7074.6872    4884.6324    8816.5304    8942.0353    98.339991    977.71389   -109.09107   -2645.7422 
17203000    257.87642   -3883.7462   -3441.7548   -3883.7462            0     7827.419    16.977589    19.997357    20.712618    7032.0768    8494.3507    8746.3138    6241.5925    1077.8337   -314.67339    55.241918    -2639.009 
17204000    253.33357   -3877.2745   -3443.0695   -3877.2745            0    8333.1243    16.947946    19.962441    20.676454    6995.3071    7121.7064    9102.9658    8774.7007   -1721.2838   -1378.8364    453.73521   -2592.9293 
17205000    251.08982   -3873.8087   -3443.4494   -3873.8087            0    7432.0557    16.899858    19.905801    20.617788    6935.9313    8729.4114    8609.3302    4957.4256   -1131.5551    645.88882    513.12544   -2691.6713 
17206000    252.04871    -3862.019   -3430.0161    -3862.019            0    10292.748    16.842769    19.838557    20.548139    6865.8778    10218.022    11168.356     9491.865    297.54195   -22.322361   -384.65418   -2399.3849 
17207000    247.23573    -3848.374   -3424.6204    -3848.374            0    7994.6682    16.944299    19.958146    20.672005    6990.7927    6791.4605    8070.7976    9121.7464     613.6003   -243.35144    645.81937   -2609.5357 
17208000    269.22801    -3867.364   -3405.9164    -3867.364            0    7765.6253    16.936766    19.949273    20.662815    6981.4729    10063.604    6789.5187    6443.7533     1254.127    1268.6336    1480.6295   -2615.2389 
17209000    258.60044   -3869.3478   -3426.1155   -3869.3478            0    7380.6775    16.926228    19.936861    20.649959    6968.4497    6933.2403    6692.0171    8516.7752   -451.09052    92.128895    -739.4673   -2676.0342 
17210000    266.55374   -3854.1003   -3397.2363   -3854.1003            0    8135.4727    16.986551    20.007914    20.723553    7043.2196    9729.4596    7342.9021    7334.0564    1517.8761    207.87747    1221.5464   -2561.5757 
17211000    260.53237   -3895.4179   -3448.8744   -3895.4179            0    9003.3858    16.875013    19.876536    20.587476    6905.3852     8873.173    9194.6209    8942.3635    1489.4658   -1272.8689    1298.6319   -2542.1618 
17212000    262.97776   -3900.0211   -3449.2862   -3900.0211            0    8041.3672    16.974689    19.993941    20.709081    7028.4742    7286.0288    8225.1468    8612.9261    1994.1618   -551.23608    350.02782   -2625.0212 
17213000    274.80811   -3868.1981   -3397.1864   -3868.1981            0    10569.071    16.926073    19.936679     20.64977    6968.2585    12018.132    9468.1695     10220.91     1156.262    559.37175   -767.18573   -2323.1056 
17214000    252.95395   -3886.8028   -3453.2483   -3886.8028            0    6170.3073    16.974402    19.993604    20.708731    7028.1183    7976.6732    4976.4103    5557.8385    772.33584    1.7608803    109.06176   -2820.8048 
17215000    252.63916    -3938.298   -3505.2832    -3938.298            0    8177.6362    16.943919    19.957699    20.671542    6990.3226    8278.9689    7566.5509    8687.3889    77.613572   -970.87237   -421.07525   -2671.6003 
17216000    275.43598   -3927.2212   -3455.1333   -3927.2212            0     8839.169    16.936711    19.949208    20.662747    6981.4043    9674.0234    9542.1302    7301.3534   -100.48976   -1177.2954    793.30191    -2555.159 
17217000    257.35108    -3925.599    -3484.508    -3925.599            0    9275.8963     16.96208     19.97909    20.693698     7012.824    8105.9193    7818.7845    11902.985   -1553.5471   -33.549945    555.13946   -2535.8172 
17218000    271.58181   -3924.6893   -3459.2074   -3924.6893            0    7265.4648    17.019005     20.04614    20.763146    7083.6663    7235.4583    5310.3653    9250.5708    708.39625   -728.72607    421.29106   -2708.6267 
17219000    267.21906   -3904.0302   -3446.0259   -3904.0302            0    8589.0729    17.051575    20.084503    20.802882     7124.413     10943.13    6570.2651     8253.824   -689.08876   -951.67743     1258.216   -2553.6018 
17220000    251.02007   -3901.5551   -3471.3153   -3901.5551            0      9129.48    16.943102    19.956737    20.670545    6989.3115    9246.7144    9373.8813    8767.8441    164.78543    701.09528   -752.20063   -2540.7297 
17221000    266.64147   -3897.6728   -3440.6585   -3897.6728            0    9385.1016    16.950681    19.965663    20.679791    6998.6943    6451.0024    8717.9615    12986.341   -1335.4757    1296.7379   -294.48093   -2482.7326 
17222000    252.47018   -3897.3646   -3464.6394   -3897.3646            0    8253.2056    16.985083    20.006184    20.721761     7041.393    9908.1371    3983.7878    10867.692    0.3072579    1049.6459    136.06967   -2617.1054 
17223000    245.93906   -3878.4728   -3456.9417   -3878.4728            0    6032.0444    17.016663    20.043381    20.760289    7080.7418    5822.0497    6703.9968    5570.0868   -1183.2926   -1405.7523    682.54078   -2834.0404 
17224000    250.61625   -3867.7224   -3438.1747   -3867.7224            0    8823.6172    17.042848    20.074224    20.792235    7113.4804    7123.9762    9553.0985    9793.7771   -899.11957   -62.909867    45.079132   -2522.7878 
17225000    262.33259   -3883.6138   -3433.9847   -3883.6138            0    9843.0491    16.961394    19.978282    20.692862    7011.9732    11258.105    11085.506    7185.5364    1028.9199   -204.79031    737.09752   -2427.4105 
17226000    256.59264   -3871.3438   -3431.5528   -3871.3438            0    9029.9291    17.040257    20.071172    20.789074    7110.2364    8543.4769    8960.2183    9586.0921     1918.941     1639.301   -266.28354   -2495.1898 
17227000     267.9133   -3829.1668   -3369.9726   -3829.1668            0     8986.712    17.012532    20.038515    20.755249    7075.5861    9252.5952    8824.7953    8882.7456   -1136.1412    739.21425   -467.74612   -2442.6323 
17228000    259.51832    -3840.948   -3396.1425    -3840.948            0    7811.1433    17.032636    20.062195    20.779776    7100.7003    9116.8945    6198.7308    8117.8047    350.30997   -1460.0919    884.63227   -2587.2484 
17229000    268.32917   -3873.7654   -3413.8584   -3873.7654            0    8381.3571    17.073224    20.110003    20.829294    7151.5838    6496.8963    10805.565    7841.6102    630.33367    605.92985   -275.37935   -2539.6953 
17230000    253.56637   -3820.7262   -3386.1221   -3820.7262            0    9454.7422     16.95947    19.976015    20.690514    7009.5867    8923.1764    7689.6079    11751.442    206.98206   -969.56946    486.15254   -2419.5862 
17231000    267.58288   -3839.3836   -3380.7557   -3839.3836            0    10106.259    16.911696    19.919744     20.63223    6950.5165    8521.8787     9586.737    12210.163   -462.01322   -1194.7546    1957.2974   -2356.3231 
17232000    254.32092   -3847.7375   -3411.8401   -3847.7375            0    6259.4701    17.012488    20.038463    20.755195    7075.5314    6406.8893    7530.2376    4841.2834   -1692.6344   -2062.1546    43.344346   -2765.9294 
17233000    250.95257   -3867.0473   -3436.9232   -3867.0473            0    9200.0429    16.935555    19.947846    20.661337     6979.975    8659.2377    10330.643    8610.2484    208.36649   -602.98443   -1292.3249   -2500.3977 
17234000    266.74539   -3886.3154   -3429.1229   -3886.3154            0    7143.5052    16.994868     20.01771    20.733699      7053.57    6970.3782      6209.05    8251.0874   -193.38077    578.52372   -539.09756   -2694.2771 
17235000    251.80726   -3874.9325   -3443.3435   -3874.9325            0    10097.384    16.911775    19.919838    20.632326    6950.6144    9526.0934    10674.847    10091.213     273.0858    515.97067   -2432.3204   -2419.7961 
17236000    258.38779    -3874.591   -3431.7232    -3874.591            0    9347.7501    16.933681    19.945639    20.659051    6977.6581    8300.9344     9903.398     9838.918    -544.1178   -1307.6835   -473.84354   -2480.4776 
17237000    261.91673   -3865.5153    -3416.599   -3865.5153            0    9616.7341    16.965626    19.983267    20.698024    7017.2227    9813.7542    6905.0325    12131.416    525.83262   -109.33983    190.64316    -2432.432 
17238000    274.25449   -3866.3849   -3396.3221   -3866.3849            0    10018.774    16.914638    19.923209    20.635819    6954.1445    9298.4498    10262.575    10495.299    1213.1038   -1262.2279   -114.91891   -2380.2273 
17239000    253.83774   -3839.8097   -3404.7405   -3839.8097            0    10463.796    16.965279    19.982857      20.6976    7016.7918     11346.79    11111.232    8933.3641    605.91171    -1316.452   -1481.0908   -2333.9519 
17240000    258.79586   -3869.1357   -3425.5685   -3869.1357            0    8126.1686    17.028419    20.057229    20.774632    7095.4282    7638.0165    9723.9529    7016.5364   -722.91373    170.94165   -246.33972   -2584.6763 
17241000    258.55617   -3880.6761   -3437.5196   -3880.6761            0    7968.8915    16.972514    19.991379    20.706427    7025.7728    7404.1766    6149.4391    10353.059   -162.67891   -501.21537    -378.0464   -2620.9976 
17242000    262.99645   -3881.3896   -3430.6227   -3881.3896            0     8828.931    16.959978    19.976613    20.691133    7010.2162    7956.7942    7551.6508    10978.348    1261.9898     1885.554    1810.3999   -2527.9809 
17243000    264.71615   -3863.0015   -3409.2871   -3863.0015            0    6779.2907     17.04615    20.078113    20.796263    7117.6151    7259.5794    6811.3538    6266.9388   -684.59773    83.543152    292.71283   -2705.5756 
17244000     255.0197   -3863.3075   -3426.2124   -3863.3075            0    10163.864    16.911326    19.919308    20.631778    6950.0602    10567.391    9499.3567    10424.843    394.19388   -1751.1946    281.63587   -2396.0083 
17245000    274.19913   -3864.7738   -3394.8058   -3864.7738            0    8459.2213    16.932378    19.944104    20.657461    6976.0474    7454.9392    9029.7369    8892.9878    1.1892181     211.6647   -576.08038   -2534.1774 
17246000    251.96634   -3850.7388   -3418.8771   -3850.7388            0    8200.6357    16.885329    19.888687    20.600061     6918.057    7703.3415    9328.0846    7570.4811   -598.86668   -764.12419    1148.8228   -2591.4923 
17247000    261.81795   -3878.4331   -3429.6861   -3878.4331            0    8241.5765    16.990368    20.012409    20.728209    7047.9685    8242.5543     6691.636    9790.5392   -1199.8069    1857.0827    673.58501   -2582.5559 
17248000     261.9659   -3836.0295   -3387.0289   -3836.0295            0    8484.7212    17.011059    20.036781    20.753453    7073.7494    7283.0434     7232.571    10938.549   -1251.6103    848.76255     1359.157   -2511.7164 
17249000    246.92615   -3861.7831   -3438.5601   -3861.7831            0    9172.5662    16.928072    19.939033    20.652208    6970.7271    8792.1446     8355.919    10369.635    807.80669   -694.27628    556.54631   -2506.0688 
17250000    265.53145   -3833.3252   -3378.2134   -3833.3252            0    8516.6699    16.959336    19.975858    20.690351     7009.421    7215.0541     7765.873    10569.083   -1990.1232    1705.8702    93.515036    -2507.595 
Loop time of 439.854 on 64 procs for 250000 steps with 864 atoms

Performance: 98.214 ns/day, 0.244 hours/ns, 568.371 timesteps/s
99.2% CPU use with 64 MPI tasks x 1 OpenMP threads

MPI task timing breakdown:
Section |  min time  |  avg time  |  max time  |%varavg| %total
---------------------------------------------------------------
Pair    | 21.918     | 26.783     | 32.147     |  48.2 |  6.09
Bond    | 0.27182    | 0.2779     | 0.28958    |   0.8 |  0.06
Kspace  | 182.02     | 191.88     | 200.06     |  31.8 | 43.62
Neigh   | 4.6432     | 5.567      | 6.6826     |  24.0 |  1.27
Comm    | 98.117     | 108.9      | 120.73     |  42.4 | 24.76
Output  | 1.1286     | 1.1292     | 1.1358     |   0.1 |  0.26
Modify  | 98.122     | 101.11     | 103.76     |  13.1 | 22.99
Other   |            | 4.202      |            |       |  0.96

Nlocal:        13.5000 ave          20 max           8 min
Histogram: 1 6 5 9 9 23 6 4 0 1
Nghost:        2253.11 ave        2276 max        2224 min
Histogram: 4 3 5 7 3 14 8 7 5 8
Neighs:        4397.09 ave        6219 max        2228 min
Histogram: 1 3 2 9 14 9 13 5 4 4

Total # of neighbors = 281414
Ave neighs/atom = 325.71065
Ave special neighs/atom = 2.0000000
Neighbor list builds = 14030
Dangerous builds = 1

unfix		3
unfix		2
unfix		1

write_data	data.final.${pid}
write_data	data.final.0
System init for write_data ...
PPPM initialization ...
  extracting TIP4P info from pair style
  using 12-bit tables for long-range coulomb (../kspace.cpp:340)
  G vector (1/distance) = 0.37433765
  grid = 24 24 24
  stencil order = 5
  estimated absolute RMS force accuracy = 0.0031523371
  estimated relative force accuracy = 9.4931694e-06
  using double precision FFTW3
  3d grid and FFT values/proc = 2535 216
Last active /omp style is kspace_style pppm/tip4p/omp
WARNING: Not all mixed pair coeffs generated from mixing. Use write_data with 'pair ij' option to store all pair coeffs. (../write_data.cpp:312)

write_restart   restart.lmp.${pid}
write_restart   restart.lmp.0
System init for write_restart ...
PPPM initialization ...
  extracting TIP4P info from pair style
  using 12-bit tables for long-range coulomb (../kspace.cpp:340)
  G vector (1/distance) = 0.37433765
  grid = 24 24 24
  stencil order = 5
  estimated absolute RMS force accuracy = 0.0031523371
  estimated relative force accuracy = 9.4931694e-06
  using double precision FFTW3
  3d grid and FFT values/proc = 2535 216
Last active /omp style is kspace_style pppm/tip4p/omp
Total wall time: 0:07:22
