LAMMPS (30 Jul 2021)
  using 1 OpenMP thread(s) per MPI task
package omp 0
using multi-threaded neighbor list subroutines
echo both

include		in.partitions
variable        pid world 0
include		in.temp
variable        temperature equal 250.05
variable	tempDamp equal 100.0
include		in.pressure
variable        pressure equal 5375.0
variable        pressureDamp equal 1000.0 # This is 1 ps
include		in.seed
variable        seed world 745823

units		real
atom_style	full
read_restart	restart.lmp.${pid}
read_restart	restart.lmp.0
Reading restart file ...
  restart file = 30 Jul 2021, LAMMPS = 30 Jul 2021
  restoring atom style full from restart
  orthogonal box = (0.46458718 1.6387536 0.56679527) to (17.742985 21.990424 21.646401)
  4 by 4 by 4 MPI processor grid
  restoring pair style lj/cut/tip4p/long/omp from restart
  restoring bond style harmonic/omp from restart
  restoring angle style harmonic/omp from restart
  864 atoms
  576 bonds
  288 angles
Finding 1-2 1-3 1-4 neighbors ...
  special bond factors lj:    0        0        0       
  special bond factors coul:  0        0        0       
     2 = max # of 1-2 neighbors
     1 = max # of 1-3 neighbors
     1 = max # of 1-4 neighbors
     2 = max # of special neighbors
  special bonds CPU = 2.091 seconds
  read_restart CPU = 2.131 seconds
include 	in.setup
variable	out_freq equal 1000
variable	out_freq2 equal 10000
variable	out_freq3 equal 1000

timestep	2.0

neigh_modify    delay 7 every 1

include		in.tip4p
# This is TIP4P/Ice

# create groups ###
group ox type 2
288 atoms in group ox
group hy type 1
576 atoms in group hy

# set charges - beside manually ###
set group ox charge -1.1794
Setting atom values ...
  288 settings made for charge
set group hy charge 0.5897
Setting atom values ...
  576 settings made for charge

# ### TIP3P Potential Parameters ###
pair_style lj/cut/tip4p/long/omp 2 1 1 1 0.1577 8.5
pair_coeff 1 1*2 0.000 0.000
pair_coeff 2 2 0.21084 3.1668
bond_style  harmonic
bond_coeff  1 450 0.9572
angle_style harmonic
angle_coeff 1 55 104.52
kspace_style pppm/tip4p/omp 1.0e-5
pair_modify tail yes

thermo          ${out_freq}
thermo          1000
thermo_style    custom step temp pe etotal epair emol press lx ly lz vol pxx pyy pzz pxy pxz pyz enthalpy

restart 	${out_freq3} restart.lmp.${pid} restart2.lmp.${pid}
restart 	1000 restart.lmp.${pid} restart2.lmp.${pid}
restart 	1000 restart.lmp.0 restart2.lmp.${pid}
restart 	1000 restart.lmp.0 restart2.lmp.0


include         in.dump
dump            myDump all atom ${out_freq2} dump.water.${pid}
dump            myDump all atom 10000 dump.water.${pid}
dump            myDump all atom 10000 dump.water.0
dump            myDump2 all dcd ${out_freq2} dump.dcd
dump            myDump2 all dcd 10000 dump.dcd
dump_modify     myDump append yes
dump_modify     myDump2 append yes


variable natoms 	equal  "count(all)"                        # NUMBER ATOMS
variable H      	equal  "enthalpy/v_natoms"                 # ENTHALPY-per-atom
variable Vol      	equal  "vol/v_natoms"                 # volume-per-atom
fix AVG all 		ave/time ${out_freq} 1 ${out_freq} v_Vol v_H file vol_enthalpy.dat
fix AVG all 		ave/time 1000 1 ${out_freq} v_Vol v_H file vol_enthalpy.dat
fix AVG all 		ave/time 1000 1 1000 v_Vol v_H file vol_enthalpy.dat


timer           timeout 23:50:00 every 1000
New timer settings: style=normal  mode=nosync  timeout=23:50:00

fix 		1 all shake 1e-6 200 0 b 1 a 1
       0 = # of size 2 clusters
       0 = # of size 3 clusters
       0 = # of size 4 clusters
     288 = # of frozen angles
  find clusters CPU = 1.837 seconds
fix             2 all nph iso ${pressure} ${pressure} ${pressureDamp}
fix             2 all nph iso 5375 ${pressure} ${pressureDamp}
fix             2 all nph iso 5375 5375 ${pressureDamp}
fix             2 all nph iso 5375 5375 1000
fix             3 all temp/csvr ${temperature} ${temperature} ${tempDamp} ${seed}
fix             3 all temp/csvr 250.05 ${temperature} ${tempDamp} ${seed}
fix             3 all temp/csvr 250.05 250.05 ${tempDamp} ${seed}
fix             3 all temp/csvr 250.05 250.05 100 ${seed}
fix             3 all temp/csvr 250.05 250.05 100 745823

run             250000
PPPM initialization ...
  extracting TIP4P info from pair style
  using 12-bit tables for long-range coulomb (../kspace.cpp:340)
  G vector (1/distance) = 0.37436236
  grid = 24 24 25
  stencil order = 5
  estimated absolute RMS force accuracy = 0.0030607286
  estimated relative force accuracy = 9.2172932e-06
  using double precision FFTW3
  3d grid and FFT values/proc = 2730 288
Last active /omp style is kspace_style pppm/tip4p/omp
Neighbor list info ...
  update every 1 steps, delay 7 steps, check yes
  max neighbors/atom: 2000, page size: 100000
  master list distance cutoff = 10.8154
  ghost atom cutoff = 10.8154
  binsize = 5.4077, bins = 4 4 4
  1 neighbor lists, perpetual/occasional/extra = 1 0 0
  (1) pair lj/cut/tip4p/long/omp, perpetual
      attributes: half, newton on, omp
      pair build: half/bin/newton/omp
      stencil: half/bin/3d
      bin: standard
Per MPI rank memory allocation (min/avg/max) = 9.238 | 9.243 | 9.250 Mbytes
Step Temp PotEng TotEng E_pair E_mol Press Lx Ly Lz Volume Pxx Pyy Pzz Pxy Pxz Pyz Enthalpy 
 6750000    258.70314   -3887.8342   -3444.4258   -3887.8342            0    4701.0377    17.278398    20.351671    21.079605    7412.5223    4606.7633    5105.8125    4390.5373   -307.06486    1635.3606    665.61701   -2936.2247 
 6751000    236.61252   -3882.9994   -3477.4536   -3882.9994            0    4841.2519    17.302212     20.37972    21.108658    7443.2131    3430.2725    6054.6964    5038.7869    -405.7803   -997.05729   -1221.0347   -2951.9278 
 6752000    251.38478   -3864.8821   -3434.0172   -3864.8821            0    4955.8407    17.231908    20.296911    21.022887    7352.8497     4027.321    5444.1185    5396.0825   -303.35372   -1107.4141    176.19602   -2902.5837 
 6753000    251.18166    -3885.212   -3454.6952    -3885.212            0    5657.5047    17.269788     20.34153    21.069102    7401.4471    5455.3726    6441.3194    5075.8222    122.09835    465.53874    965.27746   -2844.0099 
 6754000    236.46169    -3894.922   -3489.6347    -3894.922            0     7368.553    17.172424    20.226848    20.950318    7276.9675    6826.0813    8534.1324    6745.4454   -41.490441    2201.7649   -142.95892   -2707.6315 
 6755000    253.79113   -3871.0161   -3436.0268   -3871.0161            0    5874.3484    17.186306    20.243199    20.967254    7294.6295    6866.9394    6119.8912    4636.2147   -645.58238    2279.1064   -29.131384   -2811.0861 
 6756000    252.99751   -3890.7241    -3457.095   -3890.7241            0    4919.3914    17.234532    20.300002    21.026088    7356.2088    2918.3593    6477.8217    5361.9932    350.93451    1080.0466   -1412.9734   -2929.3291 
 6757000    245.62292   -3896.1501   -3475.1608   -3896.1501            0    5040.0459    17.260802    20.330944    21.058138    7389.8984    3572.8696    6857.1956    4690.0726   -471.57215    939.75113    -934.5105   -2931.9745 
 6758000    257.46913   -3905.4534   -3464.1601   -3905.4534            0    4338.0338    17.254394    20.323397    21.050321    7381.6721    2220.5314    5622.6502    5170.9196   -151.10607    993.14463   -177.38399   -2997.1529 
 6759000    259.18939   -3899.3751   -3455.1334   -3899.3751            0    8095.9788     17.21366    20.275418    21.000625    7329.5154    9681.7168    6834.1394    7772.0802   -2245.7145    1048.1024    614.74685   -2589.7261 
 6760000    260.05312   -3959.8462   -3514.1241   -3959.8462            0    6656.3588    17.201773    20.261416    20.986123    7314.3411    6565.1437    7147.7614    6256.1713    529.99634    499.34554   -761.57853   -2804.0759 
 6761000    248.12231   -3941.5323   -3516.2591   -3941.5323            0    5679.3129    17.231093    20.295952    21.021893    7351.8067    3785.8177    7258.7364    5993.3847    570.00661    -1386.397    3231.0538   -2907.3314 
 6762000    264.21795   -3902.6104   -3449.7499   -3902.6104            0    5087.6868    17.134942    20.182699     20.90459    7229.4212    4964.7255    4774.6092    5523.7256    42.954465    1310.2418    1609.8468   -2913.3363 
 6763000    266.09224    -3937.855    -3481.782    -3937.855            0    5815.5212    17.118378    20.163189    20.884382    7208.4759    5321.6433    7000.6973    5124.2231    1123.7348    93.132476    986.33866   -2870.4065 
 6764000    239.01819   -3917.3823   -3507.7133   -3917.3823            0    5000.3718    17.179684    20.235398    20.959174       7286.2    6274.4113    5001.2231    3725.4811    386.40076    1251.6907     1255.817   -2976.3651 
 6765000    254.08664   -3928.3318    -3492.836   -3928.3318            0    4755.9456    17.201434    20.261017    20.985709    7313.9086    5494.7224    4139.4788    4633.6356    9.0353166    158.24968   -519.71744    -2985.539 
 6766000    251.90884   -3904.1598   -3472.3967   -3904.1598            0     4964.592    17.190834    20.248531    20.972777    7300.3957    6564.6723    3939.6505    4389.4533   -158.82958    405.34944    558.69812   -2943.8226 
 6767000    254.14161   -3916.2165   -3480.6265   -3916.2165            0    7023.4365    17.133954    20.181535    20.903384    7228.1704    7470.7217     7499.221     6100.367    1011.8503    -1355.283   -665.80408   -2740.2478 
 6768000     240.2413   -3930.5743   -3518.8089   -3930.5743            0    4490.9769    17.157173    20.208884    20.931711    7257.5963    4320.3316    4190.2602    4962.3389   -1582.1588   -486.56959    528.85666   -3043.4633 
 6769000    254.36478   -3915.3387   -3479.3662   -3915.3387            0    5317.3297    17.158897    20.210914    20.933814    7259.7834    6715.6004    3634.6662    5601.7224   -1924.4049   -205.26873      1543.57    -2916.386 
 6770000    251.93461   -3943.1869   -3511.3796   -3943.1869            0    5711.9837    17.180052    20.235832    20.959623    7286.6685    5712.4795    4603.1011    6820.3705   -338.33827    367.99474   -853.17256   -2904.3752 
 6771000    237.18888   -3901.3868   -3494.8531   -3901.3868            0    5943.8749    17.174337    20.229101    20.952651    7279.3995    6330.7875    6581.2196    4919.6175    517.50125    764.55335    301.66196   -2863.8361 
 6772000    260.61069   -3918.8661   -3472.1883   -3918.8661            0    4850.3699    17.155235    20.206601    20.929347    7255.1366    3470.8256    3531.9684    7548.3157   -1385.1595    334.81824   -878.00604   -2958.9769 
 6773000    241.13741   -3941.3412     -3528.04   -3941.3412            0    7163.9376    17.153525    20.204587    20.927261    7252.9676    8725.3743    5602.6317    7163.8067   -1031.5659   -135.38964   -493.22654   -2770.2595 
 6774000    257.52783   -3893.0344   -3451.6405   -3893.0344            0    5146.0521    17.258903    20.328708    21.055821    7387.4599    6407.9557    4377.6118    4652.5888    -928.2813    1123.1191    -70.94142   -2897.2124 
 6775000    243.12696   -3889.8593    -3473.148   -3889.8593            0    5839.2028    17.198073    20.257059    20.981609    7309.6232     6909.061    4181.4855    6427.0619   -770.39632    1297.6525   -1172.2662   -2850.6694 
 6776000    256.91882   -3882.3536   -3442.0035   -3882.3536            0    5730.9247    17.135342    20.183169    20.905077    7229.9268    6193.6367    6040.0666    4959.0708    408.90238   -951.92451   -767.94288   -2837.7287 
 6777000    258.04285   -3898.3886    -3456.112   -3898.3886            0    6942.4749    17.135467    20.183317     20.90523    7230.0858    7420.7219     5750.301    7656.4017   -405.17039    844.63542    1242.6198    -2724.074 
 6778000    258.00116   -3930.6797   -3488.4745   -3930.6797            0    5588.1426    17.192516    20.250513     20.97483    7302.5397    4553.5777    6615.6711     5595.179   -430.55057    1007.2051    473.92404    -2893.337 
 6779000     234.1238   -3905.3996   -3504.1194   -3905.3996            0     4154.748    17.228963    20.293443    21.019295    7349.0807    4613.1231    4831.0617    3020.0591    702.65346    958.36321    662.18305   -3058.8185 
 6780000     247.1785   -3874.8019   -3451.1464   -3874.8019            0     7411.783    17.102536    20.144528    20.865054     7188.481    7650.4391    5551.4327    9033.4773    322.15995    526.97254   -1024.8959   -2674.1201 
 6781000    258.70919   -3879.9024   -3436.4837   -3879.9024            0    3513.3971    17.255543     20.32475    21.051722    7383.1458    3635.1985    3304.8563    3600.1366    408.41036   -272.53066   -887.90066   -3058.1765 
 6782000    239.13939   -3866.9451   -3457.0684   -3866.9451            0    5565.0112    17.223304    20.286777    21.012391    7341.8417    6378.1593    5078.4594     5238.415     270.3044    -1694.051    -1367.757   -2861.2047 
 6783000    259.56911   -3913.1711   -3468.2785   -3913.1711            0    5340.9555    17.220357    20.283305    21.008795    7338.0728    6666.4056    5123.6455    4232.8154   -341.10557    662.11756    1173.3789   -2896.6987 
 6784000     248.6135   -3944.6209   -3518.5059   -3944.6209            0    4715.0187    17.268677     20.34022    21.067745    7400.0178    3494.0006    5329.6644    5321.3912   -1494.3217    467.70691    499.34739   -3009.6532 
 6785000    252.80453   -3958.2633    -3524.965   -3958.2633            0    5284.3915     17.19771     20.25663    20.981166    7309.1593    5455.2646    4831.1937    5566.7163   -1594.4726   -52.421131    2250.8643   -2961.6669 
 6786000    237.20042   -3905.7141   -3499.1607   -3905.7141            0    4037.3162    17.211467    20.272835    20.997949    7326.7142    5284.5853    3183.1309    3644.2324    470.35642   -157.70167   -590.44258   -3067.7629 
 6787000    244.59294   -3878.5414   -3459.3174   -3878.5414            0    5171.0274    17.206958    20.267523    20.992448    7320.9573    5904.2998    4749.7866    4858.9957   -1086.3229     427.9405    923.27742   -2907.2138 
 6788000     249.4181   -3900.6662   -3473.1721   -3900.6662            0    3456.9313    17.289789    20.365088    21.093502    7427.1924     2402.519    4588.5051    3379.7698    1177.8719   -519.76622    -286.1676   -3098.7243 
 6789000    263.13793   -3924.6186   -3473.6092   -3924.6186            0    6262.4831    17.176408    20.231539    20.955177    7282.0325    4831.1114    7022.1211    6934.2169    1277.7398   -658.19199    116.08028   -2808.5274 
 6790000    246.38266   -3923.1268   -3500.8353   -3923.1268            0    4858.7975    17.247921    20.315772    21.042423    7373.3664     3817.004    5921.8369    4837.5516    674.31018   -647.15929    1649.4422   -2978.3543 
 6791000    244.99182   -3903.1867   -3483.2791   -3903.1867            0    3518.3638    17.265756     20.33678    21.064182    7396.2637     3479.788    3213.4923    3861.8112    1296.7354    944.85004    2062.6607    -3103.764 
 6792000    244.84246   -3908.9436    -3489.292   -3908.9436            0    4721.4767    17.153288    20.204307    20.926971    7252.6663    4664.4047    3484.3338    6015.6916   -144.33001   -820.40242   -361.22886   -2989.8886 
 6793000    258.33105   -3901.3888   -3458.6182   -3901.3888            0    6424.9794    17.167098    20.220574    20.943819    7270.1979    7529.1807    6910.2153    4835.5421   -1136.8127    678.38199   -528.22352   -2777.3881 
 6794000    244.58693   -3889.0362   -3469.8226   -3889.0362            0    6504.2807    17.131954    20.179179    20.900944      7225.64    7533.3266    5174.9705    6804.5449   -219.27063    78.213132     1681.907   -2784.4109 
 6795000    236.09768   -3941.4527   -3536.7893   -3941.4527            0     4946.214    17.143805    20.193138    20.915402    7240.6449    5619.4458    5152.8669    4066.3293     741.0092    438.85449    1026.6653   -3014.4821 
 6796000    260.92742   -3911.7977    -3464.577   -3911.7977            0    4704.4997    17.216514     20.27878    21.004107    7333.1618    5865.3929    2984.2542     5263.852   -652.63576    422.79019     1145.088   -2961.4466 
 6797000    250.62342   -3917.0356   -3487.4756   -3917.0356            0    6330.3098    17.154783    20.206068    20.928795    7254.5632    7534.4134    6480.8359    4975.6801   -1934.0433    674.20154    523.36435   -2817.7265 
 6798000    252.77144   -3909.0739   -3475.8323   -3909.0739            0    5091.9895    17.221866    20.285083    21.010636     7340.002    5623.2798    5231.8515    4420.8373    1566.2285   -526.08314    569.65457   -2930.7532 
 6799000    251.31288   -3886.2247    -3455.483   -3886.2247            0    5028.9004    17.173911    20.228599    20.952132    7278.8579    4297.1416    5522.9527    5266.6068    739.53104     1270.232     823.3679   -2921.6418 
 6800000    242.46875   -3879.6675   -3464.0843   -3879.6675            0     6721.913    17.138848    20.187299    20.909355    7234.3663    5767.1635    6339.8334    8058.7422    1729.2473   -1392.9793   -194.00147   -2754.8834 
 6801000    258.87025    -3913.488   -3469.7932    -3913.488            0    5205.4098    17.241438    20.308137    21.034515    7365.0564    5318.9346    5206.4499    5090.8449    614.95858    -799.9056   -240.21102   -2910.6708 
 6802000     245.1812   -3898.0062   -3477.7741   -3898.0062            0    3983.9373    17.288902    20.364043     21.09242    7426.0494    3769.3551    3452.8341    4729.6227   -40.940738    462.14255    726.18063   -3046.3084 
 6803000    253.94388   -3902.2019   -3466.9508   -3902.2019            0     5466.998    17.165628    20.218842    20.942026    7268.3303    5436.3167    4351.4453     6613.232   -566.20565   -594.30574    486.81197   -2887.4427 
 6804000    263.67383    -3866.898   -3414.9701    -3866.898            0    3747.8836    17.280223     20.35382    21.081832    7414.8715    4471.4079    4157.8995    2614.3433     353.0163    549.65337   -2732.8655   -3009.6803 
 6805000    251.90091   -3894.0883   -3462.3388   -3894.0883            0    4450.4667     17.27166    20.343734    21.071384    7403.8532    2953.0796    4830.9577    5567.3627    415.93251    571.69882   -621.22365   -2981.7881 
 6806000    260.25024   -3876.0087   -3429.9487   -3876.0087            0    5210.5196    17.253836    20.322739    21.049639    7380.9549    3171.4334    6158.4904     6301.635   -1305.7474   -819.55872   -476.64773   -2869.0693 
 6807000     263.3327   -3905.3098   -3453.9666   -3905.3098            0    5349.3698    17.193394    20.251547    20.975901    7303.6583    4635.2842    5864.6939    5548.1314   -292.77794   -9.9233573    638.09235   -2884.1712 
 6808000    240.36907   -3885.4727   -3473.4883   -3885.4727            0    5380.2178    17.242123    20.308943     21.03535    7365.9335    5766.8115    5188.9769     5184.865    406.26515    444.82558   -74.838888   -2895.5207 
 6809000    251.69113   -3910.6881   -3479.2981   -3910.6881            0    4311.2837    17.102349    20.144308    20.864826    7188.2449    4020.5347    4491.4935    4421.8229    483.15448    81.571491   -637.30482   -3027.3325 
 6810000    245.34475   -3945.4451   -3524.9326   -3945.4451            0    4034.1983    17.203243    20.263147    20.987916    7316.2162    3703.8276    3394.4497    5004.3175   -516.93134    279.50486    -653.1253   -3094.4856 
 6811000    253.83483   -3927.5209   -3492.4567   -3927.5209            0    5032.7071     17.16535    20.218515    20.941687    7267.9778    4304.1304    5270.9839    5523.0069   -453.98989   -1199.0768    847.23373   -2959.0099 
 6812000     251.5781    -3894.917   -3463.7207    -3894.917            0      3413.96     17.23046    20.295206    21.021121    7350.9968    1861.4495    4540.5194     3839.911    1269.0946    -394.0157    1305.8214   -3097.7212 
 6813000    253.07033    -3885.201   -3451.4471    -3885.201            0    6350.8834    17.191252    20.249024    20.973287    7300.9289    7482.0226    5244.0659    6326.5618   -1160.7174     380.9009   -680.82203   -2775.2269 
 6814000    258.41145   -3916.8025   -3473.8941   -3916.8025            0    4143.7597     17.18272    20.238975    20.962879    7290.0643    3172.9125    4636.4516    4621.9149     1520.513    1705.9748   -972.29299   -3033.3374 
 6815000    242.44114    -3931.886   -3516.3502    -3931.886            0    4109.8431    17.119617    20.164647    20.885892    7210.0402    4605.8838    3827.7554    3895.8901      22.1204   -138.35855   -1117.4966   -3084.1959 
 6816000    272.67407   -3912.8454   -3445.4914   -3912.8454            0      6593.82    17.159695    20.211854    20.934788    7260.7966    6716.0988    5384.2892    7681.0721     349.5678    10.308506   -32.441022   -2747.2634 
 6817000    242.70778   -3935.0702   -3519.0774   -3935.0702            0    2835.1436    17.225421     20.28927    21.014973    7344.5485    1827.6463    3796.6104    2881.1741    585.91749    502.15072   -305.33506   -3215.3975 
 6818000    245.12276   -3886.1157   -3465.9837   -3886.1157            0    5804.1323    17.161138    20.213553    20.936548    7262.6281    5506.5331    6142.2241    5763.6397    34.758115    316.56788   -646.13192   -2851.2217 
 6819000    234.13772   -3918.3681    -3517.064   -3918.3681            0    4739.0982    17.162142    20.214736    20.937773    7263.9034    4088.5752    5930.8263     4197.893   -582.77287   -80.333193   -1016.1508   -3015.0202 
 6820000    250.95148   -3900.9851   -3470.8629   -3900.9851            0    4210.9531    17.181017    20.236969    20.960801    7287.8966    3802.5572    3962.4755    4867.8266   -1223.4693   -227.60181   -1264.1593   -3023.2954 
 6821000    251.99861   -3917.1555   -3485.2385   -3917.1555            0    6522.4283     17.12528    20.171318    20.892802    7217.1984    6186.7748      7430.31    5950.2002   -761.04843    460.97729    203.99201   -2798.7175 
 6822000    260.73288   -3875.0957   -3428.2085   -3875.0957            0    5460.8511    17.177542    20.232876    20.956561    7283.4753    5010.3349      5500.28    5871.9382   -971.23705    1203.9448   -262.36645   -2848.1458 
 6823000    239.65944   -3940.1141   -3529.3461   -3940.1141            0    5309.6553    17.188838    20.246181    20.970342    7297.8535    3909.8326    7315.6041    4703.5292    148.17876    1374.3348    39.961642   -2964.2304 
 6824000    266.72142   -3954.5617   -3497.4103   -3954.5617            0    4888.3353    17.197887    20.256839    20.981382    7309.3851    6210.9018    6426.9377    2027.1663    1241.8863   -277.12122     1031.881   -2976.3143 
 6825000    251.33021   -3929.1581   -3498.3868   -3929.1581            0    6068.8235    17.208527    20.269372    20.994363    7322.9608     8038.431    4366.3919    5801.6478   -193.02364   -234.34984    -15.69198   -2850.2493 
 6826000     237.7487   -3915.4593   -3507.9662   -3915.4593            0    7245.0423    17.196311    20.254983    20.979459    7307.3757    7962.0314    7549.7742    6223.3213   -844.43312   -267.94008    115.27195   -2735.8578 
 6827000     245.2493   -3939.7077   -3519.3588   -3939.7077            0    5401.0077    17.176343    20.231464    20.955099    7281.9508    4998.6229    6161.9591    5042.4411    304.09028   -757.77747   -711.49428   -2945.7729 
 6828000     255.9808   -3876.7353    -3437.993   -3876.7353            0    6364.5708    17.135581    20.183451    20.905368    7230.2293    6939.2109     5376.694    6777.8077   -1762.6582   -896.97482   -1174.7675   -2766.8778 
 6829000    255.77476   -3945.5546   -3507.1655   -3945.5546            0    2962.1583    17.239697    20.306086    21.032391    7362.8256    5702.7766    1810.7649    1372.9333   -1963.8818    42.564453   -387.61479   -3189.0911 
 6830000    258.12631   -3883.6737    -3441.254   -3883.6737            0    7332.5239    17.146402    20.196196     20.91857    7243.9355    5935.9717    7399.3143    8662.2858   -2194.1127   -616.85142   -346.89931   -2666.6068 
 6831000    253.75235   -3931.1795   -3496.2567   -3931.1795            0    4610.9729    17.180757    20.236663    20.960484    7287.5657    4377.9882    6074.0547     3380.876    -496.1925    843.80329   -337.21781   -3006.1948 
 6832000    240.75414   -3925.1132   -3512.4688   -3925.1132            0    5878.0768    17.107532    20.150413    20.871149    7194.7821    6346.5172    6319.4385    4968.2747   -1347.9728   -526.91312    710.19176   -2895.6909 
 6833000    246.65729   -3923.5857   -3500.8235   -3923.5857            0    6295.2551    17.132838     20.18022    20.902022    7226.7576    5718.9283    5971.3188    7195.5181   -200.64611     1469.835   -698.40362   -2837.3361 
 6834000    257.52882   -3869.7842   -3428.3887   -3869.7842            0    6152.1324    17.139783    20.188401    20.910496    7235.5503    5564.9328    6107.2227    6784.2417   -682.65252    525.47501    525.28295   -2779.1967 
 6835000     243.2302   -3902.0616   -3485.1734   -3902.0616            0       6909.6    17.173975    20.228674    20.952209    7278.9383    6191.1207    7123.4829    7414.1964    131.13128    -2077.061   -993.90795   -2751.6789 
 6836000    249.11515   -3919.0731   -3492.0982   -3919.0731            0     6092.266    17.285872    20.360474    21.088723    7422.1454    7206.8431    5020.0375    6049.9174   -120.55005    808.59056   -1592.9488   -2832.6447 
 6837000    241.11348   -3902.7155   -3489.4552   -3902.7155            0    4954.3123    17.235913    20.301628    21.027773    7357.9771    5728.1348    5382.9047    3751.8974     480.2696    299.90268   -794.60573   -2957.8152 
 6838000    257.73379   -3893.1099    -3451.363   -3893.1099            0    5113.6776     17.37735    20.468223    21.200327    7540.6063    4200.5369    5482.5584    5657.9376    1023.7988    171.42589   -288.90786   -2889.0016 
 6839000    241.07158   -3939.5714    -3526.383   -3939.5714            0    5220.3718    17.297448    20.374109    21.102846    7437.0671    4912.4543    4452.0647    6296.5966   -708.17071    -564.2864    242.93038    -2960.171 
 6840000    250.82723   -3914.4076   -3484.4983   -3914.4076            0    5379.7668    17.259148    20.328996     21.05612    7387.7746    5829.6968    6389.2317    3920.3717    1218.7179   -763.03984      1594.23   -2904.8655 
 6841000    237.57193   -3933.9243   -3526.7342   -3933.9243            0    3735.9198    17.305625    20.383741    21.112823    7447.6197    3580.1552    3535.4837    4092.1205   -212.42302   -142.87467    290.31189   -3120.9539 
 6842000    251.94959   -3910.5521   -3478.7192   -3910.5521            0    4651.5523    17.279655    20.353151    21.081138    7414.1397     5456.225    2875.2858    5623.1461   -278.26293    300.73807   -1384.5412   -2975.7579 
 6843000    247.80858   -3917.4048   -3492.6694   -3917.4048            0    5819.1148    17.214186    20.276038    21.001267    7330.1876    4860.7415      6371.25    6225.3529    1051.9728    708.38466   -910.16585    -2870.587 
 6844000    248.90185   -3908.6916   -3482.0823   -3908.6916            0    4055.8182    17.248463    20.316411    21.043085    7374.0626    3597.6229    4582.1424    3987.6893   -97.739042    561.17817    353.54002   -3045.9069 
 6845000    258.69649   -3925.1868   -3481.7899   -3925.1868            0    7350.3268     17.17838    20.233863    20.957584    7284.5416    9009.5792    6766.6711      6274.73    2222.3462    1048.3512     1153.771   -2700.9091 
 6846000    240.95839    -3839.947   -3426.9526    -3839.947            0    4476.4672    17.210241    20.271391    20.996454    7325.1488    3267.2799    4686.4934    5475.6284    710.14221    1019.5531    -101.8503   -2948.7326 
 6847000    257.11899   -3886.5479   -3445.8547   -3886.5479            0    5814.2709    17.129647    20.176461    20.898129    7222.7203    6870.2929    5748.4656    4824.0542    1179.7109    608.77316   -1342.8176   -2833.4029 
 6848000    237.83237   -3901.0751   -3493.4385   -3901.0751            0    5247.9759    17.150419    20.200928    20.923471    7249.0283    5125.5206    7018.7142    3599.6929    1274.6298    545.59049   -805.39936   -2938.6244 
 6849000     255.5455   -3894.4911   -3456.4949   -3894.4911            0     5478.071    17.155681    20.207126     20.92989    7255.7023    6167.1204    5380.0314    4887.0613    1545.8775    832.96564   -182.30241    -2876.822 
 6850000     252.8293   -3912.8024   -3479.4617   -3912.8024            0    5972.0225    17.204169    20.264239    20.989046    7317.3984    5485.8612     6561.638    5868.5684     806.6134   -629.23692     608.3111   -2842.1469 
 6851000     253.5336    -3923.093   -3488.5451    -3923.093            0    5113.9049    17.244181    20.311368    21.037861    7368.5721    4425.7072    5363.5623    5552.4452   -857.06931     988.7272    91.231709   -2938.9892 
 6852000    259.90125   -3907.6908    -3462.229   -3907.6908            0    4727.5129    17.265316    20.336262    21.063645    7395.6982    6190.0026    4029.0358    3963.5003   -1932.8087   -1645.8446   -953.45249   -2952.3257 
 6853000    263.78468   -3921.1251   -3469.0072   -3921.1251            0    5007.8372     17.21884    20.281519    21.006945    7336.1344    5284.2799    2608.1877     7131.044   -810.38608    579.01208    387.16294   -2933.2187 
 6854000    247.20934   -3908.9444    -3485.236   -3908.9444            0    5636.6768    17.222705    20.286072     21.01166    7341.0757     6290.317    5137.7871    5481.9262   -1208.8806    1787.8871   -117.08885   -2881.7618 
 6855000    269.00673   -3914.6186   -3453.5503   -3914.6186            0    4288.9498     17.27526    20.347975    21.075777    7408.4845    4421.8057    4425.8441    4019.1997   -273.08177   -431.21002     216.1903   -2990.1501 
 6856000     245.3474   -3935.2803   -3514.7632   -3935.2803            0    5532.4838    17.252299    20.320929    21.047764     7378.983    8023.9219    4316.0668    4257.4627   -71.988679   -297.98705   -395.78364   -2919.3855 
 6857000    241.66277   -3906.2372   -3492.0354   -3906.2372            0     6477.482    17.175542     20.23052    20.954121    7280.9317    7252.1838    7364.3723    4815.8898   -866.28985    9.5324875    336.82989   -2804.2245 
 6858000    252.16904   -3902.7165   -3470.5074   -3902.7165            0    4268.4177    17.294047    20.370102    21.098696    7432.6804    4702.0665    3941.1716     4162.015    768.45349    641.88471   -778.59167   -3007.8194 
 6859000    258.79087   -3905.0519   -3461.4932   -3905.0519            0    5589.2816    17.133964    20.181546    20.903396    7228.1828    6848.1887      4965.43    4954.2262   -449.91704     373.7283   -117.45504   -2872.2956 
 6860000    236.76546   -3871.6467   -3465.8388   -3871.6467            0    5576.9689    17.257667    20.327252    21.054314    7385.8734    5065.2652    6605.4999    5060.1416    873.12859    -72.21123   -68.247344   -2865.1134 
 6861000    250.44198   -3914.3126   -3485.0636   -3914.3126            0    4790.5377    17.292182    20.367906    21.096422    7430.2768    4754.7154    3915.3294    5701.5682   -2.8644894    1327.6058     306.0139   -2965.9468 
 6862000      257.977   -3948.8932   -3506.7294   -3948.8932            0    3706.1709    17.385529    20.477856    21.210304    7551.2579    3852.0108    3306.5659     3959.936    7.4596086   -1162.1144    131.29299   -3098.5786 
 6863000     240.6096   -3922.0422   -3509.6455   -3922.0422            0    3812.0875    17.313762    20.393324    21.122749    7458.1293    5973.6142    3605.1695    1857.4789   -1735.5819    416.99752    362.41532    -3095.008 
 6864000    258.57911   -3924.3764   -3481.1806   -3924.3764            0    4323.5568    17.299479    20.376501    21.105324    7439.6868    4074.5112    4163.5018    4732.6575    533.90219   -107.07556    109.25115   -3012.0739 
 6865000    253.72028   -3909.2917   -3474.4238   -3909.2917            0     6424.608    17.246827    20.314484    21.041088    7371.9635     7888.823    5838.7137    5546.2874   -477.76301   -332.87008   -649.19763   -2783.6979 
 6866000    248.52104   -3949.4632   -3523.5067   -3949.4632            0    5441.7723    17.244766    20.312057    21.038575    7369.3219    3557.1753    5123.1197    7645.0219   -207.17538    908.27046    -874.1398   -2938.6576 
 6867000    243.41837   -3953.3493   -3536.1386   -3953.3493            0    5594.3353    17.239599    20.305971    21.032271    7362.6999    5658.2338    4249.9395    6874.8326     1227.565    781.75728   -896.55891   -2935.4333 
 6868000    242.86434    -3941.693   -3525.4319    -3941.693            0    5718.4069    17.216095    20.278286    21.003596    7332.6265    4819.5066    4305.3317    8030.3824    11.184655   -1224.4784    104.98106   -2913.9121 
 6869000    252.30155   -3916.1692    -3483.733   -3916.1692            0     3451.179    17.276996    20.350019    21.077894    7410.7176    2841.3922    4217.2594    3294.8853   -409.90652    806.72068    75.096724   -3110.7375 
 6870000    244.64369   -3932.5639    -3513.253   -3932.5639            0    4864.8707    17.245827    20.313306    21.039868    7370.6813    4365.0409     5238.192    4991.3793    644.88621    127.82969   -717.47999   -2990.3094 
 6871000    251.28389   -3931.3721   -3500.6801   -3931.3721            0    5714.6277    17.228687    20.293118    21.018958    7348.7278     3590.558     6968.941     6584.384     411.9969    1383.0414    1376.7207   -2888.2225 
 6872000    254.17549   -3912.5886   -3476.9405   -3912.5886            0    4740.7608     17.23151    20.296443    21.022402    7352.3403     4873.042    4599.9818    4749.2588   -102.07766    778.74885    2088.0583   -2968.6061 
 6873000    239.45306   -3930.8299   -3520.4156   -3930.8299            0    5148.4281    17.248614    20.316589    21.043269    7374.2563    6066.7427    3137.3198    6241.2219   -404.61306   -309.05671    418.50969   -2966.7229 
 6874000     256.4571   -3905.4526    -3465.894   -3905.4526            0    5138.4058    17.167123    20.220603     20.94385    7270.2297    5093.4993    5777.4033    4544.3148   -757.52643    569.51008   -941.53159   -2921.0747 
 6875000    266.37178   -3920.6363   -3464.0842   -3920.6363            0    5741.4594    17.213222    20.274902    21.000091    7328.9559    6228.5014    5505.9287     5489.948    1731.3748     1290.689    225.62639   -2850.4065 
 6876000    247.75298   -3924.2197   -3499.5796   -3924.2197            0    5976.1354    17.245412    20.312818    21.039363    7370.1503    5724.5078    4425.7272    7778.1711   -613.27875   -400.67137    329.67789   -2857.2282 
 6877000    257.94287   -3950.7767   -3508.6714   -3950.7767            0    3652.1157    17.331831    20.414608    21.144793    7481.5044    3242.7602    4788.3629    2925.2239    332.79083   -2540.2036   -762.17304   -3110.1888 
 6878000    240.00376   -3901.1104   -3489.7521   -3901.1104            0    4579.6213    17.236952    20.302852    21.029041    7359.3083    5107.0532    5036.1939    3595.6167   -788.87568    624.79196    858.67032   -2998.2307 
 6879000    253.61447   -3909.3189   -3474.6324   -3909.3189            0    6761.4597    17.184828    20.241457     20.96545    7292.7469    6946.8076    5781.7909    7555.7806    565.73342    1893.2439   -1377.1278   -2755.5022 
 6880000    241.84945   -3937.4524   -3522.9307   -3937.4524            0    6830.7561    17.193521    20.251696    20.976055    7303.8197    7525.2775    7760.0404    5206.9504   -116.55579    1294.8658   -481.88797   -2795.3273 
 6881000    243.31138   -3957.8816   -3540.8542   -3957.8816            0    5588.9289     17.19447    20.252814    20.977213    7305.0292    6280.9087    4004.2904    6481.5874   -601.28412   -206.96313    -198.4097   -2945.4301 
 6882000    252.23014   -3895.6263   -3463.3125   -3895.6263            0    5817.4582    17.211562    20.272946    20.998065    7326.8355    6755.3402    5801.7053     4895.329    1278.8644   -708.34997    571.24222   -2841.6916 
 6883000     236.5268   -3900.2819    -3494.883   -3900.2819            0    4851.8024    17.247202    20.314926    21.041547    7372.4455    5313.3103    5523.5936    3718.5032    1069.7417    1753.3029     859.5588   -2973.2194 
 6884000    238.21657   -3949.3108   -3541.0158   -3949.3108            0    5176.5323    17.253931    20.322852    21.049755    7381.0773    4124.3744    6713.0455    4692.1769    107.26343    98.381202   -1053.0976   -2983.7857 
 6885000    240.92561   -3945.1522   -3532.2139   -3945.1522            0    4513.1583    17.208458     20.26929    20.994278    7322.8718    5647.5012    3571.8443    4320.1293   -1068.2751    345.02418   -756.74408   -3050.2241 
 6886000    246.58537   -3910.2047   -3487.5658   -3910.2047            0    4131.7149    17.311386    20.390526     21.11985    7455.0589    4113.7305    4891.7278    3389.6866    424.14386    515.70637   -623.34234   -3038.3477 
 6887000    239.01441   -3919.0886   -3509.4261   -3919.0886            0    4768.7105    17.271359     20.34338    21.071018    7403.4666    4148.4934    4816.7803     5340.858   -469.18245   -33.779337    1078.7562   -2994.5391 
 6888000    249.77704   -3903.3393     -3475.23   -3903.3393            0    6244.5334    17.225823    20.289744    21.015464    7345.0631    6726.0333    5897.0259     6110.541   -509.42718      1377.19    840.19596   -2806.3142 
 6889000    224.36688   -3933.9496   -3549.3925   -3933.9496            0     3461.403    17.318678    20.399115    21.128747    7464.4846    3239.5443    2852.9067    4291.7581   -129.62342     400.0613   -82.554188   -3172.5777 
 6890000    238.86867   -3899.9677   -3490.5549   -3899.9677            0    3927.8725    17.326385    20.408193     21.13815    7474.4543    2805.0516    4546.0626    4432.5034   -710.47591    1066.3257   -1249.7285   -3062.3884 
 6891000    243.41529   -3896.2452   -3479.0397   -3896.2452            0    4419.3248    17.232163    20.297212    21.023199    7353.1768    5903.4873    5008.0991    2346.3881    210.84506    429.97163     147.7288   -3005.1178 
 6892000    245.24234   -3910.3459    -3490.009   -3910.3459            0    4665.6137    17.279867    20.353401    21.081397    7414.4129    4503.8375    4328.6603    5164.3432   -505.31606   -323.67663    1011.1109   -2985.5086 
 6893000    251.05972   -3929.6984   -3499.3907   -3929.6984            0    6132.9512    17.212118    20.273601    20.998744    7327.5455    5880.6706    4832.6361    7685.5468    2136.4173   -734.85244     223.9208   -2843.9945 
 6894000    248.06433   -3922.9566   -3497.7828   -3922.9566            0    3232.1692    17.288083    20.363078    21.091421    7424.9937    932.05041    4190.4098    4574.0475    1160.9469   -1620.3323    412.36436   -3147.7844 
 6895000    260.14314   -3905.6708   -3459.7944   -3905.6708            0    6601.7443    17.221858    20.285073    21.010626    7339.9917    5988.1946    6836.7865    6980.2516    -673.4183    -1049.233    576.70023   -2753.1024 
 6896000    240.40162   -3925.3394   -3513.2992   -3925.3394            0    4110.3741    17.318041    20.398364    21.127969      7463.66    3707.5968    5129.8286    3493.6969    1064.8822   -1246.0576    438.51096   -3065.8857 
 6897000     237.7512   -3914.9328   -3507.4354   -3914.9328            0    5108.1749    17.272912    20.345208    21.072912    7405.4633    2876.9126    6454.3588    5993.2533    53.996446   -762.52325    1959.0455   -2955.7469 
 6898000    250.84526   -3944.4315   -3514.4913   -3944.4315            0    5968.4893    17.247482    20.315256    21.041888    7372.8044    5615.8921    4674.7436    7614.8321    -670.7918   -1371.4568    1278.9294   -2872.7308 
 6899000    248.13661   -3873.8447    -3448.547   -3873.8447            0    4954.0793    17.319546    20.400137    21.129805     7465.606    1466.4589    6671.2986    6724.4804    192.63332    722.96184   -197.87912   -2909.1558 
 6900000    251.46701   -3908.3025   -3477.2967   -3908.3025            0    6277.5759    17.198983    20.258131    20.982719    7310.7834    6285.1964     5716.609    6830.9222   -197.76001    144.11818    681.37184   -2807.9798 
 6901000    244.62803   -3884.2018   -3464.9177   -3884.2018            0    5206.9229    17.257072    20.326551    21.053587     7385.109    6750.4768    3139.6995    5730.5924   -490.69786   -1052.9817   -83.142202     -2904.11 
 6902000    231.11213   -3916.9105   -3520.7922   -3916.9105            0    4465.0639    17.223795    20.287355     21.01299    7342.4692    3450.0414    5151.9072    4793.2432   -1447.8308    293.63505   -17.300803   -3042.6625 
 6903000    257.32615   -3906.0046   -3464.9564   -3906.0046            0    4647.2345    17.231311    20.296209    21.022159    7352.0858    4585.7996    4923.0874    4432.8166    333.38445    129.39848    163.62122   -2966.6677 
 6904000    244.58011   -3900.0245   -3480.8226   -3900.0245            0    6528.0973    17.226991     20.29112    21.016889    7346.5576    5932.4051    6480.0285    7171.8582    750.03471   -795.29933   -31.460759   -2781.3892 
 6905000    261.64959   -3937.2383   -3488.7798   -3937.2383            0    4498.9988    17.270127    20.341929    21.069515    7401.8829    3727.8793    4420.1676    5348.9494    1100.8176    107.23187    31.940771    -3003.118 
 6906000     235.2182   -3947.2967   -3544.1407   -3947.2967            0    6374.1991    17.192091    20.250013    20.974311    7301.9983    5585.0277     5500.993    8036.5766   -1134.4599    944.37968    173.08891   -2865.3385 
 6907000    249.44279   -3938.2616   -3510.7252   -3938.2616            0    7439.0086    17.185987    20.242823    20.966865    7294.2234     6764.485    6671.8123    8880.7283    101.38961    -957.7306   -682.93024   -2719.3727 
 6908000    255.65708   -3940.6875      -3502.5   -3940.6875            0    6604.0378    17.243993    20.311146    21.037632    7368.3311    6921.8351    6715.4342    6174.8441    -165.2738    681.99446    234.77031    -2792.833 
 6909000    253.28888   -3923.6698   -3489.5414   -3923.6698            0    7069.4079     17.20734    20.267974    20.992915    7321.4457    8417.5354    6631.1327    6159.5557   -1608.3887   -905.06233   -157.26285   -2734.6999 
 6910000    253.65716   -3912.6634   -3477.9037   -3912.6634            0    5849.3072    17.223428    20.286923    21.012542    7341.9997    6100.5323    5818.7735    5628.6159   -1341.3105   -22.253018    1251.6859    -2851.586 
 6911000    249.05561   -3952.6392   -3525.7665   -3952.6392            0    5100.2225    17.205786    20.266143    20.991018    7319.4612    5836.2743    5525.8823    3938.5108   -1476.2327    -723.5466   -500.40893   -2981.3339 
 6912000    245.56295   -3939.5017   -3518.6152   -3939.5017            0    4691.3055    17.269966    20.341739    21.069318    7401.6753    5787.5575    5262.9118    3023.4472   -1027.9996    618.30274   -1487.7548   -3012.2083 
 6913000    249.16343   -3917.5076     -3490.45   -3917.5076            0    3452.6422    17.289234    20.364434    21.092826    7426.4777    1970.5772    4358.2777    4029.0717   -229.75067   -368.79846   -612.19586   -3116.5028 
 6914000    246.41212   -3919.3586   -3497.0167   -3919.3586            0    7245.0252    17.187449    20.244544    20.968647    7296.0844    5660.8119     7454.439    8619.8247    474.96135   -1339.9489    524.13332   -2726.1032 
 6915000    249.21004   -3921.3942   -3494.2568   -3921.3942            0    4945.4678     17.24907    20.317126    21.043825    7374.8404    4620.8283    5707.0185    4508.5567    706.50632    1226.9325   -452.09109   -2962.3495 
 6916000    257.00966   -3912.8243   -3472.3186   -3912.8243            0    6220.7559    17.231913    20.296918    21.022894    7352.8564    7108.6365    5591.8103    5961.8209    1336.1019    528.02369   -1181.7059   -2805.2428 
 6917000    236.96216   -3927.5129   -3521.3679   -3927.5129            0    5731.9181    17.191514    20.249333    20.973607    7301.2626     4433.714    4745.7212     8016.319   -382.86947    -326.3303   -1094.4502   -2911.0251 
 6918000    259.68811   -3896.0268   -3450.9303   -3896.0268            0    5452.7679    17.253208       20.322    21.048874    7380.1498    8288.4394    3959.9877    4109.8764   -813.44311    1609.9326   -8.7984251   -2864.0384 
 6919000    254.22575   -3891.5912    -3455.857   -3891.5912            0    4593.1996    17.305295    20.383352     21.11242    7447.1932    6698.6778    2882.2031     4198.718   -1726.1184    1171.4344    100.87038   -2956.9911 
 6920000    261.86841   -3916.9231   -3468.0896   -3916.9231            0     6704.623    17.224716     20.28844    21.014113    7343.6466    8009.3419    5583.7414    6520.7857     128.1431    825.66992   -920.01337   -2750.0275 
 6921000    243.13806   -3899.5968   -3482.8665   -3899.5968            0    5514.7028    17.274852    20.347494    21.075279    7407.9593    5916.5377    3859.5667    6768.0039   -1255.3316   -1921.3563    1516.7742   -2887.0719 
 6922000    250.68206   -3912.8585    -3483.198   -3912.8585            0    4167.9369    17.310756    20.389784    21.119082    7454.2458    5102.7514    2064.3409    5336.7184    313.81403   -1022.9045   -995.71711   -3030.0911 
 6923000     248.3054    -3919.939    -3494.352    -3919.939            0    5561.6969    17.272234     20.34441    21.072085    7404.5918    7405.4707     4252.073    5027.5469    948.11891    1147.3254   -4.1349618   -2893.7534 
 6924000    248.74358   -3912.8524   -3486.5144   -3912.8524            0    6619.8984    17.218373    20.280968    21.006374    7335.5366    5981.0462    5852.9642    8025.6849   -1188.4853   -257.60306   -48.656177   -2778.3092 
 6925000    251.97225   -3903.3622   -3471.4904   -3903.3622            0    5658.8577    17.281759    20.355629    21.083705    7416.8482    5979.8569    5226.2819    5770.4343    243.67068   -672.97386    -171.5278   -2859.3881 
 6926000    241.06427   -3911.1638   -3497.9878   -3911.1638            0    5845.4642    17.199107    20.258276     20.98287     7310.941    5614.4482    5066.9806    6854.9636   -523.92368   -115.70291   -498.93027   -2874.7294 
 6927000      270.549   -3924.0366   -3460.3249   -3924.0366            0    7120.0613    17.220354    20.283302    21.008791    7338.0689    8005.5443    7200.7593    6153.8804   -1054.6532     577.4999   -55.398602   -2698.3487 
 6928000    248.40358   -3899.1367   -3473.3815   -3899.1367            0    3517.7226    17.356039    20.443121    21.174327    7512.8967    4492.1417    2554.9849    3506.0413    649.65491    284.62727   -256.52576    -3087.952 
 6929000    253.66831   -3937.3395   -3502.5607   -3937.3395            0    4892.5841     17.31958    20.400177    21.129847    7465.6503    5062.3201     4773.462    4841.9703    248.05682    1099.6348   -849.14307   -2969.8618 
 6930000    257.72332   -3949.6905   -3507.9616   -3949.6905            0    4971.6121    17.265484     20.33646    21.063851    7395.9147    5440.7301    5299.8544    4174.2516    748.75767   -218.07408    77.694808   -2971.7144 
 6931000    248.79882   -3934.9307   -3508.4981   -3934.9307            0    3914.7326    17.263847    20.334531    21.061853    7393.8103    3909.0634    3489.3795    4345.7548   -545.60419   -885.22935   -1511.1131    -3086.368 
 6932000    241.57913   -3879.2385   -3465.1801   -3879.2385            0     6177.142     17.19391    20.252155    20.976531    7304.3163    6192.8327    5184.0217    7154.5716   -1373.4598   -496.56137    517.52974   -2807.1541 
 6933000    239.00485   -3897.7423   -3488.0962   -3897.7423            0    4678.5058    17.175096    20.229995    20.953577    7280.3644     6278.684    3061.3146    4695.5188   -1066.9735      442.956    520.45169   -2991.3481 
 6934000    236.91308   -3919.0442   -3512.9833   -3919.0442            0    3515.5553    17.225261    20.289083    21.014779    7344.3446     3434.905    5329.1753    1782.5856    396.55205    -428.7123   -323.75747   -3136.4331 
 6935000    247.10727   -3898.1898   -3474.6564   -3898.1898            0    5892.7578    17.183727    20.240161    20.964107    7291.3458    5989.6762    4724.0709    6964.5264   -1760.9325   -75.208685    -562.7187   -2848.0394 
 6936000    250.82887   -3905.4966   -3475.5845   -3905.4966            0    5904.4751    17.220412     20.28337    21.008862    7338.1431    6057.8143    6376.4589     5279.152    575.62563    368.22051   -1919.5625   -2843.6918 
 6937000    252.89863   -3950.2938   -3516.8342   -3950.2938            0    3583.5201    17.204652    20.264807    20.989635    7318.0142    3544.4751     4859.083    2347.0021    1425.0298   -767.97864   -276.60025   -3134.3804 
 6938000    264.18817   -3916.9241   -3464.1146   -3916.9241            0    5931.9375    17.148267    20.198393    20.920845    7246.2995    4797.7076    3906.6258     9091.479   -867.43484    227.67323    39.248224   -2837.2284 
 6939000     245.4545   -3937.3889   -3516.6883   -3937.3889            0    4490.4949    17.090159     20.12995    20.849955     7172.886    4766.3484    4484.3001    4220.8361    1728.2725   -1050.3204   -783.89763   -3046.9413 
 6940000    258.13191   -3894.3183    -3451.889   -3894.3183            0    5002.5764    17.214573    20.276493    21.001738    7330.6811    5937.6555    5877.7062    3192.3676   -1945.7378    311.55709   -200.77998   -2917.0613 
 6941000    248.80428   -3900.9996   -3474.5575   -3900.9996            0    4325.1337    17.226982    20.291109    21.016878    7346.5455    4080.2857    4423.5847    4471.5306    1258.1386     1374.225   -1385.3903   -3011.1548 
 6942000    248.09324    -3907.688   -3482.4647    -3907.688            0    6064.7692    17.135133    20.182923    20.904822    7229.6627    5299.5729    6049.6984    6845.0364   -1512.1544    206.17716   -1713.4755   -2843.0123 
 6943000    251.16834   -3925.0298   -3494.5359   -3925.0298            0    5232.6397    17.205414    20.265706    20.990565    7318.9874    4858.7782    6292.0089    4547.1322    782.47189    342.28855   -544.80321   -2936.0043 
 6944000    265.68608   -3925.8185   -3470.4416   -3925.8185            0    4548.9789    17.245413    20.312818    21.039363    7370.1505    4945.1047     5204.491    3497.3412    2824.6604    220.99359   -426.14931   -2981.4897 
 6945000    248.14769   -3912.2187   -3486.9021   -3912.2187            0    5569.3375    17.211252    20.272581    20.997687    7326.4393    5029.8169    7150.3348    4527.8609   -932.06384   -500.38938    865.75962   -2891.8262 
 6946000    251.94249   -3928.6279   -3496.8071   -3928.6279            0    5230.9016    17.269903    20.341664    21.069241    7401.5942    4877.0247    4940.9624    5874.7177   -724.95547   -937.10155    663.58241   -2932.1592 
 6947000    238.93673   -3893.1283   -3483.5989   -3893.1283            0    7084.4878    17.156797     20.20844    20.931252    7257.1182    7527.2087    7766.1169    5960.1376    1059.9808   -404.21698   -84.300829   -2733.7935 
 6948000    254.65847   -3937.5074   -3501.0315   -3937.5074            0    3404.8129    17.247704    20.315517    21.042159    7373.0888    5507.4969     2776.944    1929.9977   -721.45912   -96.898105    112.07907   -3134.9156 
 6949000    250.94455    -3924.383   -3494.2726    -3924.383            0    6237.8965     17.21594    20.278103    21.003406    7332.4277    6350.8026    7275.5823    5087.3047    1031.1228   -518.95237   -345.95545   -2827.2173 
 6950000    249.74095   -3918.2439   -3490.1965   -3918.2439            0    4615.7519    17.249478    20.317607    21.044323    7375.3646    7091.5214    3842.1822     2913.552    744.08352    240.62343    279.03201   -2993.7164 
 6951000    251.98904   -3919.6852   -3487.7846   -3919.6852            0    5463.4192    17.243615    20.310701     21.03717    7367.8458    4132.9866    7617.3126    4639.9586    658.95424    969.91102    149.63907   -2900.7267 
 6952000    233.97697   -3870.9872   -3469.9587   -3870.9872            0     4130.798    17.213059    20.274709    20.999891    7328.7471     3292.031    5447.5984    3652.7647    -298.0763    1396.8414   -1677.9111   -3028.4497 
 6953000    241.98289   -3923.7377   -3508.9874   -3923.7377            0    7792.4038    17.104503    20.146845    20.867454    7190.9616    6433.9029    6535.1188     10408.19    384.89415   -644.44783   -757.48277   -2691.7762 
 6954000    248.96538    -3945.698   -3518.9798    -3945.698            0    5837.5079    17.127163    20.173536    20.895099    7219.5793    6508.4866    6276.4485    4727.5886    576.78401    373.19954   -1012.1232   -2904.3477 
 6955000    233.43069   -3925.0872    -3524.995   -3925.0872            0    2419.1512    17.241518    20.308231    21.034612    7365.1588    1906.6088    2116.7911    3234.0537   -641.72894   -1572.5185   -1271.5212    -3265.146 
 6956000    241.83237   -3917.4363   -3502.9439   -3917.4363            0    5009.8783    17.247535    20.315318    21.041952    7372.8721    6028.5587    3604.5146    5396.5618   -161.05357   -634.76192     930.2803   -2964.2529 
 6957000     246.3862   -3906.2099   -3483.9124   -3906.2099            0    5062.5874    17.162636    20.215318    20.938376    7264.5308    4705.2221    4058.5284    6424.0116   -161.31029   -836.08789    269.28704   -2947.5529 
 6958000      245.042   -3887.4221   -3467.4285   -3887.4221            0    5210.2061    17.205964    20.266353    20.991236    7319.6892    6838.3086    4684.3566    4107.9531   -774.92417   -201.69214    269.05367   -2911.2381 
 6959000    245.17953    -3904.149   -3483.9197    -3904.149            0    6661.1704    17.160658    20.212988    20.935963    7262.0192    6337.4355    6449.7426     7196.333   -339.95717    -541.9108    81.640932   -2778.4411 
 6960000    255.74231    -3889.384   -3451.0505    -3889.384            0    5803.8689    17.208388    20.269208    20.994193    7322.7827    4290.9374    7196.3728    5924.2964    62.214998   -2029.2324    562.92932   -2831.2247 
 6961000    252.13709   -3926.9811   -3494.8267   -3926.9811            0    5450.3615    17.183159    20.239492    20.963414    7290.6228     5927.547      4607.67    5815.8674    267.25265   -945.22492    1472.4422   -2915.3102 
 6962000    246.82565   -3894.4986   -3471.4479   -3894.4986            0     5903.494    17.183211    20.239553    20.963477    7290.6887     6035.526    6208.8945    5466.0613   -72.725318    371.55553      684.501   -2843.7458 
 6963000    255.05419   -3912.3271   -3475.1729   -3912.3271            0    5224.4876    17.213289    20.274981    21.000172    7329.0413    5326.9072    5980.4283    4366.1274   -593.19771   -49.422746    517.82143   -2916.7454 
 6964000    246.25925   -3922.5385   -3500.4586   -3922.5385            0     4725.289    17.173527    20.228146    20.951663    7278.3689    6557.3097    4788.9734    2829.5839     -694.492    49.973237   -187.62857   -2998.8807 
 6965000    235.91292   -3948.0105   -3543.6639   -3948.0105            0      4402.12    17.209063    20.270003    20.995017    7323.6447    3507.9683    4838.7961    4859.5957    810.46853    36.572124    1174.6709   -3073.4829 
 6966000     249.2838   -3922.4496   -3495.1857   -3922.4496            0    5059.6055    17.107382    20.150236    20.870966    7194.5932    4656.7816    6482.3738     4039.661   -821.56104    -646.9699   -739.72506   -2964.3028 
 6967000     245.0823   -3922.8563   -3502.7936   -3922.8563            0     5874.368    17.109955    20.153267    20.874105    7197.8399     7453.308    5446.6141    4723.1818   -187.89994    167.81403    760.92651   -2886.1429 
 6968000    256.73937   -3908.2811   -3468.2386   -3908.2811            0    6052.0608    17.118662    20.163523    20.884728    7208.8346    5580.7969     6432.456    6142.9294   -344.09162    415.42865   -1252.7691   -2831.9645 
 6969000    249.35076   -3916.9495   -3489.5708   -3916.9495            0    4335.4866     17.23206    20.297091    21.023073    7353.0445     2878.607    5409.7758    4718.0771   -358.82406   -1429.3263    852.96153   -3024.6479 
 6970000    244.13499   -3939.5806   -3521.1415   -3939.5806            0    4017.5167    17.198836    20.257957     20.98254     7310.596    4026.2226    3734.5232    4291.8045   -294.31685    920.04394   -189.05581   -3092.8038 
 6971000    256.37682   -3914.2778   -3474.8567   -3914.2778            0    5459.3727    17.155816    20.207285    20.930055    7255.8737    5217.0478    5993.5778    5167.4925   -1103.5381   -196.86001   -595.40449   -2897.1487 
 6972000    252.85073   -3945.9737   -3512.5962   -3945.9737            0    4330.5697    17.207447    20.268099    20.993045    7321.5813    4530.6605    4565.3453    3895.7035    145.44205   -123.69816   -79.808143   -3050.1877 
 6973000    242.85182   -3929.7899   -3513.5502   -3929.7899            0    2559.1761    17.232035    20.297061    21.023042    7353.0122    2634.0799    3830.8539    1212.5945    1028.9828   -447.63723    1493.7397    -3239.114 
 6974000    254.28325   -3928.2802   -3492.4474   -3928.2802            0    5550.4512    17.148862    20.199094    20.921572    7247.0541    7175.7249    4399.9318     5075.697   -1111.1603    904.83841    884.31929   -2905.8155 
 6975000     250.6915   -3926.7164   -3497.0398   -3926.7164            0    4567.3488    17.215638    20.277748    21.003039    7332.0428    4725.0063    3660.5532    5316.4869    -337.1293    32.157411   -404.37121   -3008.6517 
 6976000    251.95267   -3912.2286   -3480.3903   -3912.2286            0    5626.8559    17.237986    20.304071    21.030303    7360.6334    4451.0999    5068.8058     7360.662   -927.01045   -745.47993   -943.14216   -2876.3626 
 6977000    251.82709   -3845.3651   -3413.7421   -3845.3651            0    6014.2229    17.238861    20.305101     21.03137    7361.7541    5122.9112    5131.2416    7788.5158   -779.92104    1150.8933   -1188.7214   -2768.0333 
 6978000    255.39155   -3912.1987   -3474.4663   -3912.1987            0    7705.3642    17.251676    20.320196    21.047004    7378.1838    7449.2944    6948.8149    8717.9832   -360.98194    330.01028   -870.92612   -2645.3441 
 6979000    252.55899   -3930.2788   -3497.4014   -3930.2788            0    4148.7329    17.360995    20.448958    21.180373    7519.3342    4912.7689    3254.0039    4279.4258    1031.4227    882.35157   -445.00456   -3042.4439 
 6980000    250.58933    -3889.163   -3459.6614    -3889.163            0    5139.3346    17.318487     20.39889    21.128513    7464.2367    6519.0232    3051.1202    5847.8605   -1137.9119   -702.14017    1495.0485   -2900.2025 
 6981000    246.74796   -3908.3516    -3485.434   -3908.3516            0    6375.8871    17.238448    20.304615    21.030866    7361.2248    6987.1032    7278.0913    4862.4668   -182.86093    1528.1582    340.88013   -2800.9448 
 6982000    254.78942    -3949.502   -3512.8016    -3949.502            0    6080.4486    17.241604    20.308332    21.034717    7365.2687    7436.4991    5627.8267    5177.0201   -1508.1085   -993.47379   -1163.7085   -2859.6709 
 6983000    243.01122   -3931.9038   -3515.3909   -3931.9038            0    6607.0148    17.207086    20.267675    20.992605    7321.1214    5258.5883    7656.3606    6906.0954   -551.72917   -711.24357   -652.26502    -2809.953 
 6984000     245.6465   -3919.4681   -3498.4384   -3919.4681            0    5116.2003    17.347784    20.433398    21.164256    7502.1819    4968.5255    3190.4609    7189.6144    395.57053    699.32278   -1290.4125   -2938.6666 
 6985000    244.92208   -3950.1966   -3530.4085   -3950.1966            0    3901.5007     17.27197    20.344099    21.071763    7404.2522    1586.9073    5742.3669    4375.2279    245.51524    629.87921   -686.03807   -3109.1111 
 6986000      259.993   -3939.6476   -3494.0285   -3939.6476            0    7779.4891     17.14898    20.199233    20.921715    7247.2031    6802.2142      6833.49     9702.763   -167.62065   -36.639938   -81.981427   -2671.7908 
 6987000    252.53317   -3914.6898   -3481.8566   -3914.6898            0    4609.2711    17.224864    20.288614    21.014294    7343.8361    5849.8533    4135.4091     3842.551    700.23357   -877.19608   -586.90608    -2988.193 
 6988000    256.49578   -3930.6404   -3491.0155   -3930.6404            0    4959.4151    17.243332    20.310367    21.036825    7367.4832    5108.7084    3946.2706    5823.2662     75.07419   -656.79098    1955.8863   -2958.1403 
 6989000    247.27456    -3939.821   -3516.0009    -3939.821            0    3578.4122    17.284501    20.358859     21.08705    7420.3793    2416.2338    3607.8815    4711.1213    596.59983    566.99241   -406.64534     -3128.75 
 6990000    246.74395   -3923.8611   -3500.9504   -3923.8611            0    5881.4987    17.188969    20.246335    20.970502    7298.0208    6730.0865    5045.5082    5868.9015    1084.9378   -468.11929    228.51022   -2874.9581 
 6991000    234.81648   -3938.5931   -3536.1257   -3938.5931            0    3990.3871    17.302833    20.380452    21.109416    7444.0147    3717.3382    3914.3613    4339.4619    49.641368    528.50495    1720.1997    -3102.916 
 6992000    258.13204   -3920.7157   -3478.2862   -3920.7157            0    4937.3767    17.207103    20.267695    20.992626    7321.1431    4127.7528    6376.8319    4307.5454    2585.2956   -753.83378    1058.1786   -2951.1158 
 6993000     256.4621   -3898.6692    -3459.102   -3898.6692            0    4902.6194     17.24103    20.307656    21.034017    7364.5335     5257.253    4173.1258    5277.4794    -140.9304   -960.61018   -480.63602   -2932.5402 
 6994000    256.70734    -3921.834   -3481.8464    -3921.834            0    6408.5537    17.159067    20.211115    20.934022         7260    5695.6052    6046.0729    7483.9828    729.47179    -768.6034   -1236.8939    -2803.311 
 6995000    257.98087   -3886.7282   -3444.5578   -3886.7282            0    4264.1063    17.229083    20.293584    21.019441    7349.2338    3813.4732    4680.9689    4297.8768   -916.86147    561.07026      571.302   -2987.5265 
 6996000    248.30366   -3900.0284   -3474.4444   -3900.0284            0    5747.5959    17.143862    20.193204    20.915471    7240.7165    6046.9867    6038.3274    5157.4738   -1828.0113   -1137.7674     1183.044   -2867.5073 
 6997000    245.07773    -3906.547   -3486.4921    -3906.547            0    5438.9671    17.230813    20.295621    21.021551    7351.4476     5418.321    4568.7485    6329.8317    113.73239    1795.4818   -448.90316   -2903.3624 
 6998000    256.84777   -3892.7838   -3452.5555   -3892.7838            0    5754.5118    17.239659    20.306041    21.032343    7362.7756    4442.4244    6513.8915    6307.2195   -121.01106   -1158.0511   -1057.7571   -2834.6445 
 6999000    242.87535   -3916.3125   -3500.0324   -3916.3125            0      7540.75    17.127032    20.173382    20.894939    7219.4139     6353.815    8263.3662    8005.0688   -1689.5198    1198.0512   -1259.0908   -2706.0839 
 7000000    267.79108    -3901.049   -3442.0642    -3901.049            0    5530.9886    17.156796     20.20844    20.931252    7257.1181    6944.8408    4968.4246    4679.7006   -547.45705   -7.5088929    990.30181   -2856.6775 
Loop time of 486.633 on 64 procs for 250000 steps with 864 atoms

Performance: 88.773 ns/day, 0.270 hours/ns, 513.735 timesteps/s
99.0% CPU use with 64 MPI tasks x 1 OpenMP threads

MPI task timing breakdown:
Section |  min time  |  avg time  |  max time  |%varavg| %total
---------------------------------------------------------------
Pair    | 20.253     | 25.641     | 30.465     |  47.1 |  5.27
Bond    | 0.28802    | 0.29695    | 0.30556    |   0.9 |  0.06
Kspace  | 216.86     | 225.11     | 234.43     |  25.0 | 46.26
Neigh   | 5.2415     | 5.9034     | 6.4928     |  14.2 |  1.21
Comm    | 102.58     | 109.94     | 116.74     |  32.2 | 22.59
Output  | 1.7737     | 1.7768     | 1.8096     |   0.5 |  0.37
Modify  | 108.51     | 111        | 115.08     |  12.1 | 22.81
Other   |            | 6.96       |            |       |  1.43

Nlocal:        13.5000 ave          19 max           9 min
Histogram: 1 8 5 7 10 11 10 6 3 3
Nghost:        2195.08 ave        2221 max        2167 min
Histogram: 5 5 6 4 6 13 5 9 6 5
Neighs:        4251.66 ave        6244 max        2523 min
Histogram: 5 6 2 11 12 8 11 6 1 2

Total # of neighbors = 272106
Ave neighs/atom = 314.93750
Ave special neighs/atom = 2.0000000
Neighbor list builds = 12790
Dangerous builds = 0

unfix		3
unfix		2
unfix		1

write_data	data.final.${pid}
write_data	data.final.0
System init for write_data ...
PPPM initialization ...
  extracting TIP4P info from pair style
  using 12-bit tables for long-range coulomb (../kspace.cpp:340)
  G vector (1/distance) = 0.37338109
  grid = 24 24 24
  stencil order = 5
  estimated absolute RMS force accuracy = 0.0032629358
  estimated relative force accuracy = 9.8262343e-06
  using double precision FFTW3
  3d grid and FFT values/proc = 2535 216
Last active /omp style is kspace_style pppm/tip4p/omp
WARNING: Not all mixed pair coeffs generated from mixing. Use write_data with 'pair ij' option to store all pair coeffs. (../write_data.cpp:312)

write_restart   restart.lmp.${pid}
write_restart   restart.lmp.0
System init for write_restart ...
PPPM initialization ...
  extracting TIP4P info from pair style
  using 12-bit tables for long-range coulomb (../kspace.cpp:340)
  G vector (1/distance) = 0.37338109
  grid = 24 24 24
  stencil order = 5
  estimated absolute RMS force accuracy = 0.0032629358
  estimated relative force accuracy = 9.8262343e-06
  using double precision FFTW3
  3d grid and FFT values/proc = 2535 216
Last active /omp style is kspace_style pppm/tip4p/omp
Total wall time: 0:08:12
