LAMMPS (30 Jul 2021)
Processor partition = 0
  using 1 OpenMP thread(s) per MPI task
using multi-threaded neighbor list subroutines
variable        pid world 0 1
variable        phase world IceII IceIII

shell cd ${phase}
shell cd IceII
include Restart.lmp
echo both
log log.lammps
#include		in.partitions
include		in.temp
variable        temperature equal 52.71
variable	tempDamp equal 100.0
include		in.pressure
variable        pressure equal -331.2
variable        pressureDamp equal 1000.0 # This is 1 ps
include		in.seed
variable        seed equal 745823

units		real
atom_style	full
box tilt large
read_restart	restart.lmp.${pid}
read_restart	restart.lmp.0
Reading restart file ...
  restart file = 30 Jul 2021, LAMMPS = 30 Jul 2021
  restoring atom style full from restart
  triclinic box = (-10.649707 -9.1761166 0.056904813) to (12.629707 12.166115 21.803094) with tilt (-9.0478641 1.9929647 2.8383827)
  4 by 4 by 4 MPI processor grid
  restoring pair style lj/cut/tip4p/long/omp from restart
  restoring bond style harmonic/omp from restart
  restoring angle style harmonic/omp from restart
  1296 atoms
  864 bonds
  432 angles
Finding 1-2 1-3 1-4 neighbors ...
  special bond factors lj:    0        0        0       
  special bond factors coul:  0        0        0       
     2 = max # of 1-2 neighbors
     1 = max # of 1-3 neighbors
     1 = max # of 1-4 neighbors
     2 = max # of special neighbors
  special bonds CPU = 0.005 seconds
  read_restart CPU = 0.013 seconds
include 	in.setup
variable	out_freq equal 1000
variable	out_freq2 equal 10000
variable	out_freq3 equal 1000

timestep	2.0

neigh_modify    delay 7 every 1

include		in.tip4p
# This is TIP4P/Ice

# create groups ###
group ox type 2
432 atoms in group ox
group hy type 1
864 atoms in group hy

# set charges - beside manually ###
set group ox charge -1.1794
Setting atom values ...
  432 settings made for charge
set group hy charge 0.5897
Setting atom values ...
  864 settings made for charge

# ### TIP3P Potential Parameters ###
pair_style lj/cut/tip4p/long/omp 2 1 1 1 0.1577 8.5
pair_coeff 1 1*2 0.000 0.000
pair_coeff 2 2 0.21084 3.1668
bond_style  harmonic
bond_coeff  1 450 0.9572
angle_style harmonic
angle_coeff 1 55 104.52
kspace_style pppm/tip4p/omp 1.0e-5
pair_modify tail yes

thermo          ${out_freq}
thermo          1000
thermo_style    custom step temp pe etotal epair emol press lx ly lz vol pxx pyy pzz pxy pxz pyz enthalpy

restart 	${out_freq3} restart.lmp.${pid} restart2.lmp.${pid}
restart 	1000 restart.lmp.${pid} restart2.lmp.${pid}
restart 	1000 restart.lmp.0 restart2.lmp.${pid}
restart 	1000 restart.lmp.0 restart2.lmp.0


include         in.dump
dump            myDump all atom ${out_freq2} dump.water.${pid}
dump            myDump all atom 10000 dump.water.${pid}
dump            myDump all atom 10000 dump.water.0
dump            myDump2 all dcd ${out_freq2} dump.dcd
dump            myDump2 all dcd 10000 dump.dcd
dump_modify     myDump append yes
dump_modify     myDump2 append yes


variable natoms 	equal  "count(all)"                        # NUMBER ATOMS
variable H      	equal  "enthalpy/v_natoms"                 # ENTHALPY-per-atom
variable Vol      	equal  "vol/v_natoms"                 # volume-per-atom
fix AVG all 		ave/time ${out_freq} 1 ${out_freq} v_Vol v_H file vol_enthalpy.dat
fix AVG all 		ave/time 1000 1 ${out_freq} v_Vol v_H file vol_enthalpy.dat
fix AVG all 		ave/time 1000 1 1000 v_Vol v_H file vol_enthalpy.dat


timer           timeout 10:00:00 every 1000
New timer settings: style=normal  mode=nosync  timeout=10:00:00

fix 		1 all shake 1e-6 200 0 b 1 a 1
Finding SHAKE clusters ...
       0 = # of size 2 clusters
       0 = # of size 3 clusters
       0 = # of size 4 clusters
     432 = # of frozen angles
  find clusters CPU = 0.001 seconds
fix             2 all nph tri ${pressure} ${pressure} ${pressureDamp}
fix             2 all nph tri -331.2 ${pressure} ${pressureDamp}
fix             2 all nph tri -331.2 -331.2 ${pressureDamp}
fix             2 all nph tri -331.2 -331.2 1000
fix             3 all temp/csvr ${temperature} ${temperature} ${tempDamp} ${seed}
fix             3 all temp/csvr 52.71 ${temperature} ${tempDamp} ${seed}
fix             3 all temp/csvr 52.71 52.71 ${tempDamp} ${seed}
fix             3 all temp/csvr 52.71 52.71 100 ${seed}
fix             3 all temp/csvr 52.71 52.71 100 745823


run             250000
PPPM initialization ...
  extracting TIP4P info from pair style
  using 12-bit tables for long-range coulomb (../kspace.cpp:340)
  G vector (1/distance) = 0.3673554
  grid = 27 40 32
  stencil order = 5
  estimated absolute RMS force accuracy = 0.0045218357
  estimated relative force accuracy = 1.3617374e-05
  using double precision FFTW3
  3d grid and FFT values/proc = 4845 560
Last active /omp style is kspace_style pppm/tip4p/omp
Neighbor list info ...
  update every 1 steps, delay 7 steps, check yes
  max neighbors/atom: 2000, page size: 100000
  master list distance cutoff = 10.8154
  ghost atom cutoff = 10.8154
  binsize = 5.4077, bins = 7 5 5
  1 neighbor lists, perpetual/occasional/extra = 1 0 0
  (1) pair lj/cut/tip4p/long/omp, perpetual
      attributes: half, newton on, omp
      pair build: half/bin/newton/tri/omp
      stencil: half/bin/3d/tri
      bin: standard
Setting up Verlet run ...
  Unit style    : real
  Current step  : 9500000
  Time step     : 2
  Walltime left : 9:59:59.92
Per MPI rank memory allocation (min/avg/max) = 9.401 | 9.412 | 9.422 Mbytes
Step Temp PotEng TotEng E_pair E_mol Press Lx Ly Lz Volume Pxx Pyy Pzz Pxy Pxz Pyz Enthalpy 
 9500000    59.200748   -6871.6932   -6719.4029   -6871.6932            0   -261.33708    23.279413    21.342231    21.746189     10804.26    25.034537    2.1520612   -811.19784   -128.49441   -459.34127    311.97413   -6760.5816 
 9501000    53.663297   -6888.7392   -6750.6937   -6888.7392            0   -107.67825    23.314975    21.327916    21.697763    10789.426   -609.30706   -9.0233493    295.29567    127.75747   -127.58626    -373.8565   -6767.6371 
 9502000    54.770549   -6890.2455   -6749.3516   -6890.2455            0   -523.41104    23.303348    21.316831    21.757317    10808.024   -347.32906   -800.94892   -421.95513    145.27243    150.94888    279.76684   -6831.8537 
 9503000    51.297286   -6881.6691   -6749.7099   -6881.6691            0   -123.66571    23.297425    21.333927    21.708097    10789.479   -604.42811    133.76966     99.66131   -184.20265   -610.13658    303.59319   -6769.1692 
 9504000    52.987504   -6895.0724   -6758.7653   -6895.0724            0   -377.08342    23.279925    21.315444    21.747798    10791.735   -322.40318   -193.24135   -615.60573    161.10388   -419.01139   -116.08527   -6818.1131 
 9505000    54.230156   -6890.9449   -6751.4412   -6890.9449            0   -989.35414    23.360477    21.307868    21.742156    10822.418   -1778.6095   -105.90315   -1083.5498    261.90769   -259.69626     -568.942   -6907.5948 
 9506000    54.265183   -6885.9567   -6746.3628   -6885.9567            0   -414.77786    23.331668      21.2934    21.725418    10793.416   -812.64727   -364.86094    -66.82537    40.261628   -561.01939    697.00366   -6811.6534 
 9507000    52.555282    -6888.874   -6753.6787    -6888.874            0   -379.42925    23.305421    21.334358     21.71511    10796.887   -662.96102   -206.47912   -268.84763    97.246443    -163.6492   -55.736237   -6813.4242 
 9508000    53.583154   -6886.9174    -6749.078   -6886.9174            0   -118.38368    23.340401    21.240444    21.744566    10780.096   -48.244654    436.90378   -743.81018    260.82787   -97.295804   -267.14015   -6767.6899 
 9509000    52.376084   -6874.5236   -6739.7893   -6874.5236            0    303.48901    23.294904    21.263121    21.761106    10778.762    195.06408    604.79552    110.60742   -758.24612   0.01396222    264.19006   -6692.0817 
 9510000    54.294985   -6887.5888   -6747.9183   -6887.5888            0   -241.01543    23.329245    21.281358     21.71177    10779.416   -759.53321    192.52983   -156.04292   -47.857993    280.78349    423.70637   -6785.8076 
 9511000     50.93546   -6880.7642   -6749.7358   -6880.7642            0   -786.13613    23.333377    21.257447    21.801081    10813.511   -1168.4941   -11.519374   -1178.3949    251.67172   -396.07175   -757.92845   -6873.7126 
 9512000    53.454884    -6879.012   -6741.5026    -6879.012            0   -237.06351    23.280065    21.335414    21.701512     10778.92   -489.92513    10.272817   -231.53823    33.016437   -241.21067    22.775681   -6778.7689 
 9513000    53.204766   -6882.4816   -6745.6156   -6882.4816            0   -265.77524    23.336984    21.266926    21.739899    10789.641    -727.6494    248.11155   -317.78788    217.47914   -319.52173    53.280801   -6787.4369 
 9514000     52.06121   -6891.5004   -6757.5761   -6891.5004            0   -542.51814    23.310896     21.27138    21.768634    10794.085   -936.94343    31.286084   -721.89705    307.12293    94.871806   -633.98386   -6842.9797 
 9515000     51.84304   -6884.2115   -6750.8485   -6884.2115            0    73.554599    23.263437    21.368964    21.659488    10767.269    684.13618   -903.14145    439.66906   -816.22544   -315.61809    173.97762   -6739.2982 
 9516000    51.280284   -6882.3731   -6750.4577   -6882.3731            0    73.944486    23.235484    21.275527    21.793339    10773.475    26.235344    678.64567   -483.04755    280.60383   -104.47785    16.699097   -6738.8395 
 9517000    52.714929   -6885.7786   -6750.1727   -6885.7786            0   -436.83415    23.274922    21.331581    21.718388    10782.982   -529.78232   -561.36766   -219.35247    694.34401   -190.32191    413.40555   -6818.8686 
 9518000    52.828603   -6893.1681   -6757.2698   -6893.1681            0    -104.5632    23.229518    21.373243    21.697292    10772.492     24.27044    58.777352   -396.73738   -35.308601   -636.50904   -622.76133   -6773.6972 
 9519000    52.755856   -6887.5422   -6751.8309   -6887.5422            0   -530.31119    23.258406    21.362741    21.720226    10791.983   -958.00181   -42.976799   -589.95495     47.42973   -175.30952    347.00266   -6835.2966 
 9520000    52.899834   -6890.2013   -6754.1197   -6890.2013            0   -189.53499    23.190657    21.358665    21.766418    10781.374    265.55942   -736.06174   -98.102642   -147.45799    514.62132    258.50316   -6783.9213 
 9521000    51.746682    -6891.443   -6758.3278    -6891.443            0   -250.69058    23.239515    21.389575    21.670008      10771.8    53.180779   -371.88999   -433.36253   -552.69436    197.75935   -610.30491   -6797.7102 
 9522000    52.017216   -6881.9118   -6748.1006   -6881.9118            0   -308.25914    23.206923    21.411002    21.731898    10798.221   -63.645614   -622.80959   -238.32222    293.77996   -150.39928    295.53141   -6796.6456 
 9523000    52.670065   -6887.5958   -6752.1053   -6887.5958            0   -448.82127    23.181852    21.432794    21.729875    10796.529   -297.56228   -219.78833   -829.11319   -23.464664    173.56665    79.729391    -6822.775 
 9524000     56.32571    -6880.527   -6735.6325    -6880.527            0    96.778565    23.195475    21.449522     21.65604     10774.57     127.8591    18.655766    143.82082    -393.8078    208.66073   -438.29918   -6720.4251 
 9525000    54.624828    -6882.792   -6742.2729    -6882.792            0   -471.85257    23.195122    21.436384    21.725817    10802.501   -50.043672   -952.35088   -413.16315    547.02188    19.971915    428.90454   -6816.6102 
 9526000    53.856535   -6882.9168   -6744.3742   -6882.9168            0   -485.48591    23.168247    21.487041    21.692399    10798.847    84.117471   -817.46531   -723.10989   -123.68079    74.717397   -241.57863   -6820.8334 
 9527000    54.105958   -6885.5791   -6746.3949   -6885.5791            0   -220.45577    23.130996     21.52035     21.67406    10789.068    -150.2614   -827.94121    316.83529    275.68944    449.48131    182.46752    -6781.083 
 9528000    50.586818    -6886.677   -6756.5455    -6886.677            0   -51.584748    23.132637    21.460009     21.72385    10784.297    876.88449   -508.73123    -522.9075   -214.93919   -436.11265    271.36924   -6764.6587 
 9529000    50.014914   -6881.8133    -6753.153   -6881.8133            0   -844.24294    23.115414    21.599951    21.649031    10809.184   -623.95295   -1729.9317   -178.84418    330.80125    721.35758    366.67787   -6886.2402 
 9530000    55.623614   -6886.2076   -6743.1192   -6886.2076            0   -302.69577    23.122694    21.490361    21.716268     10791.14    647.68814   -982.60097   -573.17449    69.576833   -85.545325    -230.0635   -6790.7568 
 9531000    55.957968   -6888.1333   -6744.1849   -6888.1333            0   -134.04436    23.158694    21.461832    21.690279    10780.676    166.82301   -81.020004   -487.93608    17.700115    266.15715   -724.74232     -6765.26 
 9532000    52.709526   -6880.6978   -6745.1058   -6880.6978            0   -350.99935    23.143017    21.507979    21.693287     10798.04   -201.21884   -1006.7823    155.00311    123.46578    213.26938    86.054575   -6800.3805 
 9533000    52.187039   -6883.7165   -6749.4685   -6883.7165            0   -514.42886    23.203077    21.440651     21.69868    10794.856   -592.24474   -651.37678   -299.66507    100.45353   -119.48284    121.74519    -6830.456 
 9534000    53.478936   -6890.0089   -6752.4376   -6890.0089            0   -472.49767    23.234249    21.429646    21.688614    10798.799   -392.70272   -424.33309   -600.45719    426.97738   -24.571622   -3.5011758    -6826.851 
 9535000    51.984987   -6888.5692    -6754.841   -6888.5692            0   -773.21303    23.216314    21.394004    21.776548    10816.192   -561.06067   -677.15481   -1081.4236   -662.30058    651.83199     128.6805     -6876.81 
 9536000    51.800657   -6886.8163   -6753.5623   -6886.8163            0   -394.98039    23.261429    21.392415    21.715119    10805.837    -288.7822   -534.64096   -361.51801   -252.22397    125.36188    455.09173   -6815.8081 
 9537000    54.774786   -6890.9007   -6749.9959   -6890.9007            0   -634.80602     23.30719    21.346486    21.717485    10805.027   -1523.6334    19.775761   -400.56036   -398.98915    528.99038   -251.24483   -6850.0288 
 9538000    51.663671   -6883.2206   -6750.3189   -6883.2206            0    283.93524    23.285513    21.313006     21.72143    10780.004    118.12728     1123.267   -389.58862     407.8113   -722.24444    -448.8189     -6705.68 
 9539000    53.853284   -6888.0886   -6749.5543   -6888.0886            0    -471.3577    23.288098    21.348317    21.719886    10798.295   -809.70095   -270.50985   -333.86231   -246.58195    261.03822   -16.439234   -6823.7847 
 9540000    51.371471   -6886.6613   -6754.5113   -6886.6613            0   -471.51037    23.307739    21.312365    21.746851    10802.597   -506.55282   -489.50378   -418.47449   -316.45291    2.9697983    226.31728   -6828.7953 
 9541000    53.280837   -6892.0007    -6754.939   -6892.0007            0   -67.067282    23.302534    21.245187    21.769468    10777.339   -150.30604    533.55149    -584.4473   -88.929574    32.165719    199.72104   -6765.4804 
 9542000     52.76091   -6886.1294   -6750.4052   -6886.1294            0   -148.01878    23.312236    21.320806    21.701453    10786.396   -711.81575    45.505496    222.25392   -167.22784    -75.99318   -166.80555   -6773.6898 
 9543000    53.322718    -6884.548   -6747.3785    -6884.548            0   -552.67031    23.372049    21.238317    21.761704    10802.139   -1106.5437   -8.4901374    -542.9771     164.2537   -191.24441    447.22258   -6834.4452 
 9544000    54.189955   -6887.8701   -6748.4698   -6887.8701            0   -461.79464    23.362527    21.262019    21.738543    10798.284   -993.83962     169.6938    -561.2381   -99.212042   -591.41256    176.67397   -6821.1941 
 9545000    51.147337   -6895.2279   -6763.6545   -6895.2279            0   -313.87461    23.362801    21.236434    21.739701    10785.992   -1207.2279    469.09965   -203.49561   -82.117239   -0.2857731   -543.24482   -6813.0278 
 9546000    54.758025   -6889.1012   -6748.2395   -6889.1012            0   -532.52576    23.345821    21.234303    21.768156    10791.177   -641.84843    163.31291   -1119.0417   -280.93971   -281.26827   -276.90434   -6832.0475 
 9547000    51.582397     -6889.11   -6756.4174     -6889.11            0   -584.27729    23.313658    21.261754    21.793888    10802.996   -903.49507    141.03005   -990.36685   -155.94158     81.20423    131.08506   -6848.4707 
 9548000    53.900453   -6885.1867   -6746.5311   -6885.1867            0   -395.25392    23.316176    21.321045    21.701836    10788.531   -1179.6695     186.6406   -192.73285   -414.14233    138.02132   -202.89082   -6808.7202 
 9549000    53.880937   -6884.0146   -6745.4092   -6884.0146            0     136.3366    23.296497     21.27564     21.73394    10772.381   -184.08968    634.07384   -40.974364    390.98223    324.01238    506.57852   -6723.9901 
 9550000    55.202227   -6891.1163    -6749.112   -6891.1163            0   -694.99322    23.280468    21.362326    21.735359    10809.536   -740.45139   -1012.4218   -332.10644    95.121508   -430.00504   -225.05975   -6858.6749 
 9551000    54.995355   -6887.0462    -6745.574   -6887.0462            0   -387.82438    23.298789    21.325215    21.723161    10793.189   -449.77408   -579.19801   -134.50104   -426.91403      17.3475    290.48397   -6806.6205 
 9552000    52.841522    -6891.428   -6755.4964    -6891.428            0   -213.24127    23.212996    21.361555    21.740033    10780.137    226.91034   -173.26115   -693.37299    43.379474   -130.06935   -271.09579   -6789.0216 
 9553000    52.746798   -6889.4936   -6753.8056   -6889.4936            0   -472.26566    23.232277    21.361174        21.73    10783.919   -334.84657   -593.34205   -488.60835   -410.10392    206.65393    427.49723     -6828.08 
 9554000    54.318545   -6886.9201    -6747.189   -6886.9201            0   -80.110973    23.220493    21.398925    21.696541    10780.872   -71.367274    434.58173   -603.54738    452.33181    249.61529    -688.1784   -6759.7847 
 9555000    54.110525   -6886.5986   -6747.4026   -6886.5986            0   -696.37948    23.223022    21.421397    21.697768     10793.98   -883.96688   -986.32907   -218.84248    -288.5104    5.5662905    525.96348   -6857.0261 
 9556000    54.867914   -6883.8457   -6742.7013   -6883.8457            0   -82.545039    23.166711    21.460475    21.689655    10783.416    140.92637   -172.35339    -216.2081    311.92858    316.93791   -458.46705   -6755.6828 
 9557000     53.60471   -6887.5959   -6749.7011   -6887.5959            0   -335.91963    23.167741    21.442382    21.718584    10789.175   -45.326361   -587.41393    -375.0186   -193.11784    518.50815    609.86887   -6802.5577 
 9558000    53.646133   -6889.2874    -6751.286   -6889.2874            0   -140.51384    23.190769    21.448937    21.665924    10777.006   -242.86325   -366.27945    187.60118    671.46631     -63.9921     46.34912   -6773.3708 
 9559000    50.605765   -6879.7194   -6749.5391   -6879.7194            0    -402.6078      23.1767    21.450143    21.697785    10786.914    56.374982   -1159.6818   -104.51663   -345.48243    344.47232   -360.06968   -6812.8758 
 9560000     50.88958    -6889.175   -6758.2646    -6889.175            0   -509.14058    23.206036    21.498704     21.63495     10793.67   -254.58283   -897.25528   -375.58364    567.18298   -30.125663    150.91035   -6838.4108 
 9561000    52.879548    -6887.852   -6751.8226    -6887.852            0      -251.11    23.134544     21.46194     21.73691    10792.641    281.66945   -355.26459   -679.73485   -51.780875   -182.80926    198.60547   -6791.3472 
 9562000     53.97177   -6885.8683   -6747.0292   -6885.8683            0    150.12127    23.151358    21.505793    21.635694     10772.16    281.15389   -893.44453    1062.6545   -104.10515    61.649346    201.37396    -6723.445 
 9563000    53.989243   -6879.4146   -6740.5305   -6879.4146            0   -705.32831    23.156818    21.464901    21.760356    10816.177    214.32767   -1210.0927   -1120.2199    363.67365    604.70925   -2.7894598    -6851.791 
 9564000    52.218379   -6887.6134   -6753.2848   -6887.6134            0    82.472233    23.147285    21.473292    21.679945    10775.982    398.09427    54.185488   -204.86306    292.68074    261.72338   -627.26213   -6740.3238 
 9565000    49.909923   -6888.1075   -6759.7173   -6888.1075            0   -503.50996     23.21819    21.468019    21.666791     10799.78   -936.41006   -806.27053    232.15072     318.2475    135.60822    262.49568    -6839.022 
 9566000    54.572305   -6884.3459    -6743.962   -6884.3459            0   -704.92406    23.193974    21.461969    21.734831    10819.346   -494.98598   -903.12068   -716.66552    321.15926   -332.87489   -18.674768   -6855.1913 
 9567000    50.335738   -6888.3453   -6758.8597   -6888.3453            0   -215.29975    23.182301    21.460821    21.695811    10793.909   -139.30851   -677.18418    170.59344    20.127508     38.09612   -17.209653   -6792.7518 
 9568000    51.728409   -6890.1756   -6757.1074   -6890.1756            0   -380.13906    23.202544     21.42975    21.722104    10800.767    1.9812399   -524.23048   -618.16793    345.11844    143.14913  -0.85557045   -6816.9862 
 9569000     49.74888   -6889.0492   -6761.0733   -6889.0492            0   -313.45982    23.252769    21.394373    21.691587    10791.097      -269.32   -318.81215   -352.24731    326.62512    129.17101   -288.47512   -6810.4046 
 9570000    51.946266   -6885.4993   -6751.8707   -6885.4993            0   -523.26766     23.25724    21.402718    21.700883    10802.008   -664.53405   -1061.9884    156.71944   -283.92848   -308.13229   -190.94144   -6834.3043 
 9571000    54.042092   -6887.8901   -6748.8701   -6887.8901            0   -382.79537    23.271414     21.34488    21.731241    10794.463   -353.70407    269.02243   -1063.7045   -27.715367   -446.60101     281.9917   -6809.1321 
 9572000    55.337951    -6882.471   -6740.1175    -6882.471            0   -535.53539    23.276902    21.322173    21.777792    10808.626   -739.76082    153.60368    -1020.449   -296.05387     156.5137    -395.2427   -6824.5354 
 9573000    52.956786   -6893.0779   -6756.8498   -6893.0779            0    12.556334    23.263523     21.36448    21.663171    10766.879    -112.0765   -106.50472    256.25023   -133.76146    424.04932   -405.00597   -6754.8782 
 9574000    53.015749   -6888.5918    -6752.212   -6888.5918            0   -846.97632    23.250151     21.33375    21.817447    10821.736   -487.87908   -395.99314   -1657.0567   -697.64546    208.41419   -372.77045   -6885.8851 
 9575000    53.224838    -6888.308   -6751.3904    -6888.308            0   -183.14358     23.31355     21.33696    21.648945    10769.057     -869.546     405.0376   -84.922326   -183.13017   -132.80354    204.16595   -6780.1541 
 9576000    52.176407   -6886.4996   -6752.2789   -6886.4996            0    -546.4835    23.253846    21.348714    21.759213    10802.137   -330.97824   -659.10311   -649.36914   -379.48743   -249.61313   -199.93874   -6838.3709 
 9577000    54.511807   -6895.5044   -6755.2761   -6895.5044            0   -258.00755    23.324434    21.294859    21.689549    10772.994   -465.47862   -546.77341    238.22939    324.87969    142.24987     751.2235   -6795.8125 
 9578000    54.569115   -6882.0951   -6741.7194   -6882.0951            0   -527.62925    23.300745     21.35089    21.736736    10813.845   -780.05801   -245.08326   -557.74649    124.98483    132.88974   -278.88941   -6824.9311 
 9579000    51.518557   -6890.5726   -6758.0442   -6890.5726            0   -360.18925    23.283009    21.317686    21.734106    10787.503   -528.13373   -179.69217   -372.74186   -78.563813    445.70236    189.45666   -6814.7109 
 9580000    54.007621    -6881.916   -6742.9847    -6881.916            0   -692.83112    23.305613    21.364421    21.710609    10809.949   -520.30373   -1236.3374   -321.85221    -693.2709   -358.01652    278.91763   -6852.2109 
 9581000    51.369928   -6887.1342   -6754.9882   -6887.1342            0   -498.63011     23.33431    21.304541    21.703855    10789.568   -558.06411   -540.90568   -396.92054     247.0038   -732.27011    87.871194     -6833.45 
 9582000    51.862226   -6886.8575   -6753.4451   -6886.8575            0   -326.68941     23.32146    21.294575    21.732636    10792.874   -249.12391    54.007132   -784.95144   -401.32096    574.25519   -664.37439    -6804.867 
 9583000    52.329396   -6888.3614   -6753.7472   -6888.3614            0   -249.17764      23.3602    21.225112    21.753668    10785.966   -1113.3103    776.07975   -410.30242    48.443627   -63.866636    313.05398   -6792.9434 
 9584000    54.274406   -6879.8413   -6740.2237   -6879.8413            0   -264.71254    23.352727    21.293269    21.701821    10791.358   -739.25097    392.68982   -447.57648   -410.27104   -283.40981    42.503713   -6781.8844 
 9585000    52.947404   -6889.9386   -6753.7347   -6889.9386            0   -396.59482    23.298949    21.246958    21.799158    10791.276   -182.10327   -17.357595   -990.32361   -51.207662   -43.999131   -159.88924   -6816.1506 
 9586000    53.650893   -6891.7054   -6753.6918   -6891.7054            0   -279.45049    23.360525    21.283941    21.669693    10774.259   -415.52364   -420.78456   -2.0432655   -482.16189   -25.746992   -351.64853   -6797.6023 
 9587000    50.526034   -6888.7756   -6758.8004   -6888.7756            0   -457.49232    23.322088    21.257536    21.769316    10792.577   -309.10855     101.8042   -1165.1726   -115.07662   -507.39535   -56.409444   -6830.8091 
 9588000    53.017923   -6886.2466   -6749.8612   -6886.2466            0   -102.61029    23.339744    21.297601     21.69331    10783.322   -884.56435    496.60472    80.128757    336.53602   -226.21509   -42.339771   -6765.9981 
 9589000    50.801879   -6892.6185   -6761.9338   -6892.6185            0   -37.646319    23.288659    21.271484    21.737372    10768.354   -271.33474    141.05061    17.345173   -139.43434   -242.91778    327.43013    -6767.846 
 9590000    53.216101   -6891.0482    -6754.153   -6891.0482            0   -488.53086    23.281357    21.307804    21.771229    10800.153   -745.93978   -70.507369   -649.14542   -103.69996    103.17335   -100.14087   -6831.1011 
 9591000    51.448948   -6890.6742   -6758.3249   -6890.6742            0   -158.53019    23.299831    21.321285    21.704129    10782.228    -50.23778   -163.35228   -262.00051   -208.61963    569.66551    209.19392   -6783.2534 
 9592000    51.920643   -6883.9479   -6750.3852   -6883.9479            0   -316.72258    23.282163    21.323413     21.74166     10793.76      250.829   -430.22494   -770.77181   -385.47144    128.09952   -159.76945   -6800.2424 
 9593000    52.003168   -6886.6355   -6752.8606   -6886.6355            0   -350.71001    23.282062    21.337903    21.717742    10789.165   -701.78319      8.19428   -358.54111   -17.726727    -338.6947     294.7772   -6808.0444 
 9594000    52.855208   -6885.2558    -6749.289   -6885.2558            0   -437.53596    23.266274    21.357168     21.72685     10796.11   -769.83052    23.651591   -566.42896    58.833349   -651.01064   -504.71365   -6818.1791 
 9595000    51.457737   -6891.8447   -6759.4728   -6891.8447            0   -586.61982    23.273719    21.361721    21.715114    10796.032   -1000.7049   -134.10475   -625.04979    148.75757    228.43859   -23.323696   -6851.8356 
 9596000    53.576622   -6883.4003   -6745.5777   -6883.4003            0   -218.83148    23.214289    21.385156    21.742647    10793.945    486.97763   -844.21088    -299.2612   -98.548169   -7.8935165    64.309669   -6780.0259 
 9597000    53.043691   -6887.9728   -6751.5212   -6887.9728            0   -311.55101    23.250118    21.427998    21.646796     10784.51   -194.98528   -803.04479    63.377033   -227.79991   -213.64695    242.64622   -6800.5222 
 9598000    50.064079   -6888.4278    -6759.641   -6888.4278            0   -399.02907    23.170169    21.429023    21.742088    10795.253    28.939042   -186.67346   -1039.3528    308.74961    -571.4755   -215.99303   -6822.4633 
 9599000    52.447237   -6884.1452   -6749.2279   -6884.1452            0   -352.50659    23.192201    21.442856    21.702122    10792.618    6.9694123   -393.84627    -670.6429    795.32815    -372.5717    -72.46464   -6804.7121 
 9600000    51.901284   -6889.4573   -6755.9444   -6889.4573            0   -558.15912    23.152041    21.520063    21.676709     10800.06   -235.05403   -1582.0455     142.6222   -587.67222    930.55439   -8.4538543   -6843.8588 
 9601000    50.393061   -6888.8878   -6759.2547   -6888.8878            0   -175.84432    23.171418    21.427113    21.718493    10783.158   -113.56589   -376.44944   -37.517623    570.75303   -90.400185    135.10967   -6786.9082 
 9602000    52.297163   -6885.4934   -6750.9622   -6885.4934            0   -535.68817    23.166133    21.522778    21.663475    10801.398   -9.2048901   -881.86322   -715.99639   -280.40234    47.294231   -409.02479   -6835.3477 
 9603000    54.345571   -6883.2644   -6743.4638   -6883.2644            0   -496.77012    23.177648    21.480248    21.705436    10806.303   -366.74458   -506.74539   -616.82038    220.01993    173.08379   -112.63852   -6821.7542 
 9604000    53.753546   -6888.2469   -6749.9692   -6888.2469            0   -428.22883    23.177202    21.455738    21.712629    10797.343   -294.30602   -862.63357   -127.74692    781.42487   -113.21449    437.60387   -6817.4016 
 9605000    52.712998   -6883.0694   -6747.4685   -6883.0694            0    -403.4468    23.137528    21.502971    21.705298    10798.941   -166.97139    -920.9484    -122.4206   -72.223156    11.573652   -203.89456   -6811.0079 
 9606000    53.949647    -6893.392   -6754.6098    -6893.392            0   -696.50759    23.215034    21.482367    21.663268    10803.773   -299.21105   -1408.4767   -381.83506    -48.85806    237.47168   -68.716915   -6864.3529 
 9607000    51.715039   -6886.5841   -6753.5504   -6886.5841            0   -466.77813     23.17329     21.44243    21.755717    10810.234   -249.70202   -498.70735   -651.92502   -348.06248    486.28743   -179.45304   -6827.1408 
 9608000    52.437763   -6887.9764   -6753.0834   -6887.9764            0    31.387352    23.171471    21.474193    21.650957     10773.27    310.65009   -432.57914    216.09111    299.96778    -281.7332    141.79204   -6748.1519 
 9609000    51.568741   -6887.9044   -6755.2469   -6887.9044            0   -305.33624    23.223448    21.408317    21.702419    10789.899   -530.08272    133.76363   -519.68963    62.108474   -180.15595   -275.09675   -6803.2945 
 9610000     53.08408    -6892.605   -6756.0494    -6892.605            0   -705.33073    23.244995    21.421532    21.712103    10811.398   -1009.0878   -924.57319   -182.33125    507.86876    2.7610559    164.16432   -6867.2611 
 9611000    52.569433   -6885.3327    -6750.101   -6885.3327            0   -449.68118    23.190576    21.448654    21.713422      10800.4    13.598154   -1215.0586    -147.5831   -250.38264   -366.85377    109.76067   -6820.9315 
 9612000    52.767607   -6885.0626   -6749.3212   -6885.0626            0   -329.08005     23.24391    21.375455    21.713765    10788.466   -222.09912   -304.62321   -460.51783    675.36265    151.52649    102.33311   -6801.0982 
 9613000    52.671494   -6885.3038   -6749.8096   -6885.3038            0   -68.328616    23.265558    21.403815    21.657796     10784.97   -392.53416    161.66466    25.883656   -122.45573    166.32606   -151.66191   -6760.5569 
 9614000    52.751389   -6883.6099   -6747.9101   -6883.6099            0    -250.7753     23.23945    21.334317    21.768213    10792.632   -233.63945   -271.53505   -247.15141    495.59771   -145.38907    320.02647    -6787.382 
 9615000    52.708785   -6884.8614   -6749.2712   -6884.8614            0   -333.05324    23.262641    21.398842    21.690704    10797.493   -342.58744   -350.32221   -306.25007   -751.63584    8.5973266   -418.88783   -6801.7173 
 9616000     50.29253   -6890.4843   -6761.1099   -6890.4843            0   -944.17618    23.277436    21.339016    21.770967    10814.022   -1185.1912   -439.72124   -1207.6161    427.23612   -80.394549   -214.48588   -6910.0172 
 9617000    50.935214   -6897.3595   -6766.3318   -6897.3595            0   -234.62339    23.259492    21.383506     21.68436     10785.14   -144.89027   -873.66357    314.68366   -189.99554   -508.42004   -450.20624   -6803.2357 
 9618000    52.096814   -6890.0826   -6756.0667   -6890.0826            0   -253.56112      23.2077    21.337973    21.784795    10787.946       232.11   -423.66289   -569.13047    514.59801   -608.34092     290.8676   -6795.9597 
 9619000    52.311057   -6887.3931   -6752.8261   -6887.3931            0   -662.89134    23.376719    21.340264    21.664836    10807.836    -1276.825   -635.12879   -76.720225    289.21007    -472.2869    -162.8863   -6857.3118 
 9620000    52.452076   -6889.0328    -6754.103   -6889.0328            0   -352.79446    23.208981    21.355095    21.778441    10794.048   -92.472722   -599.79142   -366.11923   -116.86018   -87.184994    452.05494   -6809.6399 
 9621000    52.744627   -6889.0287   -6753.3464   -6889.0287            0    1.1564354    23.283897    21.374301    21.653352    10776.376   -732.97277    162.57224    573.86984   -171.13469    458.03507   -138.77512   -6753.1647 
 9622000    53.278082   -6879.3074   -6742.2527   -6879.3074            0   -612.06807     23.17618    21.386412    21.797874    10804.232    101.21086   -600.39577   -1337.0193    168.71864    296.26218    214.18516   -6838.6955 
 9623000     52.25319   -6888.4096   -6753.9914   -6888.4096            0   -100.93452    23.241683    21.427443      21.6492    10781.515   -239.62397   -34.665689   -28.513912   -204.88703   -54.074874   -666.61619   -6769.8621 
 9624000    53.018331   -6885.0347   -6748.6483   -6885.0347            0   -247.77268    23.169698    21.354877    21.786603    10779.707    176.18695   -222.76141   -696.74359   -475.55607    138.56506    634.29535   -6787.6008 
 9625000    53.065089   -6882.9345   -6746.4278   -6882.9345            0   -266.51372    23.242064    21.449255    21.649601    10792.866    -71.71169   -699.36676   -28.462714    -40.15206   -98.542535     6.490831   -6788.3778 
 9626000    52.334338   -6887.2566   -6752.6297   -6887.2566            0   -291.69835    23.169779    21.366282    21.781467    10782.959   -200.08161   -247.07161   -427.94183    404.03907    467.46358    514.95521   -6798.5017 
 9627000     51.82611   -6886.3243   -6753.0048   -6886.3243            0    246.12662    23.219831     21.40608    21.661907    10766.955    555.48261   -228.08271    410.97996   -576.19028    475.96091   -468.64571   -6714.3568 
 9628000    53.979581   -6890.4574   -6751.5982   -6890.4574            0   -108.56902    23.210109    21.389378    21.701283    10773.598   -128.49921   -94.430809   -102.77704    411.90886   -455.32718    256.07882   -6768.6568 
 9629000    53.170315   -6878.3643   -6741.5869   -6878.3643            0    80.814065    23.267747    21.386119    21.677403    10786.823   -523.12695    239.94691    525.62224    408.11084   -185.30299    63.046997   -6728.8737 
 9630000    50.556091   -6891.9718   -6761.9194   -6891.9718            0   -547.68374    23.245971    21.313436    21.809846    10805.721     179.5577    -766.0327   -1056.5762    184.21134    111.83357     274.8308    -6848.229 
 9631000    52.186265    -6894.288   -6760.0421    -6894.288            0   -310.19466    23.304863    21.353586    21.672901    10785.354    -544.9686   -261.76544   -123.84993    202.02018   -104.73378   -189.18151   -6808.8336 
 9632000    53.919906   -6882.5145   -6743.8088   -6882.5145            0   -1070.8485    23.326379    21.291304    21.812801    10833.307   -1665.6438   -390.85117   -1156.0506    166.13987    200.16019    137.40197    -6912.995 
 9633000    51.977035   -6882.8262   -6749.1184   -6882.8262            0   -367.85869    23.339421    21.313146    21.728429    10808.514   -568.79043   -270.84281   -263.94283    570.78878   -650.70422    365.45307   -6807.1044 
 9634000    49.993856   -6888.5703   -6759.9641   -6888.5703            0   -87.843723     23.33196    21.309055    21.689877    10783.817   -442.33731    -77.03851    255.84465   -403.96979    62.522687   -220.43018   -6773.7794 
 9635000    51.071402   -6891.7469   -6760.3689   -6891.7469            0   -386.30375    23.378439    21.240711    21.737577     10794.33    -934.1297    314.65801   -539.43956     202.3517   -391.14847    20.451789   -6821.1824 
 9636000     52.81641   -6880.4607   -6744.5937   -6880.4607            0   -443.54611    23.345306    21.265506    21.762754    10804.114   -1199.1737    540.94897   -672.41365   -816.57057    180.25859    218.41776   -6814.4819 
 9637000    51.962075   -6886.9115   -6753.2422   -6886.9115            0   -239.77213    23.324052    21.275746    21.752755    10794.513   -724.04532   -6.0576177    10.786554   -5.7806355   -125.15114   -23.004148   -6790.9888 
 9638000    51.785525   -6890.3353   -6757.1202   -6890.3353            0   -216.19001    23.352292    21.233551    21.752819     10786.18    -1033.621    702.19217   -317.14115    179.97428   -64.861837   -146.66285    -6791.128 
 9639000    53.147281    -6892.601   -6755.8828    -6892.601            0   -169.43403    23.304315    21.315939    21.705768    10782.413   -107.49642   -304.81691   -95.988755    66.478882    -134.4549   -5.7577931   -6782.5264 
 9640000    52.497741   -6886.5365   -6751.4892   -6886.5365            0   -213.33916    23.303142    21.303153    21.737059    10790.937    55.501914   -455.85673   -239.66266   -485.60816   -611.05678   -146.43427   -6785.0634 
 9641000     51.53772   -6888.2955   -6755.7179   -6888.2955            0   -390.14424    23.307612    21.264234    21.755708    10782.532   -1101.8861    704.21907   -772.76565    254.52396    54.597862   -30.735579   -6817.0689 
 9642000    52.945416   -6888.7277   -6752.5289   -6888.7277            0    -406.8602    23.292747    21.355873    21.704821     10796.78   -667.93857    -365.1585   -187.48353    150.72272   -584.65116    172.22105   -6816.5931 
 9643000    52.460592   -6886.9842   -6752.0326   -6886.9842            0    -74.79807    23.257663    21.284754    21.783061    10783.348    14.654763    523.77962   -762.82859    107.19772    554.77226   -356.73322   -6763.7956 
 9644000    53.210462    -6890.025   -6753.1443    -6890.025            0   -637.82717    23.331497    21.384622    21.669322    10811.588   -948.03981   -1266.1528    300.71108   -697.32164    171.21417    218.13562   -6853.7143 
 9645000    54.256942   -6884.9215   -6745.3488   -6884.9215            0   -492.72559    23.247971    21.349569    21.775732    10808.039   -915.70701    127.18557   -689.65534    382.09861   -276.43663   -268.37303   -6823.0143 
 9646000    51.741725   -6888.3499   -6755.2475   -6888.3499            0    43.157683    23.246469    21.362451    21.689552    10771.065   -28.488204    172.06163    -14.10038   -277.78175    262.06756   -48.791482    -6748.468 
 9647000    52.689796   -6893.1047   -6757.5634   -6893.1047            0   -50.976319    23.178257     21.38709    21.742211     10777.95     37.55294    240.62673   -431.10863    245.93652    147.96147   -7.9203846   -6765.5762 
 9648000    52.714425   -6893.7114   -6758.1067   -6893.7114            0   -306.64747    23.214775    21.468487    21.620384    10775.299   -646.24053   -182.16758   -91.534296    431.69988   -258.07578    -96.69821   -6806.2954 
 9649000    52.546499   -6880.0468   -6744.8741   -6880.0468            0   -554.14346     23.14609    21.456052    21.757409    10805.245   -312.11901   -533.41848   -816.89288    268.44876   -8.5921273    -67.17371   -6832.1979 
 9650000    52.838083   -6891.2656   -6755.3429   -6891.2656            0   -33.369837    23.175692     21.46933    21.645062     10769.86    106.45695   -134.34253   -72.223935   -11.406252    79.000912   -369.33161   -6760.5842 
 9651000    53.770342   -6883.8021   -6745.4811   -6883.8021            0   -355.04935    23.124102    21.484824    21.729288    10795.485    49.971375   -539.42496   -575.69445    163.71271     509.3971     89.61073   -6801.3805 
 9652000    51.616191    -6890.692   -6757.9125    -6890.692            0   -660.29161    23.167169    21.495174    21.688724    10800.602   -574.96159   -1147.7619   -258.15133    -224.7184    384.88498    33.825615   -6861.9188 
 9653000    53.372344   -6881.8108   -6744.5137   -6881.8108            0   -641.29274    23.136207    21.554239    21.664392    10803.671   -161.97747   -1205.2092   -556.69157   -110.53261    474.77424   -297.33985   -6845.5561 
 9654000    52.197358   -6886.5394   -6752.2649   -6886.5394            0   -28.486819    23.139628    21.463868     21.70293    10779.106    341.86024   -464.96155    37.640857     663.2002    156.13706   -118.19171   -6756.7431 
 9655000    49.797609   -6884.6753    -6756.574   -6884.6753            0    -222.1924    23.198825    21.465237    21.654573     10783.29   -157.05208   -882.90349    373.37837    21.443699    475.03362    434.08383   -6791.5167 
 9656000    51.479165   -6895.1097   -6762.6827   -6895.1097            0   -787.05472    23.182175     21.49559    21.693905    10810.389   -467.50148   -1306.3337   -587.32894   -95.267353    286.77053   -217.57118   -6886.7685 
 9657000    51.874055    -6890.117   -6756.6741    -6890.117            0   -285.05892    23.183873    21.419473    21.734298    10792.955   -26.199244   -324.20601   -504.77151   -25.586639   -77.880472    263.99841   -6801.5436 
 9658000    51.383547   -6887.7103   -6755.5293   -6887.7103            0   -740.66357    23.253856    21.420854    21.702284    10810.286   -806.39374   -1057.9675   -357.62944    333.86081    392.53568   -108.87678      -6872.3 
 9659000    52.082413   -6885.1334   -6751.1545   -6885.1334            0   -619.02673    23.263519    21.391851    21.720668    10809.285   -218.09626   -665.63313   -973.35082     682.3485   -97.831355   -50.647637   -6848.7394 
 9660000     51.72115   -6888.4255    -6755.376   -6888.4255            0   -80.498445    23.205773    21.415194    21.694203    10781.067    264.63842   -286.43837   -219.69539   -334.90835   -204.63363     -55.7594   -6768.0328 
 9661000    49.264843   -6885.0535   -6758.3227   -6885.0535            0   -117.92871    23.272291    21.359497       21.684    10778.779     -338.065   -186.06428    170.34317    74.230607    78.273645   -252.55105   -6776.8608 
 9662000    52.459133   -6886.4034   -6751.4555   -6886.4034            0   -725.41292    23.313181    21.340037    21.745949      10818.7   -1560.2429   -180.86852   -435.12735    93.946341    41.559567     282.2904   -6865.9109 
 9663000    52.019161   -6886.3209   -6752.5048   -6886.3209            0   -363.52102     23.31696    21.285126    21.762427    10800.789   -627.47598    140.73333   -603.82041    -277.2826     98.95748    496.25143    -6809.766 
 9664000    51.900007    -6890.688   -6757.1784    -6890.688            0   -670.66417    23.362514    21.299797    21.720406    10808.439   -1565.3856    553.15309   -999.75998     428.2735    24.248197   -639.79761   -6862.8952 
 9665000    53.175492   -6888.2098   -6751.4191   -6888.2098            0   -146.42127    23.283717    21.298173    21.743319    10782.526    22.400824   -538.57177    76.907141   -297.13681   -87.874511     151.9552   -6774.4441 
 9666000    52.284174   -6877.4257   -6742.9279   -6877.4257            0   -540.32844    23.389119    21.282282    21.714301     10808.81   -1531.8232    458.89676   -548.05889   -212.56402    272.18229   -178.55665   -6828.1028 
 9667000    52.145655   -6888.0511   -6753.9095   -6888.0511            0   -500.05654     23.32968    21.273877    21.749349    10794.479   -427.45888   -216.41147   -856.29928    -8.537649   -509.47909     4.076815   -6832.6316 
 9668000    55.198242   -6886.7499   -6744.7558   -6886.7499            0   -593.20375    23.336196    21.321422    21.731333    10812.661   -657.65129   -449.71906   -672.24091    -41.74192    -509.8644   -208.67979    -6838.299 
 9669000    55.615853   -6884.0484     -6740.98   -6884.0484            0   -831.57007    23.309867     21.29665    21.808994    10826.466   -1090.5281   -425.81821   -978.36391   -681.12243    322.56422    238.96941    -6872.279 
 9670000    51.361335   -6885.8425   -6753.7186   -6885.8425            0   -48.955109    23.327741    21.310509    21.695543    10785.419    -1009.326    585.24221    277.21843     61.66704    547.32505   -250.11191   -6761.4189 
 9671000    53.073296   -6887.7652   -6751.2374   -6887.7652            0   -445.34532    23.299926    21.278186    21.788296    10802.205   -670.21665   -231.03359   -434.78572   -422.21929    542.63538    124.70138   -6821.3967 
 9672000    54.836771   -6891.1678   -6750.1036   -6891.1678            0   -543.41763      23.3593    21.319325    21.684964     10799.21   -897.13144   -384.27964   -348.84181   -19.315386   -943.23423   -112.99094   -6835.6894 
 9673000    51.069682   -6886.3927   -6755.0191   -6886.3927            0   -552.96439    23.282163    21.314816    21.778205    10807.544   -764.33086   -406.19295   -488.36938    16.910274     575.1159    505.35386   -6842.1756 
 9674000    51.439971   -6889.0236   -6756.6974   -6889.0236            0   -526.74485    23.324675    21.332733    21.717951    10806.398   -367.36498   -276.52356     -936.346    204.24182   -82.745864   -752.04497   -6839.7125 
 9675000    51.813792   -6881.7152   -6748.4274   -6881.7152            0   -515.92673    23.287147    21.301417    21.791876    10809.843   -855.96097   -14.520779   -677.29843   -114.35866   -137.79726   -72.909603   -6829.7635 
 9676000    52.935838   -6892.4982   -6756.3239   -6892.4982            0   -776.75332    23.329588    21.367843    21.687499    10811.282   -1046.1429   -887.15524    -396.9618    428.80003   -300.41009     194.7251   -6878.7958 
 9677000     54.74358   -6884.0635   -6743.2389   -6884.0635            0   -595.64359    23.280443    21.315775    21.789924    10813.046   -1030.5881    157.79461   -914.13731   -39.477881     181.2677    -192.7228   -6837.1703 
 9678000    52.576768   -6883.9052   -6748.6547   -6883.9052            0   -428.41644    23.297799    21.409011    21.654423    10800.854   -354.70757   -860.09366   -70.448079   -608.96161    252.84924   -203.18125   -6816.1386 
 9679000    51.583334   -6884.3324   -6751.6375   -6884.3324            0   -17.871056    23.221154    21.340613    21.770162    10788.283    619.42231   -193.98979   -479.04568    124.58804     359.9099    380.04606   -6754.4492 
 9680000    51.482682   -6881.9781    -6749.542   -6881.9781            0    -920.1189    23.253444    21.422394    21.739772    10829.546   -783.51572   -962.67826   -1014.1627    88.379191   -102.24175     -13.5059   -6894.8636 
 9681000    51.550794   -6885.3023    -6752.691   -6885.3023            0   -810.36586    23.215885    21.433259    21.748316    10821.789    -384.2012   -915.15675   -1131.7396     124.0494   -356.92697     19.31757   -6880.5868 
 9682000    53.379845    -6885.117   -6747.8006    -6885.117            0   -215.05789    23.210959    21.455418    21.681238    10797.275   -21.513525   -923.15196    299.49183    182.05261   -409.30172    14.295566   -6781.6651 
 9683000    51.559448   -6888.9034   -6756.2698   -6888.9034            0    195.51095    23.176902    21.434217    21.681296    10770.808    498.47715   -339.82364    427.87934    -219.0466   -73.398485   -449.00962   -6725.5588 
 9684000    51.368698   -6887.9002   -6755.7574   -6887.9002            0   -1039.9889    23.187555    21.478489    21.740205    10827.353    -492.4504   -1077.7011   -1549.8154    109.76416   -1.9261866   -459.44595   -6919.9777 
 9685000    55.063201    -6888.727   -6747.0803    -6888.727            0   -632.90869    23.129417    21.511199    21.730411    10811.781    64.164677   -1111.5402   -851.35057    522.01475    342.34461   -139.09053   -6846.8766 
 9686000    54.811652   -6886.9651   -6745.9655   -6886.9651            0    81.224747     23.16973     21.49558    21.619724    10767.634    203.84618   -719.63397    759.46202    104.22464   -133.80374    305.70735   -6733.2104 
 9687000    51.874825   -6891.8251   -6758.3803   -6891.8251            0   -120.78021    23.126983    21.461229    21.728625    10784.644    41.239006    -178.0681   -225.51154    180.92847    85.721403    -51.90286   -6777.3769 
 9688000    51.238825   -6876.2603   -6744.4516   -6876.2603            0   -392.81734    23.134816    21.567831    21.645878    10800.597   -63.105903   -1336.1959    220.84977    705.42941   -281.07419   -100.56487   -6806.3264 
 9689000    52.106515   -6895.6689   -6761.6281   -6895.6689            0   -256.27086     23.12643    21.468835    21.725785    10786.798    249.60658   -914.57364   -103.84552    287.18026    177.36993    74.611073   -6801.9432 
 9690000    53.195626   -6876.7602   -6739.9177   -6876.7602            0    -462.6989    23.158336    21.497537    21.680427     10793.54    100.04247   -925.91621   -562.22295    99.201729   -91.008488   -364.36146   -6812.7524 
 9691000    52.031644   -6879.5647   -6745.7165   -6879.5647            0   -408.85299    23.163607    21.500745    21.676976    10795.888   -173.66399   -838.56718    -214.3278    268.78172     244.0717   -52.202355   -6810.0891 
 9692000     53.94641   -6888.0137   -6749.2399   -6888.0137            0   -121.93131    23.164852     21.43115    21.722466    10784.106   -3.5538864    -362.7193   0.47926791    305.71857    208.14576    297.30983   -6768.4166 
 9693000    52.482641   -6889.8934    -6754.885   -6889.8934            0   -238.23168    23.199932    21.441308    21.673271    10781.085    91.349479   -819.62252    13.578002   -507.01643   -24.083643    121.99444   -6792.3425 
 9694000    52.313795    -6886.421    -6751.847    -6886.421            0   -255.34866    23.200314    21.411851    21.707512     10783.46    50.387188   -464.91357   -351.51959    588.41888    97.702398   -235.81758   -6792.0045 
 9695000    53.952245   -6885.4734   -6746.6845   -6885.4734            0   -456.82415    23.240142    21.354609    21.735881    10787.173   -272.28584   -140.92877   -957.25783   -243.92726   -375.70143   -208.84027    -6818.552 
 9696000    50.796111   -6885.4407   -6754.7708   -6885.4407            0   -41.980605    23.251286    21.380628    21.665666     10770.59    103.25363   -208.31718   -20.878268    165.42106   -184.46724     378.5328   -6761.3651 
 9697000    52.171399    -6884.353   -6750.1453    -6884.353            0    265.52971    23.197086    21.326361    21.759364    10764.563    133.65497    346.10906    316.82511   -635.35584    411.06257     197.2634   -6708.4597 
 9698000    52.343876   -6881.9922   -6747.3407   -6881.9922            0   -436.87509    23.301264    21.356791     21.69174    10794.683   -697.76496   -389.64545   -223.21485    605.83081   -6.2565522   -339.59058   -6816.1177 
 9699000     53.16898   -6885.3464   -6748.5724   -6885.3464            0   -204.34719    23.240697    21.353791    21.740863     10789.49    333.80048   -410.13707   -536.70498    -652.7455   -343.87414   -173.38765   -6780.7272 
 9700000    53.660972   -6892.4757   -6754.4361   -6892.4757            0    391.61376    23.316764    21.284168    21.663491    10751.112   -41.770058    1042.0839    174.52741   -198.21831   -135.01196    220.92251   -6693.0335 
 9701000    53.567026   -6888.2928   -6750.4949   -6888.2928            0   -509.37357    23.290128    21.342171    21.744758    10808.491   -740.54929    -491.9353   -295.63612    -488.8985    321.57984    329.55394   -6830.7878 
 9702000    54.277588   -6893.8875   -6754.2617   -6893.8875            0   -412.77843    23.310744    21.299516    21.734597    10791.392   -509.45158    152.34558   -881.22929   -29.238524   -398.91417    -249.3713   -6819.2254 
 9703000    51.837926   -6895.4793   -6762.1293   -6895.4793            0    44.607545    23.326179    21.229939    21.747612    10769.708    -128.3496    253.40088    8.7713535    106.19206    376.49322   -211.54605   -6755.1231 
 9704000    51.593488   -6887.2837   -6754.5626   -6887.2837            0   -487.66723    23.358267    21.291138    21.708512    10796.166   -969.96893    97.636872   -590.66963   -171.85352   -109.30804   -208.22282   -6831.3463 
 9705000    51.853757   -6889.0517   -6755.6611   -6889.0517            0   -386.53726    23.429042      21.2128     21.72327    10796.369   -1726.9181    551.57545    15.730897   -304.02541   -48.670426    108.65835   -6816.5229 
 9706000    50.727198   -6890.8357   -6760.3431   -6890.8357            0   -545.48247    23.335767    21.243069    21.783677    10798.676   -483.39108   -140.69713   -1012.3592   -713.85969    406.66717    86.864801   -6846.2498 
 9707000    49.692863   -6886.3954   -6758.5635   -6886.3954            0     -97.5404     23.36739    21.272189    21.687649      10780.4     164.7916   -604.77849    147.36569   -883.69762    344.53219    75.176921    -6773.899 
 9708000    52.808727   -6886.3209   -6750.4737   -6886.3209            0    -215.0897    23.274965    21.288733    21.791188    10797.414   -171.10071    58.887473   -533.05587    29.489929   -435.47529     169.3916   -6784.3437 
 9709000    55.202057   -6890.1607   -6748.1568   -6890.1607            0   -298.06542    23.370544    21.258056    21.716457    10789.004   -724.80441    369.17581   -538.56767   -222.97013   -52.889724   -361.15134   -6795.0564 
 9710000    53.896151     -6890.61   -6751.9655     -6890.61            0   -270.54467     23.29115     21.35597     21.68025    10783.867   -364.72673   -766.74839    319.84112    69.480858    -171.4127   -92.457147   -6794.5145 
 9711000    52.931861   -6884.0063   -6747.8423   -6884.0063            0   -774.09264    23.267253    21.324643    21.818823    10825.755   -877.79029    81.999398    -1526.487   -68.601325    282.52867   -457.70084    -6870.058 
 9712000     52.71807    -6892.628    -6757.014    -6892.628            0   -275.37348    23.356332    21.339531    21.627379    10779.371   -975.26784   -301.39336    450.54074    326.29655    118.92162    624.81367   -6800.3044 
 9713000    53.051251   -6890.2171    -6753.746   -6890.2171            0   -454.16368    23.248815    21.403846    21.718489    10807.425   -646.64892   -674.28511    -41.55702     27.27717   -22.447979   -158.45433   -6825.3291 
 9714000    53.508427   -6889.8384   -6752.1912   -6889.8384            0   -340.75987    23.267971    21.350369    21.722665     10791.38    66.926489   -327.11669   -762.08942    86.702264   -134.34603    446.82208   -6805.8204 
 9715000    50.755271   -6890.5025   -6759.9377   -6890.5025            0   -274.44495    23.231241     21.42059     21.68481    10790.944   -144.51381   -579.15065   -99.670389   -394.17098   -581.81344   -322.33758   -6803.1284 
 9716000    51.587937   -6885.1769   -6752.4701   -6885.1769            0   -360.01613    23.235107    21.336767    21.778269     10796.84   -128.58963   -305.06038   -646.39838    218.23676   -140.40184    216.70994   -6809.1585 
 9717000    51.355535    -6885.098    -6752.989    -6885.098            0   -361.27289    23.257416    21.428319    21.673709    10801.468   -648.63305   -161.26644   -273.91919   -189.51421    585.75284   -50.718823   -6809.8997 
 9718000    53.098215   -6884.9095   -6748.3176   -6884.9095            0   -196.24475    23.164776    21.426946    21.735444    10788.396     281.7961   -446.98267   -423.54767    216.82708    5.6293834    89.273431   -6779.1943 
 9719000     52.24693   -6888.0068   -6753.6048   -6888.0068            0   -79.647997    23.220979    21.447205    21.657611    10786.034    47.715382   -560.75412    274.09475    491.02289   -61.542281    295.14863   -6766.1337 
 9720000    52.042895   -6892.9093   -6759.0321   -6892.9093            0   -777.09485    23.124638     21.46681    21.765915    10804.866   -64.090107   -1595.3111   -671.88338   -71.600158    280.64027    713.23818   -6881.4851 
 9721000    52.460779   -6891.2194   -6756.2673   -6891.2194            0   -323.20584    23.241585    21.467263    21.644019    10798.921   -723.11668   -436.41763     189.9168    30.106836   -2.7721903   -146.33523   -6807.1694 
 9722000    53.193625   -6893.1425   -6756.3051   -6893.1425            0    149.77506    23.152267    21.379462    21.760465    10771.061    479.11629    -73.44372    43.652623    45.637554    938.75223    319.85178   -6732.7777 
 9723000    50.386876   -6884.3564   -6754.7393   -6884.3564            0   -616.67196    23.179443    21.546819    21.645497    10810.698   -113.33002   -1101.0633   -635.62259   -53.130882   -362.53213   -399.14815   -6851.9656 
 9724000    54.209821   -6885.4308   -6745.9793   -6885.4308            0   -250.88823    23.190962    21.456333    21.663158    10779.436   -266.52501   -586.88402    100.74433   -53.251915    466.33683    446.56335   -6785.4207 
 9725000    52.545318   -6889.0834   -6753.9138   -6889.0834            0   -538.69394    23.157508    21.457205    21.743298    10804.145     288.4714   -899.29795   -1005.2553    228.00687   -11.256425   -14.528442   -6838.7944 
 9726000    53.919287    -6892.292    -6753.588    -6892.292            0   -818.24254    23.132809    21.510073    21.708618    10801.957   -658.93268   -966.60687   -829.18807    -395.0218    390.19662    62.943484   -6882.4902 
 9727000    54.846526   -6881.6344   -6740.5451   -6881.6344            0   -153.18268    23.164707    21.494965     21.65138    10780.754    450.52537    -1062.263    152.18962   -225.60692   -82.990084    82.464014   -6764.6294 
 9728000    55.097094   -6883.9414   -6742.2075   -6883.9414            0   -4.2776178    23.123598    21.456119    21.726835     10779.61    1053.3637   -1236.5915    170.39499    243.06263    122.56002    -80.09845     -6742.88 
 9729000    51.963749   -6881.6776    -6748.004   -6881.6776            0   -587.08566    23.148291    21.524755    21.680101    10802.355   -364.53727   -961.67477   -435.04494   -78.524718   -102.61373   -521.19936   -6840.4942 
 9730000     56.95332    -6892.517    -6746.008    -6892.517            0   -402.37589    23.159029    21.462977    21.708278    10790.354    177.83856   -1012.0613   -372.90496     681.9051    -354.9115    316.42719   -6809.3284 
 9731000    51.430508   -6877.3332   -6745.0314   -6877.3332            0   -52.464748     23.21033    21.430611    21.690555    10789.133    46.610139   -380.34207    176.33768   -66.437296   -115.79356    -628.2367   -6753.2866 
 9732000    54.113339    -6887.688   -6748.4847    -6887.688            0   -57.071814    23.160926    21.436568    21.697394    10772.556    607.23525   -1088.6042    310.15356     429.8072   -348.17815     913.2074   -6757.4511 
 9733000    53.329995   -6892.9663   -6755.7782   -6892.9663            0   -721.12991    23.245416    21.398203    21.726658     10807.06    -785.4687   -374.25883   -1003.6622   -46.007455   -61.409468   -385.70371   -6869.4354 
 9734000    53.147079    -6890.284   -6753.5664    -6890.284            0   -338.31069    23.237891     21.39721    21.694863    10787.251   -564.30468   -347.01534   -103.61205    264.23279    331.45802    321.81785   -6806.7897 
 9735000    52.914935    -6890.579   -6754.4586    -6890.579            0   -234.27184    23.239685    21.381298    21.708361    10786.768   -297.67298   -45.499679   -359.64287   -587.82382   -32.585563   -350.44167   -6791.3128 
 9736000    54.625004   -6893.6561   -6753.1366   -6893.6561            0   -515.65823    23.264509    21.314401    21.766804    10793.485   -721.98894    239.91986   -1064.9056    305.97773    312.79192    140.73691   -6834.3073 
 9737000    50.977562   -6888.3378   -6757.2011   -6888.3378            0   -125.81115    23.278287    21.348547    21.691416    10779.714    201.35018    -239.7626   -339.02101   -366.59631    -591.0126   -665.75713     -6776.98 
 9738000    54.704275   -6886.9461   -6746.2227   -6886.9461            0   -165.41013    23.319771    21.244125    21.778164     10789.08   -714.18772    351.97139   -134.01407    431.94343   -77.957525    522.52215   -6772.2496 
 9739000    51.862747    -6886.957   -6753.5432    -6886.957            0   -369.49581    23.322576    21.312671     21.72173    10797.142   -854.49349   -182.66716   -71.326777    200.63515   -420.89055   -107.01955    -6811.726 
 9740000    52.159362   -6884.0562   -6749.8795   -6884.0562            0   -451.64516    23.333543    21.254742    21.765351    10794.492    -275.7644   -240.12312   -839.04795    -516.1052   -259.77533   -75.324547   -6820.9804 
 9741000    52.451614   -6889.4084   -6754.4798   -6889.4084            0   -742.21507    23.370275    21.261386    21.767096    10815.731   -1096.2233   -58.358953    -1072.063    501.95657    190.31035   -36.653106   -6871.5541 
 9742000     51.93832   -6888.7286   -6755.1204   -6888.7286            0   -286.50703    23.361999    21.256063     21.72208     10786.84   -831.89869    304.66227   -332.28468   -202.42586   -271.43923    13.435327   -6800.1923 
 9743000    53.325059   -6885.8419   -6748.6664   -6885.8419            0   -206.28837    23.378831    21.227153    21.752535    10795.044   -775.42702    608.23657   -451.67465   -348.90014   -272.07384    -436.9283   -6781.1434 
 9744000    51.937464    -6884.824    -6751.218    -6884.824            0   -541.77483    23.338114    21.303966    21.736016    10807.025   -847.87836   -511.01278   -266.43337    275.69581   -195.93853     701.8026   -6836.6068 
 9745000    56.337129   -6887.3731   -6742.4492   -6887.3731            0   -515.73548    23.351663    21.283192     21.72895    10799.244    -896.0629    133.44869   -784.59223   -312.36819   -28.089211   -455.02862   -6823.6755 
 9746000    52.813054   -6892.0269   -6756.1685   -6892.0269            0    -263.4507    23.307627    21.294628    21.737518    10788.923   -1030.4872    43.042442    197.09265    305.84701   -144.73802    391.68589   -6797.6213 
 9747000    52.226729   -6886.3283   -6751.9782   -6886.3283            0   -816.24085    23.356885    21.318489    21.718222     10814.23   -905.35537   -284.88239   -1258.4848   -345.09089   -264.88776   -296.82567   -6880.7112 
 9748000    54.021615   -6888.8267   -6749.8593   -6888.8267            0   -710.15922    23.273331    21.334549    21.771955    10810.342   -1151.9771   -198.19461   -780.30595    281.97455    126.39683    244.54904   -6861.8214 
 9749000    52.814082   -6891.8182   -6755.9572   -6891.8182            0   -137.93298    23.250129    21.402858    21.686616    10791.676    69.391165   -712.87029    229.68018   -219.56306    143.10758    210.49312   -6777.6659 
 9750000    55.669705   -6883.1738   -6739.9669   -6883.1738            0   -626.46032    23.219416    21.420697     21.73355    10809.748   -474.83507   -492.44436   -912.10152   -266.42114      202.653   -207.64401   -6838.7278 
Loop time of 515.602 on 64 procs for 250000 steps with 1296 atoms

Performance: 83.786 ns/day, 0.286 hours/ns, 484.870 timesteps/s
99.1% CPU use with 64 MPI tasks x 1 OpenMP threads

MPI task timing breakdown:
Section |  min time  |  avg time  |  max time  |%varavg| %total
---------------------------------------------------------------
Pair    | 28.263     | 40.023     | 52.53      | 122.3 |  7.76
Bond    | 0.28011    | 0.28808    | 0.29572    |   0.7 |  0.06
Kspace  | 253.81     | 267.57     | 279.63     |  47.6 | 51.90
Neigh   | 0.25175    | 0.25948    | 0.26594    |   0.6 |  0.05
Comm    | 89.069     | 90.707     | 94.169     |  15.4 | 17.59
Output  | 0.58491    | 0.58642    | 0.58818    |   0.1 |  0.11
Modify  | 103.17     | 105.6      | 107.96     |  11.4 | 20.48
Other   |            | 10.56      |            |       |  2.05

Nlocal:        20.2500 ave          27 max          14 min
Histogram: 9 5 6 9 4 5 9 5 6 6
Nghost:        2589.05 ave        2613 max        2562 min
Histogram: 3 3 7 8 9 5 10 9 7 3
Neighs:        6461.67 ave        8666 max        4476 min
Histogram: 9 5 8 7 4 5 8 6 6 6

Total # of neighbors = 413547
Ave neighs/atom = 319.09491
Ave special neighs/atom = 2.0000000
Neighbor list builds = 445
Dangerous builds = 0

unfix		3
unfix		2
unfix		1

write_data	data.final.${pid}
write_data	data.final.0
System init for write_data ...
PPPM initialization ...
  extracting TIP4P info from pair style
  using 12-bit tables for long-range coulomb (../kspace.cpp:340)
  G vector (1/distance) = 0.36733539
  grid = 30 40 32
  stencil order = 5
  estimated absolute RMS force accuracy = 0.0045255524
  estimated relative force accuracy = 1.3628567e-05
  using double precision FFTW3
  3d grid and FFT values/proc = 5168 640
Last active /omp style is kspace_style pppm/tip4p/omp
WARNING: Not all mixed pair coeffs generated from mixing. Use write_data with 'pair ij' option to store all pair coeffs. (../write_data.cpp:312)

write_restart   restart.lmp.${pid}
write_restart   restart.lmp.0
System init for write_restart ...
PPPM initialization ...
  extracting TIP4P info from pair style
  using 12-bit tables for long-range coulomb (../kspace.cpp:340)
  G vector (1/distance) = 0.36733539
  grid = 30 40 32
  stencil order = 5
  estimated absolute RMS force accuracy = 0.0045255524
  estimated relative force accuracy = 1.3628567e-05
  using double precision FFTW3
  3d grid and FFT values/proc = 5168 640
Last active /omp style is kspace_style pppm/tip4p/omp
Total wall time: 0:08:35
