LAMMPS (30 Jul 2021)
Processor partition = 1
  using 2 OpenMP thread(s) per MPI task
using multi-threaded neighbor list subroutines
variable        pid world 0 1
variable        phase world IceV IceIII

shell cd ${phase}
shell cd IceIII
include Restart.lmp
echo both
log log.lammps
#include		in.partitions
include		in.temp
variable        temperature equal 193.97
variable	tempDamp equal 100.0
include		in.pressure
variable        pressure equal 7454.4
variable        pressureDamp equal 1000.0 # This is 1 ps
include		in.seed
variable        seed equal 745823

units		real
atom_style	full

read_restart	restart.lmp.${pid}
read_restart	restart.lmp.1
Reading restart file ...
  restart file = 30 Jul 2021, LAMMPS = 30 Jul 2021
  restoring atom style full from restart
  orthogonal box = (0.18577530 0.12086852 0.0044113819) to (19.814226 19.879132 20.695587)
  2 by 4 by 4 MPI processor grid
  restoring pair style lj/cut/tip4p/long/omp from restart
  restoring bond style harmonic/omp from restart
  restoring angle style harmonic/omp from restart
  972 atoms
  648 bonds
  324 angles
Finding 1-2 1-3 1-4 neighbors ...
  special bond factors lj:    0        0        0       
  special bond factors coul:  0        0        0       
     2 = max # of 1-2 neighbors
     1 = max # of 1-3 neighbors
     1 = max # of 1-4 neighbors
     2 = max # of special neighbors
  special bonds CPU = 0.002 seconds
  read_restart CPU = 0.008 seconds
include 	in.setup
variable	out_freq equal 1000
variable	out_freq2 equal 10000
variable	out_freq3 equal 1000

timestep	2.0

neigh_modify    delay 7 every 1

include		in.tip4p
# This is TIP4P/Ice

# create groups ###
group ox type 2
324 atoms in group ox
group hy type 1
648 atoms in group hy

# set charges - beside manually ###
set group ox charge -1.1794
Setting atom values ...
  324 settings made for charge
set group hy charge 0.5897
Setting atom values ...
  648 settings made for charge

# ### TIP3P Potential Parameters ###
pair_style lj/cut/tip4p/long/omp 2 1 1 1 0.1577 8.5
pair_coeff 1 1*2 0.000 0.000
pair_coeff 2 2 0.21084 3.1668
bond_style  harmonic
bond_coeff  1 450 0.9572
angle_style harmonic
angle_coeff 1 55 104.52
kspace_style pppm/tip4p/omp 1.0e-5
pair_modify tail yes

thermo          ${out_freq}
thermo          1000
thermo_style    custom step temp pe etotal epair emol press lx ly lz vol pxx pyy pzz pxy pxz pyz enthalpy

restart 	${out_freq3} restart.lmp.${pid} restart2.lmp.${pid}
restart 	1000 restart.lmp.${pid} restart2.lmp.${pid}
restart 	1000 restart.lmp.1 restart2.lmp.${pid}
restart 	1000 restart.lmp.1 restart2.lmp.1


include         in.dump
dump            myDump all atom ${out_freq2} dump.water.${pid}
dump            myDump all atom 10000 dump.water.${pid}
dump            myDump all atom 10000 dump.water.1
dump            myDump2 all dcd ${out_freq2} dump.dcd
dump            myDump2 all dcd 10000 dump.dcd
dump_modify     myDump append yes
dump_modify     myDump2 append yes


variable natoms 	equal  "count(all)"                        # NUMBER ATOMS
variable H      	equal  "enthalpy/v_natoms"                 # ENTHALPY-per-atom
variable Vol      	equal  "vol/v_natoms"                 # volume-per-atom
fix AVG all 		ave/time ${out_freq} 1 ${out_freq} v_Vol v_H file vol_enthalpy.dat
fix AVG all 		ave/time 1000 1 ${out_freq} v_Vol v_H file vol_enthalpy.dat
fix AVG all 		ave/time 1000 1 1000 v_Vol v_H file vol_enthalpy.dat


timer           timeout 02:55:00 every 1000
New timer settings: style=normal  mode=nosync  timeout=02:55:00

fix 		1 all shake 1e-6 200 0 b 1 a 1
Finding SHAKE clusters ...
       0 = # of size 2 clusters
       0 = # of size 3 clusters
       0 = # of size 4 clusters
     324 = # of frozen angles
  find clusters CPU = 0.000 seconds
fix             2 all nph aniso ${pressure} ${pressure} ${pressureDamp}
fix             2 all nph aniso 7454.4 ${pressure} ${pressureDamp}
fix             2 all nph aniso 7454.4 7454.4 ${pressureDamp}
fix             2 all nph aniso 7454.4 7454.4 1000
fix             3 all temp/csvr ${temperature} ${temperature} ${tempDamp} ${seed}
fix             3 all temp/csvr 193.97 ${temperature} ${tempDamp} ${seed}
fix             3 all temp/csvr 193.97 193.97 ${tempDamp} ${seed}
fix             3 all temp/csvr 193.97 193.97 100 ${seed}
fix             3 all temp/csvr 193.97 193.97 100 745823


run             250000
PPPM initialization ...
  extracting TIP4P info from pair style
  using 12-bit tables for long-range coulomb (../kspace.cpp:340)
  G vector (1/distance) = 0.37339939
  grid = 24 24 25
  stencil order = 5
  estimated absolute RMS force accuracy = 0.0032880761
  estimated relative force accuracy = 9.9019434e-06
  using double precision FFTW3
  3d grid and FFT values/proc = 3458 576
Last active /omp style is kspace_style pppm/tip4p/omp
Neighbor list info ...
  update every 1 steps, delay 7 steps, check yes
  max neighbors/atom: 2000, page size: 100000
  master list distance cutoff = 10.8154
  ghost atom cutoff = 10.8154
  binsize = 5.4077, bins = 4 4 4
  1 neighbor lists, perpetual/occasional/extra = 1 0 0
  (1) pair lj/cut/tip4p/long/omp, perpetual
      attributes: half, newton on, omp
      pair build: half/bin/newton/omp
      stencil: half/bin/3d
      bin: standard
Setting up Verlet run ...
  Unit style    : real
  Current step  : 13750000
  Time step     : 2
  Walltime left : 2:54:59.93
Per MPI rank memory allocation (min/avg/max) = 10.19 | 10.20 | 10.21 Mbytes
Step Temp PotEng TotEng E_pair E_mol Press Lx Ly Lz Volume Pxx Pyy Pzz Pxy Pxz Pyz Enthalpy 
13750000    201.90017   -4825.6867   -4436.3052   -4825.6867            0    8486.2247     19.62845    19.758264    20.691175    8024.5365    9453.6987    8375.9228    7629.0525   -133.59477    19.481441    584.26501   -3443.1655 
13751000    197.09752   -4856.1334   -4476.0143   -4856.1334            0     7401.727    19.676028    20.292404    20.317338    8112.1829    7840.6979    7041.2345    7323.2485   -240.84625   -372.96284    1384.9591   -3600.3317 
13752000    192.93489   -4835.2508   -4463.1597   -4835.2508            0    7353.3759     19.84533    19.580764    20.705199    8045.7657     5988.842    7539.1984    8532.0873    331.94625   -846.57176     865.4972   -3600.3201 
13753000    196.91751   -4853.8476   -4474.0756   -4853.8476            0    8220.3987    19.928692    19.871686    20.312936    8044.2621    6928.1293    8964.8906    8768.1763    1137.4946    498.94495    567.13134   -3509.6805 
13754000    185.82809   -4862.0153   -4503.6302   -4862.0153            0    6155.6953    19.765429     19.73313    20.687711    8068.9061    6706.7582    6745.9111    5014.4166    197.69329     854.5573    80.863548   -3779.2481 
13755000    189.38957   -4834.4647    -4469.211   -4834.4647            0    6482.9724    20.054953    19.724057    20.452857    8090.4353    6512.2767    5341.3707    7595.2699   -253.63514   -624.24792    544.94462   -3704.2805 
13756000    195.11188   -4830.7735   -4454.4838   -4830.7735            0    7766.4397    19.579544    19.786769     20.80284    8059.3514    8776.6002    7451.6723    7071.0466   -521.43812   -642.06246   -786.63055   -3541.6369 
13757000    194.81918   -4836.8391   -4461.1139   -4836.8391            0    9863.5803    19.848466      19.6177    20.509997    7986.2081    11118.394    8346.3718    10125.975    76.192582    897.16227   -402.63481   -3312.2963 
13758000    198.00005   -4835.2918   -4453.4321   -4835.2918            0    8753.0465    19.581585    20.054686    20.350617    7991.7391    9579.0608    7538.5461    9141.5325     114.5837    715.27226   -462.06188    -3433.253 
13759000     206.5287   -4851.2124   -4452.9045   -4851.2124            0    5367.3209    19.747793    19.990584    20.624846    8142.0691    6250.8895    4655.8155    5195.2578   -38.944896   -147.60239   -1521.9105   -3815.5688 
13760000    193.06421   -4829.0717   -4456.7311   -4829.0717            0    7814.9599    19.786818    19.814811    20.554016    8058.6554    9347.5572    6212.7111    7884.6114   -397.86031    -211.4215    655.06528   -3538.2606 
13761000    194.15506   -4856.1388   -4481.6944   -4856.1388            0    7045.7841    19.944607    19.832326    20.494356    8106.5005     4893.072    9314.0242    6930.2561    273.73433     999.3086   -1486.7718   -3648.7067 
13762000    192.22516   -4809.3248   -4438.6025   -4809.3248            0    7715.8932    19.846666     19.94519    20.423606    8084.5936    7797.1718     7590.428    7760.0799    890.09277      1222.94    124.86202   -3528.8562 
13763000    203.40849   -4831.7943   -4439.5039   -4831.7943            0    9635.0503    19.594066    19.836662    20.695917    8044.1071    12379.985    7867.0228    8658.1431    23.811417    430.53716    1753.2961   -3309.1675 
13764000    197.91972   -4863.5061   -4481.8013   -4863.5061            0    7949.4209     19.86239    19.898691    20.465013    8088.5004      9515.73    7043.0191    7289.5135   -1040.8552    814.02939    1002.2705   -3544.0678 
13765000    196.01566   -4847.3877    -4469.355   -4847.3877            0    7386.6142    19.636249    19.834429    20.705898    8064.4048    8453.9063    7371.3832     6334.553   -225.97206    628.20538   -349.43745   -3600.6074 
13766000     199.5923   -4844.3977   -4459.4672   -4844.3977            0    8987.7722    19.779345    19.774704    20.459991    8002.5307    7210.3074    10481.474    9271.5349    -225.5163    587.75643    1228.3495   -3410.5159 
13767000    197.49882   -4857.0111    -4476.118   -4857.0111            0       5966.9    19.830473    19.894902    20.490523      8084.03    4831.7651    6064.3843    7004.5507    57.625919   -4.5730451    41.943126   -3772.6367 
13768000    190.41745   -4858.6663   -4491.4302   -4858.6663            0    8480.9532    19.846337    19.874788    20.442738    8063.4692    9514.0354    6726.1818    9202.6424   -39.711157     392.8828    626.10553   -3494.0919 
13769000    190.35563   -4840.6438    -4473.527   -4840.6438            0    7939.3987    19.821008     19.78932    20.533935    8054.3183    9181.4113    7488.5977    7148.1872    482.72348    705.29963    312.86731   -3540.9337 
13770000    192.48779   -4852.5367   -4481.3078   -4852.5367            0    6486.4164    19.924217    19.799009    20.606508    8128.8504     4796.205     8520.494    6142.5502    252.32934    143.26874    1155.7008    -3712.337 
13771000    188.12125   -4857.9096    -4495.102   -4857.9096            0    6673.9535    19.693396    20.030861    20.553367    8107.8036    6029.0026    7342.0688    6650.7891    390.61692    1672.7699   -149.94349    -3705.947 
13772000     198.1355   -4858.4008   -4476.2798   -4858.4008            0    5994.7923    19.766721    19.825534    20.762381     8136.482    7252.7098    6371.3096    4360.3575   -502.22119   -461.42381   -303.14655   -3764.9243 
13773000    194.18794   -4858.5997    -4484.092   -4858.5997            0    7035.6574    19.931884    19.825243    20.393684    8058.6549    7088.9116     5953.856    8064.2046    61.402402    -332.2553    1370.6749   -3657.2108 
13774000    200.37884   -4823.0917   -4436.6442   -4823.0917            0    7687.5391    19.637631    19.917609    20.679097    8088.3115    8815.1288    7204.7469    7042.7417    231.30428   -70.282868    494.65221   -3529.8242 
13775000    200.85064   -4834.8261   -4447.4687   -4834.8261            0    7324.8952    19.948667    19.798803     20.42951    8068.8334    8262.0524    6477.1939    7235.4391   -513.74001    458.71846   -27.016173   -3585.5069 
13776000    202.22504   -4834.9666   -4444.9586   -4834.9666            0    8054.1659    19.903254    19.740927    20.563099    8079.4203    7481.4658    8787.3208    7893.7111   -59.777759    -264.8817   -570.35821   -3495.9358 
13777000    205.55085   -4835.0085   -4438.5864   -4835.0085            0    8027.3085    19.954081    19.810838    20.352845    8045.6237    8417.6588    7542.0439    8122.2229    123.53974    1691.0923    123.51763   -3496.6847 
13778000    186.10069   -4833.9982   -4475.0873   -4833.9982            0    6912.5309    19.603215    19.935086     20.59678    8049.0527    8088.3047    5552.6616    7096.6263   -1166.4885    465.70894    -1584.365   -3663.6448 
13779000    191.33029   -4837.1972   -4468.2006   -4837.1972            0    6916.9121    19.706644    19.901678    20.599385     8078.982    7993.5827    5846.9092    6910.2443   -660.31819   -705.80915    550.12017   -3653.2247 
13780000    202.71106   -4847.4031   -4456.4578   -4847.4031            0     6292.061     19.91361    19.755016    20.497626    8063.6363    7078.5288    5167.4738    6630.1806    520.17986    1122.0054    181.83265   -3716.5123 
13781000    195.75832   -4830.3311   -4452.7947   -4830.3311            0    6081.2316    19.891806     19.77746    20.697661     8142.654    7341.4547    6638.1098    4264.1302    428.35436    309.28721   -706.88722   -3730.6347 
13782000    195.69947   -4837.8387   -4460.4158   -4837.8387            0     8325.742    19.899013    19.853025    20.411179     8063.551    8065.8035    9308.5832    7602.8393   -256.87582    953.85719    750.50954   -3481.3201 
13783000    190.30827   -4827.9568   -4460.9313   -4827.9568            0    8360.0063    19.737116    19.934465     20.45719     8048.858    9387.1647    7532.4618    8160.3923    347.18425   -99.234883   -488.14768   -3479.5975 
13784000    189.22544   -4841.9909   -4477.0538   -4841.9909            0    8794.2391    19.536982    19.857509    20.501997    7953.8687    10694.646    8255.0908    7432.9805    404.99665     541.4421    375.01124   -3456.9307 
13785000     186.0399   -4863.1622   -4504.3686   -4863.1622            0    7475.1572    19.874884    19.674746    20.631335     8067.539    7160.5261    8763.7269    6501.2185    74.955603    556.61322   -15.938524   -3624.8657 
13786000    196.15469   -4870.6404   -4492.3396   -4870.6404            0    7173.9145    19.935543    19.912541    20.357492    8081.2593    6805.1589    6181.9974    8534.5872    204.63483    -1159.614    70.853827   -3646.8444 
13787000    191.66442   -4835.0742   -4465.4333   -4835.0742            0    7856.7914    19.893897    19.673923    20.586235     8057.267    8158.5498    8160.1284     7251.696    38.559794    994.94495   -63.754668   -3542.2055 
13788000    196.81057   -4847.3684   -4467.8026   -4847.3684            0    5494.6848    19.874969    19.934084    20.627409     8172.359    5631.5464    4713.8635    6138.6446    -89.14712    940.98635   -239.13912    -3812.916 
13789000    188.19608   -4838.6132   -4475.6612   -4838.6132            0    7315.2728    19.848668    19.769078    20.443384     8021.777    7877.2541    7305.8385    6762.7257    731.50955   -282.92947    408.13475   -3619.8519 
13790000    193.19669    -4854.157   -4481.5609    -4854.157            0    7200.0639     19.95275    19.782554    20.525915    8101.9145    8193.2261    7029.2387    6377.7269    67.027009    44.946783    298.41058    -3630.815 
13791000    190.99097    -4836.775   -4468.4329    -4836.775            0    8083.2716     19.79519    19.884132    20.609491     8112.105    6048.6711    10240.741    7960.4023   -39.874399    333.82858   -963.83103   -3512.1275 
13792000    191.97689   -4848.1042   -4477.8606   -4848.1042            0    6653.9331     19.64063    20.014988     20.48637    8053.3349    7216.7677    7284.0477     5460.984    348.03023   -783.04216    155.43889   -3696.3586 
13793000    198.99915    -4837.007   -4453.2204    -4837.007            0    7752.6479    19.932198    19.669625    20.493526    8034.6685    6888.5142    7713.3269    8656.1025   -734.19427   -742.67023   -117.90174   -3544.7853 
13794000    183.03446   -4847.3872   -4494.3898   -4847.3872            0    7499.5443    19.865218    19.845026    20.436535    8056.6088    5880.2958     8193.689    8424.6479    309.02658   -390.05474   -268.04127   -3613.2131 
13795000    190.57072   -4867.0517     -4499.52   -4867.0517            0    7952.4265    19.798958    19.726783    20.646946    8064.0723     7036.911    9365.8765    7454.4921    504.14414    -249.9179   -1117.5691   -3564.2652 
13796000     191.3274   -4852.9581   -4483.9671   -4852.9581            0    6827.3397    19.888678     20.10351    20.194514    8074.4175    8321.3798    5299.5968    6861.0425   -5.4041705   -41.808948    204.97533   -3679.9994 
13797000    197.14861   -4845.8084   -4465.5908   -4845.8084            0    8356.6916    19.556292    19.895377     20.64712    8033.3776    9735.4154      7476.11    7858.5494    76.514971   -265.00845    -374.5681   -3486.5327 
13798000    190.81098   -4865.0515   -4497.0565   -4865.0515            0    7269.4941    19.822595    19.908743     20.49088    8086.5817    5747.2674    8409.9806    7651.2342    -675.6927   -525.74428    -818.4795   -3639.7324 
13799000     191.6375   -4836.6324   -4467.0434   -4836.6324            0    6554.3801    19.937961    19.846776    20.513335    8117.2137    5952.6471    5655.5796    8054.9136    436.07104    679.82726    1767.4156   -3691.1277 
13800000    182.46051   -4840.6499   -4488.7594   -4840.6499            0    8639.2581    19.786165    19.778486    20.620755    8069.7341    8540.5733    9965.3945    7411.8066    156.13391   -307.20225   -443.73217   -3472.0156 
13801000    206.64809   -4820.9673   -4422.4291   -4820.9673            0    7356.1231    19.836123    19.994468    20.489799    8126.5147     8104.331    7496.1963     6467.842    749.05111    820.55764   -433.21127   -3550.6043 
13802000    187.31484   -4851.8227   -4490.5703   -4851.8227            0    5937.9237    19.782029    19.889414    20.597581    8104.1792    5351.2684    7459.9074    5002.5954   -373.84686   -1173.7882   -677.59461   -3788.7603 
13803000    188.98949   -4855.5308   -4491.0487   -4855.5308            0    7869.9986    19.819912    19.838187    20.431682    8033.5558     8315.858    7705.3727     7588.765    583.23283   -855.76682    114.17303   -3568.9904 
13804000    193.47539   -4825.5744   -4452.4409   -4825.5744            0    6241.1241    19.922867    19.930307    20.445121    8118.1206    5401.0746    6890.3371    6431.9607   -399.16573   -836.26357   -95.380698   -3713.5263 
13805000    192.99508   -4833.7096   -4461.5023   -4833.7096            0    7684.7271    19.578356    19.777577    20.861669    8077.8979    8512.8824    8765.6117    5775.6872   -423.51042    157.35153   -635.67604   -3556.1811 
13806000    201.11932   -4823.2116   -4435.3361   -4823.2116            0     7818.065    19.966571    19.871476    20.387666    8089.1171    9329.5278    6071.1844    8053.4827    242.92461    -451.0716    642.14699   -3513.0274 
13807000    185.14123     -4851.27   -4494.2096     -4851.27            0    6571.2803    19.601997    19.799581    20.764738    8059.0302    7038.4766    6756.0612    5919.3031   -40.813685    315.45697    231.32228   -3721.8694 
13808000    188.69711   -4851.2121   -4487.2938   -4851.2121            0    6412.5512    19.975526    19.986377     20.45507    8166.4493    7033.4093    4880.2608    7323.9836   -169.02079    262.36067   -288.19659   -3723.5635 
13809000    191.66156   -4841.9177   -4472.2823   -4841.9177            0    7597.8762    19.870733    19.704843    20.614429    8071.5728    8508.6848     8265.833    6019.1109    88.078562    595.94885    780.21362   -3577.8937 
13810000    201.49174   -4868.6139   -4480.0201   -4868.6139            0    6793.7425    19.907444    19.804898      20.5208    8090.6311    6293.2937    7468.7141    6619.2198    -390.5942    261.38691   -580.97564   -3678.4023 
13811000    194.50569   -4828.4522   -4453.3317   -4828.4522            0    9071.5998    19.834885    19.859376    20.275499    7986.6903    8195.3724    8921.8385    10097.588    481.08557   -210.69311    1197.7321   -3396.6927 
13812000    191.09111   -4812.7047   -4444.1694   -4812.7047            0    7016.3949     19.72008    19.937838    20.675654    8129.1661    7431.8183    6916.3088    6701.0577   -268.24208   -180.17985   -457.39742   -3612.3369 
13813000    197.54256   -4826.0025    -4445.025   -4826.0025            0    8026.8002    19.830281    19.983489    20.277998    8035.7283     8297.178    7554.8356    8228.3869   -450.79792    705.96589    493.75757   -3504.3414 
13814000    180.23115   -4826.2818   -4478.6908   -4826.2818            0     7122.243    19.742507    19.958491    20.608116    8120.2295    7004.6204    6750.6208    7611.4878     566.8145    644.83768    2145.8191   -3635.2377 
13815000    194.52434   -4850.3858   -4475.2292   -4850.3858            0    8358.0713    19.699501    20.098306    20.374281    8066.7198    9204.3729     6132.363    9737.4781    284.96197    241.74165     420.4309   -3491.9453 
13816000    197.70483   -4825.0218   -4443.7314   -4825.0218            0    6042.7984    19.899256     19.73495    20.644458    8107.3021    4695.0483    6846.4827    6586.8642   -283.30517   -634.84458   -1570.4887   -3729.2509 
13817000    187.95457   -4841.9285   -4479.4423   -4841.9285            0    7152.9268    19.756858    19.737297    20.669138    8059.8677    7690.0399    6748.1644    7020.5761    -106.4362   -1390.8863   -261.14375   -3638.6523 
13818000    195.61596   -4853.7319   -4476.4701   -4853.7319            0    7669.5405    19.849315    19.935423    20.382487    8065.4417    6734.8785    8778.0762    7495.6667    474.58985   -165.34747    168.75943   -3574.3312 
13819000    190.17519   -4861.3673   -4494.5985   -4861.3673            0    7776.8799    19.674704    19.691421    20.724648    8029.2032    8411.1925    8350.4446    6569.0024   -485.49541    197.99411   -303.53137   -3583.9438 
13820000    193.24746   -4837.2512   -4464.5572   -4837.2512            0    6629.7477    19.927571    19.941026    20.407785    8109.5685     6419.145    5369.5508    8100.5474     110.9379   -971.96906   -1047.2135   -3680.4587 
13821000    193.25495   -4834.2549   -4461.5464   -4834.2549            0    8849.3421    19.930236    19.556433    20.677744    8059.4469    8025.7082    9641.6637    8880.6543   -557.62852    1569.6962   -489.09571   -3421.4057 
13822000    206.62379   -4823.8111   -4425.3197   -4823.8111            0    7583.4523    19.962591    19.676472    20.547281    8070.8359    7052.0679    7735.7901    7962.4988   -537.87048    798.21135   -1000.6506   -3532.7105 
13823000    190.66595   -4863.4118   -4495.6964   -4863.4118            0    7659.5821    19.929727    19.565148    20.596037     8030.973    7182.9474    8077.1814    7718.6175    412.71034   -461.44134     268.0233   -3598.5793 
13824000    191.16284   -4851.2698   -4482.5962   -4851.2698            0    7712.2448    19.824241    19.737733    20.455777    8004.0507    6614.9395    7062.9461    9458.8488   -132.81974    815.59646    1130.5554   -3582.3392 
13825000    198.19405   -4865.7841   -4483.5502   -4865.7841            0    7134.4343    19.826409    19.840502    20.646422    8121.5987    7047.9432    7710.6349    6644.7248   -738.09476   -60.952216   -169.96608   -3638.5108 
13826000    190.04935   -4846.8449   -4480.3187   -4846.8449            0    6115.2713    19.656615    20.183765    20.539534    8148.9473    9430.5876     3678.111    5237.1152    172.16705     579.7898   -697.74053   -3753.5552 
13827000    190.16707   -4871.0954   -4504.3422   -4871.0954            0    7118.7611    20.048825    19.657196    20.527043    8089.7831    5510.5286    8304.4158     7541.339   -299.93887   -807.51136    163.77905   -3664.4623 
13828000    193.88862   -4808.2753   -4434.3447   -4808.2753            0    8634.6651    19.735473    19.793245    20.512907    8012.9376    10379.706    6858.8299    8665.4589     308.9036   -789.91072   -514.29826   -3425.2937 
13829000    187.12488   -4853.5773   -4492.6912   -4853.5773            0    6761.6043    19.790337    19.985813    20.442672    8085.6076    7184.0031    4947.3523    8153.4576   -98.862734   -298.84616    777.34985   -3695.3609 
13830000    202.74003   -4856.5684   -4465.5672   -4856.5684            0    5655.6012    19.951882    19.937897    20.549718    8174.6486    6549.9299    4492.9217    5923.9521   -387.64317    1151.8371    1621.7254   -3791.3128 
13831000    200.48865   -4855.1699   -4468.5106   -4855.1699            0    6202.5336     19.91998    19.855926    20.431145    8081.1237    6440.9385    5720.0632    6446.5991   -180.49297   -908.45819    -177.5055   -3737.5117 
13832000    185.66411   -4848.2018    -4490.133   -4848.2018            0     7625.453    19.884426    19.750794    20.560422    8074.7604    8439.1993    6955.8943    7481.2653    661.00795    417.50507   -231.86029   -3592.1436 
13833000     199.2171   -4851.2339   -4467.0269   -4851.2339            0    7451.0907    19.868154    19.923528    20.445268    8093.1308    6963.9106    6947.3512    8442.0104    56.003878    805.15507    2190.8782   -3587.5746 
13834000     202.3737   -4830.6242   -4440.3295   -4830.6242            0    7018.3565    19.726194    19.911681    20.591773    8088.0713    7395.8347    6332.3794    7326.8553   -252.78976    357.28439   -587.12902   -3612.4707 
13835000     182.8457   -4843.4769   -4490.8436   -4843.4769            0    7655.1914    19.750236    19.956949    20.524726    8089.9126    8584.3937    6626.7586    7754.4219   -144.17939    -38.78539    685.90455   -3587.6605 
13836000    191.26012     -4847.42   -4478.5588     -4847.42            0    7630.8722    19.911947    19.791303    20.418566    8046.6173    7371.4446    7241.2134    8279.9586    559.15997    653.66587    620.49685   -3583.0633 
13837000    194.13536   -4849.4069   -4475.0005   -4849.4069            0    8497.3281    19.774887    19.621792    20.628156    8004.1111    7220.6367    9713.8129    8557.5348    449.15378     1291.919   -197.47597   -3483.0925 
13838000    194.82517   -4846.7117    -4470.975   -4846.7117            0    8394.1461    19.851517     19.80916    20.455024    8043.7718    7848.6777    9060.3725    8273.3882   -74.497426    694.55995   -237.47426   -3486.2564 
13839000    188.81372    -4871.494   -4507.3508    -4871.494            0    6816.6586    19.934687    19.685036    20.508938    8048.0157    5858.4749    7894.3689    6697.1321    551.90187    382.38863   -303.20708   -3707.2656 
13840000    194.78837   -4863.6254   -4487.9596   -4863.6254            0    7208.2579     19.86747    19.908051    20.426085    8078.9785    7833.9277    7402.2917    6388.5544    216.61082   -751.97658   -275.43488   -3638.6566 
13841000    192.58926   -4856.6932   -4485.2686   -4856.6932            0    6485.4575    19.912392    19.853017    20.424658    8074.2976    6345.6466    6528.0392    6582.6867   -219.64418   -131.44602    556.75238   -3721.5713 
13842000    197.20664   -4853.6042   -4473.2747   -4853.6042            0     8703.742     19.81536    19.792772    20.540699    8056.0806    7558.7753     9937.678    8614.7727   -17.555994   -299.13309   -439.74674   -3450.6749 
13843000    200.56291   -4835.7592   -4448.9568   -4835.7592            0    7465.8066    19.721551    19.826878    20.529768    8027.4838    8054.7381    6631.3982    7711.2834    501.38208    -1013.015    370.05847   -3574.9152 
13844000    194.80726   -4849.6502    -4473.948   -4849.6502            0    7369.5405    19.924082    19.799166    20.457116    8069.9273    7220.8738    7181.8108    7705.9369   -31.529732    1378.0836   -1795.9722   -3606.6149 
13845000    187.85694   -4856.1322   -4493.8343   -4856.1322            0    8002.6945    19.813837    19.853793    20.441653    8041.3338    7535.3958    8329.1378    8143.5499   -326.12672   -232.33845    328.29921   -3555.3214 
13846000    205.42134   -4859.5146   -4463.3422   -4859.5146            0    6816.8844    19.781367    19.886751    20.475902    8054.9561    8697.3328     5176.972    6576.3483    90.800139   -759.70213   -1594.0742   -3662.5405 
13847000    199.14577   -4856.7954    -4472.726   -4856.7954            0    7216.1365     19.85266    19.781115    20.605953    8092.1175    7420.1759    7263.7948    6964.4388    513.94598   -537.19016    491.01882    -3621.112 
13848000    194.26794   -4844.3327   -4469.6707   -4844.3327            0    7817.9761    19.816444    19.882777     20.36038    8022.1105    7840.6624    6355.7276    9257.5385    585.85581    933.74039    228.40169   -3555.0124 
13849000    192.48849   -4847.1834   -4475.9531   -4847.1834            0    7169.4525    19.799568    19.872883    20.458739    8049.9919    7651.0341    6696.8788    7160.4444     104.1852    468.72749   -1359.6029   -3634.2532 
13850000     194.2518   -4845.6107   -4470.9797   -4845.6107            0    8075.9095    19.905168    19.731642    20.511934    8056.3011     6761.351    8982.0124     8484.365   -155.49005    413.92304    196.14509   -3522.1178 
13851000    183.31442   -4852.5847   -4499.0474   -4852.5847            0    8697.8381    19.822637    19.856793    20.378642    8021.3188    7664.0348    7983.7883    10445.691   -139.55375    1049.9123   -46.435173   -3481.5508 
13852000    186.48355   -4836.0151   -4476.3658   -4836.0151            0    6235.9961    19.856809    19.896199    20.690629    8174.3507    5653.9972    6035.6085    7018.3825     702.1291   -945.44306    674.69794   -3732.9446 
13853000    191.58824   -4828.4709   -4458.9768   -4828.4709            0    8210.3689     19.81029    19.922939    20.464886     8077.065    6866.8049    9805.2953    7959.0064    44.292735    509.66939    360.44742   -3491.8306 
13854000    195.41493    -4838.105   -4461.2309    -4838.105            0    7277.5608    19.872863     19.91217    20.490803    8108.4529    6637.6382    7628.3639    7566.6803    366.00604   -327.91244    80.095848   -3600.6341 
13855000    202.06512   -4820.7025    -4431.003   -4820.7025            0    8540.2011    19.860717    19.692285    20.519601    8025.2754    8080.3151    9577.5129    7962.7753   -232.30071   -623.97194    995.70619   -3431.4543 
13856000     190.3143   -4861.1058   -4494.0687   -4861.1058            0    6643.2289    19.917914    19.801383    20.535312    8099.1734    7120.9576      6038.41     6770.319    619.39238    -443.5542    327.13714   -3709.3829 
13857000    194.72806   -4842.6505    -4467.101   -4842.6505            0    5342.6737    19.777859    20.005048    20.469887    8099.0548    4239.1507    6444.7921    5344.0783    49.397134   -1462.7232   -159.81307   -3836.0436 
13858000    206.79315   -4852.3049   -4453.4869   -4852.3049            0    6831.8786    19.965092    19.720619    20.482659    8064.5134    6041.5599     8112.457     6341.619   -101.36143   -724.61999    582.17513   -3649.9715 
13859000    193.80464   -4839.8269   -4466.0583   -4839.8269            0    7517.9492    19.919401    19.710983    20.523871    8058.3072    6774.9349    9450.5551    6328.3576    -686.8681    -1150.242    789.56519   -3582.5328 
13860000    194.74602   -4836.7662   -4461.1821   -4836.7662            0    6830.8804    19.819942     19.88366    20.563747    8104.0285    6322.6778    6559.8825     7610.081   -176.59913   -941.13243    878.13516   -3653.8476 
13861000     199.8213   -4836.1599   -4450.7877   -4836.1599            0    7701.4286    19.937776    20.032644    20.242428    8084.9546     7346.279    6783.9853    8974.0214   -497.20239    336.90302    489.31389   -3542.7063 
13862000    187.91399   -4819.3493   -4456.9414   -4819.3493            0    7067.9524    19.886447    19.822132    20.534791    8094.6455    8045.6378    7562.2485    5595.9709   -242.86015   -119.89587   -215.94817   -3622.5547 
13863000    188.38354   -4851.4574   -4488.1439   -4851.4574            0    7682.3035    19.862436    19.759218    20.514444     8051.226    6922.7446    7750.5545    8373.6115   -235.32858    1427.5484   -288.75628   -3586.0965 
13864000    193.23304   -4830.6116   -4457.9455   -4830.6116            0    7080.8827    19.953342    19.765247    20.368379    8032.9371    6116.8087     7747.762    7378.0773    196.21707    934.38161    231.25505   -3628.4049 
13865000    198.94904   -4855.3015   -4471.6116   -4855.3015            0    6843.6616    19.993359    19.679224     20.53264    8078.6452    6925.6618    6577.9095    7027.4137   -670.26897    798.26929    306.09887   -3665.2999 
13866000    185.14622   -4849.2121   -4492.1421   -4849.2121            0    7131.3362    20.003089    19.668383    20.596196     8103.129    6603.6013    7732.1279    7058.2792   -342.32147    -176.4046    41.923028   -3649.3905 
13867000    185.09897   -4850.0455   -4493.0665   -4850.0455            0    9044.5155    19.788912    19.871304    20.424413    8031.5225    10667.909    7332.3991    9133.2385   -436.13516    1614.0504   -170.25772   -3433.6687 
13868000    184.35785   -4839.2864   -4483.7368   -4839.2864            0    8568.1567    19.961593    19.670391    20.531762    8061.8442    8934.9201     7876.346    8893.2038    46.325152    957.71587    46.152827   -3476.3466 
13869000    188.39032   -4849.8603   -4486.5337   -4849.8603            0    8729.4761    19.811449    19.709312    20.496419    8003.2372     8676.487    9530.4592    7981.4822    244.80325    -1635.542   -206.90707   -3467.6379 
13870000    198.44667    -4855.645   -4472.9239    -4855.645            0     8772.642     19.84723    19.886431    20.467052    8078.1527    9220.5844    10096.675    7000.6671    154.18495    844.56059    470.88706   -3439.4051 
13871000    188.49284    -4864.491   -4500.9667    -4864.491            0    6722.7737     19.75256    19.860478    20.624149    8090.7565    7842.9089    5828.1683    6497.2438    183.10394    1289.8266   -1159.5997   -3707.7104 
13872000      196.855   -4834.5539   -4454.9024   -4834.5539            0    7266.4774    19.856216    19.795785    20.617236    8104.0045    6975.1534     7544.152    7280.1267   -808.88148    275.05532    1057.7535   -3596.0877 
13873000    195.87884   -4845.1721   -4467.4032   -4845.1721            0    7907.2296    20.008493    19.694992    20.444135    8056.3611    6139.6661    10069.606    7512.4173   -108.65577    -407.6875    91.539519   -3538.3531 
13874000    197.43867   -4846.5722   -4465.7951   -4846.5722            0    7892.2638    19.675395    19.998639    20.476562    8057.1406    8367.5666    7520.0632    7789.1616   -543.07669    194.45535   -427.22076   -3538.4136 
13875000    199.91387   -4836.0053   -4450.4546   -4836.0053            0    7913.2876    19.762414    19.855619     20.53618    8058.2937    7536.4733    8272.3587     7931.031   -535.12988    1296.7259   -350.46158   -3520.4696 
13876000    187.78577   -4853.2501   -4491.0895   -4853.2501            0    8911.4914    19.801306    19.866739    20.340374    8001.6465    7732.5006    9433.6899    9568.2838   -328.96356   -168.62105    652.82236   -3451.1558 
13877000    197.74042   -4859.8478   -4478.4888   -4859.8478            0    7358.8778     19.99154    19.589116    20.559476    8051.4324    7386.7172    7719.2082    6970.7081    114.58519   -1420.9338   -149.69356   -3614.3955 
13878000    191.62002   -4848.9558   -4479.4005   -4848.9558            0    6759.8434    19.718197    19.910911    20.434911    8022.8942    5848.0911    7922.4903    6508.9488    202.33248   -544.19378    353.10069   -3688.4604 
13879000    208.81803   -4838.3234   -4435.6003   -4838.3234            0    6286.6926     19.68399    19.809886    20.798174    8109.9898    5480.1233    8550.1629    4829.7916   -358.77597   -999.23452   -517.66486   -3692.0362 
13880000    187.10369   -4859.5572    -4498.712   -4859.5572            0     7251.329     19.91476    19.724744     20.51695    8059.3361    6145.8888     8225.195    7382.9033   -273.49864   -352.11159   -603.43657   -3646.4114 
13881000    182.84915   -4847.1421   -4494.5021   -4847.1421            0    9347.0436    19.734314    19.845631    20.388677    7985.0198    9228.4226    8486.0167    10326.691    42.536311    -1212.501   -571.42625   -3406.0079 
13882000    202.97702   -4841.3274   -4449.8692   -4841.3274            0    6815.2396    19.801109      19.9412    20.516786    8101.2144    8327.1787    5346.1771    6772.3631    72.077931   -135.10596    615.24101   -3644.6629 
13883000    197.67406    -4829.782    -4448.551    -4829.782            0    7763.8217    19.910441    19.711303    20.515361    8051.4736    7790.5209     8316.843    7184.1013    196.45128   -261.37023    683.26009   -3536.9037 
13884000    194.51992   -4865.3197   -4490.1717   -4865.3197            0    6919.9751    20.084767    19.736324    20.547771    8145.1254    6081.0378    7494.8768    7184.0108   -197.39872    1447.0601    172.40038   -3668.1596 
13885000    195.81266   -4858.2553   -4480.6141   -4858.2553            0    6702.2864    20.058144    19.776187    20.439004    8107.6134    6622.8723    5928.3615    7555.6254     43.35753    854.69471    1536.9562   -3688.1275 
13886000    196.42618   -4838.3564    -4459.532   -4838.3564            0    7134.0604    19.591184    19.967794    20.514089    8024.9624    8759.1268    5919.6586    6723.3959    365.52652   -506.58216    241.55102   -3624.5912 
13887000    189.84423   -4848.9672   -4482.8366   -4848.9672            0    9111.9311    19.600633    19.721015     20.76249    8025.6238    9500.2432     9643.754    8191.7961    307.96435    777.23995   -301.67878   -3416.3261 
13888000    192.94445   -4845.6397   -4473.5301   -4845.6397            0    7511.7014    19.938749    19.753236    20.365513    8021.0552    7871.2273    6230.5607    8433.3162    -255.4989   -299.00983    749.19857   -3594.8198 
13889000    185.23485   -4859.4153   -4502.1743   -4859.4153            0    8327.7544    19.698643      19.6639    20.699586     8018.029     7302.233    9784.2607    7896.7696   -303.24216    1154.8709   -559.98885   -3528.3706 
13890000    194.94647   -4840.7535   -4464.7828   -4840.7535            0    6380.2689    19.894166    19.748807    20.620104    8101.3511    6433.8733    6398.9702    6307.9632   -59.228296   -130.63206    626.45253   -3710.9547 
13891000     189.9027   -4848.5814   -4482.3381   -4848.5814            0    4716.3915    19.675983     19.90534    20.771448    8135.2862     4968.122    5145.9138    4035.1388   -574.55214    2.6198559     406.4518   -3922.7627 
13892000     181.3409   -4826.6148   -4476.8837   -4826.6148            0    6023.8885    20.065326    19.858869    20.335598     8103.221    6018.8565    4406.6103    7646.1986   -617.21054    689.62419   -39.863591   -3764.9976 
13893000    187.98186   -4847.3349   -4484.7961   -4847.3349            0    7369.2066    19.953568    19.787456    20.571053     8122.076    7404.8275    7383.8187    7318.9736   -619.91477     60.22559    967.67181   -3611.8977 
13894000    199.18304   -4849.3762   -4465.2349   -4849.3762            0    8622.7411    19.717135    19.927737    20.499318    8054.5486    10307.718     6800.933    8759.5725    -392.7798    203.62472    1076.1681   -3452.3446 
13895000    193.69723    -4852.424   -4478.8627    -4852.424            0    6435.6633    19.868891    20.025419    20.350272    8097.0244    5659.5271    6191.8782    7455.5845     678.9773   -1243.4233   -232.59388   -3718.8958 
13896000    192.29355   -4855.1848   -4484.3305   -4855.1848            0    7956.1201     19.84197    19.674132    20.575681    8032.2013    6848.7295    8752.0566    8267.5742   -602.80125   -1280.7483   -319.86702   -3552.3393 
13897000    191.88023   -4866.3589   -4496.3017   -4866.3589            0    6921.6918    19.879849    19.911731    20.387618    8070.2794    7096.1773    6508.4791    7160.4191    524.47843    964.40149   -1699.3453   -3681.6411 
13898000    186.69011   -4847.6941   -4487.6465   -4847.6941            0    7615.0937    19.785197    19.866033    20.537627    8072.3837    8473.6027    5819.9389    8551.7396    210.92073    785.13118    190.88202   -3591.1411 
13899000    204.50713   -4852.3819   -4457.9727   -4852.3819            0    7147.5335    19.915741    19.847821    20.463329    8088.8278    6254.2864       7582.4    7605.9141   -2.0503943   -244.66107    50.846535   -3614.7978 
13900000    188.18889   -4839.6509   -4476.7128   -4839.6509            0     7847.085    19.830285    19.891547    20.370542    8035.2633    7053.4655     7648.452    8839.3375   -168.07189    30.861204    962.30811   -3557.1437 
13901000    203.25864   -4833.6358   -4441.6344   -4833.6358            0    6390.6525    19.858838    19.726838     20.67487    8099.4232    6011.3718    7810.1892    5350.3965   -829.02343   -285.47553    536.81257   -3686.7592 
13902000    200.03023    -4849.617   -4463.8418    -4849.617            0     6871.414    19.824533    19.828289    20.573842    8087.3007    7040.5652    7170.1395    6403.5373   -473.93525   -258.19033   -693.10104    -3653.393 
13903000    189.47316   -4847.2061   -4481.7912   -4847.2061            0    5556.2256    19.871805    20.036041    20.372403    8111.3194    4139.2588    6116.7001    6412.7178   -157.62412    668.67243   -736.00776   -3824.5159 
13904000    198.78589    -4858.506   -4475.1307    -4858.506            0    5541.7687    19.716408     19.79991    20.790531    8116.2716    5257.8948    5736.3356    5631.0757   -890.32078   -732.06832   -43.059919   -3819.1654 
13905000    194.05589   -4854.0018   -4479.7486   -4854.0018            0    7236.1143    19.870516    19.812699    20.499168    8070.2876    5315.6089    7650.7122    8742.0217    284.60837    991.31939   -316.80664   -3628.0807 
13906000     195.2016   -4872.1499   -4495.6872   -4872.1499            0    6469.2869    19.956061    19.785212    20.564995    8119.7781    7585.1365    5610.0458    6212.6784   -40.955139    364.73383   -1780.9587   -3729.6031 
13907000    194.05819   -4835.0041   -4460.7465   -4835.0041            0    7420.5125    19.765513    19.800875    20.583322    8055.7865     7633.793    7567.9465    7059.7979     354.0061   -1815.3713    536.65962   -3588.9448 
13908000    189.02006   -4866.7052   -4502.1641   -4866.7052            0    6658.7502    19.969157    19.814026    20.438891    8087.0435     4522.986    8355.1267     7098.138   -203.81545    696.15277   -310.99127   -3716.8228 
13909000    190.56428   -4859.6118   -4492.0926   -4859.6118            0    7601.5032    19.897378    19.732753    20.597183    8087.0727     8549.725    6978.8573    7275.9272    244.36275   -173.47068   -201.28585   -3595.5587 
13910000     197.5555   -4858.1341   -4477.1317   -4858.1341            0     6421.704    19.793474     19.98389    20.540244    8124.7062    9691.4657    3983.5642    5590.0822   -210.58302    560.42585    482.80296   -3716.2208 
13911000    188.28486   -4849.5426   -4486.4194   -4849.5426            0    8293.6511    19.660012     19.84744    20.630525    8050.0497    9597.0308    8625.4808    6658.4417   -173.74776    282.14324    809.43294   -3512.7305 
13912000    190.65504   -4838.6607   -4470.9664   -4838.6607            0    7134.7771    19.958801    20.022008     20.28472    8106.0843    6365.8678    7482.5151    7555.9483   -446.62996   -679.75202    619.72914   -3627.5008 
13913000    199.57951   -4855.8809    -4470.975   -4855.8809            0    6319.4956    19.881039    19.699847    20.788218    8141.7768    6544.1887    5926.2244    6488.0738   -696.79135   -1623.0514   -89.817658   -3720.6015 
13914000    198.44983    -4866.609   -4483.8818    -4866.609            0    7423.9683    19.731864    19.879997     20.57452    8070.7545    6120.5139    8336.1661     7815.225   -202.88159    829.53201      1243.63   -3610.0535 
13915000    191.44684   -4849.1935   -4479.9722   -4849.1935            0    5942.5208    19.989917    19.849785    20.455044    8116.4706    5206.6771    5617.0091    7003.8762    7.0784826    122.08515    616.86211   -3776.5536 
13916000    202.59159   -4853.5888   -4462.8738   -4853.5888            0    6070.5982    19.738287     19.68799    20.789499     8078.949    7055.3155    5875.8714    5280.6078    21.472301    5.9169829    -603.1426   -3747.6166 
13917000    198.54734   -4851.2491   -4468.3339   -4851.2491            0    8064.1777    19.973561    19.796979    20.344469    8044.5318    6544.5856    9353.6104    8294.3372    150.59391   -132.05811   -421.02077   -3522.2345 
13918000    207.14447   -4849.5912   -4450.0956   -4849.5912            0    6076.6592    19.913521    19.932059    20.520041    8144.7628    6193.5266    5545.5082     6490.943    274.10026    -214.3109   -373.81585   -3728.2918 
13919000    201.32704   -4836.3317   -4448.0556   -4836.3317            0    7833.5428    19.837007     19.89898     20.40021    8052.7018    9399.0555    5875.9947    8225.5781    -67.72851    1492.6175    82.613048   -3528.0812 
13920000    196.20978    -4837.278    -4458.871    -4837.278            0    6407.7715    19.810211    19.712509    20.679184    8075.4067    7553.4343    5833.0898    5836.7902   -102.51227   -588.93751   -672.39938    -3704.218 
13921000    190.88919   -4826.9459      -4458.8   -4826.9459            0    7222.3975    19.763698    19.957942     20.47414    8075.8761    7417.8777    7251.8443    6997.4705    389.71496   -1692.6688    681.92444   -3608.1578 
13922000    196.22975   -4861.8233   -4483.3778   -4861.8233            0    6602.7114    20.030076    19.836743    20.386609    8100.2417     6327.581    6808.6164    6671.9367   -826.55174   -198.79287    23.720558   -3703.3749 
13923000    188.34203   -4866.4009   -4503.1674   -4866.4009            0    4925.0509    19.857512    19.904905    20.690824     8178.294    4344.4976    5302.7299    5127.9252    -329.4602    178.52088    70.942256   -3915.7466 
13924000    192.65726   -4840.6674   -4469.1116   -4840.6674            0    6450.5759    19.775779     19.88509    20.359536     8006.248    6553.0106    5985.7596    6812.9575   -504.78121   -571.70076   -505.60145   -3715.9236 
13925000    193.34271   -4854.0312   -4481.1535   -4854.0312            0    7303.7593     19.86072    19.812589    20.462534    8051.8489    7338.8332    7488.5472    7083.8976   -652.61251    298.16233    287.09806    -3623.488 
13926000     190.8974    -4868.193   -4500.0313    -4868.193            0    6773.2405    20.039362     19.78478    20.403919    8089.6307    4408.3975    9592.6893    6318.6346   -618.55664   -301.30291   -451.83003   -3700.9314 
13927000    192.80818   -4839.0693   -4467.2226   -4839.0693            0    6646.6116    20.202811    19.559971    20.419414    8069.0665     5268.915    7705.3272    6965.5924   -6.3912874    76.619414   -259.96381   -3685.0556 
13928000    190.77877   -4838.4259    -4470.493   -4838.4259            0    7483.1701    19.656054    19.951673    20.554273     8060.793    9583.2283    5996.6247    6869.6574    295.56804   -657.61242    -86.09535   -3590.7835 
13929000    200.84099   -4838.2544   -4450.9156   -4838.2544            0    7443.2287    19.766937    19.818832    20.493302    8028.4068    7600.8439    7530.3351    7198.5072    -4.063056   -1188.0589    394.93203   -3579.4172 
13930000     192.8134   -4829.8097   -4457.9529   -4829.8097            0    6995.1855    19.778116    19.923181    20.491527    8074.5425    7279.1415    6152.4608    7553.9543    -27.17591    1315.0921   -175.42224   -3634.2074 
13931000    200.16078   -4858.3116   -4472.2847   -4858.3116            0    9386.9022    19.777966    19.616287    20.616311    7998.5153    8774.8707    11047.979    8337.8567   -57.583115    587.88895    926.74801   -3377.3013 
13932000    202.39134   -4872.8501   -4482.5214   -4872.8501            0    7259.5616    19.981774    19.817492    20.427807    8089.1798    6200.1245    7516.5683    8061.9921    577.99604    777.49707    90.820293   -3626.0935 
13933000    179.22174   -4846.9134   -4501.2692   -4846.9134            0    6243.2459    19.991009    19.811715    20.457914    8102.4834    5308.6387     7635.507     5785.592    194.05971    687.87612     588.9389   -3763.5273 
13934000    198.39212   -4865.3756   -4482.7597   -4865.3756            0    7400.5115     19.57097     19.86661    20.577268    8000.6229    8342.1813    6718.0961    7141.2573   -880.84441    311.42106    749.76524   -3619.2615 
13935000    202.18932   -4846.1103   -4456.1712   -4846.1103            0    8145.7211    19.641528    19.843838    20.672941    8057.5537    7956.1309    8141.1363    8339.8962   -157.59599    606.97365   -271.29732   -3498.9581 
13936000    190.71125   -4815.8834   -4448.0807   -4815.8834            0    7635.7782    19.864667     19.81262    20.482276    8061.2318    7276.9391    7949.0327    7681.3626   -12.642033    76.861212    711.77855    -3550.382 
13937000    193.63218    -4862.144    -4488.708    -4862.144            0    6904.7527    19.894822    19.817021     20.51809    8089.3825    7766.9509    6522.9624    6424.3449    194.09316    1244.5245   -751.89433   -3674.1174 
13938000    200.92088   -4841.3348    -4453.842   -4841.3348            0    8063.8865    19.731022    19.727621    20.587074    8013.4389    9569.1921    7273.1195    7349.3479    306.55381    485.40451   -379.95772   -3511.4334 
13939000    185.06763   -4843.4908   -4486.5723   -4843.4908            0    8049.1011     19.66754    19.760792     20.62256    8014.8793    8180.4609    8686.6777    7280.1648    514.19966   -435.99952    1021.1727   -3545.7226 
13940000    196.68098   -4823.8587   -4444.5428   -4823.8587            0     7518.611     19.98238    19.714601    20.502915    8077.0134    6020.5937    8539.1122    7996.1272   -846.55639    547.27889    130.14016   -3558.8884 
13941000    194.49101   -4841.6154   -4466.5232   -4841.6154            0    7709.1338    19.730939    19.938847    20.469868    8053.0955    7064.8933    8784.4533    7278.0548   -39.491353   -325.22461    409.87533   -3561.1152 
13942000    197.21193   -4847.6672   -4467.3274   -4847.6672            0    5295.7657     19.93305    19.871274    20.567878    8146.8354    3998.4463    6578.5517    5310.2991   -329.21428   -1017.3581   -7.0168833   -3838.1203 
13943000    193.10306    -4836.453   -4464.0375    -4836.453            0    8730.6402    19.811288    19.877334    20.436614    8047.8485    8606.4154     8873.132    8712.3731    12.980826    913.93197   -2102.2363   -3439.3256 
13944000    188.21324    -4821.111   -4458.1259    -4821.111            0    7135.4602    19.795399    19.791222    20.682054    8102.7144    6250.6279    9687.7931    5467.9596   -491.28958    1185.9971   -439.69447   -3614.9302 
13945000    193.40823   -4847.7102   -4474.7062   -4847.7102            0    8423.6628    19.868086    19.910694    20.476723    8100.3332    8566.2028    8341.2547     8363.531   -131.66222   -1000.0765    880.56854   -3479.5763 
13946000    189.98431    -4836.018   -4469.6172    -4836.018            0    8214.4161    19.572587     19.83131    20.664022    8020.7413    8200.1959    8501.8891    7941.1633    238.14874   -1871.1813    328.01735   -3508.7418 
13947000    201.26091    -4861.897   -4473.7484    -4861.897            0     6708.588    19.981914    19.817405     20.37242    8067.2681    7084.2313    5654.0456     7387.487    127.36462    1092.5218   -76.686035    -3684.464 
13948000    198.53449   -4855.1681   -4472.2777   -4855.1681            0    7409.2369    19.698691    19.921164    20.567242    8071.0145     7027.103    7404.8848     7795.723   -150.89727   -614.37014   -485.43459   -3600.1551 
13949000    191.23756   -4837.2277     -4468.41   -4837.2277            0    4949.1352    19.876224    19.935569     20.76517    8228.0704    3287.7543    6318.1313    5241.5201    -471.8562    632.10261    1283.6173   -3874.5239 
13950000    192.12796   -4845.5185   -4474.9835   -4845.5185            0    7988.1109    19.755883    19.856356    20.415613    8008.6337    8228.6281    7562.7615    8172.9432   -571.04832    -1255.832    1170.0347   -3541.9905 
13951000    180.06357   -4819.8193   -4472.5516   -4819.8193            0    7316.9194    19.862605    19.847693    20.485045    8075.7556     7881.324    6303.3348    7766.0995   -260.41295   -1494.9935    701.57367   -3610.7896 
13952000    191.45268   -4833.1624   -4463.9298   -4833.1624            0    7383.9961    19.760611    19.871461    20.489448    8045.6367    10082.101    5537.8505    6532.0371   -374.42946   -544.52041    -801.3261   -3597.5112 
13953000    182.15169   -4838.6486   -4487.3537   -4838.6486            0    8211.3049    19.744971    19.832915    20.456673      8010.84    8448.4026    7836.1281     8349.384    93.377127    324.97568    -866.0013   -3528.0279 
13954000    187.89148   -4849.2728   -4486.9083   -4849.2728            0    6404.5248    19.696681    19.877982    20.610549    8069.6541    4313.4906     8719.388    6180.6957    -456.1877    164.99991   -580.59537    -3733.175 
13955000    187.54474   -4865.5329   -4503.8371   -4865.5329            0    6047.1296    20.022238    19.620345    20.607488    8095.5116    6255.6707    5829.6237    6056.0944    196.94297    189.44347   -244.95783   -3789.8843 
13956000    191.50952    -4865.624   -4496.2818    -4865.624            0    6323.2647    19.958598    19.784515    20.550799    8114.9181    5875.8454     7994.853    5099.0958   -207.74079   -149.87171   -352.87624   -3747.9376 
13957000      187.443   -4841.6477   -4480.1481   -4841.6477            0    7194.6912    19.859626    19.884899    20.532451    8108.4019    8552.3064    5594.1515    7437.6156   -64.708556    459.91515    130.96588   -3629.3562 
13958000    190.09024   -4828.9159   -4462.3109   -4828.9159            0    8231.7093    19.921183    19.744968    20.469828    8051.6659    9269.5489    7272.6611    8152.9178   -203.26092    921.59689   -376.78878   -3495.7001 
13959000    183.14761   -4832.6605    -4479.445   -4832.6605            0    7535.3061    20.007462    19.807778    20.448905    8103.9697    7893.0007    7253.3525    7459.5653    266.85813     1577.994    1174.3789   -3588.8615 
13960000    198.35597   -4825.0397   -4442.4936   -4825.0397            0    9000.1651    19.742255    19.806995    20.510308    8020.2433    9041.4631    9411.2291    8547.8031    124.87127   -215.48518   -536.50227   -3389.7711 
13961000    191.80549   -4842.4718   -4472.5588   -4842.4718            0    6553.4354    20.012125    19.947685     20.33471    8117.5257     5514.384    6524.4313    7621.4908   -635.89549    1077.2775    1104.9853   -3696.7252 
13962000    190.10062   -4840.8924   -4474.2674   -4840.8924            0     7575.004    19.679035    19.787443     20.73608    8074.5837    7303.1042    8602.4143    6819.4934    334.65529   -362.83303   -448.69823   -3582.2386 
13963000    185.98772   -4809.3134   -4450.6204   -4809.3134            0    8639.6721    19.897097    19.686129    20.515204    8035.7404    6284.3692    11381.076    8253.5709    -592.1636    72.595758   -1035.1867    -3438.111 
13964000    203.46813   -4856.1271   -4463.7217   -4856.1271            0    6982.6604    19.737449    19.981355    20.442231     8062.027    6545.3586    6788.7174    7613.9052   -1003.5607   -766.11474    1276.8023   -3642.7256 
13965000    185.83213   -4862.1553   -4503.7624   -4862.1553            0    7440.3027    19.825891    19.890358    20.455232    8066.3993    9227.4413    5393.0384    7700.4285    575.83789    452.90885   -161.67407    -3628.484 
13966000    193.25039   -4854.6804   -4481.9807   -4854.6804            0    6870.9165    19.966326    19.931374    20.353945    8099.9807    6675.2204     5844.612    8092.9171    255.63734    91.846267    430.84482     -3670.32 
13967000    178.46954   -4844.3839   -4500.1903   -4844.3839            0    7465.8522    19.749971    19.815841    20.553392    8043.8223    7565.0959    8085.8673    6746.5933   -408.94399    742.07219   -237.32782   -3624.3645 
13968000    189.05193   -4821.5477   -4456.9452   -4821.5477            0    8267.6036     19.81932    19.770629    20.533654     8045.916    7255.6186    8570.8808    8976.3113   -11.048596    180.69902    1449.4858   -3486.8128 
13969000    192.21554   -4830.2388    -4459.535   -4830.2388            0    6989.9316    19.823832    19.916057    20.435898    8068.3495    6173.1144    7098.9609    7697.7196   -269.65849    1408.0725    579.98617   -3637.0395 
13970000     183.2378   -4840.0135    -4486.624   -4840.0135            0    9927.0509    19.641814    19.852618    20.516354    8000.1765    9458.1358    10233.717      10089.3    387.94252    -776.2799   -124.90678   -3328.3916 
13971000    186.07024   -4836.8171    -4477.965   -4836.8171            0    6656.2527     19.98885    19.727141    20.580782    8115.4729    6741.0453    6995.4765    6232.2364    195.11734   -1182.0101    736.93625   -3690.1586 
13972000    195.13322   -4860.1563   -4483.8255   -4860.1563            0    8592.6374    19.921519    19.787649    20.466332    8067.8285    8694.8583    9205.7494    7877.3046   0.31147578   -484.07683    777.47899   -3472.8072 
13973000    186.08033   -4849.4849   -4490.6133   -4849.4849            0    6421.4607    19.800335    19.941213    20.547886    8113.1826    7696.1439    6006.7349    5561.5033   -366.52257    248.52841    687.52022   -3730.8104 
13974000    197.29381   -4857.3378   -4476.8401   -4857.3378            0    6291.7864    19.709067     20.04466    20.547839    8117.6609    7308.7406    4751.2607     6815.358    424.89551   -68.467304   -356.74304   -3731.9696 
13975000    188.66689   -4856.2389   -4492.3789   -4856.2389            0    6668.3498    19.848995    19.813561    20.546231     8080.407    6415.8458    8095.1998    5494.0037   -57.718922    257.13637    917.68813   -3706.5509 
13976000     194.5499   -4850.2936   -4475.0877   -4850.2936            0    8164.9533    20.059572    19.569922    20.461574    8032.4829     8944.188    6936.8423    8613.8296   -419.74999    955.04835    778.30485      -3518.6 
13977000    196.66793   -4813.1035   -4433.8129   -4813.1035            0    6029.5337    19.918775    19.868229    20.618486    8159.7815    5097.5168    7294.1614    5696.9229    21.994263   -858.10635    187.78094    -3716.286 
13978000    204.50983   -4854.5681   -4460.1537   -4854.5681            0    6264.2779    19.834931    19.939549    20.547084    8126.3632    7416.9735    3951.8663    7423.9941   -155.87855   -662.81729    172.12144   -3717.7449 
13979000    199.43398   -4845.6338   -4461.0086   -4845.6338            0    7606.1602    19.908753    19.782288    20.496525    8072.3656    6983.0391    7865.9525     7969.489    493.34335   -744.16946   -1368.2097   -3565.5569 
13980000    202.40593   -4838.2274   -4447.8705   -4838.2274            0    6660.4738    19.954281    19.835535    20.455712    8096.4498    6452.4384    6596.6657    6932.3174   -313.45354    1953.4411   -283.05032   -3661.4123 
13981000    203.12231   -4847.4465    -4455.708   -4847.4465            0    8269.3299    19.728941    19.745449    20.722575    8072.6204    9824.2252    8931.1384    6052.6261    60.597357    470.84129    777.15159   -3482.1525 
13982000      195.729   -4851.2966   -4473.8168   -4851.2966            0    6709.3803    19.913076    19.813619    20.517705    8095.2627    7521.7379    6233.5711    6372.8319   -314.98875    662.62195   -1363.9531   -3681.6999 
13983000    193.54897   -4840.2169   -4466.9414   -4840.2169            0    9720.6974    19.894794    19.939946     20.10783    7976.7989    9981.3268    8640.8265    10539.939   -4.4541918    519.64781   -532.48084   -3336.0993 
13984000     202.4478   -4849.1086   -4458.6709   -4849.1086            0    8003.6498    19.889783    19.723455    20.529214    8053.5132    7310.5569    8858.4826    7841.9098    465.42214     998.8572   -1699.5385   -3518.6244 
13985000    180.54027   -4839.0621    -4490.875   -4839.0621            0    8315.0732    19.712577    20.036058    20.356695    8040.1274    6036.0166    9244.0968    9665.1063    197.20005     533.6361    401.43323   -3515.8744 
13986000    192.12415   -4858.1886    -4487.661   -4858.1886            0    7100.2717    19.736989    19.849074    20.617509    8077.1355    6818.3305    7819.9905     6662.494   -374.46668    675.51767   -884.22146   -3651.2721 
13987000    196.26504   -4846.4461   -4467.9325   -4846.4461            0    6822.0999    19.817554    19.946225    20.276019    8014.8145    5492.1959    6804.9971    8169.1067   -488.97014   -463.21866   -569.28332   -3670.5119 
13988000    192.78853   -4837.3916   -4465.5827   -4837.3916            0    6965.7546     19.95193    19.694988    20.637651    8109.6271    6499.1936    6760.7573    7637.3128    132.03695    19.870034    347.70556   -3641.7388 
13989000    191.21324   -4856.1402   -4487.3694   -4856.1402            0    5923.4409    20.049015    20.023951    20.302399    8150.6111    5726.2954    5780.7646    6263.2626   -395.72377    823.37983      720.834     -3783.26 
13990000    199.13378   -4845.8283   -4461.7821   -4845.8283            0    7111.7331    19.870118    19.691517     20.64925    8079.4891    6464.6654    7843.8053    7026.7287    -847.4796    1282.3417    2141.7198    -3623.799 
13991000     194.8974   -4861.9063   -4486.0303   -4861.9063            0    7219.8964    19.839171    19.915847    20.383237    8053.7002    6632.2644    8179.2826    6848.1422   -76.247732   -1456.2984    108.24068   -3638.0177 
13992000    195.55706   -4848.6168   -4471.4686   -4848.6168            0    8072.3665    19.820683     19.73685    20.536242    8033.7334    8506.6458    7259.2289    8451.2249   -109.92395   -129.68075   -307.61782   -3525.6798 
13993000    198.34224   -4835.2289   -4452.7093   -4835.2289            0    8136.3542    19.985484    19.738015    20.345031    8025.5813    5577.8653     9388.559    9442.6384   -448.60225    884.77799     581.9352   -3500.3907 
13994000    196.47288   -4841.0288   -4462.1143   -4841.0288            0    7322.8094    19.734621    19.806288    20.686313    8085.6509    7624.4832    7640.5634    6703.3814   -349.29478   -407.96608    581.84925   -3598.6018 
13995000    198.93184   -4824.7198    -4441.063   -4824.7198            0    8150.9519    19.666037    20.054159    20.454307    8066.8889    9377.0572    7603.9126    7471.8858   -931.76325    -1430.237    68.140856   -3482.1255 
13996000    196.92978   -4845.2314   -4465.4357   -4845.2314            0    6517.9806    19.879534    19.850299    20.570415    8117.3883    4214.0405    9129.6227    6210.2786   -240.02615      872.763   -346.19769   -3693.8125 
13997000    195.64443   -4854.3941   -4477.0773   -4854.3941            0    7712.2889    19.950662    19.732999    20.500775    8070.8763    7545.1416    9179.2821    6412.4431    629.40173   -331.81679   -496.97319   -3569.2989 
13998000    201.94947   -4829.4757   -4439.9992   -4829.4757            0    9484.3748    19.789675    19.757244    20.366896    7963.2412    8261.7348    10388.067    9803.3224   -366.99404   -169.67093   -376.75917   -3338.5247 
13999000     187.2758   -4845.4357   -4484.2586   -4845.4357            0    7600.0849    19.710227    19.721392    20.628663    8018.6317    8304.0091    8081.1406     6415.105   -173.18851   -346.85994   -414.20858   -3595.4779 
14000000    201.86711   -4835.1913   -4445.8736   -4835.1913            0     7004.615    19.940053    20.038866    20.332736    8124.4741    7017.2668    6814.6998    7181.8785    250.25287     37.99295    684.66286   -3615.9169 
Loop time of 388.917 on 64 procs for 250000 steps with 972 atoms

Performance: 111.078 ns/day, 0.216 hours/ns, 642.811 timesteps/s
194.4% CPU use with 32 MPI tasks x 2 OpenMP threads

MPI task timing breakdown:
Section |  min time  |  avg time  |  max time  |%varavg| %total
---------------------------------------------------------------
Pair    | 29.09      | 36.858     | 42.475     |  60.6 |  9.48
Bond    | 1.032      | 1.2682     | 1.859      |  13.8 |  0.33
Kspace  | 173.77     | 181        | 187.07     |  25.1 | 46.54
Neigh   | 1.5353     | 1.6148     | 1.6813     |   3.2 |  0.42
Comm    | 70.492     | 73.041     | 76.687     |  17.2 | 18.78
Output  | 0.52217    | 0.52246    | 0.52398    |   0.0 |  0.13
Modify  | 74.914     | 77.138     | 80.656     |  17.4 | 19.83
Other   |            | 17.47      |            |       |  4.49

Nlocal:        30.3750 ave          36 max          25 min
Histogram: 4 3 2 6 1 4 5 1 2 4
Nghost:        2652.12 ave        2677 max        2623 min
Histogram: 2 0 5 2 7 3 3 3 3 4
Neighs:        9681.06 ave       12262 max        7773 min
Histogram: 4 3 5 3 6 2 2 4 1 2

Total # of neighbors = 309794
Ave neighs/atom = 318.71811
Ave special neighs/atom = 2.0000000
Neighbor list builds = 4629
Dangerous builds = 0

unfix		3
unfix		2
unfix		1

write_data	data.final.${pid}
write_data	data.final.1
System init for write_data ...
PPPM initialization ...
  extracting TIP4P info from pair style
  using 12-bit tables for long-range coulomb (../kspace.cpp:340)
  G vector (1/distance) = 0.37191913
  grid = 24 24 24
  stencil order = 5
  estimated absolute RMS force accuracy = 0.003539696
  estimated relative force accuracy = 1.0659689e-05
  using double precision FFTW3
  3d grid and FFT values/proc = 3211 432
Last active /omp style is kspace_style pppm/tip4p/omp
WARNING: Not all mixed pair coeffs generated from mixing. Use write_data with 'pair ij' option to store all pair coeffs. (../write_data.cpp:312)

write_restart   restart.lmp.${pid}
write_restart   restart.lmp.1
System init for write_restart ...
PPPM initialization ...
  extracting TIP4P info from pair style
  using 12-bit tables for long-range coulomb (../kspace.cpp:340)
  G vector (1/distance) = 0.37191913
  grid = 24 24 24
  stencil order = 5
  estimated absolute RMS force accuracy = 0.003539696
  estimated relative force accuracy = 1.0659689e-05
  using double precision FFTW3
  3d grid and FFT values/proc = 3211 432
Last active /omp style is kspace_style pppm/tip4p/omp
Total wall time: 0:06:29
