LAMMPS (30 Jul 2021)
  using 1 OpenMP thread(s) per MPI task
package omp 0
using multi-threaded neighbor list subroutines
echo both

include		in.partitions
variable        pid world 0
include		in.temp
variable        temperature equal 249.85
variable	tempDamp equal 100.0
include		in.pressure
variable        pressure equal 5750.0
variable        pressureDamp equal 1000.0 # This is 1 ps
include		in.seed
variable        seed world 745823

units		real
atom_style	full
box tilt large
read_restart	restart.lmp.${pid}
read_restart	restart.lmp.0
Reading restart file ...
  restart file = 30 Jul 2021, LAMMPS = 30 Jul 2021
  restoring atom style full from restart
  triclinic box = (-10.707511 -9.2247776 0.015288599) to (12.687511 12.214776 21.844710) with tilt (-9.6755982 1.7174048 3.0106912)
  4 by 4 by 4 MPI processor grid
  restoring pair style lj/cut/tip4p/long/omp from restart
  restoring bond style harmonic/omp from restart
  restoring angle style harmonic/omp from restart
  1296 atoms
  864 bonds
  432 angles
Finding 1-2 1-3 1-4 neighbors ...
  special bond factors lj:    0        0        0       
  special bond factors coul:  0        0        0       
     2 = max # of 1-2 neighbors
     1 = max # of 1-3 neighbors
     1 = max # of 1-4 neighbors
     2 = max # of special neighbors
  special bonds CPU = 1.718 seconds
  read_restart CPU = 2.309 seconds
include 	in.setup
variable	out_freq equal 1000
variable	out_freq2 equal 10000
variable	out_freq3 equal 1000

timestep	2.0

neigh_modify    delay 7 every 1

include		in.tip4p
# This is TIP4P/Ice

# create groups ###
group ox type 2
432 atoms in group ox
group hy type 1
864 atoms in group hy

# set charges - beside manually ###
set group ox charge -1.1794
Setting atom values ...
  432 settings made for charge
set group hy charge 0.5897
Setting atom values ...
  864 settings made for charge

# ### TIP3P Potential Parameters ###
pair_style lj/cut/tip4p/long/omp 2 1 1 1 0.1577 8.5
pair_coeff 1 1*2 0.000 0.000
pair_coeff 2 2 0.21084 3.1668
bond_style  harmonic
bond_coeff  1 450 0.9572
angle_style harmonic
angle_coeff 1 55 104.52
kspace_style pppm/tip4p/omp 1.0e-5
pair_modify tail yes

thermo          ${out_freq}
thermo          1000
thermo_style    custom step temp pe etotal epair emol press lx ly lz vol pxx pyy pzz pxy pxz pyz enthalpy

restart 	${out_freq3} restart.lmp.${pid} restart2.lmp.${pid}
restart 	1000 restart.lmp.${pid} restart2.lmp.${pid}
restart 	1000 restart.lmp.0 restart2.lmp.${pid}
restart 	1000 restart.lmp.0 restart2.lmp.0


include         in.dump
dump            myDump all atom ${out_freq2} dump.water.${pid}
dump            myDump all atom 10000 dump.water.${pid}
dump            myDump all atom 10000 dump.water.0
dump            myDump2 all dcd ${out_freq2} dump.dcd
dump            myDump2 all dcd 10000 dump.dcd
dump_modify     myDump append yes
dump_modify     myDump2 append yes


variable natoms 	equal  "count(all)"                        # NUMBER ATOMS
variable H      	equal  "enthalpy/v_natoms"                 # ENTHALPY-per-atom
variable Vol      	equal  "vol/v_natoms"                 # volume-per-atom
fix AVG all 		ave/time ${out_freq} 1 ${out_freq} v_Vol v_H file vol_enthalpy.dat
fix AVG all 		ave/time 1000 1 ${out_freq} v_Vol v_H file vol_enthalpy.dat
fix AVG all 		ave/time 1000 1 1000 v_Vol v_H file vol_enthalpy.dat


timer           timeout 10:00:00 every 1000
New timer settings: style=normal  mode=nosync  timeout=10:00:00

fix 		1 all shake 1e-6 200 0 b 1 a 1
       0 = # of size 2 clusters
       0 = # of size 3 clusters
       0 = # of size 4 clusters
     432 = # of frozen angles
  find clusters CPU = 0.001 seconds
fix             2 all nph tri ${pressure} ${pressure} ${pressureDamp}
fix             2 all nph tri 5750 ${pressure} ${pressureDamp}
fix             2 all nph tri 5750 5750 ${pressureDamp}
fix             2 all nph tri 5750 5750 1000
fix             3 all temp/csvr ${temperature} ${temperature} ${tempDamp} ${seed}
fix             3 all temp/csvr 249.85 ${temperature} ${tempDamp} ${seed}
fix             3 all temp/csvr 249.85 249.85 ${tempDamp} ${seed}
fix             3 all temp/csvr 249.85 249.85 100 ${seed}
fix             3 all temp/csvr 249.85 249.85 100 745823


run             250000
PPPM initialization ...
  extracting TIP4P info from pair style
  using 12-bit tables for long-range coulomb (../kspace.cpp:340)
  G vector (1/distance) = 0.36626191
  grid = 30 40 32
  stencil order = 5
  estimated absolute RMS force accuracy = 0.0047610913
  estimated relative force accuracy = 1.4337885e-05
  using double precision FFTW3
  3d grid and FFT values/proc = 5168 640
Last active /omp style is kspace_style pppm/tip4p/omp
Neighbor list info ...
  update every 1 steps, delay 7 steps, check yes
  max neighbors/atom: 2000, page size: 100000
  master list distance cutoff = 10.8154
  ghost atom cutoff = 10.8154
  binsize = 5.4077, bins = 7 5 5
  1 neighbor lists, perpetual/occasional/extra = 1 0 0
  (1) pair lj/cut/tip4p/long/omp, perpetual
      attributes: half, newton on, omp
      pair build: half/bin/newton/tri/omp
      stencil: half/bin/3d/tri
      bin: standard
Per MPI rank memory allocation (min/avg/max) = 9.435 | 9.441 | 9.446 Mbytes
Step Temp PotEng TotEng E_pair E_mol Press Lx Ly Lz Volume Pxx Pyy Pzz Pxy Pxz Pyz Enthalpy 
19250000    253.51148   -6283.1535   -5631.0107   -6283.1535            0    5159.6695    23.395022    21.439553    21.829422    10949.176    4954.6249    5847.4384    4676.9453    1165.2905    738.65637   -673.33047   -4807.1018 
19251000     250.7726   -6339.3968   -5694.2995   -6339.3968            0    3898.0752    23.512667    21.514675    21.690011    10972.269    3304.0797    2633.0145    5757.1314   -235.30345    487.70086    416.35947   -5070.5323 
19252000    259.01817   -6346.7155    -5680.407   -6346.7155            0    6274.3778    23.244676    21.582158    21.685624    10879.033    7414.2964    5098.6937    6310.1433   -149.72457     418.0982    1340.6605   -4684.9171 
19253000     251.7426    -6334.201   -5686.6085    -6334.201            0    5668.6114    23.447797    21.385936    21.743163    10903.176    4428.8769    6307.0073    6269.9501    643.66965    628.59594    124.67303   -4785.2333 
19254000    239.84873   -6336.2566   -5719.2603   -6336.2566            0    5356.3579     23.36188    21.583577    21.644553    10913.896    5383.7794    4034.0544    6651.2398   -40.971234   -925.90923    477.15044   -4866.6996 
19255000    247.96075   -6336.6154   -5698.7515   -6336.6154            0    3792.8464    23.286115    21.675478    21.718751    10962.272     3808.829    2901.7464    4667.9637   -1014.0278   -1305.7392    577.69571   -5092.3759 
19256000    254.97415   -6328.0926   -5672.1872   -6328.0926            0    5122.2902    23.447446    21.365354    21.793254    10917.614    5342.4315    6237.1246    3787.3146    340.53152   -789.49307   -1028.6667   -4856.6048 
19257000    251.85461   -6345.3475   -5697.4669   -6345.3475            0    6534.9587    23.329355     21.39909    21.683633    10825.054    5879.4636     7271.089    6454.3235    640.01034    1814.1761   -1.2834971   -4665.7778 
19258000    264.39605   -6353.2804   -5673.1377   -6353.2804            0    6558.4098    23.358661    21.458104    21.595309    10824.272     5623.678    7650.4582    6401.0934    660.25281    633.35124     283.5556   -4637.8212 
19259000     258.5416   -6306.3864   -5641.3039   -6306.3864            0    6025.7578    23.411836    21.461784    21.712811    10909.814    5204.4023    6254.5722    6618.2987    262.53886     522.5425    151.69962   -4682.5549 
19260000    255.22509   -6326.3512   -5669.8002   -6326.3512            0    5181.2865     23.40479    21.503508    21.670031    10906.204    4196.3998    5713.0395    5634.4202   -11.940264    109.93693   -616.54082   -4845.6865 
19261000    256.37212   -6353.1054   -5693.6037   -6353.1054            0    3615.7856    23.422697    21.451057    21.822445    10964.505    3607.8581     4514.457    2725.0416   -1410.9225    198.97426   -870.69977   -5115.4178 
19262000    254.04822   -6295.6213   -5642.0977   -6295.6213            0    5045.7289    23.171465    21.598325    21.867321    10943.825    5749.0427     4711.423     4676.721    260.97115    -495.3675    1160.7129   -4836.7769 
19263000    250.80272   -6303.8264   -5658.6517   -6303.8264            0    5552.9986    23.334559    21.461617    21.813273     10924.03    5248.1509     5554.888    5855.9568   -626.08865    887.35476    624.04563   -4773.9715 
19264000    243.78925   -6343.3799   -5716.2469   -6343.3799            0    5070.2767    23.425929    21.464061    21.650913    10886.416    3650.8526    6111.8663    5448.1111   -444.31428    256.33259   -535.69399   -4911.2532 
19265000    265.90584   -6357.5801   -5673.5535   -6357.5801            0    5897.4672    23.191683    21.590995    21.718711    10875.243    6437.9615    5715.7658    5538.6742   -1620.4902    -422.9084   -1139.8843   -4738.1901 
19266000    244.43577   -6313.6391   -5684.8429   -6313.6391            0    5836.5981      23.2568     21.38917    21.909521    10898.752    6421.3467    5401.2777      5687.17   -790.05042     1460.987    10.581936   -4757.1325 
19267000     252.8084   -6330.0964   -5679.7622   -6330.0964            0    5386.2128    23.419318    21.381258    21.708607    10870.248     5881.307    5303.2539    4974.0775   -874.95795    579.07311   -381.94323   -4825.8783 
19268000    248.78208   -6357.0151   -5717.0383   -6357.0151            0    4755.5901     23.36412    21.469145    21.739317    10904.608    5559.3158    4006.3008    4701.1537    -808.5684    706.50502    325.68545   -4960.7448 
19269000    246.63773   -6323.5794   -5689.1189   -6323.5794            0    7010.5232    23.218109    21.395183    21.828034      10843.2    7574.8995    6910.8291    6545.8411    -13.76197    157.60708    656.27186   -4580.4962 
19270000      249.117   -6339.9242   -5699.0859   -6339.9242            0    6229.8194    23.322398    21.455654    21.627755     10822.47    6253.8923    5479.7824    6955.7834   -1864.0051    1262.3222    175.53706   -4715.8047 
19271000    256.87589   -6376.5365   -5715.7389   -6376.5365            0    5687.0778    23.350513    21.402645    21.744444    10867.063    4638.5261    6247.1767    6175.5306    958.31103   -1114.2354     126.8173   -4814.4226 
19272000    255.38035   -6329.9663   -5673.0159   -6329.9663            0    5743.0595    23.186789    21.509632    21.819784    10882.384    7272.8425    5222.7485    4733.5873   -2052.0362    1055.0381    332.44155   -4761.5441 
19273000    253.86803   -6346.8242   -5693.7641   -6346.8242            0    4854.6647    23.341544    21.382882    21.829479      10895.3    5898.0099    5090.2963     3575.688     495.4869    530.33406    649.88631   -4922.3736 
19274000    267.60525   -6306.4799   -5618.0817   -6306.4799            0    4575.8489    23.434896    21.483281    21.728294    10939.293    4020.4087    4067.1031    5640.0348    499.68573   -212.90696    150.00457   -4888.0582 
19275000    255.67148   -6308.1991   -5650.4998   -6308.1991            0    4235.0761    23.499045    21.523783    21.725576    10988.543    3057.8118    4106.1255    5541.2911   -1301.3894    412.86752    -362.7055   -4971.8008 
19276000    247.29517   -6289.8116   -5653.6598   -6289.8116            0      5270.63    23.486618    21.488095    21.754551    10979.145    5598.0478    5246.4022    4967.4401    74.221593   -463.03738   -864.73538   -4809.7288 
19277000    256.15309   -6323.6696   -5664.7313   -6323.6696            0    5115.5061     23.39929    21.470581    21.736896    10920.537    5339.0118    5239.9709    4767.5355    433.24052    1974.9789   -53.035286   -4850.0111 
19278000    242.28596    -6344.314   -5721.0481    -6344.314            0    5272.4806    23.303754    21.516622    21.740275    10900.967     5022.568    5293.0248    5501.8491    836.53972    1316.6279    1138.8253   -4882.8322 
19279000    241.69086   -6331.0207   -5709.2857   -6331.0207            0    4445.4668    23.480838     21.36471    21.813367    10942.922     4185.305    5245.2314    3905.8641   -1192.6216    4.4935708   -140.17712   -4999.8279 
19280000    264.99662   -6326.0849   -5644.3972   -6326.0849            0    4417.9845     23.22321    21.661638    21.730626    10931.652    3086.7354    5115.9061    5051.3119    510.46399    825.88702   -735.15539   -4940.0516 
19281000    261.91576   -6334.3021   -5660.5398   -6334.3021            0    4972.3806    23.386309    21.435226    21.818459    10937.393    5185.7144    4893.2928    4838.1345   -369.55253   -285.89814   -337.00245   -4867.3921 
19282000    255.49089   -6330.1791   -5672.9443   -6330.1791            0    5645.7891    23.450475     21.39224    21.718559    10895.293      5172.07    6122.6335    5642.6639     40.57327    1338.4443   -470.43636   -4775.8472 
19283000    247.15646    -6326.221    -5690.426    -6326.221            0    6037.1404    23.243957    21.595908    21.694909    10890.288    6275.3009    5545.4983     6290.622   -268.53919    1426.1846   -257.37989   -4731.5852 
19284000    241.53946   -6328.6763   -5707.3308   -6328.6763            0    5299.8826    23.459324    21.267441    21.807359    10880.123    4856.6094    5876.8927    5166.1457   -1252.2995    1408.5831   -216.77148   -4866.3696 
19285000    247.17333   -6352.7439   -5716.9056   -6352.7439            0     5430.547    23.157945    21.563511     21.78903    10880.714    5565.6435    5594.0412    5131.9564   -503.93903    1493.1448   -437.87107   -4855.1644 
19286000    240.90904   -6333.4491   -5713.7253   -6333.4491            0    6401.7067    23.368295    21.435556    21.676969    10858.263    6019.6929    5453.4964    7731.9307   -440.40576    372.68931    376.48989   -4699.9727 
19287000     250.3593   -6317.3561   -5673.3221   -6317.3561            0    6925.5677    23.467062    21.476567    21.506711    10839.209    5655.0071    6526.3312    8595.3648   -262.23458    55.300578    148.60158    -4578.537 
19288000    246.30816   -6313.5216   -5679.9088   -6313.5216            0    7019.2793    23.307161    21.431917    21.715602    10847.316    6771.8441    7074.9351    7211.0588    1289.2974    367.63573     159.7471   -4569.4801 
19289000    249.58924   -6327.2054   -5685.1522   -6327.2054            0    5967.0283    23.394875    21.296121    21.810258    10866.309    5604.4225    6253.8941    6042.7682    757.40358     553.6105   -86.548776   -4739.5336 
19290000    253.88022   -6342.5938   -5689.5024   -6342.5938            0    6361.3354    23.131871    21.594677    21.686369    10832.889    6978.9599    4195.0493     7909.997    584.42092    1004.0142    1960.6612   -4684.4967 
19291000     249.0669   -6339.4668   -5698.7574   -6339.4668            0    5313.3039    23.475363    21.295854    21.781174    10889.017    5687.0568     5615.556    4637.2988   -1763.7631   -939.06859    469.78428   -4854.9774 
19292000    248.85186   -6330.9973   -5690.8411   -6330.9973            0    5526.5651    23.129192    21.640969    21.713011     10868.19    7326.0826    3744.2422    5509.3705   -738.11623   -84.572897   -197.79933   -4814.8728 
19293000    257.42255   -6337.1518    -5674.948   -6337.1518            0    5368.3839    23.474064    21.410913    21.671787    10892.265    4075.7003    5467.2622    6562.1891   -970.04445    70.934268    982.22122   -4822.1667 
19294000    253.89896    -6331.066   -5677.9264    -6331.066            0     6490.041    23.250058    21.413233     21.80564    10856.132    7281.4782    6694.3247    5494.3203   -1061.6428     95.48901    -608.8702    -4650.387 
19295000    229.13272   -6341.3059    -5751.876   -6341.3059            0    5482.5951    23.116052    21.547375    21.808858     10862.78    6853.0663     4035.318     5559.401   -679.04756    463.92421   -44.094801   -4883.3095 
19296000    257.19351   -6334.0242   -5672.4095   -6334.0242            0    7312.0673    23.501034    21.266571    21.648054    10819.403    7516.1543    7847.9357    6572.1118   -2402.4091    638.73548   -641.06063   -4518.6392 
19297000    256.53455   -6372.2043   -5712.2848   -6372.2043            0    5871.6366    23.204908    21.579166    21.653384    10842.771     6574.252    6121.2125    4919.4453      91.8211    1061.1209   -277.76035   -4783.7988 
19298000    251.42223   -6308.4394    -5661.671   -6308.4394            0    6887.8294    23.448485    21.264531    21.766519    10853.244    6599.1634    7330.1901    6734.1348    126.85655   -1033.0609   0.54762115   -4571.4417 
19299000    255.15385   -6317.0982   -5660.7305   -6317.0982            0    5948.5937    23.373963    21.530263    21.624441    10882.447    5793.5037    4582.1081    7470.1694    815.38671   -932.59039     1929.859   -4716.6332 
19300000    257.01151   -6336.3629   -5675.2164   -6336.3629            0    6956.2498    23.267294    21.613828    21.529919    10827.295    6857.3987    6592.5899    7418.7607    -309.9276    227.24057    308.52721   -4576.7899 
19301000    256.00561   -6314.8229   -5656.2641   -6314.8229            0    5351.0196    23.279496    21.327159    21.998467     10921.92    6133.8759    4827.3965    5091.7864    -814.5348  -0.59501347   -483.07631   -4803.9269 
19302000    246.13135   -6346.7269    -5713.569   -6346.7269            0    5789.2563    23.271042    21.447922    21.778302    10869.888    6623.3275    5657.1094    5087.3321   -310.63938    105.42351   -903.80086   -4795.8203 
19303000    237.02979   -6316.6345   -5706.8898   -6316.6345            0    5938.6063    23.505426    21.439646    21.516904    10843.401    4993.7359    5231.9064    7590.1764   -189.06762    208.06713    500.13236   -4767.7593 
19304000    251.46664   -6310.9523   -5664.0697   -6310.9523            0    5448.0365    23.352141    21.412708    21.845879    10923.651    5633.4263    4771.1626    5939.5207   -358.68108    1297.1191    315.08265   -4796.1417 
19305000    250.86328   -6321.9454   -5676.6149   -6321.9454            0    6367.4784    23.200042     21.38401    21.948868    10889.052    6893.9207    6747.8394     5460.675     251.9801   -263.60592    258.96625   -4665.4234 
19306000    252.96787   -6302.2194    -5651.475   -6302.2194            0    4965.9439    23.376063    21.493933    21.672676    10889.296    5342.2832    5088.7859    4466.7625   -1359.2971    558.11925    304.25094   -4862.8374 
19307000    247.30059    -6322.809   -5686.6433    -6322.809            0    6671.4972    23.243433    21.438015    21.855516    10890.452    6855.4677    6226.3907    6932.6331    200.08293     395.1226    438.91537   -4627.0356 
19308000    247.22549   -6314.6537   -5678.6812   -6314.6537            0    7494.6047    23.118849    21.317785    21.915736    10801.009    7464.7599    8879.3661    6139.6881   -1292.4094    1168.5203    338.30196   -4498.1187 
19309000    252.62357   -6317.9731   -5668.1143   -6317.9731            0     6643.631    23.227485    21.522313     21.71659    10856.323    6968.4984    5826.2766    7136.1179   -680.81365    149.18852   -445.68429   -4616.2393 
19310000    241.02436   -6337.6203   -5717.5998   -6337.6203            0    4729.6871    23.510874    21.353804    21.721106    10905.007    4747.5825    4813.1074    4628.3715   -577.47282    1053.4589    351.54503   -4965.3982 
19311000    248.23528   -6327.9931    -5689.423   -6327.9931            0    4226.7853    23.185538    21.670695    21.760799    10933.642    5614.1329    3351.7401    3714.4829   -289.54869   -75.521429     301.8375   -5015.4369 
19312000    251.54082   -6314.7039   -5667.6305   -6314.7039            0    5508.6958    23.533488    21.151622    21.903288    10902.831    5095.7558    6899.2443    4531.0873   -400.28686    615.05968     65.79269   -4791.7114 
19313000    264.67698   -6320.9916   -5640.1262   -6320.9916            0    4641.9201     23.33006    21.746689    21.585607    10951.492    5072.2762    2927.8441    5925.6399    -1057.361    329.41406   -203.58397    -4898.736 
19314000    239.77316    -6307.393   -5690.5912    -6307.393            0    5476.5836    23.398689     21.47749     21.70562    10908.053    5323.0172    5798.6505    5308.0831    358.80014    725.20294   -590.26085   -4819.3611 
19315000    232.65553   -6336.9025   -5738.4104   -6336.9025            0    3986.7038    23.502601     21.38328    21.828226    10970.053    4325.4343    4233.7605    3400.9165   -345.79882    228.95074   -52.304137   -5100.5897 
19316000    248.32275   -6299.5456   -5660.7505   -6299.5456            0    4971.2635     23.29508     21.69435    21.689702     10961.36    4526.2389    3568.5872    6818.9643   -569.16618     927.5563    506.21738   -4866.0433 
19317000    247.85935   -6359.5357   -5721.9327   -6359.5357            0     5657.672    23.404062    21.308752     21.75658    10850.253    4821.7638    6540.2506    5611.0016   -813.18554    970.52754    898.33914   -4826.6637 
19318000     247.0915   -6351.3052   -5715.6774   -6351.3052            0    5477.5569    23.247005    21.524634    21.739157    10877.911    5621.5524    5831.4412     4979.677    -1301.409    2102.4526   -9.4427391   -4846.7004 
19319000    240.94431    -6356.199   -5736.3845    -6356.199            0    6117.7831    23.342826    21.380565      21.7253    10842.724    5945.1608    6820.3083    5587.8802    550.94012    28.509693    610.51816   -4768.9794 
19320000    248.56601   -6325.1684   -5685.7475   -6325.1684            0    6055.4578    23.478173    21.406656    21.685202    10898.748     7037.425    4752.0481    6376.9001   -1365.7725    417.73154    -1440.438   -4723.2503 
19321000    250.39741   -6328.9128   -5684.7807   -6328.9128            0    4316.0385    23.343509    21.599843    21.775638    10979.628    3953.9663    4200.4677    4793.6816    670.52085   -58.160986    429.40188   -4993.6681 
19322000    264.70718   -6313.0171    -5632.074   -6313.0171            0    5906.7573     23.44441    21.360905    21.796177    10915.391    5310.9204    6814.6451    5594.7064    97.060504   -59.792792    873.60227   -4691.7786 
19323000    239.52198    -6332.336   -5716.1803    -6332.336            0    6613.4842    23.259265    21.561163    21.615822    10840.266    6675.9535    5849.5362     7314.963   -122.95883   -106.10024    665.68923   -4670.6271 
19324000    253.64877   -6344.7805   -5692.2844   -6344.7805            0    7005.1654    23.353906    21.500838    21.618991    10855.513    6946.5921    6526.1413    7542.7627   -745.17263   -596.80892   -361.12413   -4583.2511 
19325000    250.58166   -6342.1833   -5697.5772   -6342.1833            0    5320.3933    23.445501    21.412719    21.781453    10934.985    5356.3186    5581.1044     5023.757    952.17357   -900.34475    -804.2089   -4849.1047 
19326000    251.07293   -6332.3892   -5686.5194   -6332.3892            0    6275.7737    23.305103    21.588679    21.564772    10849.806    5952.3881    5224.9829    7649.9502   -654.98299    1390.4804    1048.3284   -4693.4831 
19327000    245.86371   -6335.1509   -5702.6815   -6335.1509            0    5452.0175    23.512821    21.295331    21.696519    10863.736     4807.654    4256.5677    7291.8309     923.6028   -128.19335    1931.8054   -4838.8833 
19328000    255.72517   -6297.5262   -5639.6888   -6297.5262            0    6437.8187    23.161823     21.57114    21.801941    10892.837    7497.5708    5892.4269    5923.4584   -588.77738    411.47257   -956.49378   -4616.9714 
19329000    245.81803   -6344.0396   -5711.6877   -6344.0396            0    6929.7019    23.349432    21.553634    21.502827    10821.623    6457.4826    6420.0001    7911.6231   -315.52964    164.53371    -771.0237   -4618.0265 
19330000    262.08674   -6326.9945   -5652.7923   -6326.9945            0    5622.4416    23.432694    21.368703    21.715713    10873.628    4603.6782     6800.429    5463.2176    4.5268478   -170.98139   -665.27516   -4761.1815 
19331000     241.9311   -6320.2695   -5697.9165   -6320.2695            0    7231.7758    23.109863    21.609235    21.691703    10832.543    8527.6807    6661.3891    6506.2578   -9.8938089    420.81072    715.16206   -4555.4296 
19332000    255.79138   -6366.2926   -5708.2848   -6366.2926            0    4438.6899     23.63156    21.248247    21.813359    10953.126     4365.784    4903.6697     4046.616   -958.50042     673.1177    1289.3939   -4999.2481 
19333000      249.333   -6334.1551   -5692.7611   -6334.1551            0    5349.4462    23.159677    21.526228    21.880097    10908.115    6139.6433    4880.1145    5028.5806   -637.07307    1312.5183   -4.5688405   -4841.7516 
19334000    254.78004   -6299.6099   -5644.2038   -6299.6099            0    4885.9449    23.434453    21.490129     21.78736     10972.32     4563.449    4536.0958    5558.2898    244.66019    965.09822    723.52165   -4862.3547 
19335000    256.41716   -6364.8148   -5705.1973   -6364.8148            0    6074.5581    23.501489    21.372166    21.679608    10889.184    5000.2237    6376.2836     6847.167   -680.13847   -876.74423   -520.73749   -4740.5114 
19336000    242.69036   -6332.6156   -5708.3094   -6332.6156            0    5889.5863    23.147326    21.648517    21.710642    10879.317    6615.6595    4695.3594    6357.7401    120.38337    330.20686    318.90401   -4773.8459 
19337000    239.54606   -6329.4049   -5713.1873   -6329.4049            0    6520.5521    23.428653    21.294028    21.748079    10849.908     6717.385    6906.0788    5938.1927    18.839616   -683.47794    363.31121   -4681.4092 
19338000    252.19525   -6323.3706   -5674.6137   -6323.3706            0    6055.6023    23.033255    21.578381    21.857012     10863.38    6592.9668    6148.5303    5425.3097   -1407.2942    247.66776    74.653604    -4715.217 
19339000    242.05588   -6359.7479   -5737.0739   -6359.7479            0    5991.4408    23.227983    21.459119    21.799938    10866.224    6886.3786    5427.1148    5660.8291   -115.66133   -506.33117    943.82776   -4787.5939 
19340000    243.77856    -6337.025   -5709.9195    -6337.025            0    6332.5512    23.472233    21.353442    21.619728    10836.088    6087.1249    6476.6487      6433.88   -409.66291   -20.743244   -177.04295    -4709.166 
19341000    243.58355   -6341.6482   -5715.0444   -6341.6482            0    6828.5579    23.168206    21.622736    21.574138     10807.78    7303.4765    5078.0498    8104.1473    11.705106    399.12289   -530.63659   -4638.7244 
19342000    238.07223   -6297.2409   -5684.8146   -6297.2409            0    6437.9825    23.535947    21.122413    21.845774    10860.321    6848.0663    7066.9497    5398.9314   -655.70421    691.52893   -82.964388   -4665.1242 
19343000    239.99668   -6306.9497   -5689.5729   -6306.9497            0    5434.3646    23.209535    21.531239      21.8125    10900.362     5934.304    4910.6867    5458.1032   -586.60493    229.19073    299.04112   -4825.6687 
19344000    263.57269   -6360.6406   -5682.6159   -6360.6406            0    5541.0228    23.434377    21.386799     21.70818    10879.843    6129.7493    5668.2332    4825.0858   -799.72098   -437.62338    -147.3604   -4803.4144 
19345000     238.5564   -6346.8172   -5733.1454   -6346.8172            0    6057.4279    23.503286    21.483126    21.498372    10855.045    5412.0586    4985.1541    7775.0712    370.65307   -865.10537    162.04815   -4774.1958 
19346000    251.47751   -6309.1867   -5662.2761   -6309.1867            0    4995.5197    23.218956     21.62276    21.773862     10931.74    4584.5236    5361.7508    5040.2848   -1016.4091   -714.05908   -691.63022   -4865.8494 
19347000    245.96337   -6329.0948    -5696.369   -6329.0948            0    6009.7143    23.505432    21.310494     21.69655     10868.07    6134.5722    5874.0749    6020.4959   -1269.3861    291.02997    201.83384   -4743.8314 
19348000    244.34916   -6355.9583    -5727.385   -6355.9583            0    6254.4478    23.300819     21.59307    21.519065    10827.021     6463.665    5245.0807    7054.5978     202.1683    187.68949    1187.4802   -4739.8014 
19349000     249.1268   -6331.2158   -5690.3522   -6331.2158            0    4930.9962    23.359815    21.497779     21.80352    10949.382    5442.3264    4579.2346    4771.4276    470.14581    651.92181    337.80021   -4902.9436 
19350000    241.98721   -6335.0205   -5712.5232   -6335.0205            0    6163.1585    23.421958    21.365999    21.708672    10863.747    6853.9236    5559.0423    6076.5097   -711.17863    308.16264    708.01498   -4736.0532 
19351000    250.24543   -6356.6243   -5712.8831   -6356.6243            0     6627.172    23.311832    21.639331    21.465585    10828.367    6081.7719    6302.1593    7497.5849    666.97691     574.5283   -148.80364    -4666.316 
19352000    243.55218   -6317.1451    -5690.622   -6317.1451            0    4685.5009    23.491536    21.413384    21.720547    10926.158    4492.9057    5380.8588     4182.738    -807.4975    340.24847   -1044.6916   -4944.0023 
19353000    245.80889   -6289.4355   -5657.1071   -6289.4355            0    5772.0973    23.307402    21.366614    21.925637    10918.973    6460.4272    5998.2413    4857.6233   -13.992218    534.84627    303.11443   -4737.9466 
19354000    254.69229   -6341.4211   -5686.2407   -6341.4211            0    5887.3152    23.212194    21.555539    21.768414    10891.855    5919.6594    5832.0019    5910.2842   -438.97556   -138.49845    43.491126   -4751.0611 
19355000    255.64218   -6327.6423   -5670.0184   -6327.6423            0    5228.8844    23.618268    21.338083    21.589508    10880.434    3829.9687    5211.6421    6645.0424   -336.57729    358.32804    1993.7381   -4840.2992 
19356000    238.48208   -6315.2558   -5701.7752   -6315.2558            0     6604.588    23.177168    21.567675    21.708527    10851.607    7273.0309    5788.4821    6752.2508    401.15408    60.359454    400.41132    -4656.536 
19357000    252.22719   -6349.0483   -5700.2092   -6349.0483            0    4659.2383    23.378802    21.433414    21.745538    10896.418    5059.3522    4602.1784    4316.1843    94.484673   -159.09808   -701.77611   -4959.7953 
19358000    255.60903   -6345.5619   -5688.0232   -6345.5619            0    6781.9243    23.414292    21.357346    21.665681    10834.295     7297.897    6846.5277    6201.3483    748.27785   -648.30694   -301.71486   -4616.4312 
19359000    251.86239   -6347.2497   -5699.3491   -6347.2497            0    5526.6888    23.286267    21.684943    21.576671    10895.385    5702.5992    4646.2647    6231.2024   -165.86578   -460.73639   -269.42455   -4821.1692 
19360000    239.87271   -6316.7729   -5699.7149   -6316.7729            0    4604.1783    23.772683    21.250718    21.708856    10967.023    3924.9393    5037.8463    4849.7494   -1026.7532   -38.115983   -921.26204   -4963.3099 
19361000    248.87092   -6321.7247   -5681.5194   -6321.7247            0    5930.0483    23.291305    21.563119     21.73254    10914.803    4657.6035    6271.2581    6861.2834     788.5772   -606.39713    26.649074   -4737.5672 
19362000    246.88962   -6323.0925    -5687.984   -6323.0925            0    4700.8159    23.356436    21.484567    21.723402    10900.867     5241.159    4804.0496    4057.2391     33.26189    -49.52181      43.2281   -4940.6579 
19363000    245.17607   -6312.6425    -5681.942   -6312.6425            0    5795.9202    23.477682    21.368827    21.723807    10898.628    5445.4348    6363.1748    5579.1509    389.02358    411.82042   -1220.4706   -4760.7077 
19364000      248.897   -6317.3246   -5677.0523   -6317.3246            0     5631.125    23.268249    21.571569    21.717185    10900.564    5875.9467    5346.7749    5670.6534   -426.94869   -591.00107    93.800556   -4781.8524 
19365000     253.4991   -6339.8196   -5687.7086   -6339.8196            0    6085.6153    23.406699    21.420136    21.743512    10901.646    6059.9136    5686.8491    6510.0833    283.45881   -2154.5635    271.22101   -4720.1607 
19366000    248.28268   -6377.1016   -5738.4095   -6377.1016            0    5283.4928    23.300603     21.60142    21.624499    10884.175    6013.2644    4303.7035    5533.5105    258.94532   -347.03256    -645.2537   -4899.7368 
19367000    237.05591   -6367.9713   -5758.1594   -6367.9713            0     4851.053    23.411468    21.360997    21.789711    10896.867    3902.6373     5095.962    5554.5598    561.18886    52.994025    1631.4769   -4987.2319 
19368000    244.45786   -6347.4731   -5718.6201   -6347.4731            0    5624.1969    23.329846    21.452132    21.745613    10883.134    5222.3696    6227.3471    5422.8741    638.40764   -1733.6572    76.007864   -4825.9513 
19369000    237.72895   -6316.1187   -5704.5755   -6316.1187            0    6346.1168    23.339153    21.616093    21.575468    10884.852    6276.5113    5397.3815    7364.4575    371.85217   -576.45463   -799.37095    -4697.165 
19370000     241.8155   -6312.2669   -5690.2113   -6312.2669            0    5682.4654    23.544026    21.345305    21.717689    10914.321    4432.9681    6394.7108    6219.7174    41.245585    808.62283   -168.31196   -4785.7095 
19371000    246.15129   -6329.3866   -5696.1774   -6329.3866            0    5857.4941     23.20468    21.419549    21.914268    10892.132    6962.5458    5657.3653    4952.5711    721.78711    539.00306     853.9734   -4765.7111 
19372000     254.9041   -6306.1642   -5650.4389   -6306.1642            0     5261.433     23.35814    21.460225    21.771259      10913.3    5507.7771    5483.8137    4792.7082    337.09796   -153.87159    1032.0217    -4813.033 
19373000    245.87558   -6342.5738   -5710.0738   -6342.5738            0    5697.2293    23.511006    21.380693    21.639254    10877.655     4555.046    7000.4741    5536.1677   -1062.0809    913.16781   -861.38779   -4806.2686 
19374000    250.26716   -6318.4491    -5674.652   -6318.4491            0    6836.3949    23.042935    21.767523    21.619527    10844.087     8881.418    4940.8163    6686.9504    -78.91541   -605.75018   -647.78117    -4593.477 
19375000    257.53011   -6317.1014   -5654.6209   -6317.1014            0    8155.0066    23.404269    21.186977    21.779949     10799.93    6918.1621    10657.992    6888.8659    1552.1089   -394.02887    449.15505   -4370.1592 
19376000    253.54674   -6347.5003   -5695.2668   -6347.5003            0    5124.6994    23.368803    21.504645    21.663771    10886.864    4391.8488    4636.7083    6345.5411    921.21493    645.00532    581.76577   -4881.5991 
19377000    250.31223   -6339.6111   -5695.6981   -6339.6111            0    5067.9685    23.321128    21.527712    21.765491    10927.376      5058.18    4383.1952    5762.5303    264.15623    387.71848   -12.709964   -4888.0435 
19378000    240.80408   -6317.8987   -5698.4449   -6317.8987            0    4477.4479     23.62746    21.284238    21.779214    10952.603    3296.3336    5154.5972    4981.4129   -24.577401    565.56498   -1084.2832   -4983.2511 
19379000    255.44169   -6307.0809   -5649.9727   -6307.0809            0    5351.8502    23.249279    21.664518    21.689505    10924.666    5022.0955    4273.4903    6759.9647     380.6916    733.41403   -489.45363   -4797.2889 
19380000    240.60989   -6365.9516   -5746.9973   -6365.9516            0    4432.3031    23.558102    21.276158    21.788163    10920.791    4482.3782    4727.2511    4087.2799       373.01   -261.15797   -436.76623   -5041.0708 
19381000    233.74482   -6330.4196   -5729.1253   -6330.4196            0    6549.9334       23.324    21.423893    21.680975    10833.786    6266.2678    6386.1153    6997.4172   -346.01147    688.72381   -627.15225   -4694.2381 
19382000    249.80083   -6294.5865   -5651.9891   -6294.5865            0    5227.2074    23.274799     21.62172     21.66398    10902.207    6444.7641    2838.0178    6398.8403    624.05392   -67.487862    1171.9785   -4820.8761 
19383000    242.15688   -6307.5256   -5684.5918   -6307.5256            0    3791.5306    23.602583    21.381763    21.869677    11036.857    3137.8509    4532.5074    3704.2334   -373.78541   -625.35828      399.434   -5074.3023 
19384000    231.11748   -6327.8054   -5733.2698   -6327.8054            0    4594.3175    23.219216    21.701769    21.662759    10915.823    5962.3166    2559.4095    5261.2264   -505.73809   -1163.5464      -319.58   -5001.8725 
19385000    246.04345   -6361.2748    -5728.343   -6361.2748            0    5338.9604    23.497674    21.394036    21.627226    10872.225    5407.8475    5104.4238    5504.6099   -799.91986   -558.95116   -172.73433   -4881.7961 
19386000    259.55974   -6337.5769   -5669.8753   -6337.5769            0    5868.3787    23.262354    21.624001    21.706481    10918.906    6252.6337    4782.2163    6570.2862   -224.49952    194.03806    -387.4633   -4735.3886 
19387000    251.60742   -6352.6082   -5705.3635   -6352.6082            0    4848.1131    23.279604    21.465586    21.790703     10889.04    4671.9947     5347.881    4524.4636   -117.48714    882.12676   -634.52662   -4935.4565 
19388000    249.04301   -6369.6751   -5729.0271   -6369.6751            0    5238.5568    23.515137    21.342076    21.650932    10865.777    4670.3234    5048.5113    5996.8357   -513.75418   -57.225299   -129.52114   -4898.8929 
19389000    246.68341   -6343.1703   -5708.5922   -6343.1703            0    6203.9462    23.061176    21.672511    21.708573    10849.806    7248.0712    6064.6872    5299.0802   -122.54262    411.46103   -765.11095   -4726.9215 
19390000     256.4955   -6355.7131   -5695.8941   -6355.7131            0    5490.1372    23.460614    21.337892    21.778271    10902.204    5522.2356    6207.5328    4740.6432    -577.9622    422.88502    29.137778   -4822.9762 
19391000    250.00264   -6358.4969   -5715.3803   -6358.4969            0    4280.6825    23.457764    21.460546    21.740269    10944.408    3105.2017    4313.8354    5423.0103    38.699411   -409.45994     394.2112   -5032.1279 
19392000    254.99534   -6344.2867   -5688.3268   -6344.2867            0      6253.27    23.015944    21.741401    21.668056    10842.671    6938.6521    5770.0442    6051.1136   -209.90486   -240.82446   -281.79418    -4699.502 
19393000    256.42351    -6346.514   -5686.8801    -6346.514            0     5483.181    23.439375    21.249307    21.804727     10860.29    4320.1786    7841.2208    4288.1436   -1116.1454    460.55535   -269.12611   -4818.4199 
19394000    251.94383   -6336.3878   -5688.2777   -6336.3878            0    6874.2835    23.196234    21.462039    21.687042    10796.644    6503.9537    6287.5121    7831.3848   -359.92043    817.33285    492.58419   -4605.8669 
19395000    259.26912   -6317.2152   -5650.2612   -6317.2152            0    5573.8695    23.308891    21.520942    21.699314    10885.011    5898.9636    4119.9278    6702.7172   -128.07885    1167.1224    725.96383   -4765.4276 
19396000    248.14256   -6340.9379   -5702.6063   -6340.9379            0    6414.4023    23.446974    21.244806    21.788233    10853.294    5500.4312    7896.6156    5846.1602   -198.06781    1155.0035   -674.40142    -4687.308 
19397000    251.71485   -6367.5728   -5720.0517   -6367.5728            0    5634.5359    23.178986    21.588821    21.731461    10874.575    5860.1318    5574.2523    5469.2237    -16.78606    578.30508   -565.37804   -4826.4452 
19398000    240.51747   -6337.2051   -5718.4885   -6337.2051            0    6529.2023    23.375525    21.379562    21.662523     10826.03    7695.8935     6245.087    5646.6263   -1102.8634    428.37473   -291.11123   -4687.6154 
19399000    247.60734    -6294.115   -5657.1602    -6294.115            0    5399.8954    23.328728    21.405974    21.867241    10919.935    5201.2054    6017.7937     4980.687   -310.78224    1530.4619    626.26588   -4797.1942 
19400000    242.86937   -6334.0318   -5709.2651   -6334.0318            0    5455.6533    23.279881    21.585596    21.676306    10892.563     5775.481    5114.4619    5477.0169    604.04249    77.389664   -927.21212   -4842.5972 
19401000    260.14616   -6335.6773   -5666.4671   -6335.6773            0    5381.2988    23.460365    21.468346     21.66256    10910.461    5257.6919    5706.6881    5179.5165    210.09491    -522.4808    163.16929   -4810.2063 
19402000    241.55748   -6344.9512   -5723.5593   -6344.9512            0    5033.5174     23.34378    21.448823    21.813438    10921.915    5147.0989    5445.9491    4507.5041   -852.48464    640.75429    840.66043   -4921.7958 
19403000    247.33181   -6298.0936   -5661.8476   -6298.0936            0    4973.2293     23.28612    21.676184    21.649416    10927.634     5052.278    3748.1067    6119.3032    -330.1146   -350.92335    423.85407   -4869.2723 
19404000    241.31173   -6310.5064   -5689.7467   -6310.5064            0    6441.8066     23.39199    21.341713    21.729989    10848.157    7297.4343     6438.316    5589.6696   -982.92625   -907.04707    183.75646   -4670.5934 
19405000    235.10809   -6318.3103    -5713.509   -6318.3103            0     7083.515    23.336228    21.467284    21.624378    10833.066    6154.7543    7697.2908    7398.4998   -1688.7917    406.38859   -130.13085   -4594.3905 
19406000    233.57419   -6343.5851   -5742.7297   -6343.5851            0    6441.2538    23.237117    21.457361     21.76126    10850.321    8248.4055    6045.0168    5030.3393   -9.7463799   -700.12915   -372.15762   -4723.4605 
19407000    245.86228   -6346.4269   -5713.9612   -6346.4269            0    4867.7485    23.486812    21.294537    21.751849    10878.987    4173.7296    5214.1885    5215.3273    406.09627    1432.7548    1089.9314   -4941.6497 
19408000    243.76314   -6341.7524   -5714.6866   -6341.7524            0    5143.1422    23.309513    21.555448    21.721377     10913.84     5708.569    3985.8145    5735.0431    898.76038   -404.38988    750.25469   -4896.0672 
19409000    256.97111   -6360.1742   -5699.1317   -6360.1742            0    5556.7771    23.439471    21.441114     21.69124    10901.331    5229.4135    5923.3404    5517.5773    1178.9142    257.66662    -19.79732   -4815.6889 
19410000    246.50872   -6345.3856    -5711.257   -6345.3856            0    4983.2042    23.414107    21.393784     21.79629    10918.118     4578.369    5362.0069    5009.2366    893.45199   -1219.8328   -214.77994   -4917.7836 
19411000    245.65031   -6355.5573   -5723.6369   -6355.5573            0    5008.6361    23.472719    21.575466    21.545925    10911.607    4139.5704    5378.5555    5507.7824    1700.7864   -1266.2924   -992.59103   -4926.5895 
19412000    250.30877   -6330.5282   -5686.6241   -6330.5282            0    4962.6962    23.494451    21.395588    21.713224    10914.751     5781.273    3135.2518    5971.5636   -275.56534    160.64528    499.72086   -4896.6599 
19413000    242.96184   -6316.5994   -5691.5949   -6316.5994            0    5421.6679    23.369787    21.385447    21.793146    10891.633    6380.2171    4710.8223    5173.9644    253.26483    749.73556    930.11594   -4830.3993 
19414000    247.06217   -6346.8078   -5711.2554   -6346.8078            0    5705.1639    23.190145    21.542533    21.729731    10855.619    6528.0197    4764.9451    5822.5269    192.19037   -697.74474    62.576016   -4808.0249 
19415000    245.12694   -6318.4825   -5687.9084   -6318.4825            0    6004.3378    23.521083    21.413321    21.573444    10865.778    5097.8371    6285.3825    6629.7939   -974.65114    304.64068   -477.92353   -4736.4236 
19416000    256.22073   -6318.7397   -5659.6274   -6318.7397            0    5499.5396    23.141963    21.667878    21.768719    10915.646    5906.8709    4923.4145    5668.3334   -738.07342    374.83367   -570.39229   -4784.1365 
19417000     251.6671   -6348.7961   -5701.3978   -6348.7961            0      5002.33    23.371497     21.41387    21.741563    10881.091     5448.904     5792.616    3765.4699    -122.1536    713.02607   -51.996613   -4907.5803 
19418000    256.38599    -6322.846   -5663.3087    -6322.846            0    6104.0689    23.443251    21.396687    21.663535      10866.6    5765.3492    5375.8563    7171.0012    518.76739    -757.0627    502.23329   -4695.9467 
19419000    262.84687   -6311.5781   -5635.4206   -6311.5781            0    6596.6221    23.091809    21.549732      21.8588    10877.426    7658.8949    6666.9531    5464.0183    399.02316   -403.66358   -1349.1826   -4588.9581 
19420000    247.71446     -6327.02   -5689.7897     -6327.02            0    7322.2136    23.412062    21.315071    21.686232    10822.075    6472.6184    8183.5622    7310.4603   -987.04524   -533.20538    405.98992    -4534.133 
19421000    256.82053   -6342.2743   -5681.6191   -6342.2743            0    7175.1156    23.253216    21.545437    21.601985     10822.61    7776.6434    5636.8416    8111.8617    332.96916    228.35742    228.28566   -4549.1228 
19422000     249.8454   -6312.8439   -5670.1318   -6312.8439            0    8139.3585    23.256002    21.284367    21.831323    10806.271    8872.4043    8145.1553     7400.516    419.02891    515.90372    561.27154   -4387.3821 
19423000    242.18422   -6317.3536   -5694.3494   -6317.3536            0    7430.2549    23.337265    21.298742    21.719856     10795.95     8113.895    7304.7129    6872.1568    1605.5975    957.75508   -753.70241   -4524.4717 
19424000    242.33644   -6324.6894   -5701.2937   -6324.6894            0    6566.3021    23.481735    21.436997    21.550948    10848.271    5429.2757    6205.2995     8064.331    596.40079   -798.11027    2126.4837   -4662.4331 
19425000    254.18837   -6332.7607   -5678.8766   -6332.7607            0    6599.8852    23.245557    21.476662     21.69216    10829.528    8041.3999    6302.7432    5455.5123   -595.23431   -1458.8773   -446.96916   -4636.5069 
19426000    243.76834   -6332.4569   -5705.3777   -6332.4569            0    7237.5257    23.162228    21.423172    21.774332    10804.607    7489.6702    7335.9174    6886.9896    421.26903   -1513.2436    450.58117    -4564.931 
19427000    255.67624    -6300.274   -5642.5625    -6300.274            0     7642.834    23.244898    21.422863    21.760359    10836.055    7392.1026    8756.6291    6779.7703    302.30058   -300.56651     91.84633   -4434.7444 
19428000    243.23291   -6300.7581   -5675.0562   -6300.7581            0     6551.653    23.436365    21.543776    21.536013    10873.701    6016.4323    5764.0815    7874.4452    -497.6478   -132.35884    1580.4343   -4636.0835 
19429000    250.94539   -6333.6668   -5688.1251   -6333.6668            0    4640.9812     23.30536    21.597365    21.742815    10943.906    3977.3667    4744.0811    5201.4958    1021.4334   -834.08384    955.76511   -4947.3983 
19430000     255.1793   -6342.5375   -5686.1043   -6342.5375            0    5189.2867      23.3525    21.376492    21.883201    10923.974    4748.9191    6284.6397    4534.3014    159.18224    5.9992911    458.81129   -4859.3733 
19431000     251.7275   -6344.9754   -5697.4218   -6344.9754            0    5886.9672    23.313664    21.583774    21.573969    10855.953    7035.9923      5303.09    5321.8192     -323.007   -14.374584   -786.68541   -4765.3798 
19432000    260.30083   -6340.2104   -5670.6024   -6340.2104            0    5974.9069    23.578055    21.284503    21.635473    10857.701     4851.438    5391.6979    7681.5849    732.30656   -175.56569     525.3538   -4724.4852 
19433000    242.93103   -6335.6421   -5710.7168   -6335.6421            0    6400.5032    23.217115    21.390387    21.844666    10848.565    7646.5699    6889.9669    4664.9729    1404.6707    423.06689    553.88551   -4698.0599 
19434000    252.76495   -6367.5043   -5717.2819   -6367.5043            0    4924.2198     23.29393    21.518732     21.76147    10908.063    4568.2573    4395.5386    5808.8636    1282.8095    108.39521   -58.362489   -4933.9226 
19435000    256.65399   -6328.9467   -5668.7199   -6328.9467            0    5903.3152    23.551384    21.351995    21.660609    10892.449     4935.086    6149.8613    6624.9985    -163.8641    448.39824    414.75374   -4730.9476 
19436000    256.56071   -6323.5384   -5663.5516   -6323.5384            0    5820.9098    23.290658    21.599294    21.673964    10903.343    5776.0773    6391.6798    5294.9723    294.79765   -295.04252   -1378.1595    -4737.945 
19437000    248.88106     -6366.94   -5726.7087     -6366.94            0    5921.2289    23.294797    21.531296    21.706239    10887.137    6537.8868    5183.5765    6042.2234    652.31902   -1740.9444   -182.97649   -4786.5494 
19438000    248.20721   -6294.4475   -5655.9495   -6294.4475            0    6417.0323    23.434455    21.370614    21.645644    10840.327    5630.5438    6408.3258    7212.2273    583.23645   -243.15799    1098.1182   -4641.4485 
19439000    240.90977   -6357.4702   -5737.7445   -6357.4702            0     6167.635    23.217863    21.491301    21.707523    10831.665    6087.7468    6349.5686    6065.5895   -833.88709      783.916    298.36576    -4763.451 
19440000    248.33409   -6270.1949   -5631.3706   -6270.1949            0    7133.7453    23.189438    21.461792    21.802346    10850.742    8581.5297    6098.9629    6720.7433    692.50036    359.62595   -380.45313   -4502.4772 
19441000    251.13231   -6306.1639   -5660.1414   -6306.1639            0    6357.7411    23.467855    21.396378    21.642543    10867.308    6813.8325    6004.7752    6254.6157    8.9748619   -667.70721   -851.42248   -4652.5123 
19442000    248.18386    -6315.793   -5677.3552    -6315.793            0    5390.6373    23.442854     21.53355    21.591297    10899.457    4681.6719    6116.6606    5373.5796    361.52692  -0.18134541   -204.35727   -4820.4735 
19443000    244.39725   -6325.4191   -5696.7221   -6325.4191            0     6402.755    23.106285    21.516411     21.84265    10859.386    7412.7708    7413.5186    4381.9756   -761.98509    381.62274   -1622.9101   -4682.6986 
19444000    245.24914   -6315.3973   -5684.5088   -6315.3973            0    6091.0757    23.478008    21.183042    21.795376    10839.617    5542.9113    6609.1922    6121.1237    216.24298     459.5772      278.622   -4721.6029 
19445000    248.36766   -6312.0582   -5673.1475   -6312.0582            0    6443.0518    23.218258     21.60925    21.716252    10895.676       5625.8    5110.2391    8593.1163    62.836068    1315.5516    1033.5462    -4649.332 
19446000     253.6018   -6349.0676   -5696.6924   -6349.0676            0    6406.5503     23.58831    21.329735    21.593122    10864.199    5615.7059    7154.2546    6449.6905   -746.43647    1024.7375     758.5948   -4681.6181 
19447000     253.0648   -6335.0504   -5684.0566   -6335.0504            0    5143.9654    23.359361    21.550899    21.650119        10899    5455.8558    4509.2072    5466.8334   -89.182726    395.91669   -517.79988   -4866.4195 
19448000    256.41461   -6329.1417   -5669.5308   -6329.1417            0    5767.7639    23.254728    21.508247    21.755616    10881.472    7327.5679    4973.4226    5002.3014    122.60379   -586.22345    72.698619   -4754.2148 
19449000     262.0212   -6337.2408   -5663.2072   -6337.2408            0    6834.8761    23.441256    21.242626    21.765343    10838.136    6120.2299    7696.0434    6688.3551    68.229082    147.34671    368.79478   -4582.8655 
19450000    251.12018   -6347.6787   -5701.6874   -6347.6787            0    6023.9915    23.095219    21.603242    21.685258    10819.461    6182.5591     6336.396    5553.0193    49.877104   -28.711304   -670.02677   -4751.1573 
19451000    252.75396   -6317.4659   -5667.2717   -6317.4659            0    7677.9186     23.26964    21.383832    21.674012     10784.86    8066.5416    7520.2201     7446.994    -2064.417   -612.46556    803.24036   -4459.6417 
19452000    241.96807    -6312.306   -5689.8579    -6312.306            0    6906.4909    23.322802    21.504059    21.654477    10860.476    6283.7094    6179.9277    8255.8358    181.13634   -20.905785   -520.26312   -4595.9463 
19453000    238.73119   -6353.5702   -5739.4488   -6353.5702            0    6081.4116    23.376262    21.452361     21.59856    10831.159    4739.3331    5642.5947    7862.3071   -103.69231    1025.4485    2104.0709   -4778.8208 
19454000    247.00228   -6331.6109   -5696.2126   -6331.6109            0    6151.2524    23.343905    21.411241    21.712022    10852.146    7430.1078    5595.1751    5428.4744   -753.60878    562.79935   -413.37919   -4722.6698 
19455000     245.8617   -6342.9221   -5710.4579   -6342.9221            0    6249.0594    23.361456    21.422495    21.655231    10837.592    6503.8258    5426.7789    6816.5735   -1661.6673       1622.2   -121.20761   -4722.7618 
19456000    243.31012   -6351.2004   -5725.2999   -6351.2004            0    6269.7275    23.431511    21.378748    21.648686    10844.614    6717.3305    5362.3245    6729.5273   -555.74434   -223.69607    606.91032   -4733.6951 
19457000    238.98331   -6331.5617   -5716.7917   -6331.5617            0    6056.9924    23.235871    21.447092    21.776424    10852.103    6206.2795    6622.0709    5342.6268     168.5377    1491.2487    17.751075   -4758.1709 
19458000    251.99875   -6335.1609   -5686.9094   -6335.1609            0    6365.7157     23.29837    21.383353    21.793083    10857.254    6948.9009     7255.082    4893.1643    343.50289    360.91084   -251.12496   -4678.9498 
19459000    254.26996   -6319.4979   -5665.4039   -6319.4979            0    6840.2513    23.288304    21.452726    21.765199    10873.842     8121.159    5133.4884    7266.1065    62.945967   -631.49179    1288.1978   -4580.6507 
19460000     238.8153   -6315.6638    -5701.326   -6315.6638            0    5689.3597    23.354365    21.629178    21.632594    10927.396    6321.6394    4967.7393    5778.7002    170.67848   -585.27557   -271.62981    -4794.642 
19461000     249.6788   -6318.2738   -5675.9903   -6318.2738            0    5776.3078    23.472853    21.479892    21.588333    10884.716    5680.1445    4632.0749     7016.704    1045.0253   -192.36217   -236.93559   -4759.0453 
19462000    245.73899   -6341.4657   -5709.3171   -6341.4657            0    5992.9681    23.250097    21.455828    21.814944    10882.387    6488.1467    5661.3166    5829.4412   -518.49879   -492.67694   -321.36783   -4758.1824 
19463000    253.83229   -6356.1075   -5703.1394   -6356.1075            0    5512.2352    23.173082    21.425525    21.951041    10898.592    7690.2147    4339.8278    4506.6631     137.9658    452.37541    875.69461   -4826.9984 
19464000    246.49605   -6326.7113   -5692.6152   -6326.7113            0    5797.9345    23.415356    21.428947    21.684465    10880.537    6895.5432    5104.2537    5394.0065   -1099.4135   -849.94814    -490.1602   -4772.5905 
19465000    243.20507   -6363.3016   -5737.6714   -6363.3016            0    5748.7833    23.378071    21.572539    21.560956    10873.715    6238.6446    4571.1219    6436.5835   -741.67542   -663.45428    216.63676   -4826.0179 
19466000    246.19235    -6332.253   -5698.9382    -6332.253            0    5441.2854    23.301569    21.381171    21.896458     10909.14    5743.6255    5692.1623    4888.0684    168.90082   -921.29989    782.74244   -4833.2372 
19467000    251.89282   -6349.4924   -5701.5135   -6349.4924            0    6029.2124    23.138156    21.493551     21.82209    10852.587    7319.5045    4974.8027    5793.3301   -1731.6312    599.34706   -513.52237   -4747.2469 
19468000    248.27612    -6301.776   -5663.1008    -6301.776            0    7478.6425    23.394235    21.360161    21.709208    10848.192    7356.6409     6766.961    8312.3258   -548.79053    824.20098    811.90592   -4479.9067 
19469000    244.50467   -6325.6288   -5696.6554   -6325.6288            0    6510.1326    23.347171    21.511354    21.613754     10855.06    6721.5537    6495.9613    6312.8829   -65.419209    111.31158   -414.45716   -4666.0369 
19470000     248.3317   -6370.0692    -5731.251   -6370.0692            0     5847.576    23.280054    21.463729    21.763836    10874.883    6871.7145    5265.8328    5405.1807   -85.150587   -816.99536    -1126.949   -4803.8312 
19471000    236.16094   -6313.2122   -5705.7026   -6313.2122            0    6082.7629    23.376819    21.398831    21.751938    10881.116     6082.046    7274.5731    4891.6694   -979.53714    205.01711   -274.98193   -4740.4295 
19472000    260.01665   -6374.7939    -5705.917   -6374.7939            0    5974.1528    23.313967    21.522261    21.574082    10825.212     7453.088    3705.3437    6764.0266   -384.18744    1226.6274    844.81059   -4762.7499 
19473000    244.96286   -6340.8081   -5710.6561   -6340.8081            0    5215.7385    23.321059     21.30147    21.925032     10891.76    5376.0197    6143.7823    4127.4136    166.43219    334.83722    847.63707   -4882.1613 
19474000    266.85313   -6340.3452   -5653.8818   -6340.3452            0    6941.7328    23.209133    21.364957    21.874222    10846.598    8429.1725    6483.2413    5912.7847   -300.05157    978.66122   -782.76597   -4555.7933 
19475000    238.24298   -6322.0109   -5709.1454   -6322.0109            0    6089.0399    23.269929    21.603439    21.616415    10866.799     5974.819    5612.3756    6679.9251    430.22346   -95.291261   -72.226518   -4744.1475 
19476000    242.37783   -6319.0025   -5695.5003   -6319.0025            0    5985.8465     23.56381     21.29732    21.646858    10863.389    5071.7235    7018.5014    5867.3146   -768.29376    -208.8567   -360.41993   -4747.1544 
19477000    259.80216   -6307.6326   -5639.3073   -6307.6326            0    5751.1825    23.221928    21.474372    21.816508    10879.377    6418.9699    5153.2782    5681.2993   -537.10579    542.75356    408.47482   -4726.7986 
19478000    254.20796   -6301.8096   -5647.8751   -6301.8096            0     4507.138    23.295902    21.536391    21.856672    10965.703    5798.3239    3634.7191    4088.3709   -861.37842    955.39014   -319.71621   -4927.0777 
19479000    249.24135    -6322.484   -5681.3258    -6322.484            0    4768.9525    23.535096    21.338285    21.746836     10921.23    3182.9925    4887.4582     6236.407    -59.18792    969.71749    942.47663   -4921.7512 
19480000    254.37203   -6317.1318   -5662.7752   -6317.1318            0    5027.7893    23.331675    21.791212    21.499098    10930.689    3943.3594    4724.9184    6415.0901   -190.65478    -448.5274   -362.34991   -4861.2808 
19481000    262.20079   -6330.9778   -5656.4822   -6330.9778            0    6200.1478    23.328272    21.371406    21.760146    10848.694    6085.4893    6657.2894    5857.6646    591.97646    239.14848   -479.13082    -4675.513 
19482000    248.86087   -6318.6039   -5678.4244   -6318.6039            0    6620.6936    23.268543    21.315989    21.931419    10877.809    7831.5176    6485.6104    5544.9528   -97.863915    124.80152   -772.89745   -4628.1064 
19483000    250.47215   -6350.9749   -5706.6505   -6350.9749            0    5890.6612     23.27268    21.494529     21.67026    10840.229    5820.5954    6316.7978    5534.5905   -248.13485    1044.6522   -401.60767   -4775.3746 
19484000    255.66096   -6340.4438   -5682.7715   -6340.4438            0    6445.6768    23.463658    21.248069    21.703525    10820.454    5757.8241    6028.6046    7550.6019   -196.10151    1141.4968   -489.87226   -4665.6101 
19485000    251.55599   -6345.0075   -5697.8951   -6345.0075            0    6809.4957    23.153445    21.426744    21.817863    10823.906    7960.0661    6572.1758    5896.2453   -474.48299   -102.46133   -1264.0283   -4622.9783 
19486000    253.44386   -6348.2439    -5696.275   -6348.2439            0    6203.3972    23.283629    21.421456    21.752821    10849.638    5864.1398    6736.0294    6010.0223    201.48642    500.29589   -748.31783   -4714.7063 
19487000    241.37457    -6330.456   -5709.5346    -6330.456            0     5630.805    23.418725    21.382268    21.743956    10888.187     6286.476    5333.8148    5272.1242    711.78717    356.18498   -479.81822    -4815.402 
19488000    258.56344   -6320.9628   -5655.8241   -6320.9628            0    5978.1188    23.171897    21.606976     21.78289    10906.141    7287.0021    4174.5125    6472.8419    11.251667    682.41261    883.72013   -4704.9752 
19489000    243.93335   -6338.0574   -5710.5537   -6338.0574            0     5825.214    23.361086    21.257375    21.943411    10896.997    6300.1988    7283.7763     3891.667   -423.66988    268.07421   -41.000074   -4784.8018 
19490000     253.1237   -6330.7673    -5679.622   -6330.7673            0    5872.8806    23.272571    21.537438    21.666671    10860.019    6422.9602    6163.8985     5031.783    -567.6323    754.55625    27.407376    -4749.462 
19491000    247.97066   -6348.0784    -5710.189   -6348.0784            0    7441.1197    23.251472    21.462676    21.694358    10826.327    7268.9047    7377.5346    7676.9197   -447.70513    171.81204    464.39394   -4535.3042 
19492000    251.96895   -6351.7659   -5703.5911   -6351.7659            0    5637.8467    23.261157    21.393082    21.866092    10881.176    6952.6997    5032.6497    4928.1906   -272.56053   -348.34175   -131.14212   -4808.9168 
19493000    254.40863   -6320.9778   -5666.5271   -6320.9778            0    5074.9229    23.303944    21.462143    21.729231    10867.931    4991.9246    5512.5461    4720.2981    728.21424    330.94208    318.10932   -4862.1639 
19494000    246.25495   -6323.9777   -5690.5019   -6323.9777            0    5988.3291    23.519193    21.352343    21.626119    10860.418    4606.4165    5476.9571    7881.6136    505.43047    568.72454    626.56629   -4742.0221 
19495000    267.53031    -6327.913   -5639.7075    -6327.913            0    4774.2114    23.345625    21.629212     21.63447    10924.271    4682.6539    4567.3632    5072.6172   -297.65581   -326.56581    132.16488   -4879.0836 
19496000    245.67392   -6348.6605   -5716.6793   -6348.6605            0    4380.5631    23.387179    21.443139    21.871447    10968.411    4865.7937    4509.8495    3766.0462    -446.9807    1203.5336   -653.59576   -5015.9512 
19497000    243.52905   -6322.1894   -5695.7258   -6322.1894            0    4358.2131    23.465843    21.280987    21.907447     10940.06    4449.3165    5106.5515    3518.7712   -732.75783    166.54623    16.081991   -5000.3748 
19498000    249.91829   -6324.6683   -5681.7687   -6324.6683            0    5564.5347    23.295888    21.587437    21.674021    10899.833    6320.2538    4285.7443    6087.6058   -157.50002    102.13945   -285.15225   -4797.2142 
19499000    252.24023   -6353.1364   -5704.2638   -6353.1364            0    5646.9953    23.366343    21.401524    21.795438    10899.361    5873.1662     5759.005    5308.8146   -1091.8915   -50.107748    374.27553     -4806.64 
19500000    261.49656   -6318.0873   -5645.4033   -6318.0873            0    4814.3848    23.462888    21.587579    21.689338    10985.801    3501.5151    5905.6683    5035.9711    72.526933    316.54066   -579.87307   -4874.0588 
Loop time of 617.581 on 64 procs for 250000 steps with 1296 atoms

Performance: 69.950 ns/day, 0.343 hours/ns, 404.805 timesteps/s
99.1% CPU use with 64 MPI tasks x 1 OpenMP threads

MPI task timing breakdown:
Section |  min time  |  avg time  |  max time  |%varavg| %total
---------------------------------------------------------------
Pair    | 29.684     | 38.843     | 47.478     |  95.1 |  6.29
Bond    | 0.269      | 0.27706    | 0.29211    |   0.8 |  0.04
Kspace  | 317.01     | 330.93     | 344.55     |  38.9 | 53.58
Neigh   | 4.5169     | 5.1222     | 5.7452     |  15.3 |  0.83
Comm    | 100.18     | 109.4      | 118.44     |  39.3 | 17.71
Output  | 2.3565     | 2.3651     | 2.3983     |   0.7 |  0.38
Modify  | 120.88     | 122.6      | 124.47     |   7.8 | 19.85
Other   |            | 8.043      |            |       |  1.30

Nlocal:        20.2500 ave          26 max          14 min
Histogram: 7 7 4 1 5 12 9 9 1 9
Nghost:        2531.47 ave        2579 max        2499 min
Histogram: 7 5 9 10 13 4 7 6 2 1
Neighs:        6350.97 ave        8220 max        4342 min
Histogram: 6 8 4 3 6 9 9 9 5 5

Total # of neighbors = 406462
Ave neighs/atom = 313.62809
Ave special neighs/atom = 2.0000000
Neighbor list builds = 9197
Dangerous builds = 0

unfix		3
unfix		2
unfix		1

write_data	data.final.${pid}
write_data	data.final.0
System init for write_data ...
PPPM initialization ...
  extracting TIP4P info from pair style
  using 12-bit tables for long-range coulomb (../kspace.cpp:340)
  G vector (1/distance) = 0.36901644
  grid = 30 40 32
  stencil order = 5
  estimated absolute RMS force accuracy = 0.0041063147
  estimated relative force accuracy = 1.2366045e-05
  using double precision FFTW3
  3d grid and FFT values/proc = 5168 640
Last active /omp style is kspace_style pppm/tip4p/omp
WARNING: Not all mixed pair coeffs generated from mixing. Use write_data with 'pair ij' option to store all pair coeffs. (../write_data.cpp:312)

write_restart   restart.lmp.${pid}
write_restart   restart.lmp.0
System init for write_restart ...
PPPM initialization ...
  extracting TIP4P info from pair style
  using 12-bit tables for long-range coulomb (../kspace.cpp:340)
  G vector (1/distance) = 0.36901644
  grid = 30 40 32
  stencil order = 5
  estimated absolute RMS force accuracy = 0.0041063147
  estimated relative force accuracy = 1.2366045e-05
  using double precision FFTW3
  3d grid and FFT values/proc = 5168 640
Last active /omp style is kspace_style pppm/tip4p/omp
Total wall time: 0:10:20
