LAMMPS (30 Jul 2021)
Processor partition = 1
  using 2 OpenMP thread(s) per MPI task
using multi-threaded neighbor list subroutines
variable        pid world 0 1
variable        phase world IceVI IceV

shell cd ${phase}
shell cd IceV
include Restart.lmp
echo both
log log.lammps
#include		in.partitions
include		in.temp
variable        temperature equal 263.27
variable	tempDamp equal 100.0
include		in.pressure
variable        pressure equal 8374.0
variable        pressureDamp equal 1000.0 # This is 1 ps
include		in.seed
variable        seed equal 745823

units		real
atom_style	full
read_restart    restart.lmp.${pid}
read_restart    restart.lmp.1
Reading restart file ...
  restart file = 30 Jul 2021, LAMMPS = 30 Jul 2021
  restoring atom style full from restart
  triclinic box = (-3.2839768 0.018665735 -0.088574591) to (14.893976 22.561333 19.318573) with tilt (0.13401896 -7.1901194 0.077784707)
  2 by 4 by 4 MPI processor grid
  restoring pair style lj/cut/tip4p/long/omp from restart
  restoring bond style harmonic/omp from restart
  restoring angle style harmonic/omp from restart
  1008 atoms
  672 bonds
  336 angles
Finding 1-2 1-3 1-4 neighbors ...
  special bond factors lj:    0        0        0       
  special bond factors coul:  0        0        0       
     2 = max # of 1-2 neighbors
     1 = max # of 1-3 neighbors
     1 = max # of 1-4 neighbors
     2 = max # of special neighbors
  special bonds CPU = 0.002 seconds
  read_restart CPU = 0.008 seconds

include 	in.setup
variable	out_freq equal 1000
variable	out_freq2 equal 10000
variable	out_freq3 equal 1000

timestep	2.0

neigh_modify    delay 7 every 1

include		in.tip4p
# This is TIP4P/Ice

# create groups ###
group ox type 2
336 atoms in group ox
group hy type 1
672 atoms in group hy

# set charges - beside manually ###
set group ox charge -1.1794
Setting atom values ...
  336 settings made for charge
set group hy charge 0.5897
Setting atom values ...
  672 settings made for charge

# ### TIP3P Potential Parameters ###
pair_style lj/cut/tip4p/long/omp 2 1 1 1 0.1577 8.5
pair_coeff 1 1*2 0.000 0.000
pair_coeff 2 2 0.21084 3.1668
bond_style  harmonic
bond_coeff  1 450 0.9572
angle_style harmonic
angle_coeff 1 55 104.52
kspace_style pppm/tip4p/omp 1.0e-5
pair_modify tail yes

thermo          ${out_freq}
thermo          1000
thermo_style    custom step temp pe etotal epair emol press lx ly lz vol pxx pyy pzz pxy pxz pyz enthalpy

restart 	${out_freq3} restart.lmp.${pid} restart2.lmp.${pid}
restart 	1000 restart.lmp.${pid} restart2.lmp.${pid}
restart 	1000 restart.lmp.1 restart2.lmp.${pid}
restart 	1000 restart.lmp.1 restart2.lmp.1


include         in.dump
dump            myDump all atom ${out_freq2} dump.water.${pid}
dump            myDump all atom 10000 dump.water.${pid}
dump            myDump all atom 10000 dump.water.1
dump            myDump2 all dcd ${out_freq2} dump.dcd
dump            myDump2 all dcd 10000 dump.dcd
dump_modify     myDump append yes
dump_modify     myDump2 append yes


variable natoms 	equal  "count(all)"                        # NUMBER ATOMS
variable H      	equal  "enthalpy/v_natoms"                 # ENTHALPY-per-atom
variable Vol      	equal  "vol/v_natoms"                 # volume-per-atom
fix AVG all 		ave/time ${out_freq} 1 ${out_freq} v_Vol v_H file vol_enthalpy.dat
fix AVG all 		ave/time 1000 1 ${out_freq} v_Vol v_H file vol_enthalpy.dat
fix AVG all 		ave/time 1000 1 1000 v_Vol v_H file vol_enthalpy.dat



fix 		1 all shake 1e-6 200 0 b 1 a 1
Finding SHAKE clusters ...
       0 = # of size 2 clusters
       0 = # of size 3 clusters
       0 = # of size 4 clusters
     336 = # of frozen angles
  find clusters CPU = 0.000 seconds
fix             2 all nph tri ${pressure} ${pressure} ${pressureDamp}
fix             2 all nph tri 8374 ${pressure} ${pressureDamp}
fix             2 all nph tri 8374 8374 ${pressureDamp}
fix             2 all nph tri 8374 8374 1000
fix             3 all temp/csvr ${temperature} ${temperature} ${tempDamp} ${seed}
fix             3 all temp/csvr 263.27 ${temperature} ${tempDamp} ${seed}
fix             3 all temp/csvr 263.27 263.27 ${tempDamp} ${seed}
fix             3 all temp/csvr 263.27 263.27 100 ${seed}
fix             3 all temp/csvr 263.27 263.27 100 745823


run             250000
PPPM initialization ...
  extracting TIP4P info from pair style
  using 12-bit tables for long-range coulomb (../kspace.cpp:340)
  G vector (1/distance) = 0.37878779
  grid = 24 27 36
  stencil order = 5
  estimated absolute RMS force accuracy = 0.0025108232
  estimated relative force accuracy = 7.5612696e-06
  using double precision FFTW3
  3d grid and FFT values/proc = 5670 1296
Last active /omp style is kspace_style pppm/tip4p/omp
Neighbor list info ...
  update every 1 steps, delay 7 steps, check yes
  max neighbors/atom: 2000, page size: 100000
  master list distance cutoff = 10.8154
  ghost atom cutoff = 10.8154
  binsize = 5.4077, bins = 5 5 4
  1 neighbor lists, perpetual/occasional/extra = 1 0 0
  (1) pair lj/cut/tip4p/long/omp, perpetual
      attributes: half, newton on, omp
      pair build: half/bin/newton/tri/omp
      stencil: half/bin/3d/tri
      bin: standard
Setting up Verlet run ...
  Unit style    : real
  Current step  : 250000
  Time step     : 2
Per MPI rank memory allocation (min/avg/max) = 10.45 | 10.47 | 10.54 Mbytes
Step Temp PotEng TotEng E_pair E_mol Press Lx Ly Lz Volume Pxx Pyy Pzz Pxy Pxz Pyz Enthalpy 
  250000     267.9428   -4782.7604   -4246.8417   -4782.7604            0    8730.5854    18.177953    22.542668    19.407147    7952.6519    7428.8922     9386.928    9375.9361   -1025.8922    186.19512    1414.8059   -3234.2573 
  251000    265.26795   -4825.2628   -4294.6941   -4825.2628            0    7881.0842    18.129118    22.633096    19.442966    7977.8001     7088.606    8734.9573    7819.6891    2816.8139   -778.69017     2022.511   -3377.7455 
  252000    255.32547   -4800.8287   -4290.1462   -4800.8287            0    7956.1808    17.983223     22.78473     19.49047    7986.0813    7988.1057    8131.8785    7748.5582   -1105.3339    678.25339   -543.59508   -3363.4994 
  253000      239.828   -4774.0889   -4294.4033   -4774.0889            0    8786.2117      18.1825    22.925275    19.105257    7963.8127    7948.1874    8449.2972    9961.1503    450.68054   -434.30127    1673.3443   -3273.9372 
  254000    258.30754   -4848.0966   -4331.4496   -4848.0966            0    6601.0397    17.918046    22.843097    19.508774    7985.0128    8542.2901    6793.1236    4467.7053    1244.4453   -69.564758    406.13205   -3562.7373 
  255000    267.04201   -4818.1407   -4284.0237   -4818.1407            0    8345.5736    18.074943    22.922452    19.070666    7901.3968    6106.6428    8322.2267    10607.851    53.823907   -1521.2143    -790.9393   -3322.3318 
  256000    266.67221   -4802.6874     -4269.31   -4802.6874            0    8479.7397    17.981928      22.5924    19.484316     7915.599    8039.9647     7862.906    9536.3486   -941.43115   -109.77287   -288.32633   -3290.4013 
  257000    268.92577    -4828.866   -4290.9812    -4828.866            0    9366.5139    18.073492    22.638608     19.35298      7918.44    9133.6104    8333.2113     10632.72    439.73597   -838.37827   -450.74674   -3209.3144 
  258000    252.39864    -4774.466   -4269.6375    -4774.466            0    8480.8817    17.986482    22.659197    19.417285    7913.6938    10148.163    7955.2131    7339.2688    2340.2329   -1250.0763    1709.6784   -3290.8326 
  259000    271.68599   -4802.0944   -4258.6888   -4802.0944            0    8479.4925    18.007886    22.854649     19.36448    7969.7213    8369.9912     7561.333    9507.1533   -615.84151   -1862.2024    2446.9252   -3273.1156 
  260000    270.58963   -4812.4603   -4271.2476   -4812.4603            0    9100.5292    18.057117    22.796052    19.314608    7950.4909     9322.524    9729.1296    8249.9341    1476.2287    870.81866    719.07229   -3216.0435 
  261000    265.00876   -4828.5464   -4298.4962   -4828.5464            0    9395.0321    18.060713    22.592031    19.402195    7916.6424    10336.894    9120.0609    8728.1414   -346.54892  -0.49737425    1217.3841   -3213.7823 
  262000     269.7221   -4778.9885    -4239.511   -4778.9885            0    8825.0145    18.003987    22.798431    19.308336    7925.3512    9639.2145    7435.0524    9400.7767    645.76869   -578.01542   -1233.4553   -3219.4883 
  263000    266.84699   -4771.8533   -4238.1264   -4771.8533            0      8557.63    18.014576    22.831436    19.242223    7914.3005    7285.3957    8940.0094     9447.485    252.10819    -330.4711   -985.39638    -3250.388 
  264000     271.7281   -4836.1666   -4292.6768   -4836.1666            0    9011.4253    18.073885    22.722461    19.260213    7909.8448    9677.3638    9233.7676    8123.1444   -242.30292    11.265813   -774.71844   -3253.1461 
  265000    262.94866   -4812.0075   -4286.0777   -4812.0075            0    7115.4453    18.029469    22.739542    19.466264     7980.815    8312.4085    6819.3664     6214.561   -2207.6694    604.96086   -429.15734   -3457.8968 
  266000    263.91276    -4808.216   -4280.3579    -4808.216            0    7658.5621    18.038927    22.856284    19.390471    7994.7464    5040.0317    8926.4106    9009.2439   -374.34417    230.67156   -495.56823   -3387.4065 
  267000    275.59344   -4832.4483   -4281.2273   -4832.4483            0    8217.6685    17.950923    22.858825    19.312686    7924.7098    6374.5499    9358.9925    8919.4629   -637.40209   -1037.6406    799.62854   -3331.4805 
  268000     253.6035   -4817.2266   -4309.9883   -4817.2266            0    7207.2349     17.94462    23.036129    19.288921    7973.5495    6580.5723    6229.3464    8811.7861    50.223546   -1423.9425     1198.193   -3471.8874 
  269000    257.57392   -4801.7549   -4286.5753   -4801.7549            0    8136.7821    18.016644    22.828953     19.38785    7974.2444    8117.9625    7114.2993    9178.0845    1274.7635   -18.644268     12.65064   -3340.2986 
  270000    265.63947   -4823.8501   -4292.5384   -4823.8501            0    8319.4616    18.220194    22.835394    19.040387    7922.0443    6247.1371    9368.5944    9342.6533   -1227.6803    835.85078   -572.54714   -3331.3503 
  271000      257.109   -4832.2198     -4317.97   -4832.2198            0    6735.4884     17.87367    22.962755    19.470245    7991.1475     7935.954    6110.1393    6160.3719    1046.3606    474.43583    2264.6217    -3532.998 
  272000    253.15376   -4796.9476   -4290.6088   -4796.9476            0    8327.5658    18.046231    22.956151    19.261336    7979.4322    6772.6837    8402.5454    9807.4684   -674.62081    263.66404   -715.10727   -3321.5147 
  273000    253.70057   -4830.0314   -4322.5989   -4830.0314            0     8337.794    17.809527    22.891142    19.462893    7934.6401    9746.0772    7561.0431    7706.2617    129.40614   -287.87868    -38.86518   -3357.7612 
  274000    282.59322   -4798.7482   -4233.5269   -4798.7482            0    9824.6566    18.016556    23.039245    19.079679    7919.7424    10488.273    10042.209    8943.4877   -15.018228   -765.11865   -1450.6197   -3098.7661 
  275000    279.02197   -4819.1306   -4261.0522   -4819.1306            0    9067.6215    17.902626    23.016765    19.317076    7959.8049    10076.562    8357.6086    8768.6941   -270.97607   -270.43809    492.76687    -3208.432 
  276000    258.24812   -4786.6905   -4270.1623   -4786.6905            0    8371.4417    17.928376    23.164482    19.215813    7980.3565    8700.6214    8408.3731    8005.3307   -41.380136    830.59451    869.28705   -3295.8495 
  277000    271.44632   -4796.3149   -4253.3888   -4796.3149            0    7049.1448    17.891129    23.444295    19.082034    8003.8621    5529.9723     6832.825    8784.6371   -717.12175    15.932868   -124.11345   -3430.5554 
  278000    252.34774   -4817.5293   -4312.8026   -4817.5293            0    6579.3394    17.872376    23.109747    19.413545    8018.3001    7085.7863    5692.6303    6959.6016   -226.93759     804.6318   -998.48638   -3543.4233 
  279000    263.67657   -4810.3105   -4282.9248   -4810.3105            0    8849.3269    18.040033    22.989537    19.070283    7909.0564    8472.5593     10076.28    7999.1416   -795.58332     321.2723   -1458.8827    -3262.195 
  280000    269.23284   -4790.9081   -4252.4091   -4790.9081            0    9600.0657     17.74537      23.1501     19.33323    7942.2281    11509.991    8133.1544    9157.0521   -129.20205   -139.77287   -1255.3347   -3140.4407 
  281000    269.80589   -4797.8341    -4258.189   -4797.8341            0    6425.3099    17.889446    23.235154    19.319956    8030.6108    7400.7042    5742.3615    6132.8641   -982.06856   -519.07468   -2863.9488   -3505.6681 
  282000    271.29085   -4802.9874   -4260.3722   -4802.9874            0    10659.319    17.675658    23.327068    19.096368    7873.8389    12580.755    8168.1704    11229.032   -73.751176   -1059.1522   -1952.7094   -3036.3427 
  283000    269.62177   -4824.3367   -4285.0599   -4824.3367            0    9146.8398    17.874562    23.087242     19.16885    7910.4926     8302.452    9726.5674    9411.5001    1963.1663    1509.9886    1214.2639   -3229.8217 
  284000    255.30997    -4823.748   -4313.0965    -4823.748            0    8459.9498    17.878848    23.102126    19.228631    7942.1823    8892.8407    8310.1969    8176.8116   -161.90902    111.00013   -437.78547   -3333.1925 
  285000    268.27446   -4858.6704   -4322.0884   -4858.6704            0    8340.4001    17.989728    22.980241     19.13383    7910.0841    6795.5905    8235.3512    9990.2586    115.67145   -330.67216   -2089.0763   -3359.9359 
  286000    252.65835   -4821.0394   -4315.6915   -4821.0394            0     7012.447     17.86903    23.063773    19.333161    7967.7223    7137.8604    7451.1247    6448.3561    1198.9336    -598.2739   -330.95343   -3500.8377 
  287000    269.40088   -4826.0933   -4287.2582   -4826.0933            0    9131.6981    17.875028    22.967981    19.290829    7919.9132    9108.1246    8905.8756    9381.0941    431.45578   -226.29941   -561.82943   -3232.5123 
  288000    249.75495   -4790.8163   -4291.2755   -4790.8163            0    7819.8132    17.934273    23.026921    19.224922    7939.3368    9126.3052    6826.5267    7506.6077    325.01795   -359.58971   -466.06013   -3385.8422 
  289000    262.12677   -4810.0591   -4285.7732   -4810.0591            0    8175.4352    17.749268    23.407157    19.134896    7949.7821    9594.2479    7291.1358     7640.922    1002.1565   -161.73626    768.36489    -3337.918 
  290000     265.9156   -4814.4536   -4282.5895   -4814.4536            0    7905.5776    17.850679    23.151343    19.260717     7959.822    7792.7296    7627.4887    8296.5146   -2.0075295   -127.66604   -870.50561   -3364.8639 
  291000    255.24029    -4794.565   -4284.0529    -4794.565            0    8150.7543    17.983387    23.011502    19.161937    7929.6833    7979.6779    8642.9312    7829.6539    1670.5807    937.11798   -320.58749   -3341.4484 
  292000    271.98723   -4827.2441    -4283.236   -4827.2441            0    9119.2281    18.031776    22.785938     19.29647    7928.3584    9357.9379    10397.404    7602.3423   -434.12778    759.38316   -1658.2895   -3228.8073 
  293000    274.58722   -4822.1502   -4272.9418   -4822.1502            0    6326.3171    18.036011    22.924042    19.458155     8045.135    6259.6649    6059.0783     6660.208    204.11066    -106.4857   -1165.0149   -3530.6748 
  294000    266.90337   -4848.1558    -4314.316   -4848.1558            0    9377.7442    17.959792    22.596821     19.37959    7864.9004    9337.3061     9876.759    8919.1673   -1148.9614    -528.8552   -158.02586   -3238.6747 
  295000    256.36918   -4835.8977   -4323.1277   -4835.8977            0    8945.6889    17.985122    22.696914    19.388986    7914.7157    7362.9884    9694.7037    9779.3746    1364.2402    186.47947    1496.3231   -3290.5446 
  296000     267.9403   -4840.4986   -4304.5849   -4840.4986            0    8892.7471    18.133955    22.662004    19.300246      7931.47    7566.4488    9533.2639    9578.5286   -344.88189    840.32598   -1233.6051   -3275.9399 
  297000    258.59706    -4807.467   -4290.2409    -4807.467            0    7851.5743    18.008277    23.039597    19.184299     7959.632    6302.6654    7818.1912    9433.8664    170.71104    -737.2447    -1129.104   -3378.8061 
  298000    264.38553   -4835.5018   -4306.6981   -4835.5018            0     8506.369    17.851552    22.887018    19.392167    7923.0343    9620.2987    8241.7891    7657.0191    -868.1708    519.71591   -309.18363   -3323.7929 
  299000    266.82316   -4809.4582   -4275.7789   -4809.4582            0    7835.5009    18.012385    22.916474    19.255986    7948.4925    7327.2807    7215.4428    8963.7793    116.02967   -559.36654    83.839513   -3367.4828 
  300000    262.40589    -4847.341   -4322.4968    -4847.341            0    7027.7006     18.14945    22.838408    19.355639    8023.0003     5079.254    8679.1542    7324.6937    2335.3812    479.97623    697.35591    -3500.205 
  301000    284.07356   -4794.9132   -4226.7309   -4794.9132            0    8762.4396    17.946232    22.879465    19.406027    7968.1183    8393.0944    8001.1447    9893.0799    1520.4496    102.60031     868.7823   -3208.4756 
  302000    249.57174     -4809.13   -4309.9557     -4809.13            0      9097.07    17.939072    22.745564    19.342125    7892.2507    9567.8717     9378.816    8344.5222   -1481.2209    233.47677   -1918.4778   -3262.8795 
  303000    263.35592   -4851.3114   -4324.5671   -4851.3114            0    9433.7648    17.957171     22.81512    19.288342    7902.3374    8761.2052    9995.6201    9544.4692     511.4512    1100.2449    638.67967   -3237.3494 
  304000    262.74094   -4775.0765   -4249.5622   -4775.0765            0    10111.176    17.918584    22.781948    19.432915    7932.9093    9646.6843    11132.634    9554.2087    649.87025   -750.70979    985.68545   -3079.7664 
  305000     258.4242   -4783.4956   -4266.6153   -4783.4956            0    8555.5815    18.080478    22.892572    19.219538    7955.1332    7876.5955    8428.1767    9361.9723   -158.33335   -1023.3867     467.9739   -3274.0185 
  306000    282.57082   -4804.1557   -4238.9792   -4804.1557            0    9954.4462    17.833479    22.980516    19.393606    7947.9369     9031.819    10420.719      10410.8   -171.98731    1792.7434   -2187.2622   -3085.1344 
  307000    250.09203   -4817.1525   -4316.9375   -4817.1525            0    10422.855    18.027977    22.944976    19.141902    7918.0766    7849.8193    10202.453    13216.291     1159.237    946.65229   -1783.9888   -3113.3373 
  308000    262.72611   -4820.5054   -4295.0207   -4820.5054            0    5011.0173    17.997039    23.112073    19.406276    8072.0191    6744.6254    4316.6883    3971.7383    533.97684    540.50543    193.74499   -3705.1131 
  309000    266.06159   -4830.2538   -4298.0978   -4830.2538            0    5708.0802     17.88971    23.193585    19.333782    8022.0987    5597.1828    5203.4181    6323.6397   -756.75523   -90.832265   -1152.2491   -3630.2862 
  310000    266.09481   -4820.4732   -4288.2507   -4820.4732            0    8392.7412    17.930007     23.02702    19.203987    7928.8389    8091.0165    8351.4694    8735.7377    117.95782    388.95895   -61.675335   -3317.7646 
  311000    268.50396   -4798.8034   -4261.7623   -4798.8034            0    8977.4806    17.814692    23.186665    19.154861    7912.1702    10194.914    7837.8489    8899.6793    -2514.009   -1560.0987   -1429.0141   -3225.8428 
  312000    274.98273   -4786.3226   -4236.3232   -4786.3226            0    7243.4637    18.092276    23.049981    19.233241    8020.7735    6641.9518    7438.5491    7649.8901   -105.76887   -259.44993    2103.1907   -3389.0208 
  313000    273.72971   -4800.0976   -4252.6043   -4800.0976            0     8207.381    17.934584    22.971194    19.330136    7963.6064    7257.8583    8524.2791    8840.0057    821.60663    604.29002    258.54369   -3299.3906 
  314000    262.96845   -4832.4201   -4306.4507   -4832.4201            0    8315.5746    17.920866    23.102529    19.275681    7980.4663    8397.6957     8055.906    8493.1221   -187.69237   -719.79905   -275.41653   -3338.6266 
  315000    264.36558   -4839.8504   -4311.0866   -4839.8504            0    9813.3508    17.794467    23.069213    19.173745    7870.9058    10479.902      8890.18     10069.97   -637.38974   -703.50182   -1947.6041    -3184.621 
  316000    266.68258   -4785.0379   -4251.6398   -4785.0379            0    6783.3318    17.948554    23.086221    19.251577    7977.1661    5695.6356    6554.6362    8099.7236    1222.4406    -831.2163    240.71853   -3462.4752 
  317000    261.41809    -4817.327   -4294.4585    -4817.327            0    8194.6378    17.808855    23.094723     19.34496    7956.3995    8769.5398    8256.0815     7558.292    1524.4103   -1600.7338   -1497.0715   -3343.5861 
  318000    256.29986   -4789.1455   -4276.5141   -4789.1455            0    9386.6253    17.940102    22.861565    19.317806    7922.9817    7830.7036    10128.101    10201.071    1997.3745   -684.82003    1527.8761   -3191.9031 
  319000    259.20932   -4850.1806     -4331.73   -4850.1806            0    8484.3271    18.078952    22.777317    19.289373    7943.1711    8874.5076    7750.6437    8827.8301   -211.97775   -771.26012    686.21384     -3348.88 
  320000    272.16674   -4825.5191    -4281.152   -4825.5191            0    7485.7498    17.968266    22.815233    19.474858    7983.7215    8265.9029    7307.4943    6883.8521    732.82604    513.29854    1812.6289   -3409.5533 
  321000    253.15848   -4800.4352    -4294.087   -4800.4352            0    6375.4001    18.155239    22.982603    19.264444    8038.1788    5403.9229    7097.9929    6624.2846    1003.0458   -120.95614    394.16411   -3546.7078 
  322000    270.57328   -4773.1106   -4231.9307   -4773.1106            0     8491.615    18.006316    22.800177    19.489342    8001.2944    9630.0806    8529.4446    7315.3198    -1969.691    656.78654   -110.59634   -3241.0384 
  323000    258.14215   -4838.4689   -4322.1527   -4838.4689            0    9242.1607    18.041108     22.81403    19.206623    7905.2613    7686.4815    8748.7451    11291.256   -775.69491   -1148.5269    463.12838   -3256.6228 
  324000    251.53057   -4831.8014   -4328.7092   -4831.8014            0     8730.058    17.958786    22.716672    19.500358    7955.4412    8308.7623    9595.0772    8286.3344    -514.8652    701.60856    398.15694   -3315.8309 
  325000    265.95928   -4834.7247   -4302.7733   -4834.7247            0     8992.826     18.05102    22.696094    19.374465    7937.4788    9574.1849    8435.4606    8968.8323    516.90905   -910.31158    1902.7897   -3261.7639 
  326000    264.04665   -4806.8671   -4278.7412   -4806.8671            0    7123.6409    18.128571    22.438967    19.667509    8000.4755    8260.5422    7980.5062    5129.8743   -370.98294   -680.01375    -22.79541   -3447.5638 
  327000    259.43358   -4855.2557   -4336.3565   -4855.2557            0    8566.5646     18.05178    22.518827    19.538371    7942.4435    10038.516    9038.2593    6622.9185   -1080.9169   -213.61951    694.75915   -3344.0709 
  328000    273.88685   -4795.3308   -4247.5232   -4795.3308            0    8765.6806    18.115686    22.613346    19.410967    7951.8245    6270.6308    10132.151    9894.2602    508.39201    831.93119    1101.6718   -3230.9742 
  329000    257.38938   -4821.2125   -4306.4019   -4821.2125            0    8532.8348    17.983729    22.666616     19.53422    7962.7396    9456.5583    8260.8244    7881.1216   -71.703459   -251.73306   -1045.5719   -3315.4975 
  330000    269.71268   -4799.8787     -4260.42   -4799.8787            0    6065.6051    18.291887    22.721291    19.346014    8040.4995    5619.7531     5573.037    7004.0251   -318.22935   -326.06314    995.48329   -3549.1524 
  331000    268.56457   -4822.9142   -4285.7519   -4822.9142            0    6986.2722    18.043057    22.677066    19.538217     7994.327    5327.0872    9252.6878    6379.0416   -401.68223    683.96167   -599.72403    -3471.229 
  332000    261.60123   -4840.2429   -4317.0081   -4840.2429            0    8133.2687    18.249224    22.324336    19.521022    7952.8997    7964.7886    10065.626     6369.392   -114.01641   -374.29267   -559.15029   -3373.6718 
  333000    267.89674   -4810.8532   -4275.0266   -4810.8532            0    7137.3883    18.096846    22.619143    19.494244    7979.6792    7463.0189    8015.5032    5933.6429    1374.7343    74.093219    465.17067   -3444.4099 
  334000    277.39853   -4805.1301   -4250.2987   -4805.1301            0    8963.9738    18.039655    22.740364    19.366454    7944.6676    9844.4473    9696.2298    7351.2444    920.06062    202.15732    252.91776   -3211.6894 
  335000    254.02883   -4823.2143   -4315.1253   -4823.2143            0     7755.598    18.069418    22.843492     19.39494    8005.6223    8096.7295    7117.6859    8052.3788   -88.843223   -399.21076   -354.41767   -3409.6298 
  336000    265.44432   -4831.9287   -4301.0073   -4831.9287            0    9128.2402      17.7799     22.89603    19.415275    7903.7472    10488.094    9600.7605    7295.8657    -3.254802   -97.561689   -1354.5722   -3248.8129 
  337000    259.59654   -4828.6867   -4309.4615   -4828.6867            0    6354.1206    18.095668    23.024313    19.239633    8016.0067    6453.5669    5324.6553    7284.1396    471.48793   -39.480545    261.84939   -3566.6316 
  338000    262.76512   -4822.1537    -4296.591   -4822.1537            0    7254.7732    17.922534    22.891069    19.472875    7989.0578    8452.7156    7878.1203    5433.4838   -480.91597    437.02281   -80.540603   -3451.3213 
  339000    254.32377   -4842.5275   -4333.8485   -4842.5275            0    8811.3939    18.061684    22.774024    19.222214    7906.8124    8922.6681     8972.522    8538.9917   -1161.1341   -383.87423    89.818011   -3317.7825 
  340000    262.08589   -4826.7592   -4302.5551   -4826.7592            0    8817.7789    17.864354     22.76667    19.516778    7937.7049    10071.826    8916.4744    7465.0365    22.502058   -276.84483    457.51279     -3281.78 
  341000     253.8211   -4819.9372   -4312.2636   -4819.9372            0    6835.1283    18.123916    22.805169     19.31554    7983.4789    5924.0592    6897.0492    7684.2766   -1138.5902   -1172.8675   -512.33314   -3516.4438 
  342000    268.17776   -4834.1779   -4297.7892   -4834.1779            0    9470.5802    17.993094    22.790453    19.290918    7910.6416     10723.69    9550.2712    8137.7792   -1039.5694   -1258.2122   -835.69898   -3205.1817 
  343000    266.84467   -4803.9486   -4270.2263   -4803.9486            0    7386.0866    17.996062    22.943323    19.385521    8004.0775     8902.574    7119.0004    6136.6854    291.36858    383.14967    1056.6568   -3408.0391 
  344000    269.92118   -4831.9576   -4292.0819   -4831.9576            0    8755.0233    18.122569    22.713732    19.272447      7933.14    6963.6336     9514.634    9786.8023     287.2575   -1184.3359   -1973.4285   -3279.1545 
  345000    255.08855   -4840.3799   -4330.1712   -4840.3799            0     8143.594    18.199234    22.457838    19.355422      7910.86    7887.9676    8878.6149    7664.1994    1897.4909    937.05037   -929.54003   -3390.6303 
  346000    273.41185   -4821.9448   -4275.0873   -4821.9448            0    9124.8772    18.059558     22.69025    19.377929    7940.6081    8682.3496    9113.8115    9578.4704    1396.8141   -1333.2478   -2625.1314   -3218.3752 
  347000    265.85222   -4817.0734   -4285.3361   -4817.0734            0    8833.7566    17.997327     22.90161    19.187848    7908.6123    8362.8328    7369.9825    10768.454   -933.63153   -366.93027   -1823.0437   -3266.4595 
  348000    263.97543    -4822.462   -4294.4786    -4822.462            0    8275.8209    17.933033    22.860674     19.36692    7939.6864    9798.8357    8124.2477    6904.3794    -738.3321   -812.82346    416.19314   -3336.2032 
  349000    261.29804     -4822.83   -4300.2016     -4822.83            0    11008.367    17.957203    22.724302    19.246584    7853.8553    9858.2138    10336.694    12830.192    463.64965    778.10937   -803.83051   -3039.2986 
  350000    267.51306   -4834.3921    -4299.333   -4834.3921            0    7122.2673    17.838067    23.062599     19.41327    7986.4677    7872.1841    6691.8603    6802.7575    1619.8779     272.6416   -664.48019   -3469.7709 
  351000    253.93085   -4840.8956   -4333.0026   -4840.8956            0    7312.6018    17.888963    23.202572    19.116676    7934.7578    7091.0662    6686.4147    8160.3246    323.34143    25.886591    676.30826   -3486.7861 
  352000    262.73138    -4806.079   -4280.5838    -4806.079            0    9212.4266    17.647412    23.322225    19.281491    7935.8167    10249.481    8695.7588    8692.0404   -1326.4518   -19.773097   -1226.1675   -3214.3767 
  353000    261.40111   -4798.7189   -4275.8844   -4798.7189            0    7101.5682    17.938939    23.240167    19.171633    7992.7293    6760.5075    6523.0647    8021.1324    485.86794   -94.986579    76.687505   -3448.0847 
  354000    265.22413   -4806.3476   -4275.8666   -4806.3476            0    8510.8828    17.832663    23.014411    19.353445     7942.813    10726.424    8460.8272    6345.3971   -1024.1118    962.43226    549.06538   -3289.9848 
  355000    269.56828   -4776.6396   -4237.4698   -4776.6396            0     8416.104    18.032887    23.113242    19.107514    7963.9826    9040.0913    7119.2047    9089.0159    209.68722     646.9137    157.47091   -3259.9686 
  356000    259.89056   -4841.1106   -4321.2974   -4841.1106            0    8158.7608    17.761985    23.060261    19.393209     7943.381    8214.6101    6841.1247    9420.5477    1586.1065    37.447836   -169.52185   -3376.1371 
  357000    271.85282   -4829.3514   -4285.6121   -4829.3514            0      6753.08    17.730819    23.387665    19.202067    7962.7603     6401.652    6498.8528    7358.7352    258.81677     53.58759     65.83037   -3501.3858 
  358000    266.91848   -4811.8493   -4277.9793   -4811.8493            0    7330.9057    17.912087    23.202856    19.231889    7992.9958     7360.244    6371.8572     8260.616    328.99118   -419.92085   -788.45919   -3423.4183 
  359000    251.66937   -4803.1742   -4299.8044   -4803.1742            0    8876.5276    17.893407    22.948932    19.286587    7919.7395    8896.5554    10112.436    7620.5915    239.94311    774.29926    538.83245   -3274.5541 
  360000    277.81958   -4826.9695    -4271.296   -4826.9695            0    7112.5479    17.945032    22.940379    19.358161    7969.0936      7449.34    6675.4513    7212.8525   -730.65709   -74.631813    1542.0413   -3444.6682 
  361000    275.45068   -4794.0987   -4243.1633   -4794.0987            0    7836.6961    17.988768     23.17322    19.102134    7962.8712    5364.4866    9279.7357    8865.8661   -2852.1982   -228.86095   -817.26426   -3333.0853 
  362000     260.1383   -4800.6485   -4280.3397   -4800.6485            0    8506.7898    17.848952    23.028871    19.338703    7949.0041    9025.3421    9315.9168    7179.1104    1216.8756    1030.5282     1042.371    -3294.164 
  363000    266.39915   -4830.3799   -4297.5487   -4830.3799            0    10286.085    17.955317     23.00304    19.058532    7871.6862    10076.834    10365.129    10416.293   -423.88981   -886.54683       361.16   -3116.7013 
  364000    257.72447   -4793.1631   -4277.6823   -4793.1631            0    7180.2591    17.883832    22.985181    19.432431    7987.9557    7280.0047    6506.8752    7753.8972   -870.94591   -20.444104     156.4022   -3441.2098 
  365000    245.64922   -4789.6268    -4298.298   -4789.6268            0    7744.2546    18.182118    22.992304    19.161368    8010.3867    5869.7101     8144.218    9218.8358    874.39943   -293.34097    1355.2333   -3393.5889 
  366000    259.54392   -4837.1642   -4318.0443   -4837.1642            0    9065.7461    17.839073    22.977793    19.280915     7903.296    9479.6128     8685.773    9031.8524   -1653.6529    -309.9944   -1629.9532   -3273.1131 
  367000    254.38162    -4832.676   -4323.8813    -4832.676            0    7237.9801    17.863521    23.234085      19.1663      7954.83    7595.8035    6594.8503    7523.2865   -656.65479   -266.48063    1348.3252   -3484.1813 
  368000     250.3483   -4810.7869   -4310.0593   -4810.7869            0    10553.987    17.883071    23.113056    19.074148    7883.9641    9452.7416    10533.633    11675.587   -730.17086    541.37508    907.49718   -3096.5669 
  369000    253.08334   -4831.2728   -4325.0749   -4831.2728            0    6524.7386    17.948508    23.036863    19.366798    8007.7319    6230.6995    6696.1595    6647.3568   -1053.3356   -412.98768    412.07681   -3563.0862 
  370000    256.43043    -4817.154   -4304.2614    -4817.154            0    8740.6365    17.862773    23.089196    19.285673    7954.1264    9139.1846    7977.1696    9105.5551   -1315.1524     715.0257   -1040.6472   -3290.3234 
  371000    259.99179   -4833.6581   -4313.6424   -4833.6581            0    8697.7792    17.830532    23.199622    19.132707    7914.4664    10026.888    8025.5919    8040.8581    1089.9081    725.79129   -249.21711   -3309.7067 
  372000    260.59251   -4784.8708   -4263.6536   -4784.8708            0    8410.1261    17.920785    23.026754    19.308444     7967.774    8963.0905    8232.4275    8034.8604    1237.1748   -643.90924   -291.57471   -3286.3817 
  373000    256.27242    -4809.798   -4297.2215    -4809.798            0    8909.4229    17.969734     22.91924    19.297897    7947.8904     10346.16    8531.0793    7851.0293    1520.0376   -511.72822    771.86573    -3264.514 
  374000    264.89994   -4790.1624   -4260.3298   -4790.1624            0    11274.691      17.9422    22.915488    19.083547    7846.2817    9771.1606    10987.476    13065.436    1275.5124   -742.06762    -1122.087   -2970.1672 
  375000    268.94857   -4798.0864    -4260.156   -4798.0864            0    9013.9691    17.883857     22.89671    19.402598    7945.0047    8929.2721    9742.1871     8370.448     1260.308     869.1544    1703.1201   -3215.7098 
  376000     257.4296   -4828.2986   -4313.4076   -4828.2986            0    6864.4039    18.146937    22.922224    19.206399    7989.2502     6346.808     7345.847    6900.5567     487.6797    974.82787   -1558.0427   -3513.6014 
  377000    254.19378   -4816.2688   -4307.8498   -4816.2688            0    8545.8397     17.96777    22.755242    19.417442    7939.0339    11253.974    6461.6613    7921.8836     600.3365   -2013.4488     336.9413   -3318.3897 
  378000    258.19189   -4819.3936    -4302.978   -4819.3936            0    10749.415    18.055731      22.6605    19.269986    7884.3515    9802.7174     11904.48    10541.046   -2497.8744    538.50699   -2702.5894   -3066.9546 
  379000     273.1371   -4779.4901   -4233.1822   -4779.4901            0    8702.0855    17.984132    22.714772    19.448164    7944.6814    8041.8834    9474.7583    8589.6149     1077.991   -847.15275   -1201.4025   -3224.9148 
  380000     250.0417   -4833.4592   -4333.3449   -4833.4592            0    7877.4087    18.041107     22.87673    19.304138    7967.2337    5642.8952    9417.1487    8572.1824    1706.6652    370.76988    1849.9256   -3418.0378 
  381000    255.71582   -4838.8137   -4327.3505   -4838.8137            0     8521.828    17.821652    22.953914    19.335578    7909.7339    10239.504    7385.4081    7940.5722    775.44251   -1376.4177     297.1894   -3344.3119 
  382000    265.74121   -4798.5119   -4266.9967   -4798.5119            0    7292.4788    17.962297    23.113181    19.241599    7988.4539    5099.4956    7853.0759    8924.8649    1035.1151    -553.3176   -958.49093    -3417.398 
  383000    271.74528   -4820.1843   -4276.6601   -4820.1843            0    6879.6551    17.917692    23.047129    19.413972    8017.0261    6332.6696    6705.7393    7600.5562   -347.07236    -493.9058   -1453.2713   -3472.2902 
  384000    265.05287   -4846.6697   -4316.5312   -4846.6697            0    9363.0896    17.962475    22.998437    19.158649    7914.6074    9794.6597    9009.5834    9285.0257    521.69369    745.89466   -788.21085   -3235.7832 
  385000    263.78559   -4833.2109   -4305.6071   -4833.2109            0    9645.2542    17.885426    22.962035    19.237425    7900.5369    7875.6856    9717.5468     11342.53   -1260.4868    121.63183   -253.47738   -3194.2691 
  386000    270.16192   -4813.4201   -4273.0629   -4813.4201            0    8153.2455    18.014724    22.876404     19.31686    7960.7118    8657.7745    7527.1117    8274.8504    90.847157   -1113.5839    1300.7352   -3326.4807 
  387000    260.24297   -4826.9209   -4306.4028   -4826.9209            0    7134.5324    17.908739    23.041541    19.317423    7971.2368    6903.9863    7093.2603    7406.3507    7.3722495   -1221.5748   -1742.1426    -3476.997 
  388000    276.02645   -4844.8997   -4292.8127   -4844.8997            0    10188.462    17.976532    22.829847    19.223263    7889.2557    11422.834    9160.5481     9982.004   -6.3309011    8.7889301    652.33573   -3120.5618 
  389000    256.11063   -4839.5205   -4327.2676   -4839.5205            0    9413.1199    17.967173    22.922166    19.218901     7915.238    9780.1764    8303.7196    10155.464    551.60031    807.16006    919.40203   -3240.6582 
  390000    278.18221   -4831.8183   -4275.4195   -4831.8183            0    7054.4945    17.825493    23.125645    19.326236    7966.7774     8364.918    6020.6548    6777.9106   -1029.2348   -879.75979   -399.68517    -3455.777 
  391000    273.63455   -4850.2229     -4302.92   -4850.2229            0    6546.8376    17.720634    23.259794    19.296624    7953.6494    8839.6524    5543.0328    5257.8275    -129.6132   -17.071814   -720.63883   -3543.5142 
  392000    267.56503   -4805.8565   -4270.6933   -4805.8565            0     11457.39    18.020305    22.799308    19.130206    7859.6545      9964.98    10972.281    13434.909    266.11037     718.9519    344.26549     -2957.39 
  393000    259.77498   -4824.5017   -4304.9196   -4824.5017            0    8476.7942     17.93266    22.901474    19.376879    7957.7808    7941.5855    9197.2001    8291.5971   -571.19224    678.38052   -488.49955   -3321.1362 
  394000     259.2579   -4818.0365   -4299.4886   -4818.0365            0    5678.7614    18.077556    22.964748    19.328385    8024.1117    5507.7034    6332.0258    5196.5549    902.98109   -214.09997   -1204.0965   -3634.9405 
  395000    266.08762   -4833.0834   -4300.8752   -4833.0834            0     6833.826    17.938231    23.028219    19.333586    7986.4241    6564.6926    7009.1521    6927.6333   -715.46871    700.64472    13.874486   -3504.9135 
  396000    275.65979   -4854.2744   -4302.9208   -4854.2744            0    8612.6208    18.000615    22.964814     19.20494    7938.9529    8635.8082    7993.9892    9208.0648    400.44781   -135.90696   -200.47209   -3305.7388 
  397000    267.44678   -4868.7633   -4333.8367   -4868.7633            0     7433.138    17.781156    23.100512    19.396996    7967.3897    8616.2541    6411.0945    7272.0652   -1124.7878    1358.9796    448.05164   -3470.1342 
  398000    257.74066   -4823.4718   -4307.9586   -4823.4718            0    7521.3498    17.900889     23.16255    19.149109    7939.7995    6475.2705    7370.5682    8718.2107    1065.3466   -121.10489   -388.00138   -3437.0327 
  399000    270.34567   -4804.7612   -4264.0365   -4804.7612            0    7622.5199     17.91376    23.282704     19.12921    7978.4256    7579.3651    6287.0997    9001.0949   -2065.7171    451.12761     -515.839   -3377.1017 
  400000    260.19911   -4833.4624   -4313.0321   -4833.4624            0    8295.4706    17.847122    23.031844    19.251783    7913.4863    10200.176    6993.5654    7692.6699    264.65198   -1801.1494   -288.56123   -3355.6511 
  401000    264.43012   -4773.5174   -4244.6245   -4773.5174            0    8504.9388    17.937593    23.141274    19.259918    7994.7678    8979.7777    8253.5801    8281.4584   -76.129079   -662.69381    192.80895   -3252.9871 
  402000    273.14819   -4828.2201     -4281.89   -4828.2201            0    8307.4475    17.830438    23.130632    19.212957    7923.9864    8823.3829     8035.077    8063.8824    -1243.114    15.429712   -689.78301   -3321.8546 
  403000    262.23498   -4807.1451   -4282.6427   -4807.1451            0    7440.7643    17.896036    23.075726    19.287197    7964.9187    7853.4819    7381.5271    7087.2839    417.07835    550.43824     337.9587   -3418.3223 
  404000    263.62848   -4827.4719   -4300.1824   -4827.4719            0    8765.5606    17.920071    23.182585    19.128697    7946.7029    6544.0245    8108.8756    11643.782    1059.7801    927.59821    932.62297   -3284.3021 
  405000    254.17407   -4818.0446   -4309.6651   -4818.0446            0    6722.5381    17.828693    23.137392    19.308749    7965.0414    8463.6126    6276.1874    5427.8142   -725.07068    998.51203   -2322.0389   -3528.7619 
  406000    253.99737   -4827.1474   -4319.1213   -4827.1474            0    5988.6413    17.935048     23.30282    19.164176     8009.422    5403.9652     6752.365    5809.5937    144.33182   -116.83151   -1093.1275   -3619.5929 
  407000    261.01152   -4818.4564   -4296.4011   -4818.4564            0    10147.335    17.693262    23.200924    19.214245    7887.4481    12874.967    9227.5628     8339.476   -91.506791    282.73426    1164.3088   -3129.1497 
  408000    262.67862   -4849.0536   -4323.6639   -4849.0536            0    8113.3683    17.929374    23.131672    19.170087    7950.5329    7917.1815    7129.1037    9293.8197   -1332.8217      1018.41   -840.74621   -3382.9159 
  409000    265.05807   -4838.2767   -4308.1278   -4838.2767            0    7701.2125    17.707192    23.391033    19.236618    7967.6052    8696.4097    7199.9648     7207.263   -640.75991    483.75668    122.89575   -3413.2519 
  410000    266.77395   -4812.8965   -4279.3156   -4812.8965            0     8305.628    17.951354    23.177875    19.074373    7936.3554    8098.9746    6633.1011    10184.808    112.50705   -220.46943    1015.4008   -3317.9923 
  411000    247.19338    -4815.935   -4321.5177    -4815.935            0    7584.6737     17.85155    22.981195    19.414987    7964.9974    8756.2596    7139.0233    6858.7382   -488.48388    310.87026   -1725.7625    -3440.472 
  412000    260.85089   -4815.0594   -4293.3254   -4815.0594            0    7674.4366    18.048772    22.960786    19.187102    7951.4039     8864.595    7612.2598    6546.4549    789.23087    535.85723    521.91758   -3403.3742 
  413000    258.94147   -4815.4015   -4297.4866   -4815.4015            0    7563.1073    17.892374    22.997872    19.349952    7962.2443    8361.5856    8293.9873    6033.7491   -1622.1865     137.7855   -521.63352   -3419.2497 
  414000    258.85756   -4825.9691    -4308.222   -4825.9691            0    7741.3005     18.03357    22.889035    19.339808    7982.9121    6546.9399    8257.5395     8419.422    1360.7933   -405.47906    885.53591   -3406.9598 
  415000    257.37881   -4821.7675   -4306.9781   -4821.7675            0    8632.4032    17.867746    22.939918     19.32918     7922.734    8931.9997     9233.752    7731.4579    263.58985    48.157386   -1458.9479   -3309.5475 
  416000    274.86709   -4794.6618   -4244.8937   -4794.6618            0    7994.0172    18.052377    22.975129    19.353336    8026.9063    7145.9926    7755.9838    9080.0751    246.92043    1564.9995   -1777.4685   -3309.0805 
  417000    262.75388    -4834.949   -4309.4088    -4834.949            0    8366.0028    17.878235    22.916987    19.419559    7956.4899    9239.1695    7976.9174    7881.9214    214.40728   -98.641968   -1065.9506   -3338.6409 
  418000    268.12252   -4811.2688   -4274.9907   -4811.2688            0    8000.1048     18.06531    22.971083    19.164619    7952.9288    8250.2424    7550.1365    8199.9357   -197.14566   -939.86718   -107.57442    -3347.096 
  419000    280.09633   -4810.4553    -4250.228   -4810.4553            0    10088.875    17.811609    22.930858    19.374033    7913.0424    11857.618    8901.4303    9507.5776    631.24911   -604.21035   -1969.9727   -3085.9355 
  420000    254.72865   -4792.1235   -4282.6347   -4792.1235            0    8769.7177    18.120889    22.774604     19.26652    7951.2167    9654.5265    8019.7527    8634.8739    758.44778    -352.9681   -1745.0934   -3265.6952 
  421000    269.59823   -4822.2041   -4282.9743   -4822.2041            0    8065.1572    17.955328    22.834984    19.407301    7957.1802    8537.2066    7722.9472    7935.3178    2064.0929   -658.21133    626.98576   -3347.0345 
  422000    260.90949   -4824.9054   -4303.0542   -4824.9054            0    11082.265    18.145846    22.564258    19.275594    7892.3445    10314.268    12382.827    10549.701    237.62464    1472.2135   -2029.3911   -3027.4661 
  423000    250.65571   -4824.8033   -4323.4609   -4824.8033            0    7808.7541    18.142623    22.596914    19.391577    7949.9122    8878.6064     7492.562    7055.0939     296.1087    21.363757    886.23489   -3418.1037 
  424000    274.99629   -4847.3859   -4297.3594   -4847.3859            0     8989.958    18.055819    22.408609    19.502615    7890.8708    9050.4167    10241.665    7677.7928      1060.42    1049.1745    633.54356   -3262.7927 
  425000    267.86233   -4833.7595   -4298.0017   -4833.7595            0    9751.0379    17.901767    22.551987    19.573636    7902.2765    11042.959    9085.1244    9125.0303   -976.35351    538.65404    1354.8599   -3174.2278 
  426000    253.74052    -4795.104   -4287.5916    -4795.104            0    11415.262    17.946983    22.773399    19.212238     7852.307    10906.699    11986.747    11352.339   -412.57055    153.07338     713.2321   -2980.3405 
  427000     275.7962   -4813.8128   -4262.1863   -4813.8128            0    7727.7063    17.930789    22.884628    19.327748    7930.9376    7551.5305    8087.4153    7544.1731   -617.00961   -46.089618    1624.8406   -3368.3644 
  428000    275.36464   -4826.2148   -4275.4515   -4826.2148            0    8859.5432    18.071159    22.854561    19.292224    7967.8506    5717.6428    10010.437     10850.55   -1422.1513    788.10097    1592.2976   -3245.9466 
  429000    262.48325   -4789.1132   -4264.1143   -4789.1132            0    9609.6054    17.947143    22.912731    19.357647    7960.2139     11999.47    8501.3493    8327.9973   -196.99872    217.83701    1032.3521   -3148.5203 
  430000     261.1751   -4794.6593   -4272.2769   -4794.6593            0     8007.414    17.908119    23.060748    19.269417    7957.7802    6962.8088    8263.4504    8795.9829    394.20448    1029.8719    2455.2413   -3342.9679 
  431000    255.12221   -4806.5188   -4296.2429   -4806.5188            0    9271.7686    17.789605    23.167227    19.188596    7908.3075    8891.0776     9111.586    9812.6423   -706.06096    182.26131   -90.193054   -3226.8876 
  432000    269.44699    -4822.296   -4283.3687    -4822.296            0    7000.4609    17.840056    23.195163     19.27059    7974.2281    4942.7379     7173.777    8884.8678   -808.00715    424.05394    1478.7511   -3469.2435 
  433000     268.8776   -4864.6174    -4326.829   -4864.6174            0    8636.1804    17.857738     23.17222     19.18038     7936.907    9583.7037    7936.5307    8388.3067   -542.74235    1724.3865   -1800.8799   -3327.1769 
  434000    255.67594   -4833.6885    -4322.305   -4833.6885            0    8419.3299    17.779717    23.219314    19.234525    7940.6431    9518.7001    8450.7619    7288.5276    802.24094    843.91067    812.05947    -3347.295 
  435000    266.19541   -4801.1333   -4268.7096   -4801.1333            0    8099.5804    17.986098    23.230794    19.082044     7973.076      10830.7    6977.7997    6490.2415   -211.83542   -284.53561     -982.506   -3326.8974 
  436000    257.50835   -4790.9814   -4275.9329   -4790.9814            0    9226.4738    17.934172    22.854397    19.373876    7940.8611    11397.654    7324.3047    8957.4623    1253.3271   -1416.9222   -1114.7773   -3207.4213 
  437000     268.2815   -4846.2734   -4309.6773   -4846.2734            0     6365.405    18.128704    22.767558    19.324461       7976.1    5042.5565    5283.9099    8769.7486    737.76982   -186.51408   -3141.7964   -3569.2328 
  438000    267.23695   -4806.0373   -4271.5303   -4806.0373            0    8912.5342    18.074069    22.609343    19.398589    7927.0945    9499.4194    9511.8573    7726.3261    292.41119   -182.71797   -853.46475   -3241.1652 
  439000    259.40034   -4846.2061   -4327.3734   -4846.2061            0    8101.0751    18.083651     22.68611    19.321145    7926.4553    7931.8224    8291.6966    8079.7064    766.99903    -534.9599   -282.92816   -3390.8954 
  440000    286.92624   -4816.9224   -4243.0345   -4816.9224            0    8469.3902    17.943454     22.54942    19.583593    7923.8058    9113.5339    9295.8842    6998.7525    2673.3837   -189.10621    252.51277   -3264.3069 
  441000        280.5   -4830.9691   -4269.9345   -4830.9691            0    9434.2346    18.304829    22.517945    19.241682    7931.1737    7519.6056    10115.177    10667.922    85.617366    -697.3611   -3301.4547   -3178.6951 
  442000    264.39575   -4808.4081   -4279.5839   -4808.4081            0    7119.4767    18.009148    22.738852    19.453368    7966.2973    7639.3175    7041.4002    6677.7124    38.086746   -511.67911    432.72699   -3452.4411 
  443000    260.30068   -4814.9334   -4294.2998   -4814.9334            0    8410.1747    18.137729    22.671403    19.279068    7927.7025    6072.1528    10059.219    9099.1521    620.40053    555.37389   -442.31001   -3321.9372 
  444000    269.82583   -4822.2217   -4282.5367   -4822.2217            0    7551.8935    18.073399    22.766211    19.366271    7968.5004     6810.519    7772.7762    8072.3854    499.09988   -400.19003   -1031.0378    -3404.913 
  445000    264.97003   -4819.7646   -4289.7919   -4819.7646            0    8911.1128    17.922397    22.810324    19.378392    7922.1906     9820.312    8326.8771    8586.1492    1119.2801   -56.578061   -711.70959   -3260.2284 
  446000    261.78553   -4834.9494    -4311.346   -4834.9494            0    6275.8256    18.050087    22.892021    19.409088    8019.8926    7227.2416    6176.2064    5424.0288   -260.53427   -831.90878   -1634.2663   -3577.3135 
  447000    266.06271   -4810.0847   -4277.9264   -4810.0847            0    10151.013    17.967224    22.791309    19.289153    7898.8415    8243.8989    10682.985    11526.153    877.88969   -649.31705    799.05723   -3108.5653 
  448000    257.58814   -4807.0446   -4291.8365   -4807.0446            0    8309.9916    18.016942    22.892736    19.316678    7967.3012    6768.0039    8256.9945    9904.9765    -233.8447    450.97951    -398.2921   -3326.2577 
  449000    268.37322   -4800.1554   -4263.3758   -4800.1554            0    8413.1621    17.962382    22.894291    19.332936    7950.3994    8391.7762    7925.8456    8921.8644   -504.87472    1073.0161    -1534.436   -3287.8829 
  450000      267.145   -4829.9154   -4295.5924   -4829.9154            0    8023.2892    18.052771    22.909898    19.239753    7957.3144    9027.5172    7149.7374    7892.6131    464.35151    -118.5969   -2692.6618   -3364.4956 
  451000    259.23174   -4807.8329   -4289.3374   -4807.8329            0    8759.7854    17.956243    22.646012    19.517287    7936.4568    8897.2233    10401.767    6980.3657    1261.0121    787.87079    716.96968   -3275.4353 
  452000    259.66149   -4819.8106   -4300.4556   -4819.8106            0    6908.5555    18.049188    22.891246    19.295049    7972.1042    7446.1514     6463.511     6816.004   -1645.9481   -940.78411   -1452.0855   -3497.2326 
  453000    254.14548   -4838.9868   -4330.6645   -4838.9868            0    7232.5679    18.007766    22.641577    19.541191    7967.4171     6723.933    7797.2807    7176.4899    1568.9286   -435.45828    392.36593   -3490.2646 
  454000    248.48615   -4821.5188   -4324.5158   -4821.5188            0      8619.06    18.228731    22.665987    19.144502    7909.9753    6800.6232    9728.4053    9328.1517    606.33085    467.58608   -740.88208   -3330.2308 
  455000    258.07674   -4838.8423   -4322.6569   -4838.8423            0    9664.0327     17.82218     22.86014    19.459674    7928.2122    11015.512    9725.3847    8251.2018    1130.4668   -1072.9769   -1380.6113   -3205.2547 
  456000    265.42323   -4849.4229   -4318.5436   -4849.4229            0    7378.4344    17.952609    23.028865    19.208379    7941.2858    9517.0473    6213.1697    6405.0862   -699.16622    -929.0361    81.214837   -3464.0065 
  457000    265.06614   -4812.6038   -4282.4388   -4812.6038            0    8854.7516    17.783034    22.901131    19.420405    7908.9909    10739.642    7768.6338    8055.9793    124.08569   -952.32971   -1602.0636   -3261.0917 
  458000    261.35742   -4798.3653   -4275.6182   -4798.3653            0     6072.226    17.989466    22.996353    19.392712    8022.6119    6746.8847    6523.4536    4946.3397    1397.0081    356.44339    1077.9879   -3565.1582 
  459000    268.24827   -4831.5432   -4295.0136   -4831.5432            0    7473.6669    18.027568    23.165082    19.067245    7962.6737    6030.2452    6146.7189    10244.037   -717.19577    775.40709   -1661.9684   -3427.1159 
  460000    259.41346   -4799.1509   -4280.2919   -4799.1509            0    8328.2945     17.75433    23.140708    19.419603    7978.5003      9922.82     7164.921    7897.1426   -237.82284    226.48935   -1056.5655   -3311.2262 
  461000    263.88457     -4820.72   -4292.9182     -4820.72            0    8357.9067    18.010948    23.058013    19.153789    7954.5049    8402.3012    8269.2095    8402.2094   -280.61251    370.09632    -42.52018   -3323.3317 
  462000    257.16948   -4802.9071   -4288.5363   -4802.9071            0    8539.6862    17.711355    23.008405    19.510009    7950.5248    9555.5131    8242.7419    7820.8036   -1025.1181   -726.47166   -81.701354   -3298.3576 
  463000    262.88226   -4823.4814   -4297.6844   -4823.4814            0    7527.8764    18.131537    22.914446    19.237712    7992.7716    6213.8166    7292.2043    9077.6084    226.64049    452.94362    872.26767   -3420.1871 
  464000    258.59187   -4828.5149   -4311.2992   -4828.5149            0    7094.3031    17.910442    23.010255    19.385239    7989.1191    6944.2942    7836.7666    6501.8486   -2427.9672    246.13736   -2566.1902   -3484.7199 
  465000    255.30663   -4850.8076   -4340.1628   -4850.8076            0    8120.8474    18.118192    22.915114    19.091117    7926.2579    7347.9972     7474.254    9540.2908    257.79104   -867.12323    399.26355   -3401.4226 
  466000    264.09044   -4813.9312   -4285.7177   -4813.9312            0     9235.929    17.774565     22.77368    19.533232    7906.9014    10760.566    8803.8224    8143.3982   -1709.4033   -430.65753   -2045.5829   -3220.6853 
  467000     255.5064    -4845.033   -4333.9886    -4845.033            0    7772.7194    18.027111    22.861008    19.285762    7948.0083    5980.6915    8457.7714    8879.6953    863.58294   -590.69952    362.05828   -3433.0251 
  468000    270.84973   -4811.0842   -4269.3513   -4811.0842            0    7895.9053     18.08224    22.739564     19.43553    7991.5449    7398.7027     8516.549    7772.4643    37.215603    874.56717   -566.81754   -3349.0955 
  469000    259.31565   -4815.3626   -4296.6992   -4815.3626            0    9170.0883    18.071606    22.688829     19.33009    7925.7928    8649.9657    9964.8024    8895.4969    899.18237    918.89497   -68.824808   -3236.7328 
  470000    255.67865   -4841.0565   -4329.6676   -4841.0565            0    8076.0629    18.170578    22.536428     19.43063    7956.8414     6439.783    8654.7626    9133.6432    700.85905   -577.45556    909.67752   -3392.5021 
  471000    266.24535   -4838.5362   -4306.0126   -4838.5362            0    6694.1663    17.989308     22.65524    19.539559    7963.3877    6552.1522      6670.44    6859.9067   -1504.8575   -1355.2588   -1613.0287   -3528.5666 
  472000    254.56124   -4843.1003   -4333.9464   -4843.1003            0    8558.0376    18.121681    22.641368    19.393057    7956.9643    10340.339     7465.443    7868.3311      1284.44     745.7076   -316.37862   -3340.8361 
  473000    246.30531   -4822.7146   -4330.0736   -4822.7146            0    8046.8379    18.179552     22.59325    19.333507    7940.9508    8257.8468    8964.7373    6917.9297   -1362.2137   -424.05285   -720.58404   -3398.1643 
  474000    273.28463   -4825.5688   -4278.9658   -4825.5688            0    11325.084    18.122083     22.41705    19.416624    7887.8797    9577.0528    13013.253    11384.945    1687.5384    650.48379   -196.28554   -2976.1662 
  475000    267.61268   -4850.1638   -4314.9054   -4850.1638            0    8546.9759    17.803718    22.767872    19.528307    7915.8536    9975.4717    10011.583    5653.8726   -329.79063    811.87207   -1138.8261   -3328.2031 
  476000    251.81246   -4797.6901    -4294.034   -4797.6901            0    9005.1896    18.009122    22.997114     19.17955    7943.3604    9063.8998    8297.6641    9654.0047   -917.61449    19.229233    647.09673    -3250.821 
  477000    272.66388   -4769.7669   -4224.4054   -4769.7669            0    9108.4966    17.785602    22.970654    19.432715    7939.1756    9176.4998    9245.2396    8903.7505    468.13835   -222.44306    1168.1432   -3169.7806 
  478000    269.12049   -4805.5173    -4267.243   -4805.5173            0    7517.3094    18.033264    23.118423    19.138247    7978.7474    6596.7359    7559.9854    8395.2068   -116.71911   -515.83164    636.62498    -3392.515 
  479000    267.33735   -4812.0108   -4277.3031   -4812.0108            0    8629.9918    17.737385    23.170924    19.408871    7976.8833    8744.0059    8236.5576    8909.4119   -292.48078    261.02383    231.01524   -3273.3359 
  480000    267.46968   -4783.2768   -4248.3044   -4783.2768            0    7026.5768    17.950865    23.454811    19.008033    8003.0306    7192.0807    6073.3808    7814.2689    261.07752   -909.94437   -46.124305   -3428.1906 
  481000    266.80446   -4800.5882   -4266.9463   -4800.5882            0    8563.0751    17.857008    23.157083    19.217644    7946.8075    10159.543    9162.9093     6366.773    1282.0024    317.89443    1637.8433   -3274.5198 
  482000     264.4327   -4815.9409   -4287.0429   -4815.9409            0    6931.0248    17.840156    23.243082    19.206226    7964.0575    7699.7611    5815.6768    7277.6366    385.70412   -1360.3966   -677.62713   -3482.0209 
  483000    271.62808   -4846.0356   -4302.7459   -4846.0356            0    8634.6268    17.782999    23.179197    19.124029    7882.8411    8745.5615    8504.9093    8653.4095   -202.96213   -462.20839   -650.28702    -3310.082 
  484000    280.44718   -4833.6953   -4272.7663   -4833.6953            0    7825.4938     17.87666    23.029461    19.322305    7954.7969    8349.1262    7194.9067    7932.4485    481.71248    697.89316    54.743051   -3364.9108 
  485000    251.89749   -4827.0992   -4323.2731   -4827.0992            0    8678.1073     17.91732    23.045562    19.211056    7932.5277    7642.5171    8667.7801    9724.0247    47.634665    1698.8136   -1292.8118   -3319.3221 
  486000    254.50783   -4813.6119   -4304.5648   -4813.6119            0    8177.7525    18.005102    23.087242    19.190839    7977.4048    8084.5533    7020.2736    9428.4307     62.86081   -1000.2726   -330.73006   -3353.1465 
  487000    253.01376   -4801.7444   -4295.6856   -4801.7444            0    6602.6787     17.89494    23.157703     19.27918    7989.4021    5009.2037    6745.9537    8052.8785    804.58462     108.0887   -36.242266   -3526.3597 
  488000    268.43503   -4803.2936   -4266.3904   -4803.2936            0    10260.351    17.775674    23.001622    19.297088    7889.9879    12547.865    9752.2783    8480.9105   -283.38584   -257.33273   -328.14192   -3085.7586 
  489000    273.36307   -4839.5492   -4292.7893   -4839.5492            0    8513.8202    18.003547    23.014248    19.132281    7927.2328    9313.1602    5989.6483    10238.652    364.10518   -1832.1434    203.91038   -3308.5018 
  490000    261.97736   -4791.8147   -4267.8276   -4791.8147            0    11184.516    17.891477    22.767041    19.345912    7880.2862    12968.447    11273.153     9311.947    632.60887    107.21407   -32.800143   -2982.4372 
  491000    252.28313   -4824.2655   -4319.6681   -4824.2655            0     9026.047     18.10969    22.796133     19.26756    7954.2439    5091.7434    10699.944    11286.454    -224.9807    1571.9506   -938.22648   -3272.6061 
  492000    256.48547    -4822.448   -4309.4454    -4822.448            0    6774.9182    17.929177    22.921332    19.388819    7968.0412    5701.2622    6566.1038    8057.3887    1672.7036   -32.763632    -182.4504   -3522.1612 
  493000     277.2075   -4814.3888   -4259.9395   -4814.3888            0    9327.3918    17.983487    22.970506    19.173372    7920.3241    8891.9218    9236.7155    9853.5382   -437.04603    795.09541    -722.3111   -3182.5343 
  494000    265.57245   -4801.9396   -4270.7619   -4801.9396            0    9317.9873     17.82777    23.171362    19.147117    7909.5535    9520.4737    8464.7472    9968.7409   -1487.1575    1322.0564    289.95616   -3195.9067 
  495000      270.619   -4794.6516   -4253.3802   -4794.6516            0    8110.1802    17.798748    23.142836    19.371799    7979.5054    7308.2586    8310.4435    8711.8384   -1357.8515    765.57726   -112.97724    -3309.575 
  496000    264.75411    -4828.208   -4298.6671    -4828.208            0    6133.9483     17.81985    23.281519    19.254894    7988.3395    6776.8872    5719.1229    5905.8348   -591.90183   -190.60746   -149.36267   -3584.0514 
  497000    265.09127   -4826.2125   -4295.9972   -4826.2125            0    6641.6812     18.05566    22.981638    19.237326    7982.5026    7403.0453    7125.4742    5396.5241   -1055.6702   -750.71507    7.2273155   -3522.7952 
  498000      267.138   -4801.6179   -4267.3089   -4801.6179            0    7972.7947    17.874041     23.03987    19.352546    7969.6797    8385.9618    7538.1167    7994.3055   -1072.3043    301.54941    1037.1177   -3340.6341 
  499000    260.01826   -4827.7694   -4307.7007   -4827.7694            0    8195.8759     18.05344    22.976661    19.233665    7978.2738    8831.2347    7946.6014    7809.7915    368.79616    820.50379     1248.607   -3354.0701 
  500000    280.44695   -4820.1829   -4259.2544   -4820.1829            0    8990.6883    17.848913    22.841473    19.441773    7926.3227    9206.9843    9653.5108    8111.5699   -418.23151   -113.05538   -439.07869   -3219.9552 
Loop time of 499.763 on 64 procs for 250000 steps with 1008 atoms

Performance: 86.441 ns/day, 0.278 hours/ns, 500.237 timesteps/s
195.1% CPU use with 32 MPI tasks x 2 OpenMP threads

MPI task timing breakdown:
Section |  min time  |  avg time  |  max time  |%varavg| %total
---------------------------------------------------------------
Pair    | 36.035     | 40.76      | 51.467     |  46.0 |  8.16
Bond    | 0.85959    | 1.065      | 1.8343     |  21.6 |  0.21
Kspace  | 239.84     | 251.23     | 258.48     |  27.4 | 50.27
Neigh   | 4.1767     | 4.6116     | 5.0565     |  10.4 |  0.92
Comm    | 73.267     | 83.186     | 88.408     |  35.6 | 16.64
Output  | 0.65635    | 0.65674    | 0.65796    |   0.0 |  0.13
Modify  | 86.013     | 91.524     | 110.33     |  71.6 | 18.31
Other   |            | 26.73      |            |       |  5.35

Nlocal:        31.5000 ave          36 max          26 min
Histogram: 1 0 2 1 8 4 5 6 1 4
Nghost:        2907.12 ave        2922 max        2888 min
Histogram: 2 1 3 1 2 5 7 7 3 1
Neighs:        10545.2 ave       12025 max        8761 min
Histogram: 1 1 1 7 4 4 6 3 3 2

Total # of neighbors = 337447
Ave neighs/atom = 334.76885
Ave special neighs/atom = 2.0000000
Neighbor list builds = 9647
Dangerous builds = 0

unfix		3
unfix		2
unfix		1

write_data	data.final.${pid}
write_data	data.final.1
System init for write_data ...
PPPM initialization ...
  extracting TIP4P info from pair style
  using 12-bit tables for long-range coulomb (../kspace.cpp:340)
  G vector (1/distance) = 0.37890362
  grid = 24 27 36
  stencil order = 5
  estimated absolute RMS force accuracy = 0.0024990981
  estimated relative force accuracy = 7.5259598e-06
  using double precision FFTW3
  3d grid and FFT values/proc = 5670 1296
Last active /omp style is kspace_style pppm/tip4p/omp
WARNING: Not all mixed pair coeffs generated from mixing. Use write_data with 'pair ij' option to store all pair coeffs. (../write_data.cpp:312)

write_restart   restart.lmp.${pid}
write_restart   restart.lmp.1
System init for write_restart ...
PPPM initialization ...
  extracting TIP4P info from pair style
  using 12-bit tables for long-range coulomb (../kspace.cpp:340)
  G vector (1/distance) = 0.37890362
  grid = 24 27 36
  stencil order = 5
  estimated absolute RMS force accuracy = 0.0024990981
  estimated relative force accuracy = 7.5259598e-06
  using double precision FFTW3
  3d grid and FFT values/proc = 5670 1296
Last active /omp style is kspace_style pppm/tip4p/omp
Total wall time: 0:08:19
