#include		in.partitions
include		in.temp
variable        temperature equal 187.00
variable	tempDamp equal 100.0
include		in.pressure
variable        pressure equal 3886.1
variable        pressureDamp equal 1000.0 # This is 1 ps
include		in.seed
variable        seed equal 745823

units		real
atom_style	full
read_restart	restart.lmp.${pid}
read_restart	restart.lmp.1
Reading restart file ...
  restart file = 30 Jul 2021, LAMMPS = 30 Jul 2021
  restoring atom style full from restart
  orthogonal box = (0.45838269 1.6314455 0.55922581) to (17.749190 21.997732 21.653970)
  2 by 4 by 4 MPI processor grid
  restoring pair style lj/cut/tip4p/long/omp from restart
  restoring bond style harmonic/omp from restart
  restoring angle style harmonic/omp from restart
  864 atoms
  576 bonds
  288 angles
Finding 1-2 1-3 1-4 neighbors ...
  special bond factors lj:    0        0        0       
  special bond factors coul:  0        0        0       
     2 = max # of 1-2 neighbors
     1 = max # of 1-3 neighbors
     1 = max # of 1-4 neighbors
     2 = max # of special neighbors
  special bonds CPU = 0.002 seconds
  read_restart CPU = 0.006 seconds
include 	in.setup
variable	out_freq equal 1000
variable	out_freq2 equal 10000
variable	out_freq3 equal 1000

timestep	2.0

neigh_modify    delay 7 every 1

include		in.tip4p
# This is TIP4P/Ice

# create groups ###
group ox type 2
288 atoms in group ox
group hy type 1
576 atoms in group hy

# set charges - beside manually ###
set group ox charge -1.1794
Setting atom values ...
  288 settings made for charge
set group hy charge 0.5897
Setting atom values ...
  576 settings made for charge

# ### TIP3P Potential Parameters ###
pair_style lj/cut/tip4p/long/omp 2 1 1 1 0.1577 8.5
pair_coeff 1 1*2 0.000 0.000
pair_coeff 2 2 0.21084 3.1668
bond_style  harmonic
bond_coeff  1 450 0.9572
angle_style harmonic
angle_coeff 1 55 104.52
kspace_style pppm/tip4p/omp 1.0e-5
pair_modify tail yes

thermo          ${out_freq}
thermo          1000
thermo_style    custom step temp pe etotal epair emol press lx ly lz vol pxx pyy pzz pxy pxz pyz enthalpy

restart 	${out_freq3} restart.lmp.${pid} restart2.lmp.${pid}
restart 	1000 restart.lmp.${pid} restart2.lmp.${pid}
restart 	1000 restart.lmp.1 restart2.lmp.${pid}
restart 	1000 restart.lmp.1 restart2.lmp.1


include         in.dump
dump            myDump all atom ${out_freq2} dump.water.${pid}
dump            myDump all atom 10000 dump.water.${pid}
dump            myDump all atom 10000 dump.water.1
dump            myDump2 all dcd ${out_freq2} dump.dcd
dump            myDump2 all dcd 10000 dump.dcd
dump_modify     myDump append yes
dump_modify     myDump2 append yes


variable natoms 	equal  "count(all)"                        # NUMBER ATOMS
variable H      	equal  "enthalpy/v_natoms"                 # ENTHALPY-per-atom
variable Vol      	equal  "vol/v_natoms"                 # volume-per-atom
fix AVG all 		ave/time ${out_freq} 1 ${out_freq} v_Vol v_H file vol_enthalpy.dat
fix AVG all 		ave/time 1000 1 ${out_freq} v_Vol v_H file vol_enthalpy.dat
fix AVG all 		ave/time 1000 1 1000 v_Vol v_H file vol_enthalpy.dat


timer           timeout 23:50:00 every 1000
New timer settings: style=normal  mode=nosync  timeout=23:50:00

fix 		1 all shake 1e-6 200 0 b 1 a 1
       0 = # of size 2 clusters
       0 = # of size 3 clusters
       0 = # of size 4 clusters
     288 = # of frozen angles
  find clusters CPU = 0.001 seconds
fix             2 all nph iso ${pressure} ${pressure} ${pressureDamp}
fix             2 all nph iso 3886.1 ${pressure} ${pressureDamp}
fix             2 all nph iso 3886.1 3886.1 ${pressureDamp}
fix             2 all nph iso 3886.1 3886.1 1000
fix             3 all temp/csvr ${temperature} ${temperature} ${tempDamp} ${seed}
fix             3 all temp/csvr 187 ${temperature} ${tempDamp} ${seed}
fix             3 all temp/csvr 187 187 ${tempDamp} ${seed}
fix             3 all temp/csvr 187 187 100 ${seed}
fix             3 all temp/csvr 187 187 100 745823

run             250000
PPPM initialization ...
  extracting TIP4P info from pair style
  using 12-bit tables for long-range coulomb (../kspace.cpp:340)
  G vector (1/distance) = 0.37430332
  grid = 24 24 25
  stencil order = 5
  estimated absolute RMS force accuracy = 0.0030672608
  estimated relative force accuracy = 9.2369648e-06
  using double precision FFTW3
  3d grid and FFT values/proc = 3822 576
Last active /omp style is kspace_style pppm/tip4p/omp
Neighbor list info ...
  update every 1 steps, delay 7 steps, check yes
  max neighbors/atom: 2000, page size: 100000
  master list distance cutoff = 10.8154
  ghost atom cutoff = 10.8154
  binsize = 5.4077, bins = 4 4 4
  1 neighbor lists, perpetual/occasional/extra = 1 0 0
  (1) pair lj/cut/tip4p/long/omp, perpetual
      attributes: half, newton on, omp
      pair build: half/bin/newton/omp
      stencil: half/bin/3d
      bin: standard
Per MPI rank memory allocation (min/avg/max) = 10.20 | 10.21 | 10.22 Mbytes
Step Temp PotEng TotEng E_pair E_mol Press Lx Ly Lz Volume Pxx Pyy Pzz Pxy Pxz Pyz Enthalpy 
16500000    197.29566   -4122.2221   -3784.0641   -4122.2221            0    4262.1417    17.290807    20.366287    21.094744    7428.5043    5330.6978     4288.953    3166.7742    337.08939   -160.61559     574.8536   -3322.3159 
16501000    188.22276     -4143.09   -3820.4826     -4143.09            0    4105.6974    17.269307    20.340963    21.068514    7400.8284     2338.789    5146.9242    4831.3789   -256.35918   -635.43334   -199.38742   -3377.3404 
16502000    185.02663   -4136.7223    -3819.593   -4136.7223            0    4002.1491    17.300257    20.377418    21.106273    7440.6908    4465.9225    2899.7969     4640.728   -539.30208   -612.02008     34.92338   -3385.3004 
16503000    190.87675   -4151.3243   -3824.1681   -4151.3243            0     4743.706    17.256147    20.325462    21.052459     7383.922    4781.5611    5322.4956    4127.0615   -611.49968    188.01291    520.84749   -3313.3329 
16504000    180.59749   -4153.8088   -3844.2709   -4153.8088            0    2988.6328    17.277383    20.350475    21.078367    7411.2157    2625.3404    1866.2272    4474.3308    211.30941    147.84174    351.76623   -3521.2446 
16505000    179.33634   -4114.9238   -3807.5475   -4114.9238            0     4502.929    17.305133    20.383161    21.112222    7446.9843    5398.7108    2123.5033    5986.5728     2478.978    1075.2772    1041.7565   -3318.4995 
16506000    189.95232   -4136.9401   -3811.3683   -4136.9401            0    2581.0966    17.341198     20.42564    21.156221    7493.6408    3843.8373    930.03497    2969.4176    30.753198   -584.07946    722.46259   -3529.2878 
16507000     186.5744   -4138.5676   -3818.7855   -4138.5676            0    3343.4049    17.285454    20.359982    21.088214    7421.6077    4035.2575    2893.6826    3101.2746     907.0721    1344.3876    347.97476   -3456.9069 
16508000    178.20717   -4107.7341   -3802.2931   -4107.7341            0    3871.2684    17.309631    20.388459     21.11771    7452.7925    3343.8764    4172.2477    4097.6813     661.4405    1452.2711    441.26631   -3381.5197 
16509000    193.05747     -4129.01   -3798.1161     -4129.01            0    2321.0123    17.339671    20.423842    21.154358    7491.6618    3334.7635    1452.8115    2175.4618   -919.68582    1888.0941    1474.7438   -3544.5264 
16510000    193.68157   -4140.0099   -3808.0463   -4140.0099            0    4572.4027    17.269427    20.341104    21.068661    7400.9827    5427.9869     4311.282    3977.9393   -335.08991    1831.1778    937.67772   -3314.5207 
16511000    182.42548   -4136.7788   -3824.1078   -4136.7788            0    3639.4008    17.317444    20.397661    21.127241    7462.8882    3915.3872    3572.3272    3430.4879    172.98509   -427.03162    233.06757   -3428.0006 
16512000     195.3111   -4115.9162   -3781.1597   -4115.9162            0    3169.8554    17.366629    20.455595    21.187247    7526.6582    4141.2687    2770.7932    2597.5044    660.60648   -552.59977    500.68608   -3433.2091 
16513000    191.21106   -4124.3238   -3796.5946   -4124.3238            0    1539.6468    17.365999    20.454853    21.186478    7525.8382    2088.5578    1703.9066    826.47608    89.429085    92.535904   -893.56705   -3627.6081 
16514000     177.5619   -4122.3767   -3818.0417   -4122.3767            0    5058.6445    17.234342    20.299779    21.025857    7355.9663    4376.7901    3595.6463     7203.497    684.62599    1127.4689    1316.1176   -3275.3543 
16515000    188.99606   -4132.8529   -3808.9202   -4132.8529            0    4081.3662    17.284519     20.35888    21.087073    7420.4028    4211.5135    3951.7338    4080.8513    -1063.228    1528.8398    178.00392   -3367.2389 
16516000    187.40471     -4134.84   -3813.6347     -4134.84            0    4277.0402    17.314742    20.394479    21.123945    7459.3958    3464.9626     4135.441    5230.7171   -702.69785     1228.289   -657.80221   -3348.3456 
16517000    187.87745   -4126.5217   -3804.5062   -4126.5217            0    4199.2735    17.295079    20.371318    21.099955    7434.0112    3503.6183    4665.5223    4428.6798    753.90266   -1461.0787    1834.1469   -3349.2318 
16518000     173.5796   -4137.9819   -3840.4724   -4137.9819            0    4360.4991    17.263817    20.334496    21.061816    7393.7717    5586.6613    3963.4479     3531.388   -654.99579    100.66631    1166.6575   -3370.2773 
16519000    178.81891   -4123.6804   -3817.1909   -4123.6804            0     4556.096    17.254599    20.323639    21.050571     7381.935    5924.9258    3035.8905    4707.4716   -540.28202   -446.82214   -1035.9313   -3326.6909 
16520000    187.23557   -4157.7418   -3836.8264   -4157.7418            0    4408.2171    17.257476    20.327027    21.054081    7385.6282     4810.611    2829.5371    5584.5031   -305.78659   -85.894965    692.34541   -3362.0094 
16521000    186.76007   -4157.5639   -3837.4635   -4157.5639            0    3504.4844    17.305077    20.383095    21.112154    7446.9122    2974.0977    3186.2987    4353.0569   -96.080073   -1016.4247   -1121.6034    -3456.857 
16522000     184.8092   -4121.8443   -3805.0876   -4121.8443            0    3532.8345    17.328903    20.411159    21.141222    7477.7136    3278.6735    4407.5274    2912.3026    -693.6127    221.66116    -226.2639   -3419.8151 
16523000    182.25357   -4149.9798   -3837.6034   -4149.9798            0    1867.6031    17.330787    20.413378    21.143519    7480.1519    3281.5103    320.17836    2001.1207    410.55331    1058.2863    751.72035    -3633.866 
16524000    193.60639   -4106.5644   -3774.7296   -4106.5644            0    2158.4228      17.3584    20.445902    21.177207    7515.9631     2871.916    1302.0919    2301.2604     -302.273    -287.2259   -235.19248   -3538.1393 
16525000    181.77533    -4119.197   -3807.6403    -4119.197            0    2953.6918    17.314538    20.394239    21.123696    7459.1323      2890.57     2845.081    3125.4245   -473.82683    444.77175    426.07258   -3486.3265 
16526000    192.91999   -4121.5153   -3790.8571   -4121.5153            0     3682.787    17.286945    20.361738    21.090032    7423.5276    3286.3735    2729.2071    5032.7804   -1414.0568    1186.9023   -4.3538755   -3392.1419 
16527000    186.81558    -4122.786   -3802.5905    -4122.786            0    3795.5813     17.33008    20.412545    21.142657    7479.2371    3387.6817    2626.1617    5372.9006   -1047.7564    976.78756    1710.1443   -3388.5798 
16528000    186.98014   -4147.1692   -3826.6917   -4147.1692            0    4300.7633    17.259083     20.32892    21.056041    7387.6915    4417.5938    5424.0793    3060.6168   -1326.4126    -107.4933    710.66479   -3363.3193 
16529000    185.16516   -4151.4731   -3834.1063   -4151.4731            0    3578.5356     17.24518    20.312544    21.039079     7369.852    3362.0073    3328.9627    4044.6367   -912.73813    25.162554    368.63359   -3449.4791 
16530000    192.87963   -4127.9295   -3797.3404   -4127.9295            0    2570.8108    17.319177    20.399702    21.129355    7465.1288    2692.5746    2508.6679      2511.19   -739.99645     943.3111     829.5009    -3517.453 
16531000    191.39228   -4123.0637   -3795.0239   -4123.0637            0    3506.9338    17.307691    20.386174    21.115342    7450.2864    3714.6558    2613.6298    4192.5157    623.69478    1270.1836    191.03561   -3413.9788 
16532000    189.85459    -4128.739   -3803.3348    -4128.739            0    4865.4309    17.255027    20.324143    21.051093    7382.4845    4453.4924    5794.8603      4347.94   -998.14259   -365.21148    55.679337   -3279.4935 
16533000    186.44273   -4131.4828   -3811.9264   -4131.4828            0    2258.7866    17.319947    20.400609    21.130294    7466.1247    1463.6772    2795.5188    2517.1639    165.57095    615.27471    888.78191   -3565.9766 
16534000     179.8869   -4147.9828   -3839.6628   -4147.9828            0    2991.8065    17.253392    20.322217    21.049098    7380.3857    3965.8692    2368.4058    2641.1446   -535.90998     507.6927    984.46605   -3517.6387 
16535000    183.29136   -4160.9323   -3846.7772   -4160.9323            0    2602.7094    17.269706    20.341433    21.069002    7401.3418    1803.2885    2177.5813    3827.2585    302.41862   -639.85908   -174.21694   -3565.8382 
16536000    180.92327   -4141.6252   -3831.5289   -4141.6252            0    5480.4038    17.190217    20.247805    20.972025    7299.6105    5987.3239    4321.4262    6132.4615   -778.09514     112.7868    849.73468   -3248.0997 
16537000    188.51268   -4126.1514   -3803.0471   -4126.1514            0    3532.3834    17.242612    20.309519    21.035946    7366.5605    3715.3885    3252.8567    3628.9049   -1041.2264    165.76998    810.13398     -3423.55 
16538000    187.50318   -4136.9107   -3815.5367   -4136.9107            0    3117.6358    17.239123     20.30541     21.03169    7362.0901     4083.854    2093.9534       3175.1   -66.238176    1704.3311    1832.2511   -3480.8007 
16539000    182.84563   -4124.5187   -3811.1275   -4124.5187            0    2448.0932    17.318922    20.399403    21.129045    7464.8001    3383.0819    1358.6746    2602.5232    38.446467    159.45357    969.72404   -3544.6123 
16540000    183.91611   -4131.8047   -3816.5788   -4131.8047            0    5113.7244    17.245889    20.313379    21.039944    7370.7614    6741.0276    4432.7647    4167.3809    773.66213    850.66776    521.06334    -3266.879 
16541000    181.01926   -4126.1511   -3815.8903   -4126.1511            0    4952.2527    17.272748    20.345016    21.072712    7405.2532    4811.4697    4762.4034    5282.8851    45.551067   -299.74605    -53.28895   -3281.0568 
16542000    185.89666   -4138.4763   -3819.8558   -4138.4763            0    5086.9617    17.246982    20.314667    21.041278     7372.163    7030.4333    4381.7603    3848.6915   -1371.2667   -304.66041    747.26982   -3272.9289 
16543000     196.6011   -4143.4508   -3806.4832   -4143.4508            0    3269.4913     17.28889    20.364028    21.092405    7426.0335    3063.7108    2811.7177    3933.0452    412.44705    362.65594   -178.38427   -3452.3938 
16544000    190.83667   -4136.4247   -3809.3372   -4136.4247            0    3907.9262    17.289007    20.364166    21.092548    7426.1844    4806.9354    4483.7208    2433.1222   -254.53609   -123.96803   -291.36232    -3386.096 
16545000    183.66105   -4159.1272   -3844.3384   -4159.1272            0    2779.4143    17.257362    20.326893    21.053942     7385.482    3530.3632    2133.8739    2674.0056    272.43563    179.11181   -290.37654   -3544.9686 
16546000    190.34777   -4124.5644   -3798.3148   -4124.5644            0    4185.9826    17.301039    20.378338    21.107227    7441.6995    3841.3104    3168.9476    5547.6899    2095.1322   -326.82748    118.29364    -3344.012 
16547000    179.87957   -4128.5848   -3820.2774   -4128.5848            0    3556.4146    17.259894    20.329875     21.05703    7388.7322    4020.4055     2485.968    4162.8704    631.90034   -220.41471    988.27523   -3437.0486 
16548000    192.81043   -4134.0265    -3803.556   -4134.0265            0    1495.1411    17.312805    20.392198    21.121582     7456.893   -150.66446    3602.8458    1033.2418   -730.74292    270.11368    412.32948   -3640.9577 
16549000    182.66653    -4114.761   -3801.6768    -4114.761            0    3703.0821    17.279061    20.352452    21.080414    7413.3758    5235.6558    2927.9636    2945.6268    1242.6204    -995.6317   -91.128767   -3401.3126 
16550000    186.75319   -4139.8878   -3819.7992   -4139.8878            0    3724.3099    17.278165    20.351396     21.07932    7412.2218    4742.5367    2605.9158    3824.4773    439.88488   -752.31294    337.27939   -3417.2026 
16551000    196.98979   -4137.3711   -3799.7374   -4137.3711            0    1833.7434    17.343565    20.428429    21.159109      7496.71    1678.2181    1673.4538    2149.5583    512.16296   -224.73392    983.83189   -3599.2509 
16552000    188.94279   -4139.1732   -3815.3317   -4139.1732            0    4188.5767    17.251037    20.319443    21.046225    7377.3641    5565.2332    3957.7031    3042.7939    721.80265   -253.61114    13.554717   -3364.6774 
16553000    182.32164    -4146.926    -3834.433    -4146.926            0    3898.6732    17.279037    20.352423    21.080385    7413.3448    4251.6155    3969.4967    3474.9073   -287.42299   -196.87178    660.93679   -3412.9239 
16554000    190.39439   -4120.4122   -3794.0827   -4120.4122            0    4214.3868    17.231582    20.296528     21.02249     7352.433    4543.7511    4833.0632    3266.3462    -1273.551    31.749782    752.89677   -3342.1837 
16555000    181.27307   -4127.3535   -3816.6577   -4127.3535            0    3892.4186    17.257554    20.327119    21.054175    7385.7279    4506.2184    3606.1922     3564.845   -1271.6994   -844.23776    1793.2514   -3397.3925 
16556000    188.22039   -4101.5405   -3778.9372   -4101.5405            0    4390.7161     17.24602    20.313534    21.040104    7370.9296    4668.6391    3887.3546    4616.1547    432.13869    295.74785    186.70095   -3306.9464 
16557000    196.01215   -4149.9251    -3813.967   -4149.9251            0    5266.0018    17.247718    20.315534    21.042176    7373.1071    5814.4866    5277.3347    4706.1841   -547.33793    76.880522    971.29378    -3247.718 
16558000    188.86426   -4138.7872   -3815.0804   -4138.7872            0    3592.7851    17.292896    20.368747    21.097292    7431.1964    2761.7251    4715.0247    3301.6054   -149.96121   -274.09378    1758.3978   -3425.7073 
16559000    184.96099   -4131.5053   -3814.4885   -4131.5053            0    3002.1344    17.269744    20.341478    21.069048    7401.3905    5329.8327    1008.6064    2667.9642   -709.08487    95.753275    384.63826    -3490.433 
16560000    176.58637   -4140.1749   -3837.5119   -4140.1749            0    2976.0419    17.279899    20.353439    21.081436    7414.4542    4518.5262    2984.8377    1424.7619    82.801269   -292.88512    904.50582   -3515.7059 
16561000    192.15224   -4149.3455   -3820.0031   -4149.3455            0    2786.1323    17.323695    20.405024    21.134867    7470.9732    3654.4241    2380.1168    2323.8559    30.134925   -522.91487    404.05734    -3516.436 
16562000    177.08968   -4100.8258   -3797.3002   -4100.8258            0    3266.3214     17.28727     20.36212    21.090429    7423.9463    3337.7532    4153.0678    2308.1433   -101.48289   -108.63229    174.12473   -3443.6535 
16563000    200.24442   -4129.0744   -3785.8623   -4129.0744            0    5343.3259    17.296598    20.373107    21.101809    7435.9701    6231.9529    5916.5048    3881.5201    253.26448   -873.78859   -555.31167      -3206.4 
16564000    190.88344      -4148.6   -3821.4323      -4148.6            0    3861.9186    17.357659     20.44503    21.176304    7515.0014    3798.0357    3707.8445    4079.8756   -1421.9787   -646.77036    1433.7446   -3398.1715 
16565000    179.67581   -4151.1883   -3843.2301   -4151.1883            0    3513.4797     17.31468    20.394406    21.123869    7459.3159    2313.6125    4055.6163    4171.2103      342.495    759.39733    1117.4204    -3461.011 
16566000    189.96869    -4121.317   -3795.7172    -4121.317            0    3243.7402    17.351954     20.43831    21.169343    7507.5932    3420.5227    2338.6505    3972.0475   -473.38281    22.156313    2383.7873   -3440.5583 
16567000    182.72968   -4163.0431   -3849.8506   -4163.0431            0    3629.6895    17.332152    20.414986    21.145185    7481.9202    4384.1928    4111.4255    2393.4503   -378.21981   -595.98706    416.05512    -3453.793 
16568000    184.61044     -4142.34    -3825.924     -4142.34            0    4082.0153    17.308342    20.386941    21.116137     7451.128    4229.0712    4148.9779    3867.9968    590.70332   -123.13888     309.5317   -3382.3434 
16569000    179.61616   -4141.7176   -3833.8616   -4141.7176            0    3624.9672    17.268899    20.340482    21.068016    7400.3035    3608.6795    3909.2644    3356.9578   -196.57674    -3.564945    936.22995    -3442.634 
16570000    184.84873   -4131.6476   -3814.8232   -4131.6476            0    4106.9192    17.360276    20.448112    21.179496    7518.4008    5609.4572    3650.3807    3060.9197   -1938.8936   -168.25874   -131.53222    -3364.507 
16571000    185.12705   -4133.8862   -3816.5848   -4133.8862            0    3799.5306    17.344855    20.429948    21.160683    7498.3827    3631.1334    3525.3271    4242.1314    91.251599   -257.60574   -397.57988   -3401.0824 
16572000    200.84683    -4119.322   -3775.0774    -4119.322            0    3952.8461    17.342072     20.42667    21.157287    7494.7736    2602.9438    5538.0039    3717.5905     425.5855   -323.08173    978.50587   -3343.0171 
16573000    171.44622   -4137.9338   -3844.0808   -4137.9338            0    4378.7568    17.329052    20.411334    21.141403    7477.9059    5236.5124    4190.6743    3709.0836    635.95348   -1720.1109    207.90046   -3366.5442 
16574000    189.95998   -4143.6699    -3818.085   -4143.6699            0    3609.1862    17.304567    20.382494    21.111532    7446.2535    3176.7552    3810.1999    3840.6036   -561.00464     10.87434    2023.1336   -3426.1419 
16575000    185.98191   -4141.7797   -3823.0131   -4141.7797            0    3271.6759    17.318464    20.398863    21.128485     7464.207    3613.9577    3404.3132    2796.7569   -846.90877   -866.41521   -179.94592   -3466.8657 
16576000    185.84171   -4143.8215   -3825.2951   -4143.8215            0    3898.5554    17.312233    20.391523    21.120884    7456.1534    3056.4423    3666.2731    4972.9507   -642.76385    47.925797    1290.2228   -3401.3649 
16577000    180.72607   -4130.6394   -3820.8811   -4130.6394            0    3920.3222    17.268481     20.33999    21.067507    7399.7666    3586.0075    4054.6074    4120.3518    1408.0027    776.85612    2168.7994   -3397.8078 
16578000    200.58465   -4130.1039   -3786.3086   -4130.1039            0    1533.0257    17.380257    20.471647    21.203873    7544.3903    1258.6111    1512.6372    1827.8287   -31.975833    121.72972    79.831218   -3617.6341 
16579000    194.69267   -4150.7721   -3817.0755   -4150.7721            0    2710.9483     17.32797     20.41006    21.140083    7476.5056     3018.446     1864.726    3249.6728    1405.3183   -300.14663    49.562148   -3521.4814 
16580000    190.50853   -4113.6154   -3787.0904   -4113.6154            0    4140.3789    17.316192    20.396187    21.125714    7461.2703    4470.1925    4105.0102     3845.934    252.48494    85.542059    854.76389   -3336.5551 
16581000    185.88642   -4127.1112   -3808.5082   -4127.1112            0    4122.7265    17.282168    20.356111    21.084205    7417.3753    3884.2568    3405.5287    5078.3939   -163.67751   -144.67636    770.66319    -3362.533 
16582000    183.90517   -4146.0675   -3830.8603   -4146.0675            0    2356.0072    17.331299     20.41398    21.144144    7480.8148    1215.2363    3886.0279    1966.7575   -691.32571    603.16765   -41.173926   -3573.8199 
16583000     178.7955   -4135.6631   -3829.2137   -4135.6631            0    3924.1445    17.288381    20.363429    21.091784    7425.3775    6622.6258    3428.0886    1721.7192    761.05284   -717.50773   -347.73894   -3404.2622 
16584000    181.91648   -4098.2238   -3786.4252   -4098.2238            0    2821.2216    17.307622    20.386093    21.115259    7450.1982      2793.04    2656.9205    3013.7042   -606.85186    362.35701   -101.87384   -3479.8896 
16585000    183.24626    -4130.717   -3816.6391    -4130.717            0    4215.4261    17.298297    20.375109    21.103882    7438.1623    3202.5575    5302.4973    4141.2236    565.62621   -369.21142    450.51236   -3359.3583 
16586000    184.76071   -4130.7456    -3814.072   -4130.7456            0    4304.8735    17.271907    20.344025    21.071686     7404.171    6268.2603    2715.1584    3931.2017    368.73494   -147.56757    379.81331   -3349.2222 
16587000    184.91318   -4151.4449     -3834.51   -4151.4449            0    3620.9725    17.342742    20.427459    21.158105    7495.6426    4372.5757       3033.6    3456.7418    627.11536    371.55824    643.02235   -3438.6788 
16588000    201.42409    -4145.506    -3800.272    -4145.506            0    2643.6197    17.322243    20.403314    21.133096    7469.0943    1477.4432    4161.6614    2291.7544     109.1816   -96.799536    933.27565    -3512.305 
16589000    181.17808   -4153.9804   -3843.4473   -4153.9804            0    3788.5573    17.331981    20.414784    21.144976    7481.6983    4575.5584    1133.0269    5657.0865    536.49085     223.0062   -714.48641   -3430.0669 
16590000    178.33028    -4114.769    -3809.117    -4114.769            0    4692.6854     17.24844    20.316384    21.043057    7374.0327    5639.8902    3724.2412    4713.9249   -2013.9881    -910.1055   -1133.8755   -3304.4529 
16591000    177.69494   -4151.9012   -3847.3381   -4151.9012            0    2727.2833    17.359427    20.447111     21.17846     7517.297    3815.6083    1654.2426    2711.9991    487.26865    574.57753   -140.74331   -3548.3404 
16592000    189.20377   -4117.5852   -3793.2964   -4117.5852            0    3695.5788    17.254671    20.323723    21.050658     7382.027    5363.5098    2426.8894    3296.3373    699.86329    1257.0752    699.62437    -3395.433 
16593000    174.88418     -4129.16   -3829.4145     -4129.16            0    5054.8368    17.215723    20.277848    21.003142     7332.151    5600.3897    5179.1121    4385.0085    926.44836    77.220864     1330.437   -3288.8912 
16594000    187.68898   -4140.0142   -3818.3217   -4140.0142            0    2499.8606    17.286676    20.361421    21.089704    7423.1811      3583.15    1295.5278    2620.9039    234.76811    1100.3141     431.4765   -3547.6881 
16595000    182.17984   -4146.4509   -3834.2009   -4146.4509            0    4331.4833    17.242204    20.309039    21.035449    7366.0381    5399.1147    3181.1095    4414.2256   -282.93641    715.03879   -428.47802   -3368.8865 
16596000    196.59429   -4140.9671   -3804.0112   -4140.9671            0    4871.5064    17.254617     20.32366    21.050593    7381.9584    5759.4335    4859.3441    3995.7414    182.80744    236.72671   -793.91031   -3279.5532 
16597000    188.02812   -4130.8559   -3808.5821   -4130.8559            0    4106.2952    17.270656    20.342551     21.07016    7402.5622    4399.4977     3911.083    4008.3047   -776.13836    1247.8347   -67.252487   -3365.2715 
16598000    176.87196   -4143.5547   -3840.4022   -4143.5547            0    4144.6829    17.226615    20.290677     21.01643     7346.076    5217.7066    2456.1095    4760.2326   -601.95991   -386.19691    1190.7166   -3396.3617 
16599000    185.83826   -4128.7862   -3810.2658   -4128.7862            0    4628.8739    17.292279    20.368021     21.09654    7430.4019    4907.0757    5413.9217    3565.6244   -1074.4382    135.13746    839.11036   -3308.6588 
16600000    179.67514   -4146.6674   -3838.7104   -4146.6674            0    3552.9479    17.295996    20.372399    21.101075    7435.1948    3922.5754    4204.3635    2531.9047   -899.98489    386.07477    568.05471   -3453.4476 
16601000    190.29055   -4173.6536   -3847.5021   -4173.6536            0    4580.6927    17.255882     20.32515    21.052136     7383.582    5640.0508    5005.3399    3096.6873   -153.02372   -319.27711    1032.1024   -3354.2441 
16602000    193.48612   -4140.1212   -3808.4926   -4140.1212            0    3158.9915    17.303082    20.380745    21.109719    7444.3358    2727.5849    3469.6986     3279.691    370.42358   -353.11256   -364.17757   -3465.5272 
16603000    175.27193   -4115.5334   -3815.1233   -4115.5334            0    2778.3601    17.328855    20.411102    21.141162    7477.6505    2365.1251    3724.7935    2245.1618   -1197.3459   -81.682236   -1634.5664   -3512.1324 
16604000    180.41879   -4141.5629   -3832.3313   -4141.5629            0    3183.6386    17.318718    20.399162    21.128795    7464.5354    2182.3056    4670.7902      2697.82   -884.41601    973.72258   -16.613371   -3485.7521 
16605000    188.57686   -4133.6521   -3810.4378   -4133.6521            0    4716.4091    17.291385    20.366967    21.095449     7429.249    5341.9492    4772.9711     4034.307    172.95977     1534.764    183.77345   -3299.4244 
16606000     184.7895   -4157.5819    -3840.859   -4157.5819            0    4257.8352    17.257671    20.327257    21.054319    7385.8787    4983.8202    4422.0643    3367.6212   -1007.2159    367.26833    1104.7789   -3382.2243 
16607000    178.89751   -4143.9997   -3837.3754   -4143.9997            0    5575.9876    17.262649     20.33312    21.060391    7392.2713    5457.1778    6430.3757    4840.4091   -1283.4106   -336.95335   -89.645957   -3236.2355 
16608000    184.21485   -4145.0921   -3829.3541   -4145.0921            0    2451.3192    17.312024    20.391278    21.120629    7455.8841    3601.7294    2290.6694    1461.5588   -175.68727    251.76188    802.28255   -3562.8064 
16609000    187.96287   -4152.2944   -3830.1325   -4152.2944            0     4730.074    17.285404    20.359923    21.088153    7421.5432    5060.4365    3860.9917    5268.7936   -635.77231    1378.2079    593.75249   -3318.1701 
16610000    189.15282   -4154.2143   -3830.0129   -4154.2143            0    3889.6749    17.291782    20.367436    21.095934    7429.7616    5384.3425    4526.4663     1758.216   -2637.0349    1281.9772   -571.77446   -3408.5454 
16611000    191.93085   -4148.3857   -3819.4228   -4148.3857            0    4840.0227    17.263395    20.333999    21.061302    7393.2304    5108.0058    4842.7767    4569.2855   -1913.7573    664.34565   -582.25476   -3297.5586 
16612000    182.19979    -4131.915   -3819.6308    -4131.915            0    3944.2916    17.286125    20.360772    21.089032    7422.4713    3926.7068    3443.2709    4462.8969   -1925.3282    275.92201   -148.54238   -3392.6647 
16613000    199.96084   -4173.8372   -3831.1112   -4173.8372            0    3553.8222    17.300071    20.377199    21.106047    7440.4512    3114.2636     4992.437    2554.7661   -1163.7867     626.0051   -1600.9927   -3445.4811 
16614000    189.25878   -4119.9898   -3795.6067   -4119.9898            0    4555.6693    17.287928    20.362895    21.091231    7424.7939    4187.6569    4534.4698    4944.8811    855.22896   -1191.9885    -359.3532   -3302.3052 
16615000    182.20285   -4127.9068   -3815.6173   -4127.9068            0    3592.3363     17.36582    20.454643     21.18626    7525.6064    5030.6564    3108.7245     2637.628   -970.74575    2451.9865    1240.6072   -3421.3467 
16616000    180.78948   -4146.0658   -3836.1989   -4146.0658            0    3841.0466     17.29405    20.370106      21.0987    7432.6846    3315.4702     4161.558    4046.1114   -571.62922     304.8901    212.66412   -3419.8368 
16617000    180.36445   -4166.2906   -3857.1521   -4166.2906            0     5109.692    17.252015    20.320594    21.047417    7378.6181    5524.6297    5881.9241    3922.5223   -843.01543    900.39688    358.49166   -3307.3003 
16618000    179.23829   -4155.2845   -3848.0762   -4155.2845            0    1961.0126    17.339156    20.423235     21.15373    7490.9941     2554.215    1676.9474    1651.8754    323.32915    512.56153   -62.183366   -3633.8386 
16619000    185.96171   -4141.2568   -3822.5248   -4141.2568            0    4285.0773    17.296673    20.373196    21.101901    7436.0677    5556.6521     4945.755    2352.8249   -1666.3892    639.47633    527.92267   -3357.8192 
16620000    191.41632   -4170.9095   -3842.8285   -4170.9095            0     4417.451    17.269472    20.341157    21.068715    7401.0399    3083.2458    5890.8653     4278.242   -972.40678     535.5985    226.93356    -3366.024 
16621000    178.37438   -4143.8084   -3838.0808   -4143.8084            0    4694.2434    17.278162    20.351393    21.079317    7412.2187    3751.4988    6148.6029    4182.6286    307.02558    110.81219   -660.82254   -3330.6349 
16622000    193.80088   -4140.2238   -3808.0557   -4140.2238            0    3660.3131    17.306156    20.384366     21.11347    7448.3051    4222.8706    3255.0352    3503.0335   -941.32871    141.91669    405.18201   -3410.4509 
16623000    180.47132   -4170.3187   -3860.9971   -4170.3187            0     4660.339    17.282151    20.356091    21.084183     7417.353    5568.0027    4624.7983    3788.2159   -1306.3585    517.53298    378.82259   -3356.8673 
16624000    184.93483   -4130.0254   -3813.0534   -4130.0254            0    3077.7884     17.28866    20.363758    21.092125    7425.7373    2978.4473    3496.4183    2758.4995   -501.52349    1336.4566    176.03984   -3479.7389 
16625000    198.80372   -4143.6777   -3802.9349   -4143.6777            0    3283.7931     17.31015    20.389071    21.118343    7453.4632    4263.2224    3084.8755    2503.2814   -1458.1474    200.27471   -333.79329   -3445.9829 
16626000    192.61369   -4161.8329   -3831.6996   -4161.8329            0    3695.8887    17.270489    20.342355    21.069957    7402.3483    4838.8081    4004.4635    2244.3946   -670.42745     1075.064   -418.15386   -3432.7075 
16627000     189.6593   -4149.1552   -3824.0856   -4149.1552            0    3889.4363    17.296431    20.372911    21.101606    7435.7555    4375.7209    3526.5439    3766.0443    41.034637    1047.1465     524.5471    -3402.304 
16628000    191.05063   -4153.5593   -3826.1051   -4153.5593            0    5222.9507      17.2502    20.318457    21.045203    7376.2898     6601.241    4971.3824    4096.2288    524.58885    706.31049   -275.16825   -3264.2429 
16629000    194.37797   -4144.1407   -3810.9835   -4144.1407            0    4353.2693    17.307962    20.386493    21.115673    7450.6366    5192.8942    3666.2976    4200.6162    320.94629    265.50397   -462.16997   -3337.9578 
16630000    187.91014   -4171.7148   -3849.6432   -4171.7148            0    3148.9316     17.30168    20.379093    21.108009    7442.5264    3723.9533    3496.8864    2225.9552   -441.10193     1338.747    831.38122   -3507.8531 
16631000    182.69513   -4156.2803   -3843.1471   -4156.2803            0    5053.7065    17.243281    20.310308    21.036763    7367.4185    5073.1241    4173.2097    5914.7856   -816.59819    648.90687    999.34913   -3300.1453 
16632000    191.92949    -4140.761   -3811.8004    -4140.761            0    5015.2655    17.271141    20.343123    21.070752    7403.1866    4922.9581    5178.4412    4944.3972   -126.61569    453.11847    1080.3696   -3270.3128 
16633000    176.16308   -4142.3431   -3840.4056   -4142.3431            0    2943.2202    17.329158    20.411459    21.141532     7478.043    4422.3256    2136.5184    2270.8165   -206.18953    269.76645    13.062809   -3519.4192 
16634000    187.96611   -4178.0737   -3855.9062   -4178.0737            0    2455.3899    17.306091    20.384289    21.113391    7448.2209    2985.0766    2629.1778    1751.9154   -1074.6497    15.545919     570.6861   -3589.1903 
16635000    179.26724   -4170.2635   -3863.0056   -4170.2635            0    3737.5763    17.297122    20.373725    21.102448     7436.646    2127.4497    5587.8361    3497.4431    69.689089    409.86789    879.65455   -3457.6436 
16636000    179.72187   -4129.2822   -3821.2451   -4129.2822            0    4041.5499    17.333691    20.416799    21.147063    7483.9134    4397.3577    4851.1438    2876.1482   -682.14687   -81.589064    1063.4322   -3380.1293 
16637000    171.41752   -4148.5493   -3854.7455   -4148.5493            0    3770.4062    17.368459    20.457751    21.189479    7529.0374    2903.5309    4408.4933    3999.1944   -1315.9488   -29.906795    946.38996   -3440.7425 
16638000    190.58918   -4149.4983    -3822.835   -4149.4983            0    4357.4925     17.26312    20.333675    21.060966    7392.8767    4602.9528    5352.7672    3116.7575   -690.41378    265.74347   -1338.2993   -3353.0209 
16639000    169.62353   -4146.4017   -3855.6728   -4146.4017            0    5464.4643     17.24071    20.307279    21.033626    7364.1233    5670.7064    4180.3524    6542.3341   -752.93144   -73.200457    6.8283234   -3268.7992 
16640000    185.43037   -4141.5413   -3823.7199   -4141.5413            0    4435.7132      17.3117    20.390895    21.120233    7455.4646    4505.1392    6152.3873    2649.6129    95.879683    1041.4175    615.96811   -3341.4235 
16641000    177.00537    -4156.303   -3852.9218    -4156.303            0    4858.6884    17.288924    20.364069    21.092447    7426.0778    4238.8378    6106.2661    4230.9613   -705.09521     833.1634    42.452807   -3326.7175 
16642000    186.25084   -4165.3124   -3846.0849   -4165.3124            0    2134.3714    17.360018    20.447808    21.179181    7518.0654    1884.2709    2143.5864    2375.2569   -1721.5255    319.49559   -913.85775   -3612.0654 
16643000    184.47667   -4164.1516   -3847.9649   -4164.1516            0      5751.44    17.273035    20.345354    21.073062    7405.6222    4858.6172    7468.4416     4927.261    -718.8186    476.42821    685.58642   -3226.7898 
16644000    179.21181   -4143.3106   -3836.1476   -4143.3106            0    5129.6599     17.28482    20.359234    21.087439    7420.7899    5389.7538    4763.1189    5236.1069    -994.5926    82.590481   -787.40283   -3280.9922 
16645000    191.19267   -4137.9087    -3810.211   -4137.9087            0    3770.1463    17.351877    20.438219     21.16925    7507.4938    3758.9739    3743.5795    3807.8853   -720.86379     375.6642    269.38423   -3397.4211 
16646000    188.09452    -4163.247   -3840.8594    -4163.247            0    5239.9109    17.264664    20.335493    21.062849    7394.8601    4342.5636    4321.8708    7055.2984   -274.08428   -405.56486   -627.80209   -3275.7536 
16647000    174.22844   -4158.0132   -3859.3916   -4158.0132            0    4822.0755    17.286165    20.360819    21.089081    7422.5229    4999.0973    5005.7709    4461.3584    259.63753    89.019373   -55.323324   -3337.4025 
16648000    175.04803   -4153.5278   -3853.5015   -4153.5278            0    3004.5508     17.29022    20.365595    21.094028    7427.7473    2373.2684    3779.9559     2860.428   -607.49906    876.14449   -706.22372   -3528.0303 
16649000    200.74226   -4141.2198   -3797.1544   -4141.2198            0    3360.4236     17.30761    20.386079    21.115244    7450.1823    3070.7127    2978.5557    4032.0024    633.62676     1108.152    2071.6191   -3432.0334 
16650000    185.87386   -4150.8651   -3832.2837   -4150.8651            0    4470.9907    17.314481    20.394172    21.123627    7459.0593     3998.229    4360.7992    5053.9438   -900.99408   -452.73099   -31.439672   -3345.9171 
16651000    186.45236   -4125.0133   -3805.4404   -4125.0133            0    4024.3686    17.291893    20.367566    21.096069     7429.904    3719.8575    3366.8022    4986.4461   -1252.3472    76.496485     472.9716   -3369.3697 
16652000    175.87504   -4148.5112   -3847.0674   -4148.5112            0    4094.1731    17.258619    20.328373    21.055475    7387.0953    3991.0719    4936.5365    3354.9108   -302.29181    169.66677   -677.30322    -3405.989 
16653000    186.89007   -4136.6391    -3816.316   -4136.6391            0    4832.6227    17.232897    20.298076    21.024094    7354.1157    4909.9797    4104.3361    5483.5525    434.48592    348.49858   -210.51306   -3298.0064 
16654000    180.26062   -4153.4537   -3844.4931   -4153.4537            0    3209.8705    17.275294    20.348014    21.075818    7408.5275    3448.9015    3580.9588    2599.7512    147.49163    81.466209   -588.65079   -3497.6802 
16655000    187.98616   -4157.1789   -3834.9771   -4157.1789            0    5599.1493    17.243085    20.310076    21.036523    7367.1663    6185.8789     5458.215     5153.354    5.4386428   -1126.5333    -100.1034   -3233.3901 
16656000     178.2183   -4172.3343   -3866.8742   -4172.3343            0    3521.3319    17.255949    20.325229    21.052217    7383.6676     4273.537    3589.6805    2700.7781    -525.3785   -410.92161    625.93737   -3487.6859 
16657000    180.77524   -4159.4955   -3849.6529   -4159.4955            0    2410.9878    17.326406    20.408218    21.138175    7474.4811    2562.7541    2166.9814    2503.2279   -336.25117   -15.990005    819.33308   -3586.8368 
16658000    194.83816   -4181.6175   -3847.6716   -4181.6175            0    3787.4978    17.309998    20.388891    21.118157    7453.2658    3149.8254    3664.4718    4548.1961   -803.70728    202.87767    885.28633   -3435.9772 
16659000    182.96925   -4150.2886   -3836.6855   -4150.2886            0    5647.8382     17.24431     20.31152    21.038018    7368.7371    4751.0948    5562.1856    6630.2342   -54.575385    -490.4064   -67.359582   -3229.7379 
16660000    185.59593   -4126.2414   -3808.1363   -4126.2414            0    3886.4985    17.306855    20.385189    21.114323    7449.2074    3872.1777    4645.5819    3141.7359   -937.60349    1237.2743    926.47602   -3385.9108 
16661000    177.67061   -4158.9317   -3854.4104   -4158.9317            0    4558.3482    17.329992    20.412442     21.14255    7479.1231    3717.4625    6551.3513    3406.2307   -560.64534    397.09727   -464.19584    -3357.207 
16662000     180.5228   -4152.6759    -3843.266   -4152.6759            0     5066.233    17.288047    20.363035    21.091376    7424.9471    4102.0208    5928.1235    5168.5547     662.3131    849.72373    68.548612   -3294.6677 
16663000    188.37953   -4149.0024   -3826.1264   -4149.0024            0    3399.5886    17.309195    20.387946    21.117178    7452.2295    2767.2718    3055.7101    4375.7838   -997.28688   -708.29208    343.22002   -3456.6485 
16664000    179.96653   -4140.4208   -3831.9644   -4140.4208            0    3602.2423    17.284919    20.359352    21.087561    7420.9182    3309.2795     4837.486    2659.9615   -238.56834    401.40847    216.30724   -3442.1064 
16665000    190.70401   -4154.9384   -3828.0783   -4154.9384            0    3922.0257    17.266341    20.337469    21.064896    7397.0155    3915.7522    4612.8935    3237.4315    -973.6682    -112.9055    924.53434   -3404.9785 
16666000    182.25639   -4134.5535   -3822.1723   -4134.5535            0    3265.7273    17.328264    20.410406    21.140442    7476.8863     2615.858    3652.3176    3529.0062   -246.62596   -460.23254   -152.92124   -3466.0685 
16667000    177.83368   -4159.7838   -3854.9829   -4159.7838            0    3546.7147    17.298276    20.375085    21.103857    7438.1354    2161.4697     3736.512    4742.1624   -1266.3209    266.74238    -409.0761   -3470.2439 
16668000    206.30747   -4164.1273   -3810.5234   -4164.1273            0    3306.0872    17.306521    20.384796    21.113915     7448.776    3569.7598    2861.3932    3487.1085    794.14344   -272.44996    296.75161    -3451.374 
16669000      187.164   -4133.9138   -3813.1211   -4133.9138            0    4411.7031    17.267842    20.339237    21.066727     7398.945    3688.1378    4312.3642    5234.6072    735.92581   -845.70979   -1226.0957   -3337.0717 
16670000    192.75417   -4162.3817   -3832.0076   -4162.3817            0    5029.1864    17.290845    20.366331     21.09479     7428.553    4171.8105    6323.2817    4592.4671   -782.01206   -839.24711    1292.9433   -3287.1565 
16671000    182.12025   -4145.4861   -3833.3382   -4145.4861            0     5359.056    17.293406    20.369348    21.097914    7431.8541    7440.8217    4740.4888    3895.8573    792.18274    1415.2818   -195.33773   -3252.4917 
16672000    192.36466   -4166.1015   -3836.3951   -4166.1015            0    3398.4221    17.293601    20.369577    21.098153    7432.1057    2804.6313    2964.8284    4425.8065   -2.2767579   -325.69737   -425.11443   -3468.0413 
16673000    183.27204   -4148.3232   -3834.2012   -4148.3232            0    4294.4087    17.330753    20.413338    21.143478    7480.1081    4065.2972    5657.2656    3160.6632    45.396182    452.59937    1421.8202   -3365.7254 
16674000    186.14404    -4160.397   -3841.3525    -4160.397            0    3527.8047    17.308443     20.38706    21.116261    7451.2585    2889.6859    4865.5858    2828.1422    756.24001   -497.89724   -676.20408   -3457.9896 
16675000    185.78978     -4136.91   -3818.4727     -4136.91            0    4692.1358    17.256532    20.325915    21.052929    7384.4159    5171.1259     5108.405    3796.8766    863.60459     68.88865   -641.24328   -3313.1572 
16676000    183.29505   -4158.1777   -3844.0162   -4158.1777            0    629.15362    17.384356    20.476475    21.208873    7549.7296    610.90356     451.7671    824.79022   -334.72633   -400.30149    701.35571   -3774.7432 
16677000    192.11104   -4140.2232   -3810.9514   -4140.2232            0    4391.2817    17.312771    20.392158    21.121541    7456.8492    3543.5798    5703.5699    3926.6955    497.83702   -1063.3069    16.421137   -3333.3974 
16678000    183.63343   -4133.6474   -3818.9059   -4133.6474            0    4294.9029    17.301074     20.37838     21.10727    7441.7447    2923.7074    5399.1676    4561.8338   -344.04434    558.29639    82.304194   -3352.7792 
16679000    189.07115   -4151.2926   -3827.2311   -4151.2926            0    5156.9131    17.305412     20.38349    21.112562    7447.3443    5626.7591    4494.2257    5349.7545    221.03441   -722.20768    -338.4764   -3267.1291 
16680000    191.62183   -4164.9911   -3836.5578   -4164.9911            0    2965.8726    17.316259    20.396266    21.125796     7461.357    2465.2636    3853.8066    2578.5477    1054.2351   -297.30664   -1230.0049   -3513.8227 
16681000    185.45996   -4151.1922   -3833.3202   -4151.1922            0     3034.567    17.332475    20.415366    21.145579    7482.3378     2700.925    2812.9922    3589.7839    94.155577    274.85144   -284.74344   -3502.1815 
16682000    192.45434   -4139.4463   -3809.5861   -4139.4463            0    3283.4411    17.277726    20.350879    21.078786    7411.6577    4398.6279    2972.0033    2479.6922   -260.05397      938.532   -224.21661   -3454.6743 
16683000    183.51739   -4158.6959   -3844.1534   -4158.6959            0    4307.7635    17.305692    20.383819    21.112903    7447.7049    5063.3403     4867.585    2992.3652    229.52373    203.32838    1538.4393   -3376.2564 
16684000    181.11706   -4156.6628   -3846.2344   -4156.6628            0    4704.8166    17.285499    20.360035    21.088269    7421.6652    5228.4899    4182.8535    4703.1063    805.02079    13.284416    974.14144   -3336.9974 
16685000    194.02929   -4145.6681   -3813.1085   -4145.6681            0    5272.8276    17.284254    20.358569     21.08675    7420.0622     6290.566    4980.8081    4547.1088     -258.671   -258.19993    172.00429   -3242.5148 
16686000    195.74405   -4148.3321   -3812.8334   -4148.3321            0    3277.7846    17.284596    20.358971    21.087167     7420.502    3667.5102    3606.7348    2559.1088   -1057.6257   -705.05727    138.33331   -3458.1102 
16687000    187.01426   -4159.3842   -3838.8481   -4159.3842            0    5436.7939    17.259907    20.329891    21.057046    7388.7495    4215.5862    7977.7299    4117.0656    911.17398    139.44039    921.27583   -3252.9937 
16688000     198.4187   -4150.0705   -3809.9876   -4150.0705            0    3602.1521    17.302406    20.379948    21.108894    7443.4634    1614.7369     5048.936    4142.7834    543.62454   -911.34946    262.37956    -3418.955 
16689000    179.94332   -4157.8934   -3849.4767   -4157.8934            0    4134.9964    17.295077    20.371317    21.099954    7434.0097    3600.2422    4544.6732    4260.0739     534.1256    -283.3595    56.446903   -3401.1711 
16690000     199.0368   -4142.6083    -3801.466   -4142.6083            0    3337.5945    17.304479    20.382391    21.111424    7446.1399    4086.8636     3843.275     2082.645    406.08219   -1156.7326   -1760.3834   -3439.0223 
16691000    183.14529    -4137.168   -3823.2632    -4137.168            0    4365.9039    17.339698    20.423874    21.154391    7491.6963    4615.9313    3342.4542    5139.3261   -1097.3318    500.47146   -123.08494   -3346.2502 
16692000    181.42192   -4130.7722   -3819.8212   -4130.7722            0    4716.3801     17.29959    20.376631    21.105459    7439.8297    5320.9391    5123.6144    3704.5868   -1565.7065    76.709047    -137.5635   -3308.0832 
16693000    183.94957   -4134.9694   -3819.6862   -4134.9694            0    5419.9226     17.25783    20.327445    21.054513     7386.083    6039.3816     4833.659     5386.727   -1028.9197    -126.1133   -755.91629   -3235.8605 
16694000    199.66295   -4149.5518   -3807.3363   -4149.5518            0    3743.7488    17.277839    20.351012    21.078923    7411.8028    4265.9234     3087.352    3877.9709    -60.25523    231.34722   -1484.1172   -3402.6613 
16695000    181.12338   -4148.5741   -3838.1348   -4148.5741            0    3035.2749    17.350052     20.43607    21.167023    7505.1251    4069.8953    2633.6231    2402.3063    29.365051   -315.68798    42.254103   -3505.9102 
16696000    190.60158   -4151.6187   -3824.9341   -4151.6187            0     3362.167    17.318274     20.39864    21.128254    7463.9621    2828.6356    4244.6088    3013.2567   -225.37642   -915.21708   -1165.6816    -3458.948 
16697000    174.09411   -4126.6628   -3828.2715   -4126.6628            0     3797.342    17.277271    20.350344    21.078231    7411.0724    4190.5161    3833.5244    3367.9857   -665.76304   -401.31703   -121.19808   -3417.8438 
16698000    192.67466   -4157.8748    -3827.637   -4157.8748            0    2516.1211    17.325553    20.407213    21.137135    7473.3779    2856.2159    2470.2612    2221.8863   -1276.6436    300.59231    -456.3249    -3553.401 
16699000    193.25039   -4150.4307   -3819.2062   -4150.4307            0    3585.6441    17.314201    20.393842    21.123285    7458.6966    3942.3333    5301.4948    1513.1042    -606.0612    328.69572   -845.47037    -3429.169 
16700000    185.04005   -4152.1102   -3834.9579   -4152.1102            0    3969.5181    17.283908    20.358161    21.086328    7419.6165    3775.0272    4452.8576    3680.6694   -508.49029    567.87688    759.70371   -3405.4263 
16701000    189.65173   -4155.2308   -3830.1743   -4155.2308            0     4913.062    17.261413    20.331665    21.058884    7390.6841    4098.0605    6259.3528    4381.7728   -774.49058    555.17479    425.05578   -3300.6172 
16702000    181.16496    -4135.507   -3824.9965    -4135.507            0    4707.0611    17.326443    20.408261     21.13822    7474.5288    4658.9561    5487.8418    3974.3853    277.40631    780.56466    449.72783   -3311.8876 
16703000    184.74357   -4160.8946   -3844.2504   -4160.8946            0    3969.8066     17.29671    20.373239    21.101945    7436.1146    4215.8845    4225.1177    3468.4176   -169.64545   -367.24364   -204.27917   -3413.7324 
16704000    187.88364    -4163.145   -3841.1189    -4163.145            0    3789.4404    17.277646    20.350785    21.078688    7411.5551    2544.8239    4548.9464    4274.5509   -205.92705     395.2074   -295.46587   -3431.5185 
16705000    182.33317   -4170.2026   -3857.6898   -4170.2026            0    4128.3097    17.280897    20.354615    21.082654    7415.7395    4423.7348    4751.5695    3209.6249   -1780.3201    653.06108   -1223.4728   -3411.2092 
16706000    188.63349   -4170.1824    -3846.871   -4170.1824            0    4407.1065    17.277648    20.350787     21.07869    7411.5566    4017.7717    5868.7454    3334.8024    597.31902   -414.50553    655.28536   -3370.5071 
16707000    189.61526   -4163.9246   -3838.9305   -4163.9246            0    4222.6585    17.285571    20.360119    21.088356    7421.7578    4682.4203    4462.9948    3522.5603   -995.96883    77.832244   -1298.0858   -3381.8754 
16708000    186.36719   -4134.7802   -3815.3532   -4134.7802            0    4115.9216    17.344626    20.429678    21.160403    7498.0858    4134.0843     4887.555    3326.1256    -521.0322    364.44226    1645.5863   -3365.2694 
16709000    184.56866   -4147.0581   -3830.7137   -4147.0581            0    5708.0511    17.232949    20.298138    21.024158    7354.1828    6529.4592    5390.9277    5203.7664   -1373.5137   -467.59365   -128.54741   -3218.5069 
16710000    193.44788   -4147.2553   -3815.6922   -4147.2553            0    3918.8492    17.299922    20.377023    21.105864     7440.258     4755.402    4583.1002    2418.0453   -489.53464    221.17036   -835.82457   -3390.4637 
16711000    184.01605   -4153.0332    -3837.636   -4153.0332            0    4645.4743    17.276369    20.349281     21.07713    7409.9112    4121.4453    4307.9398    5507.0379   -1496.3357    -78.80908   -121.32701   -3335.6183 
16712000    189.53662   -4160.5982   -3835.7389   -4160.5982            0    2759.2827    17.333139    20.416148    21.146389    7483.1976    3716.0888    2173.8535    2387.9058    -154.3209   -497.40065    120.87484   -3534.6052 
16713000    196.37438   -4151.2858   -3814.7068   -4151.2858            0    5906.6453     17.25931    20.329187    21.056318    7387.9825    5180.0884    5673.5993     6866.248    701.61612    8.9244164    8.3226251   -3178.2886 
16714000    185.24812   -4153.0668   -3835.5578   -4153.0668            0    3870.1322    17.308886    20.387581    21.116801    7451.8301    3445.3774    3115.5798    5049.4395   -321.02368    -944.5149   -681.79288   -3414.9623 
16715000    176.47144   -4172.3495   -3869.8835   -4172.3495            0    4376.8372     17.30269    20.380283    21.109241    7443.8303    4200.2253    3570.5213    5359.7652   -1265.9446    494.44339   -887.88681   -3394.7313 
16716000    185.98682   -4163.4243   -3844.6493   -4163.4243            0    2162.3751    17.311781    20.390992    21.120333    7455.5703    3495.9988    1630.8251    1360.3013   -296.33399   -752.18544    705.14991   -3609.5303 
16717000    183.53194    -4165.567   -3850.9995    -4165.567            0    3808.1997    17.278207    20.351445    21.079372    7412.2762    3909.6439    4377.3386    3137.6164     530.6076    -847.5346    522.08962   -3439.3314 
16718000    187.90731   -4139.2756   -3817.2089   -4139.2756            0    6335.0653    17.240911    20.307516    21.033872     7364.381    7441.5419    6216.7771    5346.8769    47.618709    241.99278    381.11064   -3136.8106 
16719000    190.30887   -4148.9094   -3822.7265   -4148.9094            0      2984.82    17.328925    20.411185    21.141248    7477.7415    3716.7081    2755.6707    2482.0811   -266.62609   -101.44987    282.75303   -3497.2164 
16720000    186.91892   -4171.8208   -3851.4482   -4171.8208            0     3641.257    17.314202    20.393843    21.123286    7458.6982    3386.8461    2836.9036    4700.0214   -471.41407   -160.66412    749.29349   -3455.3615 
16721000    179.05535   -4136.8715   -3829.9768   -4136.8715            0    3698.7468     17.33128    20.413958    21.144121    7480.7906    4843.4615    4067.2888    2185.4903   -1352.7716   -383.00224   -585.72592   -3426.4448 
16722000    186.78145   -4159.8807   -3839.7437   -4159.8807            0    5186.1921    17.298192    20.374985    21.103754    7438.0266     5798.576    2619.3977    7140.6026   -878.70469   -1281.3459    1116.0539   -3277.1663 
16723000    186.97385   -4162.3463   -3841.8795   -4162.3463            0    3274.7162    17.318297    20.398666    21.128282    7463.9915    3657.5794    2336.5821    3829.9871   -1308.2642   -1013.1056   -225.20466   -3485.4114 
16724000    183.79229   -4136.4327    -3821.419   -4136.4327            0    4591.4619    17.281081    20.354831    21.082879     7415.976    3118.0008    5430.8402    5225.5448    93.081013   -562.25873   -1187.8365   -3324.8322 
16725000    185.96192   -4159.7605   -3841.0281   -4159.7605            0    4541.6017     17.27777     20.35093    21.078838    7411.7134    5108.2638     4101.489    4415.0523     -760.783    301.47701   -324.57843   -3350.1162 
16726000    186.82567   -4152.5845   -3832.3717   -4152.5845            0    2862.8528    17.315472    20.395339    21.124835    7460.3394    4146.6578    1722.7543    2719.1462   -2155.4718    788.74531    1098.0157   -3520.8893 
16727000    211.92815   -4148.8405   -3785.6029   -4148.8405            0    2815.2321    17.349021    20.434855    21.165765    7503.7869    4033.0103    1710.8168    2701.8692    -1658.267   -782.37425   -424.52959   -3477.5179 
16728000    185.01984   -4125.7409   -3808.6232   -4125.7409            0    4096.2701    17.278888    20.352248    21.080203    7413.1527     4856.042    3779.2341     3653.534   -1086.5107   -746.59351    545.92153   -3365.7622 
16729000    187.15406   -4139.2588   -3818.4832   -4139.2588            0    2614.6668    17.339359    20.423475    21.153978    7491.2572    1348.9679    3051.1813    3443.8512    275.59158   -465.98841    304.53351   -3532.8248 
16730000    193.26768   -4135.9682    -3804.714   -4135.9682            0    3504.8162    17.292688    20.368502    21.097038    7430.9283    3509.5694    3096.7866    3908.0927   -1762.9297    239.59045   -999.92931   -3424.8884 
16731000    199.19662   -4157.2492    -3815.833   -4157.2492            0    4737.7357    17.270511     20.34238    21.069983    7402.3757    5575.1228    3715.5803    4922.5041   -136.53621    407.81832   -901.99445   -3304.3657 
16732000      172.426   -4122.7501   -3827.2178   -4122.7501            0    5392.4801    17.304947    20.382942    21.111995    7446.7443    5933.9741    4998.1145    5245.3518   -61.626323    552.50806   -20.816308   -3241.5776 
16733000    191.63325    -4168.592   -3840.1391    -4168.592            0     3700.631    17.291872    20.367541    21.096043    7429.8769    4555.3022    3943.2093    2603.3815   -833.34062    229.39331   -492.13881   -3439.1494 
16734000    193.32707    -4145.187    -3813.831    -4145.187            0    2913.5504    17.331582    20.414314    21.144489    7481.1813    3902.0887    1004.8885    3833.6739   -386.53257   -445.96983    83.496724   -3495.9471 
16735000    189.72335   -4170.4239   -3845.2445   -4170.4239            0    1318.0245    17.338814    20.422832    21.153312    7490.5503    1670.1955     1917.154    366.72394    -1812.026   -256.79844      702.794   -3701.2609 
16736000    190.74173   -4163.1828    -3836.258   -4163.1828            0    3989.6417    17.291549     20.36716    21.095649    7429.4602    3761.4179    4727.9666    3479.5406   -419.44633   -769.68611   -591.44381   -3403.9762 
16737000    189.03845   -4153.7981   -3829.7926   -4153.7981            0    3936.9883    17.302561    20.380131    21.109084    7443.6634    3409.7248    5306.7554    3094.4846    71.639964    -1734.234    1138.0715   -3402.4003 
16738000    185.13362     -4136.39   -3819.0773     -4136.39            0    4488.3768    17.268789    20.340353    21.067883    7400.1628    5616.5117    5052.9409    2795.6778   -308.17093   -663.74594   -421.68031   -3334.6747 
16739000     190.0895   -4151.7011   -3825.8942   -4151.7011            0     5497.827    17.245218    20.312588    21.039125    7369.9005     6719.847    5918.7544    3854.8798    489.63141   -249.58385    1355.9681   -3234.9744 
16740000    183.96447   -4139.2472   -3823.9384   -4139.2472            0    3369.7888    17.268561    20.340084    21.067605    7399.8697    3842.0149    4604.1726     1663.179   -2017.3229   -456.72677     731.2939   -3460.2724 
16741000    181.89801   -4157.1562   -3845.3893   -4157.1562            0    3823.2318    17.255825    20.325083    21.052067    7383.5087    2767.7411    5795.5692    2906.3851   -1079.6558   -32.554872    1104.2464   -3433.7002 
16742000    194.45507   -4156.5786   -3823.2893   -4156.5786            0    3276.1758    17.281747    20.355615    21.083691    7416.8333    2879.4687    4012.9427    2936.1161    178.75972   -110.06127     259.5614   -3468.9155 
16743000    194.51983   -4137.7315   -3804.3311   -4137.7315            0    4705.5244    17.247619    20.315417    21.042055    7372.9798    5397.6061    4530.3271      4188.64   -738.17726   -554.31893     106.4089   -3298.3586 
16744000    198.35596   -4153.6743    -3813.699   -4153.6743            0    5306.4303    17.224729    20.288456    21.014129    7343.6637    5487.0099    5366.5747    5065.7064   -1849.4155    925.62777    797.85521   -3245.3814 
16745000    192.22729   -4131.3648   -3801.8938   -4131.3648            0    4337.2164    17.275171     20.34787    21.075668    7408.3698    5394.7681    4783.7599    2833.1211   -1781.6244    11.487331      639.014   -3333.2859 
16746000     190.8262   -4149.9844   -3822.9148   -4149.9844            0    4334.5976    17.218392    20.280991    21.006398    7335.5615    6072.2725    4169.3021    2762.2183    -344.6005   -1347.4122   -339.92801   -3359.1924 
16747000     190.0482   -4153.4025   -3827.6664   -4153.4025            0    2260.3946    17.316807    20.396911    21.126464    7462.0648     3644.455    2413.4239    723.30499    -1042.964    407.18064     1732.485   -3581.6754 
16748000    193.53643   -4134.1079    -3802.393   -4134.1079            0    1257.6482    17.321383    20.402302    21.132047    7467.9829    2123.8618    1607.5387    41.544135   -938.18666   -425.14526    556.50221    -3665.419 
16749000    178.18319   -4148.4342   -3843.0343   -4148.4342            0    3919.7666    17.285812    20.360403     21.08865    7422.0685    3604.6477    6427.3273    1727.3249   -1764.6222    29.950924    1838.8532    -3418.746 
16750000    196.95041    -4132.324   -3794.7578    -4132.324            0    3660.1847    17.268143    20.339591    21.067094    7399.3312    4083.0296    4334.9212    2562.6034   -704.67289    170.95413    570.46399   -3399.7812 
Loop time of 419.74 on 64 procs for 250000 steps with 864 atoms

Performance: 102.921 ns/day, 0.233 hours/ns, 595.606 timesteps/s
190.7% CPU use with 32 MPI tasks x 2 OpenMP threads

MPI task timing breakdown:
Section |  min time  |  avg time  |  max time  |%varavg| %total
---------------------------------------------------------------
Pair    | 28.117     | 32.809     | 41.24      |  58.5 |  7.82
Bond    | 0.91445    | 1.1214     | 1.5142     |  16.4 |  0.27
Kspace  | 193.3      | 202.89     | 209.55     |  27.2 | 48.34
Neigh   | 1.9029     | 2.0124     | 2.2313     |   6.8 |  0.48
Comm    | 72.649     | 78.819     | 82.16      |  25.3 | 18.78
Output  | 0.55469    | 0.55503    | 0.5564     |   0.0 |  0.13
Modify  | 74.523     | 77.477     | 80.472     |  16.2 | 18.46
Other   |            | 24.05      |            |       |  5.73

Nlocal:        27.0000 ave          32 max          21 min
Histogram: 2 4 2 3 2 3 5 4 2 5
Nghost:        2521.09 ave        2556 max        2473 min
Histogram: 1 1 0 5 4 5 7 4 3 2
Neighs:        8348.69 ave       10117 max        6450 min
Histogram: 2 3 1 6 4 2 4 4 5 1

Total # of neighbors = 267158
Ave neighs/atom = 309.21065
Ave special neighs/atom = 2.0000000
Neighbor list builds = 5850
Dangerous builds = 0

unfix		3
unfix		2
unfix		1

write_data	data.final.${pid}
write_data	data.final.1
System init for write_data ...
PPPM initialization ...
  extracting TIP4P info from pair style
  using 12-bit tables for long-range coulomb (../kspace.cpp:340)
  G vector (1/distance) = 0.37441117
  grid = 24 24 25
  stencil order = 5
  estimated absolute RMS force accuracy = 0.0030553375
  estimated relative force accuracy = 9.2010581e-06
  using double precision FFTW3
  3d grid and FFT values/proc = 3822 576
Last active /omp style is kspace_style pppm/tip4p/omp
WARNING: Not all mixed pair coeffs generated from mixing. Use write_data with 'pair ij' option to store all pair coeffs. (../write_data.cpp:312)

write_restart   restart.lmp.${pid}
write_restart   restart.lmp.1
System init for write_restart ...
PPPM initialization ...
  extracting TIP4P info from pair style
  using 12-bit tables for long-range coulomb (../kspace.cpp:340)
  G vector (1/distance) = 0.37441117
  grid = 24 24 25
  stencil order = 5
  estimated absolute RMS force accuracy = 0.0030553375
  estimated relative force accuracy = 9.2010581e-06
  using double precision FFTW3
  3d grid and FFT values/proc = 3822 576
Last active /omp style is kspace_style pppm/tip4p/omp
Total wall time: 0:06:59
