LAMMPS (30 Jul 2021)
  using 1 OpenMP thread(s) per MPI task
package omp 0
using multi-threaded neighbor list subroutines
echo both

include		in.partitions
variable        pid world 0
include		in.temp
variable        temperature equal 232.52
variable	tempDamp equal 100.0
include		in.pressure
variable        pressure equal 3125.0
variable        pressureDamp equal 1000.0 # This is 1 ps
include		in.seed
variable        seed world 745823

units		real
atom_style	full
read_restart	restart.lmp.${pid}
read_restart	restart.lmp.0
Reading restart file ...
  restart file = 30 Jul 2021, LAMMPS = 30 Jul 2021
  restoring atom style full from restart
  orthogonal box = (0.36425284 1.5205730 0.44438762) to (17.843320 22.108605 21.768808)
  4 by 4 by 4 MPI processor grid
  restoring pair style lj/cut/tip4p/long/omp from restart
  restoring bond style harmonic/omp from restart
  restoring angle style harmonic/omp from restart
  864 atoms
  576 bonds
  288 angles
Finding 1-2 1-3 1-4 neighbors ...
  special bond factors lj:    0        0        0       
  special bond factors coul:  0        0        0       
     2 = max # of 1-2 neighbors
     1 = max # of 1-3 neighbors
     1 = max # of 1-4 neighbors
     2 = max # of special neighbors
  special bonds CPU = 0.888 seconds
  read_restart CPU = 1.167 seconds
include 	in.setup
variable	out_freq equal 1000
variable	out_freq2 equal 10000
variable	out_freq3 equal 1000

timestep	2.0

neigh_modify    delay 7 every 1

include		in.tip4p
# This is TIP4P/Ice

# create groups ###
group ox type 2
288 atoms in group ox
group hy type 1
576 atoms in group hy

# set charges - beside manually ###
set group ox charge -1.1794
Setting atom values ...
  288 settings made for charge
set group hy charge 0.5897
Setting atom values ...
  576 settings made for charge

# ### TIP3P Potential Parameters ###
pair_style lj/cut/tip4p/long/omp 2 1 1 1 0.1577 8.5
pair_coeff 1 1*2 0.000 0.000
pair_coeff 2 2 0.21084 3.1668
bond_style  harmonic
bond_coeff  1 450 0.9572
angle_style harmonic
angle_coeff 1 55 104.52
kspace_style pppm/tip4p/omp 1.0e-5
pair_modify tail yes

thermo          ${out_freq}
thermo          1000
thermo_style    custom step temp pe etotal epair emol press lx ly lz vol pxx pyy pzz pxy pxz pyz enthalpy

restart 	${out_freq3} restart.lmp.${pid} restart2.lmp.${pid}
restart 	1000 restart.lmp.${pid} restart2.lmp.${pid}
restart 	1000 restart.lmp.0 restart2.lmp.${pid}
restart 	1000 restart.lmp.0 restart2.lmp.0


include         in.dump
dump            myDump all atom ${out_freq2} dump.water.${pid}
dump            myDump all atom 10000 dump.water.${pid}
dump            myDump all atom 10000 dump.water.0
dump            myDump2 all dcd ${out_freq2} dump.dcd
dump            myDump2 all dcd 10000 dump.dcd
dump_modify     myDump append yes
dump_modify     myDump2 append yes


variable natoms 	equal  "count(all)"                        # NUMBER ATOMS
variable H      	equal  "enthalpy/v_natoms"                 # ENTHALPY-per-atom
variable Vol      	equal  "vol/v_natoms"                 # volume-per-atom
fix AVG all 		ave/time ${out_freq} 1 ${out_freq} v_Vol v_H file vol_enthalpy.dat
fix AVG all 		ave/time 1000 1 ${out_freq} v_Vol v_H file vol_enthalpy.dat
fix AVG all 		ave/time 1000 1 1000 v_Vol v_H file vol_enthalpy.dat


timer           timeout 23:50:00 every 1000
New timer settings: style=normal  mode=nosync  timeout=23:50:00

fix 		1 all shake 1e-6 200 0 b 1 a 1
       0 = # of size 2 clusters
       0 = # of size 3 clusters
       0 = # of size 4 clusters
     288 = # of frozen angles
  find clusters CPU = 0.035 seconds
fix             2 all nph iso ${pressure} ${pressure} ${pressureDamp}
fix             2 all nph iso 3125 ${pressure} ${pressureDamp}
fix             2 all nph iso 3125 3125 ${pressureDamp}
fix             2 all nph iso 3125 3125 1000
fix             3 all temp/csvr ${temperature} ${temperature} ${tempDamp} ${seed}
fix             3 all temp/csvr 232.52 ${temperature} ${tempDamp} ${seed}
fix             3 all temp/csvr 232.52 232.52 ${tempDamp} ${seed}
fix             3 all temp/csvr 232.52 232.52 100 ${seed}
fix             3 all temp/csvr 232.52 232.52 100 745823

run             250000
PPPM initialization ...
  extracting TIP4P info from pair style
  using 12-bit tables for long-range coulomb (../kspace.cpp:340)
  G vector (1/distance) = 0.37341059
  grid = 24 24 25
  stencil order = 5
  estimated absolute RMS force accuracy = 0.0031675849
  estimated relative force accuracy = 9.5390877e-06
  using double precision FFTW3
  3d grid and FFT values/proc = 2730 288
Last active /omp style is kspace_style pppm/tip4p/omp
Neighbor list info ...
  update every 1 steps, delay 7 steps, check yes
  max neighbors/atom: 2000, page size: 100000
  master list distance cutoff = 10.8154
  ghost atom cutoff = 10.8154
  binsize = 5.4077, bins = 4 4 4
  1 neighbor lists, perpetual/occasional/extra = 1 0 0
  (1) pair lj/cut/tip4p/long/omp, perpetual
      attributes: half, newton on, omp
      pair build: half/bin/newton/omp
      stencil: half/bin/3d
      bin: standard
Per MPI rank memory allocation (min/avg/max) = 9.238 | 9.241 | 9.249 Mbytes
Step Temp PotEng TotEng E_pair E_mol Press Lx Ly Lz Volume Pxx Pyy Pzz Pxy Pxz Pyz Enthalpy 
 3750000    250.59653   -3979.9756   -3550.4617   -3979.9756            0    3015.9807    17.479067    20.588032    21.324421    7673.7971    2157.1149    2926.4714    3964.3558   -525.69821    502.91017    1096.0387   -3212.9298 
 3751000    242.18259   -3993.1505   -3578.0579   -3993.1505            0    2871.7635     17.56248    20.686282    21.426185    7784.1849    4871.0305    1682.5193    2061.7408   -903.71281    817.50274   -24.616818   -3252.0428 
 3752000    228.62668   -3969.7518   -3577.8935   -3969.7518            0    3492.0986    17.455888     20.56073    21.296143    7643.3094    3818.4416    2401.5825    4256.2718   -1161.0825   -468.76205   -1222.6263   -3188.6299 
 3753000    237.63937   -3992.6535   -3585.3477   -3992.6535            0    3631.3733    17.494693    20.606437    21.343484     7694.396    3255.8426    5163.4752    2474.8023    656.89893   -305.71878    479.66513   -3177.8536 
 3754000     222.1565   -3994.3258   -3613.5572   -3994.3258            0    2506.4199    17.490557    20.601566    21.338439    7688.9408    3369.9207    2779.7004    1369.6385   -654.57857   -282.91339   -1124.6611    -3332.499 
 3755000    235.99999   -3975.1617   -3570.6658   -3975.1617            0     1097.324      17.5084    20.622582    21.360207     7712.496     1696.867     776.1786    818.92654   -1025.5509    1119.9027   -1400.7239   -3447.2401 
 3756000    217.99357   -3924.6023   -3550.9688   -3924.6023            0    3546.2962    17.508607    20.622826    21.360459    7712.7694    3279.0794    3712.6824    3647.1268    333.68456    539.71193   -56.877303   -3152.0713 
 3757000    228.94314   -3956.6583   -3564.2576   -3956.6583            0    3126.3315    17.529145    20.647018    21.385516    7739.9436    3367.6139    3288.2197     2723.161    1080.6701   -811.71666    774.13544     -3211.36 
 3758000    245.33218    -3977.533    -3557.042    -3977.533            0    3069.1122    17.478939    20.587881    21.324265    7673.6286    2910.7056    2894.9971    3401.6341    64.336585    317.84674   -1105.9088   -3213.5715 
 3759000    242.86232   -3967.5663   -3551.3086   -3967.5663            0    3642.7341    17.492317    20.603638    21.340585    7691.2615    3094.2705    3325.5298    4508.4019   -301.73969    967.12433   -554.46544   -3142.7062 
 3760000    232.74524   -3973.2097   -3574.2923   -3973.2097            0    3257.9686    17.572205    20.697736    21.438049    7797.1229    3000.3575    4640.3877    2133.1605   -651.97613    167.73623   -347.38941   -3203.8188 
 3761000    233.14712   -3981.7222    -3582.116   -3981.7222            0    2169.3643    17.505371    20.619015    21.356512    7708.4941     1169.456    2564.7402    2773.8966    48.155256    561.80307   -811.54979    -3338.235 
 3762000    233.90935   -3945.5906    -3544.678   -3945.5906            0    2813.8093    17.510437    20.624981    21.362692    7715.1881    2354.0119    3906.5283    2180.8878    285.45875    350.82272    171.07691   -3228.0735 
 3763000    242.59577   -3965.4296   -3549.6287   -3965.4296            0    2944.3606    17.480837    20.590118    21.326581    7676.1295    3211.1649    3253.5318    2368.3851   -67.538865   -161.98051    271.12527   -3220.0121 
 3764000    234.20276   -3990.3186   -3588.9031   -3990.3186            0    3116.4815    17.478713    20.587616     21.32399    7673.3318    3493.1847    3411.4154    2444.8445    17.423828   -387.04531   -488.08425   -3240.1449 
 3765000    231.54915   -3972.5166   -3575.6492   -3972.5166            0    1680.5563    17.486363    20.596626    21.333322    7683.4113     779.6269    132.33306     4129.709   -748.82338   -60.589669   -499.92491   -3387.3351 
 3766000    225.86492   -3968.2995   -3581.1748   -3968.2995            0    2905.3551    17.545044    20.665744    21.404912    7761.0228    3151.7648    2384.2398    3180.0606    444.98629   -918.04242    70.730825   -3252.3277 
 3767000    240.24113    -3998.286   -3586.5209    -3998.286            0    2793.1253    17.575933    20.702128    21.442597    7802.0866    1522.9658    2644.1155    4212.2945   -269.95917    1398.5201   -75.349126   -3268.7039 
 3768000    221.34964   -4006.3633   -3626.9776   -4006.3633            0    2515.0352     17.54177    20.661888    21.400919    7756.6797    2916.8176     1357.964    3270.3241   -94.971852   -442.03387    861.60722   -3342.4687 
 3769000    227.78525   -3980.8869   -3590.4708   -3980.8869            0    1966.8318    17.564098    20.688187    21.428158    7786.3355    1418.1942    2236.0497    2246.2515   -765.26973   -726.62522   -160.11325   -3367.1258 
 3770000    224.41118   -3979.5358   -3594.9028   -3979.5358            0    3814.9193    17.474199    20.582299    21.318482     7667.388     3623.405     2620.377    5200.9758   -857.78933   -585.71936   -670.97534   -3168.3147 
 3771000    232.96095    -3986.903   -3587.6159    -3986.903            0    4920.6933    17.441385    20.543647    21.278449    7624.2737    5401.7491    4698.7311    4661.5997   -1011.3885   -434.80207   -457.83456   -3040.4732 
 3772000    241.10315   -3978.7393   -3565.4968   -3978.7393            0    3609.2194    17.425856    20.525357    21.259504    7603.9276    3250.4228     3568.514    4008.7213    212.36209     1652.422     118.7517   -3165.2506 
 3773000    220.95479   -3982.6014   -3603.8925   -3982.6014            0     3116.753    17.518124    20.634037    21.372071    7725.3543    3131.5146    2715.5833     3503.161    -633.1396    788.19387    473.30772   -3252.7393 
 3774000     244.7931   -3958.0479   -3538.4809   -3958.0479            0    1894.9166    17.476847    20.585418    21.321713    7670.8744    2535.1709    1625.7692    1523.8097   -577.40839   -551.38364   -1170.3455   -3326.4931 
 3775000    227.51272   -3970.6371    -3580.688   -3970.6371            0    2473.8863    17.462151    20.568108    21.303784    7651.5396    1923.0138    3113.5675    2385.0777    -429.0263     650.1366   -724.05456   -3304.6274 
 3776000    233.07536   -3934.9582    -3535.475   -3934.9582            0    3692.3955    17.391064    20.484376    21.217057    7558.4721    4456.1129    4301.8321    2319.2415   -415.80986    1049.9145   -127.81792   -3128.4528 
 3777000    231.25996   -3953.4854   -3557.1137   -3953.4854            0     2097.157     17.45766    20.562818    21.298305    7645.6373    673.45924    2596.5148    3021.4968    1051.9478    4.7776694   -351.03858   -3323.2728 
 3778000    238.03658   -4002.9097   -3594.9231   -4002.9097            0    4584.0878    17.379189    20.470389     21.20257         7543    1431.3356    6276.1083    6044.8195    475.95574   -1221.9938    283.18259   -3090.6417 
 3779000    223.14974   -3997.2179   -3614.7469   -3997.2179            0     3809.646    17.354153    20.440899    21.172026    7510.4477    4086.7281    3106.0463    4236.1635   -940.05309     371.8336   -1217.6842   -3197.4681 
 3780000    243.71283   -3987.5182   -3569.8027   -3987.5182            0    3188.5085    17.442332    20.544763    21.279604    7625.5157    2909.7297    3300.0469    3355.7488    755.60902    208.48934    254.42199   -3215.2077 
 3781000    245.32739   -3973.3499   -3552.8671   -3973.3499            0    2647.6647    17.406199    20.502203    21.235522    7578.2237    3573.0571    1668.8569    2701.0801    552.24829   -404.98484     929.8816   -3260.2456 
 3782000      232.852    -3974.185   -3575.0847    -3974.185            0    3951.2549    17.489389    20.600191    21.337014     7687.401    2782.7386    5602.2404    3468.7856   -6.1721653      459.002    577.79639   -3132.0982 
 3783000    234.76698   -3985.4194   -3583.0369   -3985.4194            0    3592.8648     17.48119    20.590533    21.327011    7676.5944    1612.2953    5057.4451     4108.854    149.02029   -745.27997    750.50023   -3180.7968 
 3784000    242.20219   -4021.1962   -3606.0699   -4021.1962            0    2296.1012    17.373028    20.463132    21.195054     7534.981    3799.1811    1619.5642    1469.5582    236.90844    1258.4178    105.41375   -3353.7514 
 3785000    222.53099    -4004.268   -3622.8575    -4004.268            0    2913.8339    17.365984    20.454835     21.18646     7525.819    2195.5535    3589.8868    2956.0614   -643.75545    495.22427   -895.17677   -3303.0458 
 3786000    237.68467   -4018.1011   -3610.7177   -4018.1011            0    4568.9645    17.396721    20.491039    21.223959    7565.8509    3620.4897    4690.8378     5395.566    1024.5903   -740.33038    1173.0664   -3106.5774 
 3787000    229.31728   -3972.7575   -3579.7156   -3972.7575            0    1646.6714    17.503408    20.616702    21.354117     7705.901    1466.4804    818.09211    2655.4419    -424.1715   -1644.2661    12.496202   -3394.6583 
 3788000     229.0261   -3970.0396   -3577.4967   -3970.0396            0    2196.5107    17.521954    20.638548    21.376743    7730.4222    288.35965    2940.9763    3360.1962    329.14764    696.77672   -817.49978   -3329.8614 
 3789000    235.20182   -3991.8615   -3588.7336   -3991.8615            0    2492.6829    17.510534    20.625097    21.362811    7715.3174    2389.5474    3172.1792     1916.322   -801.88824     1154.033   0.22157962   -3308.2569 
 3790000    229.08222   -3979.2564   -3586.6173   -3979.2564            0    2881.8672     17.42684    20.526516    21.260704    7605.2158    3384.9947    1409.8322    3850.7746    -295.2611    656.88935   -327.61398   -3266.9771 
 3791000    230.25435   -3988.7542   -3594.1061   -3988.7542            0    2967.3396    17.430956    20.531364    21.265726     7610.606    1838.9747    4523.9117    2539.1325    657.49675    2235.7687   -1005.1598   -3264.7526 
 3792000    232.76316   -3997.1592   -3598.2111   -3997.1592            0    3347.7386    17.496084    20.608076    21.345182    7696.2321    3118.1649    4041.2337    2883.8171    91.050489    309.14852    1014.3795   -3222.4554 
 3793000    232.40981   -3975.3991   -3577.0566   -3975.3991            0    1513.9906    17.577242    20.703669    21.444194    7803.8293    1523.7169    1698.1875    1320.0673    50.299955    437.23779   -337.91932   -3404.7481 
 3794000    236.67405   -3976.7376   -3571.0863   -3976.7376            0    2938.0464    17.552935    20.675038    21.414539    7771.4989    3473.7832    2403.6911    2936.6648    258.33231   -1059.7094   -459.34041   -3238.0901 
 3795000     228.4204   -4024.8365   -3633.3318   -4024.8365            0    4039.9371    17.426081    20.525622    21.259778    7604.2216      2474.63    4179.8421    5465.3392     876.1222   -909.32654   -1110.9432   -3185.3037 
 3796000    245.16032   -3985.4328   -3565.2364   -3985.4328            0    2015.0092    17.473794    20.581821    21.317988    7666.8543    2806.8505    1950.8363    1287.3408   -790.30942   -1320.2229    171.63262   -3339.9318 
 3797000    233.02864   -4001.9176   -3602.5145   -4001.9176            0    2770.4601    17.457453    20.562573    21.298051    7645.3648    1023.6955    3234.1829    4053.5018    257.34429    152.84639    1306.0273   -3293.6088 
 3798000     239.6187   -3985.4151   -3574.7168   -3985.4151            0     1974.151    17.421652    20.520405    21.254375    7598.4255     1970.553    2609.0239     1342.876   -22.780894      524.043   -97.869074   -3355.9508 
 3799000    230.49112   -3956.0296   -3560.9757   -3956.0296            0    3280.2614    17.504194    20.617628    21.355075    7706.9389    515.90351    5303.0167     4021.864     423.8779   -65.914842    195.08071   -3192.2815 
 3800000    229.93279   -3976.3801   -3582.2832   -3976.3801            0    3705.6674    17.395497    20.489598    21.222466    7564.2546    3422.0078    3821.4807    3873.5137    -2090.352    55.201418   -363.55851   -3173.4855 
 3801000    231.38184   -3943.6851   -3547.1045   -3943.6851            0    3813.7125    17.452086    20.556252    21.291504    7638.3156     2893.814    4492.8111    4054.5126   -368.37735    1096.3444   -175.73469   -3122.2684 
 3802000    234.13015   -3975.2867   -3573.9956   -3975.2867            0    2960.5205    17.466467    20.573191    21.309049    7657.2139    1185.4177    3636.3567    4059.7869   -256.10336    787.12312   -1312.6406   -3243.3866 
 3803000    226.72012   -3973.3907   -3584.8002   -3973.3907            0     2767.849    17.464832    20.571266    21.307055    7655.0645    2762.1176    3309.7864     2231.643    162.16951    1655.3123   -269.63533    -3275.794 
 3804000    236.68371   -3951.0354   -3545.3676   -3951.0354            0    1753.3302    17.519122    20.635211    21.373287    7726.6737      1114.52    684.29712    3461.1734   -479.41081    500.73182    159.34451   -3347.7925 
 3805000     230.4087   -3964.6524   -3569.7397   -3964.6524            0    3995.8738    17.476379    20.584866    21.321142    7670.2581    4337.4134    3739.6374    3910.5705   -62.009229    1214.5004   -551.42635   -3122.7499 
 3806000    233.62004   -3942.4081   -3541.9913   -3942.4081            0    3289.2621    17.461911    20.567824     21.30349    7651.2233    2859.4768    3784.3171    3223.9922    500.96954    677.93018   -1469.0267   -3174.9582 
 3807000    246.93194     -4007.62   -3584.3871     -4007.62            0    3445.0394    17.507062    20.621006    21.358575     7710.728    3257.2704    4809.8662    2267.9815     -382.736    491.98243   -1033.4302   -3196.9819 
 3808000    235.16089   -3973.9389   -3570.8812   -3973.9389            0    3190.8291    17.521138    20.637586    21.375747    7729.3414    3490.3804    1070.8547    5011.2522    680.35046   -538.15858    90.293078   -3211.1965 
 3809000    234.82648   -3953.0494   -3550.5648   -3953.0494            0    2284.8852    17.490939    20.602016    21.338905    7689.4449    1409.6536    4012.8722    1432.1298    13.522251   -694.14926   -629.76759   -3294.3317 
 3810000    230.19729   -3990.7999   -3596.2497   -3990.7999            0    3212.8916    17.518632    20.634634     21.37269    7726.0258    3456.8584    3823.6351    2358.1814    80.559949    35.761418   -246.20401   -3234.2334 
 3811000    227.74722   -3962.9401   -3572.5892   -3962.9401            0    1957.1196    17.474982    20.583221    21.319438    7668.4187    1685.7655    1633.1778    2552.4156    1030.0326    1829.1755    100.74984   -3353.7127 
 3812000    229.86924   -3946.3479   -3552.3599   -3946.3479            0    2211.8831    17.481624    20.591044     21.32754    7677.1657    3047.9651    2038.2257    1549.4584   -651.38936    1116.8919    60.939306   -3304.7096 
 3813000    241.47692   -3920.4663   -3506.5831   -3920.4663            0    1598.8947      17.5126     20.62753    21.365332    7718.0486    1800.0487    1764.7085    1231.9269    1802.7191    388.39576    1446.0996   -3326.6118 
 3814000    231.02905   -3958.7351   -3562.7592   -3958.7351            0    3976.8375    17.446971    20.550227    21.285264    7631.6017    4518.5323    2610.3682     4801.612    237.03141    654.72802   -285.51916   -3120.1409 
 3815000    225.63732   -3981.9399   -3595.2052   -3981.9399            0    2482.4761    17.458715     20.56406    21.299591    7647.0228    2579.6639    1474.8383     3392.926   -430.17933   -1409.6357    60.513018   -3318.3496 
 3816000    246.51872   -3968.5962   -3546.0715   -3968.5962            0    2403.7035    17.533754    20.652446    21.391138    7746.0498    3915.0652    3337.2322    -41.18699    -471.6335   -319.06617   -562.09831   -3274.5295 
 3817000    229.17614    -4000.938    -3608.138    -4000.938            0    1769.2425    17.478677    20.587573    21.323945    7673.2838     1264.047    2109.3601    1934.3205    2365.5866    204.12798    600.25691   -3410.1474 
 3818000    233.52662   -3968.9565   -3568.6998   -3968.9565            0    3707.3472    17.438598    20.540365    21.275049    7620.6197    3030.6752    3967.6014     4123.765    470.31013   -45.899715     412.6403   -3156.6692 
 3819000    213.65135   -3981.1378   -3614.9467   -3981.1378            0    3199.5398    17.440358    20.542438    21.277196    7622.9273    4002.0707    2524.1557    3072.3928   -430.34954   -365.18442   -511.29726   -3259.2457 
 3820000    221.57489   -3950.0442   -3570.2724   -3950.0442            0    4021.5421    17.392972    20.486624    21.219386    7560.9613    4988.6313    3998.7778    3077.2172   -164.58657    724.00117    1039.4102   -3126.8215 
 3821000    224.77143    -3972.509   -3587.2585    -3972.509            0    2992.0354    17.478343    20.587179    21.323538    7672.8439    3791.3823    3338.2052    1846.5188   -1054.9992   -259.48129   -334.99557   -3252.4481 
 3822000    246.85441   -3919.0548   -3495.9548   -3919.0548            0    2764.8011     17.42397    20.523135    21.257203    7601.4584     3144.245    4429.6978    720.46057    449.99416    -801.4006   -1586.1042   -3189.4504 
 3823000    225.53195    -3983.027    -3596.473    -3983.027            0    2747.9612    17.410977    20.507831    21.241351    7584.4655    1851.0175    4004.5331     2388.333    778.77545   -1455.5958   -12.393174   -3292.5165 
 3824000    231.45693   -3960.1358   -3563.4266   -3960.1358            0    2821.9551    17.335643    20.419098    21.149444    7486.4422    1856.8599    3772.0797    2836.9258    448.26235    112.79415   -717.20719   -3255.3196 
 3825000    232.83754   -3970.5184   -3571.4428   -3970.5184            0    3770.8187    17.339685    20.423859    21.154376    7491.6802    4472.6869    2820.7465    4019.0227    12.473597   -757.07673   -253.56658   -3159.4489 
 3826000    231.76072   -3972.9168   -3575.6869   -3972.9168            0     2361.664    17.388294    20.481114    21.213679    7554.8622    3017.9322    3682.1216    384.93832    154.33125   -460.66855   -660.05804   -3315.4789 
 3827000    218.04527   -3974.1056   -3600.3835   -3974.1056            0     3800.384    17.403302    20.498791    21.231988    7574.4404    5106.5077    3537.1673     2757.477   -27.238421    -805.2392    1313.0529   -3180.5723 
 3828000     244.3884   -3954.5302   -3535.6569   -3954.5302            0    2625.3471    17.357313    20.444622    21.175882    7514.5522    3260.4268    4510.0659    105.54851    223.69903   -485.16377    543.26558   -3247.9398 
 3829000    229.24553   -3983.3947   -3590.4757   -3983.3947            0    2701.5851    17.418154    20.516285    21.250107    7593.8491    3114.9403    2428.8464    2560.9685    1905.1735   -145.67335   -1747.8058   -3291.2792 
 3830000    240.25002   -3970.9117   -3559.1314   -3970.9117            0    4430.6323      17.3849    20.477116    21.209537    7550.4386    2888.2349    5096.4517    5307.2103    -642.4917    552.65618   -469.59904   -3071.2506 
 3831000    221.74153   -3981.2836   -3601.2262   -3981.2836            0    3166.7881    17.452507    20.556748    21.292018     7638.869    3210.4921    4475.9747    1813.8976    1340.0725   -315.34541   -189.88614   -3248.4299 
 3832000    226.15386   -4008.9883   -3621.3683   -4008.9883            0     2344.618    17.410681    20.507482     21.24099    7584.0787    2505.6042    3074.4657    1453.7842    363.67942    654.05921   -142.15597   -3362.0394 
 3833000    224.10622   -3987.8339   -3603.7235   -3987.8339            0    3332.7861    17.342247    20.426877    21.157501    7495.0015    4024.9141    2381.0659    3592.3782    623.79701   -1207.6482    81.115041    -3239.427 
 3834000    246.54951    -3971.797   -3549.2196    -3971.797            0    3984.4412    17.410565    20.507346    21.240849     7583.928    4620.2781     3369.538    3963.5075    1926.1152   -882.61658    1407.8806   -3108.5252 
 3835000    233.88462   -3987.9069   -3587.0366   -3987.9069            0    3106.5814     17.38789    20.480638    21.213185     7554.335    3285.8883    3949.8885    2083.9672   -127.91788   -178.08917    615.27825   -3244.7776 
 3836000    234.89968   -3987.8353   -3585.2253   -3987.8353            0    3581.0924     17.34968    20.435632     21.16657    7504.6428    3039.8887     2671.571    5031.8174   -371.02577   -338.26596    72.915466   -3193.2836 
 3837000    226.46752   -3980.8238   -3592.6662   -3980.8238            0    3645.0481    17.368297     20.45756    21.189282    7528.8273    3639.8523     3609.788    3685.5039   -121.75318    624.84239   -94.160308   -3192.4391 
 3838000    238.91728   -3957.5533   -3548.0572   -3957.5533            0    3491.9964    17.388792      20.4817    21.214285    7555.5105    4452.0241    2827.9697    3195.9955     1199.825     1733.661    96.967101   -3163.2763 
 3839000    226.77648   -4008.7728   -3620.0856   -4008.7728            0    3335.6363    17.373119    20.463239    21.195164    7535.0986    4784.4168    1251.1568    3971.3351    66.446083    1575.3973   -1190.0797    -3253.527 
 3840000    227.35002   -3970.0067   -3580.3366   -3970.0067            0       3579.8    17.357487    20.444827    21.176093    7514.7772    1941.0946    4947.7988    3850.5067    735.87117   -32.223077   -1508.7852   -3188.0073 
 3841000     217.0921    -3980.466   -3608.3775    -3980.466            0    4444.1414    17.310188    20.389114    21.118388    7453.5112    4050.4617    3006.3198    6275.6427    222.24128    1371.1658   -1880.4771   -3125.2913 
 3842000    248.12364   -4007.8075   -3582.5321   -4007.8075            0    3582.9044    17.413089    20.510319    21.243928    7587.2268    3771.8199    2735.2382    4241.6551    580.20648    732.65431   -950.90527   -3186.0768 
 3843000    229.22935   -4005.3631   -3612.4719   -4005.3631            0    1446.5743     17.40916    20.505691    21.239134    7582.0916   -261.21588    2211.2002    2389.7386    843.30679   -160.13588    484.89992    -3452.514 
 3844000    233.15107   -3996.8586   -3597.2456   -3996.8586            0    5013.0971    17.381311    20.472888    21.205159    7545.7632     5757.358     3267.283    6014.6503   -558.09002    1508.0333   -68.574025   -3045.5682 
 3845000    226.95947   -3995.6542   -3606.6534   -3995.6542            0    1751.3643    17.493043    20.604494    21.341471    7692.2193     2380.002    483.04416    2391.0466   -599.45932    522.82337   -1386.7333   -3410.1799 
 3846000    232.69564   -3969.9626   -3571.1302   -3969.9626            0    1765.2621    17.500443     20.61321      21.3505    7701.9859    2585.5987    232.26401    2477.9236   -1329.9373   -1786.2836    130.71482   -3372.8461 
 3847000    232.64183   -3974.5253   -3575.7852   -3974.5253            0    4548.6812    17.457404    20.562517    21.297993    7645.3014    5154.0688    3204.5756    5287.3991    1086.5135    229.94386    1154.0494   -3068.6123 
 3848000    228.78895   -4000.8839   -3608.7474   -4000.8839            0    2715.9113    17.456477    20.561424    21.296862    7644.0834    401.52005    2656.9104    5089.3035    -299.1259    151.47585   -852.73042   -3305.9746 
 3849000    239.24251   -3968.1993   -3558.1458   -3968.1993            0    3276.8906    17.418031    20.516139    21.249957    7593.6879    3575.6145    3188.5562    3066.5011   -301.90328   -599.45214     459.1095   -3195.2428 
 3850000    225.42986     -3978.14   -3591.7609     -3978.14            0    4509.4192    17.472547    20.580352    21.316466    7665.2132    3565.5419    4585.8172    5376.8984    -503.0509     84.81378   -1096.4249   -3087.6563 
 3851000     225.2221   -3997.2671   -3611.2441   -3997.2671            0    2244.7633    17.516648    20.632297    21.370269    7723.4006    1912.6381    2552.5895    2269.0622   -1220.8156   -143.86469   -633.85996   -3358.3988 
 3852000    236.67999   -3974.9162   -3569.2548   -3974.9162            0    2643.4654    17.615042    20.748192     21.49031    7854.2843    1682.0165    3696.0328    2552.3468    843.44194    263.84974   -1034.3196   -3266.4546 
 3853000    236.36803   -3954.2845   -3549.1578   -3954.2845            0     4456.639     17.51861    20.634609    21.372663     7725.997    3795.0147    5601.2166    3973.6858    271.99749     598.1225    265.34581   -3047.0027 
 3854000    230.34434   -3964.3613    -3569.559   -3964.3613            0    3569.5685    17.433562    20.534434    21.268905    7614.0199    3907.6117    2809.7327     3991.361    492.20906    773.33751    1426.1845   -3173.1846 
 3855000    240.89673   -3960.8751   -3547.9864   -3960.8751            0    3095.3779    17.469673    20.576968    21.312961    7661.4318    2390.4266    4503.4876    2392.2195    403.40096    570.57005    798.34106    -3202.127 
 3856000    217.05361   -3977.7357   -3605.7133   -3977.7357            0    2917.4886    17.495041    20.606847    21.343909    7694.8558    1687.0206    4526.7275    2538.7178   -409.21852    514.18839    15.465956   -3278.3081 
 3857000    229.02625   -3991.6065   -3599.0633   -3991.6065            0    2667.3759    17.507332    20.621324    21.358904    7711.0845     2657.374    1817.4632    3527.2906   -403.49173   -1507.0548   -4.1233431   -3299.0949 
 3858000    231.56322   -3973.0465    -3576.155   -3973.0465            0    3081.7644    17.389625    20.482682    21.215302    7556.5971    2745.6433    2898.3485    3601.3013    86.426088   -1760.6772   -589.61267   -3236.5285 
 3859000    238.76993   -4007.8306   -3598.5871   -4007.8306            0     2802.137    17.465668     20.57225    21.308074    7656.1636     3905.352    2859.1717    1641.8873    354.22776   -516.75338   -1507.8031   -3285.7081 
 3860000     230.8151   -3974.6349   -3579.0257   -3974.6349            0    1705.7673    17.475459    20.583782    21.320019    7669.0464    1804.3859    2228.1871     1084.729   -840.09433   -44.687172    806.32841   -3388.2439 
 3861000    227.24825   -3959.3601   -3569.8644   -3959.3601            0    1893.2887    17.437936    20.539585    21.274241    7619.7515      2764.32     1311.589    1603.9569   -837.83495   -107.91181    576.77124   -3359.4703 
 3862000    232.17805   -3963.6853   -3565.7401   -3963.6853            0    3822.8962     17.40339    20.498894    21.232095    7574.5549    4748.6663    5702.6609    1017.3614    -98.81066   -293.10532   -257.34476   -3143.4358 
 3863000    232.29273    -3976.854   -3578.7122    -3976.854            0    3328.1231    17.467259    20.574124    21.310015    7658.2559    1270.6947    3322.6111    5391.0636    393.31262    493.53009     1937.039   -3207.0015 
 3864000    241.15227   -3953.5464   -3540.2196   -3953.5464            0    3453.8636    17.483477    20.593227    21.329801    7679.6074    3883.2708    4305.9285    2172.3914   -613.32345   -549.34946   -403.63569   -3153.3897 
 3865000     240.7699   -3965.2005   -3552.5291   -3965.2005            0    3434.2226    17.499306    20.611871    21.349112    7700.4846    2902.4857    2837.2398    4562.9423   -205.33445   -452.67761     304.7489   -3166.8533 
 3866000    217.98446   -3961.9335   -3588.3156   -3961.9335            0    1597.2769     17.54255    20.662807     21.40187    7757.7137    1041.6641    1888.7271    1861.4395    623.11086    174.94608    313.40314   -3407.6024 
 3867000    221.90106   -3999.4993   -3619.1684   -3999.4993            0     4272.281    17.427747    20.527584    21.261811    7606.4029    4051.1492     5140.914    3624.7798    -815.2494    628.85574    -698.7044   -3145.2375 
 3868000    239.67006    -4021.874   -3611.0877    -4021.874            0    3694.5115    17.439215    20.541092    21.275802    7621.4285     4405.617     4468.609    2209.3086    1400.6201   -520.35524   -1026.8374   -3200.4401 
 3869000    237.01478   -3991.8881   -3585.6529   -3991.8881            0    4602.2962    17.449568    20.553287    21.288433    7635.0109    4489.5721    4590.1141    4727.2024    77.818984    138.38499   -900.62615   -3073.1927 
 3870000    220.93195   -3978.4659    -3599.796   -3978.4659            0    3746.3028    17.481387    20.590764    21.327251    7676.8531     3959.146    3567.7474     3712.015   -281.93458    1056.6933    214.36434   -3180.3636 
 3871000    225.84695   -3984.3999   -3597.3059   -3984.3999            0    668.56355    17.617419    20.750992    21.493209    7857.4641    1057.7701   -449.72109    1397.6417    143.58195    409.52955   -837.29293   -3520.6932 
 3872000    241.27178   -3967.8161   -3554.2846   -3967.8161            0    3354.3432    17.556857    20.679658    21.419324    7776.7099    4714.0377    1965.2479     3383.744    250.11465   -832.44526   -319.49567   -3173.8506 
 3873000    211.08553   -3975.2437   -3613.4503   -3975.2437            0    3166.5858    17.551278    20.673087    21.412518    7769.2986    4708.4261    2162.0817    2629.2495    412.31071   -605.56834    271.79539   -3254.6532 
 3874000    241.00334   -3981.8447   -3568.7732   -3981.8447            0     2778.826    17.526501    20.643903     21.38229    7736.4415    2418.4641    1742.4823    4175.5317    122.09671    12.990055   -1323.4393   -3255.2436 
 3875000    240.36532   -3946.5261   -3534.5482   -3946.5261            0    2426.2295    17.561107    20.684665     21.42451    7782.3591    1203.1828    2868.4844    3207.0213    1385.0304    224.28368   -1102.9168   -3259.1766 
 3876000    226.10431   -3957.1881   -3569.6531   -3957.1881            0    3174.1734    17.489677    20.600529    21.337365    7687.7803    3991.3622    2863.4008    2667.7572   -1205.2737    838.39292     1276.701   -3213.7699 
 3877000    235.77025   -3986.4165   -3582.3143   -3986.4165            0    2168.0565    17.562564     20.68638    21.426287    7784.2957    1341.5151    2581.5217    2581.1325    167.24179    194.23746   -651.81305   -3336.1836 
 3878000    235.98088   -3994.6432     -3590.18   -3994.6432            0    3331.1018    17.497987    20.610317    21.347503    7698.7437    3263.6174    3605.8483    3123.8398    329.76744    988.13076   -829.46392   -3216.1696 
 3879000    252.40754   -3997.3693   -3564.7514   -3997.3693            0    2976.5865    17.481945    20.591422    21.327932    7677.5882    2692.6472    2718.9426    3518.1697    1034.5784   -1185.5388   -821.93036   -3231.4638 
 3880000     230.7056   -4011.8497   -3616.4282   -4011.8497            0    2001.9938     17.50767    20.621723    21.359317     7711.532    1071.1679    2369.4727    2565.3407    91.584753    104.75112   -175.95347   -3391.2744 
 3881000    220.96572   -4002.7485   -3624.0208   -4002.7485            0    2809.5888     17.39347     20.48721    21.219992    7561.6098    3405.2322    932.47117    4091.0631   -453.19148    687.09215   -337.82944    -3314.184 
 3882000    243.28281   -3980.8986   -3563.9201   -3980.8986            0    3328.7791    17.445704    20.548735    21.283719    7629.9399     3792.708    2201.5848    3992.0445   -608.56302    594.69236    399.18799   -3193.5108 
 3883000    223.96449   -3971.7921   -3587.9247   -3971.7921            0    1810.3024    17.506681    20.620558     21.35811    7710.2252    1092.6585    1668.2871    2669.9615   -486.80135    899.17913     457.5921   -3384.3639 
 3884000    221.15524   -3981.0063   -3601.9538   -3981.0063            0    3369.0506    17.501451    20.614397    21.351729    7703.3168    2563.5537    4362.0384    3181.5598   -725.44946    544.62079   -421.58096   -3223.4579 
 3885000    214.29105    -3980.184   -3612.8965    -3980.184            0    3264.8542    17.456178    20.561072    21.296496    7643.6899    3043.9877     3365.187    3385.3879    345.47906    1042.9636   -490.40507   -3248.9457 
 3886000    226.49787    -3976.534   -3588.3245    -3976.534            0    2235.0118    17.501065    20.613943    21.351259    7702.8077    2959.8109      1941.13    1804.0945   -1284.9565    1493.6447     -568.618   -3337.2487 
 3887000    228.40894   -4000.5209   -3609.0358   -4000.5209            0    3430.9618    17.486548    20.596844    21.333548    7683.6549    2788.4068    2258.8073    5245.6714   -22.783498    192.45263    763.11523   -3224.5683 
 3888000    224.04153   -3955.6379   -3571.6384   -3955.6379            0    2384.1514    17.554714    20.677135    21.416711    7773.8633    1325.1585    2654.4133    3172.8823    834.69111   -728.70473   -271.85977   -3301.3381 
 3889000    217.12756   -4003.9261   -3631.7769   -4003.9261            0      2174.84    17.549602    20.671113    21.410473    7767.0731     2842.142    1271.7724    2410.6057    336.51451    760.75182   -70.477386   -3385.4223 
 3890000    232.98902   -3986.5918   -3587.2566   -3986.5918            0    2849.3699    17.515632      20.6311     21.36903     7722.057     886.9761    2869.8574    4791.2761   -616.97166   -816.06049   -1794.9056   -3266.3654 
 3891000    221.70698   -3980.7365   -3600.7383   -3980.7365            0    3460.8317    17.467362    20.574246    21.310141    7658.3917    2884.4115     4193.458    3304.6256    717.10284    61.080248    1247.4412   -3214.1988 
 3892000    219.38801   -3977.4526   -3601.4291   -3977.4526            0    2446.1601    17.516919    20.632617      21.3706    7723.7598    3086.3198    1167.0553    3085.1052   -1122.1244   -320.37842   -671.83804    -3325.886 
 3893000    215.48588   -3967.6421   -3598.3066   -3967.6421            0    3293.7685    17.591865    20.720893    21.462034    7823.3223    1315.2691    4412.2666    4153.7698   -381.02468     19.31561   -670.52462   -3222.5037 
 3894000     232.6083   -4002.7683   -3604.0856   -4002.7683            0    2761.7407    17.537901     20.65733    21.396198    7751.5474    3344.2122    2097.8673    2843.1426    -10.14664   -107.23879   -604.69914   -3291.8754 
 3895000    233.50139   -3978.2303   -3578.0169   -3978.2303            0    2827.3559    17.611813    20.744389    21.486371     7849.966     4291.129    1438.9906    2751.9479    594.86121   -914.63134   -219.70116   -3254.3307 
 3896000    230.49084   -3999.9789   -3604.9255   -3999.9789            0    3767.1604    17.604572     20.73586    21.477536    7840.2873    3841.2127    3843.0457    3617.2227    233.93719    -138.1472   -1695.1162   -3174.1788 
 3897000    222.41304   -3995.7777   -3614.5694   -3995.7777            0    3373.0358    17.551307    20.673122    21.412554    7769.3378    3926.3102    1760.1509    4432.6464    224.59408    405.99855   -1480.0539    -3232.378 
 3898000    223.18011   -4000.0121   -3617.4891   -4000.0121            0    4164.9986     17.53062    20.648755    21.387316    7741.8978    4942.1731    2404.2915    5148.5313   -618.73121   -963.51873   -803.40875   -3147.2289 
 3899000    235.99356   -3952.1883   -3547.7034   -3952.1883            0    4337.7097     17.54401    20.664527    21.403651    7759.6512    4570.7843    4901.3929     3540.952    27.754544    1791.6332    -420.4429   -3056.8197 
 3900000    226.88534    -3980.003   -3591.1293    -3980.003            0    4908.0232    17.494547    20.606266    21.343307    7694.2042    6231.6736    3505.1522    4987.2439    749.36144   -337.20737    2100.1873   -3040.3898 
 3901000    229.54434   -3953.3372   -3559.9061   -3953.3372            0    3691.6504    17.542094    20.662269    21.401313    7757.1083    3472.4067    2544.3897    5058.1549   -136.87416    23.780209   -710.31603   -3142.2716 
 3902000    220.09892    -3986.501    -3609.259    -3986.501            0    1950.9955    17.646158    20.784843    21.528272     7895.981    2475.2338    2057.0413    1320.7115    -130.7287   -102.99804   -25.708069   -3384.5925 
 3903000    234.11225   -3986.1404     -3584.88   -3986.1404            0    2907.3023    17.630686    20.766619    21.509396    7875.2294    2968.1702    2016.3176    3737.4192    217.29067    1335.8195   -1450.3653   -3250.9701 
 3904000    225.13305   -4000.5141   -3614.6437   -4000.5141            0    2678.3543    17.579673    20.706533     21.44716    7807.0683    2496.8037    2673.2631    2864.9962   -923.25756    1566.2688    1395.9797   -3309.6914 
 3905000    234.99718   -3999.2482   -3596.4711   -3999.2482            0    2031.4638    17.597993    20.728111     21.46951    7831.5007    1754.9375     1785.149     2554.305   -53.140736   -534.24035   -686.93347   -3364.4486 
 3906000    214.93784   -4002.0988   -3633.7027   -4002.0988            0    2588.5434    17.606177    20.737751    21.479495     7842.432    4812.5059    1602.0743    1351.0499    219.91073   -207.63888    173.28115   -3337.6411 
 3907000    230.61727   -3994.0989   -3598.8288   -3994.0989            0    3544.0839    17.538959    20.658577    21.397489    7752.9512    3124.1947    2126.2115    5381.8456    470.94174    296.74937    1082.2067   -3198.1034 
 3908000    239.83585   -4019.7206   -3608.6501   -4019.7206            0    1900.6533    17.581349    20.708507    21.449205    7809.3014    1373.3867    2953.9503    1374.6231    550.43703    -559.3332   -1334.7599   -3392.1835 
 3909000    222.13023   -3967.1763   -3586.4527   -3967.1763            0    5176.9416    17.523231    20.640051      21.3783    7732.1117    5932.9188    3848.0746    5749.8314   -386.42925   -810.25211   -1572.1278   -3002.6753 
 3910000     240.8059   -3965.7922   -3553.0591   -3965.7922            0     2880.953    17.493113    20.604577    21.341557    7692.3124    3563.9966    1198.8934     3879.969    -1176.666    348.67116    1291.4114   -3229.8609 
 3911000    225.69791   -4004.1649   -3617.3264   -4004.1649            0    3285.2976    17.447371    20.550699    21.285752    7632.1272    1981.2757    3940.5739    3934.0431   -892.84082   -3.4205403   -1483.2516   -3251.6506 
 3912000    218.89792   -3961.0539   -3585.8703   -3961.0539            0    3687.3291    17.505162    20.618768    21.356256    7708.2174    3332.1409     3471.428    4258.4183   -784.70056   -1379.8907    125.49168   -3171.3539 
 3913000    226.33065   -3975.3944   -3587.4714   -3975.3944            0    2744.8692    17.518123    20.634034    21.372069    7725.3518    2332.6252    2035.4292    3866.5532    346.33674    100.81203    587.97321   -3278.2171 
 3914000     230.2308   -3992.2271   -3597.6194   -3992.2271            0    2227.7826    17.548457    20.669764    21.409076     7765.553    3457.1568    1609.4544    1616.7367   -339.01137    638.73181    715.56598   -3345.3172 
 3915000    234.15404   -4000.1953   -3598.8633   -4000.1953            0    3669.7891      17.5118    20.626587    21.364355    7716.9901    2785.4627     3560.601    4663.3038   -970.10831    1683.3048    1045.9104   -3185.8491 
 3916000    232.91645      -3960.8   -3561.5892      -3960.8            0    3609.2036    17.497263    20.609464     21.34662    7697.7876     4264.398    3976.4172    2586.7955   -881.84776    352.64707    1110.5014   -3156.4043 
 3917000     210.4615   -3973.9977   -3613.2739   -3973.9977            0    1337.2785    17.583311    20.710818    21.451598     7811.916    1222.0425    2711.9674    77.825667   -811.82955    374.46976   -51.268955   -3460.9194 
 3918000    246.69669   -3974.4174   -3551.5877   -3974.4174            0     3095.261    17.532882    20.651419    21.390075    7744.8949     4027.586    3740.1135    1518.0836   -435.10205   -947.14603    2162.9261   -3201.9738 
 3919000    236.14798   -3945.4525   -3540.7029   -3945.4525            0    3777.9537    17.474105    20.582188    21.318368    7667.2644    5206.2388    2590.4212    3537.2011    1889.9334   -1043.7204   -261.17016   -3118.2552 
 3920000    233.91401   -3973.8008   -3572.8801   -3973.8008            0    4039.1674    17.465517    20.572073    21.307891    7655.9654    5085.1564     3770.492     3261.854    239.37807    308.56098   -1534.6925   -3121.8893 
 3921000    227.70122   -3959.7706   -3569.4985   -3959.7706            0    2343.8739    17.622186    20.756608    21.499026     7863.845    1603.3423    1098.2077    4330.0718    814.05314    593.55016    -1405.909   -3300.6887 
 3922000    229.52466   -3972.3598   -3578.9624   -3972.3598            0    2297.8343    17.511993    20.626815    21.364591    7717.2455    1580.9752    4130.0294    1182.4981     1382.204   -1463.5622   -481.68707   -3320.3455 
 3923000    226.33488   -3970.1334   -3582.2032   -3970.1334            0    4148.1891    17.487405    20.597854    21.334594    7684.7852    3447.6629    3947.5344    5049.3702    459.08742    1060.1791   -3.7681177   -3117.2961 
 3924000    227.06973   -3976.8477   -3587.6579   -3976.8477            0    2875.8579    17.510514    20.625072    21.362786    7715.2902     1983.022    2627.0624    4017.4892   -521.79163   -1067.9731   -554.63704   -3264.0675 
 3925000     242.4494   -3989.0158   -3573.4658   -3989.0158            0    3540.9279    17.469446      20.5767    21.312683    7661.1329    4339.2057    1992.4931     4291.085    131.61918   -181.11856   -385.72057   -3177.8388 
 3926000    241.54378   -4010.8317   -3596.8339   -4010.8317            0    2986.5175    17.601363     20.73208    21.473621    7836.0006    2835.8906    1592.0192    4531.6428    563.75876   -420.03369    -1106.668   -3255.5346 
 3927000    235.24215    -3964.561    -3561.364    -3964.561            0    4369.0279    17.472551    20.580357    21.316471    7665.2181     5246.234    4400.6752    3460.1746    267.77153   -544.94272    377.67385   -3072.9532 
 3928000    238.87675   -3980.3771   -3570.9505   -3980.3771            0    3489.7996    17.504331     20.61779    21.355243    7707.1205    3770.2605    1758.6918    4940.4466   -452.18176   -158.65273   -1572.4079   -3178.6955 
 3929000    228.28425   -3975.4285   -3584.1571   -3975.4285            0    3362.2893    17.481818    20.591273    21.327778    7677.4219    3298.8268    3487.1369    3300.9041    -1033.494    31.739758   -249.11092   -3207.6906 
 3930000    218.14865   -3961.0286   -3587.1293   -3961.0286            0    619.26206    17.564209    20.688318    21.428294    7786.4838    153.99828    1270.1629    433.62496   -919.92838    896.18449   -515.69742   -3516.8072 
 3931000    235.07261   -3973.9258   -3571.0194   -3973.9258            0    4334.2704    17.454717    20.559351    21.294714    7641.7708    5417.6946    3518.6119    4066.5047    602.29566   -656.82169   -279.35992   -3087.9763 
 3932000    250.68801   -3982.9054   -3553.2347   -3982.9054            0    2953.4767    17.534647    20.653498    21.392229    7747.2341    3549.5108     2867.606    2443.3133   -1030.9077    759.81806   -209.43168   -3219.5348 
 3933000    221.62662   -3977.0885    -3597.228   -3977.0885            0    4268.9064    17.522475    20.639162    21.377379    7731.1121    4337.0246    3147.6379    5322.0567   -1153.3326   -646.01923   -992.03858   -3115.9074 
 3934000    228.16963   -3983.6874   -3592.6125   -3983.6874            0    5023.0917    17.477208    20.585842    21.322153    7671.3492    5204.2249    5922.6724    3942.3778    1714.8748   -572.77936   -893.85995   -3030.6352 
 3935000     241.9788   -3994.2273   -3579.4839   -3994.2273            0    2404.7743      17.5701    20.695257    21.435481    7794.3209    2276.5553    1440.7307    3497.0369   -98.816161    795.98814   -506.85139    -3306.128 
 3936000    236.42321   -3959.9449   -3554.7236   -3959.9449            0      2844.17    17.589983    20.718676    21.459738    7820.8116    3707.7378    2454.8522    2369.9198    484.57259   -320.67676    122.84783   -3230.3218 
 3937000    226.33712   -3995.5143   -3607.5802   -3995.5143            0    1929.6215    17.600357    20.730896    21.472395     7834.658    815.26187    3469.5699    1504.0329    623.60949    838.38896    604.00122   -3387.1008 
 3938000    249.75186   -3984.1571    -3556.091   -3984.1571            0    4335.5716    17.497643    20.609912    21.347083    7698.2892    2952.9541    4841.9004    5211.8604     16.37499    460.49216   -709.89243   -3069.3292 
 3939000    221.58503   -4010.5149   -3630.7257   -4010.5149            0     1815.692    17.545657    20.666466     21.40566     7761.836    484.49953    3262.4466    1700.1301   -535.49435    234.73009   -228.64037   -3425.1923 
 3940000    240.16232   -3971.4132   -3559.7832   -3971.4132            0    1857.2067    17.579041    20.705788    21.446389    7806.2261    702.39576    2075.0709    2794.1533   -310.20906   -409.98918   -469.97413    -3348.348 
 3941000    223.30718    -3957.475   -3574.7341    -3957.475            0     3006.258    17.533479    20.652123    21.390804    7745.6862    2864.3971    4053.9937    2100.3832    623.04843    502.59487    180.39305   -3235.1385 
 3942000    235.71352   -3972.5687   -3568.5637   -3972.5687            0    2351.9097    17.504847    20.618398    21.355873    7707.8025     1226.518    3697.0303    2132.1809    -814.2739    324.26122   -602.88695   -3304.1846 
 3943000     237.8297   -3990.0889   -3582.4569   -3990.0889            0    4778.6321    17.499839    20.612499    21.349762    7701.1881    4552.6447    5190.2711    4592.9804   -444.79674     -372.806    1835.7548     -3045.75 
 3944000    241.53054   -3973.2265   -3559.2514   -3973.2265            0    5051.5841    17.517949    20.633829    21.371856    7725.1216     5399.923    4273.2057    5481.6236   -510.38566   -1743.7606    1219.6802   -2990.1249 
 3945000    224.27325   -3983.0527    -3598.656   -3983.0527            0    1739.9884    17.623406    20.758045    21.500514    7865.4784     346.5844    1382.7414    3490.6394   -39.009005   -107.15738    -975.3029   -3399.0621 
 3946000    227.11067   -3988.4822   -3599.2223   -3988.4822            0    2770.8272    17.459366    20.564827    21.300386    7647.8788    3282.9038    3602.9018     1426.676    1306.3278   -465.84994   -456.42283    -3290.174 
 3947000    217.69621   -3969.8396   -3596.7157   -3969.8396            0    2040.2779    17.516347    20.631943    21.369902    7723.0029    2426.3554    3081.7098    612.76848   -1139.3381   -270.29258   -348.54357    -3366.915 
 3948000    241.18689   -3998.0044   -3584.6183   -3998.0044            0     2822.109    17.555937    20.678575    21.418202    7775.4879    404.19589    4904.4924    3157.6389    272.00651   -42.749932   -1214.8253   -3264.5981 
 3949000    237.04063   -3986.5588   -3580.2793   -3986.5588            0    2491.5618    17.556239    20.678931    21.418571    7775.8889    3145.9442    1046.2386    3282.5024    90.930314   -1071.3359   -989.54187   -3297.7278 
 3950000    227.27321   -3989.6241   -3600.0856   -3989.6241            0    3847.0792    17.481504    20.590902    21.327394    7677.0071    3993.2714    3212.4212    4335.5451    1074.5149   -404.30389   -598.21574   -3169.3617 
 3951000    223.81746   -3985.0918   -3601.4763   -3985.0918            0    3196.9478     17.55202    20.673962    21.413424    7770.2847    3386.8871    2117.2548    4086.7014    925.24172   -187.93603    104.94606    -3239.193 
 3952000    232.38596   -3985.4702   -3587.1686   -3985.4702            0    3950.1178     17.54736    20.668473    21.407739    7764.0976    2377.0721    4261.4426    5211.8386    106.07708     553.8697   -971.76584   -3139.8913 
 3953000    222.25159   -4002.0558   -3621.1242   -4002.0558            0    977.13067    17.588376    20.716784    21.457778    7818.6688    1396.9957    521.61756    1012.7787    476.48118   -287.83069   -792.65517   -3509.7047 
 3954000    221.80834   -3982.9326   -3602.7607   -3982.9326            0     2248.525    17.568739    20.693654     21.43382    7792.5098    3306.7332    2185.8331    1253.0087   -857.09012    159.74444    231.73647   -3347.2253 
 3955000     229.7722   -4015.9093   -3622.0876   -4015.9093            0    2015.2611    17.560095    20.683473    21.423275    7781.0139     3034.037    1573.4786    1438.2677    262.28648    207.27884   -778.99889   -3393.3996 
 3956000    227.05453   -4004.0213   -3614.8576   -4004.0213            0    2515.2289    17.516821    20.632501     21.37048    7723.6298    2910.8358    2952.1449    1682.7059   -396.27032   -644.22881   -630.88217   -3331.5392 
 3957000    231.80464   -3996.5442    -3599.239   -3996.5442            0    3507.9189    17.519039    20.635114    21.373186     7726.564     3514.086    3301.8472    3707.8234    1150.0662     -684.298   -1651.7082   -3203.9526 
 3958000     233.0408   -3981.3217   -3581.8977   -3981.3217            0    4017.1184    17.485194    20.595249    21.331896    7681.8705    3523.9867    3820.4058    4706.9627    594.21007   -475.90959   -1779.2107   -3131.8511 
 3959000      233.264   -4006.0284   -3606.2219   -4006.0284            0    3958.6422    17.475171    20.583443    21.319667    7668.6668    5112.9421    3028.0158    3734.9688   -200.55976    1891.5332    213.72797   -3163.4888 
 3960000    244.71261   -3989.0989   -3569.6699   -3989.0989            0    3119.3812    17.535071    20.653997    21.392745    7747.7957    5136.1029    1919.8067     2302.234    1194.0209   -349.59907   -127.35084   -3217.1996 
 3961000    242.92072    -4027.594   -3611.2362    -4027.594            0    2682.3928     17.50515    20.618755    21.356243    7708.2028    2525.3601    2656.5267    2865.2916    1351.9899   -1501.0001   -132.51076   -3309.6917 
 3962000    239.35166   -4007.3943   -3597.1537   -4007.3943            0    2698.9464     17.47633    20.584809    21.321082    7670.1935    1682.0729    2264.6539    4150.1123   -501.40771   -773.09683     -390.833   -3295.2444 
 3963000    249.76495   -4021.2311   -3593.1425   -4021.2311            0    3950.3808    17.458707    20.564051    21.299582    7647.0131    2430.2207    3735.7938    5685.1279   -395.14233   -38.814604    721.34798   -3152.5809 
 3964000    222.00991   -3987.8791   -3607.3617   -3987.8791            0     2411.715    17.433113    20.533904    21.268357     7613.431    2619.0948    2280.0361    2336.0142    371.29719    3.1832973    180.24209   -3339.5791 
 3965000    226.06682   -4048.9181   -3661.4473   -4048.9181            0    3795.1569    17.463062     20.56918    21.304894    7652.7364    2915.9147    3560.6837    4908.8725   -277.42781   -715.00702   -673.12966   -3237.8801 
 3966000    224.77429   -4010.4309   -3625.1754   -4010.4309            0    4105.0369    17.437499     20.53907    21.273708    7619.1787    2925.6179    5137.4298    4252.0629   -608.23273   -25.653085   -610.88868   -3169.0323 
 3967000    235.22492    -4035.482   -3632.3145    -4035.482            0    2811.5873    17.470655    20.578124    21.314158    7662.7235    2795.9336    3117.0244    2521.8037    824.28773    869.84593   -360.32138   -3318.1113 
 3968000    228.57294   -4001.1727   -3609.4065   -4001.1727            0     4276.734    17.457247    20.562331      21.2978    7645.0943    4764.7616    3424.0717    4641.3686   -853.94165    849.39174   -255.97091   -3132.5684 
 3969000    231.94668   -3995.4791   -3597.9305   -3995.4791            0    3068.2628    17.535951    20.655033    21.393819    7748.9619    3856.2654    3422.8928    1925.6303    844.14723   -1085.4258   -743.08774   -3251.1841 
 3970000    231.05317      -4027.7   -3631.6827      -4027.7            0    2203.5848    17.532342    20.650783    21.389416     7744.179    508.20499    4567.4577    1535.0918   -846.88967    57.522359   -443.46537   -3382.8079 
 3971000    246.13088   -4017.8541   -3595.9941   -4017.8541            0    1188.7227    17.501922    20.614952    21.352304    7703.9386    525.14552    264.34215    2776.6805    632.81664    313.74144    347.19743   -3462.4363 
 3972000    228.75186   -4012.9408   -3620.8679   -4012.9408            0    4552.0995    17.364508    20.453097    21.184659    7523.9005    3483.8488    4302.7082    5869.7415   -617.93112   -18.147202     893.0902   -3121.3734 
 3973000    231.44275   -4017.0428   -3620.3579   -4017.0428            0    2981.9339    17.374817    20.465239    21.197236    7537.3082    2285.5074    2588.6812     4071.613   -820.26556    351.94927   -1288.6254    -3292.572 
 3974000    233.53635   -4012.2177   -3611.9443   -4012.2177            0    1871.7543    17.469873    20.577203    21.313205     7661.695    1647.4011    1844.7727    2123.0892    110.08286     -184.942   -87.457948   -3402.7983 
 3975000    239.53186   -4049.6269   -3639.0775   -4049.6269            0     3755.466     17.44075    20.542899    21.277674    7623.4409    3899.6883    2877.6214    4489.0884    268.88756    1196.7996    830.38803   -3221.5445 
 3976000    233.30905   -4011.0466   -3611.1629   -4011.0466            0    1929.4466    17.535761     20.65481    21.393588    7748.7109    2022.7116    3857.4535   -91.825186   -656.47632   -405.84051   -1094.5327   -3393.1219 
 3977000    252.74788   -4001.9507   -3568.7495   -4001.9507            0    3357.3087    17.573441    20.699192    21.439557    7798.7683    4519.3613    3380.4874    2172.0774    -337.2628   -358.16246    262.49168   -3186.8991 
 3978000    236.05731   -4003.7625   -3599.1684   -4003.7625            0    2921.9916    17.506336    20.620151    21.357689    7709.7686    1239.2343    4191.8654    3334.8749    15.701518   -577.15357   -1231.0705   -3270.6224 
 3979000    237.31143   -3998.1069   -3591.3632   -3998.1069            0    3168.3804    17.442939    20.545478    21.280345    7626.3122    2280.1029    4692.2706    2532.7676   -244.53997     1077.001   -113.13428   -3238.9698 
 3980000    238.04663   -3990.6928   -3582.6891   -3990.6928            0    2600.9779    17.580955    20.708043    21.448724    7808.7766     664.3746    5026.9584    2111.6006   -431.12957   -202.22462    346.68758   -3286.4819 
 3981000    227.89988   -3972.4417   -3581.8291   -3972.4417            0    2034.6778    17.616425    20.749822    21.491998    7856.1353    976.37042     4238.928    888.73484    988.05538   -53.672933   -671.22648   -3348.7086 
 3982000    234.10236    -3998.697   -3597.4535    -3998.697            0    3530.8032    17.510803    20.625412    21.363138    7715.6718    2615.2663    4313.4302    3663.7132    447.49467    630.27449    4.9866838   -3200.1493 
 3983000    227.54405   -3980.0325   -3590.0298   -3980.0325            0    2869.7064    17.513894    20.629054     21.36691    7719.7588    2952.3127    2033.5484    3623.2583    1405.5401   -962.42672   -1140.9159   -3266.9446 
 3984000    237.38087   -3966.6815   -3559.8188   -3966.6815            0    3829.7976     17.46699    20.573807    21.309688    7657.9025    3358.7374    5006.7701    3123.8854    187.95642    1119.0277    1081.7075   -3132.0968 
 3985000    220.23785   -3980.0508   -3602.5707   -3980.0508            0     2265.075    17.566654    20.691198    21.431277    7789.7357    2420.0337    1791.7375    2583.4537    644.51687    444.81361   -1053.7361   -3345.2462 
 3986000    224.48092   -3964.3761   -3579.6235   -3964.3761            0    1207.9113    17.501589     20.61456    21.351898    7703.4988    2293.3911   -67.472832    1397.8156   -988.35094    415.49379   -462.61856   -3443.9175 
 3987000    241.77954   -3986.8765   -3572.4746   -3986.8765            0    4234.1859    17.433789    20.534701    21.269182    7614.3171    5482.9822    4596.0515    2623.5239   -1134.2871    445.15337    192.22595   -3102.2809 
 3988000    232.21169   -3969.0165   -3571.0136   -3969.0165            0    4711.3277    17.468619    20.575726    21.311675    7660.0452    5235.5267     4701.982    4196.4743     1453.553   -1222.6552   -971.30946   -3044.6928 
 3989000    219.79815   -3964.6505    -3587.924   -3964.6505            0    3410.3228    17.484348    20.594253    21.330864    7680.7551    3009.4731    4250.0735    2971.4219    131.38931   -247.75313   -131.74027   -3205.9135 
 3990000    229.36909   -3977.1873   -3584.0565   -3977.1873            0    2784.1401    17.518359    20.634313    21.372358    7725.6652     1591.728    3405.4857    3355.2066   -1320.1474   -633.81008   -536.99903   -3270.3649 
 3991000    223.03716   -3979.6029   -3597.3248   -3979.6029            0    3080.7752    17.470149    20.577527    21.313541    7662.0572    3220.5669    2799.7183    3222.0404   -793.82349   -922.71694    699.16397    -3253.069 
 3992000    231.55862    -3973.776   -3576.8925    -3973.776            0    4807.6237    17.445349    20.548316    21.283285    7629.4732     4979.426    3620.3635    5823.0816   -639.25205    219.46124    1153.1018   -3041.9576 
 3993000    234.43708    -3955.398   -3553.5809    -3955.398            0    2057.4333    17.554772    20.677203    21.416781    7773.9401    989.25596     2694.668    2488.3761   -302.98044   -318.02529    843.24855   -3320.3195 
 3994000    234.73419   -3978.5241   -3576.1977   -3978.5241            0    227.21977    17.543537    20.663969    21.403074    7759.0235    760.26377   -191.18048    112.57601    196.35307    -414.2995    1115.4983   -3550.4861 
 3995000    243.94247   -3981.2258   -3563.1168   -3981.2258            0    4156.6528    17.497139    20.609318    21.346468    7697.6237     3939.036    3205.3719    5325.5507    300.79482   -334.16724    -318.5529   -3096.4829 
 3996000     231.4806    -3981.196   -3584.4462    -3981.196            0    4022.1286    17.411069    20.507939    21.241463    7584.5858    2932.6764       3722.6    5411.1095   -413.28979   -63.942973    1006.7383   -3139.5448 
 3997000    227.67636   -3972.6751   -3582.4456   -3972.6751            0    3723.7114    17.448762    20.552337    21.287449    7633.9527    4249.2406    2794.8732    4127.0205     562.4364   -1600.5689    379.66131   -3167.8723 
 3998000    237.55704   -3953.1917   -3546.0271   -3953.1917            0    4150.4096    17.447773    20.551172    21.286243    7632.6549     4627.667    3595.3719    4228.1899    357.12498   -829.22628    136.13501   -3084.0266 
 3999000    225.49183   -3999.0264   -3612.5411   -3999.0264            0    3420.1263     17.44409    20.546834    21.281749    7627.8219     3839.761    4476.9557     1943.662    698.66932      571.404   -843.74956   -3232.0727 
 4000000     239.2802    -3972.426    -3562.308    -3972.426            0    2549.4378     17.50483    20.618378    21.355852    7707.7797     1702.863    3760.8554    2184.5952    626.82587   -1138.6113    -1308.463   -3275.7255 
Loop time of 430.914 on 64 procs for 250000 steps with 864 atoms

Performance: 100.252 ns/day, 0.239 hours/ns, 580.162 timesteps/s
99.0% CPU use with 64 MPI tasks x 1 OpenMP threads

MPI task timing breakdown:
Section |  min time  |  avg time  |  max time  |%varavg| %total
---------------------------------------------------------------
Pair    | 18.503     | 24.664     | 29.821     |  52.4 |  5.72
Bond    | 0.27457    | 0.28311    | 0.29689    |   1.0 |  0.07
Kspace  | 192.12     | 200.23     | 206.71     |  21.7 | 46.47
Neigh   | 3.9185     | 4.2161     | 4.5656     |  10.1 |  0.98
Comm    | 91.296     | 96.036     | 100.04     |  23.2 | 22.29
Output  | 1.3804     | 1.3813     | 1.3925     |   0.1 |  0.32
Modify  | 94.225     | 96.882     | 100.71     |  14.3 | 22.48
Other   |            | 7.222      |            |       |  1.68

Nlocal:        13.5000 ave          18 max           9 min
Histogram: 1 3 6 9 16 10 8 6 3 2
Nghost:        2085.06 ave        2133 max        2037 min
Histogram: 5 1 9 6 11 13 5 6 2 6
Neighs:        4008.69 ave        5528 max        2613 min
Histogram: 3 5 6 11 7 15 5 4 5 3

Total # of neighbors = 256556
Ave neighs/atom = 296.93981
Ave special neighs/atom = 2.0000000
Neighbor list builds = 10504
Dangerous builds = 0

unfix		3
unfix		2
unfix		1

write_data	data.final.${pid}
write_data	data.final.0
System init for write_data ...
PPPM initialization ...
  extracting TIP4P info from pair style
  using 12-bit tables for long-range coulomb (../kspace.cpp:340)
  G vector (1/distance) = 0.37328887
  grid = 24 24 25
  stencil order = 5
  estimated absolute RMS force accuracy = 0.0031814932
  estimated relative force accuracy = 9.5809722e-06
  using double precision FFTW3
  3d grid and FFT values/proc = 2730 288
Last active /omp style is kspace_style pppm/tip4p/omp
WARNING: Not all mixed pair coeffs generated from mixing. Use write_data with 'pair ij' option to store all pair coeffs. (../write_data.cpp:312)

write_restart   restart.lmp.${pid}
write_restart   restart.lmp.0
System init for write_restart ...
PPPM initialization ...
  extracting TIP4P info from pair style
  using 12-bit tables for long-range coulomb (../kspace.cpp:340)
  G vector (1/distance) = 0.37328887
  grid = 24 24 25
  stencil order = 5
  estimated absolute RMS force accuracy = 0.0031814932
  estimated relative force accuracy = 9.5809722e-06
  using double precision FFTW3
  3d grid and FFT values/proc = 2730 288
Last active /omp style is kspace_style pppm/tip4p/omp
Total wall time: 0:07:12
