LAMMPS (30 Jul 2021)
Processor partition = 1
  using 2 OpenMP thread(s) per MPI task
using multi-threaded neighbor list subroutines
variable        pid world 0 1
variable        phase world IceIII Liquid

shell cd ${phase}
shell cd Liquid
include Restart.lmp
echo both
log log.lammps
#include		in.partitions
include		in.temp
variable        temperature equal 256.86
variable	tempDamp equal 100.0
include		in.pressure
variable        pressure equal 9750.0
variable        pressureDamp equal 1000.0 # This is 1 ps
include		in.seed
variable        seed equal 745823

units		real
atom_style	full
read_restart	restart.lmp.${pid}
read_restart	restart.lmp.1
Reading restart file ...
  restart file = 30 Jul 2021, LAMMPS = 30 Jul 2021
  restoring atom style full from restart
  orthogonal box = (0.62667451 1.8296711 0.76454144) to (17.580898 21.799507 21.448654)
  2 by 4 by 4 MPI processor grid
  restoring pair style lj/cut/tip4p/long/omp from restart
  restoring bond style harmonic/omp from restart
  restoring angle style harmonic/omp from restart
  864 atoms
  576 bonds
  288 angles
Finding 1-2 1-3 1-4 neighbors ...
  special bond factors lj:    0        0        0       
  special bond factors coul:  0        0        0       
     2 = max # of 1-2 neighbors
     1 = max # of 1-3 neighbors
     1 = max # of 1-4 neighbors
     2 = max # of special neighbors
  special bonds CPU = 0.002 seconds
  read_restart CPU = 0.008 seconds
include 	in.setup
variable	out_freq equal 1000
variable	out_freq2 equal 10000
variable	out_freq3 equal 1000

timestep	2.0

neigh_modify    delay 7 every 1

include		in.tip4p
# This is TIP4P/Ice

# create groups ###
group ox type 2
288 atoms in group ox
group hy type 1
576 atoms in group hy

# set charges - beside manually ###
set group ox charge -1.1794
Setting atom values ...
  288 settings made for charge
set group hy charge 0.5897
Setting atom values ...
  576 settings made for charge

# ### TIP3P Potential Parameters ###
pair_style lj/cut/tip4p/long/omp 2 1 1 1 0.1577 8.5
pair_coeff 1 1*2 0.000 0.000
pair_coeff 2 2 0.21084 3.1668
bond_style  harmonic
bond_coeff  1 450 0.9572
angle_style harmonic
angle_coeff 1 55 104.52
kspace_style pppm/tip4p/omp 1.0e-5
pair_modify tail yes

thermo          ${out_freq}
thermo          1000
thermo_style    custom step temp pe etotal epair emol press lx ly lz vol pxx pyy pzz pxy pxz pyz enthalpy

restart 	${out_freq3} restart.lmp.${pid} restart2.lmp.${pid}
restart 	1000 restart.lmp.${pid} restart2.lmp.${pid}
restart 	1000 restart.lmp.1 restart2.lmp.${pid}
restart 	1000 restart.lmp.1 restart2.lmp.1


include         in.dump
dump            myDump all atom ${out_freq2} dump.water.${pid}
dump            myDump all atom 10000 dump.water.${pid}
dump            myDump all atom 10000 dump.water.1
dump            myDump2 all dcd ${out_freq2} dump.dcd
dump            myDump2 all dcd 10000 dump.dcd
dump_modify     myDump append yes
dump_modify     myDump2 append yes


variable natoms 	equal  "count(all)"                        # NUMBER ATOMS
variable H      	equal  "enthalpy/v_natoms"                 # ENTHALPY-per-atom
variable Vol      	equal  "vol/v_natoms"                 # volume-per-atom
fix AVG all 		ave/time ${out_freq} 1 ${out_freq} v_Vol v_H file vol_enthalpy.dat
fix AVG all 		ave/time 1000 1 ${out_freq} v_Vol v_H file vol_enthalpy.dat
fix AVG all 		ave/time 1000 1 1000 v_Vol v_H file vol_enthalpy.dat


timer           timeout 23:50:00 every 1000
New timer settings: style=normal  mode=nosync  timeout=23:50:00

fix 		1 all shake 1e-6 200 0 b 1 a 1
Finding SHAKE clusters ...
       0 = # of size 2 clusters
       0 = # of size 3 clusters
       0 = # of size 4 clusters
     288 = # of frozen angles
  find clusters CPU = 0.000 seconds
fix             2 all nph iso ${pressure} ${pressure} ${pressureDamp}
fix             2 all nph iso 9750 ${pressure} ${pressureDamp}
fix             2 all nph iso 9750 9750 ${pressureDamp}
fix             2 all nph iso 9750 9750 1000
fix             3 all temp/csvr ${temperature} ${temperature} ${tempDamp} ${seed}
fix             3 all temp/csvr 256.86 ${temperature} ${tempDamp} ${seed}
fix             3 all temp/csvr 256.86 256.86 ${tempDamp} ${seed}
fix             3 all temp/csvr 256.86 256.86 100 ${seed}
fix             3 all temp/csvr 256.86 256.86 100 745823

run             250000
PPPM initialization ...
  extracting TIP4P info from pair style
  using 12-bit tables for long-range coulomb (../kspace.cpp:340)
  G vector (1/distance) = 0.3743625
  grid = 24 24 24
  stencil order = 5
  estimated absolute RMS force accuracy = 0.0031495091
  estimated relative force accuracy = 9.4846532e-06
  using double precision FFTW3
  3d grid and FFT values/proc = 3549 432
Last active /omp style is kspace_style pppm/tip4p/omp
Neighbor list info ...
  update every 1 steps, delay 7 steps, check yes
  max neighbors/atom: 2000, page size: 100000
  master list distance cutoff = 10.8154
  ghost atom cutoff = 10.8154
  binsize = 5.4077, bins = 4 4 4
  1 neighbor lists, perpetual/occasional/extra = 1 0 0
  (1) pair lj/cut/tip4p/long/omp, perpetual
      attributes: half, newton on, omp
      pair build: half/bin/newton/omp
      stencil: half/bin/3d
      bin: standard
Setting up Verlet run ...
  Unit style    : real
  Current step  : 31000000
  Time step     : 2
  Walltime left : 23:49:59.92
Per MPI rank memory allocation (min/avg/max) = 10.19 | 10.20 | 10.20 Mbytes
Step Temp PotEng TotEng E_pair E_mol Press Lx Ly Lz Volume Pxx Pyy Pzz Pxy Pxz Pyz Enthalpy 
31000000     256.2904   -3837.2043   -3397.9313   -3837.2043            0    8106.3448    16.954223    19.969836    20.684113    7003.0833    6009.0501    8945.8014     9364.183    494.39497   -191.79683   -478.81564   -2570.0077 
31001000    258.66348    -3874.366   -3431.0257    -3874.366            0    9597.4577    16.921605    19.931415    20.644318    6962.7407      9125.94    10592.073    9074.3597   -376.27592    833.77741    353.29796   -2456.4573 
31002000    263.17135    -3875.668   -3424.6013    -3875.668            0    10109.698    16.914583    19.923145    20.635752     6954.077    10053.217    10274.366    10001.511    37.455756    321.00685   -1666.0071   -2399.2952 
31003000    265.69531   -3883.3135   -3427.9208   -3883.3135            0     8272.159    16.960836    19.977625     20.69218    7011.2808    9501.6858    8571.6984    6743.0929    245.28844   -254.14111   -1455.6329   -2582.0732 
31004000    243.97913   -3892.1218   -3473.9499   -3892.1218            0       7635.9    16.908951    19.916511    20.628881    6947.1329    6739.9442    8805.9274    7361.8285     1012.673    1231.8247    489.01563   -2700.3049 
31005000    256.67824   -3857.9196   -3417.9819   -3857.9196            0     9008.735    16.872191    19.873212    20.584034    6901.9218    10302.188    7908.9635    8815.0537    810.58796    1555.9384   -47.928851   -2511.1856 
31006000    256.45105   -3847.1461   -3407.5977   -3847.1461            0    9860.5932    16.842976    19.838801    20.548392    6866.1311    12992.519    6631.6673    9957.5936   -694.77867   -918.21594   -566.90386   -2420.2025 
31007000    257.95697   -3906.1594     -3464.03   -3906.1594            0    8854.6911    16.924929    19.935331    20.648374    6966.8457    10549.279    8894.0654    7120.7288     450.5633    1865.8869    693.68134   -2564.3553 
31008000    255.30477   -3884.0758   -3446.4922   -3884.0758            0    10112.992    16.892328    19.896932    20.608601    6926.6642    11377.153    9309.4566    9652.3678   -206.27356   -479.85405    984.49197    -2424.895 
31009000    279.22743   -3885.4446   -3406.8583   -3885.4446            0    12067.798    16.831081     19.82479     20.53388    6851.5943    10894.775     10950.89    14357.728   -668.34325   -100.34614    2308.3295    -2201.002 
31010000    250.17213   -3871.4515    -3442.665   -3871.4515            0     10246.71    16.933236    19.945115    20.658508    6977.1081    11070.988    10640.485    9028.6554    288.02331    441.97927   -82.890873   -2400.0217 
31011000     260.3316   -3878.4417   -3432.2422   -3878.4417            0    9714.4147    16.865669    19.865531    20.576077    6893.9215    9773.3303     10400.05    8969.8638    457.08878    615.82896   -386.66575   -2455.5475 
31012000    271.84057   -3835.5467   -3369.6213   -3835.5467            0    10344.535    16.865853    19.865747    20.576301    6894.1469    10229.025    12841.628    7962.9515    1441.0513    158.22556    -674.8147   -2329.5397 
31013000    268.37687    -3868.098   -3408.1092    -3868.098            0    7465.9245    16.995294    20.018211    20.734219    7054.1004    8258.2356    6064.5351    8075.0027   -186.08945    1704.2389    290.91589   -2640.0386 
31014000    266.39122   -3901.9622   -3445.3768   -3901.9622            0    10290.126    16.851989    19.849417    20.559387    6877.1594    11162.333    11155.032     8553.013    1889.9191     64.39693     1390.875   -2413.3151 
31015000    252.31599   -3839.0264   -3406.5654   -3839.0264            0    11123.082    16.836972    19.831729    20.541067    6858.7909    12746.552    8778.9737     11843.72    58.308518    249.89807   -1481.3304    -2293.941 
31016000    253.03447   -3838.5686   -3404.8762   -3838.5686            0     10945.34    16.877178    19.879086    20.590117    6908.0434    12387.672    9778.9331    10669.414    93.553628   -1615.4241   -167.93162   -2302.1691 
31017000    255.58544   -3845.3292   -3407.2645   -3845.3292            0    11437.041    16.874092    19.875452    20.586353    6904.2552    10866.354    11970.152    11474.616   -1208.9107    915.03924   -338.12908    -2255.652 
31018000    254.69344   -3910.2792   -3473.7434   -3910.2792            0    8537.3906     16.96302    19.980197    20.694845    7013.9898    8651.8578    10408.381    6551.9326   -1326.1855    577.06761    1196.3431   -2600.4379 
31019000    263.72504   -3901.0128   -3448.9971   -3901.0128            0    9606.7911    16.938607    19.951442    20.665062    6983.7502    9472.8813    8150.2762    11197.216   -822.16259   -250.37104    1377.2258   -2470.5374 
31020000     244.9435   -3869.9975   -3450.1727   -3869.9975            0    10957.622    16.839403    19.834592    20.544032    6861.7617    8312.3228    12166.991    12393.551   -144.20967    422.62545     -93.6718   -2353.6243 
31021000    262.12035    -3875.129   -3425.8637    -3875.129            0    11225.029    16.818873    19.810411    20.518986    6836.6961    11953.049    10661.909     11060.13    2402.0591   -331.48011    844.77691   -2306.6587 
31022000    266.53221   -3861.0476   -3404.2205   -3861.0476            0    8616.2903    16.861364     19.86046    20.570825    6888.6433    7955.5456    8703.3505    9189.9747    172.48736   -116.83216    1354.4859   -2538.5953 
31023000    249.47887   -3889.5581   -3461.9599   -3889.5581            0    10911.869    16.856361    19.854567    20.564721    6882.5137    9375.1042    11764.751    11595.754   -513.86766   -198.51035   -2063.0503   -2366.6875 
31024000    273.91859   -3868.9388   -3399.4517   -3868.9388            0    8218.8665    16.925522    19.936029    20.649097    6967.5775    8126.2565    8961.3669    7568.9761   -159.85479    2715.6068   -980.00073   -2564.2919 
31025000    261.25111   -3878.2714   -3430.4959   -3878.2714            0    8133.1436    16.909402    19.917042    20.629431    6947.6884    7505.6317    8410.6678    8483.1314    -971.9703    71.499259     371.0905   -2606.4059 
31026000    264.77446   -3864.2209   -3410.4065   -3864.2209            0    8832.9037    16.872898    19.874045    20.584896    6902.7891    8738.1052    9628.7928    8131.8131    122.96102   -1072.6824    2086.8661   -2521.1973 
31027000    274.42405   -3886.1887   -3415.8352   -3886.1887            0    9981.6408    16.832694     19.82669    20.535848    6853.5644    9354.1788     10040.36    10550.384   -958.34156    280.73649   -352.53104   -2418.1482 
31028000    246.86431   -3891.3892   -3468.2722   -3891.3892            0    8331.5948    16.911399    19.919394    20.631867    6950.1502     9154.813    8431.9519    7408.0195    154.60396   -2107.5497   -92.749564    -2623.775 
31029000    250.66275   -3899.9626   -3470.3352   -3899.9626            0    9704.0308    16.890018     19.89421    20.605782    6923.8225    10677.311    9059.7369    9375.0448   -279.57674   -312.87434    1853.9203   -2490.4528 
31030000     247.7329   -3831.7152   -3407.1095   -3831.7152            0    7850.1829     16.90274    19.909195    20.621304    6939.4801     8141.983    8107.7626    7300.8031   -394.08957   -216.58656    1110.4482   -2612.6302 
31031000    267.79133   -3850.7598   -3391.7747   -3850.7598            0    9171.9512     16.89226    19.896851    20.608517    6926.5796    8277.8706    8939.3021    10298.681   -994.15541   -1355.1906    319.65781   -2465.2511 
31032000    252.40623   -3832.0244   -3399.4087   -3832.0244            0    10610.032    16.861381    19.860479    20.570845    6888.6637    12084.553    10196.297    9549.2479   -1470.4555   -272.86704    2227.2983   -2333.4814 
31033000    256.46274   -3888.9162   -3449.3479   -3888.9162            0    9884.8457     16.90712    19.914355    20.626647    6944.8765     7924.898    12331.584    9398.0553    -634.6061    1058.9125    2811.5852   -2448.1721 
31034000    247.36124   -3883.0797    -3459.111   -3883.0797            0    10907.459    16.842286    19.837988    20.547549    6865.2867    12110.097    7674.5644    12937.714    92.588335    242.26874   -167.17202   -2367.0218 
31035000    240.42057   -3863.1727      -3451.1   -3863.1727            0    10929.349    16.794558     19.78177    20.489321    6807.0868    11356.947    9643.1938    11787.907     1579.672   -532.38347    1747.5342   -2366.0957 
31036000    258.25547   -3899.7319   -3457.0909   -3899.7319            0    9640.1119    16.887282    19.890987    20.602444    6920.4578    9369.6522    10533.543    9017.1404    130.09319    -24.96596     320.7336   -2484.1358 
31037000    265.98686   -3879.1675   -3423.2752   -3879.1675            0    8763.3222    16.901241    19.907429    20.619474    6937.6336    9502.3689    8002.6031    8784.9945    1152.8548    289.97024   -1134.6876   -2536.6174 
31038000    259.65638   -3899.4436   -3454.4015   -3899.4436            0    9987.6601    16.950704     19.96569    20.679819     6998.723    10267.052     10043.44    9652.4888    231.39395   -1446.4167    1198.6275    -2434.969 
31039000    250.14895   -3860.2072   -3431.4604   -3860.2072            0    11723.509    16.838643    19.833697    20.543105    6860.8334    10835.001    13238.293    11097.233   -718.86926   -335.54654    1024.4806    -2258.427 
31040000    244.88652   -3850.3143   -3430.5871   -3850.3143            0    10477.587    16.873853    19.875169    20.586061    6903.9611    9203.9795    8382.6963    13846.087   -848.86819    -640.4105    -744.6577   -2375.6283 
31041000    257.18421    -3878.608   -3437.8031    -3878.608            0    8716.0769    16.953028    19.968428    20.682655    7001.6027    9459.4616    8185.8167    8502.9525    1731.4461   -744.02593    523.64681   -2547.7941 
31042000    254.08597   -3884.5552   -3449.0606   -3884.5552            0    10080.218     16.89401    19.898912    20.610652    6928.7327    8936.5204    10419.699    10884.433    302.04632   -1155.9397      800.728   -2430.4701 
31043000    254.69366    -3858.509   -3421.9727    -3858.509            0    7873.5807    16.947679    19.962127    20.676129    6994.9768    7173.8415    7864.8315    8582.0691    708.48361   -67.933337    1166.8999   -2618.7529 
31044000    261.59526   -3852.0241   -3403.6588   -3852.0241            0    10725.712    16.829556    19.822994    20.532019    6849.7318    11284.284     10573.66     10319.19   -729.37629   -839.72609    734.29917   -2332.1997 
31045000    249.65427   -3896.6318    -3468.733   -3896.6318            0    10339.491     16.79986    19.788016     20.49579    6813.5365    10515.562    12139.738    8363.1728    1367.7058    412.23218   -472.38153   -2441.3138 
31046000    266.54844   -3900.9646   -3444.1097   -3900.9646            0    9302.9788     16.91835    19.927582    20.640348     6958.724     9589.319    9359.4513    8960.1661   -1.9661662    558.73871   -1035.3407    -2499.989 
31047000    255.85548   -3897.3021   -3458.7745   -3897.3021            0    9859.8765    16.867775    19.868011    20.578646    6896.5039    12422.842    7515.6958    9641.0921   -994.28334    826.51897    255.80787   -2467.0836 
31048000    266.56089   -3921.5638   -3464.6876   -3921.5638            0     9385.903    16.930259    19.941609    20.654877    6973.4296    9925.9625    8161.0985    10070.648   -2809.7579    1215.3269    435.11399   -2510.1383 
31049000    260.00898   -3873.4659   -3427.8194   -3873.4659            0    8412.7474    16.943881    19.957653    20.671495    6990.2748    8029.3531    8388.2728    8820.6161    346.85994   -915.70354    2619.3403   -2570.1736 
31050000    253.03501   -3877.0784   -3443.3851   -3877.0784            0    11696.637    16.812822    19.803283    20.511603    6829.3194    10620.119    12222.275    12247.518    88.572843     90.29779    21.468075   -2278.4162 
31051000    263.11941   -3861.7478   -3410.7701   -3861.7478            0    10382.547    16.885781     19.88922    20.600614    6918.6137    12938.328    7163.3426    11045.971    2229.1086   -1575.2758    843.11211   -2363.1619 
31052000    264.49467   -3929.3609   -3476.0261   -3929.3609            0    9091.6519    16.952927    19.968309    20.682532    7001.4775    9116.2107    9858.5678    8300.1771    854.15557    700.29052    1347.7759   -2547.6833 
31053000    258.00251   -3923.3253   -3481.1178   -3923.3253            0    9787.2095    16.936835    19.949354    20.662899    6981.5581    9520.3009    8173.3981     11667.93    1651.8346   -619.98014    2181.1114   -2484.5952 
31054000    265.47586    -3895.729   -3440.7125    -3895.729            0    8723.2649    16.979756     19.99991    20.715262    7034.7701    9731.9501    7523.0817    8914.7629    996.27065    135.87778   -474.75243   -2545.7499 
31055000    265.99105   -3921.2842   -3465.3846   -3921.2842            0    8142.0419    16.958203    19.974524    20.688968    7008.0163     10301.16    7657.9814    6466.9844   -86.585212    1011.4593    1285.6803   -2633.2294 
31056000    260.46861   -3867.3129   -3420.8786   -3867.3129            0    8316.0701    16.922695    19.932699    20.645648    6964.0864     6630.095     9454.617    8863.4983    244.27512    411.71021   -1152.1395   -2576.2648 
31057000    261.39103   -3898.0603    -3450.045   -3898.0603            0    10503.263    16.895099    19.900195    20.611982    6930.0736    11463.184    13495.603    6551.0007    1087.9626    230.31117    50.379312   -2388.5011 
31058000    253.96252   -3875.2887   -3440.0057   -3875.2887            0    9009.4479    16.886499    19.890065    20.601489    6919.4954    7389.2561    9558.3458    10080.742    1834.4235    833.14789    622.44713   -2530.8286 
31059000    260.15981   -3871.4206   -3425.5156   -3871.4206            0    11006.863    16.879253     19.88153    20.592649    6910.5915     12179.64    10819.092    10021.858   -464.94554   -1034.0615    803.74286   -2316.2011 
31060000    242.98615   -3892.9791   -3476.5091   -3892.9791            0    10417.854    16.861218    19.860288    20.570647    6888.4645    10760.409    12271.537     8221.617    3591.1942   -284.51155   -889.79069   -2429.9191 
31061000    239.51422   -3865.2544   -3454.7352   -3865.2544            0    7841.2827    16.959392    19.975923    20.690418    7009.4897    8284.2243    9407.8187    5831.8051   -722.98426   -12.241003   -136.75365   -2653.1505 
31062000    254.97759   -3862.3267   -3425.3038   -3862.3267            0    8639.0619    16.952546     19.96786    20.682066    7001.0049     9737.824     10037.64    6141.7216    1104.1997   -568.80807    -1811.881   -2543.2342 
31063000    271.99681   -3887.0305   -3420.8373   -3887.0305            0    10504.404    16.913189    19.921503    20.634051    6952.3576    10715.224    9914.8043    10883.184    93.941507   -327.85788   -1295.7868   -2355.7642 
31064000    260.11717   -3898.2995   -3452.4676   -3898.2995            0    10267.515    16.891896    19.896423    20.608074    6926.1328     13881.25    8819.7312    8101.5646   -559.89522    993.92498    1150.8718   -2415.3403 
31065000    247.53495   -3896.9879   -3472.7214   -3896.9879            0    8493.5824    16.907411    19.914697    20.627002    6945.2346    7581.7708    9804.4317    8094.5447   -993.43985   -736.83854    498.43588   -2612.4139 
31066000    273.35801   -3880.6614   -3412.1351   -3880.6614            0    8398.7785    16.860767    19.859757    20.570096    6887.9118    8715.5477    7359.4125    9121.3752    1686.1201    383.58047    1171.1398   -2568.4515 
31067000    249.00686   -3912.9116   -3486.1223   -3912.9116            0    8248.7615    16.921478    19.931266    20.644163    6962.5839    6860.2626    9050.3768    8835.6452   -1120.0803    1021.3825   -1542.7988   -2648.5254 
31068000    261.71306   -3898.7511   -3450.1839   -3898.7511            0    9841.9961    16.860585    19.859542    20.569874    6887.6888    9643.4353    9007.0475    10875.506    -97.05523    88.997823    870.88779   -2461.5566 
31069000    251.72245   -3926.4731   -3495.0295   -3926.4731            0    10564.481    16.880977    19.883561    20.594753    6912.7099    11879.166    8969.1446    10845.133   -1313.0456   -1058.8034    482.92538   -2429.9736 
31070000    264.22389   -3881.7123   -3428.8415   -3881.7123            0    12611.364    16.810625    19.800695    20.508923    6826.6422    12170.503    11956.026    13707.563    -41.97248    760.64535    371.58382   -2173.2595 
31071000    261.58902   -3879.5673   -3431.2127   -3879.5673            0    10379.803     16.82311    19.815402    20.524155    6841.8642    10877.511    11458.291    8803.6065    967.96786    1016.5096   -1069.4159   -2395.4996 
31072000    275.83261   -3847.7927    -3375.025   -3847.7927            0    8764.9984    16.875785    19.877445    20.588418    6906.3329    7423.3108    9459.7246    9411.9597    619.34544   -3183.7619    -101.2642   -2492.1988 
31073000    247.95037   -3908.8067   -3483.8283   -3908.8067            0    11685.994    16.739563    19.716994    20.422227    6740.4349    11283.654    13285.112    10489.215   -76.257768   -369.49212    474.20364   -2335.0679 
31074000    263.37709   -3931.0455   -3479.6262   -3931.0455            0     7431.848    16.891849    19.896367    20.608016    6926.0743    5756.0701    8278.8174    8260.6565   -273.93525   -1787.9222   -710.93241   -2728.9375 
31075000    259.00889   -3905.2518   -3461.3194   -3905.2518            0    9492.4822    16.827717    19.820828    20.529775    6847.4863    10072.585    10248.814    8156.0479      1665.67   -673.13041   -171.66971   -2513.3663 
31076000    261.57596   -3916.6073    -3468.275   -3916.6073            0    8918.6612    16.897846    19.903431    20.615333    6933.4543    9219.8826    10101.754    7434.3475   -1267.4836   -94.149845    313.12708   -2566.4439 
31077000    255.73504   -3917.7071    -3479.386   -3917.7071            0    11880.812    16.848812    19.845676    20.555512    6873.2712    12888.801    9865.1975    12888.439    984.38883   -1336.3797   -669.64317    -2288.458 
31078000    274.09537    -3866.001   -3396.2109    -3866.001            0    10148.263     16.83683    19.831562    20.540894    6858.6177    9006.5878    9870.8442    11567.357   -19.750492    153.86638   -348.53016   -2381.1217 
31079000     251.1588   -3895.2727   -3464.7951   -3895.2727            0    9282.3991    16.884701    19.887947    20.599295    6917.2853    9345.7194    9178.6179      9322.86   -507.78765    927.83125   -130.40534   -2528.3727 
31080000    268.53922   -3853.1166   -3392.8495   -3853.1166            0    8902.6749    16.832359    19.826296    20.535439     6853.155    11288.058    7510.2759    7909.6912   -2482.8779    161.99388    -1550.341   -2503.0607 
31081000    268.41753   -3897.3726   -3437.3141   -3897.3726            0      11292.3    16.785498      19.7711    20.478269    6796.0774     10780.15     10769.11     12327.64     -925.666   -1523.7543    40.748159   -2318.0911 
31082000    250.61184   -3901.6524   -3472.1123   -3901.6524            0    10130.781    16.841156    19.836657    20.546171    6863.9054    9651.1958    12329.268    8411.8781    503.32449   -2411.8105    823.57796   -2457.9905 
31083000    256.54483    -3906.969   -3467.2599    -3906.969            0    10873.031    16.864862    19.864579    20.575092     6892.931    11918.942    11519.392    9180.7576   -2349.5379   -782.00243   -217.79156   -2374.2341 
31084000    267.37211   -3869.4789   -3411.2123   -3869.4789            0    11145.077    16.869447     19.86998    20.580686    6898.5547    13417.682    10950.226    9067.3238    1687.6166   -790.31571   -199.41513   -2289.9245 
31085000    265.62811   -3907.4149   -3452.1374   -3907.4149            0    7069.5986    16.913903    19.922343    20.634922    6953.2374    7291.9855    8074.1415    5842.6686   -2101.4836   -921.01533   -1585.3969   -2735.2389 
31086000    252.26126   -3879.9641   -3447.5969   -3879.9641            0    7866.3683    16.903966     19.91064      20.6228    6940.9906    9638.4128    6666.1256    7294.5665    660.21452   -471.49805    1476.0044   -2651.3062 
31087000    260.22607   -3891.8108   -3445.7922   -3891.8108            0    10276.032    16.848412    19.845203    20.555023    6872.7805     10214.24    8889.0812    11724.773    471.07358   -94.941718    108.46671   -2415.8003 
31088000    260.30835   -3872.8019   -3426.6423   -3872.8019            0    9297.7137    16.928698    19.939771    20.652972    6971.5009    8428.8304    9749.0487    9715.2618   -555.57666   -525.09923   -344.58516   -2481.3234 
31089000    241.00682   -3896.8992   -3483.8218   -3896.8992            0    11477.897    16.824675    19.817245    20.526064    6843.7734     11244.23    11976.276    11213.184   -1702.6903    817.22395    991.27464   -2338.2196 
31090000    258.67932   -3919.9552   -3476.5877   -3919.9552            0    10175.856    16.909515    19.917175    20.629568    6947.8273    10695.031    9049.0093    10783.528    940.40246    573.09075   -518.14682   -2445.4994 
31091000    247.46286   -3904.9619    -3480.819   -3904.9619            0     12477.53     16.79539    19.782751    20.490337    6808.0994    13524.639    10204.569    13703.381    655.47493     424.9309   -1967.1468   -2241.9358 
31092000    268.87776   -3910.1059   -3449.2587   -3910.1059            0    10006.375     16.87165    19.872575    20.583374    6901.2581    10316.273    8915.5548    10787.298   -564.09445    1042.4607   -1378.6969   -2442.1393 
31093000    248.84561   -3896.8238    -3470.311   -3896.8238            0    10042.796    16.835592    19.830103    20.539382     6857.104    9204.2267    10956.059    9968.1005   -252.05433    675.67875    128.95988    -2465.993 
31094000    260.06435    -3908.756   -3463.0146    -3908.756            0    7705.1093    16.821205    19.813158    20.521831    6839.5406    7136.5857      8207.32    7771.4222    566.88558    860.96093   -386.43387   -2694.4478 
31095000    255.39889   -3899.1832   -3461.4382   -3899.1832            0    9568.6374    16.819297     19.81091    20.519503    6837.2131    9621.7265    9683.6558      9400.53   -49.118089   -53.151917   -1116.5247   -2507.3136 
31096000    264.78182   -3878.0267   -3424.1997   -3878.0267            0    10446.451    16.846217    19.842619    20.552346    6870.0957    10970.921     10454.03    9914.4022    886.79796   -823.07757   -1261.4145   -2377.5353 
31097000    259.43241   -3888.8409   -3444.1826   -3888.8409            0    8369.2958    16.830647    19.824279     20.53335    6851.0637    9522.3064    9396.0817    6189.4992   -1645.2643    1253.2993   -844.00358   -2607.9582 
31098000    246.68701   -3915.7883   -3492.9752   -3915.7883            0    8328.6244    16.847808    19.844492    20.554286    6872.0419    7471.4805     9237.257    8277.1357   -228.44486   -134.05808    858.20824   -2658.2665 
31099000     256.3271   -3894.4076   -3455.0718   -3894.4076            0     7571.683    16.855301    19.853318    20.563428    6881.2148    5840.6168    8336.5829    8537.8492   -1361.0721    619.17059    356.00764    -2695.212 
31100000    259.97087   -3921.6224   -3476.0412   -3921.6224            0    9597.3954    16.821939    19.814022    20.522726    6840.4353    10401.811     9532.197    8858.1779   -140.54984     1254.257   -1297.6185    -2518.598 
31101000     255.8843   -3920.0317   -3481.4548   -3920.0317            0    10405.024     16.81328    19.803823    20.512162    6829.8778    9088.1899    11290.047    10836.835    1068.3082    -921.3318   -850.90926    -2445.044 
31102000    250.98334    -3856.982   -3426.8051    -3856.982            0    10049.698    16.880751    19.883294    20.594476    6912.4316    9327.8262    10283.516    10537.751     226.6774   -404.87981    254.75223   -2413.6878 
31103000    262.92012   -3878.0062   -3427.3701   -3878.0062            0    10231.495    16.878726     19.88091    20.592006    6909.9448    9260.5339    11608.345    9825.6057   -40.638459   -1012.2351    574.60782   -2396.2968 
31104000    260.04905   -3917.2771   -3471.5619   -3917.2771            0    8845.8301    16.831621    19.825426    20.534538    6852.2531    7953.3089     10102.67    8481.5113    1645.5675    1474.4986   -70.341833   -2587.5709 
31105000    275.29916   -3925.5469   -3453.6935   -3925.5469            0    8218.6754    16.869262    19.869762     20.58046     6898.328    9249.3476     8000.448    7406.2305    1799.4116   -1743.4874   -594.41444   -2626.8534 
31106000    251.59657   -3914.6927   -3483.4648   -3914.6927            0    9788.0826    16.799519    19.787614    20.495374    6813.1215    8302.5465    10529.643    10532.058    -342.7305    194.71257   -1339.6566   -2510.8975 
31107000    242.90106   -3908.9973   -3492.6732   -3908.9973            0    9315.2378       16.874    19.875343    20.586241    6904.1422     8788.182    10482.995    8674.5364   -568.99785    1183.1662    1115.1986   -2554.7235 
31108000    256.40568   -3882.0709   -3442.6004   -3882.0709            0    9685.3601    16.899926     19.90588     20.61787    6936.0143    10021.374    10300.568    8734.1384   -1495.3221   -640.79942   -84.261496   -2462.8811 
31109000    260.12028   -3896.0304   -3450.1931   -3896.0304            0     10567.14    16.824211    19.816698    20.525498    6843.2073    10569.428    10215.056    10916.937   -768.00445   -291.14239   -1562.7356   -2395.5803 
31110000    249.05025   -3883.5104   -3456.6468   -3883.5104            0    10864.791    16.846708    19.843197    20.552945    6870.6966    10864.201    13437.412    8292.7597   -1728.5781   -449.67206    28.810845   -2367.9723 
31111000    259.59082    -3896.314   -3451.3843    -3896.314            0    9628.9353    16.875622    19.877254    20.588219    6906.1332    8438.9963    9372.3208    11075.489   -60.875169    1295.6858     574.3601   -2481.5688 
31112000    254.26725    -3894.845   -3459.0397    -3894.845            0    8874.2913    16.899087    19.904893    20.616847     6934.982    10394.036     7993.411    8235.4264    11.269495   -349.37953   -307.72055   -2561.4974 
31113000    253.76653   -3905.8207   -3470.8735   -3905.8207            0    7743.3896     16.87603    19.877734    20.588717    6906.6338    7956.3704    8820.8416    6452.9566   -1493.8466   -1771.8449   -578.96021   -2690.9116 
31114000    270.38971   -3901.1426   -3437.7039   -3901.1426            0    8685.7926    16.884619    19.887851    20.599196    6917.1847    8356.8672     9675.431    8025.0798   -658.33179   -260.72534   -360.17853   -2561.4808 
31115000    262.51142   -3877.7701   -3427.8345   -3877.7701            0    9815.0957    16.910105     19.91787    20.630288    6948.5545    9565.0105    9689.9623    10190.314    726.57616   -983.22783    1162.1276   -2433.1969 
31116000    248.64922   -3882.7527   -3456.5764   -3882.7527            0    12280.091    16.825887    19.818673    20.527543     6845.253    12451.142    12145.845    12243.286   -419.40691   -435.13213   -1153.1985   -2230.6427 
31117000    247.37093   -3898.7928   -3474.8075   -3898.7928            0     10072.03    16.852801    19.850373    20.560378    6878.1535    10188.501    9755.7406    10271.848    -112.0792    -1250.497   -947.75428    -2464.474 
31118000    254.41301   -3907.5141   -3471.4589   -3907.5141            0     10680.07    16.808409    19.798085    20.506219     6823.943    11655.283    10329.092    10055.834   -62.085082    737.97062   -85.193928   -2408.5762 
31119000    259.82012   -3896.9514   -3451.6286   -3896.9514            0    7930.0509    16.893736    19.898589    20.610318    6928.3956    7904.8816    6789.9098    9095.3613   -232.96559    -96.78433    267.39076   -2650.3482 
31120000    244.79864   -3882.3944   -3462.8179   -3882.3944            0    11475.938    16.855804     19.85391    20.564041    6881.8308    11121.163    9529.9928    13776.657    653.84186    220.34646    -9.129054   -2311.0418 
31121000    260.79935   -3908.9754   -3461.9743   -3908.9754            0    10807.376    16.827068    19.820063    20.528984    6846.6942    10360.838    9568.5648    12492.725   -149.60692    1066.7558    -341.9723    -2382.836 
31122000     270.9402   -3871.9938   -3407.6116   -3871.9938            0    10808.393    16.778766     19.76317    20.470055     6787.903    9391.2722    11541.564    11492.344     1308.075    198.99575   -1786.9478    -2337.639 
31123000    250.63264   -3882.6808    -3453.105   -3882.6808            0    8314.3991    16.857245    19.855608      20.5658    6883.5964    7216.2936    8479.3758     9247.528    198.62745    524.40592   -36.733561   -2618.4209 
31124000    249.74641   -3840.4175   -3412.3607   -3840.4175            0    10435.378    16.834292    19.828572    20.537797    6855.5157    9474.3141    10790.917    11040.903    1806.7421   -312.36467   -742.12039   -2369.0247 
31125000    273.93096   -3861.8638   -3392.3555   -3861.8638            0    10751.589    16.854403     19.85226    20.562332    6880.1146    12528.661    8926.4182    10799.688      -161.09    79.015045    -3.683793   -2313.5474 
31126000    268.49803   -3900.4373   -3440.2409   -3900.4373            0    9717.7454    16.842189    19.837874    20.547431    6865.1684    9218.2168    10108.112    9826.9071   -1686.6133    777.99543   -1085.0281   -2467.2862 
31127000    266.23552   -3890.7012   -3434.3827   -3890.7012            0    11203.673    16.808917    19.798684    20.506839     6824.562     12290.66    12182.296    9138.0622    1691.4372     543.4355    108.37243   -2319.2897 
31128000    266.75348   -3905.0883    -3447.882   -3905.0883            0    9097.8578    16.871772    19.872719    20.583522    6901.4077    8927.8828    8948.4599    9417.2309    345.67109   -342.13912    78.799602    -2532.183 
31129000    269.42572   -3875.2727   -3413.4862   -3875.2727            0    9488.2088    16.847554    19.844193    20.553976    6871.7307    7481.0925    9397.9612    11585.573   -1095.8688   -99.472899   -149.27964    -2462.605 
31130000    267.87493   -3918.7721   -3459.6436   -3918.7721            0    10405.057      16.7992    19.787238    20.494984    6812.7331    9825.4962    10967.665    10422.008    1742.2515    2248.4169    1665.0067   -2425.8313 
31131000    249.89959   -3893.1847   -3464.8654   -3893.1847            0    9859.7761    16.799846       19.788    20.495773    6813.5196    11074.898    9673.8009     8830.629   -340.67285    -951.3857    956.38408   -2485.1172 
31132000    266.02516   -3856.8733   -3400.9153   -3856.8733            0    9530.8879    16.835854    19.830412    20.539703    6857.4249    9744.5256    9944.5281    8903.6101   -926.39274    700.39287    -368.9576   -2447.7454 
31133000    253.72283   -3874.2837   -3439.4114   -3874.2837            0    8729.7123    16.832961    19.827005    20.536173    6853.8903    10775.196    8102.3818    7311.5588   -1256.1324   -202.12685   -1100.4218   -2566.8159 
31134000    240.86398   -3870.3028   -3457.4702   -3870.3028            0    11004.848    16.813943    19.804604    20.512972    6830.6863    10825.368    9721.3769    12467.798   -215.39744     705.1922   -1309.5553   -2361.1832 
31135000    236.72894    -3871.761   -3466.0157    -3871.761            0    10906.124     16.88245    19.885296    20.596549     6914.519    12497.569    10694.468    9526.3333    1565.6487   -607.70076   -1190.9999   -2366.2294 
31136000    252.81528   -3882.9278    -3449.611   -3882.9278            0    10100.829    16.874287    19.875682    20.586591    6904.4949    12189.793     6816.524    11296.169   -333.46128    850.85908     94.84562   -2432.5083 
31137000    245.09023   -3905.3919   -3485.3157   -3905.3919            0    10388.612    16.913567    19.921948    20.634512    6952.8237    9032.7493     13145.41    8987.6782   -476.20233    589.59862    8.8286367   -2431.9124 
31138000    261.33168   -3889.9043   -3441.9907   -3889.9043            0    10215.334    16.798124    19.785971    20.493672     6811.424    12094.019    8796.9358    9755.0485   -946.63347   -12.708609    185.83625   -2427.2236 
31139000    242.63366    -3916.655   -3500.7892    -3916.655            0    10470.565    16.823879    19.816307    20.525093    6842.8025    12150.066     9727.452    9534.1781    1250.6226   -27.586924   -775.12174   -2455.8765 
31140000    258.45475    -3916.555   -3473.5724    -3916.555            0    11039.319    16.844394    19.840471    20.550121    6867.8653    10016.263    12691.442    10410.252    1209.3534    -1330.025   -1132.7851   -2367.8657 
31141000    256.91038   -3920.4453   -3480.1097   -3920.4453            0    7829.2326    16.842197    19.837883    20.547441    6865.1778     8177.545    7535.5204    7774.6324      429.482   -995.43038   -264.75388   -2696.2346 
31142000    248.30693   -3903.0818   -3477.4922   -3903.0818            0    9360.5301    16.843596    19.839531    20.549147    6866.8886    8283.3563    10597.528    9200.7057    318.83225   -1962.6355   -659.89514   -2540.0676 
31143000    266.00236   -3949.2536   -3493.3346   -3949.2536            0    8538.5617    16.873905    19.875231    20.586124     6904.025    8843.8836    8689.0377    8082.7639    330.76594    16.834718    161.84695   -2633.6029 
31144000    245.17621   -3888.5165   -3468.2929   -3888.5165            0    9011.4859    16.882915    19.885844    20.597117    6915.0912     9040.881    9922.7657    8070.8109   -79.967588   -1889.1689   -1498.7826    -2559.489 
31145000    264.63782   -3863.8261   -3410.2459   -3863.8261            0    9550.6279    16.856463    19.854687    20.564845    6882.6383     9204.045    9578.9821    9868.8565   -757.84319   -507.79996   -1039.0608     -2451.59 
31146000    248.71804   -3874.4281   -3448.1339   -3874.4281            0    10036.806    16.844744    19.840883    20.550548    6868.2933     12166.98    9758.0137    8185.4229   -1291.2623   -158.48864   -853.53897    -2442.777 
31147000    246.54985   -3904.5352   -3481.9572   -3904.5352            0     12156.46     16.81185    19.802139    20.510418    6828.1353     10884.12     11877.15     13708.11   -417.89648    635.67507    -1006.785   -2271.4005 
31148000     242.4811   -3916.9028   -3501.2984   -3916.9028            0    9841.4194    16.841686    19.837281    20.546817    6864.5532    9796.1991    8446.0387     11282.02   -1183.4377    34.487745    871.50742   -2516.0497 
31149000    278.13304   -3877.3425    -3400.632   -3877.3425            0    9983.8873    16.847292    19.843884    20.553656    6871.4102    9315.4442    11235.954    9400.2634     398.4797   -915.66359    1852.3361    -2400.122 
31150000    255.03238   -3899.9718    -3462.855   -3899.9718            0    9524.9987    16.882572     19.88544    20.596699    6914.6697    10122.593    11524.101    6928.3023   -828.01176   -1803.4738    2788.1483   -2502.3221 
31151000    262.88965   -3873.9889    -3423.405   -3873.9889            0    9073.7472    16.886181     19.88969    20.601101    6919.1046    7701.4316    11256.381    8263.4293    1239.6247   -1396.5623    1740.1024   -2507.7909 
31152000    250.82978   -3905.4569   -3475.5432   -3905.4569            0    9390.6902    16.857769    19.856225    20.566439     6884.238    9805.9419    8673.9994    9692.1293    372.11028    1641.5113    -8.479709   -2532.7222 
31153000    260.58179   -3907.7946   -3461.1663   -3907.7946            0    9269.8741    16.846124    19.842509    20.552232    6869.9814    8353.8705    9718.9913    9736.7606    89.876716   -545.40941   -2677.7706   -2532.4025 
31154000     251.9729    -3903.737   -3471.8641    -3903.737            0    6895.0345    16.863284    19.862721    20.573167    6890.9968    6491.3695    6446.0896    7747.6442   -595.18478    71.089776     396.0421   -2778.9261 
31155000    247.51855   -3869.3418   -3445.1034   -3869.3418            0    10028.473    16.793776     19.78085    20.488367    6806.1365    11244.354    10992.433    7848.6336   -713.83989   -1633.3079    1081.3425    -2449.672 
31156000    233.24772   -3910.7242   -3510.9456   -3910.7242            0    9027.4258    16.859606    19.858389    20.568681    6886.4895    8285.3022    9796.8935    9000.0816   -527.64424    844.04096    558.50398   -2604.2997 
31157000    248.38691   -3904.6892   -3478.9625   -3904.6892            0     10245.47    16.832978    19.827025    20.536194    6853.9114    10262.388    10337.507    10136.513   -398.53951      1397.35    383.65197   -2454.8534 
31158000    251.38084   -3906.3908   -3475.5326   -3906.3908            0    9622.3925    16.890009      19.8942    20.605772    6923.8117    9663.3846    10305.167     8898.626    1679.9544    539.39503   -765.74761   -2503.8952 
31159000    256.91677    -3900.979   -3460.6325    -3900.979            0    9057.2556    16.877259    19.879182    20.590217    6908.1435    10564.186    8913.7257    7693.8551   -307.74695    1496.5447    720.04645   -2548.1304 
31160000    263.91144   -3862.9861   -3410.6509   -3862.9861            0    8881.2922    16.862437    19.861723    20.572133    6889.9582    10840.699    9319.4625     6483.715   -54.319995    1208.7155   -293.55549   -2518.2322 
31161000    249.09248   -3913.0321   -3486.0962   -3913.0321            0    9791.4074    16.934977    19.947166    20.660632    6979.2607    6687.4603    12239.496    10447.266    672.30592    267.98616   -1031.5247   -2489.4743 
31162000    243.76174   -3892.6853    -3474.886   -3892.6853            0    9598.5814    16.930901    19.942365     20.65566    6974.2227    11504.365    7040.6729    10250.706    1262.8287    -363.5431    -998.8966   -2498.5962 
31163000    258.51586   -3902.9585   -3459.8711   -3902.9585            0    10370.784    16.908894    19.916444    20.628812    6947.0628    9380.4929    10859.806    10872.054   -377.11701   -206.34687   -1001.7864   -2409.1469 
31164000    262.86019   -3921.3867   -3470.8534   -3921.3867            0    9367.9092    16.837146    19.831934    20.541279    6859.0034    8451.3184    11600.596    8051.8133    539.43418   -942.22687    232.97803   -2533.7671 
31165000    256.36534   -3895.7607   -3456.3593   -3895.7607            0    11271.297    16.882219    19.885024    20.596267    6914.2353    10687.153    10193.722    12933.018   -459.06869    133.12924   -252.06171   -2319.7952 
31166000    260.86081    -3895.302   -3448.1955    -3895.302            0    10308.346    16.882265    19.885078    20.596324    6914.2923    9576.8836    10074.644    11273.511    59.525131   -187.61673    962.03113   -2408.7239 
31167000    251.50439   -3904.7029    -3473.633   -3904.7029            0    10955.474    16.810525    19.800578    20.508801    6826.5207    12319.173    9979.7684    10567.481    1183.1381   -302.16735    1990.1048     -2382.93 
31168000    268.16021   -3877.2659   -3417.6484   -3877.2659            0     10547.36    16.867516    19.867705     20.57833    6896.1859    9853.5753    12272.579    9515.9274    22.989458   -1370.0281    677.15413   -2356.8604 
31169000      257.221   -3859.2535   -3418.3855   -3859.2535            0     8186.355    16.899784    19.905714    20.617698    6935.8403    6933.7968    9690.9279    7934.3404   -623.14877   -275.29438    236.72737   -2590.3184 
31170000    258.17363    -3871.623   -3429.1222    -3871.623            0    12869.365    16.794318    19.781488    20.489028    6806.7952    11537.009    14263.617     12807.47   -313.29282    1637.3005    391.75179   -2151.5787 
31171000    255.78311   -3894.5427   -3456.1392   -3894.5427            0    8856.1619    16.847316    19.843913    20.553686    6871.4398    9970.4058    8194.8656    8403.2143    856.75972     691.9643    1171.9424   -2568.6375 
31172000    253.52923   -3909.5463   -3475.0059   -3909.5463            0    8136.4249    16.906241    19.913318    20.625574    6943.7925    9362.7227    4421.7089    10624.843   -2963.2261   -913.89405    201.08939   -2651.0457 
31173000     255.5556    -3886.054   -3448.0404    -3886.054            0    10381.199    16.826056    19.818871    20.527749    6845.4588    7866.4672     12824.13        10453   -109.13382    1484.4257   -1139.1711   -2411.6438 
31174000    256.43529   -3900.5667   -3461.0454   -3900.5667            0    9734.7881    16.846066    19.842441    20.552161    6869.9107    9188.9806    9584.0515    10431.332    1822.5408    199.08634   -523.10728   -2485.7111 
31175000      261.205   -3882.8759   -3435.1794   -3882.8759            0    8087.2954    16.956362    19.972355    20.686722    7005.7339    9683.3675    7288.9923    7289.5264    98.853913   -590.51772    780.30618   -2608.8888 
31176000    257.73898   -3905.2076   -3463.4518   -3905.2076            0    9908.0337    16.827484    19.820554    20.529492    6847.2025    8451.7279    11810.647    9461.7259    332.63773    348.11863   -11.500749   -2474.0412 
31177000    259.07486   -3861.9487   -3417.9033   -3861.9487            0    8118.2212    16.868865    19.869295    20.579976    6897.8415    8172.3804    9722.3142    6459.9691   -307.09928   -712.96162    3.6924076   -2601.2269 
31178000    258.37034   -3878.8365   -3435.9986   -3878.8365            0    9960.1743    16.937167    19.949745    20.663304    6981.9681    8574.9208    10948.787    10356.815   -177.95187    421.46159   -1117.2706   -2421.8054 
31179000    251.03463   -3866.3678    -3436.103   -3866.3678            0    6119.8366    16.952453    19.967751    20.681953    7000.8901    5201.0969    5436.0772    7722.3358    61.509524    583.46902    1605.7046   -2811.2628 
31180000    251.41186   -3880.4071   -3449.4957   -3880.4071            0    8753.0166    16.887603    19.891366    20.602837    6920.8535    9172.7598    5775.2368    11311.053   -350.99612    1255.5222    1440.1277   -2566.0227 
31181000    257.11963   -3872.7239   -3432.0297   -3872.7239            0    10237.814    16.923068    19.933139    20.646104    6964.5476    9124.6352    11555.591    10033.217    133.91311   -997.74231    720.43394   -2392.1668 
31182000    270.03508   -3845.5628   -3382.7319   -3845.5628            0     11921.51     16.83045    19.824047     20.53311    6850.8236    10131.973    11953.236    13679.322   -1361.6714    894.70636   -1279.1993   -2191.6272 
31183000    247.55262   -3860.2124   -3435.9157   -3860.2124            0    9778.5355    16.853326    19.850991    20.561018    6878.7959     10231.26    9873.9533    9230.3931    99.591661   -1561.6254    829.21371   -2454.9312 
31184000    249.89636    -3876.139   -3447.8252    -3876.139            0     9901.995    16.809185    19.798999    20.507166    6824.8883    8939.7407    13521.148     7245.096    135.86804   -239.50221    280.34824   -2462.2401 
31185000    257.18833   -3858.8878   -3418.0758   -3858.8878            0    11474.993     16.78998    19.776378    20.483736    6801.5217    10792.827    11494.902     12137.25    123.60598    939.35133   -923.19425   -2279.8343 
31186000    279.11068   -3885.3263   -3406.9402   -3885.3263            0    9986.8739    16.871828    19.872784     20.58359     6901.476    10996.153    9754.2692    9210.1994    1865.4337   -594.16926   -274.41778   -2401.7518 
31187000    251.34773   -3881.4957   -3450.6943   -3881.4957            0    9404.9038    16.869466    19.870002    20.580709    6898.5777    10465.347    9518.0931    8231.2715   -286.73059   -459.59668   -827.98565   -2504.4793 
31188000    265.07889   -3855.9101    -3401.574   -3855.9101            0    12394.414    16.807571    19.797098    20.505197    6822.9223    11972.456    12732.987      12477.8     2321.304   -84.615216    -1285.739   -2168.2638 
31189000    242.43864   -3880.0054   -3464.4739   -3880.0054            0    11445.665    16.803394    19.792179    20.500102    6817.8375    12009.357    11151.878    11175.759   -415.57474   -736.31736   -2307.3353   -2326.4181 
31190000    266.83136   -3844.8879    -3387.548   -3844.8879            0    10954.669    16.850392    19.847536    20.557439    6875.2046    11152.298    10124.892    11586.817    1867.0165    1123.6806    213.77887   -2289.1474 
31191000    270.32668   -3901.7566   -3438.4259   -3901.7566            0    9170.6283    16.891753    19.896254    20.607899    6925.9565    8898.2822    7937.5976    10676.005     1338.796    412.04763   -269.96119   -2512.1194 
31192000    263.70131   -3888.2194   -3436.2443   -3888.2194            0    10439.962    16.878835    19.881039     20.59214    6910.0792    12813.345    9228.0615    9278.4787     101.1614    2234.9145    1382.6794   -2384.1424 
31193000    258.26203   -3856.9088   -3414.2565   -3856.9088            0    11251.616    16.803693    19.792531    20.500466    6818.2013    12003.276    8591.9896    13159.584   -503.28309   -176.64418   -1333.7313   -2295.4355 
31194000    266.52114    -3895.516   -3438.7079    -3895.516            0    9644.5835    16.822076    19.814183    20.522893    6840.6023    11097.641    10284.204    7551.9047   -34.470705    -376.1287   -324.90917   -2476.5337 
31195000    247.93421   -3867.0366   -3442.0858   -3867.0366            0    10354.289    16.839609    19.834835    20.544283    6862.0135    9510.2808    11005.518    10547.069   -208.94313    931.40863   -2516.4711   -2405.8759 
31196000    250.50482   -3861.3478   -3431.9911   -3861.3478            0    10043.351    16.907635    19.914961    20.627275    6945.5104    11054.897    9579.4556    9495.7021   -1093.9267    -991.8808    129.45601   -2414.6685 
31197000    261.48435   -3882.8474   -3434.6721   -3882.8474            0    9782.7502    16.888483    19.892402     20.60391    6921.9347    11818.977    9302.7356     8226.538   -560.99632   -15.074941    1284.4272   -2447.1102 
31198000     263.7806   -3884.4069    -3432.296   -3884.4069            0    11377.447    16.864151    19.863743    20.574225    6892.0603    12659.512    11465.754    10007.074    656.81441    1438.7185   -806.48273   -2288.7076 
31199000    268.14314   -3887.3382     -3427.75   -3887.3382            0    8804.0628    16.957395    19.973572    20.687982    7007.0143    10136.586     9034.393    7241.2091    505.61208   -839.72994   -723.71691   -2528.0618 
31200000    258.58176   -3887.9094   -3444.7091   -3887.9094            0    11789.023    16.872864    19.874005    20.584855    6902.7479    14491.744     11583.99    9291.3335    85.855242    204.21661   -498.67783   -2257.9142 
31201000    245.96758   -3862.7395   -3441.1595   -3862.7395            0    9999.4892    16.934065    19.946092     20.65952    6978.1338    11219.931    10212.174    8566.3618    80.875993   -1545.4709   -939.88903   -2423.5222 
31202000    267.26529   -3898.4145   -3440.3309   -3898.4145            0    7717.7654    16.926227    19.936859    20.649957    6968.4476    8850.0323     5911.292     8391.972    548.06953   -1714.5248   -569.26994   -2655.9925 
31203000    251.97028   -3890.9688   -3459.1003   -3890.9688            0    8918.8167    16.847874     19.84457    20.554366    6872.1222    9188.0706     9780.337    7788.0426    1254.3955    1171.2246   -1328.3405   -2565.2311 
31204000    249.14198   -3892.2352   -3465.2144   -3892.2352            0     9807.873    16.844204    19.840248     20.54989    6867.6331    11848.217    7397.7699    10177.632    325.61291    54.808687     967.8663   -2482.8835 
31205000    260.62131   -3900.5035   -3453.8075   -3900.5035            0     9901.344    16.794737    19.781981     20.48954    6807.3047    9485.3474    9553.8106    10664.874    2409.3388    1274.2683   -1816.3237   -2470.8263 
31206000    250.00762   -3877.2566   -3448.7521   -3877.2566            0    9126.6653    16.881441    19.884107    20.595318    6913.2797    9555.2285    8798.1721    9026.5954    269.90651    748.20777   -1097.5828   -2528.5735 
31207000    245.88203   -3846.6381   -3425.2048   -3846.6381            0    9073.7643     16.91404    19.922505     20.63509    6953.4075    9565.6428    8323.6003    9332.0496   -2309.8799   -588.74301   -905.14579   -2505.0496 
31208000    266.96144   -3869.9674   -3412.4047   -3869.9674            0    10304.645    16.862595    19.861909    20.572326    6890.1521    8594.2724    9789.3087    12530.355   -710.82261   -2402.4093   -450.14909   -2376.9341 
31209000    264.54225   -3894.1053   -3440.6889   -3894.1053            0     10271.05     16.88051    19.883011    20.594182    6912.1357    10565.192    10547.615    9700.3433   -723.66486   -569.18304   -810.92591   -2405.3013 
31210000    259.12528   -3842.1824   -3398.0505   -3842.1824            0    10041.315       16.916    19.924814    20.637481    6955.8251    10408.166    12176.533    7539.2453    147.13565    31.033754   -2110.3953   -2379.4236 
31211000    255.85084   -3891.4604   -3452.9408   -3891.4604            0    11717.341     16.91554    19.924272    20.636919    6955.2572    11830.363    11941.179    11380.482   -243.94383     417.1185    348.60719   -2264.3889 
31212000    259.08953   -3891.5022   -3447.4316   -3891.5022            0    10252.742     16.94621    19.960397    20.674337    6993.1584    9813.0158    9285.0318    11660.177   -330.14964    2278.5473    1168.9664   -2401.7746 
31213000    256.44725   -3858.6455   -3419.1037   -3858.6455            0    8667.8956    16.963385    19.980627     20.69529    7014.4419    7585.3488    9365.1839    9053.1541    733.35705    1731.3944    2409.7502   -2532.3914 
31214000    256.41965   -3891.7626   -3452.2681   -3891.7626            0    9470.4994    16.903576     19.91018    20.622323    6940.5094    9405.9876    9319.2925    9686.2183    1347.2247    271.78855    3025.2949   -2493.6622 
31215000    244.38918   -3911.9964   -3493.1217   -3911.9964            0    9687.0542    16.851839     19.84924    20.559204    6876.9754    9717.3094    9117.2096    10226.644   -595.80778   -587.44964    1009.0413   -2521.5718 
31216000    261.24379   -3898.9751   -3451.2122   -3898.9751            0    9513.7845    16.873017    19.874186    20.585042     6902.936    11002.174    10616.921    6922.2588   -1438.0411   -172.63226   -124.33945   -2493.4382 
31217000    245.53463    -3892.004    -3471.166    -3892.004            0    9285.6539    16.877428    19.879381    20.590423    6908.3507    8413.2626    10408.191    9035.5081   -486.52633    1042.8956    301.90657   -2535.6252 
31218000    257.20078   -3883.9013    -3443.068   -3883.9013            0    9249.6134    16.926866    19.937612    20.650737    6969.2371    7529.8246    9507.3988    10711.617   -1411.7062    25.055719   -736.22468   -2502.9449 
31219000      257.888   -3860.5533   -3418.5421   -3860.5533            0    11674.859     16.85753    19.855944    20.566147    6883.9454    13029.544    11295.245    10699.789      69.0754    511.98189   -1323.1701   -2246.4413 
31220000    252.37786   -3909.2858   -3476.7188   -3909.2858            0    11658.901    16.798627    19.786564    20.494286    6812.0366    12516.972    11840.846    10618.883    68.832391     767.9483    206.80278   -2318.4471 
31221000    261.99791   -3906.8471   -3457.7916   -3906.8471            0    7561.6478    16.917326    19.926376    20.639098    6957.4606    9505.0174    6238.8446    6941.0815   -192.51623    206.34858    1387.7222   -2690.5307 
31222000    253.40075   -3894.5061   -3460.1858   -3894.5061            0    8240.6044    16.842149    19.837827    20.547383    6865.1201    9367.4188    8392.3799    6962.0145    1163.2696    1029.3965    490.61722   -2635.1305 
31223000     244.7028   -3884.6391   -3465.2269   -3884.6391            0    9110.1658    16.872984    19.874146    20.585001    6902.8952    9784.0005      7047.35    10499.147   -1000.3323    374.17924    29.783879   -2548.0915 
31224000    265.09379   -3887.9932   -3433.6316   -3887.9932            0    10212.451    16.840357    19.835716    20.545196    6862.9282    9923.8076    10389.917    10323.628    285.91255   -1334.6535    442.28524   -2411.4799 
31225000    247.81527   -3888.8807   -3464.1338   -3888.8807            0    9405.4431    16.872616    19.873713    20.584553     6902.444     9330.149    10202.413    8683.7675   -1787.8614   -1074.4957    1330.7577   -2517.3342 
31226000    257.53516   -3888.3095    -3446.903   -3888.3095            0    9275.7241    16.906871    19.914061    20.626343    6944.5691    9845.6266    6284.4608    11697.085   -1134.1685   -1317.6035   -291.74706   -2507.4631 
31227000    272.26861   -3866.2453   -3399.5862   -3866.2453            0    8879.9559     16.94183    19.955238    20.668993    6987.7367    8809.7992    10179.124    7650.9448   -1303.3179    589.63149    122.88805    -2494.639 
31228000    258.42429   -3852.1582   -3409.2278   -3852.1582            0    11427.429    16.840502    19.835887    20.545373    6863.1056    10074.159     13880.14    10327.988   -933.82253   -1077.4241    524.38156    -2265.441 
31229000    262.35806   -3871.5294   -3421.8567   -3871.5294            0    9794.4516    16.881902    19.884651    20.595881    6913.8463     8531.144    11587.353    9264.8578   -1934.9497   -1564.8559    1982.9412   -2434.2689 
31230000    260.45215   -3857.7637   -3411.3576   -3857.7637            0    9252.6467    16.858167    19.856694    20.566925    6884.7262    9188.6777    11057.389    7511.8732   -547.89363       47.656   -555.44387   -2482.3302 
31231000    263.74731   -3882.1144   -3430.0605   -3882.1144            0    10507.408    16.839707    19.834951    20.544403     6862.134    10883.479    9816.7337     10822.01   -690.58805   -901.20339    726.13454   -2378.5087 
31232000    249.60541   -3856.8802   -3429.0651   -3856.8802            0    10474.491    16.835119    19.829547    20.538806    6856.5267    12550.297    12140.751    6732.4243    1151.0984    1197.8864   -275.21979    -2381.664 
31233000    259.13617   -3881.2866    -3437.136   -3881.2866            0    11824.368    16.784072     19.76942    20.476529    6794.3449     10521.29    14408.736    10543.076    889.15828    554.44234    710.63112   -2265.4766 
31234000    274.68624   -3894.7721   -3423.9693   -3894.7721            0    8265.9651    16.854764    19.852685    20.562772    6880.5569    8173.1289    8232.6772    8392.0893   -1313.5357   -625.83654    1473.4871   -2594.5138 
31235000    245.36391   -3898.6506   -3478.1053   -3898.6506            0    10168.399     16.89151    19.895968    20.607603    6925.6578    10646.207    8703.2654    11155.726    178.49829   -533.78082   -371.25117   -2451.0602 
31236000    253.37538   -3899.0786   -3464.8019   -3899.0786            0    10179.151    16.847607    19.844255    20.554041    6871.7958    7323.8191    10421.587    12792.046   -227.85117    205.56578   -1739.0162   -2444.6668 
31237000    245.59828   -3888.1231   -3467.1761   -3888.1231            0    10700.786     16.86928    19.869784    20.580483    6898.3506    10818.485    9019.7423    12264.132   -1786.2751    762.19715   -415.96557   -2390.6195 
31238000    267.45603   -3911.5164   -3453.1059   -3911.5164            0    9740.3105    16.893664    19.898505    20.610231    6928.3078    12329.371     6381.207    10510.354    926.47127   -653.46298   -1609.2063   -2468.9229 
31239000    248.20299   -3892.9502   -3467.5388   -3892.9502            0    10390.097     16.88974    19.893883    20.605444    6923.4811    9171.1965    10459.302    11539.793    654.27728    306.09881   -339.42062   -2418.4313 
31240000    263.92623   -3919.5191   -3467.1585   -3919.5191            0    9015.5773    16.956439    19.972445    20.686816    7005.8292    10153.519    11214.701    5678.5112   -207.33311    458.66048   -671.34912   -2546.0115 
31241000    252.86443   -3907.6016   -3474.2007   -3907.6016            0    10238.487    16.907192    19.914439    20.626735     6944.965    11507.076    8600.3395    10608.045   -326.72544   -81.626338    307.34503   -2437.1936 
31242000    257.82808   -3861.5429   -3419.6344   -3861.5429            0    9772.4356    16.844664     19.84079    20.550451    6868.1958    12470.639    7858.8163    8987.8515   -1140.8429    2040.5436    1060.2582   -2440.7726 
31243000    272.92607   -3898.4423   -3430.6563   -3898.4423            0    9782.1717    16.907254    19.914512     20.62681    6945.0412    11433.946    9035.1775    8877.3915    201.71558    390.97253   -808.78901   -2439.8564 
31244000     264.6115   -3889.2501    -3435.715   -3889.2501            0    12285.022    16.832333    19.826265    20.535407    6853.1235    13923.648    11149.926    11781.494    533.51113    -584.0081    471.24816   -2207.8789 
31245000    265.72667   -3890.3205   -3434.8741   -3890.3205            0     8841.735    16.919615    19.929071    20.641891    6960.2847    9343.9397    8228.3028    8952.9625    311.39955    885.83924    1277.2047   -2537.3618 
31246000    251.21112   -3865.4794   -3434.9122   -3865.4794            0    9743.3293    16.917671    19.926782    20.639519    6957.8862     8333.008    9328.7717    11568.208    16.593111   -283.85802    -273.4993   -2446.2212 
31247000     258.9731   -3900.8925   -3457.0215   -3900.8925            0     13093.61    16.857084    19.855418    20.565603    6883.3986    13672.067    11293.378    14315.383    79.545126    531.74576    713.51015   -2142.5892 
31248000    266.49857   -3891.6788   -3434.9094   -3891.6788            0    9053.9873    16.961651    19.978584    20.693175    7012.2915    8458.6896    8404.8251    10298.447    -273.8752    877.66786    645.07994   -2508.9845 
31249000    252.41774   -3925.6125   -3492.9772   -3925.6125            0    10221.162    16.892579    19.897227    20.608907    6926.9725    9235.8575    9631.5335    11796.094    1316.7819    280.33039     116.0199   -2460.4069 
31250000    260.76581   -3871.3156   -3424.3719   -3871.3156            0    9169.3555    16.917036    19.926034    20.638745    6957.1031    8108.3693    10532.011    8867.6868    1254.7301   -136.88546     381.0548   -2494.0288 
Loop time of 327.955 on 64 procs for 250000 steps with 864 atoms

Performance: 131.725 ns/day, 0.182 hours/ns, 762.300 timesteps/s
193.1% CPU use with 32 MPI tasks x 2 OpenMP threads

MPI task timing breakdown:
Section |  min time  |  avg time  |  max time  |%varavg| %total
---------------------------------------------------------------
Pair    | 28.124     | 33.894     | 38.692     |  45.3 | 10.33
Bond    | 0.85022    | 1.1483     | 1.929      |  20.1 |  0.35
Kspace  | 143.57     | 148.71     | 154.71     |  22.6 | 45.34
Neigh   | 3.5093     | 3.7928     | 4.1973     |  11.8 |  1.16
Comm    | 62.431     | 66.974     | 70.087     |  24.3 | 20.42
Output  | 0.49994    | 0.50027    | 0.50203    |   0.0 |  0.15
Modify  | 60.547     | 63.23      | 65.388     |  12.8 | 19.28
Other   |            | 9.706      |            |       |  2.96

Nlocal:        27.0000 ave          34 max          21 min
Histogram: 2 3 1 7 8 2 4 3 0 2
Nghost:        2637.41 ave        2683 max        2610 min
Histogram: 4 4 4 9 1 5 3 0 1 1
Neighs:        8865.19 ave       11091 max        6360 min
Histogram: 2 0 3 4 6 6 2 3 5 1

Total # of neighbors = 283686
Ave neighs/atom = 328.34028
Ave special neighs/atom = 2.0000000
Neighbor list builds = 13525
Dangerous builds = 0

unfix		3
unfix		2
unfix		1

write_data	data.final.${pid}
write_data	data.final.1
System init for write_data ...
PPPM initialization ...
  extracting TIP4P info from pair style
  using 12-bit tables for long-range coulomb (../kspace.cpp:340)
  G vector (1/distance) = 0.37454343
  grid = 24 24 24
  stencil order = 5
  estimated absolute RMS force accuracy = 0.0031289954
  estimated relative force accuracy = 9.4228767e-06
  using double precision FFTW3
  3d grid and FFT values/proc = 3549 432
Last active /omp style is kspace_style pppm/tip4p/omp
WARNING: Not all mixed pair coeffs generated from mixing. Use write_data with 'pair ij' option to store all pair coeffs. (../write_data.cpp:312)

write_restart   restart.lmp.${pid}
write_restart   restart.lmp.1
System init for write_restart ...
PPPM initialization ...
  extracting TIP4P info from pair style
  using 12-bit tables for long-range coulomb (../kspace.cpp:340)
  G vector (1/distance) = 0.37454343
  grid = 24 24 24
  stencil order = 5
  estimated absolute RMS force accuracy = 0.0031289954
  estimated relative force accuracy = 9.4228767e-06
  using double precision FFTW3
  3d grid and FFT values/proc = 3549 432
Last active /omp style is kspace_style pppm/tip4p/omp
Total wall time: 0:05:28
