LAMMPS (30 Jul 2021)
  using 1 OpenMP thread(s) per MPI task
package omp 0
using multi-threaded neighbor list subroutines
echo both

include		in.partitions
variable        pid world 0
include		in.temp
variable        temperature equal 263.99
variable	tempDamp equal 100.0
include		in.pressure
variable        pressure equal 8625.0
variable        pressureDamp equal 1000.0 # This is 1 ps
include		in.seed
variable        seed world 745823

units		real
atom_style	full
read_restart	restart.lmp.${pid}
read_restart	restart.lmp.0
Reading restart file ...
  restart file = 30 Jul 2021, LAMMPS = 30 Jul 2021
  restoring atom style full from restart
  orthogonal box = (0.62024307 1.8220957 0.75669510) to (17.587329 21.807082 21.456501)
  4 by 4 by 4 MPI processor grid
  restoring pair style lj/cut/tip4p/long/omp from restart
  restoring bond style harmonic/omp from restart
  restoring angle style harmonic/omp from restart
  864 atoms
  576 bonds
  288 angles
Finding 1-2 1-3 1-4 neighbors ...
  special bond factors lj:    0        0        0       
  special bond factors coul:  0        0        0       
     2 = max # of 1-2 neighbors
     1 = max # of 1-3 neighbors
     1 = max # of 1-4 neighbors
     2 = max # of special neighbors
  special bonds CPU = 1.351 seconds
  read_restart CPU = 1.661 seconds
include 	in.setup
variable	out_freq equal 1000
variable	out_freq2 equal 10000
variable	out_freq3 equal 1000

timestep	2.0

neigh_modify    delay 7 every 1

include		in.tip4p
# This is TIP4P/Ice

# create groups ###
group ox type 2
288 atoms in group ox
group hy type 1
576 atoms in group hy

# set charges - beside manually ###
set group ox charge -1.1794
Setting atom values ...
  288 settings made for charge
set group hy charge 0.5897
Setting atom values ...
  576 settings made for charge

# ### TIP3P Potential Parameters ###
pair_style lj/cut/tip4p/long/omp 2 1 1 1 0.1577 8.5
pair_coeff 1 1*2 0.000 0.000
pair_coeff 2 2 0.21084 3.1668
bond_style  harmonic
bond_coeff  1 450 0.9572
angle_style harmonic
angle_coeff 1 55 104.52
kspace_style pppm/tip4p/omp 1.0e-5
pair_modify tail yes

thermo          ${out_freq}
thermo          1000
thermo_style    custom step temp pe etotal epair emol press lx ly lz vol pxx pyy pzz pxy pxz pyz enthalpy

restart 	${out_freq3} restart.lmp.${pid} restart2.lmp.${pid}
restart 	1000 restart.lmp.${pid} restart2.lmp.${pid}
restart 	1000 restart.lmp.0 restart2.lmp.${pid}
restart 	1000 restart.lmp.0 restart2.lmp.0


include         in.dump
dump            myDump all atom ${out_freq2} dump.water.${pid}
dump            myDump all atom 10000 dump.water.${pid}
dump            myDump all atom 10000 dump.water.0
dump            myDump2 all dcd ${out_freq2} dump.dcd
dump            myDump2 all dcd 10000 dump.dcd
dump_modify     myDump append yes
dump_modify     myDump2 append yes


variable natoms 	equal  "count(all)"                        # NUMBER ATOMS
variable H      	equal  "enthalpy/v_natoms"                 # ENTHALPY-per-atom
variable Vol      	equal  "vol/v_natoms"                 # volume-per-atom
fix AVG all 		ave/time ${out_freq} 1 ${out_freq} v_Vol v_H file vol_enthalpy.dat
fix AVG all 		ave/time 1000 1 ${out_freq} v_Vol v_H file vol_enthalpy.dat
fix AVG all 		ave/time 1000 1 1000 v_Vol v_H file vol_enthalpy.dat


timer           timeout 23:50:00 every 1000
New timer settings: style=normal  mode=nosync  timeout=23:50:00

fix 		1 all shake 1e-6 200 0 b 1 a 1
       0 = # of size 2 clusters
       0 = # of size 3 clusters
       0 = # of size 4 clusters
     288 = # of frozen angles
  find clusters CPU = 0.181 seconds
fix             2 all nph iso ${pressure} ${pressure} ${pressureDamp}
fix             2 all nph iso 8625 ${pressure} ${pressureDamp}
fix             2 all nph iso 8625 8625 ${pressureDamp}
fix             2 all nph iso 8625 8625 1000
fix             3 all temp/csvr ${temperature} ${temperature} ${tempDamp} ${seed}
fix             3 all temp/csvr 263.99 ${temperature} ${tempDamp} ${seed}
fix             3 all temp/csvr 263.99 263.99 ${tempDamp} ${seed}
fix             3 all temp/csvr 263.99 263.99 100 ${seed}
fix             3 all temp/csvr 263.99 263.99 100 745823

run             250000
PPPM initialization ...
  extracting TIP4P info from pair style
  using 12-bit tables for long-range coulomb (../kspace.cpp:340)
  G vector (1/distance) = 0.37429998
  grid = 24 24 24
  stencil order = 5
  estimated absolute RMS force accuracy = 0.003156627
  estimated relative force accuracy = 9.5060884e-06
  using double precision FFTW3
  3d grid and FFT values/proc = 2535 216
Last active /omp style is kspace_style pppm/tip4p/omp
Neighbor list info ...
  update every 1 steps, delay 7 steps, check yes
  max neighbors/atom: 2000, page size: 100000
  master list distance cutoff = 10.8154
  ghost atom cutoff = 10.8154
  binsize = 5.4077, bins = 4 4 4
  1 neighbor lists, perpetual/occasional/extra = 1 0 0
  (1) pair lj/cut/tip4p/long/omp, perpetual
      attributes: half, newton on, omp
      pair build: half/bin/newton/omp
      stencil: half/bin/3d
      bin: standard
Per MPI rank memory allocation (min/avg/max) = 9.236 | 9.239 | 9.241 Mbytes
Step Temp PotEng TotEng E_pair E_mol Press Lx Ly Lz Volume Pxx Pyy Pzz Pxy Pxz Pyz Enthalpy 
 6750000    274.28502   -3843.2868   -3373.1717   -3843.2868            0    8765.1492    16.967086    19.984986    20.699806    7019.0347    7622.6531    9664.0526    9008.7418   -1399.0123   -1092.6262     450.6335   -2475.9235 
 6751000    274.55041   -3870.7949   -3400.2249   -3870.7949            0    8707.3543    16.954443    19.970094    20.684381    7003.3553     9529.739     7583.887    9008.4369   -688.29589   -131.92201   -172.38306    -2510.884 
 6752000    264.08214    -3849.353   -3396.7253    -3849.353            0    9437.4995    16.941317    19.954634    20.668368    6987.1028    7762.9362    9663.8665    10885.696     -592.052    907.12841   -624.64174   -2435.0466 
 6753000    268.61155   -3865.7534   -3405.3624   -3865.7534            0    7496.7625    16.967663    19.985666     20.70051    7019.7509    6889.0042     7624.942    7976.3414    548.54313    886.28488   -776.92863   -2637.8748 
 6754000    250.88403   -3881.8114   -3451.8048   -3881.8114            0    4820.6989    17.018362    20.045382    20.762362    7082.8631    3629.7664     3843.264    6989.0663   -1350.1866    872.28075    1434.8111   -2953.8445 
 6755000    262.23833   -3853.2916   -3403.8241   -3853.2916            0    9193.6318    17.017407    20.044258    20.761197    7081.6716    9008.4906     8271.136    10301.269    676.10449    203.23294   -1776.9172   -2454.3157 
 6756000     258.0042   -3833.6846   -3391.4742   -3833.6846            0    10563.807    16.995002    20.017868    20.733863    7053.7372     11594.78    11109.765    8986.8755   -58.957416   -90.687655   -189.63099   -2304.7593 
 6757000    256.12729   -3830.2416   -3391.2482   -3830.2416            0    7518.4358    17.001336    20.025328     20.74159    7061.6263    7462.7424    9031.7451    6060.8199     1410.677    855.71426     1687.726   -2616.9502 
 6758000    266.33242   -3824.0582   -3367.5735   -3824.0582            0    11356.524    16.953587    19.969086    20.683336    7002.2944     11453.26    11009.498    11606.814    351.15976    608.31849    129.37015   -2207.8307 
 6759000    277.42967   -3827.8518   -3352.3468   -3827.8518            0    10160.012    16.957881    19.974144    20.688575    7007.6165    12911.045    7451.0731    10117.919   -1462.4552   -876.41613    227.52587   -2314.0048 
 6760000    253.29487   -3818.9809   -3384.8422   -3818.9809            0    10913.769    16.967656    19.985657      20.7005    7019.7416    11223.963    12933.516    8583.8274    405.55973    678.47046    778.00478   -2267.5371 
 6761000    262.54426   -3854.1546   -3404.1627   -3854.1546            0    9501.8622    17.021852    20.049494     20.76662    7087.2223    11581.466    7566.0903      9358.03    2153.9245   -1297.8163    343.77412   -2422.0515 
 6762000    282.18694   -3822.7402   -3339.0815   -3822.7402            0    7626.0257    16.997638    20.020972    20.737079    7057.0195    6525.7341    9566.2619     6786.081   -173.58113    1093.8718   -656.10383   -2554.2156 
 6763000    257.67186   -3818.0982   -3376.4574   -3818.0982            0    7186.3282    17.038978    20.069666    20.787514    7108.6354     6691.246    7567.7829    7299.9558    486.43367    1743.8118    1072.2258   -2631.4353 
 6764000    258.80138   -3877.6139   -3434.0372   -3877.6139            0     8528.213    17.010885    20.036575     20.75324    7073.5316    7961.2969      8920.56    8702.7821    519.35759    1018.2477    -201.5919   -2554.2651 
 6765000    259.10964   -3832.4557   -3388.3506   -3832.4557            0    9326.3227     16.96589    19.983578    20.698347    7017.5506    9789.4731     8639.615      9549.88    2120.4471    -983.7182   -566.25336   -2433.8595 
 6766000    266.56165     -3858.08   -3401.2024     -3858.08            0    10238.965     16.98666    20.008041    20.723685    7043.3543    8515.6641    11123.266    11077.964     317.1546    795.42837   -1359.7688   -2349.4549 
 6767000    246.75189   -3840.1752    -3417.251   -3840.1752            0    10275.176     17.03275    20.062329    20.779915    7100.8427     10575.98    10129.345    10120.204   -346.23699    1694.3446      151.796   -2353.1691 
 6768000    268.80647   -3908.5213   -3447.7962   -3908.5213            0    6799.6085    16.980977    20.001348    20.716753    7036.2885    6897.9646    5445.6763    8055.1845   -185.89106    559.34985    1019.6183   -2750.0405 
 6769000    272.77933   -3865.6852   -3398.1508   -3865.6852            0    8783.3093     16.90284    19.909313    20.621425    6939.6029    8868.2819    8744.6194    8737.0264     1146.012    1744.3866     -447.529   -2509.2185 
 6770000    262.62452   -3902.9181   -3452.7887   -3902.9181            0    7721.0275    16.925982    19.936571    20.649658    6968.1454    7133.7885     7465.293    8564.0009    1090.3615    1030.2587    1010.2363   -2668.1527 
 6771000    264.07699   -3891.7036   -3439.0847   -3891.7036            0    8701.3894    16.920842    19.930516    20.643387    6961.7989    11254.247    6245.5671    8604.3536    486.97741     246.6758   -1433.1933   -2555.6266 
 6772000    270.65414   -3873.7597   -3409.8677   -3873.7597            0    7717.6586     16.98004    20.000245     20.71561    7035.1239    6552.9977     8901.182    7698.7961    586.91668    555.67763   -708.40793   -2618.0355 
 6773000    259.95148   -3896.9099    -3451.362   -3896.9099            0    8216.9221    16.904307    19.911041    20.623215      6941.41    7781.5493    8216.8646    8652.3523   -238.99808    1140.2767   -1628.7069   -2619.5355 
 6774000    266.97426   -3834.3554   -3376.7706   -3834.3554            0    8461.2489    16.984226    20.005175    20.720716    7040.3275    9064.2013    8201.2404     8118.305    142.01977   -4.1568646    2015.2327   -2508.0038 
 6775000    269.30717   -3860.5487   -3398.9654   -3860.5487            0    7786.7812    16.923577    19.933738    20.646724    6965.1753    9671.9011    8256.0431    5432.3993   -1059.7979   -1377.8408   -1253.4089   -2607.9847 
 6776000    274.75305    -3846.793   -3375.8756    -3846.793            0    8460.3604    16.978796    19.998778    20.714091    7033.5767    8959.7207     8736.638    7684.7227    1760.3697    1304.9388   -882.83316    -2508.033 
 6777000    257.87863   -3826.1458   -3384.1507   -3826.1458            0       8757.6    17.012021    20.037913    20.754626    7074.9489    9000.0904    8388.8026     8883.907    433.72803    514.79779    613.34231   -2480.5339 
 6778000    251.25227   -3864.4475   -3433.8097   -3864.4475            0    7862.9434    17.032359     20.06187    20.779439    7100.3544     8877.629    5965.8611      8745.34    452.04774    40.345756   -727.79538    -2619.591 
 6779000    258.81155   -3875.8599   -3432.2658   -3875.8599            0    8191.8666    17.056905    20.090782    20.809385    7131.0965    6709.1621    7256.0433    10610.395    239.39916    652.79989   -142.03794   -2580.3139 
 6780000    278.11039   -3838.6599   -3361.9882   -3838.6599            0     8057.633    17.024947    20.053138    20.770395    7091.0878    6480.8874     8888.085    8803.9265    505.52564    619.97124    1296.3446   -2528.6981 
 6781000     281.9103   -3832.8092   -3349.6246   -3832.8092            0    10966.844    16.951145    19.966209    20.680357     6999.269    13150.262    8860.4542    10889.816    81.191379   -532.63401    290.75049   -2230.1603 
 6782000    265.10687   -3829.3619   -3374.9778   -3829.3619            0    9181.4778    16.993772    20.016419    20.732362    7052.2052    8747.2684    10134.737     8662.428   -786.44019    579.23397   -889.42516   -2430.6703 
 6783000    259.02142   -3855.9922   -3412.0384   -3855.9922            0    6893.8012    17.038301    20.068868    20.786688    7107.7881    6730.2139       7937.7    6013.4898    -316.8307    468.95864   -770.60762   -2697.4284 
 6784000    263.00183   -3879.2541    -3428.478   -3879.2541            0    9089.8166    16.854393    19.852248     20.56232    6880.1026    10455.214    8941.0156      7873.22    -428.3422    203.24543    898.01854   -2516.4127 
 6785000    260.13701   -3875.5097   -3429.6437   -3875.5097            0    8898.1378    16.916543    19.925453    20.638143    6956.4943    10746.113     8339.528    7608.7726    1936.3314    669.01146   -526.44338    -2526.898 
 6786000    262.76642   -3871.0792   -3420.7065   -3871.0792            0    8636.3951    16.956782    19.972849    20.687234    7006.2542    9285.8773    8049.2832    8574.0247   -1926.3299     1475.851    441.61356   -2538.2481 
 6787000    270.55227   -3848.0368   -3384.3195   -3848.0368            0    8199.6517    16.956653    19.972698    20.687077    7006.0946    10029.032    7090.1419    7479.7815   -665.19229    27.545852   -1553.6902   -2546.5061 
 6788000    256.22681   -3822.6654   -3383.5014   -3822.6654            0    7928.3736    17.000528    20.024377    20.740605    7060.6203    8354.8429    8433.6817    6996.5962   -962.28934   -909.06313    881.28767   -2567.1017 
 6789000    270.83324   -3857.7507   -3393.5518   -3857.7507            0    8159.9334     17.01944    20.046652    20.763677     7084.209    10851.119    6800.5281    6828.1529    863.35008   -547.38916    762.42338   -2550.5008 
 6790000    261.28335   -3863.7395   -3415.9088   -3863.7395            0    8300.2439    17.001086    20.025033    20.741285    7061.3143    8842.4325    6945.7659    9112.5334   -310.85613   -11.359412     1460.005   -2561.1329 
 6791000    268.62717   -3886.7222   -3426.3045   -3886.7222            0    7268.1002    16.997034    20.020261    20.736342    7056.2673    8703.8782    6496.1788    6604.2435    642.72585   -376.10545   -1224.0158   -2678.3557 
 6792000    280.61668   -3881.9762   -3401.0088   -3881.9762            0    8156.8046    16.939274    19.952228    20.665875    6984.5751     10157.03    6682.7478    7630.6362    488.43397    926.65849    378.86072   -2570.1333 
 6793000    266.17182   -3846.6727   -3390.4633   -3846.6727            0    9397.2084    16.949203    19.963923    20.677989    6996.8645     12299.88    9175.5597    6716.1856   -893.27585    1334.8022   -170.55206   -2431.5525 
 6794000    266.00746   -3854.1358   -3398.2081   -3854.1358            0    9019.6681    16.957301    19.973461    20.687868     7006.898    6605.1103    12064.904    8388.9898    24.954988   -448.44012   -666.96179   -2476.5024 
 6795000    261.63483   -3887.8834   -3439.4503   -3887.8834            0    9266.0754    16.928136    19.939108    20.652286     6970.806    9648.6257    7610.8659    10538.734    72.357119   -993.86122    1302.0074    -2497.442 
 6796000     267.4284   -3848.3587   -3389.9956   -3848.3587            0    11326.756     16.92439    19.934696    20.647716    6966.1797    12781.826    12852.212     8346.229   -439.76534   -148.87443   -570.49614   -2239.2585 
 6797000    259.09681   -3836.1722   -3392.0891   -3836.1722            0     8053.711    16.974879    19.994165    20.709313    7028.7102    7262.3672    8286.2734    8612.4923    108.95494    1004.0908    226.32005   -2566.5312 
 6798000    267.59172   -3834.7458   -3376.1027   -3834.7458            0     9693.787    16.890405    19.894666    20.606254    6924.2981    7702.4272    10771.738    10607.195    1691.1637     166.2679    2315.1633   -2397.1874 
 6799000    279.52209   -3872.1772   -3393.0859   -3872.1772            0    7806.3262    16.995563    20.018528    20.734547    7054.4354    7682.6343     7354.112    8382.2323   -1362.6964    769.32527   -339.24795   -2589.9578 
 6800000    250.62905   -3863.6061   -3434.0365   -3863.6061            0    6772.6957    16.997407    20.020701    20.736797    7056.7321    7306.2201     6317.466    6694.4011   -256.98585     941.3352    1410.2298   -2737.0232 
 6801000     260.9479    -3844.041   -3396.7852    -3844.041            0      7880.81    17.041315    20.072418    20.790364    7111.5603    7561.6698    8862.0127    7218.7477   -2618.5914   -554.38635    339.81081   -2579.4285 
 6802000    247.12833   -3846.6995     -3423.13   -3846.6995            0    6654.9441    17.037542    20.067974    20.785762    7106.8379    6053.8917    7135.8889    6775.0516   -587.89627   -649.60962    55.883736    -2733.372 
 6803000    254.84152   -3858.5125   -3421.7229   -3858.5125            0     7345.208    16.981113    20.001508    20.716918    7036.4566    7059.3403    7982.4776    6993.8062   -645.35401   -1319.6745    1398.0185   -2667.9613 
 6804000    271.26528   -3847.3362   -3382.3968   -3847.3362            0     9506.441    16.939987    19.953067    20.666745    6985.4571    11035.879      10096.4     7387.044    -1628.652   -899.47927    677.39068   -2413.9212 
 6805000    252.12667   -3814.7039   -3382.5674   -3814.7039            0    8842.3991    17.010607    20.036248      20.7529    7073.1846    8831.7049    9990.2593    7705.2331    -216.4841     1170.992     77.83849   -2470.4285 
 6806000    261.92841   -3818.9275   -3369.9912   -3818.9275            0    7961.4167    16.988645    20.010379    20.726107    7045.8238    7780.6575    9844.8939    6258.6988   -617.84495    1129.1857    -1339.932   -2551.9069 
 6807000    269.42474   -3836.0484   -3374.2636   -3836.0484            0    9752.4549    16.880764     19.88331    20.594492    6912.4477    11042.084    8570.8988    9644.3816   -600.06954    504.04555    1156.2866   -2391.1093 
 6808000    260.86097   -3816.0967   -3368.9899   -3816.0967            0    7960.7942    16.973927    19.993044    20.708152    7027.5282    7970.8437    11115.395    4796.1443    311.26095   -866.77559    692.63012   -2553.0937 
 6809000    261.95714   -3827.4955   -3378.5099   -3827.4955            0    9960.9882    16.907482     19.91478    20.627088     6945.322     8794.478    10492.622    10595.864   -2105.8691   -279.75326    1562.0551   -2369.5574 
 6810000    259.53247     -3879.41   -3434.5802     -3879.41            0    9035.2565    16.869587    19.870145    20.580857    6898.7265    10747.995    9039.3516    7318.4233    22.937703    62.013788    1750.0688   -2525.5354 
 6811000    258.71558   -3825.4361   -3382.0064   -3825.4361            0    7698.0353    16.923255     19.93336    20.646332    6964.7786     8732.626    7214.6444    7146.8354   -1052.3347   -388.19169   -139.48872    -2600.085 
 6812000    267.47346   -3819.4449   -3361.0046   -3819.4449            0    6789.2107     16.98093    20.001292    20.716695    7036.2295    5611.1411    8119.7379    6636.7532    408.51029    983.40248   -784.75299   -2664.3216 
 6813000    285.63652   -3840.8023   -3351.2311   -3840.8023            0    8511.3869    17.009091    20.034462    20.751051    7071.2941    9399.1503    8391.4227    7743.5879   -842.31797    1676.4468     2003.906   -2473.4724 
 6814000    260.33025   -3839.6017   -3393.4045   -3839.6017            0    7443.9005    17.039457    20.070229    20.788098    7109.2344    6856.1752    7207.8472     8267.679   -176.79727    -14.37269    209.02139   -2621.6143 
 6815000    249.67851   -3867.3152   -3439.3748   -3867.3152            0    7015.9049    17.034861    20.064816    20.782491    7103.4837    6512.2149    7685.6165    6849.8831    1276.8689    549.94124    563.69829    -2712.548 
 6816000    282.24493   -3832.5284   -3348.7702   -3832.5284            0     8412.375    16.954451    19.970104    20.684391    7003.3659     8653.405    8473.5868    8110.1331    588.09693    936.14325   -697.00344   -2489.5562 
 6817000    251.22291   -3840.2499   -3409.6625   -3840.2499            0    8633.0412    16.916369    19.925249    20.637931    6956.2802    8262.3481    10127.804    7508.9717   -681.71943   -55.032487    968.61726   -2533.8386 
 6818000    277.75691   -3872.9472   -3396.8813   -3872.9472            0    9271.0835    16.908766    19.916293    20.628656    6946.9051    9773.7499    9267.7553    8771.7454   -279.64952    790.97159    1131.4291   -2457.5955 
 6819000    251.69652   -3896.5223    -3465.123   -3896.5223            0    10129.176    16.925109    19.935543    20.648593    6967.0673    9862.4386    9970.1265    10554.964    1169.5431    1877.0662    87.132739   -2435.9224 
 6820000    260.13866   -3851.4802   -3405.6114   -3851.4802            0    8829.1463    16.942986    19.956599    20.670403    6989.1672    8502.0207    10453.987    7531.4308    430.46535  -0.10560875   -395.79965    -2505.658 
 6821000    258.57906   -3856.9294   -3413.7338   -3856.9294            0    8288.3751    16.926876    19.937624    20.650749    6969.2492    9714.5767    7575.3972    7575.1516    1868.6987   -1591.3263   -7.9861894   -2571.3087 
 6822000    280.39252   -3828.2678   -3347.6846   -3828.2678            0    7793.8911    17.011807    20.037662    20.754365    7074.6823    8926.9704    7173.0755    7281.6273     1371.567   -716.78495   -2087.7692   -2543.5344 
 6823000    256.94765   -3881.5593   -3441.1598   -3881.5593            0    7552.8699    17.042943    20.074335     20.79235    7113.5985    6334.0146    8465.0975    7859.4975    373.49195   -1024.3754   -596.24807   -2657.5908 
 6824000    270.03092   -3891.7895   -3428.9658   -3891.7895            0    9759.1321    17.008957    20.034305    20.750888    7071.1269    8864.4677    9050.3735    11362.555    1018.5315    51.183436   -2985.2607    -2422.554 
 6825000    274.03173   -3897.7824   -3428.1014   -3897.7824            0    8570.9752    17.032725      20.0623    20.779885    7100.8117    8914.0391    10114.803     6684.084   -918.45754   -1154.4206     19.49469   -2540.5079 
 6826000    264.40048   -3895.7319   -3442.5586   -3895.7319            0    8515.8043     16.96478     19.98227    20.696992    7016.1725    9889.6268    8516.8408    7140.9453    49.355118   -492.60795     1684.517   -2571.1901 
 6827000    261.65283   -3896.0233   -3447.5593   -3896.0233            0    9528.5196    16.955519    19.971362    20.685694    7004.6891    7174.9959    10798.625    10611.938    1210.9728   -539.61275    529.46051   -2474.1619 
 6828000    275.54609    -3848.677   -3376.4005    -3848.677            0    11832.159    16.884192    19.887348    20.598674    6916.6597    13250.552    11191.723    11054.203   -279.51575   -53.637358   -1503.3211   -2182.8623 
 6829000    271.69387   -3895.6261   -3429.9521   -3895.6261            0    7543.5622    16.959873    19.976491    20.691006     7010.087    9453.2612    6771.8493     6405.576    409.05157    765.50223    916.20609   -2658.7365 
 6830000    275.17495   -3854.9869   -3383.3464   -3854.9869            0    10097.739     16.95271    19.968054    20.682267    7001.2086    8665.0247    12642.206    8985.9862    -969.2639   -74.776122    329.86951   -2352.3123 
 6831000    263.50856   -3837.6148   -3385.9702   -3837.6148            0     9404.021    16.937637    19.950299    20.663878    6982.5501    9565.7713    8980.3477    9665.9441    469.88427   -696.24661    271.99708   -2428.3274 
 6832000    250.09312   -3835.6115   -3406.9604   -3835.6115            0    8541.0282    16.925445    19.935938    20.649003    6967.4818    10772.363    7714.0298    7136.6922    213.68829    803.13644    346.60893    -2539.076 
 6833000    244.94876   -3839.7538     -3419.92   -3839.7538            0    7236.2328    17.039692    20.070506    20.788384    7109.5285    6281.4697    8915.2762    6511.9523   -806.21486    -1191.508    210.92031   -2669.6299 
 6834000    267.36318   -3797.4261   -3339.1748   -3797.4261            0    7415.9346    17.034715    20.064644    20.782312    7103.3003    7123.7915    6658.4063     8465.606   -1238.7848    908.61051    370.73105   -2570.9259 
 6835000    268.52254    -3844.256   -3384.0176    -3844.256            0    9016.9908    16.918395    19.927635    20.640403    6958.7799    8336.4981    9048.5633     9665.911   -97.995454   -1131.2109    566.15165   -2468.9132 
 6836000      264.865   -3849.7733   -3395.8038   -3849.7733            0    7748.7156    16.990371    20.012413    20.728213    7047.9718    7831.1518    9931.8194    5483.1757    550.03063   -812.39028   -247.80624   -2599.3332 
 6837000    260.07058   -3878.0652   -3432.3131   -3878.0652            0    8506.7884    16.973454    19.992487    20.707574    7026.9401    6624.1563    8805.8178    10090.391    572.23514    977.95021    -2487.948   -2560.5314 
 6838000     275.0616   -3837.5772   -3366.1311   -3837.5772            0    9749.1575    16.917108    19.926119    20.638832    6957.1914    10341.034    11386.848    7519.5912   -880.02554   -29.182827    605.26137   -2376.9474 
 6839000    248.63246   -3877.7479   -3451.6004   -3877.7479            0    7580.9819    16.972374    19.991214    20.706256    7025.5988    7721.4254    8272.2957    6749.2245   -1459.1251   -259.44306   -713.31541   -2674.8443 
 6840000    266.50048   -3851.3419   -3394.5692   -3851.3419            0    9330.1167    16.984835    20.005892    20.721459    7041.0849    8224.1812    11278.832    8487.3372    -733.8022      221.495    32.257812   -2436.4875 
 6841000    251.23236   -3841.0837   -3410.4801   -3841.0837            0    7573.4072    16.949605    19.964396    20.678478    6997.3618    7163.6428     6628.102    8928.4767    788.60035    1358.6592   -1555.2721   -2637.6188 
 6842000    270.52616   -3845.7968   -3382.1242   -3845.7968            0    8918.3424    16.963208    19.980418    20.695074    7014.2229    9699.9213    10321.463    6733.6429    370.36239    1077.5503    1332.8983   -2469.8202 
 6843000    260.48793   -3852.8597   -3406.3923   -3852.8597            0    9313.2751    16.962891    19.980045    20.694687    7013.8295    9657.7359    8167.1726    10114.917   -26.778005    22.948836    377.94337    -2453.742 
 6844000    261.61316   -3860.4984   -3412.1024   -3860.4984            0    7226.2214    17.007582    20.032685    20.749211    7069.4127    6352.6975    7170.2746     8155.692    4.8197682    977.98908    949.42975    -2667.078 
 6845000    273.25173   -3913.9601    -3445.616   -3913.9601            0    8405.0752    17.031945    20.061381    20.778933    7099.8361    8760.5583    7817.0707    8637.5966   -292.26346      106.517    -666.5548   -2575.3224 
 6846000    266.67939   -3836.8698   -3379.7904   -3836.8698            0    8758.0446    16.939686    19.952713    20.666377    6985.0844    7127.6347     10400.07    8746.4295    185.42854    337.13404    -936.1143   -2487.6059 
 6847000    276.42331   -3847.4809   -3373.7008   -3847.4809            0     9347.586    16.870935    19.871733    20.582501    6900.3807    10370.147    7621.9934    10050.618    954.66027    415.49374    287.16537   -2433.0067 
 6848000     255.8559   -3879.8196   -3441.2914   -3879.8196            0     8693.959    16.996567     20.01971    20.735772    7055.6852    9243.4814    7936.6597    8901.7358   -922.39142    -358.4962   -816.77101   -2546.6836 
 6849000    266.79649   -3863.9613   -3406.6813   -3863.9613            0    9663.9142    16.946329    19.960537    20.674481     6993.305    9385.2417    8934.5825    10671.918   -60.756045   -270.20607    696.43707   -2421.0569 
 6850000     257.2474   -3868.7594   -3427.8462   -3868.7594            0    7845.9399    17.019808    20.047086    20.764126    7084.6693    8939.8548    5658.4393    8939.5258   -548.72632    595.33187    207.36528    -2617.183 
 6851000    257.15549   -3881.5112   -3440.7555   -3881.5112            0    7975.8715    17.014464    20.040791    20.757606    7077.9973    7983.5084    7475.4226    8468.6837   -1201.8773   -281.43679   -686.87854   -2617.4435 
 6852000    273.53303   -3843.2545   -3374.4283   -3843.2545            0    8611.8259    16.937676    19.950345    20.663926    6982.5986    8129.9314    8279.1563    9426.3901   -801.97216    1883.0939   -334.02002   -2497.4513 
 6853000    263.94517   -3837.6249   -3385.2319   -3837.6249            0    9825.6068     16.95385    19.969396    20.683657    7002.6204    8766.1953     11801.34    8909.2853    1407.1707   -188.07372    608.97257   -2381.7817 
 6854000    261.13947   -3842.4188   -3394.8347   -3842.4188            0    8046.3954    16.968459    19.986604    20.701481    7020.7388    7201.2589    8946.3004     7991.627    -342.7615   -784.50912   -773.92896   -2570.9621 
 6855000    271.49441   -3843.5837   -3378.2516   -3843.5837            0    7112.2942    16.996763    20.019942    20.736011    7055.9301    6775.6996    5254.8101     9306.373    457.28426   -714.21975   -593.38928   -2646.3716 
 6856000    248.51082   -3841.0208   -3415.0817   -3841.0208            0    6555.0137    17.024017    20.052043    20.769261    7089.9258    5180.6676    7680.8891    6803.4843     675.4703   -755.10884   -774.92033   -2737.2979 
 6857000     258.9217   -3860.6878   -3416.9049   -3860.6878            0    6650.9689     16.94371    19.957452    20.671286    6990.0631    5913.5204    6812.6776    7226.7086    663.37968     1106.481   -1676.3578   -2738.8858 
 6858000    252.02323   -3843.4433   -3411.4841   -3843.4433            0    7360.9856    17.002233    20.026385    20.742685    7062.7445     5341.845    8937.3364    7803.7754    112.19458    96.223725    271.88346   -2653.2814 
 6859000    266.29818   -3866.5761   -3410.1502   -3866.5761            0    8988.5274    16.917253    19.926289    20.639009    6957.3703    9042.3138    9418.8583    8504.4099   -371.46575    710.47719   -1268.4286   -2498.1193 
 6860000    263.30458   -3875.6051   -3424.3101   -3875.6051            0    9220.1027    16.943624    19.957351    20.671181    6989.9565    8228.5843    10573.064    8858.6601    347.85869   -736.00503    744.99998   -2484.4004 
 6861000    269.09732   -3882.8655   -3421.6419   -3882.8655            0    8939.6094    16.953847    19.969392    20.683653    7002.6164    9703.6326    9555.9124    7559.2831    564.05703   -1024.6519    -469.2978   -2508.6756 
 6862000    267.49251   -3877.1677   -3418.6947   -3877.1677            0    8594.5336    16.978131    19.997996     20.71328    7032.7509    7945.1868    7729.7227    10108.691    236.96805    587.00934    857.72045   -2537.1924 
 6863000    255.16335   -3876.8822   -3439.5409   -3876.8822            0    8698.9455    17.019121    20.046277    20.763288    7083.8112    7693.5671     9028.533    9374.7364     359.7395   -1066.2259    518.37506   -2540.8518 
 6864000    277.93869    -3865.223   -3388.8456    -3865.223            0    9818.0669    16.923337    19.933456    20.646432    6964.8793     10564.87    8506.1779    10383.153    800.74926    681.73814     498.1153   -2391.5694 
 6865000    270.64331   -3872.5974   -3408.7241   -3872.5974            0    6929.3014    16.997891     20.02127    20.737387    7057.3345    6261.6588    8925.6781    5600.5674   -380.19583    519.14466    -244.1308   -2695.5328 
 6866000     273.6085   -3914.2763   -3445.3207   -3914.2763            0    11170.472    16.888206    19.892076    20.603572    6921.5941    10864.003    11373.464     11273.95   -627.93448   -182.85304    734.29275   -2317.7247 
 6867000    254.12342   -3887.7219    -3452.163   -3887.7219            0    8128.3296    16.991436    20.013667    20.729512    7049.2976    6167.2765    8245.5756    9972.1368   -270.40507    1123.3668    -353.8904   -2616.5157 
 6868000     258.0448   -3890.9205   -3448.6405   -3890.9205            0    9447.1111    16.945056    19.959038    20.672929    6991.7293    9876.7898    10409.363    8055.1803    -275.7862    18.220371   -1029.3107    -2485.345 
 6869000    271.70793   -3888.7906   -3423.0925   -3888.7906            0    9284.6323    16.927265    19.938082    20.651224    6969.7304     9245.958     8017.854    10590.085   -1105.7464    1547.0678   -756.68246   -2479.3433 
 6870000    263.38177   -3890.1364    -3438.709   -3890.1364            0    8233.9985    17.002506    20.026706    20.743017    7063.0841    9831.3093    8222.5483     6648.138   -1781.2421    1079.2614    247.44739   -2590.5427 
 6871000    263.34247   -3883.7884   -3432.4285   -3883.7884            0    7529.1632    17.011625    20.037448    20.754143    7074.4555    4958.5915    9775.5504    7853.3478    30.974231    1163.8754    1500.6393    -2655.617 
 6872000     277.7744   -3870.4543   -3394.3585   -3870.4543            0    8160.4408    16.956061       19.972    20.686355     7005.361    8298.2685    8247.2991    7935.7549   -307.51267    334.71851    696.57302   -2560.6388 
 6873000    257.06419   -3902.1765   -3461.5773   -3902.1765            0    9556.2093    16.968854    19.987069    20.701962    7021.2289    8768.3501    9628.1451    10272.133   -912.63692    -1455.003   -1823.1152   -2483.0461 
 6874000    263.61284   -3833.7994    -3381.976   -3833.7994            0    9911.5717    16.923343    19.933462    20.646438    6964.8862    9819.2443    9239.5841    10675.887   -124.83395    179.53772    419.99189   -2375.2009 
 6875000    273.65438   -3828.2093    -3359.175   -3828.2093            0    9179.8145     16.94229     19.95578    20.669554    6988.3063    10169.986    8495.4285    8874.0293   -310.90683   -1418.6836    758.82725   -2423.5933 
 6876000    261.51701   -3869.9236   -3421.6923   -3869.9236            0    9107.2953    16.974126    19.993278    20.708394    7027.7752    7879.8854    10764.311    8677.6894    130.29519   -162.57945    1447.8896   -2488.2593 
 6877000    266.82706   -3846.5894   -3389.2569   -3846.5894            0    11263.293    16.905396    19.912323    20.624544    6942.7517     12324.74    10151.156    11313.984   -712.69252    444.27593    1615.0489   -2248.8157 
 6878000    256.55583   -3846.7145   -3406.9866   -3846.7145            0    6722.2017    16.998402    20.021873    20.738011    7057.9716      8253.18    5178.5657    6734.8595    -947.3503    1703.2363    569.58073   -2715.0484 
 6879000    262.99141   -3839.7884   -3389.0301   -3839.7884            0     7912.245    16.960228    19.976908    20.691438    7010.5264    8164.6162    6367.1255    9204.9934     418.6349    1641.0598   -612.36278   -2580.0716 
 6880000    264.50319   -3902.9406   -3449.5912   -3902.9406            0    10555.391    16.865704    19.865571    20.576119    6893.9639     11202.63    11414.841    9048.7008   -1427.8325    753.99098    438.52399   -2388.3375 
 6881000    263.08158   -3894.8331   -3443.9202   -3894.8331            0    8515.9299    16.894574    19.899576    20.611341    6929.4268    6302.4157     9632.523    9612.8509   -55.543252    307.50339    375.05983   -2583.3125 
 6882000    266.44092    -3828.138   -3371.4673    -3828.138            0    7396.1185     16.93571    19.948029    20.661526    6980.1667    5905.5571    8185.0966     8097.702     1381.876   -928.37208   -197.79872    -2618.553 
 6883000    256.51849   -3853.8058   -3414.1419   -3853.8058            0    5535.0478    16.990254    20.012275    20.728071     7047.827    5542.9152    6363.5228    4698.7054    374.70136   -119.30837   -1319.6654   -2845.2202 
 6884000     259.2273   -3890.2669   -3445.9602   -3890.2669            0    8623.8654    16.919117    19.928485    20.641283    6959.6704     10074.63    8003.8136    7793.1527   -1842.4728   -625.87825   -695.51472   -2570.6409 
 6885000    246.88274   -3884.9607   -3461.8121   -3884.9607            0    8131.1524    16.974008    19.993139     20.70825    7027.6286    7711.3845    9400.9329    7281.1397   -426.28053    1498.9139    302.45692   -2628.4441 
 6886000    259.83704   -3863.3141   -3417.9623   -3863.3141            0    8558.7308    16.931524    19.943099     20.65642     6974.993    9119.8993    9341.6815    7214.6117   -19.783848    1451.4582   -853.27244   -2547.3415 
 6887000    254.40733    -3871.207   -3435.1615    -3871.207            0    8684.3647    17.022831    20.050646    20.767814    7088.4442     9404.176    9188.0632    7460.8549   -1099.4402   -1567.8583    313.18607    -2537.392 
 6888000    270.55934   -3870.6855    -3406.956   -3870.6855            0     7464.855    17.007442     20.03252    20.749039    7069.2375     8790.197     7076.116     6528.252    1158.6882    466.11774   -979.84898   -2637.3475 
 6889000    260.67173   -3910.9369   -3464.1544   -3910.9369            0    9232.6565    16.898849    19.904612    20.616556    6934.6884    11498.979     8548.738    7650.2528    -1131.755    1138.9516    78.940757   -2530.4068 
 6890000    251.10114    -3869.055   -3438.6762    -3869.055            0      7883.97    17.085299    20.124226    20.844025    7166.7681    8290.8954    6627.4956    8733.5191    769.43775   -647.03107    99.931848   -2614.6439 
 6891000    258.63146   -3906.5934   -3463.3079   -3906.5934            0    7519.3564     17.00122    20.025192    20.741449    7061.4825    7422.6958    7902.2865    7233.0868   -332.75886   -273.01454    893.49346   -2688.9309 
 6892000    256.40165   -3885.0846   -3445.6209   -3885.0846            0    8258.8353    17.018891    20.046005    20.763007    7083.5234    7533.7605    9942.3711    7300.3745    16.979785    1230.2152   -2776.7617   -2592.4343 
 6893000    258.93495   -3869.6392   -3425.8336   -3869.6392            0    8127.5371    17.017384     20.04423    20.761168     7081.642    7846.3707    8535.5275    8000.7132   -177.46425   -1266.9385   -395.02646   -2586.4339 
 6894000    255.34112   -3833.0749    -3395.429   -3833.0749            0    9658.8514    16.996389    20.019501    20.735555    7055.4641    10371.261    10239.601    8365.6916   -186.76855    1304.0917    736.58892    -2401.565 
 6895000    266.75666   -3841.7436   -3384.5318   -3841.7436            0    8385.6353    17.035387    20.065436    20.783133    7104.1417    9342.8955    8560.9186    7253.0917    -837.1477    2046.0492   -718.63094   -2515.7244 
 6896000    243.57411   -3849.1864   -3431.7087   -3849.1864            0    8088.8812    16.984215    20.005162    20.720703    7040.3145     8695.156    8674.4721    6897.0156    -1669.665    490.26504   -61.701317   -2601.1767 
 6897000    237.25497   -3849.2505   -3442.6036   -3849.2505            0    7421.5921    17.031323    20.060649    20.778175    7099.0587    6549.2226    7427.0231    8288.5306     1895.426   -54.041327   -119.05047   -2674.2277 
 6898000    267.62357   -3897.3299   -3438.6323   -3897.3299            0    8117.7094    16.940361    19.953508    20.667201    6985.9199    7923.8083    7318.4976    9110.8223    381.82962    348.34093   -1115.9755     -2611.58 
 6899000    267.55621   -3817.1381   -3358.5559   -3817.1381            0    8518.6964    17.007505    20.032595    20.749117    7069.3167    7794.2265    9316.5267     8445.336     -197.029    -69.85971    237.58358   -2480.2891 
 6900000    259.11659    -3868.846   -3424.7291    -3868.846            0    8321.6016    16.951767    19.966942    20.681116    7000.0399    9786.6738    6454.6118    8723.5194    466.60473    1441.9905   -28.024731     -2575.19 
 6901000    266.51165   -3845.4366   -3388.6448   -3845.4366            0     7948.202      16.9926    20.015038    20.730932    7050.7462     9797.693    7698.1275    6348.7855   -147.13959     301.4042   -1078.7858   -2571.3479 
 6902000    256.07905   -3867.6612   -3428.7504   -3867.6612            0    8823.8526    16.916066    19.924891    20.637561    6955.9059    10558.383    8035.3976    7877.7769   -270.97612    926.72801    1531.8633   -2533.6169 
 6903000    266.22442    -3845.588   -3389.2885    -3845.588            0    11874.376    16.914633    19.923203    20.635813    6954.1383    11405.123    12753.189    11464.817   -357.97945    1324.1062    753.57171   -2185.0014 
 6904000    249.71488   -3888.5803   -3460.5775   -3888.5803            0    7327.3712    17.038271    20.068832    20.786651    7107.7499    8523.8218    7089.3289    6368.9628    -1093.607    1352.9143    207.68352   -2701.0278 
 6905000    254.44476   -3870.7104   -3434.6008   -3870.7104            0    7783.3127    17.003105    20.027412    20.743748    7063.8309    8299.2709    7374.8185    7675.8488   -72.414158     300.7732   -671.00901   -2632.7738 
 6906000    249.84187   -3862.1664    -3433.946   -3862.1664            0    9411.5629    16.928959    19.940078    20.653291     6971.823    11232.798      9253.99    7747.9004    910.62684   -40.582724   -451.73889   -2477.0075 
 6907000    257.99353   -3859.8848   -3417.6927   -3859.8848            0    8396.1801    16.910509    19.918346    20.630781    6949.0529    10532.222    9315.5143    5340.8044    1278.3853   -466.94303    1746.0262   -2566.7834 
 6908000    253.27491   -3863.8822   -3429.7777   -3863.8822            0    7875.5722    16.940791    19.954014    20.667725    6986.4511    9148.3027    8946.9186    5531.4954   -1198.0463    919.68983    169.32207   -2627.3339 
 6909000    254.99045   -3848.0544   -3411.0095   -3848.0544            0    9551.1157    16.936297     19.94872    20.662243    6980.8926    8653.7555    10608.043    9391.5488    -1419.623    370.16881   -1100.4446   -2438.6185 
 6910000    273.61975   -3830.5165   -3361.5416   -3830.5165            0    9446.4085    16.898116    19.903748    20.615662    6933.7859    8411.9802    8786.4732    11140.772    183.61645     815.6498     219.1729   -2406.3005 
 6911000    261.21074   -3870.4884   -3422.7821   -3870.4884            0    7041.9461    16.935116     19.94733    20.660803    6979.4332    6150.1352    8190.0585    6785.6447    1958.8057   -1174.5884   -817.00249   -2705.9974 
 6912000    256.29539   -3836.4094   -3397.1278   -3836.4094            0    8971.4007    16.906452    19.913568    20.625832    6944.0534    9340.2256    8059.1819    9514.7945    1216.5233   -287.79721    -103.1269   -2488.5771 
 6913000     262.9123   -3851.1746   -3400.5519   -3851.1746            0     8764.975    16.922158    19.932066    20.644993    6963.4232    8536.5871    8286.7988    9471.5391   -206.40483    479.25738    509.29639   -2510.4302 
 6914000    262.02977   -3868.2065   -3419.0964   -3868.2065            0    9701.8968    16.965986    19.983691    20.698463    7017.6694     10416.42     8966.724    9722.5463    1380.3422    494.38796    1210.3785   -2426.1508 
 6915000    267.11795   -3889.5034   -3431.6724   -3889.5034            0    6557.9782    17.043203    20.074642    20.792668    7113.9242    6987.9371    7869.7551    4816.2424    -185.7957    1386.6722   -277.08752   -2751.2868 
 6916000    253.47873   -3827.9504   -3393.4965   -3827.9504            0    9264.8959    16.881577    19.884268    20.595484    6913.4466    9799.5472    9992.2905    8002.8499     241.3489    547.62761    951.84041   -2459.3585 
 6917000    252.65893   -3885.5993   -3452.5505   -3885.5993            0    8185.5467    16.963689    19.980985    20.695661    7014.8191    9186.3199    8186.9065    7183.4139    160.08087   -798.02488    888.55673   -2615.1368 
 6918000    269.08196     -3823.25   -3362.0528     -3823.25            0    6567.8809    16.989334    20.011192    20.726948     7046.682    7480.0457    5966.4563    6257.1406      62.5706   -165.28439   -270.49714   -2687.0806 
 6919000    259.55303    -3815.128    -3370.263    -3815.128            0     8705.228    16.953399    19.968865    20.683108    7002.0621    8243.2488    9459.6649    8412.7703   -213.72726    316.77268   -1071.1154   -2481.3034 
 6920000    269.53985   -3862.7059   -3400.7239   -3862.7059            0    6725.9993    17.002952    20.027232    20.743562    7063.6408    7550.2173    6861.3278    5766.4529     663.0221   -696.34742    105.29264   -2707.8386 
 6921000    256.77224   -3862.3419   -3422.2431   -3862.3419            0    8443.6955    16.958265    19.974596    20.689043    7008.0925    8003.0145    8128.8306    9199.2413    149.69423   -1081.7652   -564.60277   -2559.2481 
 6922000    265.51554   -3878.5801   -3423.4955   -3878.5801            0    10319.946    16.965088    19.982633    20.697368    7016.5549    10298.498    10573.641      10087.7    112.55178    537.93999    359.78138   -2367.4631 
 6923000    261.24245   -3880.0283   -3432.2677   -3880.0283            0    7196.3085    17.039702    20.070518    20.788396    7109.5407    7474.2318    8539.3064    5575.3872    1155.9896    784.96413   -520.86455   -2686.1159 
 6924000    275.00045   -3873.0587   -3401.7173   -3873.0587            0    10622.839    16.865396    19.865208    20.575743    6893.5858    13232.983    9308.8666    9326.6676     377.0639   -670.63126   -1706.0322   -2333.7409 
 6925000    268.80259   -3851.7425    -3391.024   -3851.7425            0    7135.4941    17.007906    20.033066    20.749605    7069.8158    7465.1057    8412.7028    5528.6739    1132.0385    29.522037   -139.21481   -2655.3117 
 6926000    263.43708   -3898.1156   -3446.5935   -3898.1156            0    9916.4623    16.859396    19.858142    20.568424    6886.2319    8945.7003    11846.623    8957.0638   -1169.3821    48.194899    165.52073   -2450.6968 
 6927000    255.15773    -3858.341   -3421.0094    -3858.341            0    7692.8825      16.9619    19.978877    20.693478    7012.5999    9235.7768    8008.7968    5834.0739   -1062.3417    628.57547    473.74762   -2634.2462 
 6928000     272.8901   -3889.0544   -3421.3301   -3889.0544            0     7895.365    16.962243    19.979282    20.693897    7013.0262    8511.2267    7613.3236    7561.5448   -575.40464   -595.28508   -293.05192   -2613.8096 
 6929000    248.49963   -3882.2715   -3456.3517   -3882.2715            0    6108.8805    17.035008     20.06499     20.78267    7103.6676    6320.5463     5956.882    6049.2133    622.77575    279.31047      1200.38   -2823.4735 
 6930000    251.62175   -3882.7601   -3451.4891   -3882.7601            0    7594.4165    16.969438    19.987756    20.702674    7021.9534    8656.1565    6292.0813    7835.0116   -459.53416   -231.82187    941.27737   -2673.7602 
 6931000     278.1845   -3897.6028   -3420.8041   -3897.6028            0    9604.6611     16.99502    20.017889    20.733885    7053.7594    10581.353    8469.5244    9763.1061    4.0724217    521.60264    984.71231   -2432.7549 
 6932000    272.78464   -3867.2862   -3399.7427   -3867.2862            0    9572.8518    16.955087    19.970852    20.685166    7004.1531    11293.091    9430.1749    7995.2898   -1327.4763    1057.8778    63.444327   -2421.8913 
 6933000     264.4908    -3890.239   -3436.9108    -3890.239            0    8166.3257    16.989842     20.01179    20.727567    7047.3137    8579.7443    9320.6053    6598.6275    -219.6677    579.54737    1605.0735   -2597.5935 
 6934000    261.98787   -3884.0362    -3434.998   -3884.0362            0    9131.7097     16.90494    19.911787    20.623988    6942.1904    10917.843    8119.7468    8357.5397   -1886.2633   -196.85709     968.3421   -2510.4605 
 6935000     276.9511   -3877.7378   -3403.0531   -3877.7378            0    7629.9532    17.009905    20.035421    20.752044    7072.3093    6907.0751    7687.6819    8295.1027   -1955.2871     593.8256   -146.90118   -2616.0816 
 6936000     260.9491   -3842.7289   -3395.4711   -3842.7289            0    9237.5456    16.937541    19.950186    20.663761    6982.4313    8920.2984    9675.7123     9116.626   -828.55401    633.48955   -252.22261   -2454.7971 
 6937000    267.35554   -3855.3768   -3397.1386   -3855.3768            0    8141.0933    16.907214    19.914465    20.626762    6944.9924    9151.4568    7981.3256    7290.4974    1262.3426    519.19895    40.864371   -2572.5631 
 6938000    273.30242   -3813.6037   -3345.1727   -3813.6037            0    10612.841     16.91984    19.929337    20.642165    6960.5628    12204.034    10029.971    9604.5166    379.36369    -184.5481    -93.12859   -2267.8349 
 6939000    250.66439   -3850.8158   -3421.1856   -3850.8158            0    8181.5803    16.940955    19.954207    20.667925    6986.6539    6268.7616    9509.8304    8766.1487   -1017.9862   -1705.5449    430.92394   -2587.5384 
 6940000    271.40047   -3841.2519   -3376.0808   -3841.2519            0    9035.2148     16.97709    19.996769     20.71201    7031.4567    7258.2411    9894.1618    9953.2414   -43.179164   -8.4576583    444.40074   -2449.5504 
 6941000    274.72605   -3859.8874   -3389.0163   -3859.8874            0    8674.5547    16.982789    20.003483    20.718963    7038.5413    9020.5164      7814.66    9188.4877   -637.95358    -1383.772    -67.81138   -2498.5741 
 6942000    262.43059   -3833.9633   -3384.1662   -3833.9633            0    9723.2847    16.992638    20.015083    20.730979    7050.7938     8228.793    12486.684    8454.3769    743.72822   -1660.8242    1077.3868   -2384.3345 
 6943000     260.5135   -3835.7718   -3389.2606   -3835.7718            0     7941.562    16.970784    19.989342    20.704317    7023.6249    6847.8484    9148.6076      7828.23   -628.38809   -1689.8109   -332.67182   -2575.7876 
 6944000     265.7622   -3837.1049   -3381.5976   -3837.1049            0    9355.2666    16.930239    19.941585    20.654852    6973.4046    8853.4544    8177.0599    11035.285    2397.1665   -571.27947   -1024.4336   -2430.1674 
 6945000    253.06677   -3867.6245   -3433.8767   -3867.6245            0    9430.2266    16.894541    19.899538    20.611301    6929.3867    10832.672    9107.0617    8350.9458   -1085.7796    619.34454   -735.60202   -2480.8769 
 6946000    254.49854   -3850.9703   -3414.7685   -3850.9703            0    6791.2404    16.951514    19.966645    20.680808    6999.7269    8392.0275    5775.9615    6205.7322    500.21702   -229.35347   -106.93022   -2721.4926 
 6947000    271.89745   -3874.7983   -3408.7754   -3874.7983            0    9448.2826    16.881195    19.883818    20.595018    6912.9774    9335.1025    9040.5597    9969.1855    938.73656    563.16568    1026.8213    -2456.212 
 6948000    260.72657   -3867.2068   -3420.3304   -3867.2068            0    8015.0611    16.909981    19.917723    20.630137    6948.4016    9218.3078    8543.7614     6283.114   -894.71461   -614.31978    872.89107   -2608.1216 
 6949000    275.51926   -3861.2524   -3389.0218   -3861.2524            0    8383.1225    16.907102    19.914332    20.626624    6944.8532    7951.9925    10758.297    6439.0779   -170.24204   -911.53603   -1533.2404   -2539.9493 
 6950000    263.46233   -3863.7571   -3412.1917   -3863.7571            0    9367.4119    16.986535    20.007895    20.723533    7043.1999    8973.9205    8767.0595    10361.256    1441.2806   -498.48849   -603.39916   -2449.9913 
 6951000    267.52242   -3879.9612    -3421.437   -3879.9612            0    6848.8916    17.050949    20.083766    20.802118    7123.6288    5008.7796    7589.1792    7948.7159    667.39221    157.70032    414.69645      -2709.9 
 6952000    256.78385   -3841.1533   -3401.0346   -3841.1533            0    5865.3773    17.043016    20.074422     20.79244    7113.6906    5765.8076    7288.1113     4542.213    -449.4501   -104.39421    174.38646   -2792.5258 
 6953000    253.83939    -3869.449    -3434.377    -3869.449            0    9619.5909    16.965816    19.983491    20.698256     7017.459    9900.6893    10741.636    8216.4478   -2038.4097    1109.6289    126.33048   -2449.8845 
 6954000    258.83112   -3877.4108   -3433.7831   -3877.4108            0    9805.8067    16.964501    19.981941    20.696651    7015.8267    10524.266    9797.3996    9095.7542   -485.04396    1163.3891   -778.08016   -2430.4663 
 6955000    246.46502   -3866.7179   -3444.2853   -3866.7179            0    7810.3458    16.989531    20.011423    20.727188    7046.9264    7914.2061    7644.1505    7872.6806     458.5291   -881.34602     1035.504   -2641.5989 
 6956000    264.08321   -3884.5761   -3431.9465   -3884.5761            0    6354.9027    16.975354    19.994725    20.709892    7029.3007    6825.3408    6800.4905    5438.8767   -29.069462   -414.65085    1755.6785   -2780.4728 
 6957000    256.94476   -3869.3852   -3428.9906   -3869.3852            0    9566.5496    16.939231    19.952176    20.665822     6984.521     8040.494    11000.286    9658.8691   -1568.7559   -917.88862     -72.8256    -2454.522 
 6958000    272.71107   -3839.0436   -3371.6261   -3839.0436            0    11478.474    16.868745    19.869153    20.579829    6897.6933    12627.812    11556.193    10251.416    -608.5015   -423.40389    99.825033   -2216.9401 
 6959000      253.928   -3839.9624   -3404.7385   -3839.9624            0    8797.8135    16.969412    19.987726    20.702643    7021.9218    13029.116    7992.0241    5372.3006   -1474.4562    -2052.849   -265.41362   -2503.7762 
 6960000    266.66642   -3828.3712   -3371.3141   -3828.3712            0    8976.6693    16.946316    19.960522    20.674466    6993.2895    9366.9601    8993.2072    8569.8406   -930.59768   -369.31405   -442.88809    -2455.784 
 6961000    257.29871   -3882.4746   -3441.4734   -3882.4746            0    8647.4828    16.962105    19.979119    20.693729    7012.8546    8210.5075     10429.15    7302.7908    756.36225   -74.439603    1139.0612   -2557.0496 
 6962000    271.00671   -3900.0247   -3435.5285   -3900.0247            0    8976.6069    17.004959    20.029595     20.74601    7066.1415    9188.7678    9203.8196    8537.2333   -1470.1844   -322.37833    642.17973   -2510.4674 
 6963000    282.57074   -3862.4077   -3378.0911   -3862.4077            0    7508.8844    16.966583    19.984394    20.699192    7018.4105    7833.8457    7286.8785     7405.929    1272.8622    674.50172    157.51178   -2609.5093 
 6964000     269.6163   -3856.7255   -3394.6124   -3856.7255            0     8243.432    16.863708    19.863221    20.573685    6891.5172    6856.2027    8056.3904    9817.7031    336.90278   -931.68314    905.57478   -2566.1004 
 6965000    251.24928   -3909.9865   -3479.3538   -3909.9865            0    7553.9225    16.945102    19.959091    20.672984    6991.7859    8303.9065    8095.5499    6262.3112    355.00171    2.4333193    312.91308   -2709.0953 
 6966000    244.43122   -3844.8641   -3425.9174   -3844.8641            0    11028.489     16.92691    19.937664     20.65079    6969.2912    13820.145    11039.053    8226.2695   -217.80256   -1419.0449    930.46263   -2304.9822 
 6967000    254.58205    -3866.431   -3430.0861    -3866.431            0    9046.1027    16.941438    19.954776    20.668515    6987.2522    10571.016    8510.5087    8056.7835    159.02183   -1039.5071   -1106.6158    -2508.271 
 6968000    257.59066   -3848.6094   -3407.1078   -3848.6094            0    10395.923    16.965805    19.983478    20.698243    7017.4452    10336.036    10978.063    9873.6683    125.82523    779.02531   -1035.9295   -2343.1658 
 6969000    270.22882   -3845.7768   -3382.6138   -3845.7768            0    9714.1781    16.931238    19.942762    20.656071    6974.6388    8550.3056    8472.0496    12120.179   -304.65085   -354.14327    319.67048   -2394.5075 
 6970000    250.94436   -3858.1564   -3428.0464   -3858.1564            0    7243.3566    16.998488    20.021973    20.738115    7058.0778    7346.8814    8010.5942    6372.5944    126.67976   -832.59297   -582.86348   -2682.4527 
 6971000     277.0571   -3884.5623   -3409.6959   -3884.5623            0    7469.3916    17.004068    20.028546    20.744923    7065.0309     8749.298    7091.6746    6567.2023   -1163.0382    348.07694    1073.3468   -2640.0779 
 6972000     263.9454   -3883.2223    -3430.829   -3883.2223            0     7448.302    16.967252    19.985182    20.700008    7019.2407    7575.7031    8282.3521    6486.8508    748.98304    1486.8016     1433.449    -2668.358 
 6973000    245.96909   -3816.3655   -3394.7829   -3816.3655            0    10026.747    16.927666    19.938555    20.651713    6970.2261    10498.536    8759.8721    10821.831   -99.057549   -563.72477   -228.28213    -2375.528 
 6974000    265.76666   -3840.2276   -3384.7126   -3840.2276            0     8619.628    16.980513    20.000801    20.716186    7035.7112     7167.333    10100.809    8590.7416   -2112.8456   -809.98574    2109.7917   -2500.2644 
 6975000    249.43163   -3840.0382    -3412.521   -3840.0382            0    8646.3215    16.918811    19.928125     20.64091    6959.2929    8782.1036    9106.7095    8050.1513   -558.21746    2327.5538    566.51301   -2534.9699 
 6976000    268.10682    -3838.652   -3379.1261    -3838.652            0     9462.747    16.906991    19.914202     20.62649    6944.7174    8277.6263    10034.416    10076.199   -2016.3263    278.18212   -68.562922   -2420.7241 
 6977000    281.34465   -3807.2749   -3325.0598   -3807.2749            0    10224.751     16.92326    19.933365    20.646338    6964.7849     12874.55     6609.394     11190.31    1249.8381   -996.33201    1950.9876   -2286.4884 
 6978000    270.94975   -3835.4269   -3371.0283   -3835.4269            0    8796.2235    16.933414    19.945326    20.658726    6977.3291    6756.6827    11051.298    8580.6898    1674.4634   -963.95561    98.991089   -2475.9493 
 6979000    270.57646   -3879.2034   -3415.4446   -3879.2034            0    6559.4202    16.976443    19.996007     20.71122    7030.6529    6319.2395    6194.8387    7164.1825    1486.7222    605.68934    1201.3415   -2742.8754 
 6980000     271.9053   -3852.9163   -3386.8799   -3852.9163            0    8999.6288    16.921293    19.931048    20.643938     6962.356    8476.8554    8022.1787    10499.852    805.45566    458.20676   -472.47339   -2473.0682 
 6981000    281.77907   -3885.8327    -3402.873   -3885.8327            0    10585.051    16.874628    19.876083    20.587007    6904.9133    11218.898     7811.047    12725.209   -568.38647   -741.53492   -191.51383   -2336.9469 
 6982000    268.54221   -3871.6416   -3411.3694   -3871.6416            0    7619.2681    16.968203    19.986302    20.701168    7020.4209    8081.2639    7568.6115     7207.929    725.41278   -988.83081   -785.56315   -2631.2658 
 6983000    267.72685   -3867.7598   -3408.8851   -3867.7598            0    9387.1955    16.892805    19.897493    20.609182    6927.2501    8482.5566    10073.617    9605.4127   -434.79125    2176.3147     296.3307   -2460.5264 
 6984000    271.22702   -3829.8358    -3364.962   -3829.8358            0    8900.0818    16.961724     19.97867    20.693263    7012.3816    9134.2127    7079.2086    10486.824    1976.5414   -102.43913    1050.2125   -2454.7649 
 6985000    259.57831   -3835.9364   -3391.0281   -3835.9364            0    8276.9399    17.004291    20.028808    20.745195     7065.309    8913.4391     7202.806    8714.5745    893.57816   -650.62246    2434.3726   -2538.1699 
 6986000    264.82181   -3832.4765   -3378.5809   -3832.4765            0    9384.4612     16.93865    19.951492    20.665113    6983.8025    8014.2382    9969.6555     10169.49   -292.71723   -244.78363   -544.80862   -2422.7586 
 6987000    257.05992   -3830.6861   -3390.0942   -3830.6861            0    10636.895      16.8814    19.884059    20.595268     6913.229    9563.3244    10934.272    11413.087   -745.21039   -1122.9384   -476.67875   -2317.6574 
 6988000     269.0878   -3813.6848   -3352.4775   -3813.6848            0     8974.386    16.946947    19.961265    20.675236    6994.0709     9836.766    8666.3603    8420.0316   -1396.8165    2212.2349    552.04738    -2437.078 
 6989000    259.47877   -3845.5647    -3400.827   -3845.5647            0    8420.7368    16.960599    19.977345    20.691891    7010.9862    7022.1756    9465.9733    8774.0614    889.84738   -1146.7428      1073.78   -2539.8232 
 6990000    261.81748   -3846.0754   -3397.3292   -3846.0754            0    9392.8985    16.898532    19.904238    20.616169     6934.298    8591.2978    11965.952    7621.4457   -64.935236   -1287.1341    719.43199   -2447.4289 
 6991000    250.41562    -3856.526   -3427.3222    -3856.526            0    8754.1477    16.982194    20.002781    20.718237     7037.801    9963.8097       7658.8    8639.8334   -834.89814    914.78729   -187.95223   -2528.8043 
 6992000    267.55635   -3857.8761   -3399.2936   -3857.8761            0    8579.7892    16.926532    19.937219     20.65033    6968.8254    8467.3084      10093.8    7178.2598   -1328.9904    1995.3543    1917.6896   -2527.3025 
 6993000    267.83248   -3818.7608   -3359.7051   -3818.7608            0    9772.3992    16.966072    19.983792    20.698569    7017.7764    11380.721    8963.9347    8972.5416   -615.92365    162.13357   -244.95186   -2359.5287 
 6994000    269.76821   -3832.8862   -3370.5127   -3832.8862            0    9168.3816    16.945139    19.959135     20.67303    6991.8322    8095.9167    7873.8375    11535.391    1388.8004     22.00277    169.23035   -2435.6247 
 6995000    278.16992   -3827.1211   -3350.3473   -3827.1211            0    10132.018    16.946861    19.961163     20.67513    6993.9635    11305.412     11416.27    7674.3726   -662.20979    768.30819   -1154.7429   -2316.8837 
 6996000    269.81355   -3857.1742   -3394.7231   -3857.1742            0    6749.2994    17.013708    20.039901    20.756684    7077.0543    6878.3182    6082.6622    7286.9178    -48.14342   -1363.2917   -1127.3408   -2698.1172 
 6997000    254.94443   -3822.8789   -3385.9129   -3822.8789            0    9229.8658    16.946333    19.960542    20.674487    6993.3108    9895.8735    9954.8636    7838.8604    1736.6392   -185.31557   -713.01886   -2444.5564 
 6998000    275.94108   -3830.8616    -3357.908   -3830.8616            0    6948.0904    17.006211     20.03107    20.747537    7067.7024    7850.3844     6482.001    6511.8857    -1083.235    626.20011   -970.66671   -2641.7322 
 6999000    249.91528   -3879.6602   -3451.3139   -3879.6602            0    5759.8499    17.034001    20.063803    20.781441    7102.4071    7461.0438    6067.2001     3751.306    1341.7376    598.62012    766.55036    -2854.701 
 7000000     271.0188   -3849.9642   -3385.4473   -3849.9642            0    7817.7821    17.024032    20.052061    20.769279    7089.9447    7041.7266    9141.1033    7270.5164    338.76394   -555.51001   -24.046426   -2577.0919 
Loop time of 489.797 on 64 procs for 250000 steps with 864 atoms

Performance: 88.200 ns/day, 0.272 hours/ns, 510.416 timesteps/s
99.0% CPU use with 64 MPI tasks x 1 OpenMP threads

MPI task timing breakdown:
Section |  min time  |  avg time  |  max time  |%varavg| %total
---------------------------------------------------------------
Pair    | 21.367     | 26.851     | 31.947     |  47.7 |  5.48
Bond    | 0.28817    | 0.29718    | 0.30833    |   0.8 |  0.06
Kspace  | 214.24     | 221.68     | 228.21     |  25.7 | 45.26
Neigh   | 6.0285     | 6.8499     | 7.686      |  18.6 |  1.40
Comm    | 103.52     | 110.59     | 119.1      |  41.6 | 22.58
Output  | 1.4606     | 1.4736     | 1.4898     |   0.6 |  0.30
Modify  | 114.59     | 116.71     | 118.72     |   7.4 | 23.83
Other   |            | 5.343      |            |       |  1.09

Nlocal:        13.5000 ave          18 max           8 min
Histogram: 1 2 4 9 6 13 3 12 6 8
Nghost:        2253.86 ave        2293 max        2209 min
Histogram: 1 2 3 11 9 13 15 7 2 1
Neighs:        4350.78 ave        6740 max        2355 min
Histogram: 2 7 7 11 11 8 8 7 2 1

Total # of neighbors = 278450
Ave neighs/atom = 322.28009
Ave special neighs/atom = 2.0000000
Neighbor list builds = 14375
Dangerous builds = 0

unfix		3
unfix		2
unfix		1

write_data	data.final.${pid}
write_data	data.final.0
System init for write_data ...
PPPM initialization ...
  extracting TIP4P info from pair style
  using 12-bit tables for long-range coulomb (../kspace.cpp:340)
  G vector (1/distance) = 0.3740235
  grid = 24 24 24
  stencil order = 5
  estimated absolute RMS force accuracy = 0.0031882758
  estimated relative force accuracy = 9.6013979e-06
  using double precision FFTW3
  3d grid and FFT values/proc = 2535 216
Last active /omp style is kspace_style pppm/tip4p/omp
WARNING: Not all mixed pair coeffs generated from mixing. Use write_data with 'pair ij' option to store all pair coeffs. (../write_data.cpp:312)

write_restart   restart.lmp.${pid}
write_restart   restart.lmp.0
System init for write_restart ...
PPPM initialization ...
  extracting TIP4P info from pair style
  using 12-bit tables for long-range coulomb (../kspace.cpp:340)
  G vector (1/distance) = 0.3740235
  grid = 24 24 24
  stencil order = 5
  estimated absolute RMS force accuracy = 0.0031882758
  estimated relative force accuracy = 9.6013979e-06
  using double precision FFTW3
  3d grid and FFT values/proc = 2535 216
Last active /omp style is kspace_style pppm/tip4p/omp
Total wall time: 0:08:12
