#include		in.partitions
include		in.temp
variable        temperature equal 105.75
variable	tempDamp equal 100.0
include		in.pressure
variable        pressure equal 2793.8
variable        pressureDamp equal 1000.0 # This is 1 ps
include		in.seed
variable        seed equal 745823

units		real
atom_style	full
box tilt large
read_restart	restart.lmp.${pid}
read_restart	restart.lmp.0
Reading restart file ...
  restart file = 30 Jul 2021, LAMMPS = 30 Jul 2021
  restoring atom style full from restart
  triclinic box = (-10.619324 -9.1816831 0.10534848) to (12.599324 12.171681 21.754651) with tilt (-9.0644054 1.9547965 2.6782610)
  4 by 4 by 4 MPI processor grid
  restoring pair style lj/cut/tip4p/long/omp from restart
  restoring bond style harmonic/omp from restart
  restoring angle style harmonic/omp from restart
  1296 atoms
  864 bonds
  432 angles
Finding 1-2 1-3 1-4 neighbors ...
  special bond factors lj:    0        0        0       
  special bond factors coul:  0        0        0       
     2 = max # of 1-2 neighbors
     1 = max # of 1-3 neighbors
     1 = max # of 1-4 neighbors
     2 = max # of special neighbors
  special bonds CPU = 0.007 seconds
  read_restart CPU = 0.020 seconds
include 	in.setup
variable	out_freq equal 1000
variable	out_freq2 equal 10000
variable	out_freq3 equal 1000

timestep	2.0

neigh_modify    delay 7 every 1

include		in.tip4p
# This is TIP4P/Ice

# create groups ###
group ox type 2
432 atoms in group ox
group hy type 1
864 atoms in group hy

# set charges - beside manually ###
set group ox charge -1.1794
Setting atom values ...
  432 settings made for charge
set group hy charge 0.5897
Setting atom values ...
  864 settings made for charge

# ### TIP3P Potential Parameters ###
pair_style lj/cut/tip4p/long/omp 2 1 1 1 0.1577 8.5
pair_coeff 1 1*2 0.000 0.000
pair_coeff 2 2 0.21084 3.1668
bond_style  harmonic
bond_coeff  1 450 0.9572
angle_style harmonic
angle_coeff 1 55 104.52
kspace_style pppm/tip4p/omp 1.0e-5
pair_modify tail yes

thermo          ${out_freq}
thermo          1000
thermo_style    custom step temp pe etotal epair emol press lx ly lz vol pxx pyy pzz pxy pxz pyz enthalpy

restart 	${out_freq3} restart.lmp.${pid} restart2.lmp.${pid}
restart 	1000 restart.lmp.${pid} restart2.lmp.${pid}
restart 	1000 restart.lmp.0 restart2.lmp.${pid}
restart 	1000 restart.lmp.0 restart2.lmp.0


include         in.dump
dump            myDump all atom ${out_freq2} dump.water.${pid}
dump            myDump all atom 10000 dump.water.${pid}
dump            myDump all atom 10000 dump.water.0
dump            myDump2 all dcd ${out_freq2} dump.dcd
dump            myDump2 all dcd 10000 dump.dcd
dump_modify     myDump append yes
dump_modify     myDump2 append yes


variable natoms 	equal  "count(all)"                        # NUMBER ATOMS
variable H      	equal  "enthalpy/v_natoms"                 # ENTHALPY-per-atom
variable Vol      	equal  "vol/v_natoms"                 # volume-per-atom
fix AVG all 		ave/time ${out_freq} 1 ${out_freq} v_Vol v_H file vol_enthalpy.dat
fix AVG all 		ave/time 1000 1 ${out_freq} v_Vol v_H file vol_enthalpy.dat
fix AVG all 		ave/time 1000 1 1000 v_Vol v_H file vol_enthalpy.dat


timer           timeout 10:00:00 every 1000
New timer settings: style=normal  mode=nosync  timeout=10:00:00

fix 		1 all shake 1e-6 200 0 b 1 a 1
       0 = # of size 2 clusters
       0 = # of size 3 clusters
       0 = # of size 4 clusters
     432 = # of frozen angles
  find clusters CPU = 0.001 seconds
fix             2 all nph tri ${pressure} ${pressure} ${pressureDamp}
fix             2 all nph tri 2793.8 ${pressure} ${pressureDamp}
fix             2 all nph tri 2793.8 2793.8 ${pressureDamp}
fix             2 all nph tri 2793.8 2793.8 1000
fix             3 all temp/csvr ${temperature} ${temperature} ${tempDamp} ${seed}
fix             3 all temp/csvr 105.75 ${temperature} ${tempDamp} ${seed}
fix             3 all temp/csvr 105.75 105.75 ${tempDamp} ${seed}
fix             3 all temp/csvr 105.75 105.75 100 ${seed}
fix             3 all temp/csvr 105.75 105.75 100 745823


run             250000
PPPM initialization ...
  extracting TIP4P info from pair style
  using 12-bit tables for long-range coulomb (../kspace.cpp:340)
  G vector (1/distance) = 0.36887629
  grid = 30 40 32
  stencil order = 5
  estimated absolute RMS force accuracy = 0.0041854338
  estimated relative force accuracy = 1.260431e-05
  using double precision FFTW3
  3d grid and FFT values/proc = 5168 640
Last active /omp style is kspace_style pppm/tip4p/omp
Neighbor list info ...
  update every 1 steps, delay 7 steps, check yes
  max neighbors/atom: 2000, page size: 100000
  master list distance cutoff = 10.8154
  ghost atom cutoff = 10.8154
  binsize = 5.4077, bins = 7 5 5
  1 neighbor lists, perpetual/occasional/extra = 1 0 0
  (1) pair lj/cut/tip4p/long/omp, perpetual
      attributes: half, newton on, omp
      pair build: half/bin/newton/tri/omp
      stencil: half/bin/3d/tri
      bin: standard
Per MPI rank memory allocation (min/avg/max) = 9.436 | 9.441 | 9.447 Mbytes
Step Temp PotEng TotEng E_pair E_mol Press Lx Ly Lz Volume Pxx Pyy Pzz Pxy Pxz Pyz Enthalpy 
 3250000     112.0852   -6742.3634    -6454.031   -6742.3634            0     2930.201    23.218648    21.353364    21.649302    10733.643    3196.7535    2427.7122    3166.1374   -215.59035   -221.31481    528.29821   -5995.3398 
 3251000    106.54819   -6745.5324   -6471.4437   -6745.5324            0    3189.2916    23.250953    21.279113    21.682409    10727.581    3036.3456    2427.9474    4103.5817   -556.89085    111.97814    1068.5521   -5972.4766 
 3252000    104.81757   -6739.7074   -6470.0706   -6739.7074            0    2584.6449    23.184241    21.371869    21.711532    10757.859    3548.2079    2178.7632    2026.9635   -271.87647    231.20506   -483.52607   -6064.5596 
 3253000     105.8618   -6746.0367   -6473.7137   -6746.0367            0     2533.014     23.22157    21.400828     21.62319    10745.879    2827.2579    2401.1638    2370.6202    -3.321483   -284.70463    9.2778131   -6076.7458 
 3254000     100.9368   -6750.7644   -6491.1107   -6750.7644            0    2648.8813    23.198425     21.42419    21.636254    10753.379    2940.0149    1943.3515    3063.2776   -398.74202   -455.89736   -100.35715   -6075.6945 
 3255000    107.30216   -6746.0699   -6470.0417   -6746.0699            0    3926.1438    23.207132    21.264985    21.652291    10685.391    3660.7654    4329.7685    3787.8973   -237.86319    372.18927    260.17364   -5858.2092 
 3256000    110.43664   -6745.0949   -6461.0033   -6745.0949            0    2536.1851    23.308501    21.202602    21.727626    10737.812    1751.6843    3090.6674    2766.2037    829.10306    909.51202    322.35566   -6063.8368 
 3257000    105.59747   -6750.8535   -6479.2104   -6750.8535            0    3435.1595    23.219415    21.320163    21.615753    10700.699    2734.7648    4188.9641    3381.7496   -451.43456    680.06867   -102.06418   -5943.1238 
 3258000    106.38941   -6740.3491   -6466.6689   -6740.3491            0      2890.44    23.138321    21.464927    21.650757    10753.116    2851.8475    2144.8374    3674.6353    788.45084   -1004.5342    823.07059   -6013.3809 
 3259000    106.70451   -6725.0829    -6450.592   -6725.0829            0    3116.5924    23.195912    21.366505    21.643213    10726.713    3531.1095    3301.8566    2516.8111    680.63243   -241.40068   -953.14142   -5963.0382 
 3260000    105.20293   -6736.1652   -6465.5371   -6736.1652            0     2990.849    23.250705      21.3536    21.653644    10750.737    3505.7947    2372.8551    3093.8971    659.54847   -367.10479   -169.50548   -5996.6064 
 3261000    102.90689   -6734.8752   -6470.1535   -6734.8752            0    2767.0497    23.224129     21.35008    21.658453    10739.063    2781.9425    2926.9103    2592.2964   -300.87239   -375.20061    478.43708   -6036.7831 
 3262000    106.90913   -6729.4745   -6454.4573   -6729.4745            0    1876.3729    23.236984    21.404217    21.684102     10785.01     1390.218    1826.9573    2411.9435   -375.27797    340.13569    1114.5661   -6159.3258 
 3263000    105.06772   -6731.3426   -6461.0623   -6731.3426            0    3150.4004    23.240346    21.319668    21.657414    10730.739    3055.5262    3241.4645    3154.2107    805.46026   -187.66511    -114.8607   -5968.0347 
 3264000    101.96337   -6749.3414   -6487.0468   -6749.3414            0     2163.613    23.284947    21.316535    21.686162    10764.022    2620.6179    2112.6489    1757.5721   -279.83357    1031.1547   -487.42803   -6147.3981 
 3265000    103.13061   -6733.3305   -6468.0333   -6733.3305            0    3897.4498    23.195487    21.350747    21.578847    10686.729    3437.0597    3845.9766    4409.3132   -129.36828   -218.61557    438.97479   -5860.5963 
 3266000    102.13992   -6735.3234   -6472.5747   -6735.3234            0    3112.1574    23.189261    21.362033    21.686758    10742.964    3843.3469    3022.9607    2470.1648   -107.00811    -380.3718    340.64778    -5984.977 
 3267000     108.4085   -6748.9525   -6470.0783   -6748.9525            0    3078.3117    23.162358    21.368829    21.625153    10703.423    2141.2581    3596.5816    3497.0952   -249.79379       1261.1   -405.95429   -5989.5587 
 3268000     100.2323   -6742.8125    -6484.971   -6742.8125            0    2340.4664    23.269459     21.43188    21.568073    10756.176     1968.812    2533.3278    2519.2594   -87.577029    -122.1669   -115.14351   -6117.8272 
 3269000    105.44339   -6747.4438   -6476.1971   -6747.4438            0    3290.0656    23.250202    21.335472     21.61581    10722.609    3455.9036    2315.5012    4098.7921    -1349.918   -618.85438    556.74639   -5961.7024 
 3270000    103.16503   -6744.0933   -6478.7075   -6744.0933            0    2516.6904    23.269225    21.318675    21.692017    10760.738    2496.3647    2291.5865      2762.12    378.28914   -54.386722    551.28288   -6083.7524 
 3271000    104.64171   -6754.3209   -6485.1365   -6754.3209            0    3197.7634    23.288311     21.26081    21.623577    10706.446    3176.5692    3312.2771     3104.444   -5.4926699    518.88225   -479.71203   -5985.8296 
 3272000    107.45054   -6741.4223   -6465.0123   -6741.4223            0    3483.6269    23.162542    21.362209    21.655402    10715.159    3213.8095    3562.1312    3674.9401   -557.86947    648.73347      102.294   -5920.6273 
 3273000     104.3176   -6748.2536    -6479.903   -6748.2536            0    2744.4427    23.172512     21.43118    21.626774    10740.164    3456.8991    1808.6012    2967.8279    16.615854   -229.62817     16.26285   -6050.0292 
 3274000    110.33382   -6724.9743   -6441.1473   -6724.9743            0    2963.5765    23.228701    21.310687    21.706463    10745.124    3073.4822    2895.9865    2921.2607   -781.98293    89.117919   -922.96876   -5976.7352 
 3275000    108.73164    -6734.017   -6454.3115    -6734.017            0    2579.3695    23.421884    21.304257    21.570516    10763.382    2300.5554    2737.8706    2699.6826   -113.47332   -496.55682   -329.51349   -6049.4204 
 3276000    107.98206   -6732.8353   -6455.0581   -6732.8353            0    3238.0778    23.161497    21.388127    21.659474    10729.693    3891.1773    3149.9558    2673.1002   -951.66247   -501.52514   -234.86617   -5948.3586 
 3277000    107.12268   -6741.3889   -6465.8223   -6741.3889            0    1822.8513    23.144227    21.490567     21.67427    10780.404    2256.6455    939.57245     2272.336    146.57012    759.45424    816.96808   -6179.2316 
 3278000    106.26549   -6759.7274   -6486.3659   -6759.7274            0    2574.9627    23.227229    21.344746    21.624451    10720.955    2599.0279    2569.0376    2556.8227    260.14757    -387.2492    378.71238   -6083.7598 
 3279000    105.73812   -6754.9399    -6482.935   -6754.9399            0    2783.8873    23.226563    21.268975    21.735415    10737.408    2774.7551    3081.9558    2494.9511   -272.51415    291.85738    291.95215   -6046.9948 
 3280000    110.72038   -6738.6971   -6453.8757   -6738.6971            0    3381.1698    23.289855    21.245132    21.674406     10724.41    3318.3342    3736.5006    3088.6746    256.21577   -1222.1963     166.0034   -5925.0454 
 3281000    112.13097   -6745.9235   -6457.4734   -6745.9235            0    3551.3974     23.23349    21.347326    21.602836    10714.421    4156.6063    3473.7027    3023.8831   -370.82225   -312.79033   -453.82799   -5902.5361 
 3282000    109.07794   -6744.2921   -6463.6958   -6744.2921            0    2760.6853    23.193298    21.414548    21.618272    10737.234    3181.7034    2361.7795    2738.5729   -53.653282   -1208.9197   -4.7479845   -6031.3958 
 3283000    105.16544   -6743.9241   -6473.3924   -6743.9241            0    1924.8401    23.098348    21.426793    21.781351    10780.103    1548.1809    2840.6143    1385.7252   -254.92039    1199.5854   -40.311978   -6170.7753 
 3284000     102.8949   -6743.4822   -6478.7913   -6743.4822            0    2288.3171    23.230433    21.379711    21.671474    10763.353    3218.2872    1874.1451    1772.5188   -230.75828    288.53964    51.205384   -6119.5886 
 3285000    96.615407   -6731.5377   -6483.0004   -6731.5377            0    2200.5989    23.324498    21.362042    21.620761    10772.737    1664.5875    1704.6329    3232.5762   -372.06079    92.554991    561.70123   -6137.2659 
 3286000    103.56041   -6747.8242   -6481.4214   -6747.8242            0    2496.5187    23.238329    21.298173    21.695534    10737.857    1803.9563    3726.8482    1958.7515    266.52186   -465.08945    210.23298    -6090.465 
 3287000    111.16906   -6758.6643   -6472.6887   -6758.6643            0    1729.1769    23.244337     21.41372    21.652068    10777.268    2082.6099    1761.3449    1343.5759    -7.566328   -330.98435   -411.44887   -6200.9046 
 3288000    104.79343   -6741.5799   -6472.0052   -6741.5799            0    3436.7818    23.153837    21.413966     21.60698    10713.075    2955.0715    3228.3897    4126.8841    1243.1589     328.9162   -91.693245   -5935.0452 
 3289000    107.36586   -6747.0254   -6470.8332   -6747.0254            0    2314.0646    23.161311    21.417195    21.703896    10766.224    2823.5256    1320.3413    2798.3268   -64.142409   -90.350962    619.13987   -6107.4919 
 3290000    107.28365   -6756.1113   -6480.1306   -6756.1113            0    2802.7436    23.264644    21.332846    21.586387    10713.347    2711.4511    2303.7607     3393.019   -457.69902    65.833571    346.25958   -6042.2211 
 3291000    104.14314   -6752.2931   -6484.3913   -6752.2931            0    1523.5533    23.321975    21.229151    21.808452     10797.49     1903.378    1744.4586    922.82311    276.39055    101.20469   -78.112979   -6244.4769 
 3292000    105.21562   -6746.9572   -6476.2965   -6746.9572            0    2556.2919    23.225211    21.393055    21.611083    10737.644    3024.2872    2799.2989    1845.2896   -551.23113    12.315311    103.48113   -6075.9875 
 3293000    108.41552   -6744.7515   -6465.8591   -6744.7515            0    3061.2871    23.130576    21.443655    21.652878    10739.916    3146.9557    2774.3802    3262.5255   -413.78031     171.8137    398.40435   -5986.3677 
 3294000    109.39087   -6748.6548   -6467.2535   -6748.6548            0    3313.0105      23.1927    21.370796    21.620044    10715.898     3929.741    2438.2017    3571.0887     422.8278   -270.72719   -151.66064   -5949.4949 
 3295000    101.09816   -6760.1811   -6500.1123   -6760.1811            0    2396.8166    23.329927    21.292644    21.628003    10743.837    2017.3643    3084.5457    2088.5399   -110.53257     404.4662   -656.76039   -6124.5602 
 3296000    106.53288   -6741.9153   -6467.8659   -6741.9153            0    2307.5383    23.285772    21.316247    21.696052    10769.167    2530.6714    1974.9358    2417.0077   -18.825003   -919.05615   -140.58957   -6105.4503 
 3297000    103.75594   -6749.4707   -6482.5649   -6749.4707            0    2769.6254    23.243319    21.369853    21.605764    10731.719    2282.9285    2297.0836    3728.8641    437.61555    46.459397    239.41948   -6049.0877 
 3298000     106.5668   -6737.4056    -6463.269   -6737.4056            0    2729.1472    23.116147    21.536406    21.603081     10754.85     3328.561    2068.5101    2790.3706   -149.88872    405.46885   -567.96802   -6035.2065 
 3299000    107.94229    -6741.259    -6463.584    -6741.259            0    3172.3075    23.069192      21.4118     21.72054    10728.924    3580.7485    3506.8396    2429.3344    490.98953   -1245.8585    129.15271    -5967.212 
 3300000    106.91876    -6746.825    -6471.783    -6746.825            0    2056.1535    23.277482    21.355567    21.629812    10752.263    2426.0265    1879.4446    1862.9895   -440.78698   -84.191475    289.09636    -6149.356 
 3301000    111.19783   -6750.3413   -6464.2916   -6750.3413            0    1765.6591    23.329808    21.316361     21.69084    10786.998     1841.823    1452.6539    2002.5004    29.780439   -50.347824    106.32189   -6186.5229 
 3302000    104.07744   -6751.8013   -6484.0684   -6751.8013            0    2438.8336    23.295293    21.330371    21.637772    10751.749    1939.3896    3132.4678    2244.6435   -85.289216   -210.92153   -592.11793   -6101.6514 
 3303000    104.43932   -6748.3522   -6479.6884   -6748.3522            0     3789.458    23.159753     21.40255    21.598375    10705.834    3645.7377    3713.5931    4009.0433   -27.411524    229.53259   -453.71851   -5888.0267 
 3304000    107.31778   -6740.4258   -6464.3574   -6740.4258            0    3213.8304    23.122339    21.447004    21.625231    10724.058    3206.2823    3130.4805    3304.7283    1176.7555    61.953793   -19.797557   -5961.7163 
 3305000    108.27507   -6746.9419   -6468.4108   -6746.9419            0    2652.8283    23.157486    21.344475    21.739427    10745.459    1965.1341    2703.5941    3289.7567    302.60339    147.55886    114.92617   -6052.6821 
 3306000     109.4868   -6736.6635   -6455.0154   -6736.6635            0    3102.0071    23.354598     21.25463    21.602489    10723.332    2702.1997    2917.1859    3686.6358   -354.26788   -564.88111    1031.4331   -5969.8963 
 3307000     105.8839    -6745.443   -6473.0631    -6745.443            0    2578.9783    23.317382    21.276461    21.678381    10754.891    2043.7433    3333.8028    2359.3888    563.04899   -1164.4372   -617.25951   -6068.5528 
 3308000     110.7964   -6758.6648   -6473.6478   -6758.6648            0    3060.5081    23.236898    21.354754    21.614331    10725.425    2212.4385    3694.2181    3274.8676    234.64255   -125.77508   -904.64839   -5994.9251 
 3309000    110.87819   -6754.2107   -6468.9833   -6754.2107            0    2814.5055    23.152685    21.526628    21.540491    10735.764    2638.5139    2402.5194    3402.4832   -18.984293    194.48768   -10.934602   -6028.3159 
 3310000    102.76647    -6752.859   -6488.4985    -6752.859            0    3174.5287    23.118915    21.427908    21.628316    10714.451    3132.5662    2760.2586    3630.7612    165.45953   -502.44017   -66.064893    -5992.449 
 3311000    101.64509   -6736.7211   -6475.2453   -6736.7211            0    2996.1986    23.212949    21.308895    21.714689    10741.003    3444.1744     2159.609    3384.8124   -219.46711   -438.06872    740.10256   -6005.9012 
 3312000    102.17318   -6725.8514   -6463.0171   -6725.8514            0     3338.604    23.411999    21.193884    21.587139    10711.348    2735.3752    4798.9993    2481.4374    472.43612   -978.82199   -764.83867   -5941.4803 
 3313000    109.16135   -6733.9984   -6453.1874   -6733.9984            0    2789.5266    23.250886    21.346214    21.673545    10756.979    2151.6809    3351.0749    2865.8241    1035.7716    42.691652   -454.74691   -6015.5679 
 3314000    103.94974   -6743.4675   -6476.0631   -6743.4675            0    3842.9961    23.100014    21.406419    21.629158    10695.372    4793.0062     3885.218    2850.7641   -309.12945   -339.54414   -569.73167   -5876.6286 
 3315000    99.952558   -6749.4599   -6492.3381   -6749.4599            0    2409.8567    23.185786    21.516106    21.542791    10747.005    2443.2186    2062.4445    2723.9071    210.97626   -298.96071   -198.04398   -6114.6315 
 3316000    107.57914    -6737.287   -6460.5462    -6737.287            0    3178.3293    23.304373    21.295878    21.638584     10738.95    3359.2433    3603.7633    2571.9814    209.64028   -764.30142   -784.06834   -5962.7672 
 3317000    99.030634   -6746.0816   -6491.3313   -6746.0816            0    2891.9225    23.245603    21.275507    21.714385    10739.109    3017.3678    3389.5491    2268.8505    605.52171    63.087118    30.521318   -6038.4016 
 3318000    106.18328   -6754.7803   -6481.6302   -6754.7803            0    3557.1217    23.209524    21.352984    21.545137     10677.61    3691.4032    3273.8662    3706.0956   -596.34639   -478.43984    498.31662   -5927.7082 
 3319000    98.182675    -6742.107    -6489.538    -6742.107            0    3505.9606    23.129216    21.418836    21.606439    10703.849    3705.7805    3536.4873     3275.614    446.48254    81.262023    376.05895   -5942.2412 
 3320000    104.28381    -6743.355   -6475.0913    -6743.355            0     2764.497    23.169072    21.399223    21.651454    10734.794    2688.1549    2460.6833    3144.6528   -128.10738    540.49057    -146.8544   -6042.2928 
 3321000    108.12381   -6751.5723   -6473.4304   -6751.5723            0    2367.2963    23.341885    21.300954    21.618854    10748.989    1768.3988    3025.8838    2307.6063    406.50705   -964.68599     157.4785   -6102.3259 
 3322000    112.83742    -6738.821   -6448.5536    -6738.821            0    3020.6963    23.297038    21.224597    21.715852    10737.842    2603.7735    3193.2393    3265.0761    386.68327   -688.38604    231.56816   -5975.5113 
 3323000    100.55067   -6743.9211   -6485.2606   -6743.9211            0     2573.415    23.249973    21.375971    21.619137    10744.511    2640.2239    2839.1649    2240.8561    1005.6888   -827.63499   -482.21827   -6082.0125 
 3324000     108.8109   -6754.4613   -6474.5519   -6754.4613            0     2489.715    23.180314    21.485434    21.603205    10759.241    2656.4224    2262.0457    2550.6768   -294.51401   -166.29711   -604.60782   -6083.8845 
 3325000    107.27911   -6747.8862   -6471.9172   -6747.8862            0    2429.7263    23.065933    21.499114      21.6429    10732.652    3048.4362    1079.7516     3160.991    166.70495    510.80888    439.96438    -6091.605 
 3326000     111.4665   -6761.8916   -6475.1508   -6761.8916            0    2303.5687     23.26783    21.366894    21.589605    10733.515     2904.509    2342.4647    1663.7325    11.220024   -281.03882    180.88074   -6114.5563 
 3327000    102.85523   -6745.7665   -6481.1776   -6745.7665            0     2639.386    23.287689    21.232622    21.707584    10733.504    1861.2609    3641.2412    2415.6558   -417.91426    747.78178   -205.63368   -6068.0157 
 3328000    108.16732   -6733.7818   -6455.5279   -6733.7818            0    2013.7181    23.300452    21.307371    21.699749    10773.304    2280.8503    2086.6727    1673.6314   -175.46292   -699.07107    -68.05693   -6139.1374 
 3329000    105.18973   -6753.5389   -6482.9447   -6753.5389            0    2486.8009    23.191235    21.519574    21.505598    10732.702     2975.369    977.27237    3507.7614    610.86182   -790.90028    505.11436   -6093.6971 
 3330000    109.76407   -6741.4506   -6459.0892   -6741.4506            0    2850.3462    23.156585    21.401187    21.669863    10739.115     3654.334    2426.7976    2469.9071   -1080.5878     213.9424   -690.19135   -6012.6709 
 3331000    103.70526   -6746.1193   -6479.3439   -6746.1193            0    3003.4265     23.35038    21.268719    21.594253    10724.412    2859.6721    3834.7472    2315.8601   -89.016112   -715.79361   -939.08931   -6009.5943 
 3332000     103.9351   -6747.3605   -6479.9938   -6747.3605            0    2986.6289    23.311174    21.253245    21.659888    10731.134    2625.1734    3191.0997    3143.6136   -611.52291    47.004736   -349.49523   -6012.5787 
 3333000    105.84106   -6747.0881   -6474.8184   -6747.0881            0    2426.4642    23.250407    21.374698    21.629465    10749.204    2448.1614    1870.8918    2960.3394   -152.59035   -175.59872    103.64289    -6094.431 
 3334000    110.43194   -6733.3095   -6449.2301   -6733.3095            0    2730.4895    23.103211    21.479543    21.647827    10742.656    3542.5017    1533.0062    3115.9605    614.77108   -831.75409    348.04434   -6021.4426 
 3335000    102.24613   -6739.6333   -6476.6113   -6739.6333            0    1248.3499    23.171734    21.434174    21.774544    10814.697    2156.3072    1042.9954    545.74713   -571.88569   -333.63844    5.5219442     -6279.72 
 3336000    102.06637    -6742.929   -6480.3695    -6742.929            0    2467.0689    23.386486    21.236038    21.614921    10734.754    1184.1536    3907.0732    2309.9798   -43.702798     348.5386    -98.85412   -6094.1366 
 3337000    104.93735   -6758.8214   -6488.8765   -6758.8214            0    1479.2604     23.29754    21.285421     21.78426    10802.769    1438.9235    1932.5889    1066.2688   -94.629678    390.05827    651.12662    -6255.823 
 3338000    107.20029   -6746.2509   -6470.4847   -6746.2509            0    2758.1066    23.217416    21.425708    21.519536    10704.884    1458.9521    3440.9085    3374.4593     385.5952    811.92261   -280.01904   -6039.8898 
 3339000    98.426172   -6746.6876   -6493.4923   -6746.6876            0    3084.8005    23.215931    21.364801    21.641366    10734.198    3082.0498    3164.6724    3007.6794    420.50822    -317.6844    -237.9711   -6010.5752 
 3340000    107.60609   -6752.0131    -6475.203   -6752.0131            0    4134.2404    23.257174    21.227219    21.622796    10674.852    3341.2067    5315.4794     3746.035   -820.56586    170.37818   -658.03951   -5831.5772 
 3341000     103.5869   -6752.5912   -6486.1202   -6752.5912            0    2074.6434    23.413744    21.286976    21.605711    10768.455    1663.9359    2108.2441      2451.75    1109.8777    -345.9121    716.62478    -6160.304 
 3342000      105.754   -6745.2492   -6473.2034   -6745.2492            0    3032.5859     23.18374    21.328115    21.680156    10720.088     3452.194    3285.6353    2359.9285   -552.35901    162.71795   -206.22327   -5999.0844 
 3343000    107.51502   -6752.0836   -6475.5078   -6752.0836            0    2698.6296    23.206695    21.358308    21.683277    10747.441    2268.6248    3415.2766    2411.9874   -413.34796    341.12463    151.88758   -6052.5235 
 3344000    106.52952   -6743.5686   -6469.5279   -6743.5686            0    2895.2543    23.265096    21.406217     21.51879    10716.739    2947.3744    2360.1124    3378.2761   -416.38928    406.64827   -51.291184   -6017.0209 
 3345000    100.68763   -6751.5626   -6492.5498   -6751.5626            0    2286.3077    23.204058    21.382851    21.695309    10764.538    2557.3059    1560.6263     2740.991    65.170824    502.87512   -314.60561   -6133.6229 
 3346000     106.4811   -6736.2852   -6462.3691   -6736.2852            0    3370.8152    23.281927    21.377767    21.542524    10722.051    3844.1764    3004.9567    3263.3124   -481.00024   -883.50541   -686.06594   -5935.2743 
 3347000    106.54067   -6747.3101   -6473.2407   -6747.3101            0    2821.7651    23.242979    21.274617    21.696419    10728.564    3137.4221    3307.6852     2020.188   -731.95573     780.1889    348.84155   -6031.7329 
 3348000    98.763087   -6746.5887   -6492.5267   -6746.5887            0     3347.325    23.173751    21.314752     21.71863     10727.76     3771.026    3786.3702    2484.5789    922.14478   -150.97055   -146.17153   -5968.8264 
 3349000    109.02631   -6750.6287   -6470.1652   -6750.6287            0    2197.7184    23.254787    21.427167     21.57694    10751.448    2184.6188    1059.6302    3348.9063   -10.682585    673.68139    681.43939   -6125.5655 
 3350000    100.58042   -6742.5596   -6483.8226   -6742.5596            0     2207.218    23.187289    21.302696    21.804976    10770.606    2862.3532     2506.587    1252.7137   -625.00535    409.51974    21.333507   -6137.1167 
 3351000    104.68765   -6759.4846    -6490.182   -6759.4846            0    3104.8966    23.299828      21.3045    21.584115    10714.164    2887.4009    3347.2011     3080.088   -543.53405   -282.30912   -51.929266   -6005.0261 
 3352000    104.70544   -6743.8667   -6474.5183   -6743.8667            0    2755.0419    23.307716     21.32132     21.62319    10745.672    2524.7842    2497.9048    3242.4367    282.19248    635.46533   -145.16161    -6042.763 
 3353000    104.46032   -6729.6795   -6460.9616   -6729.6795            0    3346.9925    23.175128    21.402077    21.652626    10739.613    3554.6693    3563.3809    2922.9273   -343.01332    69.888554   -559.34657   -5936.7348 
 3354000    107.78154   -6746.7531   -6469.4916   -6746.7531            0    3217.2959    23.172073    21.403885    21.599363    10712.687     3893.483    2352.4623    3405.9425   -866.95795   -392.10695   -229.70345    -5966.842 
 3355000    110.65955   -6750.6827   -6466.0178   -6750.6827            0    2107.3203    23.222867    21.405797    21.651238    10762.917    1760.2952     2174.455    2387.2107    662.93347    795.80197    55.558776     -6135.24 
 3356000    103.52233   -6748.8084   -6482.5035   -6748.8084            0    3366.2129    23.305704    21.247756    21.632323    10712.195    3112.6724    2967.9627    4018.0036    298.44147   -192.59389    789.33139   -5956.6122 
 3357000    104.31373   -6746.7457    -6478.405   -6746.7457            0    2432.4317    23.306036    21.304916    21.660298    10755.055    1819.7475    3626.0405    1851.5071    -672.5388   -150.12239   -858.30907   -6096.8745 
 3358000    105.70832   -6750.3726   -6478.4444   -6750.3726            0    2063.0767    23.259646    21.354356    21.677598    10767.149    2405.5009    2111.4263    1672.3029   -248.06854   -450.95611    38.745246   -6154.4839 
 3359000    103.72114   -6749.0294   -6482.2131   -6749.0294            0    2797.0104    23.215429     21.38543    21.612153    10729.827    2743.2787    2581.6362    3066.1163   -127.11809    911.66414   -65.763959   -6044.5271 
 3360000    104.44214   -6748.7884   -6480.1173   -6748.7884            0    2865.6491    23.147676     21.36561    21.694227    10729.188    3646.4321    3207.7324    1742.7828   -639.78267   -359.74449    171.55028   -6031.7172 
 3361000      110.414   -6751.8713    -6467.838   -6751.8713            0    3281.7892    23.252072    21.277981    21.649659    10711.324     3771.842    2786.2349    3287.2909   -67.142295   -708.59678    1047.7162   -5955.1776 
 3362000    106.22022   -6744.3639   -6471.1189   -6744.3639            0    3005.7764    23.319858    21.288852    21.613514    10730.094    2708.5687    3255.6584     3053.102    670.63821   -594.83029   -176.31351   -6000.7527 
 3363000     104.6125   -6739.0357   -6469.9264   -6739.0357            0    2426.5112    23.177483    21.405249    21.672101    10751.958     2885.221    2214.8515    2179.4612    2.4794468   -135.52409   -670.36504   -6089.4343 
 3364000    107.29725   -6744.7889   -6468.7732   -6744.7889            0    2242.3772    23.146874    21.480474    21.639788    10759.429    2909.6875    2379.3614    1438.0827    777.11953   -843.82092   -205.88487   -6116.9101 
 3365000      107.764   -6745.1237   -6467.9074   -6745.1237            0    3721.5558    23.225843     21.40247    21.528111    10701.417    3614.5407    3704.9557    3845.1709   -16.201082   -125.93046   -668.51534   -5887.0872 
 3366000    98.361326   -6743.7024   -6490.6738   -6743.7024            0    3629.2965    23.219906    21.194255    21.792553    10724.739    4551.1868    3970.2166    2366.4861     252.9257   -327.41246    172.01883   -5923.0181 
 3367000    100.16699   -6757.6151   -6499.9416   -6757.6151            0    2991.1539    23.273811    21.224975    21.683678    10711.434    2463.6193      3996.91    2512.9323   -209.31319    514.64136   -202.43215   -6032.6776 
 3368000    103.62978    -6753.689   -6487.1077    -6753.689            0    1965.5022     23.24973    21.370807     21.66318    10763.687    1659.5397    1918.7502    2318.2168    463.91114    144.26359    957.07754   -6178.5684 
 3369000    104.26176   -6747.0605   -6478.8535   -6747.0605            0    2917.5278     23.03573    21.523933    21.676548    10747.655     3485.467    2299.8052    2967.3111    759.58002   -152.98297    194.30865   -6021.5499 
 3370000    105.50506    -6749.664   -6478.2586    -6749.664            0    1747.0783    23.255334    21.434139    21.618879    10776.105    2026.8947     2340.747    873.59307    258.62242    134.82457   -1118.2694   -6203.6906 
 3371000    105.65826   -6750.3418   -6478.5423   -6750.3418            0    2981.7095    23.210922    21.317245    21.692375    10733.233    3637.8792    3490.2036    1817.0458   -203.73468    -635.4823   -548.30576   -6011.8058 
 3372000     110.2159   -6741.7041   -6458.1804   -6741.7041            0    2742.9703    23.417808    21.297858    21.559164    10752.615    2022.0338    2532.5818    3674.2953    239.61775    246.94398     885.7482   -6028.0392 
 3373000    102.50799    -6742.467   -6478.7715    -6742.467            0    3374.9466    23.210307    21.299312    21.662209    10709.007     3087.373    3246.2408    3791.2261    23.442559    827.92482   -46.152418   -5951.6727 
 3374000    107.54161    -6747.576   -6470.9317    -6747.576            0    2506.3906    23.203479    21.373947    21.704438    10764.315    2104.3061    2960.0382    2454.8274    53.000839    370.38745   -411.72759   -6077.4623 
 3375000    110.21558    -6744.845   -6461.3221    -6744.845            0    3169.5726    23.133398    21.451712    21.570751    10704.507    3249.6327    2849.7991    3409.2859   -153.38516    247.18169     211.9101   -5966.5067 
 3376000     103.3521   -6745.7806   -6479.9136   -6745.7806            0    1961.6048    23.228538    21.403525     21.68709    10782.226    2190.5083    1474.1817    2220.1243    576.17289    405.25686    92.105825   -6171.4557 
 3377000    104.39772   -6745.0968   -6476.5401   -6745.0968            0     2916.247    23.371416    21.334253    21.541514    10740.851    2656.0027    3697.6876    2395.0508   -630.93548   -65.726798   -1384.5773   -6019.7266 
 3378000    105.05855   -6744.8577   -6474.6009   -6744.8577            0    2366.1663    23.248482    21.364284    21.671813    10764.112    2017.5864    2634.2745     2446.638   -157.17555    103.75303   -478.16909   -6103.1518 
 3379000    106.83491   -6730.3218   -6455.4955   -6730.3218            0    2758.7394    23.197676    21.391396    21.659261     10747.99     2253.531     3030.079    2992.6081   -71.282882    940.70734    326.08955   -6023.0675 
 3380000    103.28443   -6761.4383   -6495.7454   -6761.4383            0    2899.0014     23.13204    21.398375    21.660813    10721.844    3178.4886    2202.6199    3315.8958    500.91004    458.58419    646.67795    -6042.437 
 3381000    103.20283   -6757.1913   -6491.7083   -6757.1913            0    2154.2386    23.277972    21.323676    21.691603    10767.103    2355.6909    2312.2129    1794.8119   -41.061065   -42.240858    193.17278   -6153.4343 
 3382000    105.87504   -6728.6932   -6456.3361   -6728.6932            0    2942.5596    23.301842    21.306232    21.611093    10729.356    3091.8565    3364.7863    2371.0362   -624.10609     138.7383   -221.97438   -5995.8942 
 3383000    107.72685   -6744.7299   -6467.6092   -6744.7299            0    2692.7342    23.196842     21.30576    21.745061    10746.982    2763.9484    2690.7849    2623.4694    914.72178   -186.49646   -233.13799   -6045.5669 
 3384000     101.2063   -6748.6344   -6488.2874   -6748.6344            0    3742.9765    23.091509    21.485108    21.532314    10682.689    3911.2843    3405.6789    3911.9664   -124.41585    767.50165   -462.66607   -5905.1464 
 3385000    101.22764   -6750.7174   -6490.3155   -6750.7174            0    2374.9531    23.219843    21.379081    21.667762    10756.287    1619.9474     3091.154     2413.758   -364.08216    799.85191   -48.492237    -6117.758 
 3386000    111.87834   -6751.4434   -6463.6432   -6751.4434            0    2587.6584    23.334084    21.205246    21.718356    10746.351    1972.8234    3148.5384    2641.6133   -140.92678    106.20274    239.77754   -6058.0937 
 3387000    106.40846   -6752.1243    -6478.395   -6752.1243            0    3239.9621    23.340452    21.260414    21.574402    10705.815    2501.7893    3303.9096    3914.1873     271.7835    326.99678    90.227483   -5972.5289 
 3388000    102.91381   -6750.7684   -6486.0289   -6750.7684            0    3219.5332    23.066549      21.4105    21.695997    10714.923     3372.857    3122.5228    3163.2198    468.39372    625.91018    185.70574   -5982.9248 
 3389000    105.56396   -6755.1969   -6483.6401   -6755.1969            0    2289.9031    23.138724    21.435977    21.691351    10758.935    3130.3049    1851.0023    1888.4021      -394.29    228.10886   -208.50718   -6124.3359 
 3390000    106.64236    -6746.478   -6472.1471    -6746.478            0    3302.1849    23.294361     21.26869    21.616754    10709.816    2911.8295    3847.9316    3146.7936    489.12289    376.38092   -210.25012   -5956.3732 
 3391000    105.54245   -6754.9319   -6483.4304   -6754.9319            0    2512.2489    23.350456    21.192924    21.724104    10750.487    1978.2343    3769.2581    1789.2545     168.3441    -172.7317   -707.04775   -6089.5479 
 3392000    105.10669   -6744.7178   -6474.3373   -6744.7178            0    3409.6669    23.221818    21.352812    21.591797    10706.317    3464.9528    3160.3384    3603.7094   -1023.3922   -102.74394   -172.50236   -5941.9496 
 3393000    105.58345   -6745.5684   -6473.9614   -6745.5684            0    2590.5856    23.123607    21.539342    21.577485    10747.039    2802.2384    1895.0776    3074.4409    638.76323   -36.540249   -153.39889   -6067.9272 
 3394000    107.04834   -6757.5066   -6482.1312   -6757.5066            0    2595.3997    23.167444    21.390576    21.681931    10744.806    2639.1201    2029.9222    3117.1567    258.39232    332.95345    455.39807    -6075.427 
 3395000     109.3668   -6739.6439   -6458.3045   -6739.6439            0    2701.1631    23.305177    21.334594     21.62577    10752.473    2528.5544     2316.245    3258.6899    -150.7892   -352.15926     450.4498   -6034.7249 
 3396000    105.84573    -6750.827   -6478.5453    -6750.827            0    3166.8505    23.326348    21.238403    21.629342    10715.487     3205.186    2919.3132    3376.0522    121.76338   -801.24531    476.49135   -5983.6476 
 3397000     103.0975   -6747.5853   -6482.3733   -6747.5853            0    3905.2248    23.206896    21.298948    21.649651    10701.043    4100.0043    4029.2946    3586.3755    1178.7331    -204.7525   -483.45187   -5872.9093 
 3398000    104.12053   -6755.5894   -6487.7456   -6755.5894            0    2299.0461    23.180832    21.423809    21.656521    10755.099     3123.186    1031.4182    2742.5341    146.20594   -40.363793   -359.99514   -6127.1354 
 3399000     106.4664   -6733.9806   -6460.1022   -6733.9806            0    2303.7267    23.243632    21.407159    21.631623    10763.466    1809.0733    2827.0563    2275.0503   -44.711718   -279.34885    6.4784141   -6098.4768 
 3400000    102.17745   -6744.7083   -6481.8631   -6744.7083            0    2035.6107    23.289659    21.291367    21.739885    10780.128    1676.6582    2710.2784    1719.8956     141.1378    -671.7493    -267.8696   -6161.8302 
 3401000    107.97525   -6742.5075   -6464.7477   -6742.5075            0    2970.2539     23.31553    21.310548    21.590487    10727.595     2636.052    2384.8959     3889.814    498.30359   -18.991017    93.772067   -6000.0486 
 3402000    101.58264   -6749.6239   -6488.3088   -6749.6239            0     3029.244    23.151596    21.397808    21.655668    10728.075    2950.5611    2860.6627     3276.508   -104.57081     512.3409   -483.43922   -6014.3594 
 3403000    111.23591   -6747.5205   -6461.3729   -6747.5205            0    2325.7995    23.165321    21.500855    21.585947    10751.404    2409.4446    2161.0167    2406.9372   -116.77265    280.55478   -40.545403   -6096.6917 
 3404000    103.61332   -6737.7301   -6471.1912   -6737.7301            0    3201.2702    23.200644    21.338045    21.675646    10730.667    3099.3765    2914.1007    3590.3335     629.0553    -610.1835   -60.492615   -5970.2059 
 3405000    100.09826   -6741.7387    -6484.242   -6741.7387            0    3346.8222    23.249659    21.161777    21.769646    10710.755    2993.4323    4266.6038    2780.4306   -261.72479    786.77376    28.562441   -5961.4504 
 3406000    102.09603   -6759.9926   -6497.3568   -6759.9926            0    3054.0775    23.340903    21.327688    21.512249    10708.959    2483.6848    2925.5752    3752.9724    206.44984   -285.70576    433.74406   -6020.3735 
 3407000    103.60776   -6748.7688   -6482.2441   -6748.7688            0    3143.6058    23.141902    21.347399      21.7106    10725.458    3303.6667    3619.1085    2508.0423   -328.26206    163.75135   -473.50191   -5990.5219 
 3408000    105.70965   -6754.7761   -6482.8445   -6754.7761            0    3291.4955    23.069953    21.499507    21.594923    10710.922    4389.7188    1667.2404    3817.5273   -108.01825   -423.96672    449.44179   -5968.6872 
 3409000    108.68224   -6754.2976   -6474.7192   -6754.2976            0    2711.0416    23.229782    21.429515    21.547684    10726.501    2946.4666    2515.4825    2671.1756    75.806944    52.879925   -22.945296   -6050.6174 
 3410000    104.80275   -6748.9312   -6479.3325   -6748.9312            0    2863.1333    23.218188    21.283079    21.733168    10739.543    2330.6379    3797.7636    2460.9985     2.477499    178.53218   -262.16768   -6030.8936 
 3411000    100.39925   -6748.6868   -6490.4158   -6748.6868            0    1873.5574    23.396134    21.272902    21.648007    10774.292    1472.3351    2041.7819    2106.5551   -517.64477   -163.77572    275.23293     -6196.02 
 3412000    109.58723   -6759.5682   -6477.6617   -6759.5682            0     3596.802    23.290768    21.272035    21.598598    10700.854    2950.9996    3770.3793    4069.0272    578.29929    142.25616    130.31733   -5916.3413 
 3413000    104.80477   -6744.8512   -6475.2473   -6744.8512            0    2905.4392    23.127217    21.407614    21.686884    10737.145    3250.0402    2974.0313     2492.246   -778.95848    62.383304   -545.87205   -6020.2839 
 3414000    101.83316   -6745.6368   -6483.6772   -6745.6368            0    2184.5093    23.206078    21.548529    21.510361    10756.403    2811.3215    701.41007    3040.7964    359.07706    360.59932   -65.230823   -6140.9908 
 3415000    104.96291   -6743.7716   -6473.7609   -6743.7716            0    3260.0477    23.206421    21.345076     21.65439    10726.347    3566.8831    2991.4546    3221.8053   -542.25386    206.85567    976.95208   -5963.7827 
 3416000    108.69021   -6742.8634   -6463.2645   -6742.8634            0     2543.957    23.244454    21.302182    21.714632    10752.165     1951.345    3734.1227    1946.4032    637.48819    214.29752   -138.63458   -6064.3484 
 3417000    106.95939   -6751.2177   -6476.0712   -6751.2177            0    3170.5543    23.317209    21.397403    21.466484    10710.224    2815.0034    2702.6564    3994.0032    140.78908   -114.40733    442.62724   -5980.8381 
 3418000    109.40213   -6744.4397   -6463.0094   -6744.4397            0    2092.9816    23.037445    21.497888    21.795408    10794.316    3044.5181    958.61993    2275.8067     87.41418    -16.57813     708.4795   -6133.5238 
 3419000    112.76787   -6738.8387   -6448.7502   -6738.8387            0    3724.4502    23.157647    21.451748    21.557621    10709.223    3837.3261    3317.1009    4018.9236    636.07341   -672.63466   -115.05573   -5867.0543 
 3420000    105.80334   -6746.9573   -6474.7846   -6746.9573            0    3262.1711    23.262255    21.281671    21.629395    10707.841    3172.7535    3780.4675    2833.2924    318.20876   -612.16274       71.908   -5965.3546 
 3421000    106.93809   -6749.1398   -6474.0481   -6749.1398            0    2822.1833    23.323123    21.173928    21.733854    10733.093    2097.8089     3550.506    2818.2349     259.8335    523.95661     555.4989   -6032.2885 
 3422000    109.27686     -6756.45    -6475.342     -6756.45            0     2181.725    23.280592    21.328505    21.648018    10749.112    1752.3574    2737.6571    2055.1604     1091.259   -117.90212   -173.02113   -6133.3244 
 3423000    104.06282   -6750.4139   -6482.7186   -6750.4139            0    2559.9754    23.092388    21.479019    21.674628    10750.655    3477.5094    1674.5229    2527.8938    434.79882   -439.22822    1150.9316    -6081.347 
 3424000    103.65106   -6751.1627   -6484.5267   -6751.1627            0    2916.2512     23.12895    21.443689    21.611382    10718.597    2534.7278    3901.5719    2312.4539     409.8216     1204.898   -791.68085   -6028.6591 
 3425000    107.21522   -6749.8257   -6474.0211   -6749.8257            0    2296.7059    23.284278    21.322381    21.664385    10755.853    1937.6586    2837.7292    2114.7299   -1064.8036    175.80158   -883.34185   -6113.7527 
 3426000    105.64302   -6754.3776   -6482.6173   -6754.3776            0    3367.5591    23.346644     21.22085    21.627634      10715.1     2488.273    4273.4066    3340.9977    79.522742   -1440.8017   -398.99923   -5956.3731 
 3427000    108.07753   -6740.8983   -6462.8754   -6740.8983            0    1644.0611    23.293643    21.404485    21.638052    10788.482    1217.3653    914.32712    2800.4909   -750.17532    247.66088     31.13656   -6204.2006 
 3428000    106.04646   -6740.5242   -6467.7262   -6740.5242            0    3027.4001    23.048422    21.455431    21.693883    10727.925    4132.2158    2765.0233    2184.9611    949.18974   -369.52943   -683.14259   -5994.0719 
 3429000    103.78866   -6742.2682   -6475.2782   -6742.2682            0    2936.9657    23.185332     21.43427    21.596626    10732.673    2650.6351    2462.2606    3698.0015    397.27639   -80.088805    258.21485   -6015.5695 
 3430000    108.49434   -6749.7022   -6470.6071   -6749.7022            0    2869.4442    23.251556    21.309684    21.646651    10725.555    2633.0279    2327.0807    3648.2241    -396.8967    268.87929    371.04312   -6021.7652 
 3431000    106.44032   -6750.4977   -6476.6864   -6750.4977            0    3013.6056    23.402004     21.16212      21.6525    10723.098     2253.489    3241.2805    3546.0473    1015.0344   -368.06276    615.15159   -6005.4026 
 3432000    107.83564   -6742.9764   -6465.5757   -6742.9764            0    3340.8915    23.205291    21.338449    21.636187    10713.481    2996.9666    4149.1497    2876.5582   -780.72272    1212.5143     165.6168   -5943.5777 
 3433000    105.02332   -6754.3638   -6484.1977   -6754.3638            0    2439.3869    23.135799    21.434072    21.673457    10747.746    2625.9343    2161.3285     2530.898   -21.410991   -299.31066    143.12654   -6101.8364 
 3434000    103.75785   -6750.7038    -6483.793   -6750.7038            0    2220.7464    23.224547    21.444769    21.588392    10751.992    2097.9252    2543.9245    2020.3895    615.88856   -38.932777    -54.15774    -6135.565 
 3435000    105.94814   -6738.6168   -6466.0717   -6738.6168            0    3212.2591    23.258598    21.322856    21.650498    10737.343    2992.9568    3266.4211    3377.3994    502.59238    658.27482    588.61216    -5963.054 
 3436000    107.17166   -6740.9366    -6465.244   -6740.9366            0    3468.7816    23.290732     21.24665    21.663901    10720.382    2507.2838    4463.1385    3435.9224   -266.83948     209.5944     785.8217   -5922.9147 
 3437000    104.19834   -6759.5016   -6491.4577   -6759.5016            0    2639.3865    23.249747    21.392485    21.585357    10735.906    1767.3179    2954.7039    3196.1377   -309.93579   -110.10716    215.82495   -6078.2032 
 3438000    108.43053   -6742.3986   -6463.4676   -6742.3986            0    2388.8406    23.212498    21.398964    21.673878    10765.923    2892.9812    2214.4579    2059.0828    570.74189    770.58211   -508.77144   -6088.3959 
 3439000    101.97223   -6757.8163    -6495.499   -6757.8163            0    2803.5029    23.207476     21.37366    21.611317    10719.833    2616.8633     2503.832    3289.8134    187.75995   -170.47944   -41.517259   -6057.2056 
 3440000    104.79061   -6718.6584   -6449.0909   -6718.6584            0    2388.7458    23.307112    21.346816    21.617803    10755.563    1921.1835    2630.8491    2614.2049   -170.92982   -374.38763   -498.59713    -6074.395 
 3441000    108.46052   -6741.6128   -6462.6048   -6741.6128            0    3448.0168    23.160822    21.285404    21.765787     10730.26    3743.3262    4032.9893     2567.735   -497.82596    417.81114   -364.57881   -5923.0252 
 3442000    106.89989   -6744.8179   -6469.8245   -6744.8179            0    3237.0937    23.261131    21.368843    21.545629    10709.545    2782.0326    2916.6364    4012.6121    516.66716    533.57968    198.13664   -5964.2302 
 3443000     106.1953   -6753.2561   -6480.0752   -6753.2561            0     2216.113    23.193112    21.410417    21.695743    10773.546    3025.5701    2200.9422    1421.8266    477.27756   -970.10847    169.47573    -6131.877 
 3444000    106.34299   -6743.9286   -6470.3677   -6743.9286            0    2730.4082    23.227641    21.331831    21.647833    10726.244    2425.2889    3692.4536    2073.4821   -261.67379    836.21283    378.65696   -6043.2465 
 3445000      106.675   -6740.2241   -6465.8091   -6740.2241            0    3651.8392     23.22745     21.27875     21.66434    10707.624    4037.6349    3336.0333    3581.8494    243.68996    132.02779    614.35201    -5895.539 
 3446000    106.60712   -6753.0791   -6478.8388   -6753.0791            0     3380.753    23.191316    21.290257    21.686063    10707.474    3387.4407    3995.8278    2758.9904     278.3456    614.71885    550.58651   -5950.9088 
 3447000    105.77565   -6745.3912   -6473.2897   -6745.3912            0      2470.18    23.308825    21.379634    21.587445    10757.761    2441.2821    2957.0396    2012.2185   -924.06291    167.23809   -425.13604   -6085.7409 
 3448000    107.69371   -6743.8415    -6466.806   -6743.8415            0    2597.6379    23.203713    21.343265    21.731197    10762.223    2703.9592    2684.3904     2404.564   -937.11469   -478.77936   -155.33545   -6059.0912 
 3449000    110.25345   -6749.2486   -6465.6283   -6749.2486            0    2543.5373    23.325481    21.424384    21.489307    10738.939    1867.3591    2751.5815    3011.6712   -824.33237    1214.8648   -352.00493   -6067.2686 
 3450000    105.86266   -6754.6506   -6482.3254   -6754.6506            0    2505.6416    23.189247    21.361771    21.686858    10742.875    3178.1643    2079.4119    2259.3487   -111.26261   -1078.0142   -151.12181   -6089.7569 
 3451000    108.75836   -6749.2635   -6469.4892   -6749.2635            0    3211.0815    23.242137    21.308349    21.619742    10707.211     2690.877    3420.2082    3522.1592    39.947024    183.48752    180.90525    -5968.067 
 3452000    106.01135   -6747.2214   -6474.5137   -6747.2214            0    2463.8966    23.325701    21.316732    21.568366    10724.389    1543.9459     3034.965    2812.7789    827.95655    514.65606    693.85767   -6089.1499 
 3453000    101.63166   -6762.5851   -6501.1439   -6762.5851            0    2402.2633    23.140025    21.346562    21.737937     10737.67    3075.1045    2173.1637    1958.5217   -712.93924   -90.646502    258.43861   -6124.9545 
 3454000    102.51323   -6742.3473   -6478.6383   -6742.3473            0    2795.8361    23.170823    21.466947     21.56855    10728.344    3051.1136    2143.2446    3193.1501    303.32605   -1001.8333   -24.552286   -6041.1965 
 3455000    107.89767   -6761.5959   -6484.0358   -6761.5959            0    2225.9162    23.243673    21.440987    21.595853    10762.667    1541.3476     2326.323     2810.078    279.42783    387.07194   -687.05292   -6134.6505 
 3456000    102.86829   -6755.4061   -6490.7837   -6755.4061            0    3107.6272    23.236669    21.296812    21.665726    10721.652    2739.4225    3067.6003    3515.8586   -246.34606   -816.34106   -245.12347   -6004.8618 
 3457000    102.38042   -6750.6352   -6487.2678   -6750.6352            0    2168.8534    23.368562    21.326554     21.59357    10761.607    1763.0444    2004.0048    2739.5111   -142.69622   -569.63315    813.02004   -6146.8728 
 3458000    102.77994   -6739.1514   -6474.7563   -6739.1514            0    2122.2992    23.189254    21.343116    21.735104    10757.375    2421.2985    1909.8971    2035.7022    -110.6958    102.91888    31.058659   -6141.7988 
 3459000    104.04298   -6734.5232    -6466.879   -6734.5232            0    2781.4416    23.216435    21.385601    21.639867    10744.138    2432.7712    3051.3923    2860.1614   -146.70122    567.72514    84.785995   -6031.0487 
 3460000    106.69403   -6754.9774   -6480.5135   -6754.9774            0    2888.7695    23.158356    21.447573    21.608302    10732.639    2653.4264    2962.4691    3050.4128   -802.18301     985.0849    190.40218   -6028.3502 
 3461000    105.35929   -6739.0174   -6467.9871   -6739.0174            0    3089.0338    23.256683    21.351594    21.599612     10725.66    2798.4382    3191.9795    3276.6838   -339.65435    -42.24971   -599.38156   -5984.7919 
 3462000    103.58436   -6750.1703   -6483.7058   -6750.1703            0    2397.8366    23.321075    21.303976    21.635149    10749.026    2194.3211    3410.6822    1588.5065     719.3768   -549.19909   -425.91761   -6107.8125 
 3463000    105.44229    -6747.306   -6476.0621    -6747.306            0    2444.7837    23.260723    21.235167    21.741092    10738.911    2089.0125    2719.8726     2525.466    960.38085    390.04863   -742.88112   -6093.1699 
 3464000    108.93237   -6754.9854   -6474.7635   -6754.9854            0    2900.3013    23.249379    21.348926    21.590521    10716.439    2261.6822    2793.8798    3645.3418     227.7676   -10.151879    359.06639   -6021.4805 
 3465000    100.65359   -6752.1724   -6493.2471   -6752.1724            0    2769.2208     23.11678    21.375854    21.740878    10743.058    3658.4918    2536.5622    2112.6083   -22.696644   -112.74036   -252.44962   -6059.3754 
 3466000    100.96359   -6736.0126   -6476.2899   -6736.0126            0    3994.2567    23.254169    21.361921    21.521134    10690.703    3864.8955    4328.2871    3789.5875     1061.914   -825.13584    -359.2935   -5853.5336 
 3467000    107.25167   -6754.1616   -6478.2632   -6754.1616            0    2250.1702     23.30403    21.374592    21.605322    10761.916    2168.3322      2587.39    1994.7884   -197.43257    107.30679   -220.84221   -6125.0956 
 3468000    108.41307   -6745.0587   -6466.1726   -6745.0587            0    2958.2222    23.221764    21.299345    21.727898      10746.8    2855.3696     3588.946    2430.3509   -35.763256   -304.11067   -194.25975   -6002.5274 
 3469000      103.732   -6745.4923    -6478.648   -6745.4923            0    1959.7979    23.316123    21.390567    21.578495    10762.168    2050.7945    1286.1262    2542.4729    446.11457   -279.23792    1015.9822   -6171.0476 
 3470000    99.485672   -6747.5452   -6491.6244   -6747.5452            0    2905.6782    23.171566     21.29247    21.735497    10723.857    3508.8723    3162.1478    2046.0145   -189.79108    310.48727   -62.420719   -6037.1866 
 3471000      103.898   -6752.0661   -6484.7949   -6752.0661            0    2587.8598    23.254131    21.336917    21.652352    10743.279    3134.9037     1962.048    2666.6275   -77.465193   -673.26625    260.96775   -6079.3298 
 3472000    103.22109    -6750.372    -6484.842    -6750.372            0      1957.98    23.299397     21.43024    21.528595    10749.479    1278.8752    1735.1593    2859.9056    149.63599   -228.81653    869.08594   -6177.8892 
 3473000    100.18069   -6742.1917   -6484.4829   -6742.1917            0    2785.0775     23.15622    21.360561    21.759979    10763.136    2936.0499    3040.6806    2378.5019    283.03408    299.69225   -577.74439   -6047.3113 
 3474000    106.98037   -6737.4394   -6462.2389   -6737.4394            0    3543.0889    23.271881    21.351746    21.564393    10715.245    3138.6713    4264.0054    3226.5899   -441.40691    462.09035   -392.34475   -5908.5574 
 3475000    106.05725   -6756.0857   -6483.2599   -6756.0857            0    3052.4979    23.272876    21.293111    21.637145    10722.329     2595.644    2883.9202    3677.9296   -1192.5456    259.99099    393.13261   -6005.9281 
 3476000    106.00773   -6750.8206   -6478.1221   -6750.8206            0    2906.7471     23.17096    21.315218    21.746629    10740.531    3194.8883    3068.7338    2456.6192   -494.54886   -238.99297   -46.667807   -6022.8104 
 3477000    106.08399   -6724.2468   -6451.3522   -6724.2468            0    2888.4596    23.268391    21.434174    21.535108    10740.393    2755.2029    2292.6114    3617.5644   -499.70072    108.83729   -73.919078   -5998.9108 
 3478000    109.08147   -6738.1392   -6457.5338   -6738.1392            0    3009.3999    23.149685    21.383937    21.695874    10740.139    3582.2602    2847.5001    2598.4394    139.23552    2.5645389   -603.39985   -5986.1597 
 3479000    106.89198   -6745.3327   -6470.3596   -6745.3327            0    3077.8669    23.248308    21.331051     21.63119    10727.142    3052.9615     3004.666    3175.9732   -196.90928   -121.82766    600.30211   -5988.8447 
 3480000    108.54299   -6742.9955   -6463.7753   -6742.9955            0    3124.7762    23.381504    21.267573     21.56562    10723.889     2245.537    3567.3754    3561.4163    59.288432   -76.495268   -509.24316   -5975.0699 
 3481000    106.50798   -6734.2547   -6460.2694   -6734.2547            0    2785.7231     23.24989     21.28406     21.72801     10752.15    2976.3752    3323.4362    2057.3578    155.64684    622.21526   -314.96761   -6023.4428 
 3482000    106.46044   -6745.7909   -6471.9279   -6745.7909            0    2916.9025    23.169985    21.424153    21.629135    10736.645    2718.6177    2650.3178    3381.7719    208.42058    74.874547    -294.2451   -6015.1907 
 3483000    107.79981   -6760.4927   -6483.1843   -6760.4927            0    2424.7844     23.11634    21.441567    21.659575     10735.58    2927.9871     2069.422     2276.944   -431.10323   -836.96898    720.75221    -6103.542 
 3484000    104.57937    -6742.566    -6473.542    -6742.566            0    2850.5956    23.261788    21.358772    21.649207    10756.262    3413.5708    1858.4061      3279.81    861.10455   -758.38587   -79.695713   -6026.3718 
 3485000    104.88128    -6747.868   -6478.0673    -6747.868            0    3197.4058    23.288857    21.331803    21.580608    10721.101     3310.929    2642.5638    3638.7246   -290.89687    354.74085   -15.274677   -5978.1329 
 3486000    103.85203   -6748.0882   -6480.9351   -6748.0882            0    2135.2869    23.255063    21.409106    21.631626     10769.74    1937.3263    1888.0093    2580.5251   -375.40977    119.36507    202.82137    -6145.555 
 3487000    106.17142   -6755.7126   -6482.5931   -6755.7126            0    3312.8988     23.08002     21.38167     21.68208    10699.876    4632.0696    2604.2604    2702.3662   -277.59965   -56.621782   -52.242372   -5965.6261 
 3488000    110.56707   -6746.1599   -6461.7328   -6746.1599            0    2178.4066    23.283427    21.366922    21.618124    10754.912    1845.1565    1805.2471    2884.8163   -610.35653    851.39772    82.714523   -6120.0511 
 3489000    99.555782   -6734.7147   -6478.6135   -6734.7147            0    2652.9837    23.236137    21.326285    21.694287    10750.397    1909.5945    2829.3816    3219.9751    1524.0039    637.92424     742.2189   -6062.6694 
 3490000     110.2018   -6753.5672   -6470.0798   -6753.5672            0    2666.8265    23.319579    21.279277    21.670475    10753.405    2460.2732    2447.5925    3092.6138   -256.86324    152.97429    523.51709   -6051.8484 
 3491000    105.35557   -6751.8202   -6480.7995   -6751.8202            0    3396.3031    23.263891    21.357588     21.55692    10710.784    2753.8938    3801.3217    3633.6939    85.417356    -46.60078   -137.35812   -5950.2772 
 3492000    99.482706   -6737.4814   -6481.5682   -6737.4814            0    2414.2867    23.231164    21.453859    21.621037    10775.884    2834.8975    1674.7531    2733.2096   -818.30153    407.18237   -39.596527   -6102.1505 
 3493000    105.55613   -6740.2693   -6468.7326   -6740.2693            0    2488.1249    23.145136    21.437002    21.681674     10757.63    2590.6324    2124.6678    2749.0745   -194.92372    20.276967   -78.908903   -6078.3732 
 3494000    108.61752   -6757.1928   -6477.7809   -6757.1928            0    2499.1863    23.322938    21.305406     21.62443     10745.28    1363.7176    3157.8687    2975.9727    472.71422   -376.84781    191.08534   -6086.1362 
 3495000    110.18188   -6737.5528   -6454.1166   -6737.5528            0    4273.1506    23.133203    21.256057    21.743544     10691.75    4929.9841    4547.8363    3341.6314    279.48904   -42.123146   -70.579471   -5787.8119 
 3496000    104.44891   -6750.1175   -6481.4291   -6750.1175            0    3341.8994    23.163221    21.392877    21.618422    10712.532    3037.3912    3859.4715    3128.8355     475.3288    129.18741    683.62911   -5959.3198 
 3497000    104.78726   -6743.1392   -6473.5804   -6743.1392            0    2455.4532    23.156567    21.451573    21.654475    10756.748    2976.5844     1655.945    2733.8302   -858.91251   -315.40364   -601.25306   -6088.3784 
 3498000    107.57093    -6746.081   -6469.3613    -6746.081            0     2915.709    23.231038    21.368513    21.621014    10732.947    2887.1801    3417.4162    2442.5306    264.64553   -772.41416    -1080.053   -6012.9683 
 3499000    105.60945   -6750.2539     -6478.58   -6750.2539            0    3549.0195    23.327497     21.26609    21.567689    10699.399    2744.0196    4170.0191      3733.02     1231.012   -560.19313     8.285044   -5924.7919 
 3500000    108.82861   -6730.3267   -6450.3717   -6730.3267            0    3424.0719    23.165042    21.327112    21.721123    10731.178    3283.6528    4071.4895    2917.0734   -653.33823    454.95886    156.30284   -5914.4934 
Loop time of 547.958 on 64 procs for 250000 steps with 1296 atoms

Performance: 78.838 ns/day, 0.304 hours/ns, 456.239 timesteps/s
99.1% CPU use with 64 MPI tasks x 1 OpenMP threads

MPI task timing breakdown:
Section |  min time  |  avg time  |  max time  |%varavg| %total
---------------------------------------------------------------
Pair    | 29.568     | 40.863     | 52.793     | 113.5 |  7.46
Bond    | 0.28206    | 0.29116    | 0.3007     |   0.8 |  0.05
Kspace  | 276.84     | 289.64     | 301.2      |  43.0 | 52.86
Neigh   | 1.5323     | 1.5533     | 1.5745     |   0.9 |  0.28
Comm    | 91.639     | 93.871     | 96.859     |  15.8 | 17.13
Output  | 0.66757    | 0.674      | 0.67621    |   0.2 |  0.12
Modify  | 107.73     | 110.03     | 113.44     |  12.0 | 20.08
Other   |            | 11.03      |            |       |  2.01

Nlocal:        20.2500 ave          27 max          12 min
Histogram: 2 0 9 7 10 3 12 6 13 2
Nghost:        2597.31 ave        2618 max        2574 min
Histogram: 4 3 9 6 5 13 6 4 7 7
Neighs:        6508.53 ave        8629 max        3807 min
Histogram: 2 1 8 9 8 4 11 7 12 2

Total # of neighbors = 416546
Ave neighs/atom = 321.40895
Ave special neighs/atom = 2.0000000
Neighbor list builds = 2737
Dangerous builds = 0

unfix		3
unfix		2
unfix		1

write_data	data.final.${pid}
write_data	data.final.0
System init for write_data ...
PPPM initialization ...
  extracting TIP4P info from pair style
  using 12-bit tables for long-range coulomb (../kspace.cpp:340)
  G vector (1/distance) = 0.36752484
  grid = 30 40 32
  stencil order = 5
  estimated absolute RMS force accuracy = 0.0044961263
  estimated relative force accuracy = 1.3539951e-05
  using double precision FFTW3
  3d grid and FFT values/proc = 5168 640
Last active /omp style is kspace_style pppm/tip4p/omp
WARNING: Not all mixed pair coeffs generated from mixing. Use write_data with 'pair ij' option to store all pair coeffs. (../write_data.cpp:312)

write_restart   restart.lmp.${pid}
write_restart   restart.lmp.0
System init for write_restart ...
PPPM initialization ...
  extracting TIP4P info from pair style
  using 12-bit tables for long-range coulomb (../kspace.cpp:340)
  G vector (1/distance) = 0.36752484
  grid = 30 40 32
  stencil order = 5
  estimated absolute RMS force accuracy = 0.0044961263
  estimated relative force accuracy = 1.3539951e-05
  using double precision FFTW3
  3d grid and FFT values/proc = 5168 640
Last active /omp style is kspace_style pppm/tip4p/omp
Total wall time: 0:09:08
