LAMMPS (30 Jul 2021)
Processor partition = 1
  using 2 OpenMP thread(s) per MPI task
using multi-threaded neighbor list subroutines
variable        pid world 0 1
variable        phase world IceIII Liquid

shell cd ${phase}
shell cd Liquid
include Restart.lmp
echo both
log log.lammps
#include		in.partitions
include		in.temp
variable        temperature equal 262.93
variable	tempDamp equal 100.0
include		in.pressure
variable        pressure equal 3875.0
variable        pressureDamp equal 1000.0 # This is 1 ps
include		in.seed
variable        seed equal 745823

units		real
atom_style	full
read_restart	restart.lmp.${pid}
read_restart	restart.lmp.1
Reading restart file ...
  restart file = 30 Jul 2021, LAMMPS = 30 Jul 2021
  restoring atom style full from restart
  orthogonal box = (0.40397931 1.5673655 0.49285381) to (17.803593 22.061812 21.720342)
  2 by 4 by 4 MPI processor grid
  restoring pair style lj/cut/tip4p/long/omp from restart
  restoring bond style harmonic/omp from restart
  restoring angle style harmonic/omp from restart
  864 atoms
  576 bonds
  288 angles
Finding 1-2 1-3 1-4 neighbors ...
  special bond factors lj:    0        0        0       
  special bond factors coul:  0        0        0       
     2 = max # of 1-2 neighbors
     1 = max # of 1-3 neighbors
     1 = max # of 1-4 neighbors
     2 = max # of special neighbors
  special bonds CPU = 0.002 seconds
  read_restart CPU = 0.008 seconds
include 	in.setup
variable	out_freq equal 1000
variable	out_freq2 equal 10000
variable	out_freq3 equal 1000

timestep	2.0

neigh_modify    delay 7 every 1

include		in.tip4p
# This is TIP4P/Ice

# create groups ###
group ox type 2
288 atoms in group ox
group hy type 1
576 atoms in group hy

# set charges - beside manually ###
set group ox charge -1.1794
Setting atom values ...
  288 settings made for charge
set group hy charge 0.5897
Setting atom values ...
  576 settings made for charge

# ### TIP3P Potential Parameters ###
pair_style lj/cut/tip4p/long/omp 2 1 1 1 0.1577 8.5
pair_coeff 1 1*2 0.000 0.000
pair_coeff 2 2 0.21084 3.1668
bond_style  harmonic
bond_coeff  1 450 0.9572
angle_style harmonic
angle_coeff 1 55 104.52
kspace_style pppm/tip4p/omp 1.0e-5
pair_modify tail yes

thermo          ${out_freq}
thermo          1000
thermo_style    custom step temp pe etotal epair emol press lx ly lz vol pxx pyy pzz pxy pxz pyz enthalpy

restart 	${out_freq3} restart.lmp.${pid} restart2.lmp.${pid}
restart 	1000 restart.lmp.${pid} restart2.lmp.${pid}
restart 	1000 restart.lmp.1 restart2.lmp.${pid}
restart 	1000 restart.lmp.1 restart2.lmp.1


include         in.dump
dump            myDump all atom ${out_freq2} dump.water.${pid}
dump            myDump all atom 10000 dump.water.${pid}
dump            myDump all atom 10000 dump.water.1
dump            myDump2 all dcd ${out_freq2} dump.dcd
dump            myDump2 all dcd 10000 dump.dcd
dump_modify     myDump append yes
dump_modify     myDump2 append yes


variable natoms 	equal  "count(all)"                        # NUMBER ATOMS
variable H      	equal  "enthalpy/v_natoms"                 # ENTHALPY-per-atom
variable Vol      	equal  "vol/v_natoms"                 # volume-per-atom
fix AVG all 		ave/time ${out_freq} 1 ${out_freq} v_Vol v_H file vol_enthalpy.dat
fix AVG all 		ave/time 1000 1 ${out_freq} v_Vol v_H file vol_enthalpy.dat
fix AVG all 		ave/time 1000 1 1000 v_Vol v_H file vol_enthalpy.dat


timer           timeout 23:50:00 every 1000
New timer settings: style=normal  mode=nosync  timeout=23:50:00

fix 		1 all shake 1e-6 200 0 b 1 a 1
Finding SHAKE clusters ...
       0 = # of size 2 clusters
       0 = # of size 3 clusters
       0 = # of size 4 clusters
     288 = # of frozen angles
  find clusters CPU = 0.001 seconds
fix             2 all nph iso ${pressure} ${pressure} ${pressureDamp}
fix             2 all nph iso 3875 ${pressure} ${pressureDamp}
fix             2 all nph iso 3875 3875 ${pressureDamp}
fix             2 all nph iso 3875 3875 1000
fix             3 all temp/csvr ${temperature} ${temperature} ${tempDamp} ${seed}
fix             3 all temp/csvr 262.93 ${temperature} ${tempDamp} ${seed}
fix             3 all temp/csvr 262.93 262.93 ${tempDamp} ${seed}
fix             3 all temp/csvr 262.93 262.93 100 ${seed}
fix             3 all temp/csvr 262.93 262.93 100 745823

run             250000
PPPM initialization ...
  extracting TIP4P info from pair style
  using 12-bit tables for long-range coulomb (../kspace.cpp:340)
  G vector (1/distance) = 0.37378666
  grid = 24 24 25
  stencil order = 5
  estimated absolute RMS force accuracy = 0.003124964
  estimated relative force accuracy = 9.4107364e-06
  using double precision FFTW3
  3d grid and FFT values/proc = 3822 576
Last active /omp style is kspace_style pppm/tip4p/omp
Neighbor list info ...
  update every 1 steps, delay 7 steps, check yes
  max neighbors/atom: 2000, page size: 100000
  master list distance cutoff = 10.8154
  ghost atom cutoff = 10.8154
  binsize = 5.4077, bins = 4 4 4
  1 neighbor lists, perpetual/occasional/extra = 1 0 0
  (1) pair lj/cut/tip4p/long/omp, perpetual
      attributes: half, newton on, omp
      pair build: half/bin/newton/omp
      stencil: half/bin/3d
      bin: standard
Setting up Verlet run ...
  Unit style    : real
  Current step  : 7500000
  Time step     : 2
  Walltime left : 23:49:59.93
Per MPI rank memory allocation (min/avg/max) = 10.20 | 10.20 | 10.22 Mbytes
Step Temp PotEng TotEng E_pair E_mol Press Lx Ly Lz Volume Pxx Pyy Pzz Pxy Pxz Pyz Enthalpy 
 7500000    271.05395   -3845.8057   -3381.2286   -3845.8057            0     4593.548    17.399614    20.494447    21.227488    7569.6259    4152.7029    4646.2135    4981.7278   -85.133225    7.4650959    -648.3961   -2874.1228 
 7501000    259.54917   -3862.6012   -3417.7428   -3862.6012            0    3983.5264    17.516918    20.632616    21.370599    7723.7583    4945.4515    4069.2137    2935.9139   -386.62427    11.127359   -1910.4887   -2969.0261 
 7502000    251.26152   -3826.3649   -3395.7113   -3826.3649            0    5326.5349    17.454296    20.558855      21.2942    7641.2179     7268.066    3671.9514    5039.5873    909.61368   -738.57747    992.75218   -2802.1259 
 7503000     259.3478   -3872.9753   -3428.4621   -3872.9753            0    2696.5893    17.607013    20.738736    21.480515    7843.5499    2101.3464    3606.4719    2381.9496   -170.83156      1165.09   -320.78445   -3119.9989 
 7504000    257.79922   -3897.0406   -3455.1815   -3897.0406            0    4369.8904    17.529284    20.647181    21.385685     7740.127    3810.5559    5026.3564    4272.7588    179.13039    1438.6992    381.45163   -2961.9004 
 7505000    263.21024   -3827.6055   -3376.4721   -3827.6055            0    4530.5511    17.396751    20.491075    21.223996    7565.8902    3254.1687    4992.8448    5344.6398   -610.31215    1307.6141    -1889.089   -2876.5677 
 7506000    268.84482   -3846.0866   -3385.2958   -3846.0866            0    2912.7628    17.478137    20.586937    21.323286    7672.5726    3057.3404    592.35601     5088.592   -565.34095   -744.66334    -376.7288   -3059.3676 
 7507000    262.42903   -3840.5796   -3390.7852   -3840.5796            0    3585.2401     17.41947    20.517834    21.251712    7595.5701    3368.6675    3927.9454    3459.1073   -28.395103   -561.00939   -330.13328   -2993.6353 
 7508000    265.68601   -3850.5864   -3395.2097   -3850.5864            0    4944.2033    17.420115    20.518594    21.252499    7596.4138    6659.5047    5087.4826    3085.6225    -48.72495     366.1896     1111.667   -2847.4617 
 7509000     269.7316   -3828.3363   -3366.0256   -3828.3363            0     4751.434    17.432823    20.533563    21.268004    7613.0516     3812.176    4601.0181    5841.1079   -393.13673   -153.72673    514.54635   -2838.4808 
 7510000    268.56239   -3869.1762   -3408.8695   -3869.1762            0    4319.8765    17.394085    20.487935    21.220743    7562.4128    3992.0575    3649.5452    5318.0269   -961.56326   -903.58067   -178.64515   -2932.4301 
 7511000    256.15068   -3863.2392   -3424.2057   -3863.2392            0    3487.0518    17.417576    20.515604    21.249402    7593.0934    3969.3256    2755.1327     3736.697   -2219.3219   -603.08353   -288.50813   -3038.0584 
 7512000    272.19584   -3809.8998   -3343.3655   -3809.8998            0    3497.0714    17.469488    20.576749    21.312734    7661.1875    2369.6292    3894.0422    4227.5426    699.13119   -625.38622     1099.366   -2952.6357 
 7513000    260.47892   -3803.2856   -3356.8336   -3803.2856            0    5017.5983    17.383469     20.47543    21.207791    7548.5736    7153.8622    4415.0003    3483.9324   -751.15372    765.13776   -1154.0701   -2804.4552 
 7514000    257.35457   -3856.0456   -3414.9487   -3856.0456            0    4097.5208    17.363337    20.451718    21.183231    7522.3788    4837.7005    4164.2185    3290.6434    244.80626    31.361955   -457.26868   -2965.4253 
 7515000    258.62081   -3849.4796   -3406.2124   -3849.4796            0    2185.6363    17.442439    20.544889    21.279734    7625.6559    1803.0597    2429.1196    2324.7296    1949.9767   -385.34241   -199.44769   -3163.1426 
 7516000    268.99264   -3867.5976   -3406.5534   -3867.5976            0    4722.0054    17.309272    20.388036    21.117271    7452.3282    7897.9569    2293.1008    3974.9584   -1890.8388   -649.52074    775.86448   -2893.3443 
 7517000    260.08853   -3845.0424   -3399.2596   -3845.0424            0    3890.7254    17.416389    20.514206    21.247954    7591.5414    3375.0506    3834.9585    4462.1671   -271.85606   -235.55068   -30.518275   -2968.4985 
 7518000    246.58507   -3881.0481   -3458.4097   -3881.0481            0    3601.1985    17.419819    20.518246    21.252138    7596.0268    4642.5657      2304.75    3856.2798    1212.5839   -1046.6959   -1344.1446    -3059.468 
 7519000    258.80109   -3878.1167   -3434.5405   -3878.1167            0    5619.4619     17.47481    20.583018    21.319227    7668.1919     6934.798    5019.6329    4903.9549   -1082.1927   -710.07216    924.37099   -2806.1008 
 7520000    258.71498   -3894.2389   -3450.8103   -3894.2389            0    4110.6579    17.397724    20.492221    21.225183    7567.1603    4903.9751    3881.8801    3546.1186    932.69135    129.69341    686.41266   -2997.1611 
 7521000    259.27537    -3894.495   -3450.1059    -3894.495            0    3948.4485    17.465959    20.572592    21.308429    7656.5454     3557.252     3979.341    4308.7525   -1231.9471    261.73907    347.49558   -3009.2108 
 7522000    278.08358   -3864.9389   -3388.3132   -3864.9389            0    3458.4003    17.479967    20.589092    21.325519    7674.9825    2537.4733    5095.0719    2742.6556   -134.11954   -529.22881    611.77206   -3001.2084 
 7523000    259.21723   -3909.7896   -3465.5002   -3909.7896            0    3380.8254      17.5409    20.660863    21.399857    7755.5251    3965.7104     1979.399    4197.3669   -334.21136   -273.05464     1111.121   -3083.1072 
 7524000    274.09797   -3837.5395    -3367.745   -3837.5395            0    3955.8633    17.543394    20.663801      21.4029    7758.8339    4678.4664    3090.1845    4098.9391   -749.42292   -197.45093   -151.38174   -2920.1207 
 7525000    266.19346   -3844.6704   -3388.4239   -3844.6704            0    3172.2022    17.413887    20.511259    21.244902    7588.2701    4222.4759    2913.6245    2380.5063   -684.50914   -1075.8692    729.31874   -3037.3654 
 7526000    277.08188   -3843.0141   -3368.1052   -3843.0141            0    4332.6159    17.487147    20.597549    21.334279    7684.4445    2546.9573    5826.1489    4624.7414     1547.458    -205.4455    -1056.187   -2882.5501 
 7527000    265.37114   -3830.4786   -3375.6416   -3830.4786            0    3948.8901    17.413916    20.511292    21.244936    7588.3071    3233.4616    5041.4843    3571.7242   -1684.9721   -1862.4503   -163.85407   -2938.6271 
 7528000    254.29581    -3860.057   -3424.2027    -3860.057            0    4749.0793    17.436934    20.538405    21.273019    7618.4387    5208.5521     4590.777    4447.9087    921.12959    -647.9076    1750.7357   -2896.5462 
 7529000    259.22265   -3873.9365   -3429.6377   -3873.9365            0    4094.8469    17.395323    20.489393    21.222253     7564.027    4312.9799    4329.7019     3641.859    401.16529    339.85157    531.07601   -2977.9205 
 7530000    259.08212   -3820.1894   -3376.1316   -3820.1894            0    4530.9758    17.485441     20.59554    21.332197    7682.1954    5920.3469    5405.8842    2266.6962    1130.6554    2145.4019     258.7387   -2868.4949 
 7531000    271.77731   -3826.1834   -3360.3664   -3826.1834            0    4801.9464    17.402365    20.497688    21.230845    7573.2176    4452.9798    6407.4658    3545.3938   -1243.0102   -1541.1509    -491.6453   -2830.0029 
 7532000    262.75586   -3825.6744   -3375.3199   -3825.6744            0    3133.3177    17.471237    20.578809    21.314868     7663.489    2269.2373    4190.1601    2940.5558   -795.51953    358.44621   -129.26212   -3025.1273 
 7533000    269.29295   -3869.3051   -3407.7461   -3869.3051            0    3765.9273    17.456042    20.560912    21.296331    7643.5121    5811.9592     3777.256    1708.5667    1434.6893   -858.73789    60.043865   -2987.9477 
 7534000     250.0796   -3881.5016   -3452.8737   -3881.5016            0    2828.7825     17.44789    20.551309    21.286385    7632.8076    1737.8816    3442.2967    3306.1692   -283.37973    -463.6738    1154.2775   -3137.9831 
 7535000    258.70827    -3900.562   -3457.1449    -3900.562            0    7191.0714    17.301467    20.378843    21.107749    7442.2522    6953.0122    6901.6971    7718.5049   -1507.1094     205.1486    588.01377   -2676.6431 
 7536000    252.03358   -3878.1648   -3446.1879   -3878.1648            0    4950.7397    17.356137    20.443237    21.174447    7513.0246    4836.3829    5560.6443    4455.1918   -112.04869   -811.04657    340.50389   -2903.7366 
 7537000    262.97854    -3862.396   -3411.6597    -3862.396            0    3876.2321    17.411121    20.508001    21.241527    7584.6541    3246.2907    4111.8346     4270.571   -486.60636   -164.62766    943.83047   -2982.8927 
 7538000    272.52708   -3884.5625   -3417.4604   -3884.5625            0    4360.8878     17.35793    20.445349    21.176634    7515.3532    3840.0675     2619.796       6622.8   -797.71362    331.54516    -1009.086   -2939.4909 
 7539000    262.79046   -3851.1341   -3400.7203   -3851.1341            0    2860.1068    17.398227    20.492814    21.225797    7567.8164    1416.9185    2708.8569    4454.5449   -376.82397   -246.10452   -1006.8508   -3085.0536 
 7540000    260.92068   -3875.7756   -3428.5665   -3875.7756            0    4762.7458    17.439449    20.541367    21.276087    7621.7353    4177.1833    4458.1962    5652.8579   -157.13958   -598.59909    1271.7773   -2899.1626 
 7541000    252.66104   -3833.6516   -3400.5992   -3833.6516            0    4309.9118    17.481972    20.591454    21.327965    7677.6246    4853.4616    4740.4326    3335.8412   -490.30616    537.13799    62.825935   -2918.0171 
 7542000     255.0043   -3856.9194   -3419.8508   -3856.9194            0       2981.1    17.454354    20.558924    21.294271    7641.2945    680.66124    5003.5278     3259.111    2.0330528   -1058.7324    1053.0448   -3087.6357 
 7543000      261.933   -3831.7719   -3382.8278   -3831.7719            0    4870.3718    17.447173    20.550466    21.285511    7631.8676    5450.5836    4627.5723    4532.9596    329.34764    792.18556   -783.08084    -2840.741 
 7544000    277.39004   -3895.1567   -3419.7196   -3895.1567            0    5990.7799    17.433222    20.534033     21.26849    7613.5739    6258.7298    4807.2601    6906.3497    475.94813    1346.1817   -392.87669   -2754.5264 
 7545000     257.5022    -3902.958   -3461.6081    -3902.958            0    5126.7781    17.484898      20.5949    21.331535    7681.4801    5803.5297    5990.8466    3585.9581     529.7518   -184.07557    1320.2532    -2887.273 
 7546000    253.97738   -3834.9389   -3399.6304   -3834.9389            0    3405.5635    17.519956    20.636194    21.374306    7727.7779    3026.8617    4623.3764    2566.4526    788.34064    1002.9519    2123.7084   -3015.8175 
 7547000    255.21807   -3865.2482   -3427.8132   -3865.2482            0    3734.0033    17.502832    20.616025    21.353415    7705.1411    4350.7189    4057.1343    2794.1566    126.12983    595.30369   -579.82278   -3008.2173 
 7548000    287.70959   -3892.8356   -3399.7112   -3892.8356            0    4327.1394    17.397362    20.491794    21.224741    7566.6873    5197.4517    4325.4101    3458.5565    -138.6357    1120.5185   -1453.4197   -2922.2011 
 7549000    282.52165   -3895.4325      -3411.2   -3895.4325            0    4356.6674    17.419396    20.517748    21.251622    7595.4738     5215.459    3323.7145    4530.8285   -361.97701    -46.84543   -1240.2763   -2928.6024 
 7550000    257.26349   -3850.6714   -3409.7306   -3850.6714            0    3811.2512    17.431751      20.5323    21.266696    7611.6471    3353.5194    5358.5152    2721.7191   -2617.5758   -152.93375    298.02135    -2986.651 
 7551000    266.81354   -3822.3145   -3365.0053   -3822.3145            0    3769.6636    17.495076    20.606888    21.343951    7694.9015    2909.1892    4984.6667    3415.1348   -569.70542   -137.22478    602.61412   -2941.9652 
 7552000    268.05968   -3851.1943   -3391.7492   -3851.1943            0    4384.9662    17.477074    20.585685     21.32199    7671.1729    4908.6943    4015.9772    4230.2272   -679.20799   -874.40978   -372.64399   -2901.1759 
 7553000    249.63228   -3835.0175   -3407.1563   -3835.0175            0    2707.4762    17.422872    20.521842    21.255863    7600.0216    732.88951    3593.7206    3795.8185    9.0165912    -158.9172    592.74859   -3107.0636 
 7554000    258.59984   -3814.1966   -3370.9653   -3814.1966            0    4637.9835    17.415772    20.513479    21.247201    7590.7343    6155.0467    3876.9086     3881.995    1045.9479   -2.3502841   -390.13638   -2857.5263 
 7555000    257.16749    -3844.842   -3404.0658    -3844.842            0    3914.8817    17.509306     20.62365    21.361312    7713.6935    4844.1927    3998.4532    2901.9993    1221.2745   -126.65481   -832.64351    -2963.656 
 7556000    270.78678   -3823.5635   -3359.4442   -3823.5635            0    3593.5988    17.449573    20.553292    21.288438    7635.0169    3698.7659    3264.1247    3817.9057    157.37733   -262.62429   -309.38618    -2959.301 
 7557000    264.28816   -3831.6771   -3378.6962   -3831.6771            0    3643.8463     17.44661    20.549802    21.284823    7631.1279    4633.3728    2213.6919    4084.4744   -329.67526    788.23876   -296.78932   -2973.1646 
 7558000    265.72076   -3853.3494   -3397.9131   -3853.3494            0    3141.9994    17.471948    20.579646    21.315735    7664.4244    2911.6455    2245.1345    4269.2182    471.92997   -382.92313   -995.34167   -3046.7075 
 7559000    252.32263   -3826.1341   -3393.6617   -3826.1341            0    3490.2734    17.516209     20.63178    21.369734      7722.82    4519.6293    3792.5472    2158.6438    488.19241   -1289.5307    1042.7635   -3000.5543 
 7560000    256.31477   -3885.8691   -3446.5544   -3885.8691            0     3531.375    17.569039    20.694007    21.434186    7792.9089    3373.4466    3886.7462    3333.9321    -337.8276    -892.4059    -499.1361    -3045.208 
 7561000    262.78134   -3830.0614   -3379.6632   -3830.0614            0    4331.0218    17.334413    20.417648    21.147943    7484.8478    4194.2119    3936.4444    4862.4091    -1480.709   -658.78347     740.4081    -2906.894 
 7562000    249.46932   -3789.2645   -3361.6827   -3789.2645            0    4952.1551     17.34618    20.431509    21.162299    7500.1017    4283.9459    6634.1201    3938.3991   -705.10309   -435.62022    936.69091   -2820.0095 
 7563000    272.25938   -3818.3821   -3351.7389   -3818.3821            0    4599.1888    17.414998    20.512567    21.246256    7589.7216    4690.9941    4727.3984    4379.1739   -924.24869   -112.81838   -609.48496   -2842.6625 
 7564000    270.85355   -3883.3222   -3419.0885   -3883.3222            0    2942.3579    17.482946    20.592601    21.329154     7678.908    2776.0055    3923.3868    2127.6813   -182.47391   -542.13297    291.49516   -3089.5768 
 7565000    254.08877   -3888.3154   -3452.8159   -3888.3154            0    3245.4431    17.422888    20.521861    21.255883    7600.0426    3671.9253    1135.3111    4929.0929   -6.9492174   -2360.0933    1553.8029   -3093.0948 
 7566000    277.88658   -3861.9259   -3385.6378   -3861.9259            0     4213.363    17.500677    20.613486    21.350785    7702.2948    3075.4144    5607.1109    3957.5637    1915.2655    89.345412    73.179476   -2912.3505 
 7567000    260.69232   -3897.6218   -3450.8041   -3897.6218            0    2558.7627     17.52046    20.636787     21.37492    7728.4444    4516.3184    1520.7962    1639.1734   -1922.3542   -111.72332   -33.232901   -3162.4023 
 7568000    261.25273   -3858.3247   -3410.5465   -3858.3247            0    4288.7026    17.506183    20.619972    21.357503    7709.5675    2920.0166    4370.6483     5575.443   -487.83878    494.73475    479.32661   -2928.3413 
 7569000    253.92732   -3895.8116   -3460.5889   -3895.8116            0    4184.7734    17.410933    20.507779    21.241298    7584.4086    3310.3998    5647.3823    3596.5381    378.39048   -50.806543   -85.745471   -2997.7077 
 7570000    269.16416   -3883.5092    -3422.171   -3883.5092            0    4670.1724    17.354207    20.440964    21.172092    7510.5185    4602.8488    4839.3416    4568.3269    -274.6734   -1947.5037   -1620.2045    -2910.632 
 7571000    253.97016   -3847.4425   -3412.1464   -3847.4425            0    5223.6953    17.392824     20.48645    21.219205    7560.7683    5209.7224     4321.308    6140.0556    288.08272    -1837.868    829.92311   -2836.1501 
 7572000    278.56425    -3822.061   -3344.6114    -3822.061            0    4012.1044     17.45766    20.562817    21.298304    7645.6367     5100.024    2806.9868    4129.3023    1178.1337   -170.61904    356.29451   -2897.2466 
 7573000    250.35475   -3874.8835    -3445.784   -3874.8835            0    3474.7616    17.408244    20.504612    21.238017    7580.8953    3317.4836    3824.8443    3281.9569   -723.04236    1435.4859   -95.119194   -3061.6158 
 7574000    274.32243   -3891.4107   -3421.2314   -3891.4107            0    3126.6077    17.422905    20.521881    21.255904     7600.065    2012.5719     3389.951    3977.3003   -206.62075   -925.63752    737.33401   -3074.6809 
 7575000    256.41948   -3873.6047   -3434.1105   -3873.6047            0      3649.03    17.487416    20.597866    21.334607    7684.7993    3949.7587    2662.6907    4334.6406   -118.52037    340.17646    985.04203   -3025.1458 
 7576000    254.24673   -3846.3848   -3410.6146   -3846.3848            0    2575.5842    17.341463    20.425953    21.156545    7493.9847    3294.9753    2957.3806    1474.3965   -108.36922   -855.29036    1856.2029   -3129.1237 
 7577000    257.13446   -3863.7066    -3422.987   -3863.7066            0    3702.4681    17.374536    20.464909    21.196893    7536.9432    3825.4558    3390.1817    3891.7668    35.148261   -364.72258    575.93927   -3016.0169 
 7578000    284.18581    -3840.864   -3353.7793    -3840.864            0    4211.9725    17.393792     20.48759    21.220386    7562.0303     5073.845    4516.2124    3045.8602   -801.71672      1287.88    739.14125   -2889.2642 
 7579000    256.24404   -3858.1248   -3418.9312   -3858.1248            0     3729.257    17.371851    20.461746    21.193618    7533.4494    5171.2467    4245.3082    1771.2161   -74.039808    236.62955   -1521.7592   -3009.2066 
 7580000    279.61516   -3859.5219   -3380.2711   -3859.5219            0    1927.5602    17.493532     20.60507    21.342068     7692.865    1238.4487    3089.2524    1454.9795    856.17703    74.625806    1044.0405   -3164.0132 
 7581000    257.91655   -3868.1462   -3426.0861   -3868.1462            0    4672.4088    17.411593    20.508556    21.242102    7585.2705    4947.0687    5703.7917    3366.3661   -1161.5698   -94.895469   -1411.6322   -2909.2084 
 7582000      257.695   -3905.3846   -3463.7042   -3905.3846            0    4980.5211    17.374556    20.464933    21.196918    7536.9698    5772.6375    5251.3927    3917.5333    36.416678   -1876.4825    1210.6939   -2916.2505 
 7583000    248.07237   -3871.2615   -3446.0739   -3871.2615            0      3387.56    17.392781    20.486399    21.219153     7560.712    2865.2749    3619.2058    3678.1992    1743.9061    97.666362   -1196.2889   -3072.5438 
 7584000    272.29078   -3850.8237   -3384.1267   -3850.8237            0    2832.5944    17.515852     20.63136    21.369299    7722.3485     1209.615    5742.3149    1545.8534    216.84976    133.67902    267.21874   -3065.1127 
 7585000    261.50311   -3860.4625   -3412.2551   -3860.4625            0      2610.16    17.435528    20.536749    21.271304     7616.596    3898.6508    3008.7418    923.08744   -843.78383    894.25201    974.46615   -3122.3179 
 7586000    256.91004   -3862.5744   -3422.2394   -3862.5744            0    4765.0846    17.439272    20.541159    21.275871    7621.5036    5509.3469    5779.0657    3006.8413    849.83827    1185.5477   -1250.6661   -2892.5916 
 7587000    258.44546   -3883.0363   -3440.0696   -3883.0363            0    3497.1071    17.459241     20.56468    21.300234     7647.715    4922.5795    3573.0587    1995.6832   -396.31664    322.76158    525.68803    -3050.023 
 7588000    264.71046   -3859.4112   -3405.7066   -3859.4112            0    5227.2065    17.531879    20.650237    21.388851     7743.565    4231.6168     6575.646    4874.3568   -682.06884    338.70517   -91.834908   -2815.3879 
 7589000    257.14967   -3909.0086   -3468.2629   -3909.0086            0    5015.3216    17.414564    20.512057    21.245728    7589.1553     5343.886    4102.2007    5599.8781     518.1382   -348.70456   -47.323293   -2913.1669 
 7590000    248.65694   -3846.0256   -3419.8361   -3846.0256            0    3775.5457    17.488898    20.599612    21.336415    7686.7529    4405.2146    2567.8373     4353.585   -179.69242    -407.4188    472.80895   -2996.5846 
 7591000    269.35817   -3890.9662   -3429.2955   -3890.9662            0    5055.1002    17.390232    20.483396    21.216042    7557.3875    4739.8173    4394.4886    6030.9946    26.946059   -311.56392    345.76661   -2872.1388 
 7592000     258.8674   -3838.8188    -3395.129   -3838.8188            0     4513.177    17.399639    20.494476    21.227519    7569.6584    4699.6504     4795.261    4044.6195    262.10182    1397.5715    456.10079   -2896.8936 
 7593000    258.25839   -3864.7813   -3422.1353   -3864.7813            0    5208.2922    17.345589    20.430812    21.161578    7499.3342    5902.8469    5174.0788    4547.9509   -758.91046    330.26345   -176.03595   -2852.5039 
 7594000    254.68738   -3832.5139   -3395.9884   -3832.5139            0    3337.8568    17.343902    20.428825    21.159519    7497.1463    3255.5138    3872.5903    2885.4664    -71.51736    1444.3946    540.05488   -3031.0332 
 7595000    251.40047   -3839.8658    -3408.974   -3839.8658            0    5151.9528    17.353972    20.440686    21.171805    7510.2128    5803.3592    4257.4451    5395.0542    413.23169   -513.16052    725.67566   -2844.6871 
 7596000    271.60104   -3847.5945   -3382.0796   -3847.5945            0     3813.834     17.52563    20.642878    21.381228    7735.2889    5555.6614    1863.3017    4022.5389    167.14595   -1077.6389    93.983616   -2951.8362 
 7597000    270.46248   -3879.9987   -3416.4353   -3879.9987            0    3783.7106    17.492136    20.603426    21.340365    7691.0235    3313.9988    3798.2142    4238.9188    384.99619   -974.41711   -707.70637   -2992.0328 
 7598000    251.64765   -3873.7737   -3442.4582   -3873.7737            0    3198.1126    17.492436    20.603779    21.340731    7691.4192    2670.3918    4275.6726    2648.2735    1165.0811   -582.34513   -1093.9015   -3083.7212 
 7599000    260.04087   -3861.5681   -3415.8669   -3861.5681            0    3703.4445    17.416733    20.514611    21.248374     7591.991     3901.173    1962.8985    5246.2621    260.17162   -101.42341    325.54105   -3005.8164 
 7600000    259.79486   -3876.4974   -3431.2179   -3876.4974            0    3966.4434    17.418744    20.516979    21.250826    7594.6203    5429.6954     3017.751    3451.8838    463.65529     255.9921   -553.72108   -2991.8957 
 7601000    264.21674   -3903.9709   -3451.1124   -3903.9709            0    2767.9921    17.445012    20.547919    21.282873     7629.031    5074.8333    2835.0389    394.10395    1018.9343    149.53962    1360.1039   -3143.1412 
 7602000     287.3536    -3898.995   -3406.4808    -3898.995            0    3300.0296    17.403067    20.498514    21.231701    7574.1337    3372.4314      5510.76    1016.8975   -19.109928   -27.026402   -552.90057   -3041.9563 
 7603000    264.18255   -3850.1404   -3397.3405   -3850.1404            0    3442.2259    17.467716    20.574662    21.310573     7658.857    3634.7687    3451.5803    3240.3286    1251.3779    -840.9379     905.5121   -3012.8557 
 7604000    267.79218   -3878.1103   -3419.1237   -3878.1103            0    1762.1017    17.394004    20.487839    21.220645     7562.307    872.42767     2593.602    1820.2754    501.08846    165.66723   -41.475945   -3224.7842 
 7605000    273.59811   -3846.0398    -3377.102   -3846.0398            0    4494.7019      17.3203    20.401026    21.130726    7466.5819    4430.7126    4641.0947    4412.2984      234.472    418.39161    732.63018    -2887.663 
 7606000    245.95105   -3862.9122   -3441.3605   -3862.9122            0    2824.4153    17.410285    20.507016    21.240507    7583.5621     2828.369    3118.8355    2526.0413    135.63429    912.45588    523.55643   -3128.9845 
 7607000    263.49517   -3874.2534   -3422.6317   -3874.2534            0    3742.9491    17.315625    20.395519    21.125022    7460.5374    1543.0985    4110.3032    5575.4457   -850.92226    1387.8567   -729.33484   -3015.3828 
 7608000    265.05307   -3858.5138   -3404.2219   -3858.5138            0    4204.7358     17.43952    20.541451    21.276173    7621.8281     4448.797    5820.9226    2344.4879    719.75615    226.31356    304.36717    -2936.838 
 7609000    265.17065   -3855.0749   -3400.5815   -3855.0749            0    3902.4232     17.37257    20.462593    21.194495    7534.3855    6016.8403    3719.8429    1970.5865     -2874.66   -916.05264    333.92242   -2971.7782 
 7610000    265.89519   -3857.6247   -3401.8894   -3857.6247            0      5063.68    17.443106    20.545675    21.280549    7626.5316    5881.4987    4503.5717    4805.9697   -264.56324   -756.74385   -1030.6501   -2838.6809 
 7611000    265.18464   -3851.2776   -3396.7602   -3851.2776            0    3152.0695    17.521787     20.63835    21.376539    7730.2002    4904.0245    3642.3832    909.80083   -176.01795   -848.54242   -663.58307   -3041.4052 
 7612000    252.01049   -3862.5168   -3430.5795   -3862.5168            0    2264.6137    17.594202    20.723646    21.464885    7826.4406    1705.0577    2251.0872    2837.6961   -139.43124    1528.9096   -229.19801   -3172.0951 
 7613000    251.02008   -3862.6036   -3432.3638   -3862.6036            0    3805.2255    17.415275    20.512894    21.246595    7590.0848    3850.5806    4143.7208    3421.3751   -371.76759   -396.90029    242.62563   -3011.1497 
 7614000     277.2985   -3859.5544   -3384.2743   -3859.5544            0    5081.8347    17.444024    20.546756    21.281669    7627.7354    5151.9065    5325.6912    4767.9065    275.33472    153.28031   -838.49766   -2818.9573 
 7615000    268.29308   -3874.3868   -3414.5416   -3874.3868            0    940.02772    17.555951    20.678591    21.418219    7775.5062    1231.7566   -233.82317    1822.1497   -133.31767   -1393.0959   -102.86715   -3307.9446 
 7616000    260.44767    -3875.963   -3429.5647    -3875.963            0    4348.3286    17.505052    20.618639    21.356123    7708.0731    4516.8227    4836.8144    3691.3487    1092.8208    70.758701   -96.404539   -2940.7502 
 7617000    247.11446   -3862.5291   -3438.9834   -3862.5291            0    5254.1421    17.401312    20.496447     21.22956    7571.8427     5385.437    5540.4045    4836.5849    -284.8644   -1256.1215   -989.90225   -2858.7813 
 7618000    262.98214   -3880.6044    -3429.862   -3880.6044            0    4945.2157    17.325748    20.407443    21.137372    7473.6297    5095.6439    4328.7378    5411.2654   -1181.7273   -681.16467   -297.56382   -2890.8571 
 7619000    264.38203   -3859.1353   -3405.9936   -3859.1353            0    4226.8618    17.387872    20.480617    21.213164    7554.3119    3546.2128    4543.3938     4590.979   -1636.8511   -866.57421     -296.675   -2940.3122 
 7620000    261.38938   -3888.4467   -3440.4343   -3888.4467            0    5321.7065    17.474976    20.583214     21.31943    7668.4109    6546.8969    3852.1253    5566.0974   -541.02692   -7.9990055    602.43458   -2845.2764 
 7621000    271.57856   -3904.9931   -3439.5168   -3904.9931            0    4849.2456     17.41511    20.512699    21.246393    7589.8684    5977.7892     5843.951    2725.9966   -287.02156   -1496.5449   -1168.8013   -2902.7516 
 7622000    274.66707   -3886.9074   -3416.1375   -3886.9074            0    4501.0805    17.377882     20.46885    21.200975    7541.2984    4766.7368    4908.7037    3827.8009   -1009.6487   -1246.7998    2024.2389   -2921.0992 
 7623000    247.93898   -3873.3518   -3448.3929   -3873.3518            0    2480.2221    17.453732    20.558191    21.293512    7640.4774    2812.0676    2990.4263    1638.1724   -1189.6825     223.6269    157.08421   -3172.0254 
 7624000    284.42027   -3888.5529   -3401.0663   -3888.5529            0    3643.9963    17.467823    20.574789    21.310704    7658.9982    2888.1911    3465.1954    4578.6025   -956.92437   -836.95429     608.7177   -2994.0369 
 7625000    264.78341   -3845.0454   -3391.2157   -3845.0454            0    4323.7434    17.423283    20.522326    21.256365      7600.56    3892.1267    2427.4563    6651.6472   -1390.7943    592.69459   -1016.8441   -2911.9444 
 7626000    269.73744   -3873.9635   -3411.6428   -3873.9635            0    3442.3969     17.48066    20.589908    21.326364    7675.8953    3441.0999    4338.4251    2547.6658    404.41899    717.32618    1407.7472   -3026.2834 
 7627000    266.79097   -3864.5987   -3407.3281   -3864.5987            0    5245.8418    17.427095    20.526816    21.261016    7605.5498    2899.7686    7364.6178     5473.139   -996.97471    1710.3477   -1275.4075   -2825.4639 
 7628000    270.78989   -3887.0617   -3422.9371   -3887.0617            0    4297.9611    17.380039    20.471391    21.203607    7544.1072    3739.2969    4513.9591    4640.6272    185.21092    274.10565    1026.8467   -2950.0622 
 7629000    267.65224   -3876.7763   -3418.0296   -3876.7763            0    4596.0461    17.391942    20.485411    21.218129     7559.618     5951.235    4165.7587    3671.1447   -2119.1174   -1.5524837   -173.69457   -2911.3188 
 7630000    250.07205   -3906.6214   -3478.0064   -3906.6214            0    4090.1089    17.461672    20.567543    21.303199     7650.909    3878.6222    4100.5598    4291.1446   -553.73276    1803.0253    181.30418   -3021.6294 
 7631000    258.16247   -3913.7465   -3471.2648   -3913.7465            0    4756.5842    17.414786    20.512317    21.245998    7589.4448     4687.219    3555.6268    6026.9068     -714.104   -192.41022   -674.03222   -2944.7858 
 7632000    264.76583   -3859.2979   -3405.4983   -3859.2979            0    2778.8073    17.547595    20.668749    21.408025    7764.4086    2497.6672    2434.5007     3404.254    631.57106   -32.020093   -412.02577   -3090.8375 
 7633000    263.05628   -3868.2012   -3417.3317   -3868.2012            0    4865.5391    17.422643    20.521572    21.255584    7599.7222    3900.8398    5983.2968    4712.4808    196.27335   -1022.8244   -226.61297   -2878.0638 
 7634000    260.90658   -3896.6236   -3449.4387   -3896.6236            0    3881.7351    17.453032    20.557366    21.292658    7639.5581     4651.848    3301.8608    3691.4966    108.09502   -473.09623   -238.56865   -3016.9547 
 7635000    254.80804   -3873.5076   -3436.7754   -3873.5076            0    4190.0199    17.357123    20.444398     21.17565    7514.3051     2449.723    4553.9174    5566.4193    314.40911   -31.200444    263.84826   -2977.5977 
 7636000    264.60583   -3867.3609   -3413.8356   -3867.3609            0    4167.8095    17.392406    20.485957    21.218695    7560.2227    4100.4911    2886.1978    5516.7396   -589.09879   -628.50064    599.50127   -2954.3009 
 7637000    260.22019   -3884.3163   -3438.3078   -3884.3163            0    3929.7037    17.427381    20.527153    21.261364     7605.924    4205.4859    3623.8906    3959.7347    1599.5368   -947.74864    1841.0161    -3002.407 
 7638000    265.95481   -3863.5566   -3407.7192   -3863.5566            0    4473.9562    17.386038    20.478456    21.210926    7551.9214    6420.6202    1519.3994     5481.849    236.89211    -636.5717      1467.33    -2914.971 
 7639000    244.73501   -3899.2411   -3479.7736   -3899.2411            0    2710.4698     17.40774    20.504018    21.237402    7580.2364    4558.8618    1705.2463    1867.3012    685.47769   -1929.2929   -329.13727   -3180.1313 
 7640000     251.0353   -3846.1281   -3415.8622   -3846.1281            0    2099.1346       17.511    20.625645    21.363379    7715.9331    1554.4956    1924.6174    2818.2909    695.73237    276.85884   -908.04757   -3179.6487 
 7641000    252.31979   -3883.1167   -3450.6492   -3883.1167            0     3177.587    17.501768     20.61477    21.352116    7703.7348    4065.0142    3003.8791    2463.8677    554.64509   -86.500014    647.53782   -3093.6439 
 7642000    244.48756   -3862.6757   -3443.6324   -3862.6757            0    3685.6044    17.564409    20.688554    21.428538    7786.7501    2893.8371    3884.0824    4278.8938    1262.1686   -878.37352    640.76534   -3025.0887 
 7643000    242.25114   -3858.4009   -3443.1907   -3858.4009            0    3641.0533    17.548573    20.669901    21.409218    7765.7073    4974.7984    3114.3617    2833.9997   -271.22126   -1529.3262    1226.4442   -3030.8237 
 7644000     254.2021   -3839.1009   -3403.4072   -3839.1009            0    4797.0639    17.447587    20.550953    21.286016    7632.4109    6070.0707    2502.2766    5818.8444    64.253432    21.825868    1420.6414   -2869.4418 
 7645000    260.65939   -3823.5176   -3376.7563   -3823.5176            0    4482.9125    17.450497     20.55438    21.289565    7636.2293    5334.1534    4344.5928    3769.9913    18.752881    662.91913   -137.50015   -2877.5097 
 7646000    257.82813   -3866.6684   -3424.7598   -3866.6684            0    3548.1775     17.34267    20.427375    21.158017    7495.5497    2677.8638    3832.2539     4134.415    638.72279     1007.574   -584.59148   -3036.8912 
 7647000    258.97336   -3917.8583   -3473.9868   -3917.8583            0    2950.8081    17.473556    20.581541    21.317698    7666.5419    3015.0869    3049.1417    2788.1957    1207.6848   -443.75865   -511.97775   -3144.0609 
 7648000    253.31405   -3882.4233   -3448.2517   -3882.4233            0    4157.2768    17.388005    20.480773    21.213325    7554.4844    5156.1449    3296.6784    4019.0072    641.36708   -866.23235   -1370.1368   -2990.2262 
 7649000    272.96116   -3831.9085   -3364.0624   -3831.9085            0    4776.6667    17.436331    20.537695    21.272283    7617.6478     4149.695    3943.5807    6236.7242     816.5892   -6.3898647    1154.1622   -2833.3958 
 7650000    262.58446   -3891.3924   -3441.3317   -3891.3924            0    4059.8652    17.449965    20.553754    21.288916    7635.5314    4317.4148    4386.4051    3475.7757    1133.9519   -8.6425054   -502.96073   -2989.2397 
 7651000    264.26221   -3868.9354    -3415.999   -3868.9354            0    2344.5305    17.444877     20.54776    21.282709     7628.854     2289.374    1440.9712    3303.2463    426.06708   -559.41895    691.92679   -3155.1489 
 7652000    253.73646   -3878.9267   -3444.0311   -3878.9267            0    3141.3317    17.424609    20.523888    21.257982    7602.2948    3841.7986    2236.9262    3345.2702    1104.0508    16.064462    1034.8135   -3095.7464 
 7653000     260.3209   -3861.2434   -3415.0623   -3861.2434            0    4609.2846    17.476957    20.585547    21.321847    7671.0189     2921.338    5736.5883    5169.9274    775.67497   -882.11306    371.29281   -2899.4035 
 7654000    253.32834   -3902.7874   -3468.5913   -3902.7874            0    2933.3094    17.461821    20.567719    21.303381    7651.1055     4676.015    1507.0191     2616.894    792.52312   -1372.6863    644.25741   -3141.2823 
 7655000    256.51918   -3843.0376   -3403.3725   -3843.0376            0    4465.6164    17.391583    20.484988    21.217691      7559.15    1538.2497    5815.0675    6043.5319    358.47456   -518.30326     802.4379    -2911.072 
 7656000      241.532   -3853.2222   -3439.2446   -3853.2222            0    6356.0848    17.391023    20.484327    21.217007    7558.4188    6615.2517    6271.7036    6181.2991    1240.0918    249.73942    -1081.396   -2738.6021 
 7657000     246.0861   -3858.5005   -3436.7173   -3858.5005            0    3206.9888    17.433401    20.534244    21.268709    7613.8091    3432.9238    4294.6246    1893.4181   -444.05869   -378.36382    -239.6629   -3080.6146 
 7658000    262.81572   -3896.5417   -3446.0845   -3896.5417            0    3637.6498    17.421772    20.520546    21.254521    7598.5817    3666.5273    4939.0017    2307.4203    608.56791    -182.9092    797.96513   -3042.9692 
 7659000    255.61028   -3860.4743    -3422.367   -3860.4743            0    3568.4855      17.4136     20.51092    21.244551    7587.8939    3980.0986    3807.4089    2917.9491    374.61413    1397.0705   -219.96526   -3027.4725 
 7660000     279.6639    -3858.788   -3379.4536    -3858.788            0    3810.7208     17.42331    20.522358    21.256397    7600.5948     4805.847    2137.1504    4489.1651     597.2888   -196.01229    315.21548   -2957.0471 
 7661000    244.25931   -3876.9814   -3458.3293   -3876.9814            0    4164.9978    17.477894     20.58665    21.322989     7672.252    4075.4646    3902.1123    4517.4164    1481.0557    787.24492   -505.53141   -2992.2997 
 7662000    253.50334   -3868.5173   -3434.0212   -3868.5173            0    3969.0781    17.517518    20.633322    21.371331    7724.5518     5148.548    2865.4054    3893.2808    542.17441   -1181.9303   -1793.6798   -2986.8861 
 7663000    265.42224   -3888.2256   -3433.3009   -3888.2256            0    4267.1992     17.48455     20.59449     21.33111    7681.0212    3221.5274    3707.1325    5872.9378    484.98134    273.27295   -730.77558   -2955.2901 
 7664000     264.2878   -3879.0746   -3426.0943   -3879.0746            0    2504.1004    17.446821     20.55005    21.285081    7631.4049    2058.4671    4102.6592    1351.1749    1511.2637    -330.5161   -1598.3186   -3147.3974 
 7665000    259.66684   -3854.5735   -3409.5134   -3854.5735            0    4303.5898    17.487179    20.597587    21.334318    7684.4865    3450.5656    4845.0397    4615.1641    329.13708   -1093.8319    1787.0914   -2927.2085 
 7666000    255.73684   -3836.3822    -3398.058   -3836.3822            0    3657.4537    17.461099    20.566869      21.3025    7650.1568    3894.0777    2962.7606    4115.5227   -635.88792   -687.32856   -694.09083   -2989.9971 
 7667000    253.22032   -3889.0836   -3455.0726   -3889.0836            0    2078.2388    17.467453    20.574353    21.310252    7658.5112    2373.1004    1936.5006    1925.1154    497.84211   0.88530185    -461.4174    -3222.951 
 7668000    279.03578   -3847.9433   -3369.6855   -3847.9433            0    4217.2561    17.344057    20.429008    21.159709    7497.3478    6665.9012    3088.2012    2897.6658    667.82741   -1325.7114    -1469.499    -2908.566 
 7669000    271.94365   -3846.1778   -3380.0756   -3846.1778            0    3460.9139    17.385865    20.478252    21.210715    7551.6958    2228.9275     4868.946    3284.8683     194.5942    1591.8546    687.74026   -2998.9123 
 7670000    265.39879    -3890.015   -3435.1306    -3890.015            0    3226.3136    17.465687    20.572273    21.308098    7656.1888    2966.1871    3858.8428     2853.911    437.20735   -566.60091     514.3012    -3074.888 
 7671000    268.97671   -3905.1554   -3444.1385   -3905.1554            0    3798.1286    17.392584    20.486167    21.218912    7560.4551    2758.0863    3198.6109    5437.6886   -1065.4201    32.027736    332.95141   -3025.3513 
 7672000     266.0674   -3898.0608   -3442.0303   -3898.0608            0    4171.0602    17.384348    20.476466    21.208865    7549.7201    3421.0959    5054.1054    4037.9794    1803.8244     1324.439    289.41938   -2982.7761 
 7673000    258.57859   -3867.6219    -3424.427   -3867.6219            0     5564.825     17.34441    20.429424    21.160139    7497.8053    5815.8959    5572.2655    5306.3137   -1131.1563   -1422.6767   -959.97818   -2815.9256 
 7674000    249.16625   -3861.6927   -3434.6302   -3861.6927            0    3229.4756     17.34596    20.431249     21.16203    7499.8155    4048.3966    3467.3125    2172.7176   -855.40687    1010.6088   -778.67289   -3081.3995 
 7675000    271.67492   -3857.4753   -3391.8338   -3857.4753            0    4426.4665    17.388732    20.481629    21.214212    7555.4324    6275.8345    2323.6403    4679.9246   -1123.2083    808.91425   -518.52712   -2904.0893 
 7676000    251.19855     -3862.99   -3432.4443     -3862.99            0    4759.0663    17.478876    20.587807    21.324188    7673.5459    4824.6721    4208.8746    5243.6521    582.26606     -505.653    914.06764   -2899.8534 
 7677000    266.43928    -3815.279   -3358.6112    -3815.279            0    4999.1273    17.424679     20.52397    21.258068    7602.3864    5107.0928     7256.189    2634.1001    1491.6203   -119.78019    82.826812   -2804.3429 
 7678000    260.40058   -3819.7299   -3373.4123   -3819.7299            0    4518.2046    17.455406    20.560163    21.295555    7642.6761    3428.2881    4389.9834    5736.3423   -1551.9313    1266.0855    890.66868   -2869.8105 
 7679000    259.62781   -3850.7339   -3405.7408   -3850.7339            0    2851.0116    17.499076    20.611601    21.348832    7700.1818    3904.9989    2671.3926    1976.6433    1633.6334   -125.77091    1344.3886   -3085.5743 
 7680000    245.55204   -3841.9749   -3421.1071   -3841.9749            0    2679.9059    17.396557    20.490846    21.223759    7565.6371    2800.6853    3853.6861    1385.3462     983.4172    572.74985    36.614805   -3125.4142 
 7681000    268.92364   -3868.3685   -3407.4426   -3868.3685            0    2503.9959    17.444838    20.547715    21.282662    7628.8033    2345.7174     2712.018    2454.2522   -282.19854   -121.81199    1248.1014   -3128.8523 
 7682000    283.38068   -3871.6289   -3385.9241   -3871.6289            0    3505.5641    17.514367    20.629611    21.367487    7720.3844    3869.7348    2877.2117     3769.746    1912.2952    467.83889    797.68963    -2991.219 
 7683000    251.58815    -3859.838   -3428.6245    -3859.838            0    4752.8076    17.394054    20.487899    21.220706    7562.3725     4729.773    3621.4217    5907.2281    1914.3657     838.3316    81.949028     -2904.44 
 7684000    267.72242   -3891.3438   -3432.4767   -3891.3438            0    4649.2543    17.415857    20.513579    21.247305    7590.8453    4687.2618    3785.6426    5474.8586    349.34702   -659.17073    1221.4789   -2917.7825 
 7685000    259.01646   -3858.0864    -3414.141   -3858.0864            0    3497.9773    17.491137    20.602249    21.339146    7689.7054    4214.3241    3356.5381    2923.0698    488.00835    673.31143   -767.41265   -3021.8553 
 7686000    271.27382   -3858.9999   -3394.0458   -3858.9999            0    4357.4917    17.460298    20.565924    21.301522    7649.1032    4370.9855    4039.4158    4662.0739   -1002.3072   -831.70299   -1167.7651   -2907.9488 
 7687000    252.47894   -3852.8501   -3420.1098   -3852.8501            0    2968.2576    17.396456    20.490728    21.223636    7565.5058    2816.7406    2660.8545    3427.1779    1381.9487   -476.06941    1167.9743   -3092.6067 
 7688000    270.62957    -3837.589   -3373.7392    -3837.589            0    6204.2333    17.299802    20.376882    21.105719    7440.1042    4907.6617    6547.6435    7157.3948    327.92507   -210.03278    225.05835   -2700.5409 
 7689000    246.97785   -3861.6439   -3438.3323   -3861.6439            0    4001.2669    17.349849     20.43583    21.166775    7504.8613     3865.556    4138.2979    3999.9466    1201.0019   -263.16125    304.33305   -3000.3909 
 7690000    280.15263   -3856.2653   -3376.0933   -3856.2653            0    3583.1973    17.410392    20.507142    21.240638    7583.7016    4229.8549      3838.01    2681.7269    599.36123   -69.490142    10.792181   -2979.7898 
 7691000    276.77113   -3903.1871   -3428.8108   -3903.1871            0    2933.3634    17.504447    20.617926    21.355384    7707.2735    5332.7453    843.16779    2624.1771   -287.18535   -84.032992    655.98874   -3099.0929 
 7692000    253.15215   -3843.2781   -3409.3839   -3843.2781            0    4190.1819    17.442276    20.544698    21.279536     7625.443    4701.8753    4658.7591    3209.9111   -1020.2562    888.36639   -738.04906   -2943.3969 
 7693000    256.85045   -3851.2621   -3411.0292   -3851.2621            0    3821.5796    17.430754    20.531126    21.265479    7610.3406    3090.7147    5465.4188    2908.6052   -126.07847    1063.2961   -11.661096   -2986.8759 
 7694000    269.80926    -3841.227   -3378.7832    -3841.227            0    4542.5283    17.335439    20.418857    21.149195    7486.1773     4788.032    4928.1095    3911.4435    2274.4261    365.83828    161.89633    -2882.838 
 7695000    256.65106    -3861.252   -3421.3608    -3861.252            0    4757.4482    17.382551    20.474349    21.206671    7547.3782    4321.5073    4400.4026    5550.4348    1437.7607    95.005647   -390.40261   -2897.7048 
 7696000    275.70816   -3868.6323   -3396.0779   -3868.6323            0     3289.701    17.471493     20.57911     21.31518    7663.8255    2300.3349    3854.2516    3714.5164   -1359.9577    602.96218    658.20836   -3028.3912 
 7697000    270.28739   -3850.6551   -3387.3918   -3850.6551            0    2857.2969     17.41762    20.515656    21.249456    7593.1512    4412.3685      2310.38    1849.1422    438.23653   -283.98662   -282.56658   -3070.9795 
 7698000    269.54744   -3883.3606   -3421.3655   -3883.3606            0    2051.9133    17.492843    20.604259    21.341228    7691.9562    2998.1739    2608.5575    549.00832   -884.59173   -251.52203   -745.37403   -3191.1833 
 7699000    261.21123   -3812.8104   -3365.1033   -3812.8104            0    3641.8601    17.430197     20.53047      21.2648    7609.6116    3729.3209    1471.5373    5724.7221   -542.54661    915.58054   -339.22828   -2960.9355 
 7700000     255.0753   -3867.3626   -3430.1723   -3867.3626            0     2848.977    17.448169    20.551638    21.286725    7633.1735    4658.7227    3311.2921    576.91632   -378.25282    150.35098   -404.56587   -3113.0184 
 7701000    249.84485   -3856.9688   -3428.7432   -3856.9688            0    4669.0068     17.42537    20.524784     21.25891    7603.2905    4351.1777    4674.0168     4981.826   -2295.2288     989.6084   -1294.8516   -2911.0149 
 7702000    266.24071   -3858.8574   -3402.5299   -3858.8574            0    4088.8211    17.431794    20.532351    21.266748    7611.7036    5186.6648    4140.5071    2939.2915   -219.58544   -383.53912    639.36171   -2948.6344 
 7703000    261.95321   -3884.6941   -3435.7153   -3884.6941            0    4559.5718     17.43209    20.532699    21.267109    7612.0904    6275.8398    2675.6854    4727.1901   -332.94684   -2140.7036    1377.8986   -2929.5366 
 7704000     261.0316   -3872.8431   -3425.4438   -3872.8431            0    3462.5016    17.491893     20.60314    21.340069    7690.7033    2641.6652    5476.7391    2269.1006    254.23355    1842.9141    520.24435   -3037.0861 
 7705000    258.31239   -3888.7349   -3445.9964   -3888.7349            0    3258.9065    17.471132    20.578686     21.31474    7663.3513    3856.7629    3644.3159    2275.6407    139.88636     31.01145   -140.05612   -3081.7741 
 7706000    261.93474   -3901.9352    -3452.988   -3901.9352            0    5913.6811    17.387276    20.479914    21.212436    7553.5347    5119.8497    6229.5501    6391.6436    281.67096    952.07863   -42.448399   -2801.5336 
 7707000    255.95673   -3871.9967   -3433.2956   -3871.9967            0    3099.4875    17.437758    20.539375    21.274024    7619.5182    2893.8448     2483.647    3920.9708    621.32956    458.59742   -1427.8021   -3088.8717 
 7708000    259.11541   -3830.4762   -3386.3612   -3830.4762            0    7164.7906    17.317078    20.397231    21.126795     7462.416    7770.0981    5912.7901    7811.4835   -1101.1251    -830.5007    232.36079    -2606.605 
 7709000     257.5039   -3864.2504   -3422.8976   -3864.2504            0     2767.221    17.437421    20.538979    21.273613    7619.0769    2204.1158    3305.4792    2792.0681    1845.0185    1582.2824   -1076.7168   -3115.4139 
 7710000    274.27421   -3857.9476    -3387.851   -3857.9476            0    3581.4223     17.33051    20.413051    21.143181    7479.7931    2674.2672    4405.3443    3664.6555   -403.02266   -1748.6693   -1016.7887   -2997.1712 
 7711000    248.55651    -3848.156   -3422.1387    -3848.156            0    4504.0664    17.351672    20.437977    21.168999    7507.2269    4606.3721    5526.4265    3379.4005   -224.53622     805.2003    841.57889   -2929.0101 
 7712000    272.04615   -3870.2904   -3404.0126   -3870.2904            0    3733.0242    17.404592     20.50031    21.233561    7576.1249    4520.3091    2160.2133    4518.5501   -2250.8347    1772.6579   -1072.3261   -2991.5507 
 7713000    274.48384   -3847.7266   -3377.2706   -3847.7266            0    4032.0571    17.414137    20.511553    21.245206    7588.5962    5317.0412    2897.2531    3881.8771   -1911.3539    -930.8228   -231.52228   -2931.0353 
 7714000    252.03017   -3861.4256   -3429.4545   -3861.4256            0     2106.127    17.396417    20.490681    21.223588     7565.454     2129.947    1082.0125    3106.4215    -680.6255     -539.084   -722.61274   -3197.0763 
 7715000    261.09427   -3939.7149   -3492.2082   -3939.7149            0    3450.1524    17.360463    20.448333    21.179725     7518.644    3856.1896    5075.4965    1418.7711   -58.973859   -499.58231   -340.20786   -3113.8931 
 7716000    257.93819   -3889.9351   -3447.8379   -3889.9351            0    2863.9673    17.350987    20.437171    21.168164    7506.3388    3778.7155    3387.9007    1425.2856   -545.89051     601.3655   -852.97775   -3134.3129 
 7717000    256.39163   -3881.5741   -3442.1276   -3881.5741            0    5488.6341    17.335343    20.418745    21.149078    7486.0535    6203.5549    4499.0333    5763.3142    1244.8559     849.6979    -1098.325   -2842.8982 
 7718000    254.86835   -3864.7042   -3427.8686   -3864.7042            0    4314.9821    17.382129    20.473852    21.206157    7546.8289    3915.8301    4187.1387    4841.9775   -138.39854     1594.421    719.60403   -2952.9497 
 7719000     270.8227   -3874.3433   -3410.1624   -3874.3433            0    4413.9869    17.359848    20.447607    21.178973     7517.844      5041.61    3663.0739    4537.2767   -166.49778    390.13581     230.9233   -2926.2127 
 7720000    256.78576   -3885.1517   -3445.0297   -3885.1517            0    4717.2863    17.449134    20.552775    21.287902    7634.4401    3895.2675    5431.6013    4824.9902   -272.81257    753.34791    667.84351   -2919.8047 
 7721000    269.03562    -3898.185   -3437.0671    -3898.185            0    3826.2377    17.376491    20.467212    21.199279     7539.488    3488.8403    3589.4153    4400.4574    358.21327   -256.57492    139.02579   -3016.3505 
 7722000    252.11359   -3897.0385   -3464.9244   -3897.0385            0    2380.3115    17.498278     20.61066    21.347858    7699.1272    2505.6755    3159.3155    1475.9436   -1498.0056    243.97985    292.86515   -3197.6539 
 7723000     252.1308   -3872.4236     -3440.28   -3872.4236            0     4626.198     17.41379    20.511144    21.244783    7588.1424    4352.2436    4026.7459    5499.6045   -422.51436    88.474983   -62.576637   -2928.3206 
 7724000    255.02806   -3869.0272   -3431.9178   -3869.0272            0    5462.6957    17.473414    20.581374    21.317525    7666.3548    5031.6658    5525.1434    5831.2779    789.99277    1253.6534   -1128.4718   -2821.1561 
 7725000    259.35103   -3875.3252   -3430.8064   -3875.3252            0    3742.4974    17.444407    20.547208    21.282136    7628.2381    4489.7401    2851.6582    3886.0941    241.23288    534.89041    354.80581   -3014.4535 
 7726000     268.5173   -3884.7583   -3424.5289   -3884.7583            0    4664.8911    17.392966    20.486616    21.219377    7560.9524    4687.8908    3533.7712    5773.0111   -276.56108    234.12833    135.38127   -2910.1372 
 7727000    277.24159   -3824.6184   -3349.4358   -3824.6184            0    3362.4566    17.459974    20.565543    21.301128    7648.6779    3381.3201    2487.1296    4218.9201   -901.01013    608.29598   -421.74917   -2974.3601 
 7728000    265.76805   -3834.9604   -3379.4431   -3834.9604            0    4360.1127    17.438659    20.540437    21.275123    7620.6997    4099.4732    4345.8245    4635.0405    32.396758    1321.0065    259.43711   -2894.8598 
 7729000    258.52226   -3835.1001   -3392.0018   -3835.1001            0    4066.2822    17.370973    20.460712    21.192547    7532.3077    2931.1541    4655.7786    4611.9138    383.39199    -100.9313   -327.53022   -2945.3167 
 7730000    256.69046   -3812.4195   -3372.4609   -3812.4195            0    2147.7999    17.522608    20.639318    21.377541    7731.2879    2825.8743    619.71193    2997.8134    409.43087    14.016801    219.25246   -3130.2902 
 7731000    266.65611   -3833.5559   -3376.5164   -3833.5559            0    5275.0188    17.336154      20.4197    21.150068    7487.1042     4352.116    5029.0476    6443.8928    417.94667   -620.34853   -773.93282    -2800.528 
 7732000     254.4055   -3823.1949   -3387.1526   -3823.1949            0    3384.5764    17.390495    20.483706    21.216363     7557.731    1176.7222    5001.7964    3975.2104    852.33869    538.17497     766.3922   -3014.0986 
 7733000    271.02347   -3899.7249   -3435.1999   -3899.7249            0     3169.811    17.462744    20.568805    21.304507    7652.3184    3237.7473     3469.213    2802.4726    401.66075    -352.2721   -65.585272   -3081.4452 
 7734000    262.12758   -3850.2006   -3400.9229   -3850.2006            0    5918.3929     17.41218    20.509248    21.242819    7586.0384    6157.1382    5909.1272    5688.9134    1046.7271   -1276.9525     992.6037   -2746.1439 
 7735000    261.00875   -3899.3204   -3451.9604   -3899.3204            0    4406.8218    17.457862    20.563056    21.298551    7645.9031    5475.9784     3350.683    4393.8042   -591.69554   -947.92678   -5.9743881    -2960.566 
 7736000      267.606    -3867.283   -3408.6155    -3867.283            0    4444.5921    17.402749    20.498139    21.231313    7573.7181    3807.0026    5099.8381    4426.9357    469.33221   -28.193096   -397.81292   -2917.6885 
 7737000     250.5503   -3851.4779   -3422.0433   -3851.4779            0    3256.0629     17.39476     20.48873    21.221567    7563.2927    2933.5525    5477.5035    1357.1329    1888.4436   -445.87978    339.99591   -3062.8902 
 7738000    259.64263   -3875.0089   -3429.9904   -3875.0089            0    3621.9752    17.391073    20.484387    21.217069    7558.4848    4098.4914    3978.4454    2788.9886    918.22625    165.11048    739.12084   -3030.7301 
 7739000    255.62471    -3848.947    -3410.815    -3848.947            0    2758.0564    17.516131    20.631689    21.369639     7722.718    3951.9348     3300.156    1022.0784    1500.4416    62.921128    534.26231   -3100.1809 
 7740000    259.35678   -3850.4199   -3405.8913   -3850.4199            0    2727.3958    17.446028    20.549117    21.284114    7630.3648    2393.8559    2980.6753    2807.6563    373.10814   -780.37164    523.24729   -3102.3838 
 7741000    259.64813   -3916.5375   -3471.5094   -3916.5375            0    2314.8643    17.431202    20.531653    21.266025    7610.9273    2749.4173    2012.8351    2182.3404    160.71626   -179.98636    -112.6829   -3214.5651 
 7742000     261.5049   -3879.3034    -3431.093   -3879.3034            0    2976.7932    17.376399    20.467103    21.199167    7539.3683    579.57672    5284.3364    3066.4663   -886.35918    -176.6057   -260.68177   -3103.7828 
 7743000    259.71387   -3828.3967    -3383.256   -3828.3967            0    3457.2948     17.38144    20.473041    21.205316    7545.9315    3497.4657    4776.4407    2097.9781    -765.6517   -759.31731   -448.00775   -3002.7818 
 7744000    275.94608    -3858.709   -3385.7469    -3858.709            0    4865.1674    17.296518    20.373013    21.101711    7435.8669    4849.2684    5906.1542    3840.0795   -1256.8614    -1821.634   -864.60338   -2858.1463 
 7745000    261.53735   -3800.6372   -3352.3712   -3800.6372            0    5860.6702    17.324882    20.406423    21.136316    7472.5093    5753.8668    4635.9851    7192.1587   -365.21701   -1662.4409   -109.94254   -2713.6819 
 7746000     250.9062   -3819.2892   -3389.2446   -3819.2892            0    2791.2813    17.464888    20.571331    21.307122    7655.1375    1620.4433    4775.8886     1977.512   -765.13616   -460.52294   -1295.8114   -3077.6195 
 7747000    257.92523   -3863.4266   -3421.3515   -3863.4266            0     3203.983    17.459997    20.565571    21.301156    7648.7085    1831.7724    4451.5461    3328.6305   -502.77759   -658.42512    169.17656   -3063.9518 
 7748000    267.25604   -3824.8623   -3366.7946   -3824.8623            0    2622.1984    17.469962    20.577307    21.313312    7661.8113    2868.7875    2686.8242    2310.9836    117.51847   -1740.3506    840.62733   -3073.7911 
 7749000    259.23367   -3881.4748   -3437.1571   -3881.4748            0    2948.6478    17.414468    20.511943     21.24561    7589.0286    3463.3968    3008.7378    2373.8089   -1315.0352    219.17216   -71.656194   -3110.8061 
 7750000    268.39188   -3822.6118   -3362.5973   -3822.6118            0    4328.6692    17.458611    20.563937    21.299464    7646.8861    3473.1542    4924.7247    4588.1286   -480.32232     -177.891    112.75813   -2879.8555 
Loop time of 367.44 on 64 procs for 250000 steps with 864 atoms

Performance: 117.570 ns/day, 0.204 hours/ns, 680.384 timesteps/s
193.4% CPU use with 32 MPI tasks x 2 OpenMP threads

MPI task timing breakdown:
Section |  min time  |  avg time  |  max time  |%varavg| %total
---------------------------------------------------------------
Pair    | 24.426     | 30.181     | 37.351     |  53.4 |  8.21
Bond    | 0.75718    | 1.0641     | 1.4379     |  16.5 |  0.29
Kspace  | 163.52     | 175.21     | 182.46     |  32.7 | 47.68
Neigh   | 3.4429     | 4.1026     | 4.58       |  16.3 |  1.12
Comm    | 71.079     | 75.364     | 82.878     |  33.4 | 20.51
Output  | 0.55533    | 0.55612    | 0.55923    |   0.1 |  0.15
Modify  | 67.668     | 69.867     | 73.212     |  15.1 | 19.01
Other   |            | 11.1       |            |       |  3.02

Nlocal:        27.0000 ave          36 max          20 min
Histogram: 2 1 2 9 4 8 5 0 0 1
Nghost:        2427.41 ave        2462 max        2385 min
Histogram: 2 3 2 1 6 3 5 3 3 4
Neighs:        8070.25 ave       11834 max        5575 min
Histogram: 2 2 6 5 8 7 1 0 0 1

Total # of neighbors = 258248
Ave neighs/atom = 298.89815
Ave special neighs/atom = 2.0000000
Neighbor list builds = 14217
Dangerous builds = 1

unfix		3
unfix		2
unfix		1

write_data	data.final.${pid}
write_data	data.final.1
System init for write_data ...
PPPM initialization ...
  extracting TIP4P info from pair style
  using 12-bit tables for long-range coulomb (../kspace.cpp:340)
  G vector (1/distance) = 0.37350732
  grid = 24 24 25
  stencil order = 5
  estimated absolute RMS force accuracy = 0.0031565724
  estimated relative force accuracy = 9.505924e-06
  using double precision FFTW3
  3d grid and FFT values/proc = 3822 576
Last active /omp style is kspace_style pppm/tip4p/omp
WARNING: Not all mixed pair coeffs generated from mixing. Use write_data with 'pair ij' option to store all pair coeffs. (../write_data.cpp:312)

write_restart   restart.lmp.${pid}
write_restart   restart.lmp.1
System init for write_restart ...
PPPM initialization ...
  extracting TIP4P info from pair style
  using 12-bit tables for long-range coulomb (../kspace.cpp:340)
  G vector (1/distance) = 0.37350732
  grid = 24 24 25
  stencil order = 5
  estimated absolute RMS force accuracy = 0.0031565724
  estimated relative force accuracy = 9.505924e-06
  using double precision FFTW3
  3d grid and FFT values/proc = 3822 576
Last active /omp style is kspace_style pppm/tip4p/omp
Total wall time: 0:06:07
