#include		in.partitions
include		in.temp
variable        temperature equal 212.60
variable	tempDamp equal 100.0
include		in.pressure
variable        pressure equal 2115.6
variable        pressureDamp equal 1000.0 # This is 1 ps
include		in.seed
variable        seed equal 745823

units		real
atom_style	full
#include		in.box
read_restart	restart.lmp.${pid}
read_restart	restart.lmp.1
Reading restart file ...
  restart file = 30 Jul 2021, LAMMPS = 30 Jul 2021
  restoring atom style full from restart
  orthogonal box = (0.092387836 0.10205859 0.12624866) to (18.115185 23.527119 22.086947)
  2 by 4 by 4 MPI processor grid
  restoring pair style lj/cut/tip4p/long/omp from restart
  restoring bond style harmonic/omp from restart
  restoring angle style harmonic/omp from restart
  864 atoms
  576 bonds
  288 angles
Finding 1-2 1-3 1-4 neighbors ...
  special bond factors lj:    0        0        0       
  special bond factors coul:  0        0        0       
     2 = max # of 1-2 neighbors
     1 = max # of 1-3 neighbors
     1 = max # of 1-4 neighbors
     2 = max # of special neighbors
  special bonds CPU = 0.003 seconds
  read_restart CPU = 0.009 seconds
include 	in.setup
variable	out_freq equal 1000
variable	out_freq2 equal 10000
variable	out_freq3 equal 1000

timestep	2.0

neigh_modify    delay 7 every 1

include		in.tip4p
# This is TIP4P/Ice

# create groups ###
group ox type 2
288 atoms in group ox
group hy type 1
576 atoms in group hy

# set charges - beside manually ###
set group ox charge -1.1794
Setting atom values ...
  288 settings made for charge
set group hy charge 0.5897
Setting atom values ...
  576 settings made for charge

# ### TIP3P Potential Parameters ###
pair_style lj/cut/tip4p/long/omp 2 1 1 1 0.1577 8.5
pair_coeff 1 1*2 0.000 0.000
pair_coeff 2 2 0.21084 3.1668
bond_style  harmonic
bond_coeff  1 450 0.9572
angle_style harmonic
angle_coeff 1 55 104.52
kspace_style pppm/tip4p/omp 1.0e-5
pair_modify tail yes

thermo          ${out_freq}
thermo          1000
thermo_style    custom step temp pe etotal epair emol press lx ly lz vol pxx pyy pzz pxy pxz pyz enthalpy

restart 	${out_freq3} restart.lmp.${pid} restart2.lmp.${pid}
restart 	1000 restart.lmp.${pid} restart2.lmp.${pid}
restart 	1000 restart.lmp.1 restart2.lmp.${pid}
restart 	1000 restart.lmp.1 restart2.lmp.1


include         in.dump
dump            myDump all atom ${out_freq2} dump.water.${pid}
dump            myDump all atom 10000 dump.water.${pid}
dump            myDump all atom 10000 dump.water.1
dump            myDump2 all dcd ${out_freq2} dump.dcd
dump            myDump2 all dcd 10000 dump.dcd
dump_modify     myDump append yes
dump_modify     myDump2 append yes


variable natoms 	equal  "count(all)"                        # NUMBER ATOMS
variable H      	equal  "enthalpy/v_natoms"                 # ENTHALPY-per-atom
variable Vol      	equal  "vol/v_natoms"                 # volume-per-atom
fix AVG all 		ave/time ${out_freq} 1 ${out_freq} v_Vol v_H file vol_enthalpy.dat
fix AVG all 		ave/time 1000 1 ${out_freq} v_Vol v_H file vol_enthalpy.dat
fix AVG all 		ave/time 1000 1 1000 v_Vol v_H file vol_enthalpy.dat


timer           timeout 23:50:00 every 1000
New timer settings: style=normal  mode=nosync  timeout=23:50:00

fix 		1 all shake 1e-6 200 0 b 1 a 1
       0 = # of size 2 clusters
       0 = # of size 3 clusters
       0 = # of size 4 clusters
     288 = # of frozen angles
  find clusters CPU = 0.000 seconds
fix             2 all nph aniso ${pressure} ${pressure} ${pressureDamp}
fix             2 all nph aniso 2115.6 ${pressure} ${pressureDamp}
fix             2 all nph aniso 2115.6 2115.6 ${pressureDamp}
fix             2 all nph aniso 2115.6 2115.6 1000
fix             3 all temp/csvr ${temperature} ${temperature} ${tempDamp} ${seed}
fix             3 all temp/csvr 212.6 ${temperature} ${tempDamp} ${seed}
fix             3 all temp/csvr 212.6 212.6 ${tempDamp} ${seed}
fix             3 all temp/csvr 212.6 212.6 100 ${seed}
fix             3 all temp/csvr 212.6 212.6 100 745823


run             250000
PPPM initialization ...
  extracting TIP4P info from pair style
  using 12-bit tables for long-range coulomb (../kspace.cpp:340)
  G vector (1/distance) = 0.37174888
  grid = 24 27 25
  stencil order = 5
  estimated absolute RMS force accuracy = 0.0031513328
  estimated relative force accuracy = 9.490145e-06
  using double precision FFTW3
  3d grid and FFT values/proc = 4410 672
Last active /omp style is kspace_style pppm/tip4p/omp
Neighbor list info ...
  update every 1 steps, delay 7 steps, check yes
  max neighbors/atom: 2000, page size: 100000
  master list distance cutoff = 10.8154
  ghost atom cutoff = 10.8154
  binsize = 5.4077, bins = 4 5 5
  1 neighbor lists, perpetual/occasional/extra = 1 0 0
  (1) pair lj/cut/tip4p/long/omp, perpetual
      attributes: half, newton on, omp
      pair build: half/bin/newton/omp
      stencil: half/bin/3d
      bin: standard
Per MPI rank memory allocation (min/avg/max) = 10.19 | 10.21 | 10.23 Mbytes
Step Temp PotEng TotEng E_pair E_mol Press Lx Ly Lz Volume Pxx Pyy Pzz Pxy Pxz Pyz Enthalpy 
 5500000    220.12803    -4309.547   -3932.2551    -4309.547            0     2194.879    18.022797    23.425061    21.960698    9271.4798    1619.2377    1560.7448    3404.6545   -229.94546   -724.47805    123.32421   -3635.4745 
 5501000    214.06777   -4333.4479   -3966.5431   -4333.4479            0    2240.7655    18.119832    23.034219    22.132385    9237.5301    2039.7905    3454.9344    1227.5716    578.57677   -549.98796   -256.20818   -3664.6674 
 5502000    203.56464   -4318.6498    -3969.747   -4318.6498            0    1807.1708    17.967863    23.691786      21.8815    9314.7523    434.03816    2024.3503    2963.1241    -722.1548   -1094.0859    215.34597   -3724.2499 
 5503000    211.57377   -4336.8918   -3974.2616   -4336.8918            0    3001.9681    17.740277    23.337351    22.286042    9226.6679    4593.0917    2577.7622    1835.0506     331.1467    66.187293    78.002897   -3570.3123 
 5504000    196.08967    -4345.819    -4009.728    -4345.819            0    1004.9745    18.139677     23.42302    21.938451    9321.3414    91.329111    446.47926    2477.1152    838.20592   -584.14227    336.34399   -3873.1095 
 5505000     214.3303   -4331.5719   -3964.2171   -4331.5719            0    2378.8694    17.891417    23.465254    22.168348     9306.863    2409.1715    2942.3371    1785.0996    388.47371   -38.725937    794.11835   -3641.3306 
 5506000    219.88118     -4336.48   -3959.6111     -4336.48            0    2474.0806    18.054355    23.435655    21.929457     9278.696    2633.6958    2497.9976    2290.5484   -152.35634    80.616331   0.23508351   -3624.8179 
 5507000    216.74001   -4345.8351   -3974.3501   -4345.8351            0    1105.8423    18.114868    23.349339    22.101971     9348.475    775.68015    3008.8063    -466.9595    230.73546   -759.58893     515.5371   -3823.5819 
 5508000    228.46068   -4346.3334   -3954.7596   -4346.3334            0    2676.5435    17.904864    23.422997    22.018863    9234.3933    1420.2253    4630.9784    1978.4269    335.23585    561.39788     368.9063   -3594.2984 
 5509000    220.28265    -4321.424    -3943.867    -4321.424            0    1854.5408    17.949575    23.656566    21.872858    9287.7693    2177.8659    2136.1662    1249.5903   -7.0331538    -137.6317   -320.79965   -3692.6647 
 5510000    212.64807   -4328.4207   -3963.9491   -4328.4207            0    4215.6429     17.97703    23.160074     22.05443    9182.3474     4896.644    4921.5304    2828.7544    153.28276   -265.01457    115.66204   -3399.4108 
 5511000    211.89407   -4333.3506   -3970.1714   -4333.3506            0    1356.1215    18.192688    23.420695    21.879997    9322.7469    1150.0296    1235.6959    1682.6389   -489.29571    64.114144   -1544.5947   -3785.7895 
 5512000    220.14626   -4313.6886   -3936.3654   -4313.6886            0    1195.0513    17.976089    23.444191     22.10364    9315.2445    1434.8694    1244.2407    906.04373    32.361869    1001.0754   -51.741719   -3774.0138 
 5513000    217.91461   -4320.9916   -3947.4935   -4320.9916            0    1629.3438    17.971793    23.426696     22.10035    9304.6832    2424.9848    2219.4774    243.56922   -329.30061   -652.20699   -430.91624   -3726.3927 
 5514000    205.54517   -4342.0779   -3989.7805   -4342.0779            0    2044.1417    18.193756    23.229501    21.904353    9257.4775    1262.8269    2297.3849    2572.2132    658.35499    -73.66774    108.53516   -3713.7993 
 5515000    215.77261   -4343.0649   -3973.2381   -4343.0649            0     2006.046    18.068613    23.497047    21.901743     9298.583    1469.7302    1811.9187    2736.4891   -19.144871   -111.31269    172.57158   -3701.1976 
 5516000    212.66729   -4329.4698   -3964.9654   -4329.4698            0    3365.5055    17.835436     23.64306    21.848504    9213.1709    2830.3912    3365.0987    3901.0266   -52.271013    2.6859744    464.48422   -3512.7604 
 5517000    220.74636   -4349.4978   -3971.1461   -4349.4978            0    2133.4067    17.989409    23.336998    22.074123    9267.1315     2153.638    2348.1291    1898.4529   -50.116415   -581.72569    78.298669   -3682.8127 
 5518000    202.57528   -4342.3361    -3995.129   -4342.3361            0     2205.938    18.022155    23.476611    21.910675    9270.3872    1979.2975    1961.5832    2676.9333    285.66332     474.8759    451.74673   -3696.8882 
 5519000    207.82984   -4327.2246   -3971.0113   -4327.2246            0    1659.7586    17.916354    23.380564    22.191676    9295.9702    1291.0474    2512.2884    1175.9399    784.18898    134.17752   -88.891892   -3745.9942 
 5520000    206.04438    -4339.959    -3986.806    -4339.959            0    2671.8199     18.14066    23.377826    21.717603     9210.201    1129.0755    3908.1415    2978.2427   -705.28518    97.616001   -533.39145   -3627.9236 
 5521000    214.13628   -4359.6395   -3992.6173   -4359.6395            0    1265.1887    18.047445    23.275626    22.186989    9319.9904    1689.2344    1449.7064    656.62523    399.04731    145.48085   -574.09974   -3820.6497 
 5522000    218.35767    -4333.162   -3958.9045    -4333.162            0    1843.3882    18.002312     23.55256    21.886556    9279.9116    2137.6818    1219.8789    2172.6039    1195.6211    361.92174    -339.7143    -3709.424 
 5523000    203.46816   -4337.8992   -3989.1617   -4337.8992            0    3061.6664    17.813633    23.407048    22.108608    9218.5059    3476.3226    3360.0064    2348.6703   -358.18832    61.022391   -490.75951   -3577.5438 
 5524000    219.30525   -4302.3949   -3926.5132   -4302.3949            0    1734.9476    18.170953     23.39138     21.94524    9327.6856    1236.6431     2232.689    1735.5105    499.65552   -218.38147    1180.2659   -3690.5001 
 5525000      219.596   -4340.4111   -3964.0311   -4340.4111            0    1863.3115    17.976872    23.491037     22.10375     9334.311    2055.3539    946.82913    2587.7514    -301.0191    529.02282    611.23665    -3710.376 
 5526000    224.50297   -4328.0223   -3943.2319   -4328.0223            0    2127.6895    17.941942    23.757607    21.776268    9282.2997    1950.8962    2314.9219    2117.2503    118.56089    1064.7759    -491.8246   -3655.2005 
 5527000     222.3889   -4335.3583   -3954.1913   -4335.3583            0    2577.5647    17.984425    23.345039    22.069594    9265.8548    2206.9942    3525.6776    2000.0224    117.80519   -189.09407    -226.1366   -3605.8773 
 5528000    215.03989   -4357.4672   -3988.8962   -4357.4672            0    1138.3804     18.15713     23.15232    22.039668    9265.0288    492.93935    2273.7116    648.49029    252.74678   -456.48929   -673.20202   -3835.0772 
 5529000     209.5607   -4361.1956   -4002.0157   -4361.1956            0    1114.4747    17.991928    23.474815    22.027862    9303.6253    2092.9157   -545.36888    1795.8774   -54.848658   -814.71988    112.46838   -3850.7995 
 5530000    226.33301   -4341.0904   -3953.1633   -4341.0904            0    2517.5803    17.860003    23.544327    22.005509    9253.3552    2783.4111     2628.354    2140.9758   -697.23682   -622.61875    738.38046   -3613.4141 
 5531000    217.83503     -4330.13   -3956.7683     -4330.13            0    1022.4975    18.108102    23.468827    22.074467    9381.1166    595.22474    1392.5786    1079.6891    49.608729   -213.78039   -1.1930721   -3816.8763 
 5532000    213.82443   -4321.3556   -3954.8679   -4321.3556            0    2254.2896    18.056876    23.370146    22.042679    9301.8306    1797.4573    3939.9341    1025.4773   -166.92922    524.83329   -89.592503   -3649.0562 
 5533000    220.03068   -4343.2096   -3966.0846   -4343.2096            0    1649.4949    18.018899    23.597798    21.952294    9334.2544    1040.8467    1500.4915    2407.1464   -817.23243    385.30667   -152.62739    -3741.538 
 5534000    206.00718   -4352.6895   -3999.6002   -4352.6895            0    1396.7529    17.931195    23.322193    22.283983    9319.0457    1980.8925    2813.4727   -604.10647    987.61498    177.07721   -89.147014   -3809.7693 
 5535000    203.42197   -4347.5625   -3998.9042   -4347.5625            0    1186.1038    18.036132    23.474623    21.978411    9305.4704    1252.2322    1456.0102    850.06912   -129.64206    352.09087   -913.38091   -3837.9371 
 5536000    207.39963   -4342.6575   -3987.1816   -4342.6575            0    2308.5768    17.922629    23.296232    22.117786    9234.8328    3145.8304    2062.7493    1717.1507   -1007.5414   -145.70594     160.4698   -3676.2612 
 5537000    204.94872   -4318.5096   -3967.2345   -4318.5096            0     1563.297    18.278081    23.218972    21.888657    9289.5074    1091.4327     1884.633    1713.8253   -1363.2669    88.460651    377.95853   -3755.4423 
 5538000     208.9152   -4328.2157   -3970.1422   -4328.2157            0     1486.659    18.019621    23.394312    22.013568    9279.9657     1601.384    2067.3828    791.21018    275.18193     288.5971    -242.2494   -3768.9396 
 5539000    216.28295    -4336.257   -3965.5554    -4336.257            0    792.83537    18.070609    23.572817    21.991087    9367.6571   -635.86693     1992.155     1022.218    135.56151    83.716771   -979.50402   -3857.2401 
 5540000    212.27654   -4342.7483   -3978.9135   -4342.7483            0    1726.8242    17.964474    23.362966    22.206165    9320.0028    1567.7307    735.10437    2877.6374    1162.4536     629.2913   -150.69948    -3744.199 
 5541000    206.72324   -4330.8564   -3976.5399   -4330.8564            0     1781.072    18.128509     23.35929    21.838506    9247.9326    1246.6091    1489.6773    2606.9298   -401.02679    43.091438    628.42737   -3736.3238 
 5542000    204.55225   -4322.5173   -3971.9217   -4322.5173            0    2493.7991    17.883703    23.261153    22.115021    9199.7504    2028.0542     2560.909    2892.4342    1031.8506   -145.26991    174.33318   -3637.3314 
 5543000    219.23691   -4333.4213   -3957.6568   -4333.4213            0    2081.0627    18.173796    23.451196    21.730462    9261.4632    1995.5266    1666.2459    2581.4157   -886.69871    -885.5313   -981.31192   -3676.5698 
 5544000    219.74525   -4344.5038    -3967.868   -4344.5038            0    1878.3593    17.877613     23.35382    22.182961    9261.6204    1483.3656     1722.266    2429.4465   -897.56619    49.829569   -538.68692   -3714.1557 
 5545000    199.92704   -4358.3561    -4015.688   -4358.3561            0    1784.5598    18.086339    23.407806    21.803921    9230.9411    2082.7512    1552.7509    1718.1771    432.44207   -704.94991   -189.85335   -3775.4438 
 5546000     217.3869   -4329.3853   -3956.7916   -4329.3853            0     2900.302    17.989306    23.163931    22.086871    9203.6663     3036.817    3313.6638     2350.425    385.92198    494.93321   -267.05439   -3567.4956 
 5547000    213.00394   -4347.4266   -3982.3452   -4347.4266            0    2094.1646    18.090146    23.416278    21.739357    9208.8764    654.04478    3246.6108    2381.8382   -776.53912    129.98405    565.11655   -3701.0946 
 5548000    215.49956   -4335.8111   -3966.4523   -4335.8111            0    2569.1057    17.624173    23.494889    22.161529    9176.6015    4509.4104    2643.2494    554.65741    363.91747   -61.230166     273.3808   -3622.6255 
 5549000    209.93206   -4320.3596   -3960.5433   -4320.3596            0    2610.6772    17.981229    23.504375     21.85437    9236.4774    3492.8648     1760.676    2578.4907   -579.33935    235.10956    248.40649   -3608.8732 
 5550000    206.04568   -4337.8498   -3984.6946   -4337.8498            0    1189.3244    18.079277    23.200746    22.200984    9312.2629    589.72068    1353.2009    1625.0516    1390.4754   -595.10959    38.254972   -3823.1727 
 5551000    215.36539   -4319.3877   -3950.2588   -4319.3877            0     1087.104    18.131509    23.389954    21.956778    9311.7637    1474.7325    323.08871    1463.4906   -32.342855    943.13404   -9.2274723   -3802.6273 
 5552000     209.8277   -4332.2837   -3972.6462   -4332.2837            0    2669.9904    17.831193    23.576545    21.952533    9228.7991    3208.5769    1594.6983    3206.6959    601.19938    431.30337    392.62327   -3613.2853 
 5553000    208.42053   -4344.5904   -3987.3648   -4344.5904            0    2112.4169    18.017132    23.474077    22.013112    9310.1272    1874.6611    2950.2859    1512.3036   -879.93595    114.56763   -20.045574   -3700.5436 
 5554000    220.53901   -4333.2643    -3955.268   -4333.2643            0    1529.4188    18.190053    23.205786    22.019384     9294.701    1796.4662    2414.9223    376.86777    1276.5961    -11.41963    505.27132   -3747.9497 
 5555000    209.40972   -4333.0446   -3974.1236   -4333.0446            0    1972.4396    17.987181    23.472308    21.945467    9265.3905    2367.1798    1658.7335    1891.4054    497.61171   -270.39613    465.94123   -3707.5953 
 5556000    213.12031   -4308.6185   -3943.3375   -4308.6185            0    2599.9193    17.891409    23.419371    22.050792    9239.4043    2040.9602      3259.59    2499.2077    5.3384865   -672.09059   -15.991418   -3593.0056 
 5557000     209.3681   -4331.1204   -3972.2707   -4331.1204            0    2399.4413    18.159808    23.248827    21.972748    9276.7674    2152.6827    3692.0035    1353.6377    182.86085    -803.2538    972.02967   -3647.6451 
 5558000    209.40809   -4327.9337   -3969.0154   -4327.9337            0    1697.8498    17.910375    23.636258     22.00927    9317.2774     3530.974    381.52865    1181.0468   -365.03904    479.62568   -281.69548   -3738.3065 
 5559000    216.23605   -4343.6976   -3973.0764   -4343.6976            0    1610.9946    17.919823    23.471465    22.086519    9289.6891     2122.403    1472.9829     1237.598   -494.19781   -13.069582    1390.7171   -3754.8179 
 5560000    202.73637   -4347.3193   -3999.8361   -4347.3193            0    1629.3731     18.25696    23.222192    21.865156    9270.0963    2359.0527    1579.0931    949.97334   -919.66844    321.13923    198.50681   -3779.5532 
 5561000    213.70128   -4340.3234   -3974.0467   -4340.3234            0    2673.3691    17.809567     23.51547    22.064272    9240.5244    3171.2667    3731.1899    1117.6507    -325.7436    288.63474    33.856166    -3613.774 
 5562000    224.50494   -4340.9862   -3956.1925   -4340.9862            0    2155.4398    18.034342    23.536559    21.829548    9265.9086    2100.3769    2426.2951    1939.6474   -894.62836    -443.0802    454.41825   -3664.9198 
 5563000    222.40474   -4321.0883   -3939.8942   -4321.0883            0    2315.8452    18.120999    23.103801    22.135014    9267.1326    1146.3582    2403.0057    3398.1718    248.91965    23.741585    183.68698   -3626.9039 
 5564000    212.13869   -4337.0489   -3973.4504   -4337.0489            0    1609.5942    17.955495    23.444141    22.051902    9282.7737    1071.1724    1636.7915    2120.8186    -209.3707    1006.6642    137.77017    -3755.544 
 5565000     198.5144    -4332.799   -3992.5521    -4332.799            0    1720.6204    17.861192    23.655267    21.948348    9273.4241    2477.1693    1883.6722    801.01971    623.20249   -635.85724    218.80268   -3759.8496 
 5566000    219.28355   -4324.0227   -3948.1782   -4324.0227            0    3204.3718    18.038745    23.207287    21.993679    9207.2213    1327.4203    3535.1499    4750.5452   -113.16625   -398.53001    386.83517    -3517.902 
 5567000    206.88966   -4359.9094   -4005.3076   -4359.9094            0    3555.8856    18.002977    23.208994    21.919779    9158.7627    3077.1191    3979.6372    3610.9005   -835.66723    119.37533    1189.1574   -3530.3438 
 5568000    215.64733   -4347.2951    -3977.683   -4347.2951            0    1851.8687    17.868234     23.58035    22.005093    9271.6084    2987.4175    1051.1877    1517.0008   -961.24468    -224.1769    531.51811   -3727.2791 
 5569000    203.77711   -4362.3641   -4013.0971   -4362.3641            0    1870.4323    18.167508    23.231147    21.973569    9273.9895    1835.1863    2363.3712    1412.7394   -179.81436   -22.137072    103.14409   -3760.1181 
 5570000    213.18437    -4336.751   -3971.3603    -4336.751            0    2792.0126    18.067528    23.287069    22.021859    9265.4721     2366.397    3229.3731    2780.2677    458.46809   -452.76818    724.26738   -3594.0829 
 5571000    207.80377    -4331.763   -3975.5945    -4331.763            0    1978.7801    17.773834    23.695252    21.993919    9262.8597    2251.7755    1400.3177    2284.2472   -93.095918    213.30526   -493.20591   -3708.2824 
 5572000     223.2663   -4299.7976   -3917.1268   -4299.7976            0    4037.1415    18.125056    23.215284    21.865333    9200.4583     2395.754    3354.0932    6361.5772   -44.045932   -977.71204    569.36856   -3375.4262 
 5573000     200.8514   -4346.9482   -4002.6957   -4346.9482            0    1960.0619    18.105332    23.212396     22.13765    9303.7487    1945.9139    3010.0661    924.20583    1388.1334    13.840478   -95.807089   -3736.7435 
 5574000    210.61601   -4339.8008   -3978.8122   -4339.8008            0    2254.5735    17.923188     23.59883    21.910268    9267.3042    3274.5042    -132.0224    3621.2388   -434.61148    39.435675    321.12416   -3674.0973 
 5575000    211.79299   -4347.6021   -3984.5962   -4347.6021            0    1433.5825    18.012227    23.154523    22.374989    9331.8145    1133.1953    3926.0422   -758.48999      1088.44    1043.7593    780.96654   -3789.4929 
 5576000    214.60223   -4351.8254   -3984.0046   -4351.8254            0    2967.3145    18.069615    23.351733    21.922631    9250.4036    2268.1907    2832.9407    3800.8122    -621.6038   -264.63573   -340.72724   -3583.6911 
 5577000    213.24028   -4361.1439   -3995.6574   -4361.1439            0    1384.3346    17.850681    23.634516    22.067866    9310.2608    2074.1756    829.98323    1248.8448   -165.95025    100.34089    360.87647   -3807.6916 
 5578000    223.38958   -4320.0063   -3937.1242   -4320.0063            0    1790.2576    18.067665    23.295056    21.968896    9246.4288    1635.9846    1512.2694    2222.5187    519.25679    67.828927    383.19701   -3695.7086 
 5579000    212.65859   -4340.2765    -3975.787   -4340.2765            0    3257.9687     17.98865    23.288945    21.995448    9214.7001    2138.6019    3568.3603    4066.9438   -945.49021    137.79499   -326.59274   -3537.9585 
 5580000    220.89147   -4323.2862   -3944.6858   -4323.2862            0    1033.9454    17.729245    23.796101    22.051213    9303.1179     1621.953    864.78947     615.0938    37.830516   -47.014517    568.33245   -3804.4037 
 5581000    208.64857   -4332.7058   -3975.0893   -4332.7058            0    1711.2414    18.036213    23.374788    21.928028    9244.6954     2542.767    1890.9239    700.03322   -1517.4901    167.07472    -245.3798   -3744.3722 
 5582000    211.11098   -4354.4304   -3992.5934   -4354.4304            0    2072.3039    17.966216    23.201389    22.207615    9257.0482    1072.5155    3032.9062    2111.4901   -574.40908   -138.17094   -24.728225    -3712.823 
 5583000    208.57356   -4348.3521   -3990.8641   -4348.3521            0    2697.5046    17.973425    23.451619    21.838181    9204.9226    1801.9322     2563.892    3726.6896   -362.16839    431.19943   -264.04285   -3628.7394 
 5584000    223.67487   -4324.2979   -3940.9268   -4324.2979            0    2538.4306    18.082259    23.358993    21.860818    9233.6461    380.32203    3757.0048    3477.9651    563.45634    665.09654    157.47108   -3599.0935 
 5585000    211.04555   -4333.7824   -3972.0575   -4333.7824            0    2271.9343    17.808756    23.436643    22.182147     9258.328    2668.7788    2177.3204    1969.7037    599.71959   -532.34051   -363.63071   -3665.2936 
 5586000    217.74519   -4340.0049   -3966.7971   -4340.0049            0    3581.4486    17.851903    23.559345    21.791585    9165.0864    2189.0899     3578.465    4976.7909    -860.6298    474.64748   -623.87789   -3488.0886 
 5587000    208.93478   -4348.4972   -3990.3901   -4348.4972            0    1720.2479    18.038783    23.238372    22.232848     9319.831    2007.7911    2685.6234    467.32923   -816.25405    213.14248   -187.54687   -3756.5737 
 5588000    221.42349   -4328.6624   -3949.1501   -4328.6624            0    2583.7295     18.21983    23.246675     21.85014    9254.6373    709.63906    3548.4083     3493.141    609.12149    310.50905   -82.216698   -3600.4257 
 5589000    206.93307    -4360.185   -4005.5088    -4360.185            0    1255.1168    17.903483    23.570498    22.055961    9307.4836    1849.3751    1168.5791    747.39636   -220.93797    235.56023    -28.94748   -3835.1391 
 5590000    219.58125   -4348.3462   -3971.9915   -4348.3462            0    751.28891    18.108764    23.596095    21.941513    9375.5238   -530.69646    882.36292    1902.2003   -332.24496   -83.814375   -9.7157182   -3869.2659 
 5591000    199.95945   -4348.0783   -4005.3547   -4348.0783            0    1108.2514    18.046652    23.308927    22.047728    9274.3348     1922.659    791.56773     610.5275   -343.02041    506.00823   -13.493553   -3855.4563 
 5592000    226.13095   -4348.6349   -3961.0542   -4348.6349            0    2304.0926    17.947855    23.478003    22.060252    9295.7443    2524.6763    2801.5613    1586.0402   -476.25957    79.612319     509.8589   -3648.6909 
 5593000    208.42762   -4349.1081   -3991.8703   -4349.1081            0      3361.09    17.771539    23.464488    22.080144    9207.4216    3875.5296    2492.7975    3714.9428    1774.9982   -236.47999    122.74343   -3540.5404 
 5594000     202.1144   -4327.7984   -3981.3812   -4327.7984            0    1669.4454    18.211798    23.240419    21.960234    9294.6649    2506.7319    2640.4797   -138.87558   -637.45353   -271.70758    207.61186   -3755.0827 
 5595000    216.86313   -4365.2504   -3993.5544   -4365.2504            0    1682.4054    18.030948    23.312361    22.127338    9301.0926    2638.1198    1025.6039    1383.4924    552.45344    1.0115089    378.19825   -3765.3413 
 5596000    225.77731    -4347.946   -3960.9714    -4347.946            0    2834.0384    17.972919    23.586948    21.800176    9241.6684    2198.3527    2057.4695    4246.2929   -97.901161   -201.13648    951.90238    -3578.999 
 5597000    199.94575   -4317.1502     -3974.45   -4317.1502            0     2681.433    17.771457    23.428697    22.217902    9250.6924    3429.6894    1607.4381    3007.1715    585.17635    925.82431    394.56084   -3612.6929 
 5598000    204.06891   -4355.1526   -4005.3855   -4355.1526            0    2566.2897    18.085078    23.386829    21.918119    9270.3259    1539.7711    3281.2566    2877.8415   -337.17944    548.03261    225.69194   -3658.4277 
 5599000    221.82112   -4344.4941   -3964.3003   -4344.4941            0    3199.0582    17.994528    23.204572    22.153413     9250.275    3657.5494    4472.8732     1466.752     1082.427    1404.8789    557.28592   -3532.7289 
 5600000    219.35047    -4368.414   -3992.4548    -4368.414            0     1064.302    18.173018    23.673736    21.757001    9360.3672    799.49538   -689.33717    3082.7479    404.83952    269.81752    31.506312   -3847.1655 
 5601000    210.53465   -4367.2004   -4006.3512   -4367.2004            0    2269.9933    17.932553    23.468804    22.079747    9292.3847    3426.5583    2203.4865     1179.935    593.74478    57.171767    119.92237    -3698.722 
 5602000    218.38862   -4338.1632   -3963.8526   -4338.1632            0    904.33868    18.035931    23.531884    22.069882    9366.8871    2297.8998   -77.497885    492.61415   -263.76216    322.57247    543.03464   -3840.3141 
 5603000    214.46458   -4331.3919    -3963.807   -4331.3919            0    1252.1206    18.136831    23.358078    22.087385    9357.1332    1401.2998    1360.8382    994.22387   -72.003021    843.02205     60.37202   -3792.9373 
 5604000    220.29851   -4354.0911    -3976.507   -4354.0911            0     3308.606    18.028365     23.27465    21.984718    9224.8733    3140.7377     3569.644    3215.4362   -208.59994    247.68338   -299.85638   -3531.3826 
 5605000    214.57855    -4318.476   -3950.6958    -4318.476            0    3306.3505     17.98494    23.436204    21.815477    9195.1956    2992.2658    3239.3403    3687.4455     274.9382    23.436173    3.1291645   -3507.3059 
 5606000    207.79255   -4354.7198   -3998.5704   -4354.7198            0    2980.5364    17.993677    23.361476    21.916663    9212.8637    2417.7123    2626.2522    3897.6449   -1231.9766   -290.20298   -548.72362   -3598.1051 
 5607000    206.38821   -4343.6909   -3989.9486   -4343.6909            0    2896.1399    18.004391    23.330817    21.956134     9222.831    2808.7481    3005.5475    2874.1242   -982.55516    407.68489   -622.48226   -3600.4017 
 5608000    211.05557   -4336.8241    -3975.082   -4336.8241            0    2691.0731    17.942405    23.489438    22.029357    9284.4271    3149.2867    2371.1829    2552.7496     696.3429    -360.3104   -140.27934   -3610.7004 
 5609000    206.89887   -4338.4476     -3983.83   -4338.4476            0    1749.3559    17.945853    23.461938      22.0286    9275.0204    2733.4535    1416.0162    1098.5982   -125.02736   -316.87594   -576.42379   -3747.2005 
 5610000    211.04389   -4344.3299   -3982.6079   -4344.3299            0    2248.6801    18.191845    23.181317    22.098188    9319.0475    950.75395    4781.2855    1014.0009   -447.97255   -488.06659    224.04386   -3676.9926 
 5611000    209.02484   -4327.2971   -3969.0357   -4327.2971            0    2005.4995    17.995765    23.431566     21.96882    9263.5697    878.53307    1481.3639    3656.6016    360.22814    -403.9711    249.84458   -3698.0933 
 5612000    216.84894   -4341.0581   -3969.3865   -4341.0581            0    1093.3176    17.867777    23.387364    22.269664    9306.0517    1557.7477    598.45213    1123.7529   -631.14783    86.200434   -246.50215   -3821.0023 
 5613000    205.94021   -4332.2683   -3979.2939   -4332.2683            0    3765.5837    18.027799    23.390799     21.82946    9205.1476    2920.4486     3678.622    4697.6804   -53.420567   -251.51478   -467.48067   -3473.7732 
 5614000    229.48162   -4336.5225   -3943.1988   -4336.5225            0    2579.4544    17.904218      23.1366    22.327805    9249.1306    2964.5478    3939.6359    834.17952   -54.426826    347.50986   -234.92167   -3595.2586 
 5615000    216.65104    -4328.418   -3957.0856    -4328.418            0    2271.2624    17.986033    23.383575    21.967751    9239.1472    2104.9727    2963.9924    1744.8219    776.85916    -441.2474     -507.056   -3651.0477 
 5616000    201.02743   -4332.3612    -3987.807   -4332.3612            0    3159.2921      17.8613    23.361275    22.063678    9206.3512    3462.9555    3675.7565    2339.1644    850.28063    487.84487   -386.68428   -3563.6241 
 5617000    198.63846   -4344.3176   -4003.8581   -4344.3176            0    3242.5422    18.145532    23.250579     21.81282    9202.7006    2920.0153    3555.2806    3252.3307    116.57157   -278.90932    -662.0421   -3568.6702 
 5618000     210.0884   -4350.0392   -3989.9549   -4350.0392            0    2521.1522    17.908779    23.375335    22.055869    9233.1096    2952.3253    1763.4842    2847.6471    -587.9579    34.636431   -601.96295    -3650.468 
 5619000    208.73431   -4325.3107   -3967.5472   -4325.3107            0    1730.5736    17.883801    23.494415    22.008735     9247.398    1564.3611    3405.4164    221.94343   -462.47058   -625.21802   -363.80606   -3734.1554 
 5620000    211.03852   -4346.6099   -3984.8971   -4346.6099            0     2799.714    18.091534    23.164194    22.038571    9235.8324    3762.0848    3352.1276    1284.9296   -429.39734   -230.12171   -182.29245   -3607.7892 
 5621000    216.42767   -4358.8094   -3987.8598   -4358.8094            0    2843.9234    18.061873     23.33269    21.917647    9236.7999    4035.1876    1243.6294    3252.9533   -606.62475   -245.85801   -48.826733    -3604.757 
 5622000    215.86488   -4321.8507   -3951.8656   -4321.8507            0    724.29775    17.793378     23.71511    22.000821    9283.7287    668.90759   -36.959411    1540.9451    921.01758    10.392127    785.80835   -3853.8003 
 5623000     200.2938    -4346.989   -4003.6923    -4346.989            0     1963.359    18.016389    23.438093    21.899752     9247.604    459.74971     3247.709    2182.6183   -452.66777   -326.62813   -560.17904   -3738.9003 
 5624000    214.90507   -4327.6079    -3959.268   -4327.6079            0    2513.5521    18.093352    23.204875    22.025639    9247.5517    2859.2649    3632.7271    1048.6644   -594.51925   -248.55132   -60.516948   -3620.2751 
 5625000     222.9793   -4324.3944   -3942.2155   -4324.3944            0    2303.2571    17.981735    23.398694    21.961444    9240.2582    1734.3722     3511.611    1663.7881   -460.16528    305.35904   -14.237019   -3631.8293 
 5626000    214.47106   -4342.2745   -3974.6785   -4342.2745            0    2871.1893    17.743975    23.599593    22.050498    9233.6586    3161.1651    2166.4573    3285.9454    227.31982    492.37776    382.51579   -3588.0342 
 5627000    215.13939   -4336.6817   -3967.9402   -4336.6817            0    1844.1262      18.1052    23.359268    21.959174    9287.0668    1907.4639    581.42881    3043.4859    187.44309   -101.27265   -191.63791   -3718.1674 
 5628000    211.40961   -4330.5936   -3968.2448   -4330.5936            0     2208.214    18.097091    23.108387    22.209429    9287.8628    2566.7917    3212.9433    844.90694    307.62479   -962.87632    293.13835   -3669.1335 
 5629000    211.59756   -4311.1153   -3948.4443   -4311.1153            0    2884.7296    18.038086    23.528044     21.69867    9208.9347    2896.3657    1142.6862    4615.1369   -384.86573    638.13663    49.134098   -3561.0168 
 5630000    210.20022   -4356.7338   -3996.4578   -4356.7338            0    1857.4757    17.990038    23.270202    22.200694     9293.917    2654.4051    2782.1806    135.84136   -812.96263    830.42471   -289.26148   -3744.6914 
 5631000    207.85176   -4359.2749   -4003.0242   -4359.2749            0    2454.4405    18.102488    23.502877    21.730591    9245.5088    2108.4267    1663.4662    3591.4285   -1244.9442   -1055.4563   -58.976736   -3672.0766 
 5632000    216.68273    -4319.505   -3948.1182    -4319.505            0    125.66969    17.948302    23.486125    22.205342    9360.3524    258.17841    260.33582   -141.50517    584.96966   -469.51895    644.53183   -3930.9629 
 5633000    203.73736   -4334.8611   -3985.6623   -4334.8611            0      1978.01    18.282912    23.222294    21.864394    9282.9908    819.63859     2984.745    2129.6465   -84.247117   -512.18747    319.17562   -3717.8735 
 5634000    209.02751   -4358.0788   -3999.8128   -4358.0788            0    963.88568    18.018255    23.405818     22.13522    9335.1305    1135.8489   -188.79641    1944.6046   -19.250863    138.70801    244.69517   -3868.5862 
 5635000    201.50109   -4349.9957   -4004.6297   -4349.9957            0    1960.0357    17.829614    23.677043    21.851544    9224.6851    2110.6004    2416.5224    1352.9842    406.56609    219.47245   -368.53514   -3740.9411 
 5636000    206.61164    -4324.286   -3970.1607    -4324.286            0    2184.8421    18.067449    23.246526    22.067659    9268.5363     2952.817      2110.59    1491.1194    154.66984    638.50196    740.82058    -3674.831 
 5637000    208.56083   -4350.9045   -3993.4384   -4350.9045            0    2207.1866    18.140974    23.145215    22.039962    9254.0678    3375.0821    1719.6767    1526.8009   -875.68634   -566.47489   -44.321738   -3695.5541 
 5638000    225.82311   -4359.2543   -3972.2013   -4359.2543            0    2133.1582    17.955139    23.515573    22.008397    9292.5036    1309.3745    1814.8516    3275.2485    663.20009    422.02148    663.76664   -3683.1122 
 5639000    208.30705   -4377.7601    -4020.729   -4377.7601            0    1501.0067    18.042383    23.477138    21.982848    9311.5723    2649.0068    2020.6307   -166.61747     354.9086   -140.34808    102.99811   -3816.8927 
 5640000     210.6576   -4337.1929    -3976.133   -4337.1929            0    3759.4364    18.162256    23.123503    21.921735    9206.5803    3081.9459    3104.9806    5091.3828    273.56977    38.188458    138.19444    -3471.359 
 5641000     202.9795   -4353.8256   -4005.9257   -4353.8256            0    2516.6044    17.948824    23.462058    22.013904    9270.4148    2542.2136    2297.3451    2710.2544   -248.54437   -84.756183    521.70344    -3665.682 
 5642000    200.78075   -4331.1768   -3987.0455   -4331.1768            0    2063.9859    17.985394    23.534217    21.960784    9295.3885     2148.979    1529.2351    2513.7436     809.3614    497.75026    116.76701   -3707.2439 
 5643000    209.53284   -4347.5974   -3988.4653   -4347.5974            0    3275.6262    18.051486    23.198671    21.996021    9211.2843    2074.2328    3464.3421    4288.3036   -45.304677   -10.288313   -209.35982   -3548.4271 
 5644000    214.88818   -4353.3265   -3985.0156   -4353.3265            0     1755.989    18.101104    23.319589    21.899043    9243.8116    2301.9631    1203.9842    1762.0198    579.69232     -423.729   -100.20578    -3748.288 
 5645000    220.13911   -4330.8192   -3953.5083   -4330.8192            0    4041.0747    17.826295    23.303663    22.045243      9157.99    4300.3314    4730.8377    3092.0551    1631.7283   -326.78487    764.51034   -3413.7828 
 5646000    212.40159   -4354.5952   -3990.5462   -4354.5952            0    519.64648    18.121548    23.583833     21.88729    9354.0926    878.51976   -205.14073    885.56041    364.17861    161.60685   -87.071477   -3919.6561 
 5647000    203.53824   -4352.6041   -4003.7465   -4352.6041            0    1885.1852    18.047444    23.387938    22.047274    9305.9891    1441.8744    1921.9673    2291.7141   -12.902612    85.156694   -24.188255   -3747.8924 
 5648000    204.70055   -4354.5865   -4003.7367   -4354.5865            0    3120.6157    17.963587    23.515072    21.767355    9194.8581    3022.7459    3205.2124    3133.8889   -514.66907    138.27849    248.09555   -3585.2697 
 5649000    219.34243   -4322.2503   -3946.3048   -4322.2503            0    2175.3443    17.963849    23.326622    22.182766    9295.3759     1088.629    2673.5333    2763.8705   -122.68023   -391.37457   -68.533595   -3651.4075 
 5650000    205.17095   -4339.0873   -3987.4313   -4339.0873            0    1667.7376    18.113845    23.390547    21.858743    9261.3909    2078.8727    1751.6249    1172.7153    66.492939   -292.81774     461.9018   -3762.1736 
 5651000    213.52116   -4324.2722   -3958.3042   -4324.2722            0    2369.8838    17.819708    23.431528    22.149432    9248.3398    3801.6036    999.05707    2308.9909    -452.4067   -1250.0215   -619.08995   -3638.6601 
 5652000    207.12602   -4357.8738   -4002.8669   -4357.8738            0    824.03526    18.040115    23.480684    21.952636      9299.01    1583.8486    164.47143    723.78571   -452.12865    171.62382   -412.53611   -3891.1141 
 5653000    216.87602   -4341.5497   -3969.8316   -4341.5497            0    1067.4725    18.051266    23.484657    22.042041    9344.2336    1143.7443    1650.3411    408.33204   -251.19731   -47.782611    225.42815   -3824.3607 
 5654000     210.7578   -4356.8734   -3995.6418   -4356.8734            0    2013.4475    17.986097    23.396858    22.049917    9279.0054    2073.8085    1281.0747    2685.4594   -1052.8775   -991.88802    169.60747   -3723.1724 
 5655000    203.81856   -4333.7351   -3984.3971   -4333.7351            0    1495.4369    18.107552     23.32343     22.06581     9319.058   -133.81083    2464.6257    2155.4959    122.94299    962.37941   -62.448754   -3781.1539 
 5656000    206.80761   -4377.8807   -4023.4196   -4377.8807            0    1063.3603    17.984356    23.375327    22.227515    9344.2292     104.4051    1960.2192    1125.4566     425.6623   -668.52143   -65.344028   -3878.5091 
 5657000    199.81141   -4327.6716   -3985.2017   -4327.6716            0    2664.7991    17.988861    23.491662    21.849736    9233.4413    2367.1897     3698.912    1928.2955   -423.96014     51.60757    271.63482   -3626.3592 
 5658000    224.34956     -4376.05   -3991.5225     -4376.05            0    2857.4376    18.090551    23.121181    22.077905    9234.6338     3289.144    3389.2987    1893.8701   -275.44544    454.86943    60.129362   -3606.6895 
 5659000    213.07825   -4341.6461   -3976.4373   -4341.6461            0    2594.0638    18.006833    23.369698    22.015907    9264.6069    3360.2632     2652.194    1769.7342   -380.16842    422.07373   -244.99619   -3625.9409 
 5660000    216.52017   -4317.0246   -3945.9165   -4317.0246            0    3422.9203     17.74503     23.50634    22.071034    9206.2859    5308.6971     2347.879    2612.1848   -1239.6419    147.18626    156.94135   -3486.3407 
 5661000    199.83344    -4345.011   -4002.5033    -4345.011            0    1287.8943    18.153392    23.419366    21.882706     9303.234    1832.2008     923.0152     1108.467   -682.30599   -52.049203    638.09045   -3827.7642 
 5662000    200.76441   -4329.4027   -3985.2994   -4329.4027            0    957.64523    18.303276    23.010283    22.076355    9297.7559    450.67112    896.25723    1526.0073   -708.11607   -103.00713    -562.4921   -3855.4444 
 5663000    204.25149   -4322.5561   -3972.4761   -4322.5561            0    2701.6789    17.876855    23.531367    22.005753    9257.0904    3636.4644    2746.3755    1722.1966   -158.58715    782.75926     467.0515   -3607.7355 
 5664000      218.713   -4365.5518   -3990.6852   -4365.5518            0    1265.4507    17.963077    23.506951    22.042294    9307.5167    1168.7414    1235.1961    1392.4146   -1634.4213   -30.612063    147.21231   -3818.9122 
 5665000    204.30245   -4332.2358   -3982.0684   -4332.2358            0    1098.3021    18.205273    23.139507    22.172358     9340.351    293.17688    1542.5528    1459.1766   -62.285067    194.53661   -139.85314   -3832.4583 
 5666000    211.68642   -4325.7381   -3962.9148   -4325.7381            0     1496.718    17.921458    23.517486    22.074182    9303.5535     1997.504    968.18769    1524.4623   -784.77067    8.8506432    421.93497    -3759.836 
 5667000    205.06778   -4348.2727   -3996.7935   -4348.2727            0    2127.9333    17.899003    23.602183    21.931055    9264.8957    1893.6023    1268.1203    3222.0773    67.338485   -32.315387   -435.39205   -3709.2693 
 5668000    216.42272   -4316.3019   -3945.3608   -4316.3019            0     1571.315    18.169683    23.147553    22.108697    9298.5575    774.81016    3553.3446    385.79035   -232.13403   -94.703735    623.30872   -3732.2749 
 5669000    214.08728   -4314.8714   -3947.9331   -4314.8714            0    2641.5073    17.984923    23.347107    21.982964    9230.5569    2604.9649    3542.2895    1777.2675    477.81514    181.53214   -81.910484   -3592.3381 
 5670000    216.07356   -4349.3539   -3979.0112   -4349.3539            0    1211.7697    17.954223    23.522495    22.114552    9339.5971    371.99651   -323.02003    3586.3326   -991.78879    143.73993   -196.42511    -3813.958 
 5671000    214.72588   -4347.3725   -3979.3397   -4347.3725            0    2765.4129     18.18364    23.145946    22.003162    9260.6367    2175.6193    4770.8119    1349.8074    676.19662    69.976055    219.00731   -3605.8516 
 5672000    203.05013   -4335.6913   -3987.6704   -4335.6913            0    779.96284     18.08948    23.508618    22.007017    9358.6748    970.38602   -917.86531    2287.3678   -25.095254     389.9277    194.71513   -3881.2158 
 5673000    212.23409   -4352.3825   -3988.6205   -4352.3825            0    1950.5245    17.989974    23.515096    22.032459    9320.5227    1581.8824    1888.2166    2381.4745    515.73745   -637.87201    852.75428   -3723.4852 
 5674000    197.55243   -4330.7065   -3992.1084   -4330.7065            0    1966.1493    18.214706     23.04711    22.057141    9259.5071    685.00438     2787.476    2425.9676    489.57102    -753.1889   -107.31833   -3726.5988 
 5675000    215.72547   -4334.2766   -3964.5305   -4334.2766            0    3550.8486    17.893416    23.390169    21.965825    9193.3571    3674.7162    3687.3583    3290.4714     11.95956    208.64279    1037.9016   -3488.4481 
 5676000    211.57501   -4352.8532   -3990.2209   -4352.8532            0    788.20582    17.864774    23.727387     22.06523    9353.1068    2718.0968   -550.74753    197.26816    333.57933    581.54272   -311.62652   -3882.7053 
 5677000    212.64387   -4320.9863    -3956.522   -4320.9863            0    1810.2579    18.187677    23.226972    21.999334    9293.5012    510.69565    3002.1083    1917.9699    425.45114   -431.86118    396.73513   -3711.1665 
 5678000    216.37922    -4332.523   -3961.6564    -4332.523            0    3750.2296    17.856203    23.333753    22.160369    9233.1671    2596.5631    4597.7902    4056.3357   -255.57502   -720.08448   -740.35956   -3456.6644 
 5679000    215.91659   -4346.6668   -3976.5932   -4346.6668            0    2133.4174    17.893132    23.575064    21.916212    9244.9536    2066.6672     2524.472     1809.113   -592.27791     21.02801    211.68896   -3688.9484 
 5680000    210.89725   -4345.8842   -3984.4135   -4345.8842            0     1056.913    18.163682    23.203359    22.107245    9317.2853    1396.9692    1311.2998     462.4702   -172.70839   -913.13741   -154.26949    -3840.797 
 5681000    207.22681   -4328.6427   -3973.4631   -4328.6427            0    1256.0916    17.976669    23.553453    22.099528    9357.2194     794.2112    1655.3503    1318.7133   -70.434876   -131.11813    749.13677     -3802.05 
 5682000    223.87176   -4331.5467   -3947.8382   -4331.5467            0    2326.1558    17.840063    23.510003    22.006957    9230.1564    4108.8088    678.75399    2190.9048   -558.81838   -886.35274   -159.91849   -3634.7089 
 5683000    206.14841    -4340.627   -3987.2957    -4340.627            0    4644.2716    18.056324    23.189592    21.833817    9142.2291    3712.4963     4158.694    6061.6244    163.30264   -168.29842    470.92758   -3368.0748 
 5684000    208.15365   -4351.8801   -3995.1119   -4351.8801            0    2413.3636    17.935032     23.36735    22.104147    9263.7189    3313.3277    2966.7015    960.06146    203.69212   -349.92181    347.65127    -3669.062 
 5685000    228.99997   -4348.2326   -3955.7345   -4348.2326            0    2241.6307    18.089947    23.543268    21.791216    9280.8023    1428.5492    3422.7652    1873.5778    70.058499   -217.93916    486.89843   -3652.3275 
 5686000    218.06146   -4330.1491   -3956.3992   -4330.1491            0    1151.8023    18.119204    23.285068    22.150929    9345.6295    169.55699    1632.5158     1653.334   -226.38686    315.69053   -39.169314   -3799.4127 
 5687000    207.02029   -4344.2799   -3989.4542   -4344.2799            0    1603.2305    17.979099    23.436696    22.021968    9279.4114    2007.5737    1977.0814    825.03628    436.42701   -280.63799    225.42389   -3772.4879 
 5688000    217.11765     -4316.83   -3944.6977     -4316.83            0    3017.8822    17.989648    23.514926    21.770548    9209.4911    2406.3035    1429.4636    5217.8795    1247.3051   -557.35146   -387.56995    -3539.363 
 5689000    208.34781    -4360.361     -4003.26    -4360.361            0    1954.1382    17.942963    23.326746    22.147999    9270.0656    2173.9937    3177.0238    511.39714   -481.01128    138.41229    846.56728   -3739.0714 
 5690000    221.53138   -4324.9766   -3945.2794   -4324.9766            0    1149.2521    18.208381    23.318062    22.039779     9357.741    338.28162    1757.8425    1351.6322    862.19009    958.83117    477.40386   -3788.4375 
 5691000    215.22027   -4340.6695   -3971.7893   -4340.6695            0    1457.9526    17.986741    23.471828    22.030004    9300.6643    2647.4742   -499.37814    2225.7616   -565.46072   -100.30677   -382.84535   -3774.0317 
 5692000    208.01497   -4326.9432   -3970.4126   -4326.9432            0     2267.769    17.902971    23.489515    22.077397    9284.2539    3957.3438    1411.0012     1434.962   -444.28979    174.54049   -127.61068   -3663.3537 
 5693000    218.90593    -4341.045   -3965.8477    -4341.045            0    2458.3478    18.185004    23.165107    22.016522    9274.6261    2428.6964    3476.2305    1470.1165   -430.70232    235.00221    403.99191   -3633.3293 
 5694000    221.51144   -4338.3171   -3958.6541   -4338.3171            0    2130.3403    17.921909    23.526421    21.962662    9260.3009    3663.1432    1448.7788    1279.0988   -1008.3754    24.930808   -319.86803   -3670.9474 
 5695000     209.9715   -4337.1682   -3977.2842   -4337.1682            0    2717.3888    17.895053    23.531228    21.940003    9238.7721    3253.9243    2127.3175    2770.9246   -368.66484    237.78541     314.1074   -3611.1486 
 5696000    212.65598   -4339.8591   -3975.3741   -4339.8591            0    1934.0054    18.134399    23.147723    22.085866    9270.9849    1956.4505    2310.5509    1535.0147   -817.57268   -63.881196     131.8735   -3713.8814 
 5697000    207.09228   -4334.0425   -3979.0935   -4334.0425            0    853.10651     17.89981    23.556596     22.17747    9351.3213    1126.3542    845.05284    587.91249   -426.55531   -146.43731    410.92016   -3862.7473 
 5698000     213.3508   -4334.8403   -3969.1643   -4334.8403            0     2298.977    17.889493    23.679032    21.976273    9309.2786    3854.0251    1629.7422    1413.1636    248.20963    158.37286    550.90591   -3657.0408 
 5699000    217.93955   -4332.4899    -3958.949   -4332.4899            0    920.12011    18.136714    23.367652    21.975799    9313.6161    135.89411    1447.5843    1176.8819    358.11868    616.67301    -344.8009   -3833.9695 
 5700000    205.37211   -4336.5449   -3984.5441   -4336.5449            0     2335.774    18.040117    23.414466    21.953642    9273.2119    2355.1017    2602.4799    2049.7403   -588.49472   -169.10659    755.88871   -3668.6534 
 5701000     205.3734   -4323.5332   -3971.5302   -4323.5332            0    1584.3086    17.851589    23.659401    22.025177    9302.5078    1758.8596    2240.5987    753.46752   -1153.5559   -380.23892   -120.59996    -3756.591 
 5702000    214.04204   -4335.5021   -3968.6414   -4335.5021            0    2190.5727    17.949072    23.502146    22.006535    9283.2742    2218.6844     1784.712    2568.3217    696.99981    1180.0605    116.86142   -3672.0663 
 5703000    202.38119   -4340.9536   -3994.0792   -4340.9536            0    1370.9299    18.332032    23.129206    21.903607    9287.2464    986.82065    1723.1415    1402.8277    280.15567    973.25822    18.419052   -3808.3936 
 5704000    212.05317   -4356.1676   -3992.7157   -4356.1676            0    1787.2581    17.970213    23.316622    22.128264    9271.8459    1935.3529       2861.4    565.02133    469.92591      13.0979    578.56673    -3751.042 
 5705000     198.0965   -4344.9782   -4005.4476   -4344.9782            0    788.09777     18.00078    23.629824    21.932444    9329.0806      1166.88    -625.3597     1822.773   -241.84213   -218.38523    -463.7836   -3898.2229 
 5706000    210.75904   -4356.5332   -3995.2994   -4356.5332            0    1691.9873     17.96378    23.289087    22.252488    9309.5515    2973.1077    1841.7159    261.13822   -399.61086    801.43246    109.72009   -3765.5779 
 5707000    207.26138   -4337.8456   -3982.6067   -4337.8456            0    1188.8979     18.19779    23.298939    21.940901    9302.7052    1555.6911    1100.0149    910.98775   -205.34913   -341.45282    232.66754   -3821.3085 
 5708000    227.55015   -4352.5721   -3962.5589   -4352.5721            0    2033.6584    18.027394    23.308717     22.09927    9286.0123    2582.3072    2527.1696    991.49839   -159.28513   -264.19981    201.25036   -3687.1468 
 5709000    207.41696   -4335.2651   -3979.7595   -4335.2651            0    1498.5546    17.876305    23.876494    21.833095    9318.8777    308.04575    1015.7261    3171.8919    202.52695    477.47987   -333.80538   -3776.0966 
 5710000    212.80401   -4318.8217   -3954.0829   -4318.8217            0    2230.1078    18.125533    23.301392    22.128677    9346.0501    1555.8043     2574.763     2559.756    343.84322   -108.37027    127.58546   -3650.1136 
 5711000    216.04527    -4356.652   -3986.3578    -4356.652            0    2354.1449    18.149329    23.121695    22.068911    9261.0696    3097.2095    3124.9735    840.25158    649.62767   -346.04972   -312.06141   -3668.3994 
 5712000    211.77783   -4335.6732   -3972.6932   -4335.6732            0    3544.9363    17.830645    23.508574    21.918285    9187.5538     2710.207    3592.0016    4332.6004   -446.84157   -880.36758    970.92068   -3497.7035 
 5713000    216.31481   -4329.5665   -3958.8103   -4329.5665            0    2314.9665     17.95186    23.506959    22.043997    9302.4265    1406.3508    3047.4377    2491.1109    531.63057   -531.11419   -551.12505   -3644.7472 
 5714000    194.27939   -4316.8564   -3983.8682   -4316.8564            0    1879.6381    18.262307     23.21506    21.897356    9283.6147    1890.8512    2111.2008    1636.8624    596.67422    249.00674    502.70613   -3729.3802 
 5715000    203.11413   -4364.1883   -4016.0576   -4364.1883            0    2441.9476      17.8711    23.262297    22.264879    9256.0187    2560.2105    2974.6886    1790.9435    173.73137    173.19432    31.851086   -3686.4203 
 5716000    216.71761   -4357.8127   -3986.3661   -4357.8127            0    1691.4311    17.997251    23.544775    21.928128    9291.8518    1992.8443    632.50615     2448.943    173.12487     161.0187   -214.91199   -3757.1567 
 5717000    207.45056   -4358.6849   -4003.1217   -4358.6849            0    1790.7527    18.051878    23.334271    22.009122    9270.8454    1881.7088    1222.2618    2268.2875   -736.61597   -458.86661   -504.63547   -3761.0016 
 5718000    216.89605   -4342.1695   -3970.4171   -4342.1695            0    3682.8786    17.947264    23.449848    21.853533    9197.2917     3366.762    2710.1181    4971.7556    285.01379    691.27852    457.30912   -3476.4213 
 5719000    217.93838   -4342.7321   -3969.1932   -4342.7321            0    2518.1323    18.019338    23.360631     22.07457    9292.1382    1255.8088    3946.8264    2351.7616   -838.23238   -228.57431    335.83076   -3627.9452 
 5720000    213.87747   -4362.1994   -3995.6208   -4362.1994            0    2274.0534    18.104058    23.139322    22.151192    9279.4802    2033.8192    4198.0319      590.309   -1258.0548   -566.13109    384.93623   -3687.8692 
 5721000     217.6363   -4355.4282    -3982.407   -4355.4282            0    2040.1569    18.060443    23.397383    22.006695    9299.3056    1676.6015    3672.8738     770.9954   -536.73596   -429.27605   -672.17531   -3705.7193 
 5722000    204.68534   -4345.8284   -3995.0047   -4345.8284            0    1728.8012    17.773207    23.681046    22.097788    9300.6973    2424.3273    716.24182    2045.8343    90.160164    672.20909    164.22187   -3760.5081 
 5723000    207.34083   -4347.9458   -3992.5707   -4347.9458            0     2215.064    18.103725    23.476437    21.947415    9327.8918    2024.3154    1935.8376    2685.0389   -111.37196   -763.37648   -524.78689   -3691.2384 
 5724000    200.16559   -4323.3845   -3980.3075   -4323.3845            0    2457.5727    18.104754    23.223744    22.072758    9280.7155    3707.9924    1786.1697    1878.5559    1759.7396    486.33471    619.84057   -3647.6758 
 5725000    212.48947   -4360.2018   -3996.0021   -4360.2018            0    1981.0416    17.948871    23.667095    21.885357    9296.8479    2177.7486    1179.8102    2585.5658   -29.673076    90.115387    456.80132   -3727.4026 
 5726000    209.52838    -4336.602   -3977.4776    -4336.602            0    2307.5563    17.958629    23.338712    22.170984    9292.5522    3223.0606    2461.4571    1238.1514   -446.09159     357.9809    46.853959   -3664.7521 
 5727000    216.40622   -4294.0006   -3923.0877   -4294.0006            0    2441.7729    18.090585    23.297613    22.001586    9272.9525    2801.7091    3407.8932    1115.7163     -134.453    728.38219    -213.4225   -3592.8709 
 5728000    213.66253   -4321.9493    -3955.739   -4321.9493            0    2336.7932    17.787168    23.552331    22.086035    9252.4863    3535.9189    2001.0111    1473.4497    867.65243    954.99928   -79.294441   -3640.4168 
 5729000    208.93413   -4321.6517   -3963.5457   -4321.6517            0    2918.3123    18.055859    23.306866    21.927866    9227.8047    3381.7439    2134.9358    3238.2571    187.54488   -280.65734    269.25445   -3570.8049 
 5730000    213.86748   -4315.8237   -3949.2622   -4315.8237            0     1736.265    18.007205    23.362581    22.060672    9280.8096    1790.1627    2151.5162     1267.116   -520.11613   -289.04243    627.53758   -3714.2568 
 5731000    210.27663   -4315.6714   -3955.2644   -4315.6714            0    3287.2524    17.845632    23.348614    22.095517    9206.5556    3686.1354    3459.2615    2716.3604    242.43147   -398.49782    441.52296   -3513.8911 
 5732000    205.42964   -4319.1035   -3967.0042   -4319.1035            0    2649.9025    17.950099       23.516    21.871855    9232.4278    3246.3795    2036.4172    2666.9109    320.02164    37.955689    757.30805   -3610.2067 
 5733000    211.08185   -4348.7047   -3986.9176   -4348.7047            0    2170.0131    18.041164    23.131405    22.102999    9223.9677    1989.1002    1891.5047    2629.4344     -358.897   -400.87352    184.45024   -3695.0028 
 5734000    219.43575   -4335.1569   -3959.0515   -4335.1569            0    3246.8887    18.138988    23.259862    21.849563    9218.5569    3263.9608    2592.1771     3884.528   -425.03926   -274.62278   -628.59637   -3522.5294 
 5735000    201.56231   -4343.8216   -3998.3507   -4343.8216            0    1054.6202    17.850228    23.563576    22.076298    9285.6265    1400.2254    39.753685    1723.8816    1160.0277   -1003.5154   -293.58974   -3855.5326 
 5736000    209.82663   -4342.0957     -3982.46   -4342.0957            0    2674.6517     17.95468    23.418191    21.962092    9234.3158    2488.8358     1660.819    3874.3004   -552.41327    265.79899    257.18704   -3622.2566 
 5737000    206.79036    -4338.258   -3983.8265    -4338.258            0    1508.2245    18.085121    23.276221    22.174104     9334.262     1107.113     2079.327    1338.2334    1045.1162   -78.673419     1003.134   -3778.5109 
 5738000    208.91088   -4321.6989   -3963.6328   -4321.6989            0     3666.261    17.934738    23.581857    21.762695    9204.1931     4132.356    2940.2584    3926.1684   -1262.3849    465.30688    93.678011    -3471.497 
 5739000    213.26335   -4338.9857   -3973.4596   -4338.9857            0    2057.2615    17.972043    23.343467    22.121572     9280.659    877.39573    3454.1599    1840.2288    543.99911    -498.5409    421.24094   -3695.0116 
 5740000    213.61927    -4335.986   -3969.8499    -4335.986            0    2508.3545    18.373857    23.014134    21.929827    9273.2117    1600.3884    3680.7265    2243.9486    323.03551    -367.1177   -154.34219   -3630.6194 
 5741000    207.45953    -4354.587   -3999.0084    -4354.587            0    2099.5136    17.949181    23.405716    22.047263    9262.3511    2033.5452    2147.0384    2117.9571   -203.07909    591.89171   -328.67607   -3715.4022 
 5742000    212.02779   -4337.5716   -3974.1632   -4337.5716            0    2128.0389    17.992696     23.47099    21.984345    9284.1294    1636.3037    959.25012    3788.5628    505.22285    57.077043   -1071.0975   -3686.0278 
 5743000     223.6913   -4336.7399   -3953.3407   -4336.7399            0    2087.6288    18.198357    23.338542    21.848406    9279.5231   -888.81198    2891.6258    4260.0725   -227.11052    1300.6101    397.14203   -3670.8171 
 5744000    218.20573   -4342.2611   -3968.2639   -4342.2611            0    2368.3188     17.93076    23.373276    22.085313    9255.9681    1182.2728    3620.1261    2302.5575    814.98997   -407.75246    611.27904   -3648.5674 
 5745000    230.00904   -4349.9452   -3955.7176   -4349.9452            0    2780.2908    17.826042    23.621676    21.959446    9246.7052    3585.9358    2132.8435     2622.093    173.76701   -450.28611      266.112   -3580.7851 
 5746000    205.86381   -4332.3819   -3979.5383   -4332.3819            0    1189.3766    18.058491     23.38051    22.043058    9306.9481    1373.2513    516.03739    1678.8411   -96.164484   -36.998047   -191.89691   -3818.1015 
 5747000    202.72787   -4330.4421   -3982.9735   -4330.4421            0    3380.3536    18.045996    23.383221     21.84661    9218.6912    3616.2091    4101.8085    2423.0431    689.73352   -66.362446    199.19341   -3528.5013 
 5748000    217.44324   -4320.2653    -3947.575   -4320.2653            0    2539.3573    17.849884     23.49715    22.128915    9281.3403    2334.7614    1654.3357    3628.9749    657.10141   -1109.7635    448.61029   -3603.8506 
 5749000    213.61823   -4367.0878   -4000.9535   -4367.0878            0    1685.6934    18.021774     23.41867    22.024438    9295.3258    2060.6417    1211.1749    1785.2635      1051.05    400.19032   -147.61701   -3772.4362 
 5750000    228.55874   -4335.3039   -3943.5621   -4335.3039            0    2198.6582    18.198345    23.326307    21.948935    9317.3269    891.70032    1942.7577    3761.5166   -1768.8209   -75.216721   -16.361885   -3644.8004 
Loop time of 360.066 on 64 procs for 250000 steps with 864 atoms

Performance: 119.978 ns/day, 0.200 hours/ns, 694.317 timesteps/s
194.7% CPU use with 32 MPI tasks x 2 OpenMP threads

MPI task timing breakdown:
Section |  min time  |  avg time  |  max time  |%varavg| %total
---------------------------------------------------------------
Pair    | 17.705     | 25.197     | 33.04      | 104.2 |  7.00
Bond    | 0.87502    | 1.0426     | 1.4795     |  13.3 |  0.29
Kspace  | 181.47     | 191.62     | 201.47     |  44.6 | 53.22
Neigh   | 1.2343     | 1.3489     | 1.4874     |   6.5 |  0.37
Comm    | 53.456     | 57.784     | 61.848     |  26.6 | 16.05
Output  | 0.60407    | 0.60442    | 0.60636    |   0.0 |  0.17
Modify  | 64.958     | 66.465     | 70.023     |  15.3 | 18.46
Other   |            | 16.01      |            |       |  4.45

Nlocal:        27.0000 ave          38 max          18 min
Histogram: 4 1 9 3 2 3 1 1 2 6
Nghost:        2112.88 ave        2225 max        2005 min
Histogram: 7 5 4 0 0 0 0 4 5 7
Neighs:        6524.75 ave        9308 max        4436 min
Histogram: 4 5 6 2 3 2 2 2 3 3

Total # of neighbors = 208792
Ave neighs/atom = 241.65741
Ave special neighs/atom = 2.0000000
Neighbor list builds = 4599
Dangerous builds = 0

unfix		3
unfix		2
unfix		1

write_data	data.final.${pid} nocoeff
write_data	data.final.1 nocoeff
System init for write_data ...
PPPM initialization ...
  extracting TIP4P info from pair style
  using 12-bit tables for long-range coulomb (../kspace.cpp:340)
  G vector (1/distance) = 0.37173559
  grid = 24 27 25
  stencil order = 5
  estimated absolute RMS force accuracy = 0.0031457813
  estimated relative force accuracy = 9.4734268e-06
  using double precision FFTW3
  3d grid and FFT values/proc = 4410 672
Last active /omp style is kspace_style pppm/tip4p/omp

write_restart   restart.lmp.${pid}
write_restart   restart.lmp.1
System init for write_restart ...
PPPM initialization ...
  extracting TIP4P info from pair style
  using 12-bit tables for long-range coulomb (../kspace.cpp:340)
  G vector (1/distance) = 0.37173559
  grid = 24 27 25
  stencil order = 5
  estimated absolute RMS force accuracy = 0.0031457813
  estimated relative force accuracy = 9.4734268e-06
  using double precision FFTW3
  3d grid and FFT values/proc = 4410 672
Last active /omp style is kspace_style pppm/tip4p/omp
Total wall time: 0:06:00
