LAMMPS (30 Jul 2021)
Processor partition = 1
  using 2 OpenMP thread(s) per MPI task
using multi-threaded neighbor list subroutines
variable        pid world 0 1
variable        phase world IceV IceIII

shell cd ${phase}
shell cd IceIII
include Restart.lmp
echo both
log log.lammps
#include		in.partitions
include		in.temp
variable        temperature equal 231.47
variable	tempDamp equal 100.0
include		in.pressure
variable        pressure equal 7599.1
variable        pressureDamp equal 1000.0 # This is 1 ps
include		in.seed
variable        seed equal 745823

units		real
atom_style	full

read_restart	restart.lmp.${pid}
read_restart	restart.lmp.1
Reading restart file ...
  restart file = 30 Jul 2021, LAMMPS = 30 Jul 2021
  restoring atom style full from restart
  orthogonal box = (-0.010482460 0.19879361 0.041929450) to (20.010483 19.801207 20.658069)
  4 by 2 by 4 MPI processor grid
  restoring pair style lj/cut/tip4p/long/omp from restart
  restoring bond style harmonic/omp from restart
  restoring angle style harmonic/omp from restart
  972 atoms
  648 bonds
  324 angles
Finding 1-2 1-3 1-4 neighbors ...
  special bond factors lj:    0        0        0       
  special bond factors coul:  0        0        0       
     2 = max # of 1-2 neighbors
     1 = max # of 1-3 neighbors
     1 = max # of 1-4 neighbors
     2 = max # of special neighbors
  special bonds CPU = 0.002 seconds
  read_restart CPU = 0.008 seconds
include 	in.setup
variable	out_freq equal 1000
variable	out_freq2 equal 10000
variable	out_freq3 equal 1000

timestep	2.0

neigh_modify    delay 7 every 1

include		in.tip4p
# This is TIP4P/Ice

# create groups ###
group ox type 2
324 atoms in group ox
group hy type 1
648 atoms in group hy

# set charges - beside manually ###
set group ox charge -1.1794
Setting atom values ...
  324 settings made for charge
set group hy charge 0.5897
Setting atom values ...
  648 settings made for charge

# ### TIP3P Potential Parameters ###
pair_style lj/cut/tip4p/long/omp 2 1 1 1 0.1577 8.5
pair_coeff 1 1*2 0.000 0.000
pair_coeff 2 2 0.21084 3.1668
bond_style  harmonic
bond_coeff  1 450 0.9572
angle_style harmonic
angle_coeff 1 55 104.52
kspace_style pppm/tip4p/omp 1.0e-5
pair_modify tail yes

thermo          ${out_freq}
thermo          1000
thermo_style    custom step temp pe etotal epair emol press lx ly lz vol pxx pyy pzz pxy pxz pyz enthalpy

restart 	${out_freq3} restart.lmp.${pid} restart2.lmp.${pid}
restart 	1000 restart.lmp.${pid} restart2.lmp.${pid}
restart 	1000 restart.lmp.1 restart2.lmp.${pid}
restart 	1000 restart.lmp.1 restart2.lmp.1


include         in.dump
dump            myDump all atom ${out_freq2} dump.water.${pid}
dump            myDump all atom 10000 dump.water.${pid}
dump            myDump all atom 10000 dump.water.1
dump            myDump2 all dcd ${out_freq2} dump.dcd
dump            myDump2 all dcd 10000 dump.dcd
dump_modify     myDump append yes
dump_modify     myDump2 append yes


variable natoms 	equal  "count(all)"                        # NUMBER ATOMS
variable H      	equal  "enthalpy/v_natoms"                 # ENTHALPY-per-atom
variable Vol      	equal  "vol/v_natoms"                 # volume-per-atom
fix AVG all 		ave/time ${out_freq} 1 ${out_freq} v_Vol v_H file vol_enthalpy.dat
fix AVG all 		ave/time 1000 1 ${out_freq} v_Vol v_H file vol_enthalpy.dat
fix AVG all 		ave/time 1000 1 1000 v_Vol v_H file vol_enthalpy.dat


timer           timeout 02:55:00 every 1000
New timer settings: style=normal  mode=nosync  timeout=02:55:00

fix 		1 all shake 1e-6 200 0 b 1 a 1
Finding SHAKE clusters ...
       0 = # of size 2 clusters
       0 = # of size 3 clusters
       0 = # of size 4 clusters
     324 = # of frozen angles
  find clusters CPU = 0.001 seconds
fix             2 all nph aniso ${pressure} ${pressure} ${pressureDamp}
fix             2 all nph aniso 7599.1 ${pressure} ${pressureDamp}
fix             2 all nph aniso 7599.1 7599.1 ${pressureDamp}
fix             2 all nph aniso 7599.1 7599.1 1000
fix             3 all temp/csvr ${temperature} ${temperature} ${tempDamp} ${seed}
fix             3 all temp/csvr 231.47 ${temperature} ${tempDamp} ${seed}
fix             3 all temp/csvr 231.47 231.47 ${tempDamp} ${seed}
fix             3 all temp/csvr 231.47 231.47 100 ${seed}
fix             3 all temp/csvr 231.47 231.47 100 745823


run             250000
PPPM initialization ...
  extracting TIP4P info from pair style
  using 12-bit tables for long-range coulomb (../kspace.cpp:340)
  G vector (1/distance) = 0.37193143
  grid = 24 24 24
  stencil order = 5
  estimated absolute RMS force accuracy = 0.0035446787
  estimated relative force accuracy = 1.0674695e-05
  using double precision FFTW3
  3d grid and FFT values/proc = 3211 432
Last active /omp style is kspace_style pppm/tip4p/omp
Neighbor list info ...
  update every 1 steps, delay 7 steps, check yes
  max neighbors/atom: 2000, page size: 100000
  master list distance cutoff = 10.8154
  ghost atom cutoff = 10.8154
  binsize = 5.4077, bins = 4 4 4
  1 neighbor lists, perpetual/occasional/extra = 1 0 0
  (1) pair lj/cut/tip4p/long/omp, perpetual
      attributes: half, newton on, omp
      pair build: half/bin/newton/omp
      stencil: half/bin/3d
      bin: standard
Setting up Verlet run ...
  Unit style    : real
  Current step  : 6000000
  Time step     : 2
  Walltime left : 2:54:59.92
Per MPI rank memory allocation (min/avg/max) = 10.19 | 10.19 | 10.19 Mbytes
Step Temp PotEng TotEng E_pair E_mol Press Lx Ly Lz Volume Pxx Pyy Pzz Pxy Pxz Pyz Enthalpy 
 6000000    245.67214   -4738.1176   -4264.3182   -4738.1176            0    9194.3614    20.020966    19.602414    20.616139    8090.9947    8487.4568    10821.676    8273.9511    909.27168    1224.0938   -1506.7988   -3179.3941 
 6001000    222.38488   -4747.2262   -4318.3383   -4747.2262            0    7345.2365    19.717527    20.317047    20.301449    8132.7996    7400.0442    5332.0877    9303.5775    205.67202    217.80906    46.470504   -3447.1305 
 6002000    237.35831   -4772.5045    -4314.739   -4772.5045            0    6667.1037    19.940855    19.826079     20.58204    8137.0887    8463.1042    5265.8664    6272.3406   -591.41978   -88.414695    -685.4727   -3523.5465 
 6003000    231.72604   -4763.5005   -4316.5973   -4763.5005            0    7249.5402    20.016139    19.643538    20.559796    8083.8606    7538.3312    6559.3724     7650.917    -207.2855   -372.23479    787.70736   -3461.9141 
 6004000    219.63655   -4770.0084   -4346.4209   -4770.0084            0     6029.822    19.631674    20.059415    20.633042    8125.2898    6318.6293    4967.9175    6802.9192    -534.6671    -471.7899   -931.49113   -3631.8929 
 6005000    221.00062   -4740.7714   -4314.5531   -4740.7714            0     7280.526    19.962564    19.671283    20.716137    8135.0039    6933.9716    6487.0956    8420.5109    295.76546   -690.85127   -1105.0756   -3450.7865 
 6006000    238.60432   -4751.2084   -4291.0399   -4751.2084            0    5940.3529    20.080302    19.806761     20.43474    8127.4221      4560.85    6200.2516    7059.9571    104.62828    1082.0262    1381.8357   -3586.9291 
 6007000    242.80349   -4782.7011   -4314.4341   -4782.7011            0    6891.1084    19.736495    20.004398    20.542169    8110.3915    8018.6762    6091.9416    6562.7074    554.58093    698.18308   -1565.7682   -3499.3418 
 6008000    235.63498   -4764.3035   -4309.8616   -4764.3035            0    7767.4918    19.851243    19.795239    20.642369    8111.6276    8623.9376    9181.2515    5497.2862   -63.339926    -416.7386    371.02596   -3390.9691 
 6009000    239.65889    -4747.925   -4285.7227    -4747.925            0    7292.9279    20.088829    19.831457    20.403012    8128.3713    7359.3907    6048.6097    8470.7833   -346.56549    313.92033   -263.50244   -3421.1902 
 6010000    237.31051   -4751.1186   -4293.4453   -4751.1186            0    7438.2437    20.002759    19.865903    20.444592    8124.1262    7248.2959    7934.0576    7132.3775    362.56934   -61.213993    1942.1352    -3412.147 
 6011000    237.52266   -4776.2618   -4318.1794   -4776.2618            0    9100.4946     19.84457    19.835431    20.605888    8111.0052    9884.0856    9068.1736    8349.2244   -47.497539   -600.37508   -756.49221   -3241.6756 
 6012000    243.41683   -4740.4831   -4271.0333   -4740.4831            0    6603.1457    20.089323    19.695126    20.681213    8182.7652     6336.957    7337.8844    6134.5956   -51.494804    970.14355   -18.488281   -3483.0321 
 6013000    226.02677   -4704.2611   -4268.3495   -4704.2611            0    8776.1522     19.44619    19.924481    20.729936     8031.922    10113.588    8515.5114    7699.3574   -225.10014   -350.24626     1363.676   -3240.3343 
 6014000     231.1318   -4771.4068   -4325.6497   -4771.4068            0    8531.0292     19.94927    19.924921    20.429904    8120.6342    10773.413    6488.7673    8330.9075   -942.00685     1107.232   -101.07658   -3315.3103 
 6015000    227.42461   -4763.9887   -4325.3812   -4763.9887            0     5873.283    19.841368    19.952461    20.720811    8203.0399    5952.6891    6113.3854    5553.7745   -816.67273    710.29201    473.77993   -3622.7432 
 6016000    229.39408   -4744.9505   -4302.5447   -4744.9505            0     7851.395    19.804374    19.742076    20.643996    8071.3783    6340.8645    9398.7963    7814.5243    151.19516   -1149.5434   -594.81627   -3378.3352 
 6017000    228.14334   -4743.3259   -4303.3323   -4743.3259            0    8502.8086    19.894165    19.688565    20.507797    8032.6492    7463.2033     9451.644    8593.5784    491.36876      554.858    1919.8722   -3307.2457 
 6018000    229.41709    -4773.022   -4330.5718    -4773.022            0     8354.468      19.9528    19.828959    20.391915    8067.9236    8605.0938    8253.8042    8204.5061     91.70072   -1275.7334    661.56149   -3347.5651 
 6019000    232.14588   -4758.5492   -4310.8363   -4758.5492            0    7554.3018    19.698044    20.004509    20.602747    8118.5064    8240.5583    6086.3433    8336.0037   -552.60708   -1189.3925    753.23957   -3416.4064 
 6020000     225.3494   -4750.1346   -4315.5294   -4750.1346            0    9329.0743    19.682355    19.798118    20.563356    8012.9967    9047.2861    8681.3858    10258.551     86.94586   -50.313149    997.34271   -3225.3213 
 6021000    232.19671   -4788.6018    -4340.791   -4788.6018            0    7339.2206    20.026844    19.778722    20.568402    8147.2546    5968.0784    8801.4079    7248.1756    249.73886   -1132.8198    368.40493   -3468.7495 
 6022000    231.43751   -4762.7183   -4316.3716   -4762.7183            0     6018.898    19.654985    20.035948    20.698983    8151.3891    7771.3012    5197.5079     5087.885   -160.03016   -1070.7402    831.63448   -3600.8471 
 6023000    234.07921   -4787.8061   -4336.3647   -4787.8061            0     8054.762    19.888797      19.7413     20.61105    8092.5313    8373.2708    7132.7298    8658.2853    642.84376    128.99934     73.80769   -3385.7315 
 6024000    246.45842   -4745.9275   -4270.6117   -4745.9275            0    7767.8184    19.812367    19.921788    20.587244    8125.7396    7088.8583    8298.9035    7915.6934   -52.431268   -817.24395   -774.90148   -3350.0819 
 6025000    240.25313   -4739.4561   -4276.1078   -4739.4561            0    9986.6551    19.936606    19.874142    20.330319     8055.339     12676.32     7629.618    9654.0278   -972.03327    1188.0904    64.250407    -3102.887 
 6026000     241.1051   -4757.3102   -4292.3187   -4757.3102            0    6267.4666    19.908424    19.713567    20.826829    8173.8233    5631.8337    7252.8458    5917.7204   -362.89517   -234.45016   -21.732604   -3545.1939 
 6027000    237.48247     -4745.44   -4287.4351     -4745.44            0     7843.537    19.898141    19.969002    20.527006    8156.3244    8468.3473    6146.3559    8915.9076    168.74108    1528.2856    268.67356   -3354.4336 
 6028000    225.22805   -4767.7306   -4333.3593   -4767.7306            0    6477.2614    19.844399    20.033368    20.612318    8194.4303    7797.1984    5111.9484    6522.6374    43.884737   -331.18136   -347.19694   -3559.2789 
 6029000     231.7576   -4753.7021    -4306.738   -4753.7021            0    6984.6725    19.993558    19.636237    20.684745    8120.7944    5228.0568    7787.1303    7938.8303   -240.94782   -845.85589   -237.71108   -3479.5191 
 6030000     236.9866   -4755.3688   -4298.3202   -4755.3688            0    6322.6778    19.740921    20.127429    20.523279    8154.5958    9323.2155    4862.1572    4782.6605   -549.95776   -666.89676    812.66831   -3546.3868 
 6031000    239.54537   -4748.0187   -4286.0353   -4748.0187            0    6935.2602    20.074912    19.583777     20.66039    8122.4792    6236.7604    7894.7239    6674.2964    671.48764   -58.366751    963.27567   -3464.4981 
 6032000    229.57366   -4731.3915   -4288.6394   -4731.3915            0    7767.7472     19.87118    19.684822    20.593192     8055.246    6572.5528    8765.7172    7964.9715   -1024.2947    801.33937   -637.75682   -3376.1039 
 6033000     236.0483   -4757.4899   -4302.2509   -4757.4899            0     9014.368    19.746853    20.211628    20.343635    8119.4709    10888.731    7616.2643    8538.1089    499.46446   -695.33712   -586.24601   -3234.8221 
 6034000    226.09715   -4763.2704    -4327.223   -4763.2704            0    9031.5576    19.855952    19.754606     20.56061    8064.8272    8542.0067    8721.8909    9830.7751   -315.50107   -178.74967    674.15488   -3264.9562 
 6035000     225.6609   -4785.5966   -4350.3906   -4785.5966            0    8691.8492     19.57886    19.816163    20.847907    8088.5272    10685.379    7767.2655    7622.9028    413.30195    -500.6425   -332.97336   -3325.0751 
 6036000    219.58703   -4766.3606   -4342.8685   -4766.3606            0    8195.5384    19.874731    19.898049    20.579693     8138.618    7041.8395    8804.5113    8740.2644    27.560847    1252.8122    1461.3263   -3370.1122 
 6037000    230.00623   -4765.9164   -4322.3301   -4765.9164            0    7145.9258    20.062705    19.802025    20.538269    8159.4882    5091.2175    7707.9638    8638.5961   -205.23808    29.792277    478.19182   -3471.9808 
 6038000    243.39617   -4768.3883   -4298.9783   -4768.3883            0     8315.284    19.814905    19.890113    20.542991    8096.4179    10676.462    6088.7662    8180.6242   -55.936492   -824.31221   -854.34767   -3317.1266 
 6039000    227.80927   -4765.7503   -4326.4009   -4765.7503            0    6650.6237    19.961092     19.72814    20.619689    8119.9347    6161.1045    7530.0669    6260.6996    266.41112    1336.1555    348.43067    -3538.828 
 6040000    229.05242   -4754.8597   -4313.1129   -4754.8597            0    8090.1977    19.468632    19.945693    20.701084     8038.549    7911.9725     8750.641    7607.9795   -494.41691    325.80871     1515.659   -3364.6667 
 6041000    225.28107   -4732.5941   -4298.1207   -4732.5941            0    11248.843    19.921175    19.512507    20.531399    7980.8024    11814.026    10474.374    11458.129   -220.21259    851.78512    140.96765   -2988.8474 
 6042000    226.26226   -4753.6075   -4317.2417   -4753.6075            0     7442.693    19.931541    19.913566    20.438196    8112.0847    7948.3273    8528.8836    5850.8679   -1460.3854   -324.81751    1010.8243   -3436.7232 
 6043000    233.29137   -4744.7618   -4294.8398   -4744.7618            0    8521.1934    19.714068     19.75847    20.779753    8094.1256    9165.4771    9689.2146    6708.8884    934.83104   -733.82959    9.5190422   -3288.9596 
 6044000    232.30563   -4785.4689   -4337.4479   -4785.4689            0     8206.727    19.841709    19.736525    20.597373     8066.063    7840.1051    9871.0501    6909.0257    163.13576   -104.67311   -941.29199   -3372.0475 
 6045000    215.97508   -4758.3375   -4341.8114   -4758.3375            0    8056.3619    19.882938    19.890005    20.397154    8066.4981    5267.9004    10224.288    8676.8972     541.1736   -589.14214   -557.39212   -3394.0481 
 6046000    228.31512   -4768.7632   -4328.4383   -4768.7632            0    7281.8012    19.983267    19.633598    20.754957    8143.0709    8521.4068     6423.551    6900.4459     305.0977   -1327.9523   -1026.0135   -3463.6637 
 6047000    232.46755   -4756.2693   -4307.9361   -4756.2693            0    9267.4203    19.889889    19.747291    20.579575    8083.0692    7574.3568     11212.46    9015.4443   -758.48062     569.2815   -615.02734   -3215.4623 
 6048000    218.21757   -4753.8055   -4332.9545   -4753.8055            0    8715.0328    19.758605    19.801716    20.604205    8061.4834    10602.405     7338.956    8203.7371    -108.6913    1400.5836   -1311.8757   -3308.3415 
 6049000     223.7385   -4725.4579   -4293.9594   -4725.4579            0    9620.5648    19.841737    19.969581    20.338552    8058.7683    9271.4185    9877.0643    9713.2115    46.646427   -1460.9739    1888.2403   -3163.2653 
 6050000    220.71972   -4760.9423   -4335.2658   -4760.9423            0    7620.3721    19.863376    19.882957    20.517316    8103.1631    5845.7127    8801.8402    8213.5634    433.58281   -343.10597   -57.072468   -3434.7182 
 6051000    243.72694   -4719.4586   -4249.4107   -4719.4586            0    7123.0311    19.698488    19.902263    20.749455    8134.7094    7997.4053    7825.2825    5546.4055    61.545127   -700.52163   -422.62802   -3404.3599 
 6052000    228.06616   -4770.4836   -4330.6388   -4770.4836            0    7667.1848    19.836226    19.954476    20.376085    8065.2927    6150.7085    8241.0527    8609.7931    124.08126   -1838.2807   -108.81419   -3428.7937 
 6053000     225.0739   -4777.6823   -4343.6083   -4777.6823            0    7950.0158    19.749214      19.8401    20.637181    8086.1919    7572.9945    8206.5084    8070.5443    220.69814    1469.9475   -1255.4024   -3406.0724 
 6054000    236.43717   -4750.2669   -4294.2779   -4750.2669            0    6526.0367     19.97128    19.857885    20.675163     8199.509    7590.9373    5201.0485    6786.1243    993.77544     1036.424    858.21336   -3513.8851 
 6055000    235.72561   -4767.5554   -4312.9387   -4767.5554            0    7594.4439    19.938186    19.942801    20.570559    8179.3329    7232.5024    8013.3123    7537.5169   -711.61387    848.44594    245.56092   -3407.0189 
 6056000    229.63724   -4717.9292   -4275.0544   -4717.9292            0    7474.0601    19.649073    20.080471    20.601705    8128.6635    8856.0806    6740.5028    6825.5969    213.16209   -842.85998    518.20641   -3389.0179 
 6057000    217.61513   -4762.6949   -4343.0058   -4762.6949            0    6087.8082    19.980814    19.693754    20.649512    8125.5259    6247.9424    6568.2374    5447.2449   -95.118769    1707.1552    346.03299   -3621.5855 
 6058000    240.07355   -4774.6832   -4311.6811   -4774.6832            0    7381.2996    19.985911    19.886074    20.473154    8136.8771    7985.7471    6482.8823    7675.2694    1128.4391    687.00978    1278.0776    -3435.757 
 6059000    230.64678   -4763.3992   -4318.5775   -4763.3992            0    8375.0666    19.879563    19.839976    20.603376    8126.1785    8717.8029    8189.2108    8218.1862    89.601519   -523.74469    316.14013   -3326.0318 
 6060000    238.15345   -4776.4417   -4317.1428   -4776.4417            0    7237.5276     19.77363    19.930015    20.595146    8116.3151     6374.722    7183.5061    8154.3547    -574.5013    1639.8529   -1053.5418   -3460.4502 
 6061000    233.81499   -4750.0536   -4299.1217   -4750.0536            0    7723.9651    19.884297      19.6987    20.597956    8068.1124    7382.2205     8442.606    7347.0688   -221.34596    366.73154   -691.49589   -3390.2803 
 6062000    237.11171   -4727.1282   -4269.8384   -4727.1282            0    8479.4308    19.829656    19.790625    20.557142    8067.4714    6602.7326     10441.51    8394.0497   -677.19997    -1567.969    858.69459   -3272.1842 
 6063000    239.80012   -4759.4388   -4296.9641   -4759.4388            0    8153.3633    19.697511    20.035437    20.577526    8120.8848    10758.156    4626.6662    9075.2675    475.79402   -12.195532    426.29657   -3331.3224 
 6064000    224.16684   -4752.7601   -4320.4355   -4752.7601            0    5796.8237    20.193347    19.636306     20.64901    8187.8022    4216.5173    6454.4351    6719.5186   -51.356939   -514.00945    1031.7351   -3628.2328 
 6065000    221.96209   -4756.2893   -4328.2168   -4756.2893            0    7698.8565    19.892091    19.920185    20.520701    8131.4127    9062.6637    6548.8142    7485.0915   -627.81157   -204.02157    214.94273   -3415.2224 
 6066000    242.40095   -4738.8872   -4271.3966   -4738.8872            0    6785.9276    19.904265    19.829381    20.581785    8123.4093    6487.7398    6770.7888    7099.2543   -904.26445   -750.02413   -803.37098   -3467.4569 
 6067000     234.3292   -4771.4093   -4319.4858   -4771.4093            0    8257.0439    19.877289    19.595128    20.699394     8062.373    8314.6531    7521.8459    8934.6328     224.3028   -659.87752   -143.34816   -3348.6107 
 6068000    232.41793    -4769.463   -4321.2254    -4769.463            0    5935.4299     19.64002    19.807449    20.917902    8137.4549    5695.0428    6174.1998     5937.047   -121.12317    1234.3803   -1247.8413   -3616.8298 
 6069000    231.69155   -4794.4705   -4347.6338   -4794.4705            0    7444.8964    19.940758    19.780321    20.513962    8091.4163    7855.9158    6417.9941    8060.7794   -173.12058   -244.94554    1383.7626   -3469.0988 
 6070000    234.59974   -4754.2326   -4301.7873   -4754.2326            0    6804.7373    20.030186    19.888394    20.463811    8152.1323    6626.9328    6051.9389    7735.3401   -53.623595    1662.1107   -1547.5835   -3492.7687 
 6071000    228.08873   -4746.0508   -4306.1625   -4746.0508            0    6507.7719    20.000019    19.868314       20.462    8130.9166    7260.4714    5809.1256    6453.7188    393.42567   -102.54921   -1508.6755   -3534.4639 
 6072000    250.84186   -4753.4253   -4269.6557   -4753.4253            0    5495.0948    19.717419    19.804053     20.94102      8177.15    5653.6154    6308.6535    4523.0154   -197.26334    55.340187    756.43429   -3614.3363 
 6073000    229.66346   -4785.5149   -4342.5896   -4785.5149            0    7826.0594     19.69933     20.02575    20.591606     8123.262    9070.0536    6338.5187    8069.6057   -903.20636    54.224156   -223.81676   -3415.4407 
 6074000    226.89046   -4770.9855   -4333.4081   -4770.9855            0    7797.7576     19.90088    19.639742    20.692951    8087.8019    6338.8108    9140.5936    7913.8684    -76.19201   -1104.4975   -722.83603   -3413.6447 
 6075000    226.70826   -4765.3489    -4328.123   -4765.3489            0    7820.2798    19.790131    19.976056    20.555216    8126.0683    8466.5483    7189.8453    7804.4458    460.58061    493.61502    1589.2643   -3401.3387 
 6076000    232.75688    -4764.025   -4315.1338    -4764.025            0    7524.3961    19.747855    19.951013    20.513772    8082.2153    7371.2737     7334.804    7867.1105   -360.49592    1048.6895    189.44646   -3428.2271 
 6077000    217.08831   -4770.8556   -4352.1825   -4770.8556            0    7670.9075    19.650571    19.833403     20.70712    8070.3452    6999.2407    7284.6629    8728.8189   -248.78097    616.43448    600.45284   -3449.3343 
 6078000    236.90277   -4721.4573   -4264.5704   -4721.4573            0    8292.5642    19.550765    20.058727    20.427885    8011.0697    9213.2076    6659.4337    9005.0512   -624.60949    850.58817   -323.04724   -3295.7233 
 6079000    224.36889    -4772.151   -4339.4367    -4772.151            0    7272.1722     20.05729    19.723687    20.527843    8120.8908    7035.8177    7690.1499    7090.5492    183.79471   -22.548921    646.48166    -3478.158 
 6080000    239.20909   -4758.6081   -4297.2733   -4758.6081            0    7447.6193    19.892523    19.885278    20.545459    8127.1331    6893.5706    8337.8718    7111.4156    118.89426    25.037749    611.44742   -3414.5375 
 6081000    229.87491   -4755.9609   -4312.6278   -4755.9609            0    5425.5019    19.831815    19.960627    20.642119    8171.2955    6978.7529    4661.3681    4636.3847    182.85513    623.87653    1313.1979   -3666.0709 
 6082000    214.33609   -4761.7312   -4348.3661   -4761.7312            0    6910.2001    20.077248    19.896686    20.486809    8183.8801    4846.3292     8168.975     7715.296    70.375263    106.78854   -1757.7111   -3523.6095 
 6083000    242.47744   -4768.8547   -4301.2165   -4768.8547            0    9420.5516    19.653878     19.92614    20.625907    8077.6402    10624.082      9300.63    8336.9428    70.429037    815.58564    893.02168    -3191.437 
 6084000     240.9337   -4749.5606   -4284.8997   -4749.5606            0    6641.6461    19.823674    19.757283    20.948169    8204.6004    7972.4382     6580.378    5372.1222    13.502259    578.64227   -364.16046    -3490.189 
 6085000     238.2429   -4789.5619   -4330.0905   -4789.5619            0    8097.2512    19.877156    19.951833    20.395869    8088.7099    7490.3108    8726.1227    8075.3199   -421.86574    4.4225462   -875.80742   -3374.8939 
 6086000    225.58707     -4756.64   -4321.5763     -4756.64            0    8646.9391    19.822145    19.475983    20.942298    8084.8949    9757.2907    9145.5906    7037.9359   -274.09491     698.5935   -527.15455   -3302.0166 
 6087000     232.2212   -4768.5806   -4320.7225   -4768.5806            0     7209.849    19.940221    19.756111    20.451856    8056.8296    5851.3971    8115.0237    7663.1263   -175.66255   -1331.5279   -156.22647   -3473.5609 
 6088000    233.23663   -4767.7541   -4317.9377   -4767.7541            0    6854.1967    19.789171    19.898978     20.72705    8161.9863    7020.6226    6328.8219    7213.1456    196.05598    544.01249   -887.51203   -3502.0539 
 6089000    212.54268    -4767.191   -4357.2846    -4767.191            0    7095.6133    20.137355    19.653316    20.495697     8111.496    5234.9929     8043.874    8007.9729   -139.84809    -731.7941    853.27897   -3517.8888 
 6090000    238.21923   -4788.4165   -4328.9907   -4788.4165            0    7144.9763    19.806974    19.932828    20.562518    8118.2672    7630.2968    5667.5193    8137.1127   -534.56792   -59.749589   -569.97957   -3483.0498 
 6091000    232.12168   -4774.3042   -4326.6381   -4774.3042            0    7405.2375     19.74018    19.801839    20.796592    8129.2189    6334.1191    8219.5432      7662.05    10.541813   -475.58493    -183.1281   -3448.7004 
 6092000     239.4216   -4788.8358   -4327.0911   -4788.8358            0    6951.1752    19.918756    20.084837    20.389143    8156.9819    6796.8908    6569.5116    7487.1231    1095.1701   -1009.0908     1421.337   -3500.1709 
 6093000    238.91693   -4753.2307   -4292.4593   -4753.2307            0     9321.011    19.646603     19.99711    20.537373    8068.6262    8557.6198      10044.2    9361.2129   -642.19007    890.84322   -526.11232   -3195.6314 
 6094000    234.44204   -4765.7321   -4313.5909   -4765.7321            0    8227.6466    19.841766    19.793235    20.581184    8082.9044    7562.9444    10015.055    7104.9405    68.599974    841.06451   -877.63572   -3343.7088 
 6095000    225.07153   -4774.8659   -4340.7965   -4774.8659            0    7572.0292    19.862415     19.75243    20.535545    8056.7299    8669.6057    7384.4684    6662.0135   -165.74214    57.460002     1023.574   -3451.0896 
 6096000    235.17243   -4750.2371   -4296.6873   -4750.2371            0     8495.787    19.727934    19.924236    20.631867    8109.6446    7955.1163    9045.7035    8486.5413   -288.98973    1181.0125    1029.1762   -3291.8834 
 6097000    224.54565    -4736.516   -4303.4608    -4736.516            0    7964.7468    19.947211    20.093836    20.214739    8102.3905    7993.3016    5032.4812    10868.458    802.54492    393.11404    791.40808   -3362.3061 
 6098000    227.36561   -4752.0023   -4313.5086   -4752.0023            0    8054.9368    19.819133    19.782614    20.587234     8071.725    9752.2471    6660.9483    7751.6151    535.11115     293.3533     907.3611   -3365.2989 
 6099000    231.30491   -4765.9963   -4319.9053   -4765.9963            0    8105.6241    19.799096    19.603916    20.870862    8100.8123    7332.0236    9983.8472    7001.0017   -406.08559    669.83896    2463.9499   -3362.2903 
 6100000    237.98421   -4779.1216   -4320.1491   -4779.1216            0    8579.9401    19.860136    19.932892     20.47388    8104.9939    7378.8637     10126.32    8234.6369   -436.78151    1342.2961   -1162.5749   -3305.9742 
 6101000    221.99597    -4784.231   -4356.0931    -4784.231            0    6651.3325    19.908235    19.892288    20.557514     8141.194    7140.2027     6122.306    6691.4887   -122.19411   -658.18273   -96.206631    -3566.374 
 6102000    231.17426    -4758.446    -4312.607    -4758.446            0    7381.4098    19.805802    19.799103    20.729914    8128.9687    6727.1946    7705.8724    7711.1624   -1665.7238    207.88037     385.6294   -3437.5212 
 6103000    245.25595   -4777.2546   -4304.2578   -4777.2546            0    6646.1124    20.200716    19.746434    20.563159    8202.4817     3983.707    8082.0243    7872.6059    138.54675    312.31065    193.78736   -3509.2181 
 6104000     240.3815   -4762.2911   -4298.6952   -4762.2911            0    7126.0967    19.795063    19.878386    20.715465    8151.4092    6560.6081    8611.4761    6206.2059   -604.21249   -923.69127   -445.73689   -3451.5452 
 6105000    238.32844   -4723.4794   -4263.8429   -4723.4794            0    9074.8892    20.142053    19.740126    20.282113    8064.3033    8826.4736     8333.131    10065.063    444.77524   -67.888876    1860.8381   -3196.5489 
 6106000    225.32343   -4774.7589   -4340.2037   -4774.7589            0    8105.9012    19.734337    19.968968    20.603744    8119.4067    8977.6356    6208.1753    9131.8928    142.82785    1462.9995    1556.2185   -3380.3578 
 6107000    231.02717   -4760.9946   -4315.4393   -4760.9946            0    6847.7848    19.915777    19.987605    20.512599    8165.4231    6689.9391    7571.1787    6282.2365    632.90485    970.65142    385.85474   -3499.9755 
 6108000    238.58635   -4756.8886   -4296.7548   -4756.8886            0    7737.5631    19.893552    19.840743    20.557085    8113.9401    7283.0564    7266.4322    8663.2009   -575.26536    -1800.806    1362.7751   -3381.1419 
 6109000    224.24688   -4747.5692   -4315.0903   -4747.5692            0    6142.4575    19.747118    19.841676    20.831714    8162.1967    5382.6515    6260.2894    6784.4317    431.52235    860.22032    59.794263   -3583.9089 
 6110000    237.24019   -4739.8662   -4282.3286   -4739.8662            0    8755.0693    19.984575    19.840288    20.338894    8064.3656    8451.3364    8115.0892    9698.7823    543.18223    1009.5616   -163.78497   -3252.6405 
 6111000    228.76463   -4723.8473   -4282.6555   -4723.8473            0     7862.698    20.081049    19.582367    20.701982     8140.733    7407.2574    7676.7746    8504.0622    324.92021    432.30659   -945.70303   -3349.1626 
 6112000    232.13449   -4748.5646   -4300.8737   -4748.5646            0     8030.384    19.769165    19.829512    20.657033    8097.8232    7275.2966    9212.1901    7603.6654   -913.85166    48.132256    1900.5896   -3352.4978 
 6113000    237.74962   -4791.5322    -4333.012   -4791.5322            0    8943.3219    19.908723    19.921248    20.189943    8007.4646    8329.9466    7294.6602    11205.359   -74.806072    789.05936     2208.166    -3288.605 
 6114000     231.7667   -4750.7736    -4303.792   -4750.7736            0    6237.8327    19.890731    19.902949    20.574941    8145.2944    5777.6878    6339.3353    6596.4748    247.98773    198.15462   -953.72095   -3562.7951 
 6115000    231.17785   -4757.0022   -4311.1563   -4757.0022            0    7486.4313    19.821043    19.858397    20.612179    8113.2452    7602.5808    7586.5879    7270.1253   -300.16833   -284.71415   -183.59493   -3425.3366 
 6116000    211.48483   -4747.4331   -4339.5668   -4747.4331            0    7092.4057    19.824841    19.781691    20.710095    8121.8545    8192.5522    6343.7596    6740.9052   -284.31401    1787.8627     320.9825   -3499.4791 
 6117000    210.53367   -4745.6021   -4339.5702   -4745.6021            0    7210.4353    20.012142    19.869719    20.396337    8110.3106    5924.3331    8041.5362    7665.4364   -347.82327     654.5156    720.78229   -3486.7159 
 6118000     224.2449   -4764.2013   -4331.7262   -4764.2013            0    7372.4347    19.848695    19.810583    20.585907     8094.671    5820.2698    9007.0827    7289.9516   -145.59979   -548.81933   -782.31509    -3461.392 
 6119000    235.90051   -4796.6386   -4341.6846   -4796.6386            0     7653.808    19.735986    19.834383    20.704996     8104.994    7886.3253    7872.6396    7202.4589   -1361.7857   -336.86076    316.85209   -3436.9813 
 6120000    224.47809   -4746.3225   -4313.3976   -4746.3225            0    7187.7223     19.97202    19.899984    20.455317      8129.82    6607.0475    6786.7251    8169.3944     -1133.55   -296.35973    258.48497   -3461.1847 
 6121000     221.1118   -4770.1363   -4343.7036   -4770.1363            0    7216.9504    19.829535    19.865762    20.769146     8181.565    5904.3272    8494.4217    7252.1022    63.678536   -537.28771   -276.22354    -3482.579 
 6122000    237.68288   -4745.8164    -4287.425   -4745.8164            0    9304.0824    19.884793    19.805184    20.517406    8080.2057    8482.9661    9856.7954    9572.4858    68.981289   -306.01639   -301.28976   -3191.0179 
 6123000    232.25971   -4767.5534   -4319.6211   -4767.5534            0    5653.2025    20.126493    19.798652    20.432035    8141.7049    2718.9284    7157.7121    7082.9672   -440.88545    1074.7962   -555.03111   -3648.3688 
 6124000     233.4404    -4756.742   -4306.5326    -4756.742            0    7207.9142    19.753464    20.145924    20.443687    8135.6019    7090.3775    7712.3332    6821.0319    685.43334    1736.2839    900.10344   -3451.3178 
 6125000    247.91268   -4763.9642   -4285.8438   -4763.9642            0    6055.9629    19.942991    19.722893    20.752323    8162.5836    7593.1484     5141.599    5433.1411   -252.25986    1703.3615   -80.336198   -3564.9243 
 6126000    228.12894   -4794.0974   -4354.1316   -4794.0974            0    6653.5883    19.813519    19.880457    20.761228    8177.8856    5908.2142    6460.8201    7591.7306    288.76043    237.67097   -1467.9463   -3560.5842 
 6127000    232.23907   -4775.0339   -4327.1413   -4775.0339            0    6842.0223    19.989875    19.998335    20.407587    8158.2231    6611.6131    5847.3359    8067.1178    64.386191   -211.76348   -406.71948   -3513.0822 
 6128000    228.11771   -4765.3595   -4325.4153   -4765.3595            0    8379.0057    19.884485    19.700088    20.669955     8096.961    7749.5979    9186.1023    8201.3167   -313.97389    277.61243   -551.28038   -3335.9732 
 6129000    240.74192   -4730.7633   -4266.4723   -4730.7633            0    7143.9639    19.733588    19.691616    20.831763    8094.9362    7810.5253    7162.6467    6458.7197    125.10007   -1391.3916   -884.61017   -3423.0821 
 6130000    219.77381   -4767.2163    -4343.364   -4767.2163            0    7171.1597    19.594153    19.935682    20.643135    8063.6795    7921.9428    7135.9614    6455.5749   -40.216072    1091.3771    708.38031   -3500.0321 
 6131000    224.22158   -4778.2443   -4345.8142   -4778.2443            0    6462.4336     19.75574    20.046698    20.371815         8068    5931.9248    6236.9152    7218.4609     213.3496   -474.04373   -319.23869   -3585.4216 
 6132000    230.70753   -4728.0242   -4283.0853   -4728.0242            0    8617.9455    19.937224    19.749946    20.546699    8090.4498    9605.2229    7841.3253    8407.2883   -336.79621    90.351814    127.14181    -3266.246 
 6133000    246.85421   -4755.6501    -4279.571   -4755.6501            0    8475.7297    19.697109    19.850979    20.614776    8060.5196    7940.9814    8585.4415    8900.7661    35.720913    195.64683    492.58455   -3283.2116 
 6134000     222.7673   -4752.6489   -4323.0234   -4752.6489            0    6164.9842    19.852458    19.901247    20.434403    8073.4012    6727.7377    5122.7372    6644.4777    277.68889    564.19939    466.72294   -3597.1442 
 6135000    235.76375    -4778.477   -4323.7868    -4778.477            0    8080.4923    19.960771    19.887027    20.414306    8103.6713    8107.3146    8351.0831    7783.0791   -682.35976    1053.0112    550.14438   -3368.8041 
 6136000    232.59734   -4762.6088   -4314.0253   -4762.6088            0     7110.508    19.962997    19.660654    20.709593    8128.2163    5525.2849    8072.2642     7733.975    120.05098   -314.67372   -489.24571   -3471.1336 
 6137000    224.18473   -4765.0713   -4332.7122   -4765.0713            0    6918.2068    19.661512    20.020988    20.617706    8116.0136    8653.9752    5378.1116    6722.5337   -108.72304    -1169.633   -298.54526   -3513.8474 
 6138000     231.5953   -4761.3542   -4314.7032   -4761.3542            0    10052.526    19.797191    19.826009    20.400909    8007.3426    10243.785    10119.386    9794.4073   -1220.7045   -913.32514   -146.16828   -3140.7805 
 6139000    220.99298   -4778.4413   -4352.2378   -4778.4413            0    8768.2764    19.861244    19.785756    20.525332    8065.8343    9778.1162    7306.8932    9219.8198   -482.87875   -1171.5593   -480.08164   -3320.8086 
 6140000    234.72382   -4763.6841   -4310.9995   -4763.6841            0    7938.6112    20.154074    19.705282    20.515921    8147.7279    6602.2118     8682.773    8530.8489     96.63079    646.11983   -520.17477   -3367.6841 
 6141000    239.99601   -4788.2907   -4325.4382   -4788.2907            0     6560.782    19.866241    19.907079    20.553112    8128.3205    7534.0335     5026.195    7122.1174   -294.35503   -1087.4279    549.09447    -3547.702 
 6142000     228.5533   -4771.4282    -4330.644   -4771.4282            0    6806.3425    19.803547    19.779558    20.751202    8128.3578    7333.5277     6182.253    6903.2467   -632.13382    484.33366   -474.81969   -3523.7945 
 6143000    229.18695    -4760.306   -4318.2997    -4760.306            0    7027.3828    19.930855    19.786374    20.464685    8070.4401    7949.7042    5814.4228    7318.0215   -849.49127   -1227.0768   -878.69099   -3491.1832 
 6144000    228.35271   -4755.5225   -4315.1251   -4755.5225            0    6779.1181    19.954415    19.756608    20.627916    8132.1754    6259.4105     6323.578    7754.3659    173.46851    30.948561   0.10241682   -3511.1255 
 6145000    235.27218   -4776.6828   -4322.9406   -4776.6828            0    7003.1185    19.992563    19.585158    20.808143    8147.5846    6939.0483    8599.7438    5470.5634   -155.01691   -111.94982   -292.31262   -3490.8009 
 6146000    224.34097   -4762.0799   -4329.4195   -4762.0799            0    8900.6167    19.741155    19.852615    20.496426     8032.827    10094.846     6810.287    9796.7167    594.25216   -524.79617   -195.28555   -3286.7074 
 6147000    225.64433   -4777.1679   -4341.9939   -4777.1679            0    5284.1394    19.779113    19.907792    20.719192     8158.357    5771.4698    4709.2725    5371.6759   -499.99427    -388.6936    -73.47418   -3713.2803 
 6148000    228.19902   -4764.9425   -4324.8415   -4764.9425            0    7415.4099    19.905384    20.034863    20.292005     8092.485    6529.4664    6853.6416    8863.1218   -250.00779    531.83886    638.32827   -3449.6704 
 6149000    228.36206   -4742.2265   -4301.8111   -4742.2265            0    6665.9557    19.977072    19.788018    20.582819    8136.5255    5729.5098    6402.4878    7865.8694   -1226.8616    946.21543   -229.55626   -3510.8096 
 6150000    228.97061   -4769.7998   -4328.2108   -4769.7998            0     7668.183    19.735735    19.855987    20.652381    8093.1002    8642.5346    7498.7347    6863.2797   -831.48919   -2268.0951    123.68404   -3423.1385 
 6151000    234.97918   -4734.1276   -4280.9505   -4734.1276            0    6717.5412    20.077989    19.870059     20.48017    8170.5807    7581.6606    5277.9068    7293.0561    341.07863    1093.4289   -894.61543   -3480.4914 
 6152000    233.65391   -4749.0294   -4298.4082   -4749.0294            0    8288.2476    19.799475    19.809689    20.656117     8101.772    7343.3306    9410.8991    8110.5131    880.58442    598.91413    453.93041   -3319.1017 
 6153000     228.9746   -4765.5501   -4323.9534   -4765.5501            0    7436.4557    19.993359    19.578476    20.642147    8080.1519    6565.4719    8803.6164    6940.2787    320.52049    173.45221   -933.11859    -3447.636 
 6154000    225.39303   -4754.6024    -4319.913   -4754.6024            0    7777.8459    19.984287    19.684655    20.558911    8087.5426    6955.8503    6160.4598    10217.228    483.84537    383.87802    220.51329   -3402.5277 
 6155000    229.97175   -4756.2517   -4312.7318   -4756.2517            0    9289.7919    19.643916    19.878073    20.498982    8004.5081    8312.7933     10238.59    9317.9926   -196.22638    199.56298    2024.1681   -3228.2644 
 6156000    224.98095   -4768.5148   -4334.6201   -4768.5148            0    8318.8188    19.868599    19.826226    20.541157    8091.5588     8639.757    8561.4358    7755.2634    273.46858   -280.68496     78.01775   -3352.9406 
 6157000       240.16   -4776.5544   -4313.3857   -4776.5544            0    6051.3143    19.964894     19.95143    20.475462    8155.9533    6542.5306    4854.9845    6756.4278     1048.564   -401.25625    596.68413   -3593.6047 
 6158000    221.74121   -4772.4928   -4344.8462   -4772.4928            0    7718.5988      19.8726    19.805101    20.614059    8113.2578    8058.4874    6431.1403    8666.1686   -226.69035    2518.6369    329.03914   -3431.5543 
 6159000    230.33536   -4775.8612   -4331.6401   -4775.8612            0     7995.296    19.827063    19.660676    20.690504    8065.4371    8789.9909    8287.5652     6908.332    547.80731    225.30595   -71.168257   -3391.1844 
 6160000    229.45665   -4753.8139   -4311.2874   -4753.8139            0    8241.8808    19.802926    19.957411    20.513509     8107.249    7877.2127    8536.1742    8312.2556    -175.9429    721.71319   -13.480255   -3336.8011 
 6161000    237.47451   -4783.8326   -4325.8431   -4783.8326            0    8339.2263    19.923846    19.785827    20.507458    8084.2404    9406.9893    6309.5096    9301.1799    142.60097   -852.96355    370.87977   -3342.6454 
 6162000    223.38196    -4747.514   -4316.7031    -4747.514            0    6466.2269    20.048055    19.827934    20.520854    8157.2758    4573.2558    8022.6763    6802.7486    96.725776    414.88591    605.70902   -3547.4451 
 6163000      224.874   -4734.0628   -4300.3743   -4734.0628            0    8019.4915    19.705413    19.888796    20.613989    8078.9714    8494.9312     7971.176    7592.3673    446.62497   -100.23795   -345.48767   -3355.4897 
 6164000    225.34676   -4765.9614   -4331.3612   -4765.9614            0    7985.3907     19.93769    19.758101    20.514078    8081.1295    7687.6488    8352.8226    7915.7006   -85.626262    884.26523    494.71598   -3390.2431 
 6165000    228.82923   -4758.8169   -4317.5005   -4758.8169            0    7788.7783    19.880471    19.804958    20.593261    8108.2234    7708.7658    7217.6098    8439.9594   -524.86825    1474.6843   -217.05145   -3396.4766 
 6166000    232.16489   -4744.4867   -4296.7372   -4744.4867            0    9164.8988    19.780379    19.963097    20.421853     8064.133    8823.2519    9546.8553    9124.5893    549.92826    1223.5768    22.149291     -3218.88 
 6167000    235.74436   -4769.5277   -4314.8749   -4769.5277            0    7298.7842    19.782053    19.699151    20.841204    8121.6016    8561.8958    7586.9691    5747.4876   -559.84781    446.56537    416.86181   -3450.3687 
 6168000    242.76197   -4752.1902   -4284.0033   -4752.1902            0    8010.1136    19.921173    19.852176    20.495358    8105.4761    7149.5114    8830.3515    8050.4781     13.88406   -592.14898    1645.8539   -3337.1274 
 6169000    244.02146   -4759.9846   -4289.3687   -4759.9846            0    6838.9758    19.862562    20.085337     20.39121    8134.9968    7651.9487    4812.5265    8052.4522   -765.63559    1757.1592    478.47445   -3477.9886 
 6170000    238.21615   -4768.6509    -4309.231   -4768.6509            0    7992.1096    19.831946    19.863029    20.611645    8119.3913    8044.3977    8817.9869    7113.9442    87.688059   -655.42326   -1390.4704   -3362.8614 
 6171000    239.21232   -4762.7423   -4301.4012   -4762.7423            0    5263.2161    19.844913    20.169129    20.439971    8181.1923    4218.3304     5567.883    6003.4349   -12.803666   -1347.6607    978.50237   -3673.4242 
 6172000    232.33931   -4774.1784   -4326.0925   -4774.1784            0    7706.3113    19.712622    19.835112     20.72215    8102.4034    8891.3432    7417.7102    6809.8804    539.53847    909.61984   -335.43713   -3415.4744 
 6173000    226.60467   -4778.6919   -4341.6657   -4778.6919            0    7444.7998    19.972294    19.911997    20.454305    8134.4369    4786.3226    10090.959    7457.1182   -505.65648   -64.837994   -324.35585   -3458.4711 
 6174000    231.81133   -4759.8398   -4312.7722   -4759.8398            0    8938.9985    19.596956    19.936225    20.619604    8055.8589     9106.546    9870.2058    7840.2437   -681.89076    139.12107   -449.90475   -3262.5611 
 6175000    232.47518   -4767.2717   -4318.9238   -4767.2717            0    7571.7873    19.827053    19.804896    20.518362    8057.0008    6719.4626     7657.506    8338.3932   -233.32253     246.9385    1655.9529   -3429.2154 
 6176000    229.34178   -4780.1922   -4337.8873   -4780.1922            0    7544.6637    19.916529     19.72767    20.559676    8078.0346    7788.5807    7800.9635    7044.4469   -624.12859    299.30089     348.9808   -3449.0516 
 6177000    234.88753    -4754.341   -4301.3406    -4754.341            0    8119.9361    19.652539    19.893881    20.561354    8038.7755    9144.3345    7972.2129    7243.2608    169.88336   -28.752833    520.25395   -3349.3813 
 6178000    228.29112   -4747.0746    -4306.796   -4747.0746            0    7570.6382    20.052809    19.778114    20.327836    8062.1567    5681.8395    9642.7706    7387.3045    421.07977    645.06599    386.90751   -3416.6533 
 6179000    229.25789   -4739.3966   -4297.2535   -4739.3966            0    6535.1501    19.929834    19.932177    20.615124    8189.2549    4717.2188    8466.6866    6421.5448   -643.05462    182.97643    925.35782   -3516.7482 
 6180000     231.9135   -4745.0411   -4297.7764   -4745.0411            0    8028.9534    19.746636    19.874348    20.613225    8089.6912    7317.9184    7951.8886    8817.0533   -141.46748    407.26319   -403.28701   -3350.5217 
 6181000    222.25516   -4752.8168    -4324.179   -4752.8168            0    8813.0984    19.990448     19.77565    20.435391    8078.6024    8189.7149    9550.9819    8698.5984   -216.46995    535.41931   -170.42987   -3285.8363 
 6182000    227.64447   -4752.2304   -4313.1989   -4752.2304            0    7924.0201    19.964487    19.927376    20.442585     8132.875    8000.4611    7823.7171    7947.8821   -8.4557882   -876.05638    328.27459   -3373.3337 
 6183000    227.13167   -4777.4228   -4339.3803   -4777.4228            0    8356.6525    19.924552     19.61067    20.708007    8091.3184    8668.6381    7664.5105    8736.8087    493.40385    584.48442    331.95914   -3353.2654 
 6184000    216.97867   -4746.9922   -4328.5306   -4746.9922            0    8917.3111    19.969156    19.436089    20.746435    8052.1538      9200.97    9117.7595    8433.2038   -354.38018    1008.3597   -225.12114   -3281.3493 
 6185000    238.89111    -4758.994   -4298.2724    -4758.994            0    6864.4125      19.7033    20.088568    20.595195    8151.8067    7322.6372     6631.165    6639.4354   -281.68001    70.579826    1189.0069   -3482.1917 
 6186000    243.88407   -4765.1095   -4294.7586   -4765.1095            0    7280.1247    20.130599    19.827956    20.442732    8159.6883    8043.6503    7419.5404    6377.1833    83.429403    248.18161   -82.115726   -3428.4188 
 6187000    235.29279   -4777.4692   -4323.6872   -4777.4692            0    7287.1192    19.834507    19.990979    20.475337    8118.7009    7538.2577    5410.3894    8912.7106    118.55738   -731.18569   -456.16685    -3460.871 
 6188000    239.93106   -4767.0287   -4304.3015   -4767.0287            0    8899.3956    19.753899    19.816818    20.570289    8052.4336    9072.3813    8517.2472    9108.5583   -392.82204   -802.34175    1158.4119   -3259.1878 
 6189000    229.25147   -4780.1314   -4338.0006   -4780.1314            0    9474.0501    19.742305    19.778734    20.591144    8040.3849    9718.4221    9890.6287    8813.0994    75.877465    543.75244   -876.35084   -3227.0662 
 6190000     236.7496   -4747.2092   -4290.6177   -4747.2092            0    7516.1237    19.779812    20.094588    20.508481    8151.4479    9045.6763    5834.5825    7668.1125   -74.325574    1437.9478    35.390933   -3397.0971 
 6191000    226.54374    -4747.583   -4310.6744    -4747.583            0    8547.3041    19.793865    19.811874    20.652464    8098.9371    10518.801    7106.1504    8016.9605   -178.92892    1062.9267    132.97227   -3301.1122 
 6192000     226.7797   -4742.3831   -4305.0194   -4742.3831            0    7438.9374    20.022298    19.780869    20.416982    8086.3184    5529.9182    7959.5409    8827.3532    -800.9488   -597.76154    545.09687   -3427.7406 
 6193000    228.84011   -4756.2293   -4314.8919   -4756.2293            0    6677.0614    19.808356    20.053444    20.489074    8138.7877    7799.3226    5524.9124    6706.9491    929.49047    1138.1494   -1072.8598   -3522.3523 
 6194000    233.54837   -4750.3599   -4299.9422   -4750.3599            0    6493.4221    19.864588    19.847761    20.677789    8152.5824    6973.6053    6570.0756    5936.5853   -309.48267    337.92101    1056.6117   -3527.8935 
 6195000    232.88159   -4772.6812   -4323.5495   -4772.6812            0    6669.6334    20.122013    19.773037    20.555164    8178.3511    6129.8309    7596.6629    6282.4063    -125.0394   -386.96827    662.90092   -3528.0432 
 6196000    229.77976   -4766.0043   -4322.8547   -4766.0043            0    8657.3871    19.589141    19.975075    20.708659    8103.1857    9688.0328    8024.0778    8260.0506     480.9754    235.60634    274.68487   -3299.7536 
 6197000    223.85678   -4742.3742   -4310.6475   -4742.3742            0     6169.416    19.777758    19.931071    20.566026    8106.9608    6763.0535    5611.1247    6134.0697     672.6222   -92.306428    361.30951   -3581.2269 
 6198000    231.66999   -4761.7637   -4314.9686   -4761.7637            0    8588.9781    19.794756    20.001891    20.557754     8139.484     7944.368    8865.4237    8957.1426    128.34535   -469.26143   -114.21721   -3295.4052 
 6199000    236.97013   -4758.1716   -4301.1548   -4758.1716            0    5231.1652     20.05658    19.781775    20.594756    8171.0674    3315.9738    7834.9537    4542.5682    393.00376    771.73493   -557.36009   -3677.7744 
 6200000    227.51443   -4772.0805   -4333.2998   -4772.0805            0    6470.8305    19.709892    20.122253    20.525583    8140.5988    8747.7553     4807.132    5857.6043     296.7671    861.63675   -104.97255   -3565.0681 
 6201000    217.54783   -4734.0852   -4314.5259   -4734.0852            0    10104.631    19.875889    19.669435    20.559085    8037.5233     7755.468    13054.616    9503.8094   -324.68488    1028.1049    254.13201   -3130.0708 
 6202000    234.69987   -4765.9669   -4313.3284   -4765.9669            0    6020.7663    19.881849    19.930584     20.47218    8112.2416    5735.0246      4700.23    7627.0442   -326.38483    142.98637     678.2182   -3601.0192 
 6203000    230.20547   -4778.5338   -4334.5632   -4778.5338            0    8224.0257    19.744191    19.844196    20.546244    8050.1744    7887.8412    8960.9592    7823.2765      110.153    1048.2344   -301.62324   -3369.0335 
 6204000    214.67615   -4754.5457   -4340.5247   -4754.5457            0    7631.6143    19.894365    19.617819      20.7131    8083.9923    8757.2546    8499.8793    5637.7089   -435.58107   -687.13123   -65.170162   -3440.7823 
 6205000    218.22841   -4779.1259   -4358.2541   -4779.1259            0    5881.5096    19.805591    20.023357    20.607735    8172.5003    8244.3878    3241.2531     6158.888   -325.06175     407.8308    1230.1023   -3657.2514 
 6206000    232.31686   -4788.9241   -4340.8815   -4788.9241            0    8030.9356    19.921705    19.776186    20.549052    8095.8197    6919.4066     9323.707    7849.6931   -27.959921   -239.97524    384.29305   -3392.6752 
 6207000    229.59677   -4755.7746   -4312.9779   -4755.7746            0    7415.9331      19.8934    19.925302    20.447754    8105.1218     6810.982    7560.0316    7876.7859   -665.94201   -1650.0508    171.92567   -3436.3783 
 6208000    228.98188   -4748.6986   -4307.0878   -4748.6986            0    7940.9784    19.730261    19.830035    20.702664    8099.9535    8138.7083    7351.6817    8332.5454   -86.852385   -359.81528    -622.2077   -3369.0238 
 6209000    237.09419   -4771.8711    -4314.615   -4771.8711            0     8223.287    20.001555    19.865499    20.257046    8048.9527    7703.0313    7835.4739    9131.3558   -227.74275    148.84816     650.8352   -3349.3186 
 6210000    244.08398   -4752.5355    -4281.799   -4752.5355            0    7595.7224    19.913631    19.955321    20.431966    8119.3135    7153.6116    8672.3102    6961.2454    84.454438    584.39877    635.38905   -3382.3754 
 6211000    227.23711   -4748.7323   -4310.4864   -4748.7323            0    8466.0638    19.987527    19.607561    20.663156    8098.0286    8886.0291    7931.1832    8580.9792    193.36667    455.70753   -484.64984   -3310.6321 
 6212000     242.0227    -4770.966   -4304.2048    -4770.966            0    9466.7937    19.787104    19.874732    20.451199    8042.7079     10043.38    9248.3823    9108.6187    -1134.178    362.86773    269.75124   -3193.8006 
 6213000    237.14674   -4745.0867   -4287.7292   -4745.0867            0    8759.4688    19.919854    19.567243    20.693473    8065.8321    9098.8512    9841.3742    7338.1809   -126.17605   -544.47435    1359.1862   -3257.3364 
 6214000    242.17451    -4773.112   -4306.0581    -4773.112            0    9474.7939    19.984201    19.922132     20.28474    8075.9209    9344.2728    9492.1155    9587.9935   -73.725193   -544.30295   -593.14323   -3190.1262 
 6215000    229.22793   -4811.1271   -4369.0417   -4811.1271            0    8050.9335     19.97317    19.833348    20.546683    8139.2569    6918.7685    8949.5534    8284.4786   -316.06827    11.288978    1067.1328   -3413.3741 
 6216000    218.16747   -4748.3905   -4327.6362   -4748.3905            0    6852.5724    19.566427     20.01927    20.716891    8114.9221     7397.389    7279.4118    5880.9165   -58.653951    587.02851    2196.4659   -3516.6492 
 6217000    214.47825   -4766.5264    -4352.887   -4766.5264            0    7333.6081    20.022707    19.717368    20.514807    8099.1448    5805.4207    9123.9318    7071.4719   -219.83699    1676.6121     424.1185    -3486.658 
 6218000    239.01207    -4754.764   -4293.8092    -4754.764            0    8095.6489    19.684137    19.962056    20.628364    8105.6234    9340.9526     7978.725    6967.2691    564.88262    682.26448   -833.58643   -3336.8047 
 6219000     222.7044   -4736.6789   -4307.1747   -4736.6789            0     6925.628    19.865425    19.999901    20.498806    8144.3093    5108.3898    7978.7264    7689.7677   -272.50717    37.855067    316.98515   -3484.5736 
 6220000    222.35165   -4774.4178    -4345.594   -4774.4178            0    7113.5788    19.921975    19.874315    20.555106    8138.4984    6301.9232    6949.2422     8089.571   -393.91703    297.68723    1582.9845   -3501.2716 
 6221000    234.09329    -4765.213   -4313.7444    -4765.213            0    7371.3053    19.940562    19.561717    20.702937    8075.6282    6888.9426    8825.4934    6399.4799   -259.20564   -296.28528    -503.6986   -3445.5908 
 6222000    234.29792   -4788.9427   -4337.0795   -4788.9427            0    6957.0127    19.814133    19.892342    20.597357     8118.438    6671.0764    8241.1327    5958.8291    423.79835     558.0735    558.74433   -3513.3755 
 6223000    230.11047   -4768.0179   -4324.2305   -4768.0179            0    8633.2868    19.966793    19.920135    20.286808    8068.8993     8769.267    8174.4446    8956.1487    321.22724    1228.2965    276.29888   -3308.2945 
 6224000    229.22472   -4765.7381   -4323.6589   -4765.7381            0    5744.9152     19.86369    19.987313    20.627591    8189.6029      5571.18    6758.6284     4904.937    447.94597   -630.86966   -255.22868   -3637.5037 
 6225000    227.35478   -4776.4989    -4338.026   -4776.4989            0    6995.3084    19.981163    19.530019    20.771524    8105.7236    4192.0172    9805.9275    6987.9806   -557.35841    301.53665   -158.16284    -3511.085 
 6226000    236.23748   -4777.3208   -4321.7169   -4777.3208            0    6383.0046    19.805096      19.9915    20.531284    8129.0247    5953.7926    6031.1114    7164.1099     -126.062    -730.1464   -408.40636   -3564.9895 
 6227000    242.62347    -4732.304   -4264.3842    -4732.304            0    8366.3471    20.070996    19.761063     20.59938    8170.2131    9707.5312    7748.3097    7643.2004    -518.2393    1021.5224    643.37164    -3267.499 
 6228000    242.97879   -4766.9492   -4298.3441   -4766.9492            0    6603.7686    19.822463    19.887674    20.592922    8118.1969    6693.7468    5772.3959    7345.1631   -610.95716    219.40996   -112.02851   -3516.4871 
 6229000    229.84113   -4756.3214   -4313.0535   -4756.3214            0     6331.147    19.928864    20.099583    20.585884    8245.9199    9708.8502    2956.1786    6328.4121   -1167.6665   -252.28073   -1066.5907   -3551.6806 
 6230000    243.52246   -4761.1406    -4291.487   -4761.1406            0    5843.3485    19.952167    19.853544    20.727418    8210.5705    6959.5012    5109.2073    5461.3369    455.61578   -22.040682    339.73553   -3591.7884 
 6231000    244.85054   -4771.1589   -4298.9441   -4771.1589            0     8684.909    19.821495    19.872568    20.615486    8120.5224    8494.2157    9612.3534     7948.158   -98.755254    2146.5976    230.19724   -3270.3948 
 6232000    234.52381   -4770.7277   -4318.4288   -4770.7277            0    8179.1022    20.016962    20.011381    20.274867    8121.4435    7732.3627    7567.7673    9237.1766    -668.9082    1289.0842    720.59219    -3349.672 
 6233000    240.70834    -4794.711   -4330.4847    -4794.711            0    7122.9693    20.006767    19.765864    20.553883    8128.0544     5609.095    8436.8128         7323   -646.53262    832.85099    475.99114   -3486.1326 
 6234000    229.44619   -4739.4698   -4296.9635   -4739.4698            0    8954.6782    19.782044     19.81979    20.617576    8083.6563    8455.7283    9715.6737    8692.6327   -341.17327    70.537564   -717.67002   -3241.2801 
 6235000    224.82994   -4766.3196   -4332.7162   -4766.3196            0    8050.8601    19.890893    19.983267    20.303852    8070.4772    7358.0552    8498.3453    8296.1797   -949.27584   -1009.9625    819.01845   -3385.1329 
 6236000    228.75548   -4775.9468   -4334.7726   -4775.9468            0    5860.3697    19.837278    19.910282    20.554103    8118.1679    5338.3975    7354.7509    4887.9608   -481.48318   -315.96485   -920.23956   -3640.9333 
 6237000    225.79666    -4752.404   -4316.9361    -4752.404            0    6883.8657    19.811618    19.862256    20.653077    8127.0565    6302.3117    7755.1874    6594.0981    305.48276   -518.96105     900.7293   -3501.0274 
 6238000    235.09766   -4761.1881   -4307.7825   -4761.1881            0    6731.2619    19.801083    19.863186    20.674894    8131.6966    7279.9148    6328.0289    6585.8418   -619.62327    126.06235    599.74694   -3509.5056 
 6239000    222.45045   -4756.5245   -4327.5101   -4756.5245            0    6743.6074      19.9957    19.937234    20.515907    8178.8499    5792.2461    7187.7006    7250.8756   -528.42927    551.64902      -1201.6   -3523.1317 
 6240000    226.57762   -4748.7845   -4311.8105   -4748.7845            0    6471.7421     19.89422    19.923387    20.600938    8165.3929    6961.3087    5719.7511    6734.1667    452.84944    498.26554   -229.58976   -3541.1303 
 6241000    219.98774   -4758.7543   -4334.4895   -4758.7543            0    6596.2042    19.967464    19.724816    20.646147    8131.5789    5566.6952    6837.4799    7384.4374    676.72003    -59.07394   -783.66547   -3552.2407 
 6242000    233.38249   -4763.4853   -4313.3876   -4763.4853            0     7186.873    19.837386    20.061303    20.469605    8146.1621    9431.8882    3396.5636    8732.1672     393.6204   -80.340214   -229.44257   -3459.5625 
 6243000     236.9196   -4750.6049   -4293.6856   -4750.6049            0     8101.344    19.832989    19.641675    20.790709    8099.0853    7139.0314    9966.5043    7198.4965   -192.31523    875.85587   -310.16519   -3336.7803 
 6244000    228.55595   -4743.8874    -4303.098   -4743.8874            0    7767.9562     19.82455    19.935266    20.472881    8091.0401    9311.4816    6823.1218    7169.2651   -458.47125    1466.2688   -139.94586   -3386.4829 
 6245000     248.2542   -4746.8207   -4268.0416   -4746.8207            0    8133.0262    19.698663    19.874286    20.630948    8076.9513    8061.4764    7403.5569    8934.0455   -163.97877    192.17134   -844.90223   -3310.0195 
 6246000    231.51156   -4730.6694   -4284.1798   -4730.6694            0    9412.5934    19.881311    19.764049    20.480138     8047.367    10315.519    9080.0518     8842.209   -265.84231    -265.3099    401.43691   -3179.4935 
 6247000     231.7915   -4766.5276   -4319.4982   -4766.5276            0    6512.4789    19.871472    20.001524    20.462262    8132.9251    6706.6524    6153.9468    6676.8374    352.53077      197.309   -69.342058   -3547.0507 
 6248000    230.43179   -4739.5336   -4295.1265   -4739.5336            0    6085.1912    20.010798     19.71847     20.68036    8160.1048    6502.9699    6126.2239    5626.3799    317.15236     1259.169    1404.9746   -3570.9476 
 6249000    221.98827   -4759.4878   -4331.3648   -4759.4878            0    8810.6905     19.76549    19.847394    20.547418    8060.6177    9702.5971    7231.4343    9498.0402   -388.98455    110.75027    100.52734   -3295.6166 
 6250000    246.51349   -4747.4987   -4272.0767   -4747.4987            0    9453.5356    19.797449     19.68238    20.704569    8067.7617    10087.648    9110.3448    9162.6138    162.71122   -771.70228    1122.7472   -3159.7735 
Loop time of 387.722 on 64 procs for 250000 steps with 972 atoms

Performance: 111.420 ns/day, 0.215 hours/ns, 644.791 timesteps/s
195.5% CPU use with 32 MPI tasks x 2 OpenMP threads

MPI task timing breakdown:
Section |  min time  |  avg time  |  max time  |%varavg| %total
---------------------------------------------------------------
Pair    | 28.638     | 37.654     | 46.458     |  71.7 |  9.71
Bond    | 1.1429     | 1.3308     | 2.0847     |  16.8 |  0.34
Kspace  | 170.16     | 178.99     | 190.43     |  38.2 | 46.17
Neigh   | 2.109      | 2.2468     | 2.5286     |   9.5 |  0.58
Comm    | 68.533     | 75.195     | 79.913     |  34.1 | 19.39
Output  | 0.56043    | 0.56234    | 0.56443    |   0.1 |  0.15
Modify  | 75.922     | 78.218     | 81.823     |  14.4 | 20.17
Other   |            | 13.52      |            |       |  3.49

Nlocal:        30.3750 ave          35 max          24 min
Histogram: 2 0 5 2 3 3 5 4 3 5
Nghost:        2695.09 ave        2732 max        2658 min
Histogram: 4 2 1 4 4 3 7 1 5 1
Neighs:        9734.09 ave       12902 max        7327 min
Histogram: 4 2 1 6 8 4 3 3 0 1

Total # of neighbors = 311491
Ave neighs/atom = 320.46399
Ave special neighs/atom = 2.0000000
Neighbor list builds = 6284
Dangerous builds = 0

unfix		3
unfix		2
unfix		1

write_data	data.final.${pid}
write_data	data.final.1
System init for write_data ...
PPPM initialization ...
  extracting TIP4P info from pair style
  using 12-bit tables for long-range coulomb (../kspace.cpp:340)
  G vector (1/distance) = 0.37325101
  grid = 24 24 25
  stencil order = 5
  estimated absolute RMS force accuracy = 0.0033056797
  estimated relative force accuracy = 9.9549563e-06
  using double precision FFTW3
  3d grid and FFT values/proc = 3458 576
Last active /omp style is kspace_style pppm/tip4p/omp
WARNING: Not all mixed pair coeffs generated from mixing. Use write_data with 'pair ij' option to store all pair coeffs. (../write_data.cpp:312)

write_restart   restart.lmp.${pid}
write_restart   restart.lmp.1
System init for write_restart ...
PPPM initialization ...
  extracting TIP4P info from pair style
  using 12-bit tables for long-range coulomb (../kspace.cpp:340)
  G vector (1/distance) = 0.37325101
  grid = 24 24 25
  stencil order = 5
  estimated absolute RMS force accuracy = 0.0033056797
  estimated relative force accuracy = 9.9549563e-06
  using double precision FFTW3
  3d grid and FFT values/proc = 3458 576
Last active /omp style is kspace_style pppm/tip4p/omp
Total wall time: 0:06:27
