LAMMPS (30 Jul 2021)
Processor partition = 0
  using 4 OpenMP thread(s) per MPI task
using multi-threaded neighbor list subroutines
variable        pid world 0 1
variable        phase world IceVI IceV

shell cd ${phase}
shell cd IceVI
include Restart.lmp
echo both
log log.lammps
#include		in.partitions
include		in.temp
variable        temperature equal 53.27
variable	tempDamp equal 100.0
include		in.pressure
variable        pressure equal 8196.1
variable        pressureDamp equal 1000.0 # This is 1 ps
include		in.seed
variable        seed equal 745823

units		real
atom_style	full
read_restart	restart.lmp.${pid}
read_restart	restart.lmp.0
Reading restart file ...
  restart file = 30 Jul 2021, LAMMPS = 30 Jul 2021
  restoring atom style full from restart
  orthogonal box = (0.043213261 0.020821089 0.035459096) to (24.686788 24.709180 22.774541)
  2 by 4 by 2 MPI processor grid
  restoring pair style lj/cut/tip4p/long/omp from restart
  restoring bond style harmonic/omp from restart
  restoring angle style harmonic/omp from restart
  1920 atoms
  1280 bonds
  640 angles
Finding 1-2 1-3 1-4 neighbors ...
  special bond factors lj:    0        0        0       
  special bond factors coul:  0        0        0       
     2 = max # of 1-2 neighbors
     1 = max # of 1-3 neighbors
     1 = max # of 1-4 neighbors
     2 = max # of special neighbors
  special bonds CPU = 0.001 seconds
  read_restart CPU = 0.006 seconds
include 	in.setup
variable	out_freq equal 1000
variable	out_freq2 equal 10000
variable	out_freq3 equal 1000

timestep	2.0

neigh_modify    delay 7 every 1

include		in.tip4p
# This is TIP4P/Ice

# create groups ###
group ox type 2
640 atoms in group ox
group hy type 1
1280 atoms in group hy

# set charges - beside manually ###
set group ox charge -1.1794
Setting atom values ...
  640 settings made for charge
set group hy charge 0.5897
Setting atom values ...
  1280 settings made for charge

# ### TIP3P Potential Parameters ###
pair_style lj/cut/tip4p/long/omp 2 1 1 1 0.1577 8.5
pair_coeff 1 1*2 0.000 0.000
pair_coeff 2 2 0.21084 3.1668
bond_style  harmonic
bond_coeff  1 450 0.9572
angle_style harmonic
angle_coeff 1 55 104.52
kspace_style pppm/tip4p/omp 1.0e-5
pair_modify tail yes

thermo          ${out_freq}
thermo          1000
thermo_style    custom step temp pe etotal epair emol press lx ly lz vol pxx pyy pzz pxy pxz pyz enthalpy

restart 	${out_freq3} restart.lmp.${pid} restart2.lmp.${pid}
restart 	1000 restart.lmp.${pid} restart2.lmp.${pid}
restart 	1000 restart.lmp.0 restart2.lmp.${pid}
restart 	1000 restart.lmp.0 restart2.lmp.0


include         in.dump
dump            myDump all atom ${out_freq2} dump.water.${pid}
dump            myDump all atom 10000 dump.water.${pid}
dump            myDump all atom 10000 dump.water.0
dump            myDump2 all dcd ${out_freq2} dump.dcd
dump            myDump2 all dcd 10000 dump.dcd
dump_modify     myDump append yes
dump_modify     myDump2 append yes


variable natoms 	equal  "count(all)"                        # NUMBER ATOMS
variable H      	equal  "enthalpy/v_natoms"                 # ENTHALPY-per-atom
variable Vol      	equal  "vol/v_natoms"                 # volume-per-atom
fix AVG all 		ave/time ${out_freq} 1 ${out_freq} v_Vol v_H file vol_enthalpy.dat
fix AVG all 		ave/time 1000 1 ${out_freq} v_Vol v_H file vol_enthalpy.dat
fix AVG all 		ave/time 1000 1 1000 v_Vol v_H file vol_enthalpy.dat




fix 		1 all shake 1e-6 200 0 b 1 a 1
Finding SHAKE clusters ...
       0 = # of size 2 clusters
       0 = # of size 3 clusters
       0 = # of size 4 clusters
     640 = # of frozen angles
  find clusters CPU = 0.000 seconds
fix             2 all nph aniso ${pressure} ${pressure} ${pressureDamp}
fix             2 all nph aniso 8196.1 ${pressure} ${pressureDamp}
fix             2 all nph aniso 8196.1 8196.1 ${pressureDamp}
fix             2 all nph aniso 8196.1 8196.1 1000
fix             3 all temp/csvr ${temperature} ${temperature} ${tempDamp} ${seed}
fix             3 all temp/csvr 53.27 ${temperature} ${tempDamp} ${seed}
fix             3 all temp/csvr 53.27 53.27 ${tempDamp} ${seed}
fix             3 all temp/csvr 53.27 53.27 100 ${seed}
fix             3 all temp/csvr 53.27 53.27 100 745823


run             250000
PPPM initialization ...
  extracting TIP4P info from pair style
  using 12-bit tables for long-range coulomb (../kspace.cpp:340)
  G vector (1/distance) = 0.3753383
  grid = 30 30 30
  stencil order = 5
  estimated absolute RMS force accuracy = 0.0031685521
  estimated relative force accuracy = 9.5420005e-06
  using double precision FFTW3
  3d grid and FFT values/proc = 7920 1800
Last active /omp style is kspace_style pppm/tip4p/omp
Neighbor list info ...
  update every 1 steps, delay 7 steps, check yes
  max neighbors/atom: 2000, page size: 100000
  master list distance cutoff = 10.8154
  ghost atom cutoff = 10.8154
  binsize = 5.4077, bins = 5 5 5
  1 neighbor lists, perpetual/occasional/extra = 1 0 0
  (1) pair lj/cut/tip4p/long/omp, perpetual
      attributes: half, newton on, omp
      pair build: half/bin/newton/omp
      stencil: half/bin/3d
      bin: standard
Setting up Verlet run ...
  Unit style    : real
  Current step  : 42000000
  Time step     : 2
Per MPI rank memory allocation (min/avg/max) = 12.57 | 12.57 | 12.57 Mbytes
Step Temp PotEng TotEng E_pair E_mol Press Lx Ly Lz Volume Pxx Pyy Pzz Pxy Pxz Pyz Enthalpy 
42000000    55.667985   -9948.4095   -9736.1777   -9948.4095            0    7656.5248    24.643574    24.688359    22.739082    13834.671    7357.3583    7854.2468    7757.9692   -226.52751   -310.25509    219.67363   -8191.3629 
42001000    53.426683   -9954.8843   -9751.1974   -9954.8843            0    9150.2108    24.636439    24.685244    22.613109    13752.309    8831.3822      8976.67    9642.5801    162.40457   -866.35915   -745.30489   -7916.0007 
42002000    55.153153   -9965.6326   -9755.3636   -9965.6326            0    8035.5059    24.651528    24.651103    22.719967    13806.637    7961.9704     8118.174    8026.3733     107.3528   -715.95625     25.74858   -8137.3692 
42003000     54.41057   -9961.4892   -9754.0513   -9961.4892            0    8572.5786    24.635274     24.65608    22.697253    13786.523    8974.5509    8300.2488    8442.9362   -168.25449   -281.85426    521.17355    -8030.429 
42004000    52.603131    -9963.599   -9763.0519    -9963.599            0    7699.1094    24.646035    24.648024    22.742819    13815.718    7667.8719     7764.544    7664.9123   -655.37677   -116.60108    243.02136   -8211.7731 
42005000    52.739171   -9951.9668    -9750.901   -9951.9668            0    8469.8941    24.607243    24.664248    22.718024    13788.003    8394.6886    8425.0366     8589.957   -26.715774    204.41773     802.5664   -8047.7418 
42006000     54.50062   -9954.9787   -9747.1975   -9954.9787            0    7737.9012    24.661924    24.682875    22.692861    13813.762    7471.9206    7790.5228    7951.2603    107.71629   -211.74637    220.04794   -8188.3235 
42007000    52.029791   -9954.5382    -9756.177   -9954.5382            0    8320.6799    24.631565    24.602198    22.749048     13785.71    8133.6228    8999.1352    7829.2818     225.8711    294.49663    641.47766   -8083.3006 
42008000      53.2196   -9961.7018   -9758.8045   -9961.7018            0    8160.2927    24.615847    24.659634    22.728185    13796.413    8719.9643    7802.4622    7958.4517    12.298689   -308.71216    408.50328   -8116.9003 
42009000    55.323332   -9956.6819   -9745.7641   -9956.6819            0    7862.8679    24.708519    24.668467    22.656599    13809.679    6971.1208      8206.55    8410.9328   -128.96629   -295.61378    629.22231   -8162.1825 
42010000    54.103317   -9953.6562   -9747.3897   -9953.6562            0    8939.8427    24.597577    24.620901    22.737989    13770.456    9174.7328    8812.1275    8832.6679   -429.61497   -330.70953    -329.7825   -7952.0192 
42011000     52.93895   -9961.2325   -9759.4051   -9961.2325            0    7683.6017    24.665275    24.705995    22.677565    13819.259    7641.1128    7211.5676    8198.1248    65.296207    467.55054    587.79511   -8210.8542 
42012000    54.032718   -9952.4742   -9746.4768   -9952.4742            0    7778.6181    24.680434    24.627454    22.725516    13812.938     8028.244    8011.1219    7296.4884   -390.22593   -361.64048    -318.2955   -8179.4934 
42013000    55.615715   -9961.0652   -9749.0327   -9961.0652            0    8226.3622    24.615413    24.687511    22.691768    13789.635     8205.788    8209.2865    8264.0119   -239.67352   -12.946241    356.26068   -8094.6482 
42014000    50.567981   -9957.7709   -9764.9827   -9957.7709            0    8095.2742    24.643328    24.678582    22.690839    13799.715    7600.4458    8226.5019    8458.8749    -84.54037    410.72674   -395.26671   -8135.7708 
42015000    52.606804   -9954.1179   -9753.5568   -9954.1179            0    8437.6997    24.657288    24.683321    22.651638    13786.325    8211.1923    8297.1786    8804.7282   -380.96595   -541.69922    469.97557   -8057.0779 
42016000    54.200051   -9957.8966   -9751.2613   -9957.8966            0    8151.0474    24.624882    24.702762    22.681248    13797.062    7896.7918    7776.2909    8780.0594    178.18808   -476.94743   -363.24826   -8111.1401 
42017000    54.074518   -9954.6434   -9748.4867   -9954.6434            0    8630.4241    24.617726    24.654629     22.69162    13772.472    8222.6143    8645.1024    9023.5557   -305.01971   -711.60967    226.88564   -8015.0023 
42018000    53.047922   -9961.6555   -9759.4126   -9961.6555            0    8143.6982    24.641542    24.618657    22.729314    13788.549    8274.7508    8365.7984    7790.5455   -252.93653    122.09037   -423.08177   -8121.7813 
42019000    52.103338   -9955.7038   -9757.0621   -9955.7038            0    7747.4548    24.600576    24.662726     22.76417    13811.415    7921.6038    8256.8045    7063.9562   -4.9499139   -17.164577   -608.95956   -8196.5285 
42020000    52.519926   -9957.8456   -9757.6157   -9957.8456            0    8489.1566    24.577157     24.67663     22.72439     13781.92     8515.872    8590.5073    8361.0905   -277.96671    111.64593   -250.39784   -8051.3363 
42021000    53.815565   -9963.2746   -9758.1051   -9963.2746            0    7971.9304    24.637134    24.644733    22.730794    13801.584    8481.0008     8195.751    7239.0394   -94.871572   -283.58321    458.07148   -8153.4995 
42022000    52.833882   -9951.2281   -9749.8012   -9951.2281            0    8026.5275    24.711174     24.60521    22.715334    13811.459    7369.5895    8832.0013    7877.9917   -15.242022   -459.66663    520.83383   -8133.0502 
42023000    52.529486   -9966.2586   -9765.9922   -9966.2586            0    7549.0621    24.652703    24.716367    22.676268    13817.223    7568.1133     7347.403    7731.6699    -50.25492   -204.03088   -280.09603   -8244.7805 
42024000    57.678557   -9960.7952   -9740.8983   -9960.7952            0    8410.0174    24.606133    24.647305    22.738474    13790.313    8352.6289     8693.391    8184.0324   -414.49672   -277.22354   -392.80859   -8049.4961 
42025000    53.163204   -9958.1832   -9755.5009   -9958.1832            0    7475.8246    24.618257    24.681034    22.759402    13828.705    7885.9497    7605.4391    6936.0852   -22.348629    -131.4931     559.3755   -8247.7955 
42026000     53.95816   -9952.5082   -9746.7951   -9952.5082            0     8534.639    24.621807    24.684657    22.686997    13788.723    8725.5034    8247.6403    8630.7733   -16.400783   -832.46606    241.02729   -8030.5272 
42027000     54.22282   -9961.4976   -9754.7755   -9961.4976            0    7782.5383    24.670762    24.658418    22.705435    13812.668    7516.7243    8236.7261    7594.1646    246.22785   -123.48716    86.585637    -8187.033 
42028000    52.812138   -9961.6551   -9760.3111   -9961.6551            0    7323.1423    24.602664    24.726349    22.724737    13824.231    7626.6184    7180.8107    7161.9976   -529.36121   -610.32541   -476.95511   -8283.8761 
42029000    52.497431   -9958.1961    -9758.052   -9958.1961            0    8621.5915    24.585101    24.687519    22.696103    13775.289    9306.4514    8118.0777    8440.2452   -136.07523   -581.91963   -88.458977   -8025.9875 
42030000    54.047894   -9953.6329   -9747.5777   -9953.6329            0    8106.0042    24.619586    24.695966    22.696213    13799.398    8325.8182    7661.6995    8330.4949   -483.85641   -437.19081     551.0852   -8116.2438 
42031000    55.753153   -9956.3322   -9743.7758   -9956.3322            0    8343.6648    24.621823    24.630454    22.740192    13790.714    8409.4866    8605.7995    8015.7085    374.29768   -173.58548   -416.89762   -8065.6694 
42032000    55.133074   -9956.1563   -9745.9639   -9956.1563            0    7979.5348    24.629694    24.662282    22.713245    13796.581    8196.1363    8151.7438    7590.7244   -124.90219   -342.29476   -3.1412678   -8140.4098 
42033000    54.871693   -9960.0267   -9750.8308   -9960.0267            0    8041.6047    24.641028    24.670239    22.701567    13800.283    7592.6214    8566.6326    7965.5602   -40.367057   -131.08332    116.94456   -8132.3535 
42034000    52.848277    -9964.929   -9763.4473    -9964.929            0     8176.148    24.690522    24.632003    22.674051    13789.836    7531.0435    8739.9309    8257.4697   -191.71984   -351.68326    559.03087   -8119.1371 
42035000    51.760403   -9959.8689   -9762.5346   -9959.8689            0    8619.7171    24.597225    24.589185    22.788174    13782.873    8352.5086    9264.1347    8242.5079   -273.27797   -180.22242    712.71197   -8029.8933 
42036000    53.628893    -9959.867   -9755.4092    -9959.867            0    8097.7914    24.627399    24.664154    22.723593    13802.628    7657.3594    8331.3308    8304.6842   -84.382845    222.88426    72.390295   -8125.3468 
42037000    52.813959   -9957.3346   -9755.9837   -9957.3346            0    7818.6433    24.586904    24.685313    22.756031    13811.441    8271.7971    7724.4553    7459.6774     232.5178   -137.53046    77.208998    -8181.108 
42038000    53.367023   -9950.0527   -9746.5933   -9950.0527            0    8616.9863    24.637749    24.695916    22.645935     13778.96    8037.9069    8856.4233    8956.6286   -404.38846    101.61951   -291.12362   -8014.9927 
42039000    51.822687   -9958.5113   -9760.9395   -9958.5113            0    7675.7832    24.695787    24.620872    22.710744    13808.855    6845.4082    8417.8048    7764.1366   -50.094482   -516.26185   -110.10375    -8215.129 
42040000    53.654419     -9960.53   -9755.9749     -9960.53            0    8416.2259    24.699812    24.686908    22.595012    13777.579    8618.7185     7890.148    8739.8112   -204.35836   -129.34867   -517.28939   -8064.8869 
42041000    52.807491    -9965.242   -9763.9158    -9965.242            0    8311.5805    24.650473    24.651988    22.688464    13787.397    8258.7919    8598.3847     8077.565   -354.60396   -534.72105    168.33567   -8092.6643 
42042000    53.468053   -9961.0887   -9757.2441   -9961.0887            0    7798.2748    24.569689    24.647037    22.797904    13805.727    8327.6704    8195.7887    6871.3654   -260.34288   -575.83686    107.65163   -8187.1209 
42043000    54.235787   -9956.9997   -9750.2281   -9956.9997            0    8354.0444     24.65734    24.661192    22.684533    13793.997    7975.8191    8221.0931    8865.2211    148.78849   -333.89943    537.46849   -8069.6341 
42044000    54.683791   -9960.6388   -9752.1592   -9960.6388            0    8383.3153    24.637032     24.69107    22.667254    13788.823     8465.539    7937.2705    8747.1363    620.07305    48.894353   -18.601834   -8066.3094 
42045000    52.825295    -9969.412   -9768.0179    -9969.412            0    7767.7103    24.736657    24.678691    22.619607    13808.554    7075.5654    7332.0956    8895.4699   -72.114211   -615.44019     581.1603   -8203.7285 
42046000    53.455162   -9950.0718   -9746.2763   -9950.0718            0     7877.905     24.66873    24.645671    22.727429    13817.763    7324.8669    8494.3044    7814.5436   -370.09899   -39.056227    65.332036   -8158.7375 
42047000    52.093934    -9954.295   -9755.6891    -9954.295            0    8607.5672    24.627599    24.668922    22.679303      13778.5    8616.9332    8384.6846    8821.0839   -149.62295   -436.12205    693.42546   -8026.0391 
42048000    51.970072   -9955.7319   -9757.5983   -9955.7319            0    7994.6194    24.608888     24.68209    22.727255    13804.508     7848.621    8284.4117    7850.8255   -430.18439   -515.12916    460.92319   -8148.0849 
42049000    55.118325   -9957.5743   -9747.4381   -9957.5743            0    8454.4689    24.624928    24.645976    22.694934    13773.678     8225.067    8785.8125    8352.5271      -316.12   -314.90993    224.24333    -8049.147 
42050000    54.458444    -9956.304   -9748.6836    -9956.304            0    7467.1675     24.66827    24.655204    22.738873     13829.81    7221.1778    7478.9442    7701.3807    49.542009   -416.80625    233.32203   -8242.6037 
42051000     54.33232   -9960.0971   -9752.9575   -9960.0971            0    8508.1787    24.649876    24.678766    22.654625    13781.455    8006.1504    8692.4519    8825.9339   -252.23968   -311.93336    205.81699   -8042.9125 
42052000    53.231376   -9955.3142   -9752.3719   -9955.3142            0    8458.1974    24.664589    24.710885    22.607608    13778.971    7891.0752      8378.81     9104.707   -192.87683   -359.05942    91.955447   -8052.6789 
42053000    54.297439   -9962.6202   -9755.6136   -9962.6202            0    7902.8581    24.642179     24.59086    22.787056    13808.327    8058.3918     8630.573    7019.6095    197.89077   -425.27939    238.98907   -8164.1338 
42054000    52.667165   -9954.4849   -9753.6936   -9954.4849            0     7735.519    24.623514    24.646057    22.766755    13816.518    8351.2953    7587.3893    7267.8724   -2.1746185    24.795342    650.35673   -8194.9885 
42055000    54.223224   -9954.0555   -9747.3319   -9954.0555            0    8505.5818    24.601467     24.67975    22.700196    13782.607     8614.949    8853.7797    8048.0168   -285.13896    638.06167    280.51549   -8037.6659 
42056000    52.211771   -9941.1239   -9742.0689   -9941.1239            0    8847.7955    24.625161    24.677111    22.665698    13773.442    8476.6832    9056.0579    9010.6454    145.55473   -594.26132    397.70901   -7964.7987 
42057000    53.991485   -9959.9236   -9754.0835   -9959.9236            0    8078.5419    24.597066    24.666855    22.748595    13802.307    8217.4273    7921.8488    8096.3495   -250.97091    304.81094    423.79092   -8127.9337 
42058000    51.745464   -9953.8132   -9756.5359   -9953.8132            0    8411.7768    24.629125    24.619231    22.746877    13792.571    8906.2067    8274.1786    8054.9452    239.91042   -180.78443    486.28875   -8064.5027 
42059000    52.618781   -9956.4913   -9755.8845   -9956.4913            0    7951.0323    24.620904    24.623643    22.783375    13812.565    7794.5833    8065.5448    7992.9689    113.91808   -393.49922   -946.09398   -8154.2119 
42060000    51.759296   -9959.9015   -9762.5715   -9959.9015            0    8211.7674    24.611711     24.76297    22.624096     13788.46    8195.3597    7647.5948    8792.3478   -389.04303   -632.53109    318.97168   -8111.2627 
42061000    52.835556   -9960.9719   -9759.5387   -9960.9719            0    8155.3918    24.655071    24.640871    22.701224    13791.503    7940.1586    8357.3696    8168.6472   -454.29217    186.96723    38.056324   -8119.2046 
42062000    52.847288   -9960.4562   -9758.9783   -9960.4562            0    7817.1876    24.651994    24.691326    22.691887    13812.335    7958.6171    7666.9783    7825.9675    -436.2558    195.97028   -376.14505   -8184.2939 
42063000    55.446248   -9953.6361   -9742.2498   -9953.6361            0    8642.9796     24.55425    24.667208    22.742771    13774.951    9626.5266    8480.1612    7822.2509   -163.96926   -90.941503    503.40225   -8005.9311 
42064000    54.431217   -9964.3864   -9756.8698   -9964.3864            0    7682.4694    24.665059    24.673541     22.73174    13833.954    7055.5927    7728.6259    8263.1894   -679.21056   -379.04089    486.58492   -8206.9007 
42065000    52.070327   -9960.4903   -9761.9745   -9960.4903            0    8556.8243    24.605004      24.6674    22.709166    13783.135    9310.4371    8299.4984    8060.5373   -245.87477    27.010607     -68.7212   -8041.9426 
42066000    55.005289   -9947.9835   -9738.2783   -9947.9835            0    8780.8278     24.69907    24.647903    22.613713    13766.782     8491.882    8507.7563    9342.8451   -507.42739    403.30741    4.6669487   -7975.3129 
42067000    50.976848   -9958.6521   -9764.3051   -9958.6521            0    8179.9542    24.650366    24.674671    22.694823    13803.892    8229.2628    8109.5376    8201.0622   -103.03404   -413.67531    2.7267225   -8117.5527 
42068000    52.586412   -9960.3883   -9759.9049   -9960.3883            0    8730.0932    24.563787     24.69248    22.700697    13768.899    8781.9338    9149.5381    8258.8077   -30.410759   -381.87631   -354.29999   -8006.8562 
42069000    53.613544   -9964.1734   -9759.7741   -9964.1734            0    8345.9861    24.656143    24.632948    22.691293    13781.636    7741.6583    8886.9595    8409.3406   -109.82412    351.87521    65.755341   -8082.3058 
42070000    52.968022   -9962.0228   -9760.0846   -9962.0228            0     8458.692    24.601227     24.65628    22.738775    13792.766    8640.5917    8544.1487    8191.3356    98.231639   -149.10741   -800.29819   -8058.5904 
42071000    54.818657   -9965.8255   -9756.8318   -9965.8255            0    7788.5075     24.63758    24.751112     22.64663    13810.085    8109.2296    7396.2762    7860.0167    81.063111    57.303924    424.01764   -8188.1803 
42072000    56.058792   -9959.3186   -9745.5969   -9959.3186            0    8700.4533    24.650679    24.619135     22.69415    13772.589    8238.0908     8674.936    9188.3332   -357.68492    280.56996   -386.64756   -7998.0318 
42073000    52.093387   -9966.2916   -9767.6878   -9966.2916            0    8146.1125    24.654945    24.608458    22.733544      13792.9    7514.4089    8958.8465     7965.082    193.06071   -719.38137    990.65146   -8129.0542 
42074000    54.677862   -9959.9828   -9751.5258   -9959.9828            0    7667.6437    24.612953    24.686111     22.73729    13815.134    7920.2899    7791.2571    7291.3843   -359.93055    -244.3233    324.58597   -8206.6524 
42075000     52.78669   -9948.3066   -9747.0597   -9948.3066            0    8400.6235    24.632613     24.66349    22.698492    13789.928     8221.194    8449.7752    8530.9013   -46.197263   -31.423152    149.18038   -8057.5938 
42076000    53.736498   -9960.0706   -9755.2026   -9960.0706            0    8151.5736    24.715068    24.691791    22.614329    13800.605    7944.9019    7883.6205    8626.1983    116.63389   -405.25494    119.04092   -8114.5544 
42077000    53.200286   -9963.6857   -9760.8619   -9963.6857            0     8551.835    24.645598    24.624611    22.704246    13778.941    8582.4294    8079.6109    8993.4647    100.32745   -193.42832    517.78603    -8042.356 
42078000    53.324732   -9950.7645   -9747.4663   -9950.7645            0    8323.8105    24.621749     24.62412    22.756361     13796.93    8857.7278     8632.572    7481.1316   -168.97144   -84.609795    463.91156   -8072.5986 
42079000    53.463866   -9960.7949   -9756.9662   -9960.7949            0     8322.333    24.645928    24.666384    22.682907    13789.527    7973.6372    8748.4741    8244.8877    324.86566     118.6666     341.4871   -8083.2942 
42080000    54.266654   -9962.2761   -9755.3869   -9962.2761            0    8363.1963    24.651686    24.635352    22.719711    13797.747    8381.9472    8243.0761    8464.5656   -269.18999   -548.63392   -213.76437   -8072.4944 
42081000    54.355782   -9956.5216   -9749.2925   -9956.5216            0    7892.7062    24.659613    24.692168    22.686187    13813.604    8236.4674    7519.6906    7921.9605   -324.21439   -550.75573     133.9759   -8159.2497 
42082000    52.760663   -9952.3973   -9751.2496   -9952.3973            0    8885.2824    24.619764      24.6501     22.68995    13770.069    8884.5506    9255.4242    8515.8724   -530.15753    283.08685    40.341061   -7966.8865 
42083000    52.279142   -9966.6458   -9767.3339   -9966.6458            0    7645.2532    24.638834    24.691438    22.721279    13822.904    8112.4287    7365.6042    7457.7267     55.58392    403.98677    662.18542   -8226.1053 
42084000    53.592235   -9947.4369   -9743.1188   -9947.4369            0    9045.1347    24.558732    24.702544    22.689684    13764.995    9794.6681    8267.8231     9072.913    150.94429    219.51638    238.62538   -7927.3231 
42085000    51.719539   -9954.3622   -9757.1838   -9954.3622            0    7952.0302       24.615    24.668757    22.737329    13806.594    8108.9117    8120.3358    7626.8432   -649.52405    479.74571   -411.94754   -8156.0026 
42086000    54.872315   -9961.0334   -9751.8351   -9961.0334            0     8157.954    24.618804    24.679319    22.692717    13787.535    8662.9734    8030.8537     7780.035   -6.3332874   -251.79045    107.01244   -8111.4578 
42087000    53.564557   -9961.1904   -9756.9779   -9961.1904            0    7905.4342    24.672791    24.679721    22.679348    13809.854    8008.3272     7824.565    7883.4105   -143.64219   -485.25545    288.29727   -8164.8032 
42088000    54.375148   -9952.4201   -9745.1172   -9952.4201            0    8803.5449    24.656113    24.704027    22.616004    13775.528    8705.4715    7925.6274    9779.5358    101.06096   -787.84731   -89.653313   -7976.4679 
42089000    51.393524   -9959.9721   -9764.0366   -9959.9721            0    8387.1945     24.61635    24.661318    22.710538    13786.923    8372.2345    8567.4064    8221.9426     135.4544    97.591822   -3.9297215    -8077.639 
42090000    52.887858   -9954.6711   -9753.0385   -9954.6711            0    7942.3405    24.619205    24.666998    22.752943     13817.45    8042.9356    7985.1208    7798.9651   -423.69168   -472.20064    290.86427   -8152.5509 
42091000    53.100204   -9961.7387   -9759.2965   -9961.7387            0    8490.2641    24.611334     24.67574    22.693626    13781.904    9119.1249    7999.3959    8352.2716    161.15822   -842.56418    -286.2566   -8052.7964 
42092000    53.060038   -9955.2125   -9752.9234   -9955.2125            0    7856.1969    24.688057    24.715056    22.619017    13801.371    7298.4921    7822.7915    8447.3072   -449.93005   -253.14216    228.54921   -8171.6372 
42093000    54.835593   -9961.1877   -9752.1294   -9961.1877            0    8244.6761     24.66232    24.663583    22.673208    13791.232    7751.7453    8314.0505    8668.2326    -361.1116   -493.95672   -205.96136   -8093.8696 
42094000    54.156552    -9962.874   -9756.4045    -9962.874            0    7897.3202    24.613846     24.68795    22.730267    13812.397    8489.6515    7589.7022    7612.6071   -346.97701   -219.89608    55.457619   -8165.5712 
42095000    50.741573   -9964.1123   -9770.6623   -9964.1123            0    7627.6284    24.577001    24.685649    22.782856     13822.34    7820.4874    7600.4712    7461.9267   -783.02684    130.05792    398.27488   -8233.0495 
42096000    54.316287   -9963.7355   -9756.6571   -9963.7355            0    7950.5692    24.599657    24.686172    22.737969    13808.117    7590.8433    8197.0578    8063.8065   -318.37802   -913.99008   -33.388205   -8155.5935 
42097000    55.140794   -9959.1661   -9748.9443   -9959.1661            0    8248.5061    24.649113    24.690313    22.657112    13788.989    8194.0559    7841.6886    8709.7737   -345.59735   -180.85438    160.13062    -8090.184 
42098000    52.634044   -9968.5016   -9767.8367   -9968.5016            0    7940.3936     24.69632    24.664021    22.654633    13799.176    7477.1902    7929.6731    8414.3174   -224.50918   -419.96611    251.42236   -8169.8577 
42099000    53.005288   -9949.5448   -9747.4645   -9949.5448            0    8609.0327     24.62745     24.65076    22.689191    13774.275    8721.5901     8135.915    8969.5929    48.372819   -270.79395   -468.61555   -8018.0504 
42100000    53.758672   -9965.6272   -9760.6746   -9965.6272            0    8277.7265    24.612571    24.646148    22.742358     13795.63    8157.6674    8394.5223    8280.9899   -85.438167    16.753677    509.53816   -8095.2365 
42101000    52.548544   -9960.7017   -9760.3627   -9960.7017            0    8050.9792    24.613453    24.675256     22.72783    13803.594    8611.6457    7672.4387    7868.8531   -297.42926    89.165645   -344.82882   -8139.6099 
42102000    54.412382   -9950.6915   -9743.2467   -9950.6915            0    8950.2813    24.628943    24.659895    22.660489    13762.783    8849.3837    9004.6555    8996.8046   -365.08148   -274.83351   -117.88614   -7946.7813 
42103000    53.805131   -9959.4833   -9754.3536   -9959.4833            0    8072.4192    24.658477    24.645002    22.714556    13803.822     8166.019    8427.5133    7623.7253   -104.10762   -496.16532    908.69283   -8129.2578 
42104000    53.140511   -9959.0535   -9756.4577   -9959.0535            0    8324.7197     24.61737    24.686275    22.687577    13787.494    8388.3494    8320.8023    8265.0074     429.3406    -60.26711     13.39241   -8082.5526 
42105000    53.656133   -9954.5132   -9749.9516   -9954.5132            0    8145.5136    24.701642    24.596537    22.711014    13798.641    7553.7649    8825.2959    8057.4799    256.72396   -82.769482    95.859597   -8110.7564 
42106000    53.578512   -9964.1948   -9759.9291   -9964.1948            0    8288.8949    24.622646    24.692908     22.67923    13789.079    8503.6377    7730.8194    8632.2274     24.50655   -659.09989    363.97496   -8093.0359 
42107000    54.324678   -9964.4336   -9757.3231   -9964.4336            0    8086.5823    24.632409    24.621925    22.763005    13805.702    8068.5365    8571.0358    7620.1748   -476.08035   -622.50566   -98.721003   -8129.1544 
42108000    53.515687   -9956.8284   -9752.8022   -9956.8284            0    8255.8555    24.534198    24.646197    22.806462     13790.49    9154.0036    8088.2083    7525.3544   -339.27629   -43.836131   -156.22211   -8092.3833 
42109000     52.71884   -9960.7012    -9759.713   -9960.7012            0    7981.2138    24.652072    24.668976    22.697501    13803.289    7654.8776     8252.152    8036.6118    69.121847    34.143493   -137.63447   -8153.0403 
42110000    54.766072   -9967.1464   -9758.3531   -9967.1464            0    8649.2279    24.630834    24.682017    22.656375    13773.686    8584.7795    8544.2499    8818.6542   -60.818802    403.33247   -25.601918   -8020.9387 
42111000    54.012581   -9954.9589   -9749.0383   -9954.9589            0    8655.4684    24.568889    24.688723    22.698118    13768.099    8581.2123    8814.1344    8571.0584   -390.69788    33.140728    733.77756   -8011.0757 
42112000    53.856643   -9959.1595   -9753.8334   -9959.1595            0     8249.766    24.663339    24.669029    22.682812    13800.691    7706.4509    8433.1664    8609.6808   -138.61248   -319.30826   -594.86433   -8093.4119 
42113000    53.013272   -9954.9881   -9752.8773   -9954.9881            0    8277.9506    24.592961    24.725315    22.679145    13790.478    8485.5996    7918.8557    8429.3966    -122.9996   -619.24744    28.400792    -8088.016 
42114000    56.346285   -9955.5238   -9740.7061   -9955.5238            0    8267.9572    24.675872    24.647886    22.679081    13793.601    8003.3201    8496.3538    8304.1976   -29.871603   -271.19447    43.294421   -8077.4782 
42115000    54.440334   -9949.8259   -9742.2746   -9949.8259            0      8586.72    24.631624    24.626007     22.72676    13785.565    8951.8593    8377.5163    8430.7844   -249.02902    20.047547     173.8793   -8015.9289 
42116000    53.511129   -9960.9209   -9756.9121   -9960.9209            0    8359.9011    24.596412    24.715359    22.669181    13780.803    8529.1874    7962.1251     8588.391   -597.37754    54.535025    951.14913   -8076.7486 
42117000    51.959139   -9962.2886   -9764.1967   -9962.2886            0    8752.8055    24.652938    24.631611    22.682225     13773.59    8510.5116    8796.5658    8951.3391   -265.67757   -159.51974   -173.74226   -8005.9884 
42118000    52.162702   -9965.5587   -9766.6907   -9965.5587            0    8304.3125    24.648609    24.658658    22.689546    13790.743    7770.4864    8632.2232    8510.2278   -187.34802   -590.35934    728.99587   -8096.4955 
42119000    52.837615   -9955.5783   -9754.1372   -9955.5783            0    8555.6242    24.625173    24.695532    22.647897    13772.906    8742.3983    8284.9971    8639.4771   -195.26091   -199.95281    499.14562   -8035.6229 
42120000    51.289033   -9956.6516   -9761.1144   -9956.6516            0    7963.8549    24.696266    24.663759    22.670264    13808.521    8200.8838     7826.999    7863.6819    -41.07061   -116.98648    23.586403   -8157.3286 
42121000    53.055258   -9963.0925   -9760.8217   -9963.0925            0    7895.6866    24.638986    24.693456    22.698476    13810.246    7978.0651    7402.0794    8306.9155   -503.15494   -134.02099    460.33289   -8170.5651 
42122000       54.026   -9957.5223   -9751.5505   -9957.5223            0    8023.7333    24.625794    24.647774    22.750882    13809.126     8237.213    8349.4149     7484.572    -561.2649   -332.95601    14.680664   -8135.6353 
42123000    51.813004   -9956.8397   -9759.3049   -9956.8397            0    8249.9472    24.676268    24.633138    22.695654    13795.642     7577.041      8433.06    8739.7408   -151.88961   -99.000301   -174.07937   -8099.4543 
42124000    54.347253   -9957.9456    -9750.749   -9957.9456            0    7576.8395    24.649448    24.667246    22.752389    13834.226    7681.2717    7511.0591    7538.1876    -276.3941   -280.15584   -115.15303   -8222.0611 
42125000     54.94131   -9955.1495   -9745.6881   -9955.1495            0    8424.3521    24.667272    24.591644    22.727371    13786.623    8618.5883    8802.5624    7851.9057     -26.7301    -1113.427    449.39157   -8051.8562 
42126000    53.927847   -9960.0773   -9754.4797   -9960.0773            0    8395.1975    24.596368    24.700142    22.695785    13788.456    9288.5229    7646.3691    8250.7004   -96.233685   -806.34006    480.18574   -8066.2854 
42127000    52.949349   -9950.9616   -9749.0945   -9950.9616            0    8539.1756    24.649628    24.608346    22.721439     13782.52    7920.0999    9364.6978    8332.7289    135.24463   -41.187633   -152.60353   -8032.6868 
42128000    51.365036   -9955.6183   -9759.7913   -9955.6183            0    7814.1931    24.616671     24.70542    22.714987    13814.464    8241.6136    7009.4276    8191.5381   -38.505598   -432.51381     42.56174   -8185.4675 
42129000    53.834238   -9954.5393   -9749.2986   -9954.5393            0    8670.5122    24.661594    24.640683    22.665028    13773.051    8557.2396     8857.209    8597.0879     56.34097   -337.90674   -235.73176    -8007.689 
42130000    54.050716   -9969.9179    -9763.852   -9969.9179            0    7904.0694    24.673786     24.66643    22.673062    13799.148    7534.1419    7748.3468    8429.7194   -8.9602577   -127.29423    366.53117   -8173.1863 
42131000    53.451975   -9966.8397   -9763.0564   -9966.8397            0    7799.5268    24.638589    24.690938    22.695796    13806.984    7673.9079    7389.6709    8335.0017   -22.642802   -425.49002    621.36151   -8192.5382 
42132000    53.109006   -9960.4369   -9757.9612   -9960.4369            0    7662.3734    24.620604    24.646291    22.759427     13810.57    7796.7495    7850.3882    7339.9826    15.002262   -254.09034    513.38198   -8214.6596 
42133000    52.873366    -9959.608   -9758.0306    -9959.608            0    8228.7035    24.681032    24.623932    22.698616    13794.949    7924.8456    8402.4824    8358.7825   -25.205441    46.063609    -277.7347   -8102.5374 
42134000    52.921411   -9968.6966   -9766.9361   -9968.6966            0    7364.1537    24.630933    24.682245    22.756611    13834.807     7416.759     7330.888     7344.814   -22.231818   -642.99942    374.09227   -8281.0968 
42135000     51.52598   -9961.7211   -9765.2806   -9961.7211            0    8599.6189    24.573007    24.701894    22.698624     13778.06    9055.5696    8144.8581     8598.429   -316.86685   -238.54004   -161.81435   -8037.2828 
42136000     52.36312   -9955.9042   -9756.2721   -9955.9042            0    7324.0898    24.671752    24.718117    22.678229    13830.074    6922.1611    6915.9818    8134.1267   -198.58656    111.73923    77.688944   -8279.0219 
42137000    53.124157   -9963.0145    -9760.481   -9963.0145            0    8282.0946    24.617512    24.740252    22.642143    13790.049    8213.8115    7589.1975    9043.2747   -181.04428   -337.05869    -208.1564   -8094.8381 
42138000    53.809424   -9957.5467   -9752.4007   -9957.5467            0    8501.8634    24.696795    24.675387    22.614196    13781.158    7849.4523    8410.9998     9245.138    162.08585   -246.81345   -294.03266   -8043.6617 
42139000    52.380276   -9962.4215    -9762.724   -9962.4215            0    8183.2596    24.623537    24.704376    22.664708    13787.149    7833.2659    8230.7707    8485.7423   -171.98343   -584.66346    417.48357   -8117.3043 
42140000     53.61837   -9959.3033   -9754.8856   -9959.3033            0    8434.3263    24.597022    24.647837    22.733948    13782.761    9150.3733    8432.4818    7720.1239    172.62206   -407.36473   -142.77421   -8059.5233 
42141000    53.282007    -9962.303   -9759.1677    -9962.303            0    8688.1325    24.635498    24.627848    22.702839     13774.25     8626.613    8723.0301    8714.7542   -506.05224    100.34032    244.29069   -8013.8668 
42142000    53.272192   -9964.6939    -9761.596   -9964.6939            0    8103.5842    24.631332     24.71842    22.649969    13790.379    8222.9433     7618.818    8468.9911   -455.27033   -312.27426   -355.21261    -8131.815 
42143000    54.119338   -9967.0436    -9760.716   -9967.0436            0    7132.2396    24.693223    24.660106    22.725257    13838.261    6906.9126    7427.2251    7062.5812   -196.30299   -431.79415     273.8123   -8321.3099 
42144000    53.220765   -9962.7334   -9759.8315   -9962.7334            0    7820.2709    24.633553    24.689997    22.710935    13812.844    7147.4104    8425.0425    7888.3598   -426.00789    -233.2888   -442.45626    -8184.468 
42145000    55.270174   -9953.1222   -9742.4071   -9953.1222            0    8102.9831    24.686834    24.732757    22.594668    13795.705    7941.9709    7700.1665     8666.812    -205.1112   -241.86004   -658.33003   -8112.1177 
42146000    53.169011   -9963.0661   -9760.3616   -9963.0661            0    7793.1828    24.683103    24.592465     22.76208        13817    6764.7906    8707.0443    7907.7135   -101.97737   -649.93688    704.31623   -8189.9825 
42147000    51.863163   -9955.5644   -9757.8384   -9955.5644            0    8566.9207    24.635531    24.659152    22.697605    13788.598    8641.6643    8365.5932    8693.5048    22.635401   -245.07078   -109.71038   -8035.0944 
42148000    52.884437   -9963.3173   -9761.6977   -9963.3173            0    8660.3518    24.656318    24.647313    22.666979    13774.995     8459.333    8537.1739    8984.5484   -756.06003   -77.615873    748.52922   -8021.8835 
42149000    52.637413   -9956.4512   -9755.7734   -9956.4512            0    8215.9052    24.644627    24.674738    22.699952    13803.834    8072.4208    8205.1633    8370.1314    98.336064   -81.015903   -36.830426   -8101.7904 
42150000    51.811416   -9958.7932   -9761.2645   -9958.7932            0    8421.5682    24.644028    24.661949    22.689705    13790.117    8181.3994    8886.2833    8197.0219   0.54073593   -523.25284    332.20334   -8067.5632 
42151000    54.810397   -9960.6231   -9751.6609   -9960.6231            0    8367.8023    24.645715    24.645688    22.702017    13789.446     7962.127     8980.169    8161.1108    10.763404     255.2953    135.27277   -8068.8546 
42152000    52.641556   -9962.5282   -9761.8346   -9962.5282            0    7892.3001    24.636724     24.60935    22.768075    13804.142    7862.5884    8347.0764    7467.2356    258.06616   -89.900823   -659.52301   -8172.9627 
42153000    54.233526   -9959.2596   -9752.4967   -9959.2596            0     8187.692    24.572661    24.687188    22.753881    13803.185    8420.3102    7816.5262    8326.2396    256.26368    414.52519     151.7942   -8104.2709 
42154000    52.787459    -9962.433   -9761.1832    -9962.433            0    8624.5935    24.635742    24.657176    22.680547    13777.249    8498.8428    8763.5634    8611.3742   -453.55587    293.38705   -94.038963    -8028.269 
42155000    54.333182   -9962.5858   -9755.4429   -9962.5858            0    8486.3239    24.673007    24.701639    22.623117    13787.969    8191.6444    7844.1977    9423.1298   -362.94139    -368.6531   -140.62613   -8048.9842 
42156000    50.482817   -9965.5259   -9773.0624   -9965.5259            0    8922.6707    24.568028    24.682841    22.695951    13763.023    9121.8196    8079.1068    9567.0857   -33.392469   -303.94924   -238.79721   -7982.1077 
42157000    53.073845   -9958.6352   -9756.2935   -9958.6352            0    8026.9465    24.639917    24.655381    22.708976    13795.852    8212.9404    8196.8946    7671.0045   -340.35594   -26.815037    285.25379   -8141.2851 
42158000    53.906905   -9966.0506   -9760.5329   -9966.0506            0    7651.6401    24.650481    24.657675    22.732168    13817.147    7963.5226    7412.3732    7579.0246     170.9013   -736.10168   -308.81936   -8218.6592 
42159000    56.102817   -9962.1794   -9748.2898   -9962.1794            0    8212.9786    24.617144    24.673624    22.698581    13786.986     8531.224    8075.6312    8032.0806   -363.49762    389.87227    364.80057   -8096.9141 
42160000    51.094492   -9952.7069   -9757.9114   -9952.7069            0     8152.425     24.65814    24.687056    22.671726    13801.116    7634.1863    8076.3467    8746.7421   -564.15088   -149.99468    933.68602   -8117.0311 
42161000    51.038434   -9959.7668    -9765.185   -9959.7668            0    8315.3067    24.653995    24.629917    22.702267    13785.404    8460.8785    8905.2681    7579.7736   -103.46253   -18.332341    534.00931   -8093.4261 
42162000    51.900367   -9957.8691   -9760.0013   -9957.8691            0    7892.6952    24.667242    24.630452    22.728853    13809.263     7462.353    8474.9571    7740.7755   -417.61925    -384.9212   -124.46414   -8170.4603 
42163000    53.133205   -9951.0274   -9748.4594   -9951.0274            0    9159.1405     24.62506    24.719069    22.596483    13754.673    9110.5414    8360.5214    10006.359   -489.40714   -220.81189    3.4640243   -7911.1559 
42164000    52.188766   -9960.5653   -9761.5979   -9960.5653            0    8314.2228    24.644802    24.686281    22.671413    13793.027    8316.7227    7942.9935    8682.9523   -398.46787   -177.39839    197.77138   -8089.1325 
42165000     53.44169   -9957.1569   -9753.4128   -9957.1569            0    8731.6017    24.641914     24.62197    22.714525     13781.64    8504.1596    8886.8328    8803.8127   -94.981686   -314.18559    166.99335   -7998.4388 
42166000    54.922412   -9963.2248   -9753.8355   -9963.2248            0    7652.5363    24.619585     24.69253    22.733024    13819.856    7625.5261    7597.3221    7734.7606    27.539812   -424.65729    653.71602   -8211.4789 
42167000    50.796861   -9959.0152   -9765.3544   -9959.0152            0    8422.9378    24.728634    24.609492    22.642843    13779.509    7346.6631    9003.9487    8918.2015   -135.86754   -78.283564    241.66845   -8072.6807 
42168000    54.141675    -9952.581   -9746.1682    -9952.581            0    8107.4551    24.636647    24.665364     22.70732      13798.6    8497.0915    7893.8692    7931.4046    15.097661    199.86817   -57.308219   -8114.6368 
42169000    52.172787   -9948.4185    -9749.512   -9948.4185            0    9058.2048    24.584772    24.611588    22.753549    13767.496    9205.3226    9201.6446    8767.6471   -258.94519   -41.923541    1030.3089   -7930.7621 
42170000    51.962144   -9958.6816   -9760.5782   -9958.6816            0    7900.4004    24.611797    24.656624    22.745431    13802.924    8068.4862     8074.632     7558.083   -182.06438   -304.18556    485.76797   -8170.2158 
42171000    54.365535    -9967.757   -9760.4908    -9967.757            0    7851.3896    24.683242    24.663209    22.678336    13805.845    7146.2165     8376.452    8031.5004   -42.776283   -726.86273   -302.30957     -8179.66 
42172000    53.556771   -9960.0695   -9755.8866   -9960.0695            0    8492.9379    24.655038    24.654139     22.66753    13778.429    8061.1342    8762.4671    8655.2123    -124.0687   -155.21477    -417.7264   -8049.2795 
42173000    53.468971   -9954.2791    -9750.431   -9954.2791            0    8640.6407    24.663944    24.659863    22.640286    13770.036     8304.717    8786.9494    8830.2558   -2.2631345   -72.822553   -61.382966   -8015.2015 
42174000    52.346462   -9959.8323   -9760.2637   -9959.8323            0     7942.783    24.691654     24.63096    22.684986    13796.535    7523.8251    8855.0346    7449.4895   -37.434572   -350.46707    27.682998   -8162.1097 
42175000    52.989958   -9960.3974   -9758.3755   -9960.3974            0    8071.2667    24.625541    24.686212    22.694335    13796.143     8138.261    7915.4195    8160.1196   -384.54103    93.900174   -100.19771   -8134.4157 
42176000    52.094165   -9955.8015   -9757.1948   -9955.8015            0    8425.2225    24.673906    24.619433    22.704874    13792.248     7902.631    8975.3291    8397.7074   -258.90664    403.55638    476.59553   -8062.4968 
42177000    52.047465   -9952.8079   -9754.3792   -9952.8079            0    7912.5688    24.612876    24.686875    22.723926    13807.398    8014.3217     7472.283    8251.1019   -280.31366    278.51685    263.25739    -8161.051 
42178000    53.533435   -9962.2633   -9758.1694   -9962.2633            0    8011.7987    24.583139    24.726634    22.695121    13795.417    8544.9113    7525.5686    7964.9163    9.4141227   -413.31705    278.68408   -8146.2595 
42179000    53.712778   -9962.2436    -9757.466   -9962.2436            0    8296.0173    24.593654    24.715309    22.681354    13786.629    8555.9691    7619.1657    8712.9173   -220.86469   -37.136623    179.10453    -8089.437 
42180000    53.294293   -9967.4469   -9764.2647   -9967.4469            0    8195.3968    24.639999    24.641204    22.714933    13791.582    7854.6861    8567.3072    8164.1971   -207.60808   -520.75297    278.07415   -8115.8747 
42181000     52.42358   -9956.9923   -9757.1297   -9956.9923            0    8029.3069    24.628792    24.649904    22.746473    13809.324    8341.6977    8195.6103    7550.6127    63.881277    235.15733    346.80446   -8140.0688 
42182000    53.656383   -9949.9814   -9745.4188   -9949.9814            0    8576.1553    24.622244     24.64605    22.710126    13781.437    7853.9364     9013.391    8861.1384   -492.65274    433.17376    151.36783   -8021.7134 
42183000    52.792541   -9963.9764   -9762.7072   -9963.9764            0     7162.025    24.624683    24.722757    22.741405    13844.741    7464.0789     6595.521    7426.4752   -160.65361   -442.63843   -296.98191    -8316.613 
42184000    54.675797    -9960.848   -9752.3989    -9960.848            0    8344.2741    24.677351    24.614598     22.69112     13783.11    7634.2164    8607.3774    8791.2286   -1.6184856    181.39751   -254.08281   -8075.0954 
42185000    54.309796   -9950.5731   -9743.5194   -9950.5731            0    8513.2768     24.65161    24.648513    22.690123    13787.098    8438.2352    8646.1584    8455.4367    571.89519   -387.75303   -159.81998    -8031.749 
42186000    54.205568   -9953.7551   -9747.0987   -9953.7551            0    8077.3195    24.651866    24.714916     22.65368     13802.18    7566.4016    8059.0281    8606.5289    87.065524    46.069562    86.723738   -8121.2099 
42187000    52.077857   -9967.1489   -9768.6044   -9967.1489            0    7835.1145    24.661315    24.664052    22.697712    13805.837    7859.9873     7982.959    7662.3973   -136.83751   -343.25704    290.34706   -8191.0513 
42188000    54.314862   -9952.9165   -9745.8435   -9952.9165            0    8359.7607    24.626262    24.633323    22.737979    13793.464    8057.5863    8518.8317    8502.8641    -147.6136    197.52069     161.2163   -8064.1645 
42189000     52.76231   -9967.0744   -9765.9204   -9967.0744            0    8386.6656    24.581145    24.687821    22.706136     13779.33    8486.4748    8260.5085    8413.0133    355.28259    -235.1029    108.49426   -8080.5579 
42190000    53.125424   -9951.3059   -9748.7676   -9951.3059            0    7920.4763    24.695479    24.691316    22.658568    13816.376    6819.0271    8068.9285    8873.4735    59.854143    -185.6098    443.97362     -8152.81 
42191000     53.11187    -9955.199   -9752.7123    -9955.199            0    8486.3959    24.635146    24.672519    22.684137     13787.67    8400.1852    8247.5667    8811.4358   -40.655393   -102.14862    256.56632   -8046.2761 
42192000    53.710788   -9956.4665   -9751.6965   -9956.4665            0    7905.4594    24.698235    24.612993     22.71533    13808.592    7587.6097    8471.7218    7657.0466   -260.18443   -253.62497   -8.2487201   -8159.6622 
42193000    53.784165    -9959.329   -9754.2792    -9959.329            0    8547.9175    24.552917    24.654005    22.768633    13782.485    9134.0777    8566.6357     7943.039   -434.46754    54.477864    251.89761   -8036.1186 
42194000    52.908019   -9961.4101   -9759.7006   -9961.4101            0    7760.1137    24.667458    24.642855    22.726526    13814.923    7498.1455    7919.7219    7862.4737   -421.94949    531.93716    38.033573   -8196.2202 
42195000    52.769288   -9955.7501   -9754.5695   -9955.7501            0    8518.7219    24.586985    24.709888    22.689242    13784.659    9158.2387    8014.3977    8383.5295   -735.55654   -125.01647    277.93668   -8042.0073 
42196000    54.541584   -9956.0178   -9748.0804   -9956.0178            0    8577.3421    24.639215    24.624452    22.704999     13775.74    8861.7375    8464.6004    8405.6886    161.32918   -24.662417    -36.93971   -8024.8491 
42197000    52.104551    -9955.352   -9756.7056    -9955.352            0    7713.3607    24.653034    24.671607     22.71204    13814.143    7996.3072    7782.3723    7361.4027   -584.35781    123.39718   -58.697297   -8202.7326 
42198000    54.805016   -9964.4167    -9755.475   -9964.4167            0    7735.2416    24.646337     24.66304    22.728277    13815.464    7559.3742    8033.5905    7612.7601   -82.018353   -899.55959   -136.22164   -8196.9446 
42199000     53.15406   -9951.3017   -9748.6542   -9951.3017            0    8369.5084    24.575907    24.715006    22.706368    13791.705     9380.543    7986.6277    7741.3545      192.957    -253.9701   -323.51253   -8065.2291 
42200000    54.501545   -9961.7968   -9754.0121   -9961.7968            0    8487.9868    24.591803    24.703308    22.689128     13783.62    8994.4996    7687.9965    8781.4643   -185.50996   -74.906278    337.09487   -8047.7573 
42201000    53.215164   -9950.7665    -9747.886   -9950.7665            0    8251.0933    24.672057     24.65764    22.677245    13795.808    7773.6467    8633.3925    8346.2406   -252.95534   -595.95543    268.10869   -8087.7849 
42202000    51.848107   -9960.0634   -9762.3948   -9960.0634            0    7560.4582     24.64406    24.686619    22.722068    13823.618     7651.246    7262.4443    7767.6843   -116.33642   -532.15962     657.3213   -8238.1815 
42203000    52.132216   -9960.3356   -9761.5839   -9960.3356            0    9010.4876    24.607312    24.632927    22.708542    13764.785    8639.3631    9559.5351    8832.5645   -618.91035    -68.45885    355.50966   -7952.7711 
42204000    54.289996   -9957.4362   -9750.4579   -9957.4362            0    8364.0603    24.614134    24.659513    22.727939    13795.235    8105.0724    8578.6401    8408.4683   -140.03066   -294.23652   -7.1517854    -8067.698 
42205000     53.71193   -9964.7389   -9759.9645   -9964.7389            0    8136.4364    24.608926    24.661133    22.720724    13788.844    8490.1038    7843.9036    8075.3017   -395.66526   -296.59715    170.57162   -8123.7585 
42206000    51.687399   -9972.6845   -9775.6285   -9972.6845            0    7819.8658     24.62852    24.678016    22.720888     13809.37    7897.2262    7694.3887    7867.9826    -255.7708     88.94381    402.33567   -8200.7428 
42207000    53.526428   -9958.9275   -9754.8603   -9958.9275            0      8198.09    24.661206    24.609021    22.725679    13791.945    8210.1604    8010.2301    8373.8796    104.74738   -102.31082     62.84942   -8105.8853 
42208000    53.955574   -9961.1044   -9755.4011   -9961.1044            0     8373.745    24.661251    24.665906    22.659042    13783.317    7851.7904    8500.0547    8769.3898   -180.36137   -565.18773   -62.620348   -8072.1483 
42209000    54.627009   -9955.3508   -9747.0877   -9955.3508            0    8576.8406    24.637002    24.625228    22.711612    13778.949    8047.0719    9273.3525    8410.0973    324.51633   -232.23858    160.62966   -8023.5559 
42210000    53.572346   -9956.8669   -9752.6247   -9956.8669            0    8290.9924    24.585708    24.700854    22.719317    13797.168    8172.8346    8060.5463    8639.5963   -126.08664   -672.75199    286.73738   -8084.3316 
42211000    53.372464   -9953.7099   -9750.2297   -9953.7099            0    8222.6974    24.605067    24.664068    22.740613    13800.393     8475.324    8020.3447    8172.4235   -248.65744     78.39255    392.64067    -8095.292 
42212000    52.726809   -9960.7863   -9759.7677   -9960.7863            0    7823.8758    24.669636    24.619336    22.731758    13806.135    7579.4606    8211.4583    7680.7085   -251.10702   -889.73464    273.19396   -8184.4435 
42213000    52.127899   -9958.6794   -9759.9441   -9958.6794            0    8289.4289    24.654744    24.700378     22.65006    13793.468    7655.8797    7833.5232    9378.8838    99.946124    57.875528    89.697899   -8092.4129 
42214000    52.127947   -9950.4824   -9751.7469   -9950.4824            0    8178.7175    24.601417    24.738182    22.657605     13789.29    8752.7938    7619.7045    8163.6542   -317.51193    -362.2308    289.51306   -8106.9852 
42215000    51.441099   -9956.1169        -9760   -9956.1169            0    8302.2308    24.570844     24.67247    22.754031    13794.026    8989.6828    7798.4304    8118.5792    172.30221    179.42185    361.44376   -8089.8259 
42216000    52.869326   -9963.6991   -9762.1371   -9963.6991            0     8126.414    24.654729    24.652118     22.69342    13792.864    7755.5345    8510.3515    8113.3561   -173.24098   -358.59981   -124.17282   -8127.4702 
42217000    54.060943   -9955.0249   -9748.9199   -9955.0249            0    8258.0981    24.710838    24.613366    22.683069    13796.226    7558.0696    8673.3731    8542.8518   -157.60126   -64.050016    496.68363   -8087.3591 
42218000    51.937652   -9951.9134   -9753.9034   -9951.9134            0    8201.9296    24.631328    24.675824    22.701322    13797.825    8112.6152     8116.519    8376.6547    231.41186   -363.02746    404.63176   -8103.4527 
42219000    53.155919   -9970.8968   -9768.2422   -9970.8968            0    7357.8587    24.697051    24.677841    22.686054    13826.467    6842.0908    7481.3687    7750.1166   -338.09893   -182.63352    249.17908    -8284.568 
42220000    51.550239   -9949.9121   -9753.3791   -9949.9121            0    8602.6399    24.630815    24.664853    22.682817    13780.161     8702.516    8643.1865    8462.2173   -23.883577    -360.3578    471.23171   -8024.5108 
42221000    53.297818   -9961.9748   -9758.7793   -9961.9748            0    7673.3742     24.68204     24.65819    22.692915    13811.236    7440.1487    7798.1531    7781.8207   -124.73155   -127.57962    467.49515   -8213.1875 
42222000    53.083557   -9966.5874   -9764.2087   -9966.5874            0    8053.0631    24.633197    24.656419    22.716378    13797.165    8036.0142    8140.8695    7982.3055    -240.7693   -622.66065   -217.62911   -8143.7915 
42223000    53.134428   -9954.6933   -9752.1206   -9954.6933            0    8820.2259    24.612145    24.692186    22.639184    13758.458    9008.3046    9148.4215    8303.9515   -459.25702   -464.08577    340.60209   -7982.3159 
42224000    53.998658    -9948.452   -9742.5844    -9948.452            0     7948.825    24.634287    24.755321    22.640078    13806.592    8652.9816    7227.0637    7966.4297    -407.3908    64.613191     128.6702    -8142.049 
42225000    52.848108   -9959.6658   -9758.1847   -9959.6658            0    8212.6239    24.644484    24.657927    22.682886    13783.979     7636.142    8633.4746    8368.2552   -248.03465   -564.82233    395.52932   -8107.2404 
42226000    51.416746   -9953.7631    -9757.739   -9953.7631            0    7870.3456    24.668187    24.621238     22.74146    13812.283    7436.1436    8454.3867    7720.5066   -362.22401   -293.16964     124.7918   -8172.3526 
42227000     52.93006   -9956.1148   -9754.3213   -9956.1148            0    7620.0167    24.586152     24.70327    22.752767    13819.083    8107.8617    7333.2397    7418.9486   -149.50117   -62.803569    205.35934   -8218.6049 
42228000     54.29848   -9955.1489   -9748.1384   -9955.1489            0    8461.1691    24.663409    24.673492    22.645777     13780.69    8116.9475    8812.0112    8454.5485   -436.22951   -627.09238   -41.205419   -8047.6361 
42229000    52.381789   -9957.8882    -9758.185   -9957.8882            0    8322.8163    24.623765    24.693661    22.671293      13785.3     8562.139    8194.6774    8211.6324   -211.28863    70.370171    396.11745   -8084.9288 
42230000     52.64992   -9953.5645    -9752.839   -9953.5645            0    8576.2518     24.67762    24.638149    22.662601    13779.108     7885.852      9111.11    8731.7933   -289.40692   -522.88749    25.626287   -8029.4056 
42231000    55.425031   -9957.0375    -9745.732   -9957.0375            0    8164.5095    24.625414    24.660488    22.706263    13788.939    8177.5507    7992.1494    8323.8285     248.5308    125.35473    1.2108981   -8103.8693 
42232000    52.730317   -9955.1463   -9754.1143   -9955.1463            0    8052.4583    24.622928    24.666642    22.733054     13807.26    8186.2079    8193.0023    7778.1648    220.26028    134.69214     238.1049   -8132.6333 
42233000    55.571586   -9956.6445   -9744.7802   -9956.6445            0    8692.2256    24.601695    24.666895    22.693941     13771.76    8791.1054    8569.9958    8715.5755   -146.58674    437.65908    744.02482   -7998.9729 
42234000    54.650302   -9959.6922   -9751.3404   -9959.6922            0    8129.3212     24.69312    24.590544    22.722471    13797.477    7875.4167    8613.8937    7898.6531   -333.21822    119.15295   -6.1401824   -8115.5417 
42235000    50.899608   -9958.7665    -9764.714   -9958.7665            0    7618.3677    24.624454    24.667582    22.749694     13818.75     8189.227    7757.6909    6908.1852   -304.49598   -251.90124    507.15841   -8229.3669 
42236000    54.497799     -9956.99   -9749.2195     -9956.99            0      8484.92    24.598611     24.60168    22.773377    13781.699    8551.6481     9217.679    7685.4328    277.56379    344.22779     390.4246   -8043.8189 
42237000    53.083559   -9959.7023   -9757.3235   -9959.7023            0    8492.4397    24.593651    24.672102    22.726052    13789.647    8675.3594    8484.9534    8317.0063    120.61529   -427.30076    126.55354   -8049.4272 
42238000    54.185498   -9948.8753   -9742.2955   -9948.8753            0    8674.8098     24.66645    24.663234    22.656572    13783.226    8381.1537    8988.6418    8654.6339    196.78132   -86.075531     -431.752   -7998.5354 
42239000    53.430713   -9958.6557   -9754.9534   -9958.6557            0    7778.5774    24.666041    24.638643    22.727822    13812.556    7935.1403    8009.5206    7391.0711    276.70125    20.246996    609.84181   -8188.0216 
42240000    54.476918   -9954.3864   -9746.6955   -9954.3864            0    8321.8028    24.553215     24.70407    22.735823     13790.74    9136.7979    8108.9222    7719.6884     249.9459    3.8161674    51.376275    -8072.983 
42241000    54.879276   -9960.3332   -9751.1084   -9960.3332            0    8145.4345     24.60557    24.645284    22.754465    13798.564    8827.1692     8129.804    7479.3304   -513.56793    -173.2717     67.49288   -8111.9383 
42242000    54.361949   -9958.6275   -9751.3749   -9958.6275            0     7782.738    24.636938    24.659608    22.732248    13810.687    7967.5975    7893.8648    7486.7518    -493.0825   -74.602021   -348.43436   -8183.8171 
42243000    54.414209   -9963.3239   -9755.8721   -9963.3239            0    8360.3278    24.643093    24.690901    22.655873    13785.196    8338.6491    7735.6484    9006.6859   -410.13951   -435.02913    457.39134   -8075.0872 
42244000    50.806451   -9950.3646   -9756.6672   -9950.3646            0    8616.4531    24.624217    24.688378    22.651707    13770.697    7971.7888    9073.9494     8803.621   -191.50851    179.75786    58.576194   -8026.2121 
42245000    56.355994   -9969.1186   -9754.2638   -9969.1186            0    8053.9059    24.655339     24.64695    22.704147    13796.831    7987.0373     8447.263    7727.4174   -585.33768    53.257309   -36.665216   -8133.7162 
42246000    53.492004   -9962.4968   -9758.5609   -9962.4968            0    8237.1838    24.602585    24.634509    22.760147    13794.302    8346.9334    8717.0237    7647.5942   -37.595202   -362.08457    697.01375   -8101.4393 
42247000    55.593746   -9955.3951   -9743.4464   -9955.3951            0    8153.4619    24.647737    24.660541    22.701644    13798.661    8523.9405    8019.0907    7917.3546    88.565764   -386.23227    4.2356341   -8102.6493 
42248000    52.190414   -9967.0996   -9768.1259   -9967.0996            0    7582.4267    24.646402    24.661041    22.735175    13818.575    7991.8587    7360.1881    7395.2334   -137.77623   -80.273278    391.33018   -8240.0414 
42249000    52.363067    -9964.841   -9765.2091    -9964.841            0     8668.417    24.589167    24.655052    22.725333    13777.169    9290.6482    8440.6227      8273.98   -233.58971    420.97236    302.83347   -8023.4998 
42250000    53.937143   -9953.5006   -9747.8676   -9953.5006            0    8491.3295    24.663369    24.658482    22.655041    13777.918    8131.9537    8715.6682    8626.3667   -255.25858   -147.37841    184.55319    -8041.647 
Loop time of 524.157 on 64 procs for 250000 steps with 1920 atoms

Performance: 82.418 ns/day, 0.291 hours/ns, 476.956 timesteps/s
386.8% CPU use with 16 MPI tasks x 4 OpenMP threads

MPI task timing breakdown:
Section |  min time  |  avg time  |  max time  |%varavg| %total
---------------------------------------------------------------
Pair    | 72.75      | 74.672     | 76.215     |  11.2 | 14.25
Bond    | 1.5888     | 1.8062     | 2.2423     |  12.7 |  0.34
Kspace  | 259.36     | 265.45     | 276.02     |  31.9 | 50.64
Neigh   | 0.16199    | 0.17096    | 0.18627    |   2.0 |  0.03
Comm    | 64.361     | 72.811     | 78.158     |  45.7 | 13.89
Output  | 0.61204    | 0.61239    | 0.6137     |   0.0 |  0.12
Modify  | 77.104     | 89.251     | 94.073     |  43.3 | 17.03
Other   |            | 19.39      |            |       |  3.70

Nlocal:        120.000 ave         122 max         119 min
Histogram: 5 0 0 8 0 0 1 0 0 2
Nghost:        4340.00 ave        4373 max        4310 min
Histogram: 3 0 1 2 3 1 2 1 1 2
Neighs:        44146.8 ave       45064 max       43617 min
Histogram: 2 5 2 0 4 1 0 0 0 2

Total # of neighbors = 706348
Ave neighs/atom = 367.88958
Ave special neighs/atom = 2.0000000
Neighbor list builds = 250
Dangerous builds = 0

unfix		3
unfix		2
unfix		1

write_data	data.final.${pid}
write_data	data.final.0
System init for write_data ...
PPPM initialization ...
  extracting TIP4P info from pair style
  using 12-bit tables for long-range coulomb (../kspace.cpp:340)
  G vector (1/distance) = 0.37542061
  grid = 30 30 30
  stencil order = 5
  estimated absolute RMS force accuracy = 0.003160887
  estimated relative force accuracy = 9.5189174e-06
  using double precision FFTW3
  3d grid and FFT values/proc = 7920 1800
Last active /omp style is kspace_style pppm/tip4p/omp
WARNING: Not all mixed pair coeffs generated from mixing. Use write_data with 'pair ij' option to store all pair coeffs. (../write_data.cpp:312)

write_restart   restart.lmp.${pid}
write_restart   restart.lmp.0
System init for write_restart ...
PPPM initialization ...
  extracting TIP4P info from pair style
  using 12-bit tables for long-range coulomb (../kspace.cpp:340)
  G vector (1/distance) = 0.37542061
  grid = 30 30 30
  stencil order = 5
  estimated absolute RMS force accuracy = 0.003160887
  estimated relative force accuracy = 9.5189174e-06
  using double precision FFTW3
  3d grid and FFT values/proc = 7920 1800
Last active /omp style is kspace_style pppm/tip4p/omp
Total wall time: 0:08:44
