LAMMPS (30 Jul 2021)
Processor partition = 1
  using 4 OpenMP thread(s) per MPI task
using multi-threaded neighbor list subroutines
variable        pid world 0 1
variable        phase world IceVI IceV

shell cd ${phase}
shell cd IceV
include Restart.lmp
echo both
log log.lammps
#include		in.partitions
include		in.temp
variable        temperature equal 53.27
variable	tempDamp equal 100.0
include		in.pressure
variable        pressure equal 8196.1
variable        pressureDamp equal 1000.0 # This is 1 ps
include		in.seed
variable        seed equal 745823

units		real
atom_style	full
read_restart    restart.lmp.${pid}
read_restart    restart.lmp.1
Reading restart file ...
  restart file = 30 Jul 2021, LAMMPS = 30 Jul 2021
  restoring atom style full from restart
  triclinic box = (-3.0533892 -0.039833006 0.075199011) to (14.663388 22.619832 19.154799) with tilt (-0.18281734 -6.6122667 0.097778621)
  2 by 4 by 2 MPI processor grid
  restoring pair style lj/cut/tip4p/long/omp from restart
  restoring bond style harmonic/omp from restart
  restoring angle style harmonic/omp from restart
  1008 atoms
  672 bonds
  336 angles
Finding 1-2 1-3 1-4 neighbors ...
  special bond factors lj:    0        0        0       
  special bond factors coul:  0        0        0       
     2 = max # of 1-2 neighbors
     1 = max # of 1-3 neighbors
     1 = max # of 1-4 neighbors
     2 = max # of special neighbors
  special bonds CPU = 0.001 seconds
  read_restart CPU = 0.005 seconds

include 	in.setup
variable	out_freq equal 1000
variable	out_freq2 equal 10000
variable	out_freq3 equal 1000

timestep	2.0

neigh_modify    delay 7 every 1

include		in.tip4p
# This is TIP4P/Ice

# create groups ###
group ox type 2
336 atoms in group ox
group hy type 1
672 atoms in group hy

# set charges - beside manually ###
set group ox charge -1.1794
Setting atom values ...
  336 settings made for charge
set group hy charge 0.5897
Setting atom values ...
  672 settings made for charge

# ### TIP3P Potential Parameters ###
pair_style lj/cut/tip4p/long/omp 2 1 1 1 0.1577 8.5
pair_coeff 1 1*2 0.000 0.000
pair_coeff 2 2 0.21084 3.1668
bond_style  harmonic
bond_coeff  1 450 0.9572
angle_style harmonic
angle_coeff 1 55 104.52
kspace_style pppm/tip4p/omp 1.0e-5
pair_modify tail yes

thermo          ${out_freq}
thermo          1000
thermo_style    custom step temp pe etotal epair emol press lx ly lz vol pxx pyy pzz pxy pxz pyz enthalpy

restart 	${out_freq3} restart.lmp.${pid} restart2.lmp.${pid}
restart 	1000 restart.lmp.${pid} restart2.lmp.${pid}
restart 	1000 restart.lmp.1 restart2.lmp.${pid}
restart 	1000 restart.lmp.1 restart2.lmp.1


include         in.dump
dump            myDump all atom ${out_freq2} dump.water.${pid}
dump            myDump all atom 10000 dump.water.${pid}
dump            myDump all atom 10000 dump.water.1
dump            myDump2 all dcd ${out_freq2} dump.dcd
dump            myDump2 all dcd 10000 dump.dcd
dump_modify     myDump append yes
dump_modify     myDump2 append yes


variable natoms 	equal  "count(all)"                        # NUMBER ATOMS
variable H      	equal  "enthalpy/v_natoms"                 # ENTHALPY-per-atom
variable Vol      	equal  "vol/v_natoms"                 # volume-per-atom
fix AVG all 		ave/time ${out_freq} 1 ${out_freq} v_Vol v_H file vol_enthalpy.dat
fix AVG all 		ave/time 1000 1 ${out_freq} v_Vol v_H file vol_enthalpy.dat
fix AVG all 		ave/time 1000 1 1000 v_Vol v_H file vol_enthalpy.dat



fix 		1 all shake 1e-6 200 0 b 1 a 1
Finding SHAKE clusters ...
       0 = # of size 2 clusters
       0 = # of size 3 clusters
       0 = # of size 4 clusters
     336 = # of frozen angles
  find clusters CPU = 0.000 seconds
fix             2 all nph tri ${pressure} ${pressure} ${pressureDamp}
fix             2 all nph tri 8196.1 ${pressure} ${pressureDamp}
fix             2 all nph tri 8196.1 8196.1 ${pressureDamp}
fix             2 all nph tri 8196.1 8196.1 1000
fix             3 all temp/csvr ${temperature} ${temperature} ${tempDamp} ${seed}
fix             3 all temp/csvr 53.27 ${temperature} ${tempDamp} ${seed}
fix             3 all temp/csvr 53.27 53.27 ${tempDamp} ${seed}
fix             3 all temp/csvr 53.27 53.27 100 ${seed}
fix             3 all temp/csvr 53.27 53.27 100 745823


run             250000
PPPM initialization ...
  extracting TIP4P info from pair style
  using 12-bit tables for long-range coulomb (../kspace.cpp:340)
  G vector (1/distance) = 0.38021557
  grid = 24 27 32
  stencil order = 5
  estimated absolute RMS force accuracy = 0.0023657888
  estimated relative force accuracy = 7.1245026e-06
  using double precision FFTW3
  3d grid and FFT values/proc = 7875 1344
Last active /omp style is kspace_style pppm/tip4p/omp
Neighbor list info ...
  update every 1 steps, delay 7 steps, check yes
  max neighbors/atom: 2000, page size: 100000
  master list distance cutoff = 10.8154
  ghost atom cutoff = 10.8154
  binsize = 5.4077, bins = 5 5 4
  1 neighbor lists, perpetual/occasional/extra = 1 0 0
  (1) pair lj/cut/tip4p/long/omp, perpetual
      attributes: half, newton on, omp
      pair build: half/bin/newton/tri/omp
      stencil: half/bin/3d/tri
      bin: standard
Setting up Verlet run ...
  Unit style    : real
  Current step  : 42000000
  Time step     : 2
Per MPI rank memory allocation (min/avg/max) = 12.46 | 12.47 | 12.48 Mbytes
Step Temp PotEng TotEng E_pair E_mol Press Lx Ly Lz Volume Pxx Pyy Pzz Pxy Pxz Pyz Enthalpy 
42000000    56.529592   -5263.8992   -5150.8331   -5263.8992            0    8627.7803    17.716777    22.659665      19.0796    7659.6244    8544.6991    8690.3516    8648.2902   -345.76871   -357.84868   -610.89407    -4187.043 
42001000    52.814069   -5274.7502   -5169.1155   -5274.7502            0    8186.1343     17.77233     22.66306    19.031123    7665.2679    7958.4942    8422.8612    8177.0475   -518.21588   -16.834271   -940.32329    -4253.987 
42002000     53.55423   -5273.4383   -5166.3232   -5273.4383            0    8483.2603    17.664141    22.827799    18.975739    7651.6527    9099.3838    7299.6913    9050.7057   -694.82416   -35.798561     176.4348   -4219.6634 
42003000    52.476101   -5272.8913   -5167.9326   -5272.8913            0    8634.7677    17.659634    22.668981    19.096429    7644.7952    8372.0988    9364.2563    8167.9479   -647.27625    32.559511     -301.461   -4205.2294 
42004000    50.399128   -5274.7179   -5173.9134   -5274.7179            0    8681.9557    17.715345    22.602531    19.085451    7642.0364    8993.0729    9205.6098    7847.1844   -153.81449    687.08512   -336.39346   -4206.2984 
42005000    53.570662   -5279.5565   -5172.4086   -5279.5565            0    7446.4348    17.674324    22.797864    19.064446    7681.7671    7952.6248    7076.6492    7310.0303    799.68387   -280.00194   -234.28987   -4338.1793 
42006000    53.825136   -5269.5178   -5161.8609   -5269.5178            0    9336.8454    17.793589    22.579325    19.012656    7638.6624    8687.6864    9826.1767    9496.6731    298.42327   -302.52417     908.1223   -4121.7171 
42007000    51.587633    -5272.346   -5169.1644    -5272.346            0    8152.6239    17.735528    22.549257    19.172492    7667.5202     8526.295    8525.2687    7406.3082   -481.74653   -470.16249   -477.77978   -4257.5142 
42008000    54.270459   -5276.2108   -5167.6631   -5276.2108            0    7806.1317    17.813888    22.625682    19.035904    7672.4467     7116.916    7556.0311    8745.4479    444.83973    -280.5016    897.90229   -4294.1979 
42009000    54.655388   -5269.3256    -5160.008   -5269.3256            0    8738.9659    17.729902    22.629955    19.057859    7646.5251    9466.6399    8224.6608     8525.597    290.91962    32.476405    409.72737   -4185.4672 
42010000    55.095331   -5276.4559   -5166.2585   -5276.4559            0    8501.1406    17.805709    22.584545    19.063808    7666.2021    8163.2239     8315.848    9024.3498    656.98041     144.6154    157.63677   -4215.7995 
42011000    51.382467   -5274.3706   -5171.5993   -5274.3706            0    7593.6477    17.785916    22.662517    19.062285    7683.5042    6620.3828    8389.4868    7771.0734    627.94266    309.45073    447.49606   -4320.6854 
42012000    55.657039   -5269.7022   -5158.3812   -5269.7022            0    8048.2817    17.704318    22.854139    18.969866    7675.5292    8148.0687    7596.0874    8400.6889    277.12487   -331.67024     102.2842   -4257.4588 
42013000    56.373067   -5274.6567   -5161.9036   -5274.6567            0    7866.9985    17.813852    22.625113    19.048747    7677.4151    8448.3663     7505.663    7646.9663   -43.024324    336.99709   -722.30322   -4281.0576 
42014000    53.330307   -5277.6384   -5170.9712   -5277.6384            0    7826.0535    17.787441    22.646507    19.069268    7681.5476    7398.5923    7962.0075    8117.5608    295.94568   -141.52546    614.90395   -4294.2381 
42015000     50.66274   -5273.2924   -5171.9607   -5273.2924            0    7242.9719    17.684743    22.793558    19.057114    7681.8886    8413.2146    6367.5886    6948.1125   -116.84464   -351.16065   -751.16447   -4360.5127 
42016000    50.398147   -5267.4674   -5166.6649   -5267.4674            0    9097.3959    17.821344    22.619048    19.010488    7663.1627    8751.8103    9430.6364    9109.7411   -649.59876    773.75145    1037.6718   -4149.9457 
42017000    54.169291   -5276.2066   -5167.8613   -5276.2066            0    8176.0434    17.710999    22.747933    19.028464    7666.3516    8774.1374    7686.3661    8067.6266    -76.12978     219.0664    1068.4305   -4253.7316 
42018000    54.258544   -5282.0877   -5173.5639   -5282.0877            0    8351.9356    17.613027    22.764497    19.118551    7665.6155    9417.5618    8562.2258    7076.0192   -91.224188    640.22711   -150.16088   -4239.8581 
42019000    51.719688   -5269.8574   -5166.4116   -5269.8574            0    8899.5086    17.792803    22.527378    19.098461    7655.1442    8319.3439    9671.9255    8707.2563    739.64346    630.18195    385.97603   -4172.8489 
42020000    54.250682   -5276.1718   -5167.6637   -5276.1718            0    8903.0324    17.731854    22.763434    18.967219    7655.8883    9321.0013    8682.6538    8705.4421   -94.889722    335.64172    881.87442    -4173.611 
42021000    51.752534   -5276.3767   -5172.8653   -5276.3767            0     8201.245    17.765752    22.706711     19.00765    7667.7201    7634.2071    8033.1457    8936.3822    531.93662   -124.91722    972.37385   -4255.7542 
42022000    52.475041   -5272.5543   -5167.5978   -5272.5543            0    8405.8399    17.741362    22.687076    19.051109    7668.0641    8465.3299    8426.9799      8325.21   -110.79614   -137.55557   -520.31144   -4227.5656 
42023000    51.703826   -5277.0344   -5173.6204   -5277.0344            0    8526.9642     17.78149    22.640466    19.029778    7661.0314    8977.7084    7998.9044    8604.2799    208.91402    234.78096   -493.02563   -4220.9173 
42024000    55.723854   -5268.8565   -5157.4019   -5268.8565            0    8490.1217    17.694518    22.595888    19.160744    7660.9126    9111.3178    8495.1209    7863.9265   -360.89531   -30.318164   -355.89089   -4208.8299 
42025000     55.82811   -5272.8826   -5161.2195   -5272.8826            0    8192.2067     17.82337    22.587762    19.052845    7670.4855    7684.4177    8301.8139    8590.3885    425.88612    315.48189     286.8091   -4244.7887 
42026000    54.776248   -5273.1754   -5163.6162   -5273.1754            0    8203.6973     17.78194    22.630877    19.045985    7664.5024     8548.761    8116.0187    7946.3123   -254.29014    148.17374   -635.95386   -4246.6159 
42027000    53.584173   -5272.9502   -5165.7753   -5272.9502            0    7722.5553    17.779608     22.75194    19.019477    7693.7695    7113.6166    7282.9857    8771.0637    354.95561     653.0448   -552.31373   -4299.2603 
42028000    52.171338   -5274.9388   -5170.5897   -5274.9388            0    8414.8552     17.78781    22.561477    19.097722    7664.2836    8316.1995    8385.6303    8542.7357   -672.04003    -13.81401   -532.85197   -4230.0132 
42029000    53.868829   -5273.7371   -5165.9928   -5273.7371            0    8728.3854     17.74621    22.668953    19.035232    7657.6456    9540.1743     8051.579    8593.4028    -318.6971   -356.32446    486.34454   -4191.2162 
42030000    53.350274   -5271.0966   -5164.3895   -5271.0966            0    8070.5397    17.751594    22.621691    19.125658     7680.311    9323.4021    7457.2252    7430.9919    1233.7165     118.4921    21.689762   -4260.4127 
42031000    52.896682   -5265.9016   -5160.1017   -5265.9016            0    8227.4245    17.775772    22.600833    19.097045    7672.1851    8460.6919    8338.5449    7883.0366   -804.62306    304.20288   -758.59845   -4239.5274 
42032000    53.750753   -5277.1113   -5169.6031   -5277.1113            0    6820.2342    17.848022     22.58534    19.126279    7709.8726    6742.0384    7063.9565    6654.7078    609.28117    407.56146   -675.06267    -4402.732 
42033000    52.886332   -5273.7128   -5167.9336   -5273.7128            0    7499.0841    17.784927    22.693799    19.019739    7676.5106    7437.5416    7503.5875    7556.1233    583.23744   -548.15286    1066.4138   -4328.3809 
42034000     52.91314   -5280.0996   -5174.2668   -5280.0996            0    8045.5535    17.707109    22.623671    19.149853    7671.4272    7765.4187    8660.2385    7711.0032    75.628304    321.41335    39.817955   -4274.1311 
42035000    51.064692   -5278.1467    -5176.011   -5278.1467            0    8103.3263    17.833928    22.521015    19.101175    7671.7606    8075.6344    7946.7335    8287.6109     715.4902   -270.23461    443.72404   -4269.3723 
42036000    53.222815   -5279.9135   -5173.4613   -5279.9135            0    8357.5501    17.769356    22.502269    19.170769    7665.4479    8338.7909    9028.9569    7704.9024    491.27858    839.82521    788.20303   -4239.1483 
42037000    53.264195   -5271.0392   -5164.5042   -5271.0392            0    8584.5762    17.713769    22.685223    19.025036    7645.0355     9597.202    8031.8334    8124.6931   -187.51064   -1084.4206   -349.68195   -4207.3669 
42038000    54.777106   -5278.8383   -5169.2773   -5278.8383            0    8286.0884     17.79993    22.610664    19.038512    7662.3963    8331.7132    8310.1887    8216.3633    737.90287   -224.37931    1765.7254   -4243.3219 
42039000    53.319904   -5276.2773   -5169.6309   -5276.2773            0    7939.8664    17.838921    22.561969    19.060705    7671.5751    6878.5291      8420.41    8520.6601   -72.482145    244.32411    689.43888   -4281.3024 
42040000    54.156649   -5278.0665   -5169.7465   -5278.0665            0    7421.4963      17.7514    22.686662    19.082585    7684.9385    7855.4329    7297.4091    7111.6471   -84.278324    109.32555   -809.29801   -4337.9678 
42041000    53.552086   -5272.6933   -5165.5825   -5272.6933            0    9046.6504    17.784939    22.691316    18.945697    7645.7948    8421.6144    8956.5824    9761.7545   -839.47915   -235.12534   -126.25633   -4156.8261 
42042000    53.074934   -5274.3926   -5168.2362   -5274.3926            0    8679.4272    17.705871    22.652609    19.125151    7670.7956    9379.5154    8094.7185    8564.0477    226.74114    497.31801    384.24126   -4197.2627 
42043000    55.193823   -5274.2132   -5163.8188   -5274.2132            0    8012.3323    17.694197    22.676809    19.114872    7669.8028    8093.4295    8101.7215     7841.846   -431.36356   -276.01344   -354.14284   -4267.5897 
42044000    51.400182   -5276.6807   -5173.8739   -5276.6807            0    8189.9357    17.753958    22.726955    18.976526    7656.9028    7601.1196    8526.6791    8442.0083    407.96975   -204.44534    46.891627   -4259.3196 
42045000    52.007269   -5277.2005   -5173.1795   -5277.2005            0    8132.4789    17.751616    22.619083    19.055772     7651.374    8089.1535    8648.7041     7659.579    339.89476    24.863095   -496.67338    -4265.697 
42046000     52.18366   -5277.3299   -5172.9561   -5277.3299            0    8110.3007    17.745223    22.692482      19.0379    7666.2416    8677.5395     8381.224    7272.1385   -725.34924   -296.15222   -790.25183   -4266.1898 
42047000    54.524859   -5280.4057   -5171.3492   -5280.4057            0    7368.3218    17.814019    22.688888    19.024975    7689.5198    6729.3394    7191.5658    8184.0604   -545.01052    194.37101   -177.03258   -4345.0379 
42048000    51.110339   -5273.3192   -5171.0923   -5273.3192            0    8933.3308    17.801253    22.572547    19.056333    7657.2086    8619.9225    9142.5022    9037.5676    21.411496    292.26517    155.67254   -4173.4846 
42049000    53.678321     -5274.18   -5166.8167     -5274.18            0    7843.9104    17.727509    22.690383    19.104144    7684.5265    9147.8044    7644.1622    6739.7647    828.48259    50.964985   -51.323275   -4287.7423 
42050000    52.136862   -5275.8016   -5171.5214   -5275.8016            0    8780.8014    17.784916    22.538221     19.07237    7644.9757    9200.0235     8522.442    8619.9389   -175.02543   -440.99263   -328.50072   -4192.5136 
42051000     56.55417   -5270.5706   -5157.4553   -5270.5706            0    8103.7993    17.859707    22.489178    19.122319     7680.482    8630.0751    8265.7181    7415.6049   -386.33931   -91.981128   -195.18833   -4249.7329 
42052000    52.638537   -5281.3897   -5176.1061   -5281.3897            0    7301.7807    17.745129    22.713978    19.063016    7683.5865    7861.5973    7094.9007     6948.844   -213.43801    222.88557    31.481083   -4357.8888 
42053000    50.638263   -5277.1088    -5175.826   -5277.1088            0    8117.4775    17.811236    22.616328    19.009293    7657.4139    8278.3185    8129.3846    7944.7294   -332.08356    354.06014   -924.42566   -4269.3024 
42054000    53.055992   -5269.7713   -5163.6527   -5269.7713            0     8575.259    17.748576    22.630507    19.089518     7667.482    8653.1485    8189.0279    8883.6007    331.16698   -192.79311    127.56236    -4204.747 
42055000    54.766616   -5274.4348   -5164.8948   -5274.4348            0    8500.6829    17.719637    22.631038    19.093113    7656.6017    9014.5451    8236.4227    8251.0809   -431.48313   -143.40114   -265.58424   -4215.6773 
42056000    55.765611    -5269.397   -5157.8589    -5269.397            0    8678.1278    17.821756    22.466427     19.11357    7652.9047    8605.8758    9268.3718    8160.1358    56.840168    143.18031    323.39687    -4189.295 
42057000    51.858014   -5278.0135    -5174.291   -5278.0135            0    8859.0107    17.782211    22.633201    19.013539    7652.3474    9177.7889    8183.9969    9215.2462   -323.99996   -377.95097   -1042.3032   -4185.6109 
42058000     51.81011   -5272.6199   -5168.9933   -5272.6199            0    8464.5318    17.756602    22.655143    19.047914    7662.5636    8446.7982    8077.9424    8868.8549    212.98048    77.480414    1068.2307   -4223.0766 
42059000    53.408422   -5278.6547   -5171.8313   -5278.6547            0    7570.7581    17.764424    22.583377    19.151635    7683.2659     7806.232    7625.4506    7280.5916   -236.03787       -298.7   -313.91084   -4323.5085 
42060000    51.936952   -5274.0149   -5170.1345   -5274.0149            0    7699.9018    17.878894    22.568842    19.030566    7678.9464    7224.8901     7523.272    8351.5434   -506.06141   -49.903424    -796.5223    -4307.826 
42061000    54.139046   -5273.0746   -5164.7898   -5273.0746            0    7677.8253     17.84711    22.608565    19.042767    7683.7099    7427.6836    7654.7784    7951.0138    277.45072   -325.49602   -67.181468   -4304.4202 
42062000    55.922864   -5267.0436    -5155.191   -5267.0436            0    9233.2339    17.749414    22.520122    19.107871    7637.7787    9448.6766    9540.1384    8710.8867   -857.80488   -441.39525   -739.68724   -4126.7087 
42063000    55.071811   -5271.7179   -5161.5675   -5271.7179            0    8329.2962    17.778046    22.592984    19.065501    7657.8321    8244.8218    8830.7314    7912.3353   -296.40911    364.12887   -368.98162   -4231.3382 
42064000    53.308872    -5279.191   -5172.5667    -5279.191            0    8521.7678    17.786575    22.645978    19.044743    7671.1156    8343.8719    8414.5914    8806.8401    422.55894    429.25643    822.45417   -4219.1909 
42065000    53.778366   -5280.4595   -5172.8962   -5280.4595            0    8425.6722    17.763585    22.622612    19.060513    7659.6333     8506.465    8188.8941    8581.6575     181.9378    431.69435    1417.9642   -4231.6821 
42066000    54.819083   -5271.2753   -5161.6304   -5271.2753            0    8000.8715    17.724936    22.696469    19.066655    7670.3902    8191.4125      7911.71    7899.4922    179.49423   -160.38419     1251.413   -4266.6147 
42067000    54.820862   -5282.2779   -5172.6294   -5282.2779            0    8286.0207    17.740092    22.722008     19.01999    7666.7775    8003.4456    8037.6977    8816.9188   -308.79118    321.89562    992.51562   -4246.1521 
42068000     55.01176   -5280.3721   -5170.3418   -5280.3721            0    7339.1079    17.851636    22.662635    19.008869    7690.3251    7414.1283    7095.1733     7508.022    445.44055    508.35921   -45.606073   -4347.2205 
42069000    52.681996   -5282.8024   -5177.4319   -5282.8024            0    8004.6304    17.806683    22.545302    19.107112    7670.6852    8824.0293    7616.2523    7573.6095    -204.7136   -6.8001484   -401.13183   -4281.9613 
42070000    53.551919   -5272.6193   -5165.5088   -5272.6193            0    8416.8643    17.787619    22.470366    19.149569    7653.9738    8865.5915    8579.5804    7805.4211   -417.51801    -38.77422    485.69642   -4225.9734 
42071000    52.227065   -5271.5301   -5167.0695   -5271.5301            0    8548.7174    17.783451    22.623202    19.057619    7667.2348    8147.8468    8212.6888    9285.6164   -383.96621   -430.83269    1394.2564   -4211.1626 
42072000     54.88049   -5263.8051   -5154.0374   -5263.8051            0    8867.0664    17.814212     22.48054     19.11149    7653.6377    9410.9555    9238.6674    7951.5764    371.29971   -53.890725    614.07213   -4164.2914 
42073000    52.662528   -5280.4471   -5175.1155   -5280.4471            0    8708.5192    17.813457    22.395221    19.181508    7652.2002    8770.9676    9153.3179    8201.2721    45.020804   -519.38296   -84.200908   -4203.2492 
42074000     51.54706    -5277.744   -5174.6435    -5277.744            0    8383.1041    17.763633    22.572684    19.114499    7664.3953    8633.1545    8183.9511    8332.2067   -407.44819    77.693601    -781.7259   -4237.6024 
42075000    50.560579   -5273.9828   -5172.8554   -5273.9828            0     7806.041    17.788986    22.717947    19.010599    7682.7391    7971.3705    7420.0512    8026.7014    763.84012   -231.80038    785.68593   -4298.2285 
42076000    53.646038   -5274.0745   -5166.7758   -5274.0745            0     7853.202    17.724678    22.814138    18.957189      7665.78    7113.9471    7629.4437    8816.2152   -298.42418   -108.21955   -751.32028   -4288.8071 
42077000    50.987309   -5281.7547   -5179.7737   -5281.7547            0    7417.8616     17.78774    22.693168    19.022831    7678.7593    7099.2769    7087.1218    8067.1862   -758.90626    -349.6611   -460.91028   -4349.0709 
42078000    53.834174   -5272.1361   -5164.4611   -5272.1361            0    7001.6699    17.814798    22.709103    19.027664    7697.7952    6523.6185    6958.7423    7522.6488   -536.46298   -653.15659   -483.57895   -4378.4225 
42079000    53.515455   -5280.9578   -5173.9203   -5280.9578            0    7955.1647    17.717257    22.691854    19.052162    7659.6816    7716.1157     8161.705    7987.6735    288.40914    176.05001     782.6321     -4285.26 
42080000    54.221567   -5270.4206   -5161.9708   -5270.4206            0    8776.9293    17.750934    22.678802    19.010495    7653.0536    8716.9985    8699.0625    8914.7268   -421.86008    216.88658   -771.51235   -4182.3607 
42081000    54.139741   -5276.6435   -5168.3573   -5276.6435            0    7835.2484     17.81302    22.625716    19.058144    7681.0479    7496.6729    7873.5619    8135.5103   -8.6541559   -285.48083    191.79273   -4290.6512 
42082000    52.531028   -5279.7881   -5174.7196   -5279.7881            0    7875.8855    17.859373    22.554221    19.042401      7670.36    7613.8511    7761.1039    8252.7013    200.57539   -504.92765    84.022004   -4293.6889 
42083000    55.104199   -5277.3533   -5167.1381   -5277.3533            0    7636.1092    17.727706    22.601817     19.14548      7671.18     8785.218    7650.2049    6472.9047    182.78536    80.180904   -242.53276   -4312.8385 
42084000    52.974411   -5269.8239   -5163.8685   -5269.8239            0    7573.9399    17.798493    22.631354    19.110532    7697.7987     8049.019    7410.1762    7262.6245   -677.30043    9.1037486    312.56953   -4313.5839 
42085000    52.192866   -5281.1576   -5176.7654   -5281.1576            0    7553.2184    17.829618    22.532811    19.137072    7688.3458    7824.5285    7822.9068      7012.22   -178.64683   -291.37881    764.62849   -4329.8484 
42086000    51.938523   -5273.1223   -5169.2389   -5273.1223            0    8737.7702    17.790243    22.636821    19.010807    7655.9284    8907.5958    8771.4387    8534.2761   -329.27924    367.42163    488.68232   -4193.6331 
42087000    50.969531   -5271.1419   -5169.1965   -5271.1419            0    8855.6801    17.666816    22.660274    19.107149    7649.2583    9376.8942    8762.8078    8427.3383   -248.40843     48.47994   -380.31465   -4181.2871 
42088000    51.846239   -5274.2875   -5170.5886   -5274.2875            0    7880.2473    17.829734    22.593534      19.0533    7675.3683    7001.5369    7985.7565    8653.4484    4.2514229   -183.32497    934.04889   -4288.4944 
42089000    51.837718   -5281.4146   -5177.7328   -5281.4146            0    8226.4626    17.798073    22.727001    18.942642    7662.2382    7983.2618    7290.7853    9405.3408   -148.41935   -508.07001  -0.79565871   -4258.4594 
42090000    53.768969    -5277.352   -5169.8074    -5277.352            0     9020.554    17.754208    22.636738    19.057218    7659.0455    8990.2587    8947.6422    9123.7611    27.265586    232.98188    894.83269   -4162.2177 
42091000    53.756158   -5279.7409    -5172.222   -5279.7409            0    8285.4556    17.786214    22.582398    19.090072      7667.63    8502.6631    8280.7723    8072.9315   -191.32525   -375.28169   -923.97339   -4245.7049 
42092000    53.824243   -5277.2826   -5169.6274   -5277.2826            0    7945.3756    17.777805    22.657098    19.027103    7663.9927    7386.6938    8272.9414    8176.4916    478.07586    124.51677    600.04846   -4281.5611 
42093000    55.706769   -5274.2793   -5162.8588   -5274.2793            0    8459.4267    17.680299    22.768894    19.027845    7659.8656    8935.3407    8168.1877    8274.7517    753.35235   -313.51997    114.12222   -4217.8454 
42094000    53.555357   -5276.1499   -5169.0326   -5276.1499            0    8413.3715    17.884125    22.513886    19.037639    7665.3369     7539.919    8689.9701    9010.2254   -804.83167   -357.59594    1283.4705   -4228.4928 
42095000    51.146498   -5280.0893     -5177.79   -5280.0893            0    7410.3792    17.777014    22.654222    19.081342    7684.5226    6961.5345    7240.8798    8028.7234   -421.21005   -775.08145   -313.12557   -4347.3022 
42096000    51.626706   -5264.0344   -5160.7746   -5264.0344            0    9433.6242    17.717692    22.662362    18.999781    7628.8821    9604.2421    9501.6697    9194.9608    442.26459    -203.7159   -12.765113    -4111.195 
42097000     53.06632   -5271.5089   -5165.3697   -5271.5089            0     9134.097    17.818436    22.525201     19.05174    7646.6799    8296.0866    9418.5666    9687.6379     167.1669   -491.32153   -94.925448   -4146.7445 
42098000    52.560437   -5274.1729   -5169.0456   -5274.1729            0    8087.3385    17.775462    22.664525    19.041548    7671.3142    8521.4296    7383.9358      8356.65   -141.45717   -597.26519   -403.23331   -4264.2483 
42099000    51.038337   -5270.9252   -5168.8422   -5270.9252            0    8766.4379    17.719122    22.687488    19.043246    7655.4299    9639.5183    8482.0479    8177.7473   -17.041896   -270.45463   -576.49809   -4190.0993 
42100000    52.654368   -5274.4414   -5169.1262   -5274.4414            0    8335.2896    17.809059    22.605887    19.030776    7661.5923    8315.9632    8297.0547     8392.851     381.9786    203.32087    776.21025   -4237.7704 
42101000    50.672671   -5279.5353   -5178.1837   -5279.5353            0    8067.8666    17.770782     22.63582    19.064659    7668.8775    8054.1861    8311.5717     7837.842   -443.93025    302.99202   -1054.6833   -4275.8516 
42102000    51.758729   -5271.4129   -5167.8891   -5271.4129            0    8192.5207    17.782583    22.626706    19.049833     7664.915    8232.8598    7858.1092     8486.593    368.00262   -759.79438   -424.63167   -4252.0888 
42103000    53.383694   -5273.5016   -5166.7276   -5273.5016            0     7421.165    17.788905    22.571885     19.14244    7686.2469    7212.9499     7629.642    7420.9032   -56.419027   -557.17625   -844.24157   -4334.8445 
42104000    53.305824   -5274.7818   -5168.1636   -5274.7818            0    7806.2211    17.769526    22.653695    19.074224    7678.2416    7964.4244     7685.323     7768.916    735.85182   -106.11579   -447.44862   -4294.0286 
42105000    55.534523    -5271.815   -5160.7391    -5271.815            0    8010.8731    17.752824    22.612093    19.097797    7666.4002    8239.2406    8249.7311    7543.6476   -193.96387    60.734598   -796.13157   -4265.0708 
42106000    49.716585   -5275.0283    -5175.589   -5275.0283            0    7624.4129    17.776994    22.656648    19.054453    7674.5068    7228.5643    7818.7959    7825.8786   -120.41511   -374.71961    434.39032    -4322.228 
42107000    54.351689   -5274.5385   -5165.8284   -5274.5385            0     8664.518    17.810957    22.559461    19.077024    7665.2549    8784.7292    8446.3687    8762.4561    56.108996   -82.543546     1152.494    -4197.223 
42108000    51.056523   -5265.6395   -5163.5201   -5265.6395            0    8471.4855    17.820912    22.585957    19.028262      7658.92    8161.6104    8992.2844    8260.5619    5.7758335    -41.25679    11.464641   -4217.2764 
42109000    53.398361    -5278.614   -5171.8107    -5278.614            0     8117.565    17.764956    22.590902    19.127587    7676.4054    8706.1002     8442.673    7203.9217    297.65523   -51.916085    188.08468    -4263.029 
42110000     54.23047   -5272.3691   -5163.9014   -5272.3691            0    8361.4562    17.794527     22.48039    19.174026     7670.145    8012.3233    9120.4833    7951.5619    -13.83669   -297.43312   -686.88826   -4228.5789 
42111000    55.126538   -5269.4439    -5159.184   -5269.4439            0     8602.914    17.815846    22.675066    18.952248    7656.2436    8735.5545    8135.0714    8938.1159   -77.046431   -346.71181   -592.27587   -4198.5959 
42112000    52.941808   -5273.7105   -5167.8203   -5273.7105            0     8302.111    17.785378    22.573524    19.124408    7678.0414    8327.7492    8148.7386    8429.8453   -175.25094   -443.62932   -1383.5818   -4238.1801 
42113000    53.821848    -5278.794   -5171.1436    -5278.794            0      8709.71    17.833269    22.401034    19.189782    7666.0043    8398.8391    9599.8751    8130.4157   -887.49433   -127.61506   -938.86221    -4197.391 
42114000    53.361047   -5275.4831   -5168.7544   -5275.4831            0    7011.8869    17.788651    22.625472    19.122883    7696.5131    6939.7339    7234.2466    6861.6803    737.63671    27.066535    103.85904   -4381.6999 
42115000    51.552194   -5270.2896   -5167.1788   -5270.2896            0    7917.4407    17.731494     22.72491    19.029861    7668.0177      7744.55    7561.1863    8446.5858    396.73022   -367.62812   -105.66091   -4281.7701 
42116000    52.696996   -5279.6354   -5174.2349   -5279.6354            0    8139.4309    17.763074    22.602653    19.102666    7669.5792    8226.7788    7954.9664    8236.5476   -294.68509   -12.269579   -160.29171   -4263.8156 
42117000    52.736324   -5284.3175   -5178.8383   -5284.3175            0    7671.3989    17.815549    22.602819    19.098471    7690.6036    6840.3577    7772.3944    8401.4445   -192.89703    571.57658   -544.54864   -4318.4176 
42118000    51.703731   -5277.8616   -5174.4477   -5277.8616            0    7845.5642    17.722688    22.655266    19.100142    7668.9399    7928.0512    7581.7167    8026.9246    58.009146   -184.46991    66.426386   -4296.9714 
42119000    51.408907   -5275.5632    -5172.739   -5275.5632            0    8184.2332    17.821504    22.549989    19.063172     7661.007    8129.8283    8321.5126    8101.3588    338.47072   -547.98573   -302.80091   -4258.3316 
42120000    52.143353    -5276.214   -5171.9209    -5276.214            0    8216.2966    17.782719    22.550608    19.149906    7679.3254      8885.14    8406.5004    7357.2492    1000.4844   -14.783227    274.17231    -4251.736 
42121000    51.684264   -5276.5081   -5173.1332   -5276.5081            0    8338.3696    17.745079      22.6761    19.019796    7653.3601    8312.5584    8358.4313    8344.1191   -714.73189     336.1686   -46.862125   -4242.4344 
42122000    56.182288   -5278.3999   -5166.0283   -5278.3999            0    7452.4387     17.81816    22.593219    19.113925    7694.6852    7631.8628    7783.8898    6941.5634    627.32947   -118.46982    791.38922   -4329.7224 
42123000    54.847851   -5280.0354    -5170.333   -5280.0354            0     8042.963    17.807992    22.567385    19.090685    7672.1609    8535.0805    8434.9279    7158.8808   -250.66497    10.300107    339.03965    -4270.401 
42124000    54.829862   -5279.7441   -5170.0776   -5279.7441            0    7120.6991    17.833297    22.610626    19.081703    7694.1628    6762.2195    6915.6593    7684.2186   -679.60538    122.11972    205.08158   -4371.0535 
42125000    53.705744   -5272.5507   -5165.1326   -5272.5507            0    8004.3887    17.856409    22.365154    19.228116    7678.9664     7329.345    8997.2551    7686.5661   -1155.3648   -97.845885    61.270273   -4268.7223 
42126000    53.622901   -5278.0003   -5170.7479   -5278.0003            0    8334.5239    17.838425    22.490007    19.100881    7663.0121    8211.7026    8665.3914    8126.4779   -141.10281   -342.85595    586.58844   -4239.3051 
42127000    53.276268   -5279.9636   -5173.4044   -5279.9636            0    7889.1899    17.743049    22.640258    19.109985    7676.6189    9057.9257    7536.1525    7073.4915    158.45463    248.06183    336.25433   -4290.1654 
42128000    51.679553   -5276.8571   -5173.4916   -5276.8571            0    8404.0128    17.791336    22.597689    19.064437     7664.725     8060.623    8881.9982    8269.4173   -392.47004     461.1134   -571.29449   -4234.0729 
42129000    55.050618   -5271.6899   -5161.5818   -5271.6899            0    7834.7665    17.758415     22.66167    19.091474    7683.0839    7992.4134    7609.4859    7902.4003   -778.22966   -497.80475    127.01019    -4283.697 
42130000    49.357808   -5276.7164   -5177.9947   -5276.7164            0    7489.6786    17.776655    22.592638    19.124765    7680.9175    7023.6207     7444.781    8000.6341   -12.318332   -70.678993   -74.654754   -4339.0136 
42131000    51.258591   -5280.3188   -5177.7953   -5280.3188            0    8046.0773    17.814094    22.735871    18.954725    7677.0226    8529.6522    7625.2607     7983.319    23.808569    243.60702    47.924754   -4276.9444 
42132000    54.484483   -5271.4294   -5162.4537   -5271.4294            0    8261.3174    17.676675    22.757941     19.04788    7662.6713     8196.532    7973.0072    8614.4131   -192.52494    549.19258   -861.92517   -4239.2333 
42133000    54.590392   -5274.4752   -5165.2876   -5274.4752            0    8711.5474    17.711171    22.639874    19.128709    7670.2044    9111.7113    9210.8017    7812.1291    588.36218    730.16522   -98.823088    -4190.796 
42134000    51.250891   -5276.0598   -5173.5517   -5276.0598            0     8914.182    17.669392    22.812408    18.967027     7645.255     9374.621    8084.8393    9283.0857    174.72121    481.92059   -766.81645   -4179.6364 
42135000    49.787117   -5269.9014    -5170.321   -5269.9014            0      9448.67     17.66996    22.778177    19.014232    7653.0284    8708.0432    9300.6802    10337.287   -88.855759    311.10005   -351.95067   -4115.7401 
42136000    53.659917   -5272.5039   -5165.1775   -5272.5039            0    8336.9219    17.772942    22.575612    19.114925    7669.5778    9258.9161     7995.366    7756.4836    602.18492    77.642218    783.30295   -4232.6684 
42137000    53.238874   -5278.1346   -5171.6503   -5278.1346            0    8220.1141     17.77482    22.578067    19.097063    7664.0537    8949.7822    7779.6516    7930.9084    387.88581    62.546835    13.488305   -4252.8687 
42138000    52.591989   -5272.2642   -5167.0738   -5272.2642            0    8579.3152    17.690901    22.690481    19.038901    7642.5013    9317.5446    8407.6585    8012.7425     183.2848   -529.01578    197.21931   -4210.8401 
42139000    53.015777   -5282.6975   -5176.6594   -5282.6975            0    7785.6668     17.74307    22.566753    19.175683    7678.0104    7111.5101    8828.2409    7417.2494    560.49957    -266.6006    495.26815   -4304.8523 
42140000    53.746835   -5277.1674   -5169.6671   -5277.1674            0    7389.9838    17.844546    22.551285    19.125886    7696.5904    8387.7777    6831.7584    6950.4154   -364.54238   -539.07598   -436.66436   -4340.1645 
42141000    53.659463   -5278.7742   -5171.4486   -5278.7742            0    8133.4359    17.775113    22.605292    19.087524    7669.5892    8402.4156    8423.0086    7574.8836   -353.23828    334.83888   -869.04505   -4261.6987 
42142000    52.995305   -5276.7817   -5170.7845   -5276.7817            0    7973.8864    17.702987    22.697059    19.106376    7677.0515    9111.7303    7465.2579    7344.6712    475.43762   -372.12347   -23.111431   -4278.0129 
42143000    54.170694   -5278.0323   -5169.6842   -5278.0323            0    8207.8235    17.805397    22.614963    19.010643    7654.9851    7214.5647    8496.2675    8912.6383   -98.214392   -731.73894    477.64236   -4253.3619 
42144000    57.368665   -5285.5819   -5170.8375   -5285.5819            0    8109.8092    17.824543    22.507891    19.114897    7668.7606     8603.515    8605.5274    7120.3852    428.48353    88.055655    428.30776   -4263.8283 
42145000    51.565715    -5273.368   -5170.2302    -5273.368            0    8173.5634    17.712942    22.629477    19.134615    7669.8163    8814.7619    7886.4915    7819.4369   -643.14792    411.49213    589.27105   -4255.9648 
42146000    53.091675   -5276.6482   -5170.4583   -5276.6482            0    8454.4719    17.831152    22.542877    19.066953    7664.2566    7861.1975     8714.431    8787.7871    241.71571   -675.23256    510.74638    -4225.457 
42147000    48.968288   -5270.9801   -5173.0375   -5270.9801            0    9054.6432    17.806762    22.604847    18.996524    7646.4643    9174.1456    9658.1968    8331.5872   -78.494124    400.07871    162.33856   -4163.3013 
42148000    52.319782   -5275.9877   -5171.3416   -5275.9877            0    8212.7781    17.770051    22.627565    19.071685    7668.5907    8354.5995    8432.9308    7850.8041    49.669358    348.94148   -762.69881   -4252.8366 
42149000     52.21073   -5267.2244   -5162.7965   -5267.2244            0    8156.3774    17.836686     22.58171    19.037317    7667.9053    8208.9156    8081.9241    8178.2924   -284.50548    100.17141    670.80408   -4250.6808 
42150000    53.094145   -5277.6194   -5171.4245   -5277.6194            0    8485.6915    17.865561    22.572117    19.007039    7664.8456    7540.4444    8687.6905    9228.9397     548.1383    150.28541    976.58429   -4222.8607 
42151000    54.701413   -5265.9601   -5156.5505   -5265.9601            0    9099.9516    17.720916    22.661972    19.017197    7637.1332    9518.9858    8628.4632    9152.4058     36.14857   -11.007557    742.51774   -4143.0001 
42152000    54.056368   -5278.0385   -5169.9191   -5278.0385            0    7917.4747    17.717404    22.749546    19.052072    7679.1834    8514.9087    8116.2805     7121.235   -650.71202    663.71593    469.37583   -4283.2172 
42153000    53.600138   -5273.0131   -5165.8062   -5273.0131            0    8396.6835    17.758333     22.73891     18.98816    7667.5166    7754.5921    8106.5034    9328.9548   -560.75246   -78.078425    911.70384    -4226.865 
42154000    51.821992   -5274.8176   -5171.1672   -5274.8176            0    8043.8564    17.730938    22.658825     19.07733    7664.5502    7856.1054     7870.875    8404.5889   -423.17417   -777.45405   -878.06268   -4272.0282 
42155000    51.775009    -5276.985   -5173.4286    -5276.985            0    8251.1199    17.767021    22.626314    19.090111    7674.2666    9103.0517    7910.4149     7739.893    92.894865   -102.81568   -435.85185   -4249.9525 
42156000    51.122616   -5278.3849   -5176.1333   -5278.3849            0    8285.3414    17.793376    22.535242    19.096903    7657.4389     7804.048    8958.2976    8093.6786    368.91447    226.88565   -144.89413   -4250.8604 
42157000     51.38297   -5272.4054   -5169.6331   -5272.4054            0    8648.4117    17.706604    22.762469    18.980736      7650.11     9282.295    8162.0376    8500.9025    250.02915   -294.44187   -477.07517   -4204.7384 
42158000    51.542484   -5277.7124   -5174.6211   -5277.7124            0     8329.382    17.700506    22.673721     19.07915    7657.1559    8403.7808    8316.9776    8267.3877    140.05463    -215.6945   -204.34922   -4244.4643 
42159000    53.092257   -5282.4355   -5176.2444   -5282.4355            0    7924.2183    17.801201    22.633606    19.072397    7684.3709    7725.4349    8243.2117    7804.0085    129.64213    75.240588   -99.573124   -4288.1879 
42160000    55.375532   -5278.3383   -5167.5804   -5278.3383            0    7962.4208    17.802008    22.645129    19.035352    7673.6976    7123.3897    8328.1468    8435.7258   -554.38553    150.17017     543.1849   -4276.4819 
42161000    51.481225   -5277.1289     -5174.16   -5277.1289            0    8137.7848    17.653215    22.759396    19.070822    7662.2082     9469.209    7486.0431    7458.1025    691.53633   -166.71106    220.88119   -4264.7996 
42162000    55.184931    -5282.026   -5171.6493    -5282.026            0     7669.212    17.799298    22.768609    18.951279    7680.2949    6770.0965    7297.9124    8939.6271   -282.30346   -146.40148   -780.14381   -4312.6269 
42163000    51.392341    -5274.193    -5171.402    -5274.193            0    8384.4005    17.735216    22.706725    19.032595    7664.5914    8191.0238    8854.3001    8107.8775   -166.38804   -41.209547   -332.91765    -4234.192 
42164000    51.429875    -5278.802   -5175.9359    -5278.802            0    6809.8058    17.741737     22.63891    19.152082    7692.5025    7233.6281    7202.6302    5993.1592    724.12143   -194.33305    324.03714   -4411.9625 
42165000    54.876257   -5281.8243    -5172.065   -5281.8243            0    8404.5194    17.822915    22.611814    19.006538    7659.7948    7425.3309    8652.3661    9135.8611    119.01232    112.21545    -713.8178    -4233.194 
42166000    55.103233   -5271.3571   -5161.1438   -5271.3571            0    8087.0497    17.907384    22.485186    19.039402    7666.2317    6653.0124    9063.6352    8544.5016    1016.0132   -85.237369      631.024   -4256.9783 
42167000    52.923024   -5277.9672   -5172.1146   -5277.9672            0    8340.5524    17.798404    22.486067    19.164149    7669.8008    7891.0974    8804.0367    8326.5233    8.6953221     393.1029    267.51025   -4239.1723 
42168000    53.828203   -5276.9762   -5169.3132   -5276.9762            0    7619.4139    17.830709    22.735791    18.988023     7697.655    7440.3632    7173.9672    8243.9112   -145.97162   -542.60229   -795.88089   -4313.9395 
42169000    54.407828   -5270.3812   -5161.5588   -5270.3812            0    8262.7952    17.787284    22.589973    19.087585    7669.6638    8805.9222    8204.0108    7778.4528   -625.49396   -529.29806    90.441431   -4237.3306 
42170000    53.443025   -5274.9455   -5168.0529   -5274.9455            0    8442.3231    17.770841    22.504749    19.166837    7665.3611     8243.578    8976.1272    8107.2641    524.51004    458.76296    486.50898   -4224.2735 
42171000    53.693962   -5270.7059   -5163.3114   -5270.7059            0    8864.4254    17.682598    22.655145    19.090998    7647.8887    9671.6562    9195.8879    7725.7322   -1256.3369    282.77058   -589.95659   -4174.6034 
42172000    50.751535   -5272.5226   -5171.0132   -5272.5226            0    8664.2401    17.726948    22.666617    19.045545    7652.6893    8396.5743    9012.5451    8583.6008    529.91551    393.41971    230.21955   -4204.0266 
42173000    50.294017   -5276.2692   -5175.6749   -5276.2692            0    8237.0277    17.693465    22.722994    19.076701    7669.7589    8992.9351    8092.6707    7625.4771   -560.59955    472.90627    -1076.809   -4254.3175 
42174000    50.031922    -5270.599    -5170.529    -5270.599            0    8339.3648    17.775436    22.620075     19.05513    7661.7185    8824.9383    8106.6277    8086.5284     254.8733    236.30828   -258.01182   -4238.7025 
42175000    51.627281   -5271.0768   -5167.8158   -5271.0768            0     8995.305    17.711959     22.73913    18.980437    7644.4571    9452.3841    8165.1368    9368.3941    611.73912    -626.0394     1208.894   -4164.9602 
42176000    53.638658   -5276.9705   -5169.6866   -5276.9705            0     8546.771    17.848787    22.557818    19.018038    7657.2268    7458.9864    9177.9708    9003.3557    348.44276     569.5038   -170.40472   -4215.2447 
42177000     55.42475   -5278.5345   -5167.6782   -5278.5345            0    7775.8994    17.781088    22.619919    19.112988    7687.3733    8296.5613    7578.9889    7452.1478    106.12219    48.090821   -591.87768    -4295.903 
42178000    53.178106   -5272.3904   -5166.0277   -5272.3904            0    8634.6186     17.85104     22.41902    19.137225    7658.7718    8097.2515    9203.7205    8602.8838    776.48948   -177.19534     163.7597   -4201.5811 
42179000    53.367738   -5274.1511    -5167.409   -5274.1511            0     7739.006    17.751031    22.646493    19.111031    7682.6076    7864.2436    7863.0574    7489.7169    363.66175   -339.89647    569.58724   -4300.3079 
42180000    52.171124   -5272.5403   -5168.1916   -5272.5403            0    8357.2896    17.706864    22.789116    19.001472    7667.5458    9044.4177    7779.2865    8248.1648    973.43779    152.23846    68.531522   -4233.6519 
42181000    52.678773   -5280.3162   -5174.9521   -5280.3162            0    8357.4264    17.831335    22.616864    19.028239    7673.8771    8264.6984    8719.1465    8088.4343   -307.62583    244.24784    160.54175   -4239.6255 
42182000    53.220011     -5276.52   -5170.0734     -5276.52            0    7849.6038    17.756292    22.639568    19.113912    7683.6929    8551.1837    7952.2087    7045.4189    251.41851    113.68962    1014.5502   -4290.4563 
42183000    52.060644    -5281.342   -5177.2142    -5281.342            0    7524.2205    17.715652    22.739269    19.072208    7683.0666    7598.0159    7463.3018    7511.3437   -2.8247274    322.97567    181.04098    -4334.128 
42184000    52.302307   -5278.6154   -5174.0043   -5278.6154            0    8628.0112    17.811605    22.630964    18.995741    7657.0649    8508.5251    8103.9925    9271.5161    652.41234    111.22654    237.97352   -4210.5105 
42185000    54.127321   -5273.9686   -5165.7073   -5273.9686            0    8073.0738    17.812743    22.618718    19.044921    7673.2256    7376.9348    8849.2669    7993.0196    142.53158    248.35077    1103.4524   -4262.2809 
42186000    55.515062   -5278.1589   -5167.1219   -5278.1589            0     7761.636    17.768721    22.642648    19.061701    7669.1112    7737.6936    7707.7014    7839.5129    461.77381   -673.38077   -95.161688    -4299.013 
42187000    51.173598   -5273.4283   -5171.0748   -5273.4283            0    8775.6563    17.843563    22.603385    18.972037    7651.8957     8085.923    8872.3197    9368.7263    216.98423   -282.31409     93.28252    -4191.755 
42188000    53.865351   -5275.7566   -5168.0192   -5275.7566            0    8016.2141    17.834691    22.672506      18.9922    7679.6313    7289.2107     8658.852    8100.5796    686.63031    1101.2496   -748.81036   -4270.2069 
42189000    50.805844    -5277.228   -5175.6101    -5277.228            0    8072.9865    17.665537    22.742264    19.094451    7671.2776    8823.4506    7804.9838    7590.5251    469.95213   -103.47832    80.759911   -4272.4228 
42190000    55.763089   -5272.7378   -5161.2048   -5272.7378            0    7768.0809     17.77974    22.598211    19.118736    7681.7229    7939.2716    8103.4031    7261.5681    -318.2171    554.82685   -668.32201   -4290.9463 
42191000    53.975453   -5275.6114   -5167.6539   -5275.6114            0    7887.5911    17.801673    22.625394     19.04556    7670.9779    7923.4152    7852.0974    7887.2608   -303.18291   -46.567414   -393.94652   -4285.2427 
42192000     54.43182    -5279.082   -5170.2117    -5279.082            0    7362.5776    17.743627    22.763201    19.052322    7695.2661    7945.8974    6723.2134     7418.622    186.18592   -98.480467   -56.929229   -4343.9275 
42193000    53.164428   -5278.4239   -5172.0885   -5278.4239            0    8102.1313    17.735677    22.644533    19.113279    7676.2007    8146.3557    7783.0666    8376.9717    505.36943   -478.94924    672.94706   -4265.0589 
42194000    55.437991   -5278.3848   -5167.5019   -5278.3848            0    7792.5113    17.878681    22.630482    18.955431    7669.4273    7240.9973    7680.6404    8455.8961   -153.97957   -413.82065   -673.06458   -4295.9038 
42195000    53.585889   -5276.9105   -5169.7321   -5276.9105            0    8088.4318     17.79303    22.638616     19.05131    7674.0501    7061.9523    8438.5506    8764.7927    -505.8646    555.32755   -537.85759   -4264.4898 
42196000     52.00281   -5280.1536   -5176.1416   -5280.1536            0    7465.1408    17.838389    22.650279    19.023609    7686.3844    6682.6535    7509.2941    8203.4749    -541.9287   -83.545566    259.07841    -4339.314 
42197000    55.154305   -5278.4719   -5168.1565   -5278.4719            0    8196.4708    17.819309    22.755008     18.90778    7666.6984    7618.2066    7899.6588     9071.547   -166.56433   -24.308223    94.703936   -4251.7014 
42198000    51.487962   -5274.6838   -5171.7015   -5274.6838            0    7352.1854    17.676233    22.841119    19.037819    7686.4233    8693.8357    6341.8223    7020.8983   -381.84432   -119.75968    1284.8588   -4347.5318 
42199000     54.89849   -5278.8899   -5169.0861   -5278.8899            0    7329.9093    17.777056    22.750493    19.021547     7693.013    7518.5674    6845.4199    7625.7405   -652.43367    206.23091    749.88435   -4346.7091 
42200000    52.925086   -5276.5632   -5170.7065   -5276.5632            0    8815.4973    17.742916    22.684667    18.997087    7646.1781    8360.6212    8649.9973    9435.8734   -444.95126    143.73194     682.8926   -4187.6757 
42201000    53.530332   -5276.9722   -5169.9049   -5276.9722            0     8168.544    17.698217    22.785533    19.010269    7666.1439    8244.1884      8359.62    7901.8235   -45.641672    229.28669    -353.5787   -4256.6385 
42202000    52.313719   -5273.9124   -5169.2785   -5273.9124            0    8094.2306    17.788194    22.651269    19.009192    7659.2819    7000.5844    8336.3906    8945.7167    153.27956   -62.155324   -42.855835   -4265.1305 
42203000    51.773237   -5278.3692   -5174.8164   -5278.3692            0    8231.1531    17.886349    22.480704    19.086529      7674.65    7157.8142      8839.57     8696.075   -335.77122    1.5407889    282.00316   -4253.5289 
42204000    51.100766   -5277.0222   -5174.8144   -5277.0222            0    8131.9741    17.758988    22.650806    19.049875    7662.9147     8104.871    8282.9405    8008.1109    374.95591   -441.25937    363.94498   -4266.0195 
42205000    50.078844    -5277.506   -5177.3421    -5277.506            0    8183.8661    17.761281    22.677086    19.038464    7668.2003    7850.8524    8213.8961    8486.8499     -792.651   -7.5170439    19.519687   -4262.1172 
42206000    52.068932   -5279.9838   -5175.8396   -5279.9838            0    7647.4099    17.796337    22.584348    19.116176    7683.1478    7520.5246    8053.7698    7367.9352    195.52587    167.60801   -164.98264   -4318.9409 
42207000    52.263442   -5272.8093    -5168.276   -5272.8093            0    8108.1444    17.743027    22.654102    19.046844    7655.9234    7210.8602    8024.1539    9089.4192    277.82644    563.74612    1038.4672   -4262.9709 
42208000    54.574553   -5274.0296   -5164.8737   -5274.0296            0    8103.1307    17.717265    22.695186    19.085114    7674.0597    8468.7114    7907.2345    7933.4462   -100.97425    60.691404    -247.0944   -4257.9852 
42209000     54.06733   -5275.4857   -5167.3444   -5275.4857            0    9187.5015    17.775643    22.618444    19.016432    7645.6971    9226.3528    9078.5447    9257.6071   -421.36541   -180.82373   -648.00382   -4142.8952 
42210000     54.52422   -5273.2245   -5164.1693   -5273.2245            0    8705.0571    17.779252    22.563666    19.068351    7649.5569    8851.4793    8817.5371    8446.1549   -75.886427    -343.4101    279.35274    -4193.025 
42211000    51.989136   -5271.3665   -5167.3818   -5271.3665            0    8277.8752    17.755798    22.636897    19.077134    7667.7899    8867.8153    7373.9304    8591.8799    310.11005   -419.47143    167.01149   -4241.6931 
42212000    54.664638   -5274.3255   -5164.9895   -5274.3255            0    8801.3155    17.735067    22.654519    19.025415    7644.0202    9298.8839    8586.1686     8518.894    400.36043   -795.32227   -283.29378   -4183.8171 
42213000    53.516306   -5276.2964   -5169.2571   -5276.2964            0    8460.9133    17.856006    22.480404    19.074422     7656.668    8295.7607    8803.8044    8283.1748    37.922175   -333.94992   -73.862374   -4224.4722 
42214000     50.47849   -5273.2514   -5172.2881   -5273.2514            0    7900.3337    17.798462    22.508096    19.168624    7679.1329    7697.7537    8228.8141    7774.4334   -594.53501    33.649995   -223.91421   -4287.5118 
42215000    51.129974   -5282.3327   -5180.0664   -5282.3327            0    7865.6069    17.786157    22.637193    19.075547    7680.3622    7213.0939    7953.6307    8430.0962   -607.35661    215.46078   -924.94554   -4299.0382 
42216000    52.847256   -5277.5152   -5171.8142   -5277.5152            0    8202.4312    17.829731    22.600258    19.039015    7671.8954    7501.8403    8069.4322     9036.021   -914.82882   -170.27765   -731.82283    -4254.071 
42217000    51.588377   -5279.4623   -5176.2792   -5279.4623            0      8531.36    17.730085    22.641422    19.069211    7655.0362    8298.1413    9179.1448     8116.794    1051.9919    814.22052    703.00319   -4223.8309 
42218000    53.312944   -5270.9104   -5164.2779   -5270.9104            0    8346.4998    17.728632    22.618294     19.10903    7662.5565    8725.2416    8262.1786     8052.079    82.561459   -45.510852    781.24015   -4231.5521 
42219000    52.690128   -5275.3453   -5169.9585   -5275.3453            0    8356.3994    17.837847    22.464721     19.12973    7665.7082    7688.9928     8916.471    8463.7344   -202.61671    22.068968   -164.93184   -4235.7424 
42220000    50.487711   -5275.7368   -5174.7552   -5275.7368            0    8303.8723    17.824352    22.515657    19.101851    7666.0886    8461.1106     8584.706    7865.8002    -120.9591     411.8439   -32.094487   -4246.3653 
42221000    52.106553   -5274.7519   -5170.5324   -5274.7519            0    8547.5834    17.810381    22.503566    19.093712     7652.704    8042.0168    9527.2492    8073.4841   -507.85753     308.3719   -216.57153   -4216.5636 
42222000    51.736634   -5281.9055   -5178.4259   -5281.9055            0    8265.8923    17.776912    22.583259    19.116215    7674.4072    8510.2756    8226.4416    8060.9597   -492.48095   -67.093635     119.3983   -4253.2795 
42223000    52.657507   -5280.3427   -5175.0211   -5280.3427            0    8540.2683    17.760517    22.619333    19.068032    7660.2205     9018.821    8734.5415    7867.4425   -245.22588     662.6198   -108.63811   -4220.9326 
42224000    53.464671   -5274.1629   -5167.2269   -5274.1629            0    8862.5993    17.738819    22.632539    19.057998    7651.3003    9507.3659     8486.785    8593.6471   -147.22919   -296.21504    79.044779   -4178.2817 
42225000    51.761052   -5276.9796   -5173.4511   -5276.9796            0    8296.5963    17.799219    22.624777    19.056774    7674.2266     8393.369    8246.3746    8250.0454    652.20057    -205.5003    619.12172     -4244.89 
42226000     53.48309   -5276.7487   -5169.7759   -5276.7487            0    8556.0144    17.783616    22.639954    19.003466    7651.1802    8252.6678    8589.8354    8825.5399    661.48118   -132.58198    758.92165   -4215.0563 
42227000    59.398228   -5276.3051   -5157.5013   -5276.3051            0    8184.3026    17.718251    22.744679    19.017794    7664.0936    8495.7279    7727.6058    8329.5741   -57.784624   -45.404148   -219.08887   -4242.7177 
42228000    56.501553   -5274.9901     -5161.98   -5274.9901            0    8511.8732    17.774647    22.534727     19.11917    7658.1228    8840.7988    8885.5121    7809.3089   -31.157978    -126.6338    -206.3089   -4211.3241 
42229000    54.123541   -5276.7247   -5168.4709   -5276.7247            0    7889.6806    17.823345     22.65068    19.021472    7679.1755    7334.7477    8074.7018    8259.5921    1042.1238   -73.755331    58.481003   -4284.8827 
42230000    55.477894   -5270.1699   -5159.2072   -5270.1699            0    8831.9009    17.698692    22.697083    19.041836    7649.2707    9701.8084    8669.6609    8124.2334    69.177501    470.34175    369.37777   -4173.9489 
42231000    54.593855    -5269.119   -5159.9246    -5269.119            0    9635.4395    17.655061    22.693752    19.032988    7625.7491    10367.828    9365.0914    9173.3997    545.63956    30.085097    498.03633   -4088.3314 
42232000    54.351166   -5276.8317   -5168.1227   -5276.8317            0    8467.7345    17.761787    22.810281    18.905016    7659.3929    9089.9057    7494.0058    8819.2922    -601.6554   -129.12943    191.60152   -4222.2395 
42233000    52.194343   -5278.7503   -5174.3552   -5278.7503            0    7882.4869    17.768908    22.706787    19.030116    7678.1727    7365.1657    7921.2665    8361.0284   -117.04322   -197.85582   0.11769226   -4291.6879 
42234000    54.175963   -5271.8162   -5163.4575   -5271.8162            0    8385.9518     17.75135    22.719023     18.98549    7656.7215    8269.9246    8465.7593    8422.1715    740.35394    313.63277     106.9282   -4227.0366 
42235000    50.956285   -5277.4149    -5175.496   -5277.4149            0    8068.4904     17.79288    22.611524    19.080234    7676.4387    7937.4886    7864.2292    8403.7534   -140.96089   -79.212775   -157.61813   -4272.2044 
42236000    52.578652   -5278.4248    -5173.261   -5278.4248            0    7953.6985    17.766633    22.573652    19.145345      7678.39    8008.3344    8218.6519    7634.1093    729.23524    -180.7186   -225.79965   -4282.5943 
42237000    53.475791   -5278.9593   -5172.0011   -5278.9593            0    8119.4193    17.773366    22.531256    19.139017    7664.3391    8747.0364    8090.6333    7520.5881   -255.90127    -922.8535   -357.21628   -4264.4407 
42238000    52.652059    -5267.731   -5162.4203    -5267.731            0    8792.6832    17.847414    22.514491    19.026461     7645.316    8609.0865    8950.0665    8818.8967   -360.43772     92.58941    255.56134   -4182.0441 
42239000     54.21671   -5276.8755   -5168.4353   -5276.8755            0    8170.5072    17.760827    22.603604    19.095801    7666.1756     9274.506    7856.1464    7380.8691    672.81534    177.65655    1244.7748   -4254.9456 
42240000    53.989613   -5276.1603   -5168.1744   -5276.1603            0    7796.8898    17.837652    22.636416    19.021298    7680.4291    6730.5336    8166.9507     8493.185   -128.67651    -257.2518   -1047.2629   -4294.8355 
42241000     51.89078    -5276.911    -5173.123    -5276.911            0     8362.454     17.84261     22.53977    19.063371    7666.6836     8606.921    8403.9869    8076.4541   -313.76774   -420.69632   -339.38648    -4238.111 
42242000    53.060206   -5278.0405   -5171.9135   -5278.0405            0    8909.7464    17.768955    22.478784    19.184082    7662.5926    9471.9147    9054.4481    8202.8763   -239.93049     691.0884   -22.823706     -4176.24 
42243000    54.799531   -5274.0266   -5164.4207   -5274.0266            0    7968.2298      17.7794    22.670518    19.035832    7672.7387    8948.5449    7700.1743    7255.9702    643.29372   -365.43485   -197.73182   -4272.7836 
42244000    56.103481   -5275.6144   -5163.4005   -5275.6144            0    8153.0695    17.693441    22.711423    19.051795    7655.8346    8142.3849    8080.2799    8236.5439     288.8889   -350.43707   -302.58333   -4253.0899 
42245000    53.205559   -5269.7239   -5163.3062   -5269.7239            0    8145.5807    17.778807    22.786037    18.922274    7665.5751     7812.437    7849.7629    8774.5422    262.46813     340.9102    234.21086   -4252.6746 
42246000    54.083822   -5279.3318   -5171.1575   -5279.3318            0    8122.6895    17.784925     22.73301    18.962214    7666.5155    7997.6854     8077.283       8293.1   -205.16865    626.80057   -552.66246   -4262.9737 
42247000    53.360186   -5274.2462   -5167.5192   -5274.2462            0    8815.5628     17.73846    22.640665    19.057842    7653.8296    8559.8074    8874.3852    9012.4959   -322.76188    152.49677    136.21279   -4183.4974 
42248000    55.068409   -5276.5077   -5166.3641   -5276.5077            0    7748.5149     17.82921    22.643532    19.026843    7681.4465    7674.4024    7584.9566    7986.1858    -294.5135   -175.42699   -165.15435   -4298.3288 
42249000    52.626747   -5279.4463   -5174.1863   -5279.4463            0    7782.1092    17.816533    22.570678    19.096755    7679.4015      7729.34     7894.647    7722.3407   -181.67548   -77.325355   -78.571473   -4302.6197 
42250000    52.673756   -5268.8509   -5163.4969   -5268.8509            0    8582.8496    17.751271    22.597953    19.093459    7659.1956    9637.6417    8403.4076    7707.4996    360.76792   -360.95022   -526.12985   -4204.7796 
Loop time of 439.143 on 64 procs for 250000 steps with 1008 atoms

Performance: 98.373 ns/day, 0.244 hours/ns, 569.291 timesteps/s
383.8% CPU use with 16 MPI tasks x 4 OpenMP threads

MPI task timing breakdown:
Section |  min time  |  avg time  |  max time  |%varavg| %total
---------------------------------------------------------------
Pair    | 41.046     | 43.086     | 45.46      |  19.0 |  9.81
Bond    | 1.621      | 1.8038     | 2.3839     |  13.4 |  0.41
Kspace  | 208.34     | 216.64     | 221.66     |  24.6 | 49.33
Neigh   | 0.32854    | 0.36397    | 0.3919     |   3.3 |  0.08
Comm    | 54.452     | 59.817     | 65.453     |  41.7 | 13.62
Output  | 0.49622    | 0.49661    | 0.49829    |   0.1 |  0.11
Modify  | 98.945     | 100.54     | 102.55     |  10.9 | 22.90
Other   |            | 16.39      |            |       |  3.73

Nlocal:        63.0000 ave          65 max          60 min
Histogram: 1 0 2 0 5 0 1 0 2 5
Nghost:        3501.62 ave        3516 max        3491 min
Histogram: 2 0 3 3 3 1 1 1 1 1
Neighs:        21814.4 ave       22591 max       20720 min
Histogram: 1 0 2 2 3 1 0 1 2 4

Total # of neighbors = 349030
Ave neighs/atom = 346.25992
Ave special neighs/atom = 2.0000000
Neighbor list builds = 830
Dangerous builds = 0

unfix		3
unfix		2
unfix		1

write_data	data.final.${pid}
write_data	data.final.1
System init for write_data ...
PPPM initialization ...
  extracting TIP4P info from pair style
  using 12-bit tables for long-range coulomb (../kspace.cpp:340)
  G vector (1/distance) = 0.38039646
  grid = 24 27 32
  stencil order = 5
  estimated absolute RMS force accuracy = 0.0023424603
  estimated relative force accuracy = 7.0542497e-06
  using double precision FFTW3
  3d grid and FFT values/proc = 7875 1344
Last active /omp style is kspace_style pppm/tip4p/omp
WARNING: Not all mixed pair coeffs generated from mixing. Use write_data with 'pair ij' option to store all pair coeffs. (../write_data.cpp:312)

write_restart   restart.lmp.${pid}
write_restart   restart.lmp.1
System init for write_restart ...
PPPM initialization ...
  extracting TIP4P info from pair style
  using 12-bit tables for long-range coulomb (../kspace.cpp:340)
  G vector (1/distance) = 0.38039646
  grid = 24 27 32
  stencil order = 5
  estimated absolute RMS force accuracy = 0.0023424603
  estimated relative force accuracy = 7.0542497e-06
  using double precision FFTW3
  3d grid and FFT values/proc = 7875 1344
Last active /omp style is kspace_style pppm/tip4p/omp
Total wall time: 0:07:19
