LAMMPS (30 Jul 2021)
Processor partition = 1
  using 4 OpenMP thread(s) per MPI task
using multi-threaded neighbor list subroutines
variable        pid world 0 1
variable        phase world IceII IceIh

shell cd ${phase}
shell cd IceIh
include Restart.lmp
echo both
log log.lammps
#include		in.partitions
include		in.temp
variable        temperature equal 22.60
variable	tempDamp equal 100.0
include		in.pressure
variable        pressure equal 1998.3
variable        pressureDamp equal 1000.0 # This is 1 ps
include		in.seed
variable        seed equal 745823

units		real
atom_style	full
#include		in.box
read_restart	restart.lmp.${pid}
read_restart	restart.lmp.1
Reading restart file ...
  restart file = 30 Jul 2021, LAMMPS = 30 Jul 2021
  restoring atom style full from restart
  orthogonal box = (0.13223221 0.18794931 0.19123244) to (18.075340 23.441228 22.021963)
  2 by 4 by 2 MPI processor grid
  restoring pair style lj/cut/tip4p/long/omp from restart
  restoring bond style harmonic/omp from restart
  restoring angle style harmonic/omp from restart
  864 atoms
  576 bonds
  288 angles
Finding 1-2 1-3 1-4 neighbors ...
  special bond factors lj:    0        0        0       
  special bond factors coul:  0        0        0       
     2 = max # of 1-2 neighbors
     1 = max # of 1-3 neighbors
     1 = max # of 1-4 neighbors
     2 = max # of special neighbors
  special bonds CPU = 0.001 seconds
  read_restart CPU = 0.006 seconds
include 	in.setup
variable	out_freq equal 1000
variable	out_freq2 equal 10000
variable	out_freq3 equal 1000

timestep	2.0

neigh_modify    delay 7 every 1

include		in.tip4p
# This is TIP4P/Ice

# create groups ###
group ox type 2
288 atoms in group ox
group hy type 1
576 atoms in group hy

# set charges - beside manually ###
set group ox charge -1.1794
Setting atom values ...
  288 settings made for charge
set group hy charge 0.5897
Setting atom values ...
  576 settings made for charge

# ### TIP3P Potential Parameters ###
pair_style lj/cut/tip4p/long/omp 2 1 1 1 0.1577 8.5
pair_coeff 1 1*2 0.000 0.000
pair_coeff 2 2 0.21084 3.1668
bond_style  harmonic
bond_coeff  1 450 0.9572
angle_style harmonic
angle_coeff 1 55 104.52
kspace_style pppm/tip4p/omp 1.0e-5
pair_modify tail yes

thermo          ${out_freq}
thermo          1000
thermo_style    custom step temp pe etotal epair emol press lx ly lz vol pxx pyy pzz pxy pxz pyz enthalpy

restart 	${out_freq3} restart.lmp.${pid} restart2.lmp.${pid}
restart 	1000 restart.lmp.${pid} restart2.lmp.${pid}
restart 	1000 restart.lmp.1 restart2.lmp.${pid}
restart 	1000 restart.lmp.1 restart2.lmp.1


include         in.dump
dump            myDump all atom ${out_freq2} dump.water.${pid}
dump            myDump all atom 10000 dump.water.${pid}
dump            myDump all atom 10000 dump.water.1
dump            myDump2 all dcd ${out_freq2} dump.dcd
dump            myDump2 all dcd 10000 dump.dcd
dump_modify     myDump append yes
dump_modify     myDump2 append yes


variable natoms 	equal  "count(all)"                        # NUMBER ATOMS
variable H      	equal  "enthalpy/v_natoms"                 # ENTHALPY-per-atom
variable Vol      	equal  "vol/v_natoms"                 # volume-per-atom
fix AVG all 		ave/time ${out_freq} 1 ${out_freq} v_Vol v_H file vol_enthalpy.dat
fix AVG all 		ave/time 1000 1 ${out_freq} v_Vol v_H file vol_enthalpy.dat
fix AVG all 		ave/time 1000 1 1000 v_Vol v_H file vol_enthalpy.dat


timer           timeout 23:50:00 every 1000
New timer settings: style=normal  mode=nosync  timeout=23:50:00

fix 		1 all shake 1e-6 200 0 b 1 a 1
Finding SHAKE clusters ...
       0 = # of size 2 clusters
       0 = # of size 3 clusters
       0 = # of size 4 clusters
     288 = # of frozen angles
  find clusters CPU = 0.000 seconds
fix             2 all nph aniso ${pressure} ${pressure} ${pressureDamp}
fix             2 all nph aniso 1998.3 ${pressure} ${pressureDamp}
fix             2 all nph aniso 1998.3 1998.3 ${pressureDamp}
fix             2 all nph aniso 1998.3 1998.3 1000
fix             3 all temp/csvr ${temperature} ${temperature} ${tempDamp} ${seed}
fix             3 all temp/csvr 22.6 ${temperature} ${tempDamp} ${seed}
fix             3 all temp/csvr 22.6 22.6 ${tempDamp} ${seed}
fix             3 all temp/csvr 22.6 22.6 100 ${seed}
fix             3 all temp/csvr 22.6 22.6 100 745823


run             250000
PPPM initialization ...
  extracting TIP4P info from pair style
  using 12-bit tables for long-range coulomb (../kspace.cpp:340)
  G vector (1/distance) = 0.37225867
  grid = 24 27 25
  stencil order = 5
  estimated absolute RMS force accuracy = 0.0030930899
  estimated relative force accuracy = 9.3147483e-06
  using double precision FFTW3
  3d grid and FFT values/proc = 6300 1296
Last active /omp style is kspace_style pppm/tip4p/omp
Neighbor list info ...
  update every 1 steps, delay 7 steps, check yes
  max neighbors/atom: 2000, page size: 100000
  master list distance cutoff = 10.8154
  ghost atom cutoff = 10.8154
  binsize = 5.4077, bins = 4 5 5
  1 neighbor lists, perpetual/occasional/extra = 1 0 0
  (1) pair lj/cut/tip4p/long/omp, perpetual
      attributes: half, newton on, omp
      pair build: half/bin/newton/omp
      stencil: half/bin/3d
      bin: standard
Setting up Verlet run ...
  Unit style    : real
  Current step  : 43750000
  Time step     : 2
  Walltime left : 23:49:59.95
Per MPI rank memory allocation (min/avg/max) = 12.26 | 12.29 | 12.31 Mbytes
Step Temp PotEng TotEng E_pair E_mol Press Lx Ly Lz Volume Pxx Pyy Pzz Pxy Pxz Pyz Enthalpy 
43750000     23.67541   -4700.2607   -4659.6818   -4700.2607            0    1905.0417    17.943108    23.253279    21.830731     9108.569    2273.0402    1840.9992    1601.0856   -129.86994   -249.17454    85.565644   -4406.6177 
43751000    22.390085   -4700.4035   -4662.0277   -4700.4035            0    1919.5782    17.935577    23.260805    21.817864    9102.3248    1726.2538    2108.4092    1924.0716   -277.21014   -53.866212    -148.5485   -4407.2074 
43752000    22.437417   -4699.7593   -4661.3023   -4699.7593            0     2060.665    17.943365     23.24466    21.822993    9102.0957    1922.7859    2062.2561    2196.9531   -166.98172     63.05158    38.288919   -4387.7599 
43753000    23.076666   -4702.5576    -4663.005   -4702.5576            0    2119.7321    17.884023    23.280219    21.843129    9094.2551    2157.9247    1932.1434    2269.1282   -134.11712    73.491039   -190.92638   -4381.8642 
43754000    21.564041   -4702.0352   -4665.0752   -4702.0352            0    1940.0225    17.887568    23.217986    21.914471    9101.3715    1687.5633    2173.6962     1958.808   -39.845648    105.05869     216.0612   -4407.5679 
43755000    23.119765   -4700.9766   -4661.3501   -4700.9766            0    1938.6685    17.933996    23.179511    21.919137    9111.8129    1930.0513    2012.0782    1873.8759   -185.88509   -96.343901   -14.922535   -4403.7273 
43756000    23.888704   -4701.2343   -4660.2899   -4701.2343            0    1964.4357     17.92902    23.202984    21.889014    9105.9777    1805.0688    1972.8187    2115.4197    166.31888    11.942958    24.159851   -4399.4102 
43757000     23.06396   -4701.5592   -4662.0283   -4701.5592            0    1970.1709    17.978039     23.27223    21.763544    9105.6286    1433.6602    2226.2785    2250.5741   -257.22081   -20.968753   -57.437432    -4400.397 
43758000    23.319243   -4699.7093   -4659.7409   -4699.7093            0    2303.5104    17.904459    23.263197    21.812715    9085.3218    2595.6462    2114.5923    2200.2927   -71.757239   -135.79392    8.2871772   -4354.5256 
43759000    23.122258   -4700.1938    -4660.563   -4700.1938            0    1826.3358    17.939503    23.250683    21.846502    9112.3005    1509.6033    1942.7661    2026.6381    48.274174    271.14476    49.083196   -4417.8548 
43760000    22.866954   -4700.1391    -4660.946   -4700.1391            0    1897.1296     17.86289    23.267867     21.90899     9106.063     2171.555    1770.5147    1749.3189   -449.71513   -93.891344    90.735618   -4409.0023 
43761000    22.856476   -4700.7377   -4661.5625   -4700.7377            0    2101.4184    17.914457    23.182527    21.923004    9104.6759    2312.4433    2551.4272    1440.3847    202.68735    74.670494   -30.941788   -4382.5312 
43762000    23.546028   -4699.2867   -4658.9296   -4699.2867            0    2080.7194    17.845861    23.312853    21.891758    9107.8018    2059.2846     2101.294    2081.5796   -327.58536   -82.966471    59.355749   -4382.5519 
43763000    23.158013   -4699.3266   -4659.6345   -4699.3266            0    2161.8847     17.88711    23.260202    21.877578    9102.3368    1917.2388    2250.1141    2318.3012   -28.472501    9.9313923   -28.303833   -4372.6481 
43764000    22.125942   -4701.6344   -4663.7113   -4701.6344            0    1858.8894     17.86831    23.308402    21.881505    9113.2474    1781.2386    1890.2464    1905.1833    164.55468   -41.473886    337.01788   -4416.6512 
43765000    22.748259   -4701.2604   -4662.2707   -4701.2604            0    2155.0192    17.942867    23.255689    21.804991    9098.6498     1876.144    2079.8435    2509.0702   -153.35471    47.367758    125.94712   -4376.3115 
43766000    22.949328   -4701.2988   -4661.9644   -4701.2988            0    1844.0325    17.935604    23.211772    21.886364    9111.6687    1640.2978    2115.7859    1776.0138    -348.2316   -84.997396    136.00274   -4416.9213 
43767000     22.94898   -4701.0409   -4661.7071   -4701.0409            0     1901.929    17.909201    23.247727    21.879052    9109.3046    1725.2738    1929.1565    2051.3568    101.36974    3.4400529    351.05013   -4409.0361 
43768000    22.681692   -4702.9135   -4664.0379   -4702.9135            0    1930.6207    17.873343     23.28967    21.881508    9108.4898    1758.2135    1960.6425    2073.0061    137.73445   -182.82438   -226.18056   -4407.5781 
43769000    22.399968    -4700.639   -4662.2462    -4700.639            0    1891.1253    17.871453    23.256583    21.920552    9110.8153    1945.4588    2153.0082    1574.9091    19.228079   -43.670242    214.03351   -4410.9688 
43770000     22.37782   -4701.0611   -4662.7063   -4701.0611            0    1981.3915    17.858108    23.329307    21.852071    9103.9505    2039.6657    1976.7405    1927.7682    298.89354   -21.689021   -89.466102   -4399.6334 
43771000    22.538898    -4702.616   -4663.9851    -4702.616            0    2195.5471    17.884793    23.283055    21.840205    9094.5368      2447.47     2010.523    2128.6483    12.595839    43.608187    41.638652   -4372.7799 
43772000    23.957152   -4701.1736   -4660.1118   -4701.1736            0    1960.8304    17.920741    23.273678    21.842472     9110.092    1814.7362    1867.6581     2200.097     31.27261    3.8812852     160.2053   -4399.5933 
43773000     21.68085   -4701.3048   -4664.1445   -4701.3048            0    1917.7168    17.980951    23.222298    21.815662    9109.3262    1687.2532    1755.4525    2310.4446   -196.01539   -20.362479    120.43837   -4409.3755 
43774000    23.780431   -4698.4579    -4657.699   -4698.4579            0    1995.9122    17.935906    23.219106    21.853873    9101.1696    1806.2406    1911.4861      2270.01   -536.80401   -121.18538     159.9386   -4392.7791 
43775000     22.91078   -4700.1828   -4660.9145   -4700.1828            0    2105.7481    17.872503     23.21829    21.922497    9097.1557    2385.4045    2033.4896    1898.3502   -82.948802    86.529173    11.485876   -4381.5392 
43776000    23.376887   -4699.8406   -4659.7734   -4699.8406            0    1902.4717    17.858855    23.353421    21.848965    9112.4467    1868.4766    1748.6358    2090.3028    26.351502   -19.102002    291.65775   -4406.9431 
43777000    22.904222   -4699.1826   -4659.9256   -4699.1826            0    1988.3056    17.827047    23.245174    21.968761    9103.6966    2195.7432    2415.9331    1353.2407     179.3352    99.122321    10.667594    -4395.942 
43778000    22.565001   -4702.5146    -4663.839   -4702.5146            0    1838.2153    17.908191    23.284334    21.859747    9115.0842    1693.0554    1772.9087    2048.6817    -426.1513   -73.033544    375.16531   -4419.4774 
43779000    21.909033   -4701.6758   -4664.1245   -4701.6758            0    1916.6349     17.90857    23.208594    21.920033     9110.683    1769.8197    1928.0261     2052.059    -85.55512   -31.385436    124.78803   -4409.4613 
43780000    23.414792   -4700.2247   -4660.0926   -4700.2247            0    1966.2018    17.881186    23.213819    21.936532    9105.6487    2200.4527    1780.8135    1917.3391   -381.79211   -3.9909384    174.98122   -4398.9878 
43781000    23.212994   -4699.0239   -4659.2376   -4699.0239            0    2161.0676    17.960665    23.266787    21.775048    9099.5087    1969.1826    2228.6416    2285.3785   -316.33255   -50.074123     45.04717   -4372.4488 
43782000     22.58751   -4699.0828   -4660.3686   -4699.0828            0    1985.3938    18.000439    23.156642    21.833915    9101.0247     1288.721    2635.8439    2031.6164    152.35192    74.571752    77.692237    -4396.849 
43783000    22.784009   -4700.6086   -4661.5576   -4700.6086            0    1828.1755    17.884585    23.302193    21.887038    9121.4242    1720.7981    1798.5293    1965.1989   -302.64069   -234.68391    164.51871   -4418.3616 
43784000    21.729557   -4701.0745   -4663.8308   -4701.0745            0    1998.1091    17.894037    23.349404    21.782288    9100.9689    2100.3359    1683.0545    2210.9368   -169.62101     140.9565    68.883146   -4398.6252 
43785000    22.620224   -4705.1242   -4666.3539   -4705.1242            0    1834.7275    17.873695    23.235407    21.955938    9118.3576    1751.1654    1873.2439    1879.7731   -173.40912   -374.20182   -212.50092   -4422.3683 
43786000    21.794801   -4701.0277   -4663.6722   -4701.0277            0    1920.9574    17.952845    23.218268    21.843568    9105.1406    1575.1733    2089.8314    2097.8675    62.881161    160.98371    228.97765   -4408.5899 
43787000    22.695259   -4699.8967   -4660.9978   -4699.8967            0    1894.1507    17.852001    23.213988    21.969906    9104.6832    2288.6184    2018.2722    1375.5613   -227.29395    75.622066   -203.62109   -4409.4878 
43788000    22.952198   -4701.2207   -4661.8814   -4701.2207            0    1813.5628    17.895636    23.305418    21.838336    9108.0117    1532.4111    1898.0375    2010.2397   -258.03153    -3.793738    91.266245    -4420.984 
43789000    23.035515   -4700.3308   -4660.8488   -4700.3308            0    1995.2401    17.890416    23.237281    21.907739    9107.5868    1756.3224    2469.2062    1760.1916    77.208639   -109.88387   -184.50511   -4395.8314 
43790000    22.648601   -4700.9617   -4662.1427   -4700.9617            0     2209.177    17.849197    23.278352    21.886817    9093.9703    2243.3043    2329.2297     2054.997    -161.0818    -238.1704    84.986158   -4369.1479 
43791000    22.006547   -4700.2854   -4662.5669   -4700.2854            0    2056.1765     17.90894    23.229238    21.875898    9100.6147    1936.7216    2211.0529    2020.7551   -311.23415    146.24394    302.90674   -4389.6647 
43792000     22.90146   -4701.0086   -4661.7563   -4701.0086            0    2056.6538    17.818727    23.319499    21.900931    9100.3577    2474.0103    1468.2604    2227.6906   -338.69029   -148.15821    -47.51621   -4388.7985 
43793000    22.691932    -4700.179   -4661.2858    -4700.179            0    2018.5488    17.884586     23.28112    21.865714     9104.297    2587.0322    1758.8036    1709.8105    10.824777    14.216536     230.0311   -4393.2693 
43794000    22.442557   -4699.7662   -4661.3005   -4699.7662            0    1907.1373    17.878216    23.243733    21.919454    9108.7715    2004.9905    2089.0031    1627.4182    75.849438   -294.30472    131.83296   -4407.9524 
43795000    20.871965   -4701.6643   -4665.8905   -4701.6643            0    1889.4897    17.908694    23.195084    21.928575     9108.991    1765.9706    2189.6948    1712.8037   -104.34088   -170.79969    -22.13392   -4414.8807 
43796000    23.081859   -4700.4958   -4660.9343   -4700.4958            0    2033.2233    17.962301    23.260569    21.792791    9105.3188    2036.9043    2164.3792    1898.3864    258.51222   -37.777472   -5.7123378   -4390.9391 
43797000    21.494821   -4699.5778   -4662.7364   -4699.5778            0     2061.757    17.827656    23.274429    21.922381    9096.2205    2212.8244    2164.6393    1807.8074   -251.38607   -88.663405   -27.571467   -4389.2257 
43798000     23.19436   -4700.2529   -4660.4985   -4700.2529            0    2325.1715    17.763611    23.364345    21.886889     9083.828    2760.5803    2061.4331    2153.5012    134.80259   -113.00839    69.556666   -4352.4637 
43799000    23.254962   -4701.5078   -4661.6495   -4701.5078            0    1655.8823    17.864455    23.245855    21.966901    9122.2944    1815.0342    1541.5611    1611.0515   -353.93553    27.485466    50.650526   -4441.3521 
43800000    22.327424   -4700.0683   -4661.7999   -4700.0683            0    2050.5467    17.880802    23.237833    21.910957    9104.2456    2328.2264     1767.179    2056.2347   -24.886111    245.36677    343.98712   -4389.5363 
43801000    23.625038   -4699.6506   -4659.1581   -4699.6506            0    1992.1702    17.838003    23.316585    21.892553    9105.5799    2507.9966    1762.5912    1705.9226    91.944518   -85.365057    278.01194   -4394.6067 
43802000    23.100524   -4701.9637   -4662.3702   -4701.9637            0    2026.1047    17.975204    23.209219    21.817683    9102.1289    1882.3775    1931.5245    2264.4121   -111.42203   -55.038364   -37.178403   -4393.4145 
43803000    22.253771   -4701.5385   -4663.3963   -4701.5385            0     1945.491    17.873532    23.271588    21.894523    9106.9278    2220.4727    2068.0136    1547.9866   0.57305049   -99.695092     186.7375   -4405.0055 
43804000     23.66396   -4700.9448   -4660.3856   -4700.9448            0    1942.5053    17.876431     23.17472    21.981846    9106.6675     1977.839    2382.2206    1467.4563    39.447692    200.71149   -36.208136   -4402.3987 
43805000    23.015768   -4701.0314   -4661.5832   -4701.0314            0      2000.85    17.826433    23.297141    21.922343    9104.4566    1820.8142    2268.9887     1912.747   -374.53698   -66.269092    427.73396    -4395.912 
43806000    23.054575   -4698.6186   -4659.1038   -4698.6186            0    2115.6199    17.829344    23.334815    21.868388    9098.2215    2474.4942    2034.6249    1837.7404   -35.287754    49.115211    114.37085    -4378.386 
43807000    23.395922   -4702.0883   -4661.9885   -4702.0883            0    1934.9274    17.870913    23.250289    21.925338    9110.0634    2054.2509     1954.478    1796.0534    32.356749   -228.01009   -210.38418   -4404.9122 
43808000    21.553209   -4698.1581   -4661.2167   -4698.1581            0      2090.13    17.924075    23.233432    21.868412    9106.8332    2035.3909    2129.5091    2105.4899    16.047205    296.67998   -94.477788   -4383.6185 
43809000    22.580977    -4699.962    -4661.259    -4699.962            0    2116.6437    17.923758    23.124077    21.951023    9098.0487    1914.2533    2835.8578    1599.8199   -352.32749     -105.469   -27.554012   -4380.4106 
43810000    22.148448   -4703.1729   -4665.2112   -4703.1729            0     1857.846    17.900614    23.310341    21.837418    9112.0866    1820.6825    1831.4154      1921.44   -202.01726    237.17876    146.21105   -4418.3212 
43811000    22.121646   -4699.7871   -4661.8713   -4699.7871            0    2124.9617    17.861383    23.284946    21.877787    9099.0011    2077.5373    1837.8767    2459.4711    43.676537   -217.26192     65.16066   -4379.8898 
43812000    22.710863   -4699.5162   -4660.5906   -4699.5162            0    1913.7093    17.894061    23.229011    21.918344    9110.6081    1778.3444    2093.9981    1868.7854    284.86859     -6.70592   -26.984689   -4406.3182 
43813000    24.011118   -4700.8959   -4659.7417   -4700.8959            0    1838.8494    17.918441    23.230443    21.909911    9120.0732    1453.1921    2272.7697    1790.5863    12.572692   -114.22762   -191.60792    -4415.162 
43814000    23.054364   -4700.8699   -4661.3555   -4700.8699            0    1887.6513    17.804782    23.302588     21.95133    9107.5519    2286.4047    2029.8458    1346.7034   -93.860657   -496.47454     130.2082   -4410.6295 
43815000    21.561792   -4701.2994   -4664.3432   -4701.2994            0    2119.2397    17.925306    23.215305    21.861258    9097.3757    2223.7778    2181.7266    1952.2148   -25.440093     256.0975    28.572457   -4383.1712 
43816000    23.650654   -4701.0662   -4660.5298   -4701.0662            0    2169.2162    17.835136    23.347633    21.836729    9092.9931    2526.5838    1427.9366    2553.1283    34.377077   -250.47207   -54.862799   -4372.8657 
43817000     21.79285   -4702.1799   -4664.8277   -4702.1799            0    1834.3176    17.892089    23.343026    21.801228    9105.4026    1673.5317     1353.007    2476.4141   -296.85932    388.47866     40.03305   -4421.2432 
43818000    22.704973   -4701.8944   -4662.9789   -4701.8944            0    2057.4028    17.920336    23.240162    21.868382    9107.5584    1566.9628    2272.7684    2332.4772   -96.104444    -219.9591   -20.268985   -4389.7056 
43819000    21.828757   -4703.4071   -4665.9934   -4703.4071            0     1772.675    17.921668    23.175855     21.93669    9111.4033    1513.1548    1997.7661    1807.1042    115.37908   -38.925887    135.39478   -4430.4395 
43820000    22.716772   -4700.3626   -4661.4268   -4700.3626            0    2002.8143     17.87337    23.211821    21.948605    9105.8943    2056.0474    1946.2417    2006.1539    120.13308     62.88102    230.08586   -4395.4528 
43821000     22.17732     -4700.54   -4662.5289     -4700.54            0    2006.1222    17.891525    23.324408    21.822407    9106.6918    2170.4531     1809.675    2038.2386   -165.06981   -234.13552   -192.35248   -4396.0922 
43822000     24.54907   -4699.3587   -4657.2824   -4699.3587            0    2119.2762    17.874746    23.318396    21.816543    9093.3622    2176.9295    1842.5926    2338.3066   -196.38482   -41.849644    151.85083   -4376.2296 
43823000    21.575549   -4702.6832   -4665.7034   -4702.6832            0    1920.5983    17.948327    23.280914    21.805552    9111.5253     1721.392    2129.5134    1910.8896   -353.22788   -32.707244   -92.194853     -4410.49 
43824000    21.947076   -4700.0865     -4662.47   -4700.0865            0    1802.5461    17.907374    23.217663    21.907762    9108.5327    1643.7769    1831.4687    1932.3927    156.84253   -58.141627    32.272081   -4423.0223 
43825000    21.774214   -4699.1807   -4661.8604   -4699.1807            0     2163.656    17.929786    23.249449    21.830034    9100.0167    1778.0022    2127.3379     2585.628   -156.15279    97.231273    6.4399363   -4374.7121 
43826000    21.832375   -4701.0306   -4663.6106   -4701.0306            0    1674.9065    17.949483     23.20782    21.897367    9121.7507    2014.6482      1616.04    1394.0314   -289.09509    -21.23951   -189.91348   -4440.7955 
43827000     22.53764   -4701.8787     -4663.25   -4701.8787            0    1921.0036    17.904615     23.25455    21.864547    9103.6052    2090.9874    1704.1133    1967.9101   -391.55519    167.16992    358.11381   -4408.2046 
43828000    23.533184    -4699.122   -4658.7869    -4699.122            0    2226.9568    17.940465    23.308441    21.772153    9104.3366    2009.9174    2086.8458    2584.1073    80.918556   -354.04766   -108.48497   -4363.0973 
43829000    22.922255   -4702.1964   -4662.9084   -4702.1964            0    1984.8682    17.896709    23.374044     21.77677    9109.6248    1944.2663    1903.2905    2107.0477   -192.46024    274.47314    215.12327   -4399.2097 
43830000    23.378039   -4698.0007   -4657.9315   -4698.0007            0    1987.4245    17.900696    23.259659    21.873734     9107.437    1999.5663    1924.8014    2037.9059   -259.36237   -154.81384   -74.332268   -4393.9566 
43831000    22.660773   -4701.2115   -4662.3717   -4701.2115            0    1961.2828     17.86561    23.177297    21.987392    9104.4634    1986.0872    2093.8409    1803.9203   -360.97731    260.53639    128.63977    -4401.954 
43832000     22.41378   -4701.6843   -4663.2678   -4701.6843            0    1850.7769    17.905283     23.19982    21.927375    9108.6171    1639.6535    2083.6621    1829.0152   -99.851558    3.7627642    219.12879   -4417.4109 
43833000    22.185207   -4702.7676   -4664.7429   -4702.7676            0    2048.0079    17.900732    23.301401      21.8103    9097.3408    1603.7939    2353.9878    2186.2419   -299.26452   -196.17097   -52.064908   -4393.0227 
43834000    23.868015   -4699.8583   -4658.9494   -4699.8583            0    1882.0787    17.934017    23.236825    21.861614    9110.3822    2018.9566    1665.2902    1961.9894    186.70623   -51.317809    9.7985529   -4408.8859 
43835000     23.00239   -4701.0075   -4661.5822   -4701.0075            0    2125.7488    17.865931    23.274308    21.887346     9101.135    2388.4425    1978.6621    2010.1418   -352.98159   -229.60309   -15.366638     -4379.43 
43836000    22.944615   -4702.0046   -4662.6783   -4702.0046            0    1894.8858     17.89518    23.235354    21.907969    9109.3521    1837.1205     1970.152     1877.385    27.694233   -57.256616    55.295775   -4410.9417 
43837000    22.444169   -4702.4808   -4664.0123   -4702.4808            0    1930.8361    17.895257    23.252117    21.892605    9109.5702    2009.6395    2080.0959     1702.773   -139.13296    53.979304    35.836083   -4407.4935 
43838000     23.62071   -4699.1399   -4658.6548   -4699.1399            0    2003.6206    17.966265    23.167585    21.869213    9102.7312    1635.4057    2418.7366    1956.7197   -156.42839     -9.95896    309.05376   -4392.6662 
43839000    22.472752   -4702.6736   -4664.1561   -4702.6736            0    2384.4826    17.896481    23.310569    21.775082    9084.0666    2205.8404    2103.8361    2843.7713    185.74549   -31.631235    132.63022   -4348.2555 
43840000    23.164888   -4702.6137   -4662.9099   -4702.6137            0    1973.2133    17.899535    23.248425    21.890146    9109.2772    2115.6459    1912.3001    1891.6939   -179.82727    425.54886    81.233311   -4400.7696 
43841000    21.877141   -4702.4224   -4664.9257   -4702.4224            0    1339.0813    17.841899    23.395587    21.874277    9130.7977    1648.7475    1060.3528    1308.1437   -136.55168   -218.89713   -95.569018   -4486.6092 
43842000    23.122859   -4699.5258    -4659.894   -4699.5258            0    2151.6018    17.866669    23.265566    21.892779    9100.3499    2212.4162    2319.8082     1922.581    63.809206    -125.5814    58.864396    -4374.335 
43843000    22.169386      -4702.6   -4664.6024      -4702.6            0    2040.6368    17.845052    23.246524    21.930034    9097.3553    2183.2484    2077.4468    1861.2152   -5.2786591    79.930248   -86.184792   -4393.8597 
43844000    23.104773   -4702.7249   -4663.1241   -4702.7249            0    1679.7244    17.909923    23.254749     21.90097    9121.5518    1503.0628    2176.9784    1359.1319    -23.53084    223.73192    235.62294   -4439.6729 
43845000    21.768697   -4700.6789   -4663.3681   -4700.6789            0    2018.9712    17.912404    23.225748    21.884955    9104.7755     2151.402    1763.7554    2141.7562    -356.8967    10.268036    8.0966189   -4395.2814 
43846000    22.852211   -4699.8339    -4660.666   -4699.8339            0    2024.3446    17.818609    23.363524    21.881431    9109.3602    2182.7102    1793.7254    2096.5983   -224.30526   -69.384085    256.63149   -4391.7304 
43847000    23.417441    -4701.986   -4661.8493    -4701.986            0     1999.008    17.912795    23.270181    21.844965    9105.7239    2163.7032    2009.2532    1824.0675    58.998495    180.11327    165.96944   -4396.3858 
43848000    21.808899   -4703.0601   -4665.6804   -4703.0601            0    1813.1592    17.857945     23.37673    21.836712    9115.9616    1883.6383    1789.2509    1766.5883   -291.69772    -58.31304   -1.1403725   -4424.6264 
43849000    23.072678   -4700.6534   -4661.1076   -4700.6534            0    1751.3417    17.871284    23.284661    21.904253    9114.9464    1829.1947    1889.1918    1535.6385   -274.75574    223.24402     15.96514    -4428.298 
43850000    21.730151   -4700.6514   -4663.4066   -4700.6514            0    2316.6622    17.876058    23.297123    21.819906    9087.1337    2598.8204    1998.0232    2353.1431    69.799985   -6.9692451    68.439778   -4356.3874 
43851000    22.890618   -4705.0699   -4665.8362   -4705.0699            0    1993.6291    17.909089    23.194829    21.919572     9105.352    1844.8477    1832.5149    2303.5246   -205.70458   -154.15386   -77.652742   -4401.0978 
43852000    23.960395    -4701.676   -4660.6087    -4701.676            0    1977.7107    17.877026    23.247539    21.906496    9104.2709    1737.8317    1935.9819    2259.3186   -43.481601   -169.76838    99.524621   -4398.0152 
43853000    21.117141    -4696.696   -4660.5019    -4696.696            0    2085.1711    17.893869    23.247126    21.860215     9093.435    2026.9239    2310.7975     1917.792    282.24402   -142.82814    2.8445971   -4383.9698 
43854000    22.733267   -4701.2843   -4662.3202   -4701.2843            0    1997.0812     17.87733    23.312823    21.825935    9096.4175    1973.7268         2192    1825.5167   -256.73294    92.288835     207.2398   -4397.3836 
43855000    23.330881   -4700.3638   -4660.3754   -4700.3638            0    2117.3909    17.851086    23.258664    21.924521    9102.8951    2176.6113    2212.1592    1963.4023   -285.50329     37.62216   -200.16749   -4379.2783 
43856000    22.545173   -4702.5252   -4663.8836   -4702.5252            0    2007.5508    17.898975    23.207807    21.910574     9101.564     1947.656    2088.3745    1986.6219    258.13273   -82.484698   -60.307666   -4397.4073 
43857000    21.073724   -4700.3701   -4664.2504   -4700.3701            0    1761.6209    17.900558    23.304831     21.86761    9122.4991    1540.5627    1818.0041     1926.296   -216.98508    148.27832    371.72173   -4429.8803 
43858000    22.681724    -4700.591   -4661.7153    -4700.591            0    2069.3908    17.807706    23.255588    21.958292    9093.5583    2265.5164    2512.5857    1430.0704    135.70109    8.5762391   -214.37036   -4387.2722 
43859000     23.16389   -4703.2577   -4663.5556   -4703.2577            0    1925.2054     17.91364    23.275945    21.834216    9103.9266    2022.2483    1872.3293    1881.0387   -357.05874    201.94101     202.4297   -4407.9434 
43860000     22.68215   -4701.5709   -4662.6945   -4701.5709            0    1994.3763    17.922033    23.159676    21.926224    9100.8843    1912.3426    1976.6642    2094.1221    -18.31753    104.89295   -77.538647   -4397.9867 
43861000    23.421938   -4702.0431   -4661.8987   -4702.0431            0    1868.5549    17.893255    23.222394    21.915787    9106.5402    2041.4194    1875.3019    1688.9435    -418.9678   -21.130877    38.579164   -4413.7367 
43862000    22.827243   -4700.6384   -4661.5133   -4700.6384            0    1833.4558    17.907621    23.322007    21.813483    9110.2198    1847.4518    1700.4622    1952.4536   -43.510322   -124.76927    10.784177   -4417.9145 
43863000    22.156089   -4699.8037    -4661.829   -4699.8037            0    2073.6697     17.85681    23.230616    21.934734    9099.0695    1964.0114     2428.107    1828.8905    -523.2614   -224.18707   -158.75133   -4386.6518 
43864000    23.918868   -4699.3315   -4658.3354   -4699.3315            0    2070.4343    17.803953    23.301518     21.95473    9108.1201    2139.4928    2374.3772     1697.433   -268.86854    233.05062     284.8739   -4383.3143 
43865000    22.717913   -4698.7581   -4659.8204   -4698.7581            0     1801.401    17.858314    23.303909    21.889014    9109.5185    1835.2757    1646.8197    1922.1077    292.42696   -36.570301   -191.42512   -4420.4989 
43866000    21.884746   -4699.9757    -4662.466   -4699.9757            0    2286.4377    17.868863    23.171913    21.946837    9087.2138    2550.8135    2304.4457    2004.0538   -347.29122   -112.77448    234.77705   -4359.4497 
43867000    22.768933    -4704.294   -4665.2688    -4704.294            0    1866.1038    17.921114    23.346282    21.764528    9106.0912    1957.2203    1658.4209      1982.67    102.54171   -179.55079   -339.39443   -4417.4446 
43868000    22.777747   -4702.8691   -4663.8288   -4702.8691            0    2025.4842    17.923276    23.186615    21.904466    9103.0602    1892.6251     2266.331    1917.4966   -91.538749    213.18846    245.69899    -4394.928 
43869000    22.927228   -4700.4577   -4661.1613   -4700.4577            0     1792.224    17.890606    23.250066    21.902872    9110.6697     1673.604     1989.179    1713.8889    61.746024    1.2450636    99.167646   -4423.0289 
43870000      21.7263   -4701.2442    -4664.006   -4701.2442            0     2016.418    17.907323    23.276241    21.830051    9099.0961    1669.9389    2128.5186    2250.7966    -14.43396   -110.71623    163.57075   -4396.4254 
43871000    22.053464   -4701.6495   -4663.8506   -4701.6495            0    1842.2019    17.839221    23.295806    21.904281    9102.9597    1758.3991    1787.1343    1981.0721   -152.54752    118.16157    217.13805   -4419.2848 
43872000    24.533849   -4702.1298   -4660.0796   -4702.1298            0    1694.1245    17.893188    23.295245    21.868899    9115.5298    1793.1476    1670.4417    1618.7843   -198.65048   -187.76644     42.28135   -4434.8616 
43873000    22.034709   -4702.8031   -4665.0364   -4702.8031            0    1984.7131    17.913476    23.297761    21.817276    9105.3069    1878.0401    1733.1198    2342.9794   -409.05369    175.59925    366.91347   -4401.4832 
43874000    22.934249   -4699.8888   -4660.5803   -4699.8888            0    2137.0014     17.82925    23.411325    21.806909    9102.3422    2373.1287    1518.1736     2519.702     33.89817   -305.54505   -85.559192    -4376.897 
43875000    24.567154   -4701.2085   -4659.1012   -4701.2085            0    1984.6289    17.905574    23.222696     21.88841    9101.5446    1868.9597    2463.5981    1621.3289   -47.126554    158.72173    68.429875   -4395.6681 
43876000    22.341359    -4700.259   -4661.9667    -4700.259            0    2118.4846    17.944871    23.216318    21.845644    9101.1976    1600.2539    2794.6748     1960.525    235.75672    26.736175    2.9238618   -4380.7768 
43877000    23.106903   -4700.7049   -4661.1005   -4700.7049            0    2058.1121    17.950069    23.219791    21.829189    9098.3369     1640.779    1748.8819    2784.6754   -151.09113   -40.499777   -58.345928   -4388.0098 
43878000    22.712732   -4700.1889     -4661.26   -4700.1889            0    2006.1203    17.824968    23.308438    21.905077    9100.9495    2463.1251    1944.5064    1610.7293   -309.79194   -222.46015    232.57149   -4394.9917 
43879000    22.871153   -4699.0003      -4659.8   -4699.0003            0     1867.052    17.882747    23.330744    21.801737    9096.0724    2209.6299    1492.6864    1898.8398    16.184128   -15.329506   -90.651956   -4412.1227 
43880000    22.528276   -4703.2237    -4664.611   -4703.2237            0    1759.3927    17.848539    23.311745    21.890365    9108.1558    1892.1949    1618.8592     1767.124    275.90173   -27.861285    269.58623   -4430.9054 
43881000    21.688123   -4701.4735   -4664.3008   -4701.4735            0    1966.5971    17.829129     23.37486    21.842722    9103.0286    2279.8775     1519.606    2100.3078   -314.97603   -98.392713   -239.90626   -4403.2186 
43882000    23.583187   -4699.3368    -4658.916   -4699.3368            0    2219.0988    17.924413    23.176978    21.894788     9095.833    2069.8472    2114.5877    2472.8615    -95.11151   -60.781915    197.08966    -4364.545 
43883000    21.287659   -4700.0635   -4663.5771   -4700.0635            0    2026.8296    17.885618    23.297039     21.84518    9102.4916    1915.2586    2022.2067    2143.0235    208.24085    104.82816    44.492413   -4394.5145 
43884000    21.578101   -4702.4168   -4665.4327   -4702.4168            0    2115.7303     17.89077    23.290696    21.828206    9095.5617    1849.9193    2008.7393    2488.5322   -113.28406   -178.61219   -52.049165   -4384.7823 
43885000    21.582842   -4702.3301   -4665.3378   -4702.3301            0    1917.8272     17.85787    23.268254    21.906803    9102.7467    1819.3894    1951.2457    1982.8466    216.08615    138.34319    121.84173   -4410.7381 
43886000    21.771285   -4699.4059   -4662.0907   -4699.4059            0    1766.0305     17.90456    23.240116    21.894262    9110.2911    1876.1317    2154.7353    1267.2244   -156.21804   -249.52477    238.02173   -4427.4483 
43887000    22.083161   -4701.0546   -4663.2048   -4701.0546            0    2237.8018    17.891132    23.167287    21.931166    9090.2267    2357.2268    2685.3893    1670.7893    169.89536    75.213564    282.01789   -4366.5358 
43888000    22.641782   -4701.1041   -4662.2969   -4701.1041            0    1812.0913     17.91896    23.194658    21.917094    9109.2736    1693.2272    1652.4489    2090.5978   -301.39997   -133.01212   -14.100707   -4421.5616 
43889000    21.120177   -4703.1723   -4666.9731   -4703.1723            0    1901.9102    17.945359    23.208974    21.888345    9116.3509    1890.9054    2035.0734    1779.7519   -211.26165     86.06791    287.32381   -4414.1091 
43890000    22.303692   -4701.0215   -4662.7938   -4701.0215            0    2078.2589    17.907493    23.259419    21.854195    9102.6634     2024.115    2046.7189    2163.9427   -189.14405   -181.60439    -17.58753   -4386.8986 
43891000    22.902028   -4702.6146   -4663.3613   -4702.6146            0    2169.5265    17.890319    23.144322    21.970586    9097.1252    2078.2426    2535.4821    1894.8548    -209.0557    -83.46218    96.288743   -4375.5254 
43892000    22.530861   -4702.4277   -4663.8106   -4702.4277            0    2013.3813    17.865967    23.282538    21.876004    9099.6532    2105.8246    2093.8358    1840.4834    28.142154   -60.389647    -43.06617   -4396.6165 
43893000    21.937903   -4701.9688    -4664.368   -4701.9688            0    1915.3423     17.89248    23.253589    21.899399    9111.5599    1839.2123    1878.1776    2028.6369   -101.59373    158.26125   -2.3292611    -4409.852 
43894000    22.623222   -4702.0591   -4663.2837   -4702.0591            0    1923.3577    17.885386    23.312217    21.850599    9110.5635    2150.0376     1739.188    1880.8474    386.78937   -106.74117    74.263687   -4407.7306 
43895000    24.297549   -4702.0811    -4660.436   -4702.0811            0     1899.668    17.837555    23.325573     21.88799    9106.9617    2100.1004    1729.4212    1869.4823   -162.54211   -218.11479    52.869852   -4408.1302 
43896000    22.181963   -4701.0359   -4663.0167   -4701.0359            0    2013.8228    17.966664    23.163153     21.87323    9102.8635    1892.5316    2110.8348     2038.102    -337.6185   -23.722113    48.000793   -4395.6698 
43897000    20.704963   -4700.6481   -4665.1605   -4700.6481            0    2102.7898    17.839348    23.352391    21.842099    9099.2311    2218.5434    1814.0239    2275.8022   -446.08784   -85.973183    2.6539289   -4386.1141 
43898000    21.932714   -4703.3278   -4665.7358   -4703.3278            0    1890.2311    17.902215     23.27297    21.851825    9104.2941    1813.5967     1875.701    1981.3957   -153.57839   -252.51919    115.91676    -4414.757 
43899000     23.70298   -4699.5711    -4658.945   -4699.5711            0     1984.717    17.961006    23.262224    21.791015    9104.5682    1588.3287    1971.4414    2394.3808   -35.919619   -114.59659    111.62382   -4395.4127 
43900000    22.575225   -4701.7245   -4663.0314   -4701.7245            0    2179.3529    17.869093    23.214761    21.933306    9098.5216    2105.0856    2144.0657    2288.9073     -30.1878    9.4429996   -158.70277   -4373.8474 
43901000     22.69047   -4699.7285   -4660.8378   -4699.7285            0     2018.382     17.88262    23.266161    21.872716    9100.3607    2298.9643    2219.8886    1536.2932   -112.75099    -137.0596    183.56272   -4392.9593 
43902000    21.288022   -4701.1935   -4664.7066   -4701.1935            0    2060.8113    17.857593     23.31531    21.866869    9104.3873    2511.4629     1783.223    1887.7479   -303.40093    6.6062719   -160.95252   -4391.0759 
43903000    22.708928   -4701.1952   -4662.2729   -4701.1952            0    1757.2519    17.845575    23.317756    21.918153    9120.5548    2180.0989    1486.1399    1605.5168   -113.23023   -112.16406    158.07523   -4428.5339 
43904000    22.192582   -4702.1675   -4664.1301   -4702.1675            0    2064.8098    17.859711    23.259165    21.918126    9104.8327    2462.7129    1836.1165    1895.5999   -103.82941   -17.321445    147.99162   -4389.9551 
43905000    21.805261   -4699.8093   -4662.4359   -4699.8093            0    2044.8729    17.896531    23.247086    21.880148    9103.0649    1860.7632    2221.2747    2052.5807    330.88867   -113.42448   -106.23786   -4390.9609 
43906000    21.142917   -4702.6705   -4666.4322   -4702.6705            0    1976.8268     17.94615    23.124652    21.940951    9105.4607    1497.1273    2417.9954    2015.3577   -329.85923     79.67332    226.11828   -4403.9219 
43907000    21.876581   -4701.3219   -4663.8262   -4701.3219            0    2003.0347    17.837064    23.297724    21.897227    9099.6777    1949.7429    1934.2188    2125.1424   -36.574252   -313.25326   -90.306162   -4398.0046 
43908000     22.66955   -4702.7829    -4663.928   -4702.7829            0    1743.4184    17.852006    23.300915    21.906282     9112.314    1819.5692     1717.836    1692.8499     42.40119    362.83654     282.8848   -4432.2386 
43909000    22.733633   -4701.2988   -4662.3342   -4701.2988            0    2130.6427    17.892666    23.219979    21.906573    9101.4655    2153.0226    2146.9853    2091.9202    184.84015   -203.67705   -204.98462   -4379.5222 
43910000    24.223979   -4701.9872   -4660.4681   -4701.9872            0    1774.8284    17.874917    23.225462     21.96623     9119.351    1803.5521    1756.2947    1764.6384   -312.16137   -133.47834   -63.772701   -4424.4223 
43911000    22.155502   -4702.7162   -4664.7425   -4702.7162            0     2038.551    17.905511     23.30871    21.814508    9104.3805    1595.3295    1746.1822    2774.1413      350.585    64.691067    193.97262   -4394.0676 
43912000    22.391851    -4701.897   -4663.5182    -4701.897            0    2176.3951    17.924402    23.227263     21.84376    9094.3175    2003.4841    2248.2757    2277.4255   -68.554587    65.081347    2.7074565   -4374.8601 
43913000    22.423055    -4701.038   -4662.6057    -4701.038            0    1769.1865    17.860822    23.324123    21.874693    9112.7349    1591.7746    1992.2354    1723.5496    64.701698    62.098445   -74.563874    -4427.481 
43914000    22.543956   -4701.1651   -4662.5255   -4701.1651            0    2084.3625    17.868288    23.231727    21.920391    9099.3998    1909.1774    2365.7354    1978.1746    126.31278   -111.91887    210.93975   -4385.9193 
43915000    21.975907   -4700.4825   -4662.8166   -4700.4825            0    1863.1185    17.883675    23.317786    21.845751    9109.8462    1836.9501    1719.9727    2032.4327    144.63438    182.84024    106.58761   -4415.2868 
43916000    22.183558   -4698.8913   -4660.8694   -4698.8913            0    2168.9682    17.810942    23.341188    21.863362    9089.2238    2479.1425    2076.4059    1951.3561   -311.47038   -10.229993   -40.301258   -4373.3575 
43917000    20.993909   -4701.0419   -4665.0591   -4701.0419            0    1988.2742    17.819307    23.326677    21.909594     9107.056    2566.9542    1859.8199    1538.0484    54.332088   -270.44381   -58.773805   -4400.9823 
43918000    23.589512   -4698.5405   -4658.1088   -4698.5405            0    2208.1222    17.809782    23.245834    21.956257    9089.9616    2524.7524    2130.8378    1968.7762   -132.02282   -141.51954     46.09708    -4365.383 
43919000    22.684146   -4699.5608   -4660.6809   -4699.5608            0    1845.9439    17.868123    23.308472    21.890712    9117.0143    2014.7034    1981.0563     1542.072    85.576052    156.62978    197.48109     -4415.24 
43920000    22.196269   -4699.7554   -4661.7117   -4699.7554            0    2094.1715    17.873133    23.302452    21.862879    9105.6231    2245.9731    1755.3006    2281.2408   -240.38545   -160.32123   -79.222719   -4383.6138 
43921000    22.918561    -4702.413   -4663.1314    -4702.413            0    1949.4053    17.910003    23.308463    21.808157    9103.9161    1824.9341    1503.0695    2520.2125    21.612502    -19.73282    91.735385   -4404.3063 
43922000    22.477149    -4701.311    -4662.786    -4701.311            0    2088.4844    17.893405    23.189601    21.930364    9099.8054    2147.1734    2138.1206    1980.1591    127.37875   -98.029449    13.370956   -4385.6204 
43923000    22.629402   -4702.0115   -4663.2255   -4702.0115            0    2115.7593    17.794688    23.366262    21.893779    9103.3314     2251.874    2068.2974    2027.1066   -48.376975    194.75268    21.400069   -4382.3315 
43924000    22.108149   -4703.3228   -4665.4302   -4703.3228            0    1757.3569    17.886783    23.292444    21.887077    9118.7449    1769.2033    1716.9448    1785.9225   -3.8486492    -419.5303     102.1066   -4431.7236 
43925000     22.64648   -4699.4371   -4660.6218   -4699.4371            0    1857.1998    17.871285    23.324221    21.853155    9109.1342    2111.0276    1707.9733    1752.5985   -74.149352    256.40813    43.621783   -4413.8977 
43926000    21.929757   -4699.8971   -4662.3103   -4699.8971            0    2176.3736    17.916963    23.175586     21.90694    9096.5523    1902.5871     2312.985    2313.5487   -164.49313   -71.982899    10.464606   -4373.5841 
43927000    22.956879   -4699.5009   -4660.1536   -4699.5009            0    2107.3608    17.882194    23.254841    21.888967    9102.4742    2145.5738    2240.6532    1935.8555    39.485932   -287.13315    135.74515    -4380.401 
43928000    22.699493   -4700.0424   -4661.1362   -4700.0424            0    1831.3632     17.92865    23.295571    21.815891    9111.5839    1763.2126    1788.2506    1942.6264    26.457738    223.70889    271.68176    -4417.779 
43929000    21.719861   -4699.8032   -4662.5761   -4699.8032            0    1895.5053    17.840195    23.277278    21.935462    9109.1648    2183.7929    2096.9326    1405.7903   -185.54845    1.6022932   -203.34977   -4410.7623 
43930000    22.182769   -4701.8531   -4663.8326   -4701.8531            0    1849.6046    17.909547      23.3432    21.802049    9114.6983    1977.0484    1431.8445    2139.9209   -398.27573     4.812413    369.08669   -4417.9674 
43931000    23.127749   -4700.5315   -4660.8913   -4700.5315            0    2061.0257       17.896    23.233164    21.903869     9107.206    2247.8082    1954.0501    1981.2187    168.44223   -28.406514   -177.93824   -4387.1474 
43932000    23.828282   -4701.1139    -4660.273   -4701.1139            0     1847.574     17.83978    23.380148    21.846836    9112.2435    2215.6379    1336.8769    1990.2072     150.6124   -267.63999    213.73339   -4414.7439 
43933000    21.387694   -4700.8885   -4664.2307   -4700.8885            0    1903.6314    17.859435    23.274634    21.924694    9113.4774    1811.2655    1993.0364    1906.5923   -140.17119   -35.320153    121.10674   -4411.2177 
43934000    21.923723   -4702.0571   -4664.4806   -4702.0571            0    2038.8618    17.908369    23.306778     21.82121    9107.8757    1828.6258     1942.031    2345.9285   -255.93021   -238.66197    58.856791   -4393.6606 
43935000    23.551062   -4700.9508   -4660.5851   -4700.9508            0    1953.7478    17.895329    23.287965    21.864136    9111.7867     1807.103    1911.3565    2142.7838   -340.92561   -152.45932    101.81304   -4400.9592 
43936000    23.664452   -4701.4422   -4660.8821   -4701.4422            0    1780.5492    17.972405    23.207179      21.8605    9117.7703    1323.8044    2000.0884    2017.7547   -84.141264    13.272841   -183.98303   -4424.1166 
43937000    21.766427   -4700.7784   -4663.4715   -4700.7784            0    2308.8705    17.854287    23.325571    21.827574    9090.3433    2261.3373    2492.0317    2173.2425   -201.46641   -143.00065    103.09857   -4357.3769 
43938000    23.025882   -4699.7217   -4660.2561   -4699.7217            0    1710.0784    17.864861    23.326104    21.898024    9125.2918    2264.0201    1669.0535    1197.1614    200.31887    111.12384    102.49225   -4432.6737 
43939000     20.91954   -4699.8346   -4663.9792   -4699.8346            0     2382.783    17.894725    23.259853    21.843692    9091.9708    2207.7828    2053.9326    2886.6337   -131.91161   -266.17303    113.03135   -4348.0292 
43940000    23.289882   -4698.8737   -4658.9556   -4698.8737            0    1843.5102    17.833155    23.257806    21.973739    9113.8294    1971.2891     1876.174    1683.0675    -15.84935    164.87135   -126.02555   -4413.9239 
43941000    22.363839   -4699.7825   -4661.4516   -4699.7825            0    1851.2849    17.970559    23.172642    21.886057    9113.9084    1633.4956    2344.6321    1575.7271   -11.696244   -70.966982    26.642059   -4415.3844 
43942000    22.713967   -4700.5732   -4661.6422   -4700.5732            0    2053.2917    17.923569    23.199105    21.888104    9101.3089    1865.7237    2102.1493    2192.0023    -360.5119   -33.855435    39.164186   -4389.1021 
43943000      22.8102   -4701.3653   -4662.2694   -4701.3653            0    1780.7689    17.954467    23.266879    21.807699    9110.0441    1749.8476    1852.8997    1739.5595    168.94096   -9.0477227    278.77961   -4425.6753 
43944000    24.528147   -4701.7419   -4659.7015   -4701.7419            0    2214.2771    17.923243    23.261308    21.825663    9099.5131    2159.0303    2201.4597    2282.3413    -5.974735    59.368481   -3.7748937   -4365.8512 
43945000    23.104656   -4703.4159   -4663.8153   -4703.4159            0    1694.5338    17.876636    23.310231    21.890172    9121.8211    1836.6496    1415.3216    1831.6303   -160.41154    127.82424    324.64966   -4438.3874 
43946000    21.823804   -4699.0811   -4661.6758   -4699.0811            0    1801.4198    17.896392    23.263068    21.874275    9106.8073    1882.5808    1899.1877    1622.4908    -74.97808   -15.326402   -6.4163369   -4422.4231 
43947000    22.717582   -4700.7901   -4661.8529   -4700.7901            0    2268.2119    17.834537     23.24413    21.944297     9096.971    2613.7991    2361.0581    1829.7786    78.482224    216.26411    107.87352   -4360.9292 
43948000    22.711269   -4701.6458   -4662.7195   -4701.6458            0    1552.8111    17.909295    23.333196    21.850939    9131.0946    1721.0263    1210.3897    1727.0173   -102.56881    17.176609    73.212107   -4455.9353 
43949000    24.123274   -4701.4772   -4660.1307   -4701.4772            0    1940.4253     17.90225    23.333163    21.814379     9112.218    1853.7481    1734.2126     2233.315   -305.29083    140.75006    59.449472    -4402.263 
43950000    21.906265   -4699.7747   -4662.2281   -4699.7747            0    1953.4282    17.931375    23.188336    21.885895    9100.1281    1997.7502    1760.9414    2101.5928   -74.357852    -53.17321   -16.144796   -4402.9769 
43951000     22.82805   -4700.7137   -4661.5872   -4700.7137            0    2085.9529    17.948311    23.190666    21.861468    9099.4709    1800.8475     2549.678     1907.333   -16.903034    228.39413    87.684616   -4384.7678 
43952000    22.868566   -4701.1845   -4661.9885   -4701.1845            0    1953.7373    17.936128    23.181327    21.905159    9107.7979    2181.9127     2124.138    1555.1613   -223.87793    260.35811    274.79576   -4402.4777 
43953000    22.248795   -4701.5657    -4663.432   -4701.5657            0    1919.5685    17.883176    23.256906    21.903647    9109.8877    1877.4174    1784.0278    2097.2603   -149.83959   -331.91733    -238.7858   -4408.4013 
43954000    22.329293   -4702.1374   -4663.8657   -4702.1374            0     1987.096     17.87831    23.330451    21.822254    9102.2592    1993.8549    1847.4326    2120.0006    32.384683    212.10578    239.29678   -4400.0845 
43955000    21.327583   -4701.1273   -4664.5726   -4701.1273            0    2088.1798    17.834449    23.306751    21.912967     9108.411     2103.319    2128.8807    2032.3398    98.682397   -214.86466   -178.44344   -4387.1854 
43956000    23.564373   -4704.9502   -4664.5616   -4704.9502            0     1876.477    17.914616     23.22625    21.894368    9110.0134    1612.3396    2263.6302    1753.4613    36.588916    114.15395    183.32528   -4415.2525 
43957000    21.846093   -4700.4306   -4662.9872   -4700.4306            0    1881.1063    17.870255    23.310452    21.887252    9117.4347    2233.6839    1804.0939    1605.5411   -187.07181   -268.08036    64.273129   -4412.8594 
43958000    22.771761    -4700.043    -4661.013    -4700.043            0    2093.7694    17.887785    23.270212    21.878848     9107.126    2101.2288    1850.0747    2330.0049    72.038919   -123.59073    98.187647   -4382.9225 
43959000    23.422923   -4703.1792   -4663.0331   -4703.1792            0    1884.0705     17.89003    23.238368    21.916633    9111.5137    1990.6435     1985.038    1676.5298    -168.5162    163.68779    317.42951   -4412.6739 
43960000    23.600536   -4700.1991   -4659.7486   -4700.1991            0    1976.1238     17.87451    23.284261    21.888543    9109.8969    1943.4827     2038.047    1946.8416    76.076895   -116.82287   -140.13387   -4397.2037 
43961000    22.305723      -4700.8   -4662.5687      -4700.8            0    1961.8364    17.853179     23.22491    21.956662     9104.077    1815.8386    2139.8931    1929.7776    170.35892   -52.486072      191.622   -4402.0886 
43962000    22.626065   -4699.9897   -4661.2094   -4699.9897            0     2118.571    17.778268    23.369449    21.903233    9100.0996    2315.5652    1667.7418     2372.406   -181.65699   -47.127453   -133.70108   -4380.0419 
43963000    23.450434   -4700.8159   -4660.6227   -4700.8159            0     2027.014    17.833154    23.314801    21.896775    9104.1629    2242.4581    1628.4456    2210.1381    67.531574    12.417915    306.19312   -4391.4861 
43964000     22.60889    -4701.988   -4663.2371    -4701.988            0    1792.4146     17.91676    23.237302    21.876972    9108.1964    1793.9186    1645.3606    1937.9645   -28.531141   -186.87862   -49.502331   -4425.1441 
43965000    21.541498   -4703.0585   -4666.1371   -4703.0585            0    1815.7271    17.873399      23.2867    21.898024    9114.2306    2143.9031     1852.725    1450.5532   -69.991836   -92.010428    248.97562   -4424.7876 
43966000    22.443454   -4701.7451   -4663.2778   -4701.7451            0    2091.1058     17.94115    23.175564    21.893103     9103.071    1923.6449    2414.6823      1934.99    40.739384    162.19166    252.01122   -4385.6648 
43967000    21.828215   -4702.2533   -4664.8405   -4702.2533            0    2122.7378    17.902087    23.194624    21.918626    9101.3188    2023.4906    2450.6485    1894.0744   -176.37254   -74.509562    11.398003   -4383.0822 
43968000      23.1285   -4701.5541   -4661.9127   -4701.5541            0    1879.3451     17.85483    23.306226    21.898794    9112.7166    1808.0875    1840.4766    1989.4713   -20.014058   -82.657162    213.14586   -4412.1484 
43969000    23.013366   -4700.5773   -4661.1332   -4700.5773            0    1869.2292    17.852268    23.311484    21.889153    9109.4525    1978.7884    1910.6061    1718.2929   -112.27547   -179.51784   -7.3822074   -4412.8023 
43970000    22.007587   -4701.8122   -4664.0919   -4701.8122            0    1957.8954    17.839758    23.307891    21.893353    9103.4122    2222.4922    1755.7084    1895.4854    60.744191   -63.674503   -67.953427    -4404.154 
43971000    22.101229   -4700.0434   -4662.1626   -4700.0434            0    1977.7899    17.865048     23.19789    21.974413     9106.887    2128.5868    2230.2775    1574.5053    120.73435    111.49655    278.68252   -4399.4833 
43972000    22.750941   -4702.7145   -4663.7202   -4702.7145            0    1762.8919    17.894608    23.288814    21.868433    9113.5428    1847.4017    1525.9323    1915.3417     154.2314    170.85878     -38.4685   -4429.4113 
43973000    23.060971   -4703.2674   -4663.7417   -4703.2674            0    1936.4541     17.91281    23.334954    21.787259    9106.9569    1872.9553    2012.1807    1924.2263     118.8497   -153.57897    229.68279   -4406.5504 
43974000    22.713485   -4701.5914   -4662.6613   -4701.5914            0    2171.7218    17.875917    23.247814    21.899495    9100.9043    2061.7798    2440.4931    2012.8925    129.20176    165.72643    206.71328   -4374.4144 
43975000    21.872602   -4702.2282   -4664.7393   -4702.2282            0    1785.7009    17.907999    23.215319    21.935846    9119.6065    1723.2013    1797.8578    1836.0434   -339.42782    51.183138    189.91024   -4427.2409 
43976000    23.778845   -4702.6166   -4661.8604   -4702.6166            0    1895.8051    17.867712    23.244215    21.924052    9105.5178    1813.4575    1834.8264    2039.1314   -133.29735   -54.163582    157.79761   -4410.1077 
43977000     23.73854   -4697.4297   -4656.7426   -4697.4297            0    2025.9686    17.840555    23.289888    21.898848    9099.0704    2219.7763    2099.7425     1758.387   -141.89204   -63.301716   -27.068079   -4387.8953 
43978000    24.085351    -4700.638   -4659.3565    -4700.638            0    1978.9466    17.843741    23.293824    21.893965    9100.2042    2097.7012    1812.8597    2026.2789    212.02338   -192.21723    155.00933   -4396.7164 
43979000    22.154466   -4699.7256   -4661.7537   -4699.7256            0    2005.6943    17.844542    23.373983     21.83698    9108.1613    2527.4282    1364.4651    2125.1896    195.42446   -73.978725    146.20815   -4395.3309 
43980000    22.718057   -4698.6466   -4659.7087   -4698.6466            0    2093.9775     17.87797    23.277851     21.86781     9100.524    2214.7391     2034.988    2032.2053   -272.17793   -74.344678    75.105329   -4381.7922 
43981000    24.066772   -4701.7197   -4660.4701   -4701.7197            0    2091.4826    17.903474    23.286473    21.834152     9102.849    2236.9692    1968.3315    2069.1471    122.80463    68.029494    46.676704   -4382.8139 
43982000    21.819174   -4699.3716   -4661.9743   -4699.3716            0    1850.5427    17.946537    23.212414    21.865797    9108.9075    1532.7348    1685.0214    2333.8717    468.32339    98.286804   -80.260848   -4416.1407 
43983000    22.686693   -4702.4496   -4663.5654   -4702.4496            0    1962.8362    17.823103     23.28448    21.947672    9108.3213    1874.1695    1841.5481    2172.7909    33.543565    -98.28172   -152.75678    -4402.831 
43984000    23.167246    -4700.998   -4661.2901    -4700.998            0    2080.5561    17.910057    23.221173    21.895336    9106.1067    1911.7088    2125.0768    2204.8826   -280.61258    134.08947    357.37956   -4384.9856 
43985000    23.159094   -4703.8457   -4664.1518   -4703.8457            0    1703.5855    17.853616    23.271495    21.956189     9122.365    1978.9623    1556.7587    1575.0355    61.293602   -198.18738     94.67903   -4437.5062 
43986000    23.114726   -4702.3815   -4662.7636   -4702.3815            0    1793.7865    17.861967    23.298512    21.899376    9113.5844    2017.8506    1656.3702    1707.1386   -258.08414  -0.62744577    134.35464   -4424.3474 
43987000    22.451876   -4700.7937    -4662.312   -4700.7937            0      2216.46    17.924273    23.268337    21.801867    9092.8615    1970.0671    2030.1647    2649.1483   -68.296334   -25.794015   -26.803987   -4368.3871 
43988000    23.200519   -4700.9909    -4661.226   -4700.9909            0    2044.8544    17.910974    23.243685    21.840068    9092.3924    2049.5996    2042.6132    2042.3503    3.3358394   -243.01948    84.139561   -4390.0718 
43989000    22.585377   -4700.8199   -4662.1093   -4700.8199            0    1963.8315    17.891289    23.292485     21.85043     9105.786    2002.9283    1830.1885    2058.3777    241.18709    63.103716   -55.093713   -4401.3153 
43990000    22.449223   -4699.8936   -4661.4164   -4699.8936            0    2062.3057    17.847268     23.28308    21.909971    9104.4557    2283.6531    1958.2056    1945.0583   -190.28744   -128.22213    6.1759903   -4387.5852 
43991000    23.080964   -4703.2981   -4663.7381   -4703.2981            0    2176.8885    17.829657    23.328194    21.861973    9093.1308    2283.0499    1990.4564    2257.1591    199.92392    171.97596    244.06666   -4375.0522 
43992000    22.828152   -4702.4572   -4663.3305   -4702.4572            0    1847.8067    17.845971    23.353605    21.893724    9124.5981    2040.0394    1548.9743    1954.4066    60.122748   -174.62908   -6.6661873   -4417.4375 
43993000    22.196555   -4697.4816   -4659.4374   -4697.4816            0    2043.8716    17.883805    23.247324    21.898493    9104.3117    2495.2259    1821.5639    1814.8252    84.927731     -92.9034    262.26626   -4388.0582 
43994000    23.555222   -4701.9427   -4661.5699   -4701.9427            0    1879.9857    17.949279    23.178398    21.896264    9109.6235    2013.0634    1763.6182    1863.2755    337.89537     175.0961    207.81172   -4411.8053 
43995000    23.139581    -4699.757   -4660.0965    -4699.757            0    1872.2014    17.936947    23.273528    21.820479    9109.0901    1513.6888    1816.0989    2286.8165   -105.16811   -246.31014    -33.64999   -4411.3807 
43996000    22.336951   -4699.6383   -4661.3535   -4699.6383            0    2217.2884    17.863062    23.225453    21.915517    9092.2597    2412.1656    2030.4067    2209.2928    130.41097   -97.667959    124.05952   -4367.3383 
43997000    22.488589   -4701.2859   -4662.7412   -4701.2859            0    2029.5939    17.893322    23.316138    21.821257    9103.8973    1852.3643    2197.5726    2038.8448 -0.048640867    25.845761   -136.39886     -4393.27 
43998000    25.072311   -4702.5223   -4659.5492   -4702.5223            0    1931.7454    17.882073    23.234868    21.915762    9105.7272    1632.5833    2124.0866    2038.5661    300.97474   -145.78739    137.10126   -4403.0179 
43999000    22.098629   -4702.8095   -4664.9332   -4702.8095            0    1974.2036    17.850709    23.316383    21.876311    9105.2263    1887.6854      1807.37    2227.5553    564.52053    87.510807    45.563516    -4402.778 
44000000    23.229305   -4698.6522   -4658.8379   -4698.6522            0    1963.1043    17.910359    23.310757    21.811583    9106.4234    1892.5833    1710.8628    2285.8666    552.30691   -131.54836    290.58335   -4398.1223 
Loop time of 378.35 on 64 procs for 250000 steps with 864 atoms

Performance: 114.180 ns/day, 0.210 hours/ns, 660.764 timesteps/s
381.6% CPU use with 16 MPI tasks x 4 OpenMP threads

MPI task timing breakdown:
Section |  min time  |  avg time  |  max time  |%varavg| %total
---------------------------------------------------------------
Pair    | 24.654     | 27.211     | 31.306     |  38.9 |  7.19
Bond    | 1.5714     | 1.8225     | 2.8952     |  24.2 |  0.48
Kspace  | 198.38     | 207.26     | 215.28     |  31.0 | 54.78
Neigh   | 0.084545   | 0.091939   | 0.10203    |   1.8 |  0.02
Comm    | 48.395     | 52.795     | 59.258     |  39.6 | 13.95
Output  | 0.43349    | 0.43384    | 0.43521    |   0.1 |  0.11
Modify  | 59.939     | 67.083     | 72.958     |  44.6 | 17.73
Other   |            | 21.65      |            |       |  5.72

Nlocal:        54.0000 ave          62 max          46 min
Histogram: 1 4 1 2 0 0 1 3 3 1
Nghost:        2590.25 ave        2626 max        2573 min
Histogram: 3 5 2 0 3 0 1 0 1 1
Neighs:        13366.2 ave       14964 max       11504 min
Histogram: 1 2 5 0 0 0 1 0 4 3

Total # of neighbors = 213860
Ave neighs/atom = 247.52315
Ave special neighs/atom = 2.0000000
Neighbor list builds = 250
Dangerous builds = 0

unfix		3
unfix		2
unfix		1

write_data	data.final.${pid} nocoeff
write_data	data.final.1 nocoeff
System init for write_data ...
PPPM initialization ...
  extracting TIP4P info from pair style
  using 12-bit tables for long-range coulomb (../kspace.cpp:340)
  G vector (1/distance) = 0.37224896
  grid = 24 27 25
  stencil order = 5
  estimated absolute RMS force accuracy = 0.0030950844
  estimated relative force accuracy = 9.3207548e-06
  using double precision FFTW3
  3d grid and FFT values/proc = 6300 1296
Last active /omp style is kspace_style pppm/tip4p/omp

write_restart   restart.lmp.${pid}
write_restart   restart.lmp.1
System init for write_restart ...
PPPM initialization ...
  extracting TIP4P info from pair style
  using 12-bit tables for long-range coulomb (../kspace.cpp:340)
  G vector (1/distance) = 0.37224896
  grid = 24 27 25
  stencil order = 5
  estimated absolute RMS force accuracy = 0.0030950844
  estimated relative force accuracy = 9.3207548e-06
  using double precision FFTW3
  3d grid and FFT values/proc = 6300 1296
Last active /omp style is kspace_style pppm/tip4p/omp
Total wall time: 0:06:18
