LAMMPS (30 Jul 2021)
Processor partition = 1
  using 2 OpenMP thread(s) per MPI task
using multi-threaded neighbor list subroutines
variable        pid world 0 1
variable        phase world IceIII Liquid

shell cd ${phase}
shell cd Liquid
include Restart.lmp
echo both
log log.lammps
#include		in.partitions
include		in.temp
variable        temperature equal 258.76
variable	tempDamp equal 100.0
include		in.pressure
variable        pressure equal 2375.0
variable        pressureDamp equal 1000.0 # This is 1 ps
include		in.seed
variable        seed equal 745823

units		real
atom_style	full
read_restart	restart.lmp.${pid}
read_restart	restart.lmp.1
Reading restart file ...
  restart file = 30 Jul 2021, LAMMPS = 30 Jul 2021
  restoring atom style full from restart
  orthogonal box = (0.28421344 1.4262972 0.34673973) to (17.923359 22.202881 21.866456)
  2 by 4 by 4 MPI processor grid
  restoring pair style lj/cut/tip4p/long/omp from restart
  restoring bond style harmonic/omp from restart
  restoring angle style harmonic/omp from restart
  864 atoms
  576 bonds
  288 angles
Finding 1-2 1-3 1-4 neighbors ...
  special bond factors lj:    0        0        0       
  special bond factors coul:  0        0        0       
     2 = max # of 1-2 neighbors
     1 = max # of 1-3 neighbors
     1 = max # of 1-4 neighbors
     2 = max # of special neighbors
  special bonds CPU = 0.002 seconds
  read_restart CPU = 0.009 seconds
include 	in.setup
variable	out_freq equal 1000
variable	out_freq2 equal 10000
variable	out_freq3 equal 1000

timestep	2.0

neigh_modify    delay 7 every 1

include		in.tip4p
# This is TIP4P/Ice

# create groups ###
group ox type 2
288 atoms in group ox
group hy type 1
576 atoms in group hy

# set charges - beside manually ###
set group ox charge -1.1794
Setting atom values ...
  288 settings made for charge
set group hy charge 0.5897
Setting atom values ...
  576 settings made for charge

# ### TIP3P Potential Parameters ###
pair_style lj/cut/tip4p/long/omp 2 1 1 1 0.1577 8.5
pair_coeff 1 1*2 0.000 0.000
pair_coeff 2 2 0.21084 3.1668
bond_style  harmonic
bond_coeff  1 450 0.9572
angle_style harmonic
angle_coeff 1 55 104.52
kspace_style pppm/tip4p/omp 1.0e-5
pair_modify tail yes

thermo          ${out_freq}
thermo          1000
thermo_style    custom step temp pe etotal epair emol press lx ly lz vol pxx pyy pzz pxy pxz pyz enthalpy

restart 	${out_freq3} restart.lmp.${pid} restart2.lmp.${pid}
restart 	1000 restart.lmp.${pid} restart2.lmp.${pid}
restart 	1000 restart.lmp.1 restart2.lmp.${pid}
restart 	1000 restart.lmp.1 restart2.lmp.1


include         in.dump
dump            myDump all atom ${out_freq2} dump.water.${pid}
dump            myDump all atom 10000 dump.water.${pid}
dump            myDump all atom 10000 dump.water.1
dump            myDump2 all dcd ${out_freq2} dump.dcd
dump            myDump2 all dcd 10000 dump.dcd
dump_modify     myDump append yes
dump_modify     myDump2 append yes


variable natoms 	equal  "count(all)"                        # NUMBER ATOMS
variable H      	equal  "enthalpy/v_natoms"                 # ENTHALPY-per-atom
variable Vol      	equal  "vol/v_natoms"                 # volume-per-atom
fix AVG all 		ave/time ${out_freq} 1 ${out_freq} v_Vol v_H file vol_enthalpy.dat
fix AVG all 		ave/time 1000 1 ${out_freq} v_Vol v_H file vol_enthalpy.dat
fix AVG all 		ave/time 1000 1 1000 v_Vol v_H file vol_enthalpy.dat


timer           timeout 23:50:00 every 1000
New timer settings: style=normal  mode=nosync  timeout=23:50:00

fix 		1 all shake 1e-6 200 0 b 1 a 1
Finding SHAKE clusters ...
       0 = # of size 2 clusters
       0 = # of size 3 clusters
       0 = # of size 4 clusters
     288 = # of frozen angles
  find clusters CPU = 0.000 seconds
fix             2 all nph iso ${pressure} ${pressure} ${pressureDamp}
fix             2 all nph iso 2375 ${pressure} ${pressureDamp}
fix             2 all nph iso 2375 2375 ${pressureDamp}
fix             2 all nph iso 2375 2375 1000
fix             3 all temp/csvr ${temperature} ${temperature} ${tempDamp} ${seed}
fix             3 all temp/csvr 258.76 ${temperature} ${tempDamp} ${seed}
fix             3 all temp/csvr 258.76 258.76 ${tempDamp} ${seed}
fix             3 all temp/csvr 258.76 258.76 100 ${seed}
fix             3 all temp/csvr 258.76 258.76 100 745823

run             250000
PPPM initialization ...
  extracting TIP4P info from pair style
  using 12-bit tables for long-range coulomb (../kspace.cpp:340)
  G vector (1/distance) = 0.37265603
  grid = 24 24 25
  stencil order = 5
  estimated absolute RMS force accuracy = 0.0032547043
  estimated relative force accuracy = 9.8014454e-06
  using double precision FFTW3
  3d grid and FFT values/proc = 3822 576
Last active /omp style is kspace_style pppm/tip4p/omp
Neighbor list info ...
  update every 1 steps, delay 7 steps, check yes
  max neighbors/atom: 2000, page size: 100000
  master list distance cutoff = 10.8154
  ghost atom cutoff = 10.8154
  binsize = 5.4077, bins = 4 4 4
  1 neighbor lists, perpetual/occasional/extra = 1 0 0
  (1) pair lj/cut/tip4p/long/omp, perpetual
      attributes: half, newton on, omp
      pair build: half/bin/newton/omp
      stencil: half/bin/3d
      bin: standard
Setting up Verlet run ...
  Unit style    : real
  Current step  : 1500000
  Time step     : 2
  Walltime left : 23:49:59.93
Per MPI rank memory allocation (min/avg/max) = 10.19 | 10.20 | 10.21 Mbytes
Step Temp PotEng TotEng E_pair E_mol Press Lx Ly Lz Volume Pxx Pyy Pzz Pxy Pxz Pyz Enthalpy 
 1500000    272.68773   -3871.4511   -3404.0736   -3871.4511            0    2644.6712    17.639146    20.776583    21.519716     7886.571    641.22315    4143.4637    3149.3269    233.61494   -411.58956   -1466.7077     -3099.89 
 1501000    265.21457   -3889.3082   -3434.7395   -3889.3082            0    2576.0194    17.552545     20.67458    21.414064     7770.982    2336.3378    2444.9778    2946.7425    84.711596   -1765.6176    878.07506   -3142.7945 
 1502000    272.76903   -3903.5395   -3436.0227   -3903.5395            0    1341.9482    17.593048    20.722287    21.463478    7824.9014    2396.5332    1881.3591   -252.04785    -760.2265   -620.60984    -257.2535   -3282.8821 
 1503000     257.6599   -3882.9578   -3441.3375   -3882.9578            0    1972.2599    17.551556    20.673415    21.412857    7769.6679    1396.0435    2804.9768    1715.7594     -1291.32   -493.56113     339.1271   -3217.8555 
 1504000     247.2071   -3906.8902   -3483.1857   -3906.8902            0    2302.7806    17.489645    20.600491    21.337326    7687.7378    2263.0274    2327.2986    2318.0157   -1537.6467   -1728.4097   -241.82072   -3225.0031 
 1505000    269.63564   -3882.1167   -3419.9705   -3882.1167            0    1571.9756    17.543776    20.664251    21.403366    7759.3403    1226.3656    2909.6229    579.93835   -535.48793   -757.19402    -707.5824   -3242.0826 
 1506000    261.50154   -3848.6455   -3400.4408   -3848.6455            0    1234.0995    17.614718    20.747811    21.489915    7853.8511     1354.671    2068.6993    278.92824    139.30527   -561.27012    1379.9135   -3259.0866 
 1507000    264.26997   -3874.8183   -3421.8686   -3874.8183            0    3509.7402    17.530669    20.648812    21.387375    7741.9618    3269.0581    3317.8908    3942.2716   -391.61635   -397.57414   -137.88837   -3025.5889 
 1508000    266.08897   -3866.8508   -3410.7834   -3866.8508            0    1886.3556    17.671402    20.814577    21.559069    7929.9165    180.91881    3455.0419    2023.1062     1116.112    727.69755   -733.70835   -3192.6269 
 1509000    273.00796   -3870.2679   -3402.3416   -3870.2679            0    3569.8686    17.653583    20.793589     21.53733    7905.9524     2123.034    4169.3658    4417.2062   -1622.0365    850.45408   -86.765623    -2990.735 
 1510000    259.53895   -3863.6583   -3418.8174   -3863.6583            0    1958.5607    17.616622    20.750053    21.492237    7856.3978     1849.368    2335.6447    1690.6693    2.9406606    688.28466   -896.10979   -3194.4104 
 1511000     259.4071   -3874.9278   -3430.3129   -3874.9278            0    3229.4627    17.523222    20.640041     21.37829    7732.1007    3466.1679    3320.9949    2901.2252   -190.87743    562.13717   -47.528411   -3066.1434 
 1512000      262.138   -3839.7663   -3390.4707   -3839.7663            0    639.53396    17.701865    20.850459    21.596234    7970.9975    2762.7404   -956.81973    112.68126    86.632986   -240.94233    919.07581   -3316.1257 
 1513000    271.39501   -3856.6972   -3391.5354   -3856.6972            0    3391.2287    17.589845    20.718514     21.45957    7820.6282     2594.787    3169.1929    4409.7062    -328.9425    1650.9792   -301.26403    -3004.746 
 1514000     258.2515    -3881.849   -3439.2148    -3881.849            0      3943.15    17.515706    20.631188     21.36912    7722.1553     4142.566    2835.6901    4851.1941   -334.58412   -556.21826    -1328.264   -2995.1383 
 1515000     264.6624   -3872.4594   -3418.8371   -3872.4594            0    1166.6732    17.559082    20.682279    21.422039    7779.6669   -506.08337    2827.8616    1178.2413    16.302022    484.10112    2545.0755   -3286.4681 
 1516000     258.1583   -3844.8375    -3402.363   -3844.8375            0    434.76315    17.570247     20.69543     21.43566    7794.5161    1833.1309    641.54075   -1170.3822    -671.3055    1339.3991     -254.858   -3352.9413 
 1517000    264.73539   -3838.1946   -3384.4472   -3838.1946            0     3384.773     17.59302    20.722254    21.463444    7824.8641    3317.4507     3180.888    3655.9802    1129.8874    1075.8568     730.5232   -2998.1849 
 1518000    253.68274   -3880.7021   -3445.8985   -3880.7021            0    3395.6016    17.571793    20.697251    21.437547    7796.5747    4378.6876    1975.6652     3832.452   -90.721804   -50.237467    43.899458   -3059.8015 
 1519000    259.72241   -3864.6736   -3419.5183   -3864.6736            0    3484.0866    17.504676    20.618196    21.355663    7707.5756    2264.2525    4548.1384    3639.8689    196.17465    405.69804   -1733.2986   -3027.8823 
 1520000    250.63823   -3859.0126   -3429.4272   -3859.0126            0    1716.1281    17.527761    20.645387    21.383827    7738.1098    1211.6159    1966.5625    1970.2058    566.66126   -1358.1149   -422.35317   -3235.7581 
 1521000    253.79665   -3871.9987   -3436.9999   -3871.9987            0    1278.7863    17.656035    20.796477    21.540322    7909.2473    1336.5673    1065.4348    1434.3567    1150.1414    1043.7212    633.95556   -3289.4941 
 1522000    262.38969   -3867.2689    -3417.542   -3867.2689            0    2931.8331    17.578835    20.705545    21.446137    7805.9511    4056.8346    2678.0129    2060.6518    462.09888   -764.57003   -513.06125   -3083.7768 
 1523000    245.66625   -3872.8916   -3451.8281   -3872.8916            0    3848.1087    17.607786    20.739646    21.481458    7844.5828    4019.8268    4132.4596    3392.0395   -752.71895    376.76957   -277.09306   -3011.5845 
 1524000    271.56896   -3855.7454   -3390.2854   -3855.7454            0    3129.5228    17.608548    20.740543    21.482387     7845.601    3132.3373    3219.4156    3036.8153    772.06932    178.51903    331.99035   -3032.2053 
 1525000    267.31311   -3902.6174   -3444.4519   -3902.6174            0    3337.2329    17.582307    20.709636    21.450374    7810.5782    4607.4876    2492.6336    2911.5774   -607.40397   -367.76578     409.4376   -3064.3101 
 1526000    276.54704   -3894.9391    -3420.947   -3894.9391            0    2870.7982    17.577588    20.704077    21.444616    7804.2904    4355.1298    1396.2315    2861.0332    742.21505    160.40173    415.43323   -3094.1997 
 1527000    267.82786   -3884.9191   -3425.8714   -3884.9191            0    2386.4492     17.61064    20.743008     21.48494    7848.3982    949.46707    3577.7269    2632.1536    356.95986   -1570.0817    203.60298   -3152.7164 
 1528000    249.56645   -3899.8474   -3472.0991   -3899.8474            0    2713.6002    17.651146    20.790719    21.534357    7902.6787    2567.4987    1694.7336    3878.5682    112.61512    357.18929    332.53714     -3159.35 
 1529000    237.28513   -3873.7537   -3467.0551   -3873.7537            0    1961.1317    17.622393    20.756851    21.499278    7864.1214    2293.0201    1611.5677    1978.8072   -1357.8042   -94.764318     193.6911   -3242.1326 
 1530000    268.39808   -3859.6644   -3399.6393   -3859.6644            0    2551.1605    17.641285    20.779103    21.522326    7889.4405    1308.9213    2672.9939    3671.5663    1701.3099    924.67293    345.24038   -3106.1043 
 1531000    262.93663   -3830.5445   -3379.8801   -3830.5445            0     723.3131    17.648255    20.787314     21.53083    7898.7965    1003.5709    1678.3291   -511.96072    842.81618   -309.13133    791.76331   -3296.5575 
 1532000    249.27689   -3831.5785   -3404.3264   -3831.5785            0    2717.0469    17.604292    20.735531    21.477195     7839.914    2571.8845    2659.9702     2919.286    324.99977   -699.15152    942.37192   -3093.6672 
 1533000     258.4956   -3832.1659   -3389.1132   -3832.1659            0    2804.8458    17.616701    20.750147    21.492334    7856.5044    2570.2375    3049.8436    2794.4562   -569.97979   -870.78661   -951.45623   -3067.7367 
 1534000    258.32629   -3882.9492   -3440.1868   -3882.9492            0    3136.2778    17.615628    20.748882    21.491024     7855.068    4387.8556    2158.0603    2862.9175   -1229.4845   -814.38473    854.77704   -3080.9007 
 1535000    250.52926   -3907.8982   -3478.4996   -3907.8982            0    3536.0374    17.640599    20.778295     21.52149    7888.5207    3218.5759    2898.2481    4491.2884    96.779123   -58.156138    553.36167   -3071.6927 
 1536000     248.7397   -3874.9819   -3448.6505   -3874.9819            0    1491.7585    17.639313     20.77678     21.51992    7886.7954    39.000157    882.70211    3553.5731   -802.44247   -1842.8411    127.44704   -3277.0673 
 1537000    263.15535   -3859.2609   -3408.2217   -3859.2609            0    3605.8541    17.549424    20.670903    21.410256    7766.8368    4122.5747    3686.8582    3008.1293    658.36464     1225.377   -127.73783   -2999.7817 
 1538000    257.58175   -3865.5949   -3424.1086   -3865.5949            0    1689.9163    17.664885    20.806902    21.551119    7921.1468    1801.3042    1308.0461    1960.3986   -628.39665   -815.08972   -626.44686   -3228.8864 
 1539000    252.21871   -3851.0658   -3418.7716   -3851.0658            0    3213.6712    17.586223    20.714247    21.455151    7815.7973    2896.4809    4096.8096    2647.7231    705.10288   -1339.9308    237.50543   -3052.4601 
 1540000     257.6285   -3888.3147   -3446.7482   -3888.3147            0    2092.2886    17.632905    20.769233    21.512102     7878.203    2178.0199    2443.9734    1654.8723    716.88387    258.78174   -96.604068   -3206.3537 
 1541000    258.92975   -3889.3787    -3445.582   -3889.3787            0    3068.2389    17.622546    20.757031    21.499465    7864.3267    2211.1091    3964.1237    3029.4839     133.9148    53.028472    188.00705    -3093.676 
 1542000    257.89242   -3876.5007   -3434.4819   -3876.5007            0    2703.1466    17.571764    20.697217    21.437512    7796.5363    2417.0372     3630.777    2061.6256    307.11117    244.75815   -482.14423    -3127.122 
 1543000    264.06023   -3853.3118   -3400.7216   -3853.3118            0     2338.629    17.639056    20.776477    21.519607    7886.4503    2935.2437    2432.8479    1647.7955   -728.08234    1272.3308    260.42384   -3131.7423 
 1544000    272.84624   -3883.7883   -3416.1392   -3883.7883            0    2126.9751    17.547792    20.668981    21.408265    7764.6699    3983.7451    1891.7389    505.44143    648.01979    1073.2569    625.34832   -3175.2811 
 1545000    244.46206   -3898.0702   -3479.0705   -3898.0702            0    3018.5558    17.554838     20.67728    21.416862    7774.0276    1481.7282    3330.8314    4243.1077    285.47464   -302.44349    1463.2459   -3136.8381 
 1546000    279.76485   -3902.7196   -3423.2122   -3902.7196            0     1847.779    17.570471    20.695694    21.435934    7794.8147    2747.7204    963.67682    1831.9398    527.82098    916.41709    -920.6661   -3213.1578 
 1547000    251.03723   -3905.3011   -3475.0319   -3905.3011            0    2593.6978    17.588749    20.717223    21.458233    7819.1662    2790.7906    3080.6684    1909.6343    201.64482   -194.46135    437.31473   -3179.2608 
 1548000    253.38427   -3856.6633   -3422.3714   -3856.6633            0    3797.0445    17.464726    20.571141    21.306925    7654.9252    4235.9173    3801.0634    3354.1526   -379.88309   -52.632173   -286.09787   -2998.4722 
 1549000     262.2494   -3848.0618   -3398.5753   -3848.0618            0    2266.4749     17.59937    20.729733    21.471191    7833.3399    1057.0129    2361.2523    3381.1596    250.97828   -1095.9704   -306.89961   -3139.6504 
 1550000    260.94825   -3897.4684    -3450.212   -3897.4684            0    3083.7215    17.541008     20.66099    21.399989    7755.6681    4012.1001    2775.4819    2463.5825     823.5265   -88.526436    103.81476    -3101.417 
 1551000    250.90681   -3811.9073   -3381.8616   -3811.9073            0    697.24329     17.73824    20.893303    21.640611    8020.2359    113.75084    1664.4159    313.56313    1284.2401    264.30261    279.37518   -3300.3072 
 1552000    250.44868   -3858.4475    -3429.187   -3858.4475            0    2949.2321    17.593944    20.723342     21.46457     7826.096    3174.7146    3570.9584    2102.0233     56.79936   -601.85123    2435.0566   -3092.5747 
 1553000    256.29728   -3882.9772   -3443.6925   -3882.9772            0    2980.0743     17.55832    20.681382     21.42111    7778.6548    2679.6736     3779.646    2480.9034    -486.3077    572.01294    414.04947   -3105.6218 
 1554000    256.14258   -3839.7356    -3400.716   -3839.7356            0    3717.2968    17.584258    20.711933    21.452753    7813.1777     3040.887    5902.9461    2208.0572     865.2279   -1.0461157    1126.6344   -2977.1405 
 1555000    268.53017   -3877.7606   -3417.5091   -3877.7606            0    741.29285    17.617024    20.750527    21.492728     7856.936    555.10357    462.68211    1206.0929   -1272.5433    461.86302    434.36014   -3332.5678 
 1556000    273.46126   -3852.2681   -3383.5649   -3852.2681            0    1573.0253    17.698863    20.846922    21.592571    7966.9421    3443.2968    284.11775     991.6613    480.21804    405.58413    159.64519   -3200.7956 
 1557000    265.84169   -3884.9118   -3429.2683   -3884.9118            0    1412.7024    17.718662    20.870243    21.616726    7993.7091    1651.3441    2408.9154    177.84758   -261.26454    -1310.231   -163.83772   -3264.5753 
 1558000    250.73535   -3852.3316   -3422.5798   -3852.3316            0    4009.8513    17.619217     20.75311    21.495403    7859.8703    4386.8814    3791.4558    3851.2166   -603.07684    178.45245   -136.75978    -2962.938 
 1559000      262.026   -3866.2034   -3417.0998   -3866.2034            0    2235.1341    17.631254    20.767289    21.510089    7875.9914    1496.2309    527.16429    4682.0072    834.36514   -859.58749   -530.04594    -3160.365 
 1560000    246.70334   -3897.8878   -3475.0467   -3897.8878            0    665.70357    17.635902    20.772763    21.515759    7882.2211    732.60559    1821.6631   -557.15794    436.94787    292.07846   -272.91552   -3398.5213 
 1561000    248.65993    -3833.183   -3406.9883    -3833.183            0    3433.8167     17.65045    20.789899    21.533508    7901.7436    3750.2894    2179.9198     4371.241    178.07276    -1159.792    590.65233   -3011.2793 
 1562000    249.60053   -3809.4135   -3381.6067   -3809.4135            0    2574.9013    17.649872    20.789218    21.532802    7900.9671    3571.8799    4135.1047    17.719334   -363.89095   -2508.1043    329.07619   -3084.9073 
 1563000     272.4319   -3843.8555   -3376.9166   -3843.8555            0    2118.9332    17.618131    20.751831    21.494078    7858.4169    2321.1715    1948.8298    2086.7982   -185.02113   -613.32918     1667.434   -3134.0721 
 1564000    253.74218   -3840.4358   -3405.5304   -3840.4358            0    3645.8863    17.582711    20.710111    21.450866    7811.1161    3646.4321    2423.3241    4867.9028   -340.44527    541.88741    954.79103   -2990.2016 
 1565000    247.20325   -3881.1241   -3457.4262   -3881.1241            0    3383.8257    17.630359    20.766234    21.508997    7874.7916    3344.7719    2655.2177    4151.4875    916.93239    667.34592   -1492.8606   -3068.8082 
 1566000    268.98823   -3856.8689   -3395.8323   -3856.8689            0    3861.8153    17.595631     20.72533    21.466629    7828.3486    2953.4974    4254.9391    4377.0094    1666.5824     1051.435   -42.599092   -2954.9349 
 1567000    251.07803   -3878.5778   -3448.2387   -3878.5778            0    1361.6175    17.701961    20.850572    21.596351    7971.1267    1133.5696    1504.9581    1446.3247    392.03277   -427.66774   -480.71305   -3289.9497 
 1568000    252.67906   -3839.8927   -3406.8094   -3839.8927            0    1957.6878    17.642396    20.780412    21.523682    7890.9316    380.14924    4189.2778    1303.6364   -339.92525    815.21277    1152.9944   -3181.5165 
 1569000    256.44258   -3889.1088    -3449.575   -3889.1088            0    1249.7944    17.635089    20.771806    21.514768    7881.1313    1601.7629    1859.2428    288.37736    128.29178   -79.500005   -452.78838   -3305.9259 
 1570000    256.71629   -3866.7443   -3426.7414   -3866.7443            0    1265.1952    17.683918     20.82932    21.574339    7946.7777    2336.5569    2450.2015   -991.17281   -1157.4655   -916.93657   -1412.2044   -3280.1108 
 1571000    258.55428   -3879.0048   -3435.8516   -3879.0048            0    4403.6223    17.582951    20.710394    21.451159    7811.4363    3505.4948    4685.0497    5020.3224   -81.979922    1141.7056   -285.17889   -2934.1831 
 1572000    268.10088   -3837.0902   -3377.5744   -3837.0902            0    1732.9153    17.650381    20.789817    21.533423    7901.6506    1090.1052    2201.0522    1907.5884    859.12248   -680.92515    239.14991   -3177.8776 
 1573000    253.43692   -3911.3211   -3476.9389   -3911.3211            0    3486.2747    17.490299    20.601262    21.338124    7688.6004    3124.0643     4174.798    3159.9617    1295.9521    586.98984    618.39647   -3086.0217 
 1574000    266.89668   -3929.1605   -3471.7087   -3929.1605            0    3248.3626    17.595947    20.725702    21.467015    7828.7704    1370.7489    4711.8342    3662.5047    787.50368    217.50768   -353.33273   -3100.8282 
 1575000    263.02011   -3935.0375     -3484.23   -3935.0375            0    2999.0549    17.587338    20.715561    21.456511    7817.2846    3419.7063     1309.158    4268.3005   -641.04931   -445.21511    390.75509   -3142.3165 
 1576000      247.796   -3884.5883   -3459.8745   -3884.5883            0     2525.277    17.607445    20.739244    21.481041    7844.1265    4786.4145    1306.9862    1482.4305   -257.54601    -262.7824   -741.03462   -3170.9865 
 1577000    247.87415   -3902.2102   -3477.3624   -3902.2102            0    1882.2545    17.618734    20.752541    21.494814     7859.224     1820.552    1728.3798    2097.8317    1581.5165    -110.8354   -108.19032   -3261.6208 
 1578000    280.70582   -3883.2843   -3402.1641   -3883.2843            0    2385.0093    17.586665    20.714769    21.455691    7816.3878    4165.3596    1738.4445    1251.2237    14.305776   -212.86368    999.04148   -3130.2874 
 1579000    262.79688   -3901.4052   -3450.9803   -3901.4052            0    3048.0164    17.543461     20.66388    21.402982    7758.9229    1055.7358    4327.2881    3761.0253   -973.58567   -541.77008   -1266.5513   -3106.0792 
 1580000    268.47768   -3858.8445   -3398.6829   -3858.8445            0    2992.6231    17.699383    20.847535    21.593205    7967.6443    3019.9098    3451.4364     2506.523    445.32434   -63.797791   -86.928489   -3050.9404 
 1581000      253.461   -3878.6177   -3444.1942   -3878.6177            0     1564.436    17.671307    20.814466    21.558954    7929.7891    959.95138    1404.1186    2329.2382    -671.4612    908.14835    1270.4751   -3263.2706 
 1582000    256.75773   -3904.8873   -3464.8133   -3904.8873            0    2138.5556    17.566842     20.69142    21.431506    7789.9863    2114.3678    2472.5698    1828.7292    584.61505   -535.05549   -399.89721   -3221.8542 
 1583000    235.52101   -3879.1517   -3475.4768   -3879.1517            0    709.33145    17.698379    20.846352     21.59198    7966.2884    1365.0779   -835.29299    1598.2095    375.33897   -415.24819    27.302049   -3393.0665 
 1584000    268.92236   -3883.0649   -3422.1411   -3883.0649            0    648.08337    17.711925    20.862309    21.608508    7984.5955   -178.29407    2035.7396    86.804563   -180.60353   -128.74155   -1139.1162   -3346.6737 
 1585000    255.56396   -3899.4964   -3461.4685   -3899.4964            0    3972.7822      17.5159    20.631417    21.369357     7722.412    3410.2716    4759.6858    3748.3893     -165.227   -1953.2706   -228.51782     -3014.04 
 1586000    264.99124   -3911.8407   -3457.6548   -3911.8407            0    3983.6798     17.59619    20.725988    21.467311    7829.0945    2725.1227    4884.4821    4341.4345    -403.0826   -424.71287    1641.7112    -3002.801 
 1587000    260.72794   -3937.8033   -3490.9246   -3937.8033            0    2786.9659    17.674535    20.818268    21.562892    7934.1354    2696.2989    1963.9347     3700.664   -227.33881   -1021.3292    410.94196   -3168.4413 
 1588000    277.07754   -3924.0975   -3449.1961   -3924.0975            0    2925.9748    17.563612    20.687615    21.427566    7785.6898     3966.073    2929.6651    1882.1863   -686.03259   -11.298216    95.570806   -3116.9625 
 1589000    241.87005   -3907.6159   -3493.0589   -3907.6159            0    1507.1502    17.578807    20.705513    21.446104    7805.9147    749.54747    3468.5265    303.37664   -389.77489    238.46521   -1056.3713   -3321.4831 
 1590000    267.44841   -3920.2354    -3461.838   -3920.2354            0    3718.6038    17.521316    20.637796    21.375965    7729.5776    3597.0466    5663.5938     1895.171   -730.84937    18.666823    2107.7123   -3042.6473 
 1591000      239.936   -3900.2766   -3489.0345   -3900.2766            0    2592.5744    17.535623    20.654648    21.393419     7748.528     3259.555    2323.4925    2194.6757   -49.382087   -482.35465    368.50521   -3196.0624 
 1592000     265.9221   -3904.1127   -3448.3314   -3904.1127            0    3301.3095    17.562117    20.685854    21.425741    7783.7012    2910.1881    3783.3183    3210.4223    81.715366   -53.315935    2011.9227   -3073.5756 
 1593000    259.58774   -3901.0708   -3456.1463   -3901.0708            0    1647.8745     17.57913    20.705893    21.446498    7806.3447    1790.8201    3155.6568   -2.8533792    571.66085   -1214.7259    1072.4333   -3268.5398 
 1594000    251.61334   -3884.8596   -3453.6029   -3884.8596            0    2788.1155    17.577579    20.704067    21.444606    7804.2791    3704.7076    704.80706    3954.8318    333.09111    1542.8072    395.16942   -3136.2668 
 1595000     253.5739   -3907.7582   -3473.1412   -3907.7582            0    1528.4065    17.617599    20.751204    21.493429    7857.7054    2225.6184    427.33874    1932.2622    -1811.301   -86.686398    292.81065    -3297.991 
 1596000    261.15915   -3865.0669   -3417.4491   -3865.0669            0    1125.1804    17.606905    20.738608    21.480382    7843.4047    442.64214    83.317089    2849.5819    577.35494   -236.88599     151.9712   -3288.7419 
 1597000    264.11555   -3885.6951   -3433.0101   -3885.6951            0    1775.1499     17.57103    20.696353    21.436616    7795.5589    2742.8491    879.51947    1703.0811   -16.128649   -52.060239   -355.19055   -3231.1929 
 1598000    251.20416   -3897.5653   -3467.0099   -3897.5653            0    1443.4059    17.652026    20.791755    21.535431    7903.8607    2647.9354    2075.6571   -393.37478   -474.84106   -1181.1897     80.55193    -3300.629 
 1599000    269.45345   -3914.5864   -3452.7524   -3914.5864            0    2208.4073    17.573375    20.699115    21.439477    7798.6805    2080.8805    2706.0088    1838.3326   -18.962563    57.520789   -1279.2551   -3201.5775 
 1600000    253.34889   -3905.0556   -3470.8243   -3905.0556            0    3926.7851    17.572911    20.698567     21.43891     7798.062    3712.5681    4740.5919    3327.1953   -203.26696    1573.7046    1054.0104   -3024.2438 
 1601000    255.27307   -3918.9067   -3481.3774   -3918.9067            0    3369.9658    17.581561    20.708757    21.449463    7809.5839      4365.24    2631.8878    3112.7697   -161.15001    -714.2604    218.30927   -3097.5559 
 1602000    250.07137   -3853.2673   -3424.6535   -3853.2673            0    680.66842    17.727754    20.880953    21.627819    8006.0217   -886.24433    1776.9684    1151.2812   -359.55652   -797.78563   -156.61567   -3345.1789 
 1603000     254.3034   -3870.5352   -3434.6679   -3870.5352            0    1812.1953    17.655428    20.795762    21.539581    7908.4312    322.96949    4495.9505    617.66586    196.73992    492.39195    431.60206   -3225.6559 
 1604000    255.62457   -3876.4918     -3438.36   -3876.4918            0    1489.2721    17.675748    20.819697    21.564372    7935.7691    1879.2353    793.86011    1794.7209    1330.6737    72.257658   -135.39968    -3265.999 
 1605000    277.56255   -3889.4667   -3413.7339   -3889.4667            0    3127.5328    17.539315    20.658996    21.397923    7753.4226    4548.2544    3234.1812    1600.1629    404.27409    856.61437   -191.19411   -3060.0859 
 1606000    245.65739   -3870.8503    -3449.802   -3870.8503            0    2396.3347    17.677579    20.821853    21.566605    7938.2349    1355.5888    2193.3702    3640.0452    259.13326    424.01185    988.10947   -3172.3759 
 1607000    256.81295   -3889.7025   -3449.5339   -3889.7025            0    1215.0081    17.654164    20.794273    21.538039    7906.7326    733.25322    1491.1572    1420.6138    39.988802   -326.56581    332.44356   -3309.4294 
 1608000    261.68469   -3876.4369   -3427.9183   -3876.4369            0    4702.4907    17.618717    20.752522    21.494794    7859.2022    3332.2772    5733.0843    5042.1107   -531.53243    282.45501   -2465.0442   -2888.9264 
 1609000    263.72567   -3888.5669   -3436.5501   -3888.5669            0    1804.2765    17.562704    20.686546    21.426458    7784.4824    2459.5241    1250.2596    1703.0459    439.16991    559.53595    1255.8598    -3231.713 
 1610000    260.18297   -3872.1996   -3426.2548   -3872.1996            0    1346.3141    17.700814    20.849221    21.594952    7969.5778    1059.6213    2752.3039    227.01724   -889.45958   -619.29421   -581.88281   -3269.7753 
 1611000    256.89073   -3838.0934   -3397.7914   -3838.0934            0     2468.563    17.568532     20.69341    21.433568    7792.2349    2602.3447    2754.3336    2049.0109   -61.480032    882.37729    136.92157   -3117.2596 
 1612000    259.42034   -3876.6463   -3432.0087   -3876.6463            0    1107.0372    17.708974    20.858832    21.604907    7980.6041    19.484139    2994.6441    306.98333    49.411954   -1433.2357    940.17376   -3303.1618 
 1613000    267.31351   -3893.8401   -3435.6739   -3893.8401            0    2609.0124      17.6764    20.820464    21.565166    7936.6464    3129.5649    1644.2295    3053.2427   -1663.5947    576.97174    727.74106   -3133.6863 
 1614000    262.98808   -3828.9656   -3378.2131   -3828.9656            0    4251.1532    17.613507    20.746384    21.488437    7852.2312    4919.0577    4548.8793    3285.5225    1465.2823    1989.2934    510.95539   -2891.3849 
 1615000    262.53483   -3849.5845   -3399.6088   -3849.5845            0    2665.4449    17.674904    20.818702    21.563342     7934.632    1986.9523    3666.8372    2342.5451   -110.32337    552.99956    104.37822   -3091.1676 
 1616000    257.04995   -3885.5714   -3444.9966   -3885.5714            0    2991.0133    17.596066    20.725841    21.467159    7828.9282    2360.1745    3828.8731    2783.9923   -650.38231     390.1267    1368.3271    -3103.492 
 1617000    253.15862   -3919.2137   -3485.3084   -3919.2137            0    544.52838    17.647813    20.786793    21.530291    7898.2027    1980.0732    1696.1232   -2042.6113   -240.13419   -379.91287     1526.918   -3422.5858 
 1618000    247.53709   -3893.5019   -3469.2318   -3893.5019            0     2593.818    17.564813     20.68903    21.429031    7787.2875    1120.1503    4564.8733    2096.4303    1217.3677    508.14874   -259.37354   -3174.6529 
 1619000    263.49962   -3887.6953    -3436.066   -3887.6953            0    2592.3905    17.667781    20.810312    21.554651    7925.0425    2364.7676    3397.2272    2015.1766   -327.63499     724.0634   -776.43225   -3136.4411 
 1620000    263.57857   -3883.1852   -3431.4206   -3883.1852            0    2001.6065    17.630195    20.766041    21.508797    7874.5716    2603.3203    1999.6967    1401.8026    1026.6521    417.63684   -944.45123    -3201.551 
 1621000    257.75655   -3886.7234   -3444.9375   -3886.7234            0    2416.9011    17.622593    20.757087    21.499523      7864.39    1582.8677    3079.8724    2587.9634   -1104.4687    737.79766    330.64923   -3167.7333 
 1622000    268.77237    -3861.415   -3400.7484    -3861.415            0   -75.781998     17.74081    20.896331    21.643747     8023.723   -322.65875   -222.96983    318.28258   -269.68612    783.58227    616.76208   -3409.6162 
 1623000    236.05217   -3878.4386   -3473.8533   -3878.4386            0    810.24799    17.687541    20.833586    21.578758    7951.6625    -445.0056    1677.4063    1198.3433   -252.15761   -238.56592    241.10375   -3379.8914 
 1624000    267.25467   -3878.4494   -3420.3841   -3878.4494            0    4412.6489    17.575039    20.701075    21.441507    7800.8961    3602.3507    4971.4034    4664.1927   -1422.9502    973.50165    890.87922   -2918.3655 
 1625000    269.88098   -3850.1306   -3387.5638   -3850.1306            0     2497.367    17.703999    20.852972    21.598837    7973.8799    3115.8873    3265.8006    1110.4131   -1256.8197   -1100.1169    953.41825   -3097.1429 
 1626000    258.28687   -3870.7528    -3428.058   -3870.7528            0    2596.1297    17.727484    20.880634    21.627489    8005.6553    3481.8364    3130.8787     1175.674    592.22553    401.17088   -398.26955   -3124.9487 
 1627000     264.1607   -3866.3144    -3413.552   -3866.3144            0    1379.6495    17.648344    20.787418    21.530939    7898.9159    1716.6634    542.97555    1879.3095    664.20067    958.08332    738.82097   -3254.6197 
 1628000    266.69779   -3877.5751   -3420.4642   -3877.5751            0    3162.1426    17.589868    20.718541    21.459598    7820.6585    4076.2254    2384.5316    3025.6708   -375.78557   -107.28533    1977.4303    -3059.802 
 1629000    276.98519   -3872.6586   -3397.9155   -3872.6586            0    1087.2617    17.656798    20.797376    21.541252    7910.2722   -277.54226    918.36581    2620.9617    1096.8855   -165.22042   -969.85364   -3272.4855 
 1630000    253.03857   -3884.8214    -3451.122   -3884.8214            0    3771.2379    17.672124    20.815428     21.55995    7930.8886    5641.2758    4443.6279    1228.8101     461.1587    1003.0264   -82.099302    -3014.926 
 1631000     256.2022   -3931.3282   -3492.2064   -3931.3282            0    2529.1705    17.605764    20.737264    21.478991    7841.8801      1959.95    4927.4735    700.08787   -504.61893   -695.28255   -1360.1975   -3202.9559 
 1632000    258.13512   -3845.8502   -3403.4155   -3845.8502            0    2009.7101    17.750686    20.907963    21.655795    8037.1302    589.69953    3845.5883    1593.8424    866.54889    757.71684    876.69855   -3167.8507 
 1633000    265.08745   -3853.5698    -3399.219   -3853.5698            0    2309.2435    17.649157    20.788375     21.53193    7900.0066    2687.1007    1193.3847    3047.2451    500.76313   -627.32497    425.12626    -3133.163 
 1634000    248.79584   -3876.7094   -3450.2819   -3876.7094            0    2751.5994    17.660302    20.801503    21.545527    7914.9821    3705.1558    2506.8634    2042.7788    592.67555    1291.0027   -1344.8341   -3132.6596 
 1635000    248.14441    -3895.677    -3470.366    -3895.677            0    1094.2931    17.719122    20.870786    21.617288    7994.3326    330.35258     874.1897     2078.337    344.96381   -370.70274    -220.2375   -3342.7833 
 1636000    252.30254   -3879.1045   -3446.6665   -3879.1045            0    1457.1311    17.726563    20.879549    21.626365    8004.4074    262.35249    369.15997    3739.8808    256.29266     897.3746   -597.97639   -3276.5668 
 1637000    254.30162   -3919.3358   -3483.4715   -3919.3358            0    2522.6311    17.669303    20.812104    21.556508    7927.0903    4404.5064    700.92698    2462.4597    693.55885    214.20535    408.41708    -3191.834 
 1638000    268.53665   -3914.5833   -3454.3207   -3914.5833            0    3773.6893    17.722485    20.874746     21.62139    7998.8844    4259.4493    4493.4484    2568.1701   -294.55484   -294.31224   -1370.8832    -3014.099 
 1639000    246.99115   -3913.1163   -3489.7819   -3913.1163            0    2202.7675    17.703087    20.851898    21.597725    7972.6481    780.94147    2467.5274    3359.8337   -477.92162    191.69161   -1544.9688   -3233.6597 
 1640000     255.9937   -3886.4035   -3447.6391   -3886.4035            0    898.32523    17.698757    20.846798    21.592443       7966.8    2502.9242   -316.51376     508.5652    198.81792   -1004.5095   -1476.0932   -3343.2648 
 1641000    244.87475   -3884.4491   -3464.7422   -3884.4491            0    1932.2003    17.676981    20.821149    21.565876    7937.4294    1547.0012    2558.1705    1691.4291     585.7066    670.67584    723.79094   -3241.0721 
 1642000    245.01961   -3903.9576   -3484.0024   -3903.9576            0    3244.2783    17.706044    20.855381    21.601332    7976.6439    3365.6815    2652.0723     3715.081    871.52535   -460.74679   -2764.0413   -3106.5917 
 1643000    245.30009   -3889.1823   -3468.7463   -3889.1823            0    5281.2634    17.697009    20.844739     21.59031    7964.4395    5206.0989    5988.8183    4648.8731    846.93353    144.23645    129.74808   -2855.3108 
 1644000    254.57151   -3899.3426   -3463.0158   -3899.3426            0    2658.5129    17.731769    20.885681    21.632716    8011.4618    1993.8141    3526.3969    2455.3276   -766.71297    -626.7695    1122.6587   -3152.3979 
 1645000    270.22816    -3896.003   -3432.8411    -3896.003            0    3501.2931    17.684782    20.830337    21.575392    7947.9421     4023.509    1424.2118    5056.1585   -2610.7294   -217.74134    1162.8136   -3026.9972 
 1646000    252.86451   -3923.0393   -3489.6382   -3923.0393            0    2001.8743    17.750727    20.908011    21.655845    8037.1856    2725.5238    2397.2616    882.83762   -343.45959    477.22657    629.86407   -3254.9903 
 1647000    253.28073   -3929.7146   -3495.6001   -3929.7146            0    1901.9386    17.708833    20.858666    21.604735    7980.4137     2174.088    2225.9836    1305.7444   -211.57714   -325.53016   -1630.0328   -3274.2408 
 1648000    248.07925   -3902.1227   -3476.9234   -3902.1227            0     2166.749    17.695434    20.842884    21.588388    7962.3128    2269.4804    974.17535    3256.5914    448.01017   -1813.4205   -829.07274   -3225.3158 
 1649000      258.589   -3854.0702   -3410.8575   -3854.0702            0    1686.7874    17.757302    20.915757    21.663867    8046.1208    913.68754    1368.2736    2778.4011   -401.52247   -1016.3356   -373.43199   -3212.9224 
 1650000    250.26792   -3902.9215   -3473.9708   -3902.9215            0    2147.5498    17.653487    20.793475    21.537212    7905.8226    2419.5357    2356.4635    1666.6502    399.54596    470.22436   -1535.9847   -3226.3619 
 1651000    263.94767   -3871.6808   -3419.2835   -3871.6808            0    796.04269    17.671511    20.814706    21.559203    7930.0637    1501.2245    682.84341    204.06015   -681.15985      35.5269   -473.71089   -3327.2197 
 1652000    251.94503   -3894.6521   -3462.8269   -3894.6521            0    3646.4536    17.582663    20.710055    21.450808    7811.0527    3687.5054    3713.1948    3538.6607    59.701352    710.85187    143.10155   -3047.4368 
 1653000    254.05429   -3867.9202   -3432.4799   -3867.9202            0    3023.3869    17.589566    20.718186     21.45923    7820.2564    1159.0176    5202.2295    2708.9135    301.71108    1146.6391   -5.8324777   -3087.6613 
 1654000    246.74031   -3898.7807   -3475.8762   -3898.7807            0     2574.865    17.587093    20.715273    21.456213    7816.9582    2220.1819     1634.996    3869.4172    581.20162   -421.07668     465.9988   -3182.3356 
 1655000    246.99216   -3887.0848   -3463.7487   -3887.0848            0    2227.0142     17.65779    20.798545    21.542463     7911.606    1474.3502    2064.5168    3142.1757    262.63128   -155.76934   -516.30498   -3206.7899 
 1656000    247.81031   -3926.7291   -3501.9907   -3926.7291            0    2307.7885    17.598176    20.728326    21.469733    7831.7448    737.31716    2503.7398    3682.3085   -1515.9672   -34.245791   -1753.6142   -3238.3998 
 1657000    253.40522   -3901.9705   -3467.6427   -3901.9705            0    1988.0473    17.519113    20.635202    21.373277    7726.6629    1149.0692    1611.1493    3203.9234    976.81488    477.91626   -238.35747   -3243.6187 
 1658000    252.32947   -3901.9338   -3469.4497   -3901.9338            0    4286.2624     17.57865    20.705328    21.445912    7805.7051    3030.6715    5230.8439    4597.2719   -811.64968    716.98213   -922.20011   -2981.5093 
 1659000    257.13431   -3876.9689   -3436.2495   -3876.9689            0    2820.3445    17.632094    20.768277    21.511113     7877.116     4094.538    1572.0584    2794.4369    478.27669   -369.96759    562.91104   -3112.2493 
 1660000    270.52568   -3854.3626   -3390.6909   -3854.3626            0    1803.6142    17.631775    20.767902    21.510724    7876.6884    1458.4429    1902.8058    2049.5941   -254.17363   -1273.9002   -48.117166   -3183.5035 
 1661000    254.85962   -3912.1969   -3475.3762   -3912.1969            0    3450.8774     17.66245    20.804034    21.548148    7917.8717    3250.5739    4632.0627    2469.9958      233.161    1784.1255    402.01881   -3076.8895 
 1662000    255.94745   -3887.3351   -3448.6499   -3887.3351            0    1187.3502     17.79129     20.95579    21.705333    8092.4109    1001.5516    1179.0947    1381.4044   -12.115411   -113.37823    -661.9545   -3308.5194 
 1663000     255.5054   -3869.6177   -3431.6902   -3869.6177            0    2353.2526    17.647079    20.785929    21.529396    7897.2177    3871.4053     901.8746    2286.4779   -432.82535   -84.962569   -519.24798   -3160.6594 
 1664000     263.7858   -3905.8268    -3453.707   -3905.8268            0     2175.312    17.575483    20.701597    21.442048    7801.4868    1869.9081    2209.5701    2446.4579    312.66173   -697.40552    1217.3596   -3206.2072 
 1665000    254.49454   -3864.9317   -3428.7367   -3864.9317            0    2812.6713    17.541605    20.661694    21.400718    7756.4608     3194.083    987.39895    4256.5321    781.99935   -923.03953    279.05633   -3110.5673 
 1666000    259.85638   -3873.2951   -3427.9102   -3873.2951            0    2224.9865    17.555258    20.677775    21.417373    7774.5849    2469.5902    764.98233     3440.387    949.38365   -910.37282   -64.259057   -3175.6315 
 1667000    238.15261   -3890.6023   -3482.4169   -3890.6023            0    4156.9902    17.587493    20.715744    21.456701    7817.4919    4561.0511     4003.898    3906.0214    677.91877    1030.5324   -277.26539    -3008.478 
 1668000    260.10942     -3843.44   -3397.6213     -3843.44            0    2101.9033    17.599979    20.730451    21.471934    7834.1533    2257.7709    2449.8743    1598.0647    93.883195      148.279   -335.74098   -3157.4724 
 1669000    262.85502   -3858.2376   -3407.7131   -3858.2376            0    2745.9214    17.637003     20.77406    21.517102    7883.6975    3841.8081    1049.2837    3346.6722   -440.88961   -741.81703   -389.51821    -3091.999 
 1670000    274.59279   -3904.1095   -3433.4669   -3904.1095            0    195.82122    17.675452    20.819348     21.56401      7935.37   -34.839509    930.54209   -308.23892   -273.73989    -772.7814    327.61698   -3410.8046 
 1671000    264.61244   -3903.4094   -3449.8727   -3903.4094            0    2937.5819    17.582335    20.709668    21.450408    7810.6153    3765.5326    1936.9001    3110.3131   -2144.9196   -2987.1954    9.2707716   -3115.2533 
 1672000    258.92978   -3912.7373   -3468.9405   -3912.7373            0    3127.1958     17.57261    20.698213    21.438543    7797.6616    3077.3087    3359.3706    2944.9081   -857.18441    244.01615    -35.17581    -3113.313 
 1673000    249.74783    -3899.727   -3471.6677    -3899.727            0    3871.5181      17.6158    20.749085    21.491235    7855.2984    2422.5254    3563.6836    5628.3452     545.7964   -1219.2633   -431.92309   -3028.1409 
 1674000    244.98803   -3888.4457   -3468.5446   -3888.4457            0    3142.4891    17.627585    20.762966    21.505612    7871.0744    2459.4918    2850.5477    4117.4278    519.38358   -130.26397   -625.65489   -3107.8134 
 1675000    267.03113   -3903.9971   -3446.3149   -3903.9971            0    2897.3956    17.552735    20.674803    21.414295    7771.2334     3415.359    2497.2125    2779.6155   -544.92561    1235.1333   -545.69466   -3117.9372 
 1676000    270.56258   -3937.7426   -3474.0076   -3937.7426            0    1989.0657    17.562007    20.685725    21.425608     7783.556    2474.5881    2043.1585    1449.4506    1335.9058   -907.36355   -406.87779   -3248.2185 
 1677000    258.71482   -3880.5043    -3437.076   -3880.5043            0    1295.8583    17.611387    20.743888    21.485851    7849.3965    1792.3738    748.60352    1346.5975    913.65772    1123.9274   -314.60453   -3288.7321 
 1678000     265.6311   -3879.5133   -3424.2307   -3879.5133            0    2580.9977    17.602771    20.733739     21.47534     7837.882    2897.6624    2467.4303    2377.9005    168.13622    -1790.158   -434.42867   -3129.2034 
 1679000    256.69382   -3879.5164   -3439.5519   -3879.5164            0    1835.7626    17.672125    20.815429    21.559951    7930.8899    2916.2666    2134.3842    456.63687    1470.0077    873.73654   -490.12316   -3227.2205 
 1680000    260.41458   -3912.4185   -3466.0768   -3912.4185            0    3445.5088    17.600792    20.731408    21.472925    7835.2389    3540.5695    4707.4746    2088.4822   -131.99872   -905.51939    1829.4331   -3072.3622 
 1681000    255.93862   -3878.8299   -3440.1599   -3878.8299            0     2136.257    17.716834     20.86809    21.614496    7991.2354    2228.0091    1729.9227    2450.8391   -1620.0285   -492.72065    1311.2478    -3191.192 
 1682000    270.95454   -3867.9092   -3403.5024   -3867.9092            0    1713.4306    17.689052    20.835366    21.580602    7953.7006    2164.5839    726.11222    2249.5957   -648.64268   -47.035537    362.97423   -3204.7504 
 1683000    255.27351   -3884.4812   -3446.9511   -3884.4812            0    3321.1385     17.57172    20.697165    21.437457    7796.4769    4415.8399    2371.6614    3175.9143   -1081.7034    613.95694    1292.8538   -3069.3257 
 1684000    263.31475    -3910.796   -3459.4836    -3910.796            0    2291.9089    17.677872    20.822198    21.566963      7938.63    2356.2759    1513.8815    3005.5694    1099.9409    122.29754   -144.28444   -3194.1338 
 1685000    260.64635    -3861.471   -3414.7321    -3861.471            0    3147.6052    17.623644    20.758325    21.500804    7865.7966    2556.4018    3123.7997    3762.6141    49.572062    648.98442     487.6182   -3053.6559 
 1686000     260.0019   -3850.7499   -3405.1155   -3850.7499            0    1169.8716    17.632937    20.769271    21.512142    7878.2463    2169.2815    1329.3941    10.939153    1093.5338   -17.556213   -121.63555   -3270.7018 
 1687000    263.82145   -3892.8854   -3440.7045   -3892.8854            0    2525.8903    17.551525    20.673378     21.41282     7769.627    1980.5797    2587.5856    3009.5055     556.0234   -668.67562   -1541.4827   -3154.4907 
 1688000    266.79432   -3850.9448   -3393.6685   -3850.9448            0    3582.4763     17.55882     20.68197    21.421719    7779.3182    4308.5561    4120.8215    2318.0511   -708.48828   -396.62225    646.79341   -2987.2245 
 1689000     250.2138   -3887.8112   -3458.9533   -3887.8112            0    4175.3188    17.516377    20.631978    21.369939    7723.0427    4511.2422    2829.3609    5185.3533   -1432.5732   -830.93467    1306.0278   -2988.6761 
 1690000    261.85437   -3794.4036   -3345.5942   -3794.4036            0    2465.2187    17.589885    20.718561    21.459619    7820.6814    2012.9909    2106.2267    3276.4385    267.81264   -413.09594   -801.37756   -3064.4197 
 1691000    266.58981   -3869.2887   -3412.3629   -3869.2887            0    1338.8653    17.690144    20.836653    21.581934    7955.1739    2042.0876    1285.9983    688.50988   -844.69469    1205.5561    754.53111   -3257.0304 
 1692000    269.31139   -3869.5379   -3407.9474   -3869.5379            0    952.12922    17.698329    20.846294     21.59192    7966.2219    1143.6651    2106.8436   -394.12095    583.31744   -671.07614   -1409.5256   -3297.3299 
 1693000    266.14498   -3858.4695   -3402.3061   -3858.4695            0    2006.3463    17.723822    20.876321    21.623021    8000.6947    2201.3288    1051.6602    2766.0499    657.58388    1591.7235    608.57788   -3168.2018 
 1694000    271.78026   -3864.8899   -3399.0679   -3864.8899            0    1675.9862    17.739947    20.895315    21.642694    8022.5526    2309.0321    2002.7792    716.14744   -994.38183    1865.5305   -84.898412   -3202.9763 
 1695000    251.18351   -3843.8632   -3413.3432   -3843.8632            0    873.03134    17.678877    20.823381    21.568188    7939.9831   -291.81198    1409.0492    1501.8568   -59.613976   -444.62657   -430.46267   -3312.2493 
 1696000    250.22844   -3839.0943   -3410.2113   -3839.0943            0    4169.7678    17.661428    20.802829    21.546901    7916.4966    3012.1044     4958.748    4538.4511    312.21629   -51.649661   -385.26475    -2928.795 
 1697000    254.11223   -3856.4321   -3420.8924   -3856.4321            0    2690.5889    17.708736    20.858551    21.604616    7980.2821    1784.0857    3412.5968     2875.084    189.50977   -902.13079   -256.92876   -3107.7503 
 1698000    262.16338   -3886.5167   -3437.1776   -3886.5167            0    2281.7658    17.699746    20.847963    21.593649    7968.1355    2780.2821     1727.205    2337.8104   -1376.1256   -313.46938    -1048.878   -3172.0203 
 1699000    264.32423   -3882.5901   -3429.5474   -3882.5901            0    2984.8758    17.623343     20.75797    21.500437    7865.3933    3211.2883    3795.7204    1947.6185   -412.16141   -824.34525   -560.36888   -3087.1562 
 1700000    264.47696   -3904.6639   -3451.3595   -3904.6639            0    1384.3333    17.733042    20.887182     21.63427    8013.1882     1406.264    1731.7406    1014.9952   -190.84872   -12.443569    92.337228   -3289.5805 
 1701000    247.85442   -3867.2331   -3442.4191   -3867.2331            0    1164.8641    17.784582    20.947888    21.697148    8083.2602    1580.9319    1743.7435    169.91687    287.66619    238.13209    1360.4475   -3305.0979 
 1702000    250.20031   -3853.4423   -3424.6075   -3853.4423            0    1346.1582    17.685688    20.831404    21.576498    7949.1642    1949.2502    892.25256    1196.9718    598.25167    630.84116   -789.05912   -3268.5468 
 1703000    257.58693   -3933.2821   -3491.7869   -3933.2821            0    2498.5053    17.699758    20.847977    21.593664    7968.1518    1978.2162    3175.2987     2342.001    1020.4071    159.33685   -159.17721   -3201.4423 
 1704000    264.41979   -3940.5837   -3487.3772   -3940.5837            0    1442.4536    17.708825    20.858657    21.604725    7980.4029    1291.0278    2257.5159    778.81706    1357.2708    456.29972    669.19087   -3319.4958 
 1705000    251.79307   -3919.2882   -3487.7235   -3919.2882            0    4442.6553    17.575298     20.70138    21.441823    7801.2412    3834.5793    4267.1096    5226.2769   -291.71897    455.77104   -253.75221   -2982.2688 
 1706000    252.68118   -3898.6509    -3465.564   -3898.6509            0    1422.5818     17.76165    20.920877    21.669171    8052.0321    1441.9501    1384.9412    1440.8541     808.0572   -1036.6556   -1027.8517   -3298.5093 
 1707000    255.29044   -3880.9799   -3443.4208   -3880.9799            0    2048.1621    17.702667    20.851403    21.597212    7972.0804    1535.8878    446.10489    4162.4936   -208.39583   -694.73373    225.37932    -3205.292 
 1708000    264.59113   -3868.3345   -3414.8343   -3868.3345            0    3251.1479    17.675995    20.819987    21.564672     7936.101     681.6172    5121.0856     3950.741   -1433.9729   -594.84912    266.87784   -3038.5468 
 1709000    262.51675   -3894.2702   -3444.3255   -3894.2702            0    2445.4671    17.694004    20.841199    21.586643    7960.3825    2733.5425    2823.3207    1779.5382    1139.5503    -1497.949   -346.56283   -3160.4214 
 1710000    260.63344   -3873.2893   -3426.5725   -3873.2893            0    3554.0222    17.694902    20.842257    21.587739    7961.5946    4368.2174    4432.6922    1861.1571   -351.64531   -445.46065     457.6198    -3013.909 
 1711000    268.31143   -3940.6244   -3480.7477   -3940.6244            0    1192.7926    17.695576    20.843051    21.588561    7962.5047    1634.5999    1065.4593    878.31851   -123.26225    1108.2049    689.90311   -3342.2348 
 1712000    257.58474   -3895.9519   -3454.4605   -3895.9519            0    1721.8412    17.664768    20.806763    21.550975    7920.9883      1007.69    2588.2252    1569.6082   -801.19632   -519.92317    169.65635   -3255.5542 
 1713000    273.26669   -3903.3217    -3434.952   -3903.3217            0      2819.43    17.566064    20.690503    21.430557    7788.9506    4101.4966    875.52525    3481.2682    113.51152   -1350.7372   -483.52555   -3114.6821 
 1714000    258.79856   -3885.1063   -3441.5345   -3885.1063            0    1180.5236    17.651332    20.790937    21.534584    7902.9281     3194.989    1428.2125   -1081.6309    695.72202   -525.17611    255.16492   -3305.4719 
 1715000    240.69622   -3904.9139   -3492.3688   -3904.9139            0    3498.2059    17.569592    20.694659    21.434861     7793.645    3972.4454    1809.9211    4712.2513   -1303.0606    1211.0317   -734.28069   -3094.7546 
 1716000    255.63155   -3904.9988   -3466.8551   -3904.9988            0    3317.9394    17.706491    20.855908    21.601878     7977.248    3401.2062    3032.6961    3519.9157    447.93086   -625.02002   -529.53268   -3080.8461 
 1717000    240.87211   -3901.6577   -3488.8111   -3901.6577            0    3506.4641    17.661324    20.802707    21.546774     7916.357    2696.0457    4771.3821    3051.9645   -560.84589    765.41732    172.95336    -3083.983 
 1718000     257.2725   -3884.6272   -3443.6709   -3884.6272            0    2455.3713     17.62254    20.757025    21.499458    7864.3189    1308.5333    2296.6575     3760.923    -93.22858    312.63552    863.56261    -3162.057 
 1719000    248.84604    -3864.026   -3437.5124    -3864.026            0    3642.4634    17.617134    20.750656    21.492862     7857.083    3126.4191    4335.8218    3465.1492   -451.23256   -833.58689    33.833562   -3020.1316 
 1720000    246.77991   -3883.1939   -3460.2216   -3883.1939            0    2995.9902    17.524533    20.641585    21.379889    7733.8357    3173.7898    2574.1896    3239.9913    952.05699    741.56229    636.55583   -3122.3037 
 1721000    259.10672   -3881.8499   -3437.7498   -3881.8499            0    138.85165    17.765719     20.92567    21.674136    8057.5677    -2346.754    2581.0257    182.28325    180.23726   -145.30785    455.02201   -3421.4332 
 1722000    262.85263   -3917.2928   -3466.7724   -3917.2928            0    2163.2443    17.638728    20.776092    21.519207    7886.0113    2031.8606     839.2986    3618.5738   -472.65505   -390.37421    1705.1417    -3217.979 
 1723000    253.15592   -3909.7423   -3475.8417   -3909.7423            0    1568.0395    17.699672    20.847876    21.593559    7968.0356    1150.8768    912.94282    2640.2989    128.82415    102.45437    134.34043   -3293.6267 
 1724000     264.7901   -3887.7847   -3433.9436   -3887.7847            0     4195.326    17.644923    20.783389    21.526765    7894.3231    4659.4689     5199.208    2727.3011    415.55112   -477.80516    1322.4728   -2950.9331 
 1725000    250.11147   -3902.7042   -3474.0217   -3902.7042            0    2058.7088    17.769864    20.930553    21.679193    8063.2092    1238.8522    2150.9856    2786.2884   -1462.3648   -258.16606    572.21711   -3231.9306 
 1726000     262.8183    -3905.878   -3455.4165    -3905.878            0     1169.533    17.723544    20.875994    21.622683    8000.3191    297.04066    519.08902    2692.4693   -382.43462   -728.39832    474.13031   -3318.9595 
 1727000    272.02913   -3833.4273   -3367.1786   -3833.4273            0    2479.1451     17.70126    20.849746    21.595496    7970.1801    2672.0908    2933.8992    1831.4453    403.67298   -35.645873   -349.16886   -3079.0105 
 1728000    264.21161    -3865.894   -3413.0444    -3865.894            0    1112.1471    17.710541    20.860678    21.606818    7982.7229    995.00321      1872.49    468.94797    894.47482    732.76403   -8.0560105   -3283.5684 
 1729000    255.83086   -3851.9553   -3413.4699   -3851.9553            0    1763.6091    17.594047    20.723464    21.464697    7826.2346     1239.045    1941.0363    2110.7459   -43.152892   -35.547676     990.2164   -3212.1758 
 1730000    260.42892   -3844.3975   -3398.0313   -3844.3975            0    2640.9108    17.594195    20.723638    21.464877    7826.4314    3028.8036    2808.6974    2085.2315   -1131.8167    10.607301   -664.72365   -3096.5965 
 1731000    264.87287   -3852.6238   -3398.6408   -3852.6238            0    1807.6052    17.547426     20.66855    21.407819    7764.1844    2177.4668    947.51217    2297.8366    92.634494   -193.91808    1816.4666   -3193.9608 
 1732000    258.91665   -3866.6576   -3422.8833   -3866.6576            0     2193.781    17.715313    20.866299    21.612641    7989.1778    3764.0312    1806.1168    1011.1952   -1478.0985    930.11822     45.63942   -3167.2772 
 1733000    246.67284    -3873.122   -3450.3332    -3873.122            0    3493.6833    17.627643    20.763036    21.505684    7871.1531    3490.2659    2961.9195    4028.8645    140.58387   -1091.4599     1357.912   -3049.2839 
 1734000    258.66591   -3853.7368   -3410.3923   -3853.7368            0    1326.1033      17.7328    20.886896    21.633974    8012.8594    602.48718    1220.9205    2154.9022    710.28438    1300.7708    471.93319   -3255.4247 
 1735000    253.32599   -3904.7296   -3470.5376   -3904.7296            0    2435.6379     17.60179    20.732584    21.474143    7836.5721      1055.01    1807.6365    4444.2674    360.28574   -228.13538   -603.95285   -3192.1725 
 1736000    249.81726   -3895.5553    -3467.377   -3895.5553            0    3228.0692    17.598789    20.729049    21.470482    7832.5643    609.65537    4019.4185    5055.1337   -195.67807   -93.290893   -137.32894    -3098.635 
 1737000    263.56843   -3915.1416   -3463.3943   -3915.1416            0    1589.3374    17.718982    20.870621    21.617117    7994.1429    3143.1422    1199.3844    425.48556    1363.9882    716.28546    157.35573   -3278.0992 
 1738000    267.35906   -3892.2326   -3433.9883   -3892.2326            0    1940.4093    17.653113    20.793035    21.536756    7905.3205    2297.3179    2812.4429    711.46721    -85.05633   -42.688956   -1133.0444   -3210.2766 
 1739000     251.8714   -3882.2284   -3450.5295   -3882.2284            0    2431.9832     17.58598    20.713962    21.454855    7815.4744    3017.6629    955.76329    3322.5234    1289.2612    398.62011    372.02196   -3173.3304 
 1740000    249.87866   -3876.0835      -3447.8   -3876.0835            0    1990.3183    17.653084    20.793002    21.536722    7905.2822    169.77409    4016.0968     1785.084    255.43022   -909.79739   -139.82074   -3218.3354 
 1741000    259.38881   -3917.3133   -3472.7298   -3917.3133            0    2191.3181    17.625209    20.760168    21.502714    7867.8922    1790.5589    1929.6176    2853.7778    43.289338   -545.64686   -319.09057   -3221.2867 
 1742000    261.08265   -3882.4199   -3434.9331   -3882.4199            0    1105.6764     17.68774    20.833821    21.579001    7951.9309    2279.6262    103.76159    933.64154    495.44265    269.15957    488.82767    -3306.707 
 1743000    245.46158   -3840.1974   -3419.4847   -3840.1974            0     2614.481    17.725299    20.878061    21.624824    8002.6958    1700.7096    4394.3923     1748.341   -213.92761    139.97773   -347.99908   -3114.3457 
 1744000    259.75145    -3911.097   -3465.8919    -3911.097            0    3328.0663    17.676913    20.821068    21.565792    7937.3372    3373.9167     3009.822    3600.4603   -131.31483    39.538943    13.222398   -3080.6418 
 1745000    268.32833   -3886.0107   -3426.1051   -3886.0107            0    3440.3035    17.639523    20.777028    21.520177    7887.0776    1704.9188    5110.4537     3505.538   -1350.7558   -66.234791    297.71857   -3030.3844 
 1746000    252.15552   -3872.5989    -3440.413   -3872.5989            0    1536.4439    17.706733    20.856193    21.602173    7977.5755    1029.2808    897.15783    2682.8932    335.71532   -515.07289    712.41185   -3261.6558 
 1747000     247.4508   -3876.3444   -3452.2222   -3876.3444            0    2622.7903    17.660346    20.801554     21.54558    7915.0414    1424.0554    3140.4608    3303.8548   -406.92098    467.98422   -673.44521   -3149.4663 
 1748000    257.10366   -3850.3555   -3409.6886   -3850.3555            0    3298.3192    17.734917     20.88939    21.636558    8015.7305     2831.872     3492.876    3570.2097   -59.197902   -1475.6006    407.23554   -3024.1111 
 1749000    232.73992   -3845.8383     -3446.93   -3845.8383            0    1681.1388    17.799882    20.965909    21.715814    8104.1399    1726.0793    2704.5045    612.83268    696.32091    1146.6279   -507.86099   -3248.2353 
 1750000    261.96592    -3850.535   -3401.5343    -3850.535            0    1269.4445    17.740146    20.895549    21.642937    8022.8223    517.33506    1216.8749    2074.1235   -635.62798   -453.30276    112.95994   -3253.0034 
Loop time of 360.268 on 64 procs for 250000 steps with 864 atoms

Performance: 119.911 ns/day, 0.200 hours/ns, 693.928 timesteps/s
193.6% CPU use with 32 MPI tasks x 2 OpenMP threads

MPI task timing breakdown:
Section |  min time  |  avg time  |  max time  |%varavg| %total
---------------------------------------------------------------
Pair    | 24.76      | 29.746     | 35.586     |  51.8 |  8.26
Bond    | 0.84631    | 1.1312     | 1.4928     |  14.3 |  0.31
Kspace  | 167.22     | 174.92     | 179.99     |  22.1 | 48.55
Neigh   | 3.6508     | 3.9126     | 4.2055     |  10.1 |  1.09
Comm    | 66.295     | 70.182     | 75.731     |  27.5 | 19.48
Output  | 0.51382    | 0.51415    | 0.51556    |   0.0 |  0.14
Modify  | 65.445     | 68.233     | 70.939     |  17.6 | 18.94
Other   |            | 11.62      |            |       |  3.23

Nlocal:        27.0000 ave          34 max          20 min
Histogram: 1 0 7 2 4 5 6 5 1 1
Nghost:        2349.31 ave        2393 max        2309 min
Histogram: 2 3 3 4 3 7 4 3 2 1
Neighs:        7699.19 ave        9777 max        6070 min
Histogram: 5 1 4 4 4 4 5 3 1 1

Total # of neighbors = 246374
Ave neighs/atom = 285.15509
Ave special neighs/atom = 2.0000000
Neighbor list builds = 13644
Dangerous builds = 1

unfix		3
unfix		2
unfix		1

write_data	data.final.${pid}
write_data	data.final.1
System init for write_data ...
PPPM initialization ...
  extracting TIP4P info from pair style
  using 12-bit tables for long-range coulomb (../kspace.cpp:340)
  G vector (1/distance) = 0.37218212
  grid = 24 24 25
  stencil order = 5
  estimated absolute RMS force accuracy = 0.0033105346
  estimated relative force accuracy = 9.9695767e-06
  using double precision FFTW3
  3d grid and FFT values/proc = 3822 576
Last active /omp style is kspace_style pppm/tip4p/omp
WARNING: Not all mixed pair coeffs generated from mixing. Use write_data with 'pair ij' option to store all pair coeffs. (../write_data.cpp:312)

write_restart   restart.lmp.${pid}
write_restart   restart.lmp.1
System init for write_restart ...
PPPM initialization ...
  extracting TIP4P info from pair style
  using 12-bit tables for long-range coulomb (../kspace.cpp:340)
  G vector (1/distance) = 0.37218212
  grid = 24 24 25
  stencil order = 5
  estimated absolute RMS force accuracy = 0.0033105346
  estimated relative force accuracy = 9.9695767e-06
  using double precision FFTW3
  3d grid and FFT values/proc = 3822 576
Last active /omp style is kspace_style pppm/tip4p/omp
Total wall time: 0:06:00
