LAMMPS (30 Jul 2021)
  using 1 OpenMP thread(s) per MPI task
package omp 0
using multi-threaded neighbor list subroutines
echo both

include		in.partitions
variable        pid world 0
include		in.temp
variable        temperature equal 253.96
variable	tempDamp equal 100.0
include		in.pressure
variable        pressure equal 6000.0
variable        pressureDamp equal 1000.0 # This is 1 ps
include		in.seed
variable        seed world 745823

units		real
atom_style	full
read_restart    restart.lmp.${pid}
read_restart    restart.lmp.0
Reading restart file ...
  restart file = 30 Jul 2021, LAMMPS = 30 Jul 2021
  restoring atom style full from restart
  triclinic box = (-3.2374981 -0.12647572 -0.15422173) to (14.847497 22.706475 19.384220) with tilt (-0.31179289 -7.1355973 0.22960399)
  4 by 4 by 4 MPI processor grid
  restoring pair style lj/cut/tip4p/long/omp from restart
  restoring bond style harmonic/omp from restart
  restoring angle style harmonic/omp from restart
  1008 atoms
  672 bonds
  336 angles
Finding 1-2 1-3 1-4 neighbors ...
  special bond factors lj:    0        0        0       
  special bond factors coul:  0        0        0       
     2 = max # of 1-2 neighbors
     1 = max # of 1-3 neighbors
     1 = max # of 1-4 neighbors
     2 = max # of special neighbors
  special bonds CPU = 0.031 seconds
  read_restart CPU = 0.264 seconds

include 	in.setup
variable	out_freq equal 1000
variable	out_freq2 equal 10000
variable	out_freq3 equal 1000

timestep	2.0

neigh_modify    delay 7 every 1

include		in.tip4p
# This is TIP4P/Ice

# create groups ###
group ox type 2
336 atoms in group ox
group hy type 1
672 atoms in group hy

# set charges - beside manually ###
set group ox charge -1.1794
Setting atom values ...
  336 settings made for charge
set group hy charge 0.5897
Setting atom values ...
  672 settings made for charge

# ### TIP3P Potential Parameters ###
pair_style lj/cut/tip4p/long/omp 2 1 1 1 0.1577 8.5
pair_coeff 1 1*2 0.000 0.000
pair_coeff 2 2 0.21084 3.1668
bond_style  harmonic
bond_coeff  1 450 0.9572
angle_style harmonic
angle_coeff 1 55 104.52
kspace_style pppm/tip4p/omp 1.0e-5
pair_modify tail yes

thermo          ${out_freq}
thermo          1000
thermo_style    custom step temp pe etotal epair emol press lx ly lz vol pxx pyy pzz pxy pxz pyz enthalpy

restart 	${out_freq3} restart.lmp.${pid} restart2.lmp.${pid}
restart 	1000 restart.lmp.${pid} restart2.lmp.${pid}
restart 	1000 restart.lmp.0 restart2.lmp.${pid}
restart 	1000 restart.lmp.0 restart2.lmp.0


include         in.dump
dump            myDump all atom ${out_freq2} dump.water.${pid}
dump            myDump all atom 10000 dump.water.${pid}
dump            myDump all atom 10000 dump.water.0
dump            myDump2 all dcd ${out_freq2} dump.dcd
dump            myDump2 all dcd 10000 dump.dcd
dump_modify     myDump append yes
dump_modify     myDump2 append yes


variable natoms 	equal  "count(all)"                        # NUMBER ATOMS
variable H      	equal  "enthalpy/v_natoms"                 # ENTHALPY-per-atom
variable Vol      	equal  "vol/v_natoms"                 # volume-per-atom
fix AVG all 		ave/time ${out_freq} 1 ${out_freq} v_Vol v_H file vol_enthalpy.dat
fix AVG all 		ave/time 1000 1 ${out_freq} v_Vol v_H file vol_enthalpy.dat
fix AVG all 		ave/time 1000 1 1000 v_Vol v_H file vol_enthalpy.dat



fix 		1 all shake 1e-6 200 0 b 1 a 1
       0 = # of size 2 clusters
       0 = # of size 3 clusters
       0 = # of size 4 clusters
     336 = # of frozen angles
  find clusters CPU = 0.063 seconds
fix             2 all nph tri ${pressure} ${pressure} ${pressureDamp}
fix             2 all nph tri 6000 ${pressure} ${pressureDamp}
fix             2 all nph tri 6000 6000 ${pressureDamp}
fix             2 all nph tri 6000 6000 1000
fix             3 all temp/csvr ${temperature} ${temperature} ${tempDamp} ${seed}
fix             3 all temp/csvr 253.96 ${temperature} ${tempDamp} ${seed}
fix             3 all temp/csvr 253.96 253.96 ${tempDamp} ${seed}
fix             3 all temp/csvr 253.96 253.96 100 ${seed}
fix             3 all temp/csvr 253.96 253.96 100 745823


run             250000
PPPM initialization ...
  extracting TIP4P info from pair style
  using 12-bit tables for long-range coulomb (../kspace.cpp:340)
  G vector (1/distance) = 0.3794357
  grid = 24 27 36
  stencil order = 5
  estimated absolute RMS force accuracy = 0.0024058946
  estimated relative force accuracy = 7.2452801e-06
  using double precision FFTW3
  3d grid and FFT values/proc = 4050 480
Last active /omp style is kspace_style pppm/tip4p/omp
Neighbor list info ...
  update every 1 steps, delay 7 steps, check yes
  max neighbors/atom: 2000, page size: 100000
  master list distance cutoff = 10.8154
  ghost atom cutoff = 10.8154
  binsize = 5.4077, bins = 5 5 4
  1 neighbor lists, perpetual/occasional/extra = 1 0 0
  (1) pair lj/cut/tip4p/long/omp, perpetual
      attributes: half, newton on, omp
      pair build: half/bin/newton/tri/omp
      stencil: half/bin/3d/tri
      bin: standard
Per MPI rank memory allocation (min/avg/max) = 9.328 | 9.338 | 9.355 Mbytes
Step Temp PotEng TotEng E_pair E_mol Press Lx Ly Lz Volume Pxx Pyy Pzz Pxy Pxz Pyz Enthalpy 
 8000000    261.54489   -4823.3223   -4300.2002   -4823.3223            0    5946.6067    18.084995     22.83295    19.538441    8068.0828    7894.5691    5280.7254    4664.5258    1412.3236    1497.7429   -686.66766   -3600.4945 
 8001000    250.31807   -4827.5634   -4326.8963   -4827.5634            0    6415.1351    18.100455    22.949343    19.286465    8011.4727    9107.9455    4718.7037    5418.7562    -263.1832    534.99297    1.9829025   -3577.3576 
 8002000    251.62227   -4819.1214   -4315.8458   -4819.1214            0    7171.1279    18.052683    22.931362    19.410722    8035.5073    8557.3021    6818.2889    6137.7928   -883.52117   -524.56865   -930.74032   -3475.4639 
 8003000    241.79785   -4822.0983   -4338.4727   -4822.0983            0    3856.4119    18.065472      22.9364    19.542532    8097.5831    3986.1758    4586.7542    2996.3055   -327.33224    54.747771    1445.1599     -3883.05 
 8004000    248.55655   -4859.0723   -4361.9285   -4859.0723            0    7071.3132    18.128971    22.736609    19.323784    7965.0959    7046.3917    6982.1497    7185.3981   -1699.5259   -879.90643   -811.80873   -3540.5053 
 8005000    257.70093   -4840.1518   -4324.7181   -4840.1518            0    6503.3207    18.195693    22.781467    19.298008    7999.4987    4956.4491     6652.168    7901.3449    30.211027   -116.42707    2334.7862   -3566.0116 
 8006000    261.96291   -4829.7513   -4305.7931   -4829.7513            0    7339.9902    18.020375    22.841669    19.467346    8013.0603    7780.8287    6233.2069     8005.935   -1444.5318   -12.387066   -48.260455   -3448.0252 
 8007000    255.85035   -4844.5706   -4332.8383   -4844.5706            0    6497.6681    18.165011    22.948359    19.281538    8037.6475    7933.0299    5553.4628    6006.5116   -402.68472    810.86381    1109.5047   -3571.1762 
 8008000    254.94605   -4826.4533   -4316.5297   -4826.4533            0    5059.6495    17.936641    23.015003    19.496844    8048.5285    6625.8678    3944.5215     4608.559   -782.36917   -1037.2517   -72.882299   -3722.6304 
 8009000    255.81412   -4805.6584   -4293.9986   -4805.6584            0    6379.7446     18.12884    23.010863    19.267731    8037.7313    3108.1665     7539.613    8491.4544    -628.3168   -444.29548    191.02079   -3546.1517 
 8010000    260.34768   -4828.3388   -4307.6113   -4828.3388            0    6898.2656    18.067406    22.992118    19.280303    8009.1911    6411.1608    6665.7104    7617.9255   -1252.7609     737.1916    365.67198   -3501.8536 
 8011000    252.75134   -4837.5377   -4332.0038   -4837.5377            0    7733.4156    17.907829    23.116854    19.319678    7997.8187     7385.896    8802.4347     7011.916    601.14952    1278.8259    857.82983   -3429.9784 
 8012000    252.35635   -4783.1953   -4278.4514   -4783.1953            0    7945.2074    18.019836    23.041673    19.261283    7997.4227    10762.265    6852.7587    6220.5986    1170.6726    247.69594    2607.5637   -3351.7685 
 8013000    251.92229   -4793.2678   -4289.3921   -4793.2678            0    5901.3486    18.054639    23.024703     19.41009    8068.8272    5793.9948    6711.2058    5198.8453   -394.67771    551.83706   -1529.5692   -3594.9476 
 8014000    251.50447   -4831.1297   -4328.0896   -4831.1297            0    6839.5351    17.810402    23.159465    19.297598    7959.8614    7533.0703    7011.3899    5974.1451    586.71169    679.89719    470.96757   -3534.1125 
 8015000    261.18629   -4842.6175   -4320.2127   -4842.6175            0    5600.6904    18.034655    23.092621    19.329835    8050.2471    6565.7433    5331.0095    4905.3184   -1630.9664   -540.96548    374.37412   -3662.6659 
 8016000    255.79372   -4830.6835   -4319.0644   -4830.6835            0     4954.586    17.983358    23.234676    19.346487    8083.6877    5024.1367    5588.5584    4251.0629    2211.3194   -299.10915    2262.1616   -3734.9569 
 8017000    255.62644   -4832.5293   -4321.2448   -4832.5293            0    8527.0062    18.009289    22.953618    19.188591    7932.1478    8703.9588     7326.444    9550.6157    554.43958   -626.44967   -856.49183   -3334.8216 
 8018000    251.21381   -4855.7075   -4353.2489   -4855.7075            0    3577.1492    18.113943    23.284533    19.245846    8117.4111    3754.9506    2562.2112    4414.2859    1551.9406   -412.73179     518.0912   -3929.7712 
 8019000    256.99878   -4837.1338   -4323.1045   -4837.1338            0    8080.9066    17.959176    23.000016    19.255328    7953.6315    9052.6857    7185.0192     8005.015   -362.24095    343.76594    936.40386   -3385.7552 
 8020000    257.00091    -4843.072   -4329.0384    -4843.072            0    4776.7517     17.86214    23.135422    19.436579    8032.1301    5925.8754    4198.2228    4206.1569   -782.10024   -240.41574   -1173.4054   -3769.4879 
 8021000     239.2445   -4838.0778   -4359.5593   -4838.0778            0     4661.727    18.025289    23.102673    19.322474    8046.5032    5358.8703    3047.8735    5578.4374    707.73801    969.81906   -1430.4814   -3812.5056 
 8022000    252.60174   -4822.4235   -4317.1888   -4822.4235            0    7471.8348    18.122394    23.007353    19.220778     8014.071    6513.0858    8240.3133    7662.1052    501.71108    941.14669   -405.60955   -3443.9031 
 8023000    247.14263   -4848.9967   -4354.6809   -4848.9967            0    6302.4154    17.887507    23.034797    19.392015     7990.191    5184.0841    7099.7827    6623.3796    1299.6598    28.471102    1596.2356   -3620.2683 
 8024000    255.85438   -4783.8349   -4272.0945   -4783.8349            0    5840.2675    18.034818    23.037681    19.362063    8044.5571    6121.7115    6003.8187    5395.2722   -1100.9379   -689.13295    631.19493   -3586.9049 
 8025000     263.3549   -4824.8304   -4298.0881   -4824.8304            0    6585.0252    17.888274    23.116909    19.385901    8016.4889    6869.0039    5888.9635    6997.1082    2148.6915   -571.27934    2881.0563   -3528.2179 
 8026000    248.86409    -4800.964   -4303.2051    -4800.964            0    6686.1478    18.017576    23.086459    19.329458    8040.3207    5871.3184    5748.5285    8438.5965    309.86981    395.72957    594.45011   -3519.1885 
 8027000    255.89631   -4809.5772    -4297.753   -4809.5772            0    4707.6885    18.246772    22.972687    19.337209    8105.7208    3332.4527    4905.8531    5884.7597    2700.8994    794.46244    995.51908   -3741.2401 
 8028000    246.17766   -4833.8547    -4341.469   -4833.8547            0    5106.6416     18.02088    22.841989    19.561004    8051.9499    5981.0297    5337.7435    4001.1516   -111.84058   -499.87569   -405.12708    -3741.799 
 8029000    259.78917   -4842.4717   -4322.8613   -4842.4717            0    6628.7184    18.136935    22.826212    19.395615    8029.7367    7467.0483    7785.6664    4633.4406   -84.418318   -360.54216   -1098.4119   -3546.6021 
 8030000    272.35946    -4840.131   -4295.3784    -4840.131            0    6485.1749    18.069505    22.842637    19.404006    8009.1033    6389.4097    6850.2942    6215.8206     1893.402    145.38134   -1844.6923   -3537.8805 
 8031000    253.63372   -4806.0873   -4298.7885   -4806.0873            0    4640.6766    18.178731    22.908781    19.478919    8112.0459    4506.4927    4886.2566    4529.2805    1786.4816    494.36266    857.96161   -3749.7692 
 8032000    256.59851   -4817.9362   -4304.7074   -4817.9362            0     8594.928    18.012127    22.937106    19.317838    7981.0889    8414.5717    9297.2956    8072.9167   -13.666797    792.59418    1105.6326   -3304.2922 
 8033000     261.5369   -4840.3299   -4317.2238   -4840.3299            0    5889.7942    17.975443     22.98303     19.39072    8010.8909     6314.898     5532.886    5821.5987    1652.8373   -1582.8475    681.69522   -3629.1154 
 8034000    246.04445   -4843.0125   -4350.8932   -4843.0125            0    6373.7238    18.002825    22.897923    19.384777    7990.9345    6280.3444    6163.9042    6676.9229   -746.20403   -299.69524   -1190.5971   -3608.1021 
 8035000    260.10619   -4877.0635    -4356.819   -4877.0635            0    6271.8897    17.959938    23.164749    19.219692    7996.1119    5993.2112    6386.8348     6435.623    1428.7137   -196.31246   -7.1867966    -3625.422 
 8036000     252.1086   -4859.8979   -4355.6495   -4859.8979            0     5793.882    18.013844    23.006877    19.369664    8027.6083    6519.7408    5350.8647    5511.0404    2066.1644   -423.93887   -710.27106   -3677.3341 
 8037000    267.10199   -4847.2942   -4313.0573   -4847.2942            0    6718.4064    17.944399    22.971423    19.366667    7983.1025    5730.0877    7049.3034    7375.8282   -592.11665     838.0783   -1576.9584   -3530.8644 
 8038000    248.03981    -4822.802   -4326.6917    -4822.802            0    6864.7103    18.074237    22.880248     19.42487    8033.0198    8807.9769    7039.0199    4747.1341     558.4153   -87.707948    1137.7678   -3522.4679 
 8039000    252.37872   -4848.4619   -4343.6733   -4848.4619            0    5658.2137    18.158533    22.899565    19.347527    8045.1372    4840.3423    6333.6905    5800.6082   -471.19661    767.06281   -1425.9618   -3679.7947 
 8040000    257.37272   -4830.2266   -4315.4494   -4830.2266            0     7630.734    18.066957    22.624809    19.550538    7991.5063    8454.3264    7430.6313    7007.2443    2635.2968     148.1547    2122.5323   -3426.1032 
 8041000    244.47205   -4808.6608   -4319.6864   -4808.6608            0    5947.3455    18.182859    22.602317    19.574673    8044.6965    5973.1166    6650.1816    5218.7384   -385.12409    213.73246    647.40082   -3621.9222 
 8042000    262.51342   -4837.3206   -4312.2613   -4837.3206            0     7269.097    18.155668    22.617714     19.46687    7993.8694    6945.6977    8594.6553    6266.9381   -163.75899    800.81131    905.18309   -3464.8126 
 8043000    260.92787    -4834.521    -4312.633    -4834.521            0    4072.4927    18.082258    22.847317    19.665494    8124.4264    5287.8122    2955.8299    3973.8358   -879.09996    266.89914   -871.87677   -3830.0979 
 8044000    244.81891    -4842.443   -4352.7749    -4842.443            0    7284.2565    18.072597    22.746885    19.416003    7981.8272    6903.9976    8467.4086    6481.3633   -200.84028    283.52237    1979.2923   -3504.8382 
 8045000    244.35977   -4854.6502   -4365.9005   -4854.6502            0    5624.6472    18.018999    22.844164    19.561693    8052.1595    5871.7775    5726.6601    5275.5041    -154.1785    221.98495   -1027.0873   -3705.3842 
 8046000    254.12052   -4866.2237   -4357.9512   -4866.2237            0    5811.4922    18.220357    22.991307    19.184208    8036.4528     3927.038    5842.8682    7664.5704    832.76717    745.38665   -995.97885   -3676.8245 
 8047000    261.21353   -4848.8933    -4326.434   -4848.8933            0    6750.8666    17.940422    23.030754    19.426237    8026.5604    7502.4754    6061.8177    6688.3066    2167.8237    1058.3011    977.98102   -3536.1833 
 8048000    236.67679   -4820.0626   -4346.6798   -4820.0626            0    7416.4849    18.142311    22.919028    19.205574    7985.7574    6559.3091    6561.7283    9128.4173    118.72635      795.215   -605.38249   -3482.9257 
 8049000    254.52449   -4812.8506   -4303.7701   -4812.8506            0    5270.5017    17.977093    23.174882    19.431246    8095.3877    6688.6895    3563.4962    5559.3192   -622.73645   -1962.9023   -1339.4542   -3681.5193 
 8050000    256.33785   -4855.1516   -4342.4442   -4855.1516            0    7825.2823    18.006518    22.956126    19.255516    7959.4583    9193.5488    6879.9001    7402.3981    369.05658   -715.03361   -2239.5054   -3434.0812 
 8051000    256.92609   -4779.5526   -4265.6687   -4779.5526            0    4588.9202    18.072418    23.069137    19.485185    8123.6675    2872.6819    5542.8056    5351.2731   -681.46507    122.25064   -732.07142   -3721.9947 
 8052000    243.89902   -4835.2713   -4347.4432   -4835.2713            0    7141.8322    17.993562    22.987306    19.284488    7976.5179    6559.0816     6985.791    7880.6241    1899.6328    310.36526   -827.28783   -3516.6386 
 8053000     244.8066   -4852.9209   -4363.2775   -4852.9209            0    6574.8924    18.047647    23.009284     19.30518    8016.7356    5289.3802    6503.8742    7931.4228    2177.0046    -22.01256   -608.94777   -3594.5683 
 8054000    263.40393   -4818.6063   -4291.7659   -4818.6063            0    5400.0016    18.095105     23.08711    19.222341    8030.3963    6528.1853    4620.0623    5051.7571    634.28993   -714.73562    1382.4344   -3659.3442 
 8055000     267.4209   -4842.2562   -4307.3814   -4842.2562            0    5665.8823     18.06736    23.130498    19.317347    8072.8554    5698.3096    5315.4373    5983.9002    788.64741    11.727635    601.59604   -3640.3126 
 8056000    261.99364   -4806.8471   -4282.8275   -4806.8471            0    6739.7153    18.102081    22.956079    19.411913    8066.6749    7372.2822    5845.8252    7001.0385    90.277085      1393.48    1213.3614   -3489.9392 
 8057000    253.78856   -4867.0656   -4359.4571   -4867.0656            0    6341.0402    18.100529    22.844248    19.354685    8003.0261    6292.5175    6491.9569    6238.6462   -244.86952   -420.84115   -40.793523   -3619.3568 
 8058000    245.55312    -4816.535   -4325.3984    -4816.535            0    6867.7502    18.104759    22.700396    19.506818    8017.0137    6259.6634    7690.9232    6652.6641     1461.923   -413.36895    1125.5277   -3522.4216 
 8059000     246.7156   -4834.0342   -4340.5725   -4834.0342            0     5028.675    18.120832    22.947599     19.39292      8064.15    4829.4014    5239.4345    5017.1892     219.0126   -1351.7633   -1294.4837   -3749.1634 
 8060000    253.07148   -4833.5704   -4327.3961   -4833.5704            0     7456.671    18.006228    22.889837    19.383718     7989.186    7840.5981    7521.7374    7007.6775    1400.3464    104.38404    28.839045    -3458.589 
 8061000    257.58861   -4816.9444   -4301.7354   -4816.9444            0    4673.1872     18.22499    22.893238     19.31335    8058.0904    2172.4405    6158.0149    5689.1062    2240.0901    -645.6293     415.2527   -3752.5471 
 8062000    264.12288    -4804.559   -4276.2807    -4804.559            0    5477.9233    17.987728    23.004954    19.497963     8068.391    7414.6594    4803.7033    4215.4071   -1139.3621   -451.23986   -1582.7773   -3631.6978 
 8063000    263.54921   -4819.2697   -4292.1387   -4819.2697            0    4068.8977    18.157706    22.915786    19.440819    8089.2878    3181.6157    4109.6478    4915.4294    901.05563    4.1238479   -19.392876   -3812.1147 
 8064000    254.13652   -4846.8024    -4338.498   -4846.8024            0    5912.0982    18.098839    22.860849    19.432933    8040.4699    6875.1604    6320.5575    4540.5769    1330.0919    896.54558      927.286   -3645.2335 
 8065000    240.86454   -4832.2574   -4350.4986   -4832.2574            0    5695.8136    17.997482    22.767968    19.543002    8008.0597    8045.7499    6228.5981    2813.0929    45.589065    223.24772   -1126.7844   -3685.2883 
 8066000    258.14464   -4806.7502    -4290.429   -4806.7502            0    6921.2937    18.205441    22.693324    19.468043    8043.0659    3256.6211    9019.2651    8487.9948     256.2218    1837.7356    1506.8726   -3478.5622 
 8067000    258.82525   -4857.6165    -4339.934   -4857.6165            0    7010.7137    18.115741    22.758267    19.430819    8010.9938    8143.2037    5687.3235    7201.6139   -980.25612   -604.54818   -2145.4873   -3520.8574 
 8068000    253.86306   -4830.0784   -4322.3209   -4830.0784            0    5094.3218    18.175809    22.751526    19.455396    8045.3393    4930.1195    5275.0411    5077.8046    858.31678    54.980038   -84.620201   -3724.5887 
 8069000     259.4766   -4881.2901   -4362.3049   -4881.2901            0    5340.8822    18.055358     22.80704    19.532909    8043.4424    6777.9971    6107.2908    3137.3587    767.63098    103.55905   -690.16689   -3735.7908 
 8070000    255.69082   -4825.5338   -4314.1206   -4825.5338            0    6177.7532     18.24121    22.646545    19.514402    8061.4071    3853.7096    7267.5667    7411.9834   -122.32304    1164.5923    399.95789   -3587.8185 
 8071000    267.20819   -4854.0652   -4319.6158   -4854.0652            0    5223.0664    18.212538    22.785633    19.375572    8040.5563    4755.1367    6299.1739    4614.8885    1483.5456    366.46348    283.45704    -3707.142 
 8072000    262.14807   -4799.9358   -4275.6073   -4799.9358            0    3445.6434    18.006255    23.160701    19.526582     8143.317    4281.1397    2585.6917    3470.0987    698.45463   -788.50831   -1825.1495    -3866.396 
 8073000    255.01284    -4870.261   -4360.2038    -4870.261            0    8024.5183    17.975833    22.934609    19.326392    7967.6667    7049.2566    9440.0371    7584.2612    1537.8598    904.75754    68.270214   -3427.7528 
 8074000    238.33285   -4839.6524   -4362.9573   -4839.6524            0    6145.4972    18.011287     23.07536     19.30977    8025.4673    5922.0563    5501.8009    7012.6345   -1537.2707   -90.810789    2045.6771   -3643.6686 
 8075000    247.46965   -4832.7027   -4337.7329   -4832.7027            0    5821.5291    18.038858    23.005025    19.280463    8001.0911    5724.2492    6078.1989    5662.1393   -838.43556   -456.39404    -105.1734    -3658.432 
 8076000    263.43256   -4849.6349   -4322.7372   -4849.6349            0    5422.7912    17.965471    23.063134    19.396971    8036.9422    5708.7639    5697.0303    4862.5793    855.59114   -424.42393   -72.021824   -3687.1289 
 8077000    245.45532   -4861.5408   -4370.5998   -4861.5408            0     7102.356    18.023264    23.168173     19.04379    7952.0409    3472.3806    7555.8095    10278.878   -305.83292    227.47015   -1026.6494   -3546.9228 
 8078000    275.86361   -4825.6844   -4273.9231   -4825.6844            0    6103.8177    17.924161    23.340306      19.1515    8012.1332    5280.1938    5790.3977    7240.8617    1355.1536    955.72581     121.9558   -3560.6997 
 8079000    240.21423   -4827.3408   -4346.8827   -4827.3408            0    4436.1899    18.051606    23.091811    19.420371    8095.2705    4463.4857    3785.3101    5059.7739    1121.9443    325.14343    489.34146   -3823.1407 
 8080000    261.20207   -4809.7312   -4287.2948   -4809.7312            0    7970.3524    18.075448    23.042608    19.161111    7980.7073    5168.5928     8750.548    9991.9165    1282.0255    800.84715     1836.553    -3359.622 
 8081000    251.68618   -4818.3365    -4314.933   -4818.3365            0    6819.8397    18.034303    22.854269    19.496481    8035.6856    5312.7848    8199.1526    6947.5818   -87.631519   -20.333357   -1394.4696   -3515.7008 
 8082000    250.57522   -4863.9067   -4362.7253   -4863.9067            0    4788.9027    18.062115    22.886425    19.443796    8037.6224    5124.9316    5095.5667    4146.2097    899.48555   -188.23657    584.92802   -3801.3678 
 8083000    255.26912   -4820.7135   -4310.1438   -4820.7135            0    7089.8617    18.116186    22.891407    19.353693    8026.0732    8628.2691    6206.5213    6434.7946    1024.1326   -569.57193    1241.6616    -3480.261 
 8084000    267.97092   -4817.5059   -4281.5309   -4817.5059            0    7118.2047    17.881142    22.939537    19.501762    7999.3329    7981.2792    6126.0669    7247.2679    -812.0606   -110.09234    472.64942   -3451.1065 
 8085000    236.46571   -4825.6855   -4352.7249   -4825.6855            0    5334.8862    18.177575    23.025932    19.276762    8068.3971    6668.8507    4820.2063    4515.6014   -1792.4346    791.65365   -2207.1737   -3724.9726 
 8086000     261.3675   -4862.1976   -4339.4303   -4862.1976            0    6975.6621    17.968154    22.800919    19.400222    7948.0848    7411.7429    5707.1939    7808.0496    177.35036   -677.38627    235.71947   -3530.8488 
 8087000     250.9966   -4843.7732    -4341.749   -4843.7732            0    4898.2008    18.196357    22.917276    19.304971    8050.3843    5103.4579    3408.4629    6182.6814    -872.7851   -1730.4966   -2308.3218   -3766.6679 
 8088000    255.51854   -4845.9646    -4334.896   -4845.9646            0    3968.4069    18.042123    22.808786    19.590083    8061.6896    4139.5969    4506.3305    3259.2932    1103.2606   -270.52145    876.76907   -3868.3245 
 8089000    250.96901   -4878.5619   -4376.5928   -4878.5619            0    4463.0056    18.250402    22.863737    19.282348    8045.9916    5214.5181     3743.937    4430.5619   -279.46161    368.07275    732.66409   -3852.8924 
 8090000    246.18661   -4836.4765   -4344.0729   -4836.4765            0     5728.874     17.86305    23.046213    19.543559    8045.6078     7847.816    5630.5488    3708.2573     744.0387    309.92857    2456.9268   -3671.8643 
 8091000    250.58176   -4838.1343   -4336.9398   -4838.1343            0    6815.0427    17.992259    23.081198    19.239195    7989.7084    5740.9443    5375.3682    9328.8156   -1784.7667   -706.46059   -737.21643   -3542.8395 
 8092000    257.47895   -4854.5431   -4339.5534   -4854.5431            0    5615.9282    17.960094    23.101766    19.409457    8053.1757    4825.7527    6198.1426    5823.8892   -245.76677    21.353933   -501.71374   -3679.9778 
 8093000    262.77393   -4832.6813    -4307.101   -4832.6813            0    4647.1316    17.995869    23.245313    19.306025    8076.0886    4069.9866    3950.4976    5920.9105   -1211.2318   -686.01426    1949.6729    -3759.755 
 8094000    250.42291   -4824.0066   -4323.1299   -4824.0066            0    7193.0623    18.053875    22.880638    19.340325    7989.1822    7767.2278    6277.0068    7534.9523   -347.00655    72.310123    1214.8833   -3485.0372 
 8095000    243.67092   -4852.1314   -4364.7595   -4852.1314            0     6996.563    18.100108    22.872481    19.283591    7983.2986    6809.7243    6931.6024    7248.3623    54.836629    -341.5378    949.55049   -3550.1621 
 8096000    260.32893   -4831.9217   -4311.2317   -4831.9217            0    5544.5883    17.969174    22.893416    19.451933    8002.0538    5961.6324    5840.9246    4831.2078   -1414.4094   -297.83446    59.652468   -3664.1686 
 8097000    246.10288   -4819.6319   -4327.3957   -4819.6319            0    5811.7829    18.060684    22.926253    19.403542    8034.3047    5505.7875    6887.1303    5042.4309   -2358.7096    770.08887   -388.65996   -3646.4169 
 8098000     247.0988    -4820.363   -4326.1349    -4820.363            0    6088.3513    18.226068    22.717535    19.412876    8037.9268    5108.3376    6933.9003    6222.8161   -778.43121    1346.5047   -1524.7198   -3612.4284 
 8099000    247.16598   -4827.7348   -4333.3723   -4827.7348            0    5467.9117    18.071424    22.784752    19.466525     8015.398    6234.5312    5030.0135    5139.1905   -901.83084   -749.98958   -1419.9353   -3694.1933 
 8100000    253.92783   -4837.6686   -4329.7815   -4837.6686            0    5429.5619    18.199064     22.79387    19.348712    8026.3704    3754.5189    6683.3737    5850.7931    519.73112    345.01472   -978.37775   -3694.2167 
 8101000    229.45115   -4825.5269   -4366.5962   -4825.5269            0    6376.2569    17.944506    22.743823    19.628523    8010.9236     7595.071    7370.6013    4163.0985   -87.244238    1351.2005    1386.7278   -3621.6511 
 8102000    243.46277   -4811.8694   -4324.9138   -4811.8694            0    4628.0951    18.320296    22.836689    19.328922    8086.7355    3945.9677     4196.273    5742.0446    195.92133    537.51385     56.08418   -3779.0913 
 8103000    262.84752   -4836.2013   -4310.4738   -4836.2013            0    6151.5684    18.111132    22.665905    19.549426    8025.1409    6111.6081    5997.5356    6345.5615    997.76457    105.89054   -955.65491   -3590.5037 
 8104000    255.04499    -4835.018   -4324.8965    -4835.018            0    4537.7986    18.150239    22.885343    19.414484    8064.2802    5064.0667    3290.5243    5258.8048    73.343991   -295.37692    316.33102   -3791.2094 
 8105000    251.15134   -4785.7764   -4283.4427   -4785.7764            0    6359.6312    18.061898    22.807138    19.474724    8022.4216    6395.9137    6393.2805    6289.6993    1703.8868   -1218.8832     452.9765   -3539.3736 
 8106000    253.09522   -4859.9105   -4353.6888   -4859.9105            0    4561.2947    18.190291    22.709243    19.484183    8048.6773    4549.0499    4205.7793     4929.055    622.97261   -945.97295   -944.19675   -3818.2762 
 8107000     260.0463   -4843.9509   -4323.8261   -4843.9509            0    5621.7269    18.381986    22.569537    19.422029    8057.6741    4085.5642    7279.6598    5499.9566    831.76313    198.11633      263.059   -3663.2007 
 8108000     263.2829     -4825.72   -4299.1216     -4825.72            0    7236.2357    18.135064     22.54902    19.511581    7978.8302    6925.1198    7676.9763    7106.6111     457.6429   -196.68128    1256.6543   -3457.0911 
 8109000    250.20658   -4841.6659   -4341.2218   -4841.6659            0    5624.5744    18.231286    22.640869    19.468128    8035.9015    5292.3909    7073.0573    4508.2749   -364.44501    16.954053   -166.90924   -3682.0477 
 8110000    245.80596   -4794.3473    -4302.705   -4794.3473            0    5963.1619    18.099996    22.714062    19.556967     8040.347     4084.717    6182.6636    7622.1051    222.82681    -665.5703   -1165.3622   -3603.4633 
 8111000    265.70369   -4822.1995   -4290.7592   -4822.1995            0    5346.6071    18.096616    22.904499    19.368708    8028.2118    3922.2923    5611.7598    6505.7691   -2205.7386    323.70362   -1129.5792   -3664.7612 
 8112000    257.98431   -4838.3972   -4322.3967   -4838.3972            0    4573.8932    18.058183    22.984979    19.436445    8067.4262    4470.6377    5397.1234    3853.9185    535.71556    1332.4207    845.33233   -3784.2546 
 8113000    253.39284   -4849.0959   -4342.2789   -4849.0959            0    7661.5894     18.01978     23.01121    19.244864    7980.0163    7054.1813    7516.6165    8413.9704   -739.69113    453.15704   -402.29041   -3450.6204 
 8114000    255.15519    -4816.887    -4306.545    -4816.887            0    6110.5381    17.973166    23.082978    19.280736    7999.0801    7471.7251    5906.7644    4953.1247    15.296811   -830.87177     692.6005   -3593.6996 
 8115000    239.05955   -4795.6746    -4317.526   -4795.6746            0    7257.3569    17.806232    23.210445    19.348391    7996.5073    9287.3018    5950.1246    6534.6444    227.57618    930.17513   -147.46909   -3471.1668 
 8116000    248.16272   -4852.5123   -4356.1562   -4852.5123            0    4529.9064    17.931577    23.328117    19.229742    8043.9917    5774.8577    3213.7113    4601.1504   -450.00097   -1069.3821   -63.565189   -3824.7376 
 8117000     248.6726    -4857.822   -4360.4461    -4857.822            0    6994.6092    17.902814    23.253279    19.190805    7989.1153    8083.4335    5956.9048    6943.4892   -1341.5846    1078.5441   -1391.1295   -3545.4828 
 8118000    254.32116   -4865.0815   -4356.4078   -4865.0815            0     6731.974     17.83489    23.181268    19.380492    8012.5804    5318.0388    8371.6891    6506.1942    858.08911    1590.3685    341.14099   -3569.7412 
 8119000     244.8875   -4836.6972    -4346.892   -4836.6972            0    6986.3388    18.170618    22.885355    19.192859    7981.1786    6515.2564    7500.4301    6943.3299    -1032.428    830.54166    1229.0646    -3533.701 
 8120000    262.38353   -4856.5039   -4331.7045   -4856.5039            0    5617.5806    17.921082    22.931716    19.505642    8016.0612    7768.9628    6259.8139    2823.9653   -110.76739   -809.88718   -459.38669   -3674.9754 
 8121000    250.23257   -4849.2915   -4348.7955   -4849.2915            0    5250.1988    18.241381     22.86209    19.278817     8039.963    5020.1848    5079.5633    5650.8484    1434.0214    561.93523    1506.6267   -3733.1854 
 8122000    257.66915   -4812.4695   -4297.0993   -4812.4695            0    5260.2792    17.928941    22.812377    19.652804    8038.0314    6048.7096    5811.2256    3920.9025     1017.398    224.82176   -341.91539   -3680.4555 
 8123000    254.15598   -4836.4514    -4328.108   -4836.4514            0    5734.8388    18.287217    22.894924    19.167244    8025.0269    5205.5976    5512.8285    6486.0902   -352.47649    229.79493   -569.00137   -3656.9209 
 8124000    253.29601   -4815.8989   -4309.2755   -4815.8989            0    8209.5568    17.915363    22.827417    19.542904    7992.2944    7783.2472    8469.7273     8375.696    1060.9161    104.33926    1119.7005   -3352.3744 
 8125000    266.72764   -4828.7157   -4295.2275   -4828.7157            0    6636.3461    18.081373    23.007901    19.336219    8044.1464    5997.7418     6810.744    7100.5525   -898.42106   -1223.0971     82.56632   -3516.6804 
 8126000    249.53485   -4843.4837   -4344.3831   -4843.4837            0    4446.6762    17.857581    23.266897    19.451972    8082.1094    6655.2314    3071.7949    3613.0023    1862.2541   -542.76668    491.49947   -3820.2566 
 8127000    247.44593   -4841.1307   -4346.2083   -4841.1307            0    8513.4111    18.043168    22.890873    19.221988    7939.1398    9426.8531     8075.365    8038.0153    1665.1066   -819.38249   -50.914121   -3360.4897 
 8128000    251.70917   -4848.2361   -4344.7867   -4848.2361            0    5918.7711    18.118003    22.933239    19.333615    8033.2035    6670.7914    5573.6971    5511.8246    154.97826   -180.98987     -97.7948   -3651.3669 
 8129000    270.76695   -4823.0575   -4281.4901   -4823.0575            0      5095.65    17.987869    22.995274    19.491907    8062.5539    4491.2157    4632.3024    6163.4319   -451.56285   -1452.8926   -1666.3754   -3682.3228 
 8130000     256.8549    -4871.888   -4358.1465    -4871.888            0    5228.9681    18.200442    22.994945    19.162831    8019.9929    3413.3169    5776.5854    6497.0018    1723.1844    453.93512   -93.352456   -3746.5487 
 8131000    247.26721   -4854.2757   -4359.7107   -4854.2757            0    7137.8971    17.817378    22.886858    19.575495    7982.5695    9552.6209    6231.7486    5629.3216   -725.81783   -27.699547   -612.80914    -3528.734 
 8132000    269.47533   -4833.9521   -4294.9682   -4833.9521            0    5311.8735    18.051023    23.304343    19.207572    8079.9964    4414.7737    5420.4874    6100.3593    433.08212    -40.17744   -1130.7392   -3669.0252 
 8133000    267.02091   -4839.3111   -4305.2363   -4839.3111            0    5360.6892    17.835693    23.214897    19.366552     8018.794     5822.408    5680.8058    4578.8536    587.63704   -1116.3208   -619.09734   -3678.3258 
 8134000    244.85123   -4839.7308   -4349.9981   -4839.7308            0    5651.2101    17.952053    23.110857    19.349668    8027.9321    6744.5807    4704.6593    5504.3904   -335.68709   -855.12071   -1799.2501   -3688.3592 
 8135000    242.96209   -4829.2356   -4343.2814   -4829.2356            0    5849.6549    17.980307    23.065411    19.391232    8041.9935    7833.4176    4103.9957    5611.5515     -419.079   -464.79768    1624.0003   -3657.2092 
 8136000    266.54071   -4841.8843     -4308.77   -4841.8843            0     5295.332    17.970433    23.326647    19.146096     8025.851    5995.7932    3377.7272    6512.4755    724.73305    157.49595    1366.9202   -3688.9577 
 8137000    250.12963   -4847.8763   -4347.5862   -4847.8763            0    5327.7982    18.032502    22.958761    19.352561    8012.0358     7491.811    4249.8464    4241.7373    -627.2034   -346.24463   -1523.0819   -3725.0472 
 8138000    250.14241   -4827.6565   -4327.3408   -4827.6565            0    6869.8234    18.040992    22.827251    19.393136    7986.6026    6691.6842     7612.091     6305.695    1854.8953    103.72652    2526.2061   -3527.1685 
 8139000    248.38891   -4853.8197   -4357.0112   -4853.8197            0     6089.387    17.970055    22.874763    19.485566    8009.7514    6000.2972    6262.9971    6004.8668    1790.1579   -475.81178    1443.7721   -3645.6855 
 8140000    257.14644   -4832.9719   -4318.6473   -4832.9719            0    4693.3222    18.424523    22.729515    19.366881    8110.4714    2151.3198     5705.296    6223.3507    344.81168   -624.88986   -360.88844   -3763.5075 
 8141000    250.20425   -4842.8378   -4342.3984   -4842.8378            0    6053.4739    18.152982    22.801402    19.402028    8030.7603    5412.0882    7037.0592    5711.2743    1053.1608    297.95249    1254.7466   -3633.4131 
 8142000    253.76454   -4828.2186   -4320.6582   -4828.2186            0    5667.9916    18.149096     22.87008    19.382223    8045.0038    5040.2626    6061.8474    5901.8648    806.47275   -603.68638   -330.29297   -3655.6433 
 8143000    246.28041   -4838.1715   -4345.5803   -4838.1715            0    7373.4561    18.059871    22.847808    19.371747    7993.3343    5844.8912    8454.4235    7821.0536    692.64341    647.59621   -509.32677   -3486.0227 
 8144000    251.57263   -4827.3871   -4324.2108   -4827.3871            0    6641.2585    18.113007    22.696411    19.441927    7992.5814    6843.8268    7983.8002    5096.1484     948.9328    456.62843    -2197.958   -3550.0818 
 8145000     247.5985   -4833.0942   -4337.8666   -4833.0942            0    4275.6638    18.155371    22.933719    19.448075    8097.5985    5404.0142     3227.292    4195.6851    265.02369   -1525.0342   -1087.4681   -3832.9314 
 8146000    252.25073   -4843.5934   -4339.0608   -4843.5934            0    6142.8656    18.051707    22.913457    19.353262    8005.0321    5940.9441    5391.5669    7096.0858   -1188.2134   -585.81934   -975.53642   -3621.9108 
 8147000    247.78621   -4859.0896   -4363.4865   -4859.0896            0     5462.896    17.922274    23.147378    19.394309    8045.7996    7412.5257    4736.8281    4239.3342    242.81664    397.91532   -180.04499   -3722.4718 
 8148000    263.94042   -4873.8907   -4345.9773   -4873.8907            0     5798.725    18.006256    23.162108     19.27828    8040.2542    5885.2381     5834.593     5676.344    2030.3263   -1174.8793    1778.3582   -3666.0254 
 8149000     266.9529   -4840.7331   -4306.7943   -4840.7331            0    5367.0457    18.099749    22.953999    19.365313    8045.5445    5293.4417    5021.9513    5785.7441    406.03574   -745.33176   -1318.9742   -3677.0466 
 8150000    249.61223   -4845.3979   -4346.1426   -4845.3979            0    5580.3843    17.942406    23.093222    19.426403    8049.2907    5413.5248     6222.695    5104.9331   -984.31612    674.60585    740.81783   -3691.0577 
 8151000    271.31537   -4818.6195   -4275.9552   -4818.6195            0    4766.4988     18.06692    23.338136    19.157764    8077.8373    3331.2491    4022.1405    6946.1069    352.60979   -1049.2449    89.677605   -3714.4284 
 8152000    255.50867   -4831.4738   -4320.4249   -4831.4738            0    5088.6723    17.807854    23.426899    19.333376     8065.552    5881.7679    3985.5363    5398.7127   -7.7294628   -529.28702    394.42393   -3721.8555 
 8153000    258.65021   -4819.7946   -4302.4622   -4819.7946            0     7949.102    17.757536    23.406018     19.09679    7937.2601    7847.1536    7914.5687    8085.5835   -171.19295    905.73125     5.839688   -3382.2996 
 8154000    247.61448   -4838.0489   -4342.7894   -4838.0489            0    6170.3268    17.954156    23.189494    19.298008    8034.6831    6593.8375    4406.5246    7510.6184    1610.1387    63.215516   -355.68189   -3619.7652 
 8155000      251.508   -4835.6678   -4332.6207   -4835.6678            0    7401.1918    17.867415    23.148169    19.233849    7955.0805    8154.7928    5386.0549    8662.7278   -2296.6898   -533.35328   -2406.8176    -3473.959 
 8156000    251.58831   -4867.8427    -4364.635   -4867.8427            0    4771.6227    18.035895    23.133172    19.335395    8067.2575    4388.7512    5170.0331    4756.0837   -105.13029    -80.04828    194.29926   -3803.2409 
 8157000    251.37867   -4838.8115   -4336.0231   -4838.8115            0    5754.5425    18.044092    22.874629    19.367951     7994.159    4347.7228    6360.9235    6554.9812   -1302.5848    1561.1269   -1862.4751   -3665.1205 
 8158000     248.5477   -4854.6185   -4357.4924   -4854.6185            0    5651.3251    18.052319    22.946498     19.35779    8018.7225    4566.4938    6858.6655    5528.8161   -1564.3975    405.81882    1370.1155   -3696.5991 
 8159000    233.82746   -4819.9956   -4352.3118   -4819.9956            0    5689.8354    18.093377    22.964841    19.374646    8050.3889    5596.9093    4858.2613    6614.3355   -646.56443   -1248.0916   -1492.2532   -3684.2872 
 8160000    249.35928   -4824.5881   -4325.8387   -4824.5881            0    5553.5301     18.11946     23.04201    19.272156    8046.2945    4830.4878    5970.8148    5859.2878    -2563.409    821.10596   -1404.9662   -3674.1489 
 8161000    250.50819   -4855.0383    -4353.991   -4855.0383            0    5243.0751    17.955176    23.039087    19.444582    8043.6571    5177.7403    4985.8635    5565.6214    902.79111     -472.398   -166.98816   -3738.9338 
 8162000    251.13182    -4829.826   -4327.5314    -4829.826            0    5251.1413    18.189585     23.00335    19.257163     8057.609    5178.4807    5136.1197    5438.8233     1108.575   -254.59683    160.33291   -3710.4594 
 8163000    259.64069   -4845.1219   -4325.8084   -4845.1219            0    7516.9397    17.768292    22.921084    19.540438     7958.205    8034.2586    6723.0331    7793.5274   -820.12536   -1290.0903   -1661.7679   -3453.3754 
 8164000     252.8439   -4849.3205   -4343.6015   -4849.3205            0     6816.531    18.066634    22.940146    19.271562    7987.1222    7358.1709    7075.2629    6016.1592   -161.56485    1110.2545   -642.57062   -3549.5848 
 8165000    246.74937   -4828.7475   -4335.2182   -4828.7475            0    7908.1107    17.870992    22.905195    19.513657    7987.6921    8895.5286    8156.2327    6672.5709    879.82211    922.23384     495.5989   -3413.9843 
 8166000    264.32533    -4804.329   -4275.6457    -4804.329            0    6920.0616    18.301423     22.95656    19.037189     7998.241    5260.6982    7742.3678    7757.1186    1032.8314   -114.27439    1364.2546   -3468.4472 
 8167000    249.76691   -4843.0703   -4343.5056   -4843.0703            0    6047.1132    17.898414    22.777144    19.688398     8026.463    6910.2802    6116.5462    5114.5133    344.31965   -906.79391    646.92968   -3635.6443 
 8168000    261.15347   -4830.2307   -4307.8915   -4830.2307            0    6199.6655    18.215235    22.828817     19.28574     8019.633    4918.2391    6169.8299    7510.9276   -244.94276     531.3756    2007.0162   -3582.7903 
 8169000     257.1071   -4801.6025   -4287.3565   -4801.6025            0    5404.0801    18.075515    22.725311    19.620648    8059.6069    4089.4635    6270.4133    5852.3636   -1887.4211   -102.38296     266.6187    -3652.155 
 8170000    240.95657   -4800.7371   -4318.7942   -4800.7371            0    5908.4351    18.271281     22.72256    19.422766    8063.7551    5078.1846    6646.7177    6000.4032   -856.59776     480.7213   -507.23216   -3623.9528 
 8171000    257.18163   -4826.2067   -4311.8117   -4826.2067            0     6596.725    18.132014    22.760779    19.395475    8004.4883    6727.8589    6322.2629     6740.053    213.20502   -743.89628    209.07985   -3541.7282 
 8172000    250.92678    -4854.394   -4352.5095    -4854.394            0     4726.817    18.060523    22.893167    19.492128    8059.2652    3954.1555    5147.1945    5079.1011   -1100.3988    185.41407    446.31795   -3796.9378 
 8173000    256.75526   -4872.5075   -4358.9653   -4872.5075            0    5572.4598    18.186518    22.818007    19.323975    8019.0647    3926.7284    6310.3768    6480.2742   -492.20419    476.60041    1360.4178    -3707.267 
 8174000    253.91166    -4846.544   -4338.6893    -4846.544            0    5650.2168    17.994526    22.875256      19.5074    8029.8196    5455.9885    5898.1334    5596.5287   -119.49082    55.627023   -1368.3931   -3677.0112 
 8175000    248.68486    -4833.503   -4336.1025    -4833.503            0     5566.106    18.241925    22.944097    19.187447    8030.8001    4238.6949    4679.7465    7779.8766   -655.49225   -1252.8782    2141.2286   -3684.1947 
 8176000    250.35584   -4835.5847   -4334.8421   -4835.5847            0    5870.1389    18.135677    22.829846    19.444165    8050.5592    7118.0378    6063.4188    4428.9599   -355.23276    373.85397     509.4162   -3645.6341 
 8177000    264.67033   -4841.1291   -4311.7557   -4841.1291            0    5960.3614    18.098089    22.959413     19.37884    8052.3244     5556.501    6064.6937    6259.8894   -1082.6646    -201.7251   -72.859316   -3611.8014 
 8178000    256.02592   -4833.0212   -4320.9378   -4833.0212            0    5949.4179    17.968396    23.047141     19.35983    8017.2961    7601.0931    5278.2561    4968.9047   -861.85725   -1309.4989    -189.1086   -3625.3078 
 8179000      256.567   -4812.4148   -4299.2491   -4812.4148            0    5237.3027    18.059907    22.909412    19.515809     8074.507     5483.482    5652.4902    4575.9358   -2100.2535    728.39251    1644.6717   -3682.5127 
 8180000    256.49401    -4835.275   -4322.2553    -4835.275            0    7094.8959    18.089811    22.700244    19.445981     7985.358      8270.95    7248.7301    5765.0075   -1003.1027    551.28484    980.27062   -3495.9961 
 8181000    253.82174   -4852.8027   -4345.1279   -4852.8027            0    5432.1848    18.187099    22.723992    19.415529    8024.1175    5965.5166    5122.1704    5208.8674   -568.92084     291.3885    1417.1236   -3709.4345 
 8182000    258.02655   -4839.2613   -4323.1763   -4839.2613            0    5615.8805    18.197051    22.812514    19.387881    8048.3063    3575.4352    6751.1716    6521.0346   -957.42915   -276.82589    1007.8518   -3664.0051 
 8183000    263.02064   -4867.1886   -4341.1149   -4867.1886            0    7115.6354    18.147452    22.561984    19.457831    7966.8631    4877.1429    8627.8181    7841.9453   -1221.2055    781.68814    636.39368   -3514.3597 
 8184000    249.37741   -4859.3771   -4360.5915   -4859.3771            0    4527.0998    18.099072    22.973378    19.400717    8066.7564    5586.6131    3592.2933     4402.393   -611.02094   -236.63234   -1340.0247   -3827.9991 
 8185000    263.50428    -4832.228   -4305.1869    -4832.228            0    6666.6207    18.158449    22.904791    19.346472    8046.4973    5881.0186    6658.2761    7460.5673   -1016.8887    1488.8324    245.75036   -3522.8596 
 8186000     255.0942   -4814.4841   -4304.2642   -4814.4841            0    7786.0014     17.82686     23.02485    19.393714    7960.3589    8824.3668    7742.0266    6791.6108    343.36472    315.90164    1080.4618   -3400.3587 
 8187000    247.87078   -4829.6978   -4333.9257   -4829.6978            0    7375.2959    18.041564    23.121723    19.120174    7976.0199    6327.9072    7461.9622    8336.0184   -1367.7273   -454.80132    326.81164    -3476.016 
 8188000    249.16861    -4801.591    -4303.223    -4801.591            0    6564.6795    17.949152    22.959105    19.429413    8006.7923    7690.6364    5522.8015    6480.6005   -1391.7612    278.54017    332.20855   -3536.6598 
 8189000    240.75883   -4838.5427   -4356.9953   -4838.5427            0    6475.6839    17.956088    23.002634    19.362601    7997.4769    8382.1585    5998.1608    5046.7325    189.60902    -40.86975   -362.53292   -3601.7039 
 8190000    269.02768   -4821.8107   -4283.7221   -4821.8107            0    6343.2325    18.104362    23.004098    19.280705    8029.9225    4747.4211    6297.4956    7984.7808    239.70365    425.11596    -59.79453   -3540.8777 
 8191000    267.78273   -4850.7334   -4315.1349   -4850.7334            0     6830.104    18.028879    22.996608    19.392556    8040.2132    6995.4512     5989.304    7505.5569   -2539.7034    298.48325   -1501.3649   -3514.2488 
 8192000    248.76308   -4804.2761   -4306.7192   -4804.2761            0    6917.3997    17.970173    23.142304    19.195022    7982.6567    6695.8984    5871.6625    8184.6382    -847.4511    327.85285    446.64272   -3501.4034 
 8193000     238.3265   -4809.1208   -4332.4383   -4809.1208            0    6651.6518    17.967554    23.075256    19.333177    8015.6497    5917.1103    6063.7082    7974.1369   -777.35455   -577.61488     401.8063     -3554.86 
 8194000    250.62853   -4817.7186   -4316.4306   -4817.7186            0    7002.8486    18.021266    22.985591    19.280892     7986.713    4975.8977     7386.805     8645.843    1118.1841    1460.2761    863.16821   -3500.7527 
 8195000      245.119   -4811.7317   -4321.4635   -4811.7317            0    7752.2845    18.106919    23.093687    19.180757    8020.5395    8937.2419    6347.8462    7971.7653    658.52716    655.70671    1004.4548   -3414.6683 
 8196000    251.75625   -4852.7591   -4349.2155   -4852.7591            0    2953.7311    17.986125    22.993424    19.510615    8068.8607    3758.6654    3436.9059     1665.622   -895.02228    107.99023   -415.41981   -4001.6321 
 8197000    251.39566   -4830.5753   -4327.7529   -4830.5753            0    5544.4819    18.093434     22.83881     19.35922    7999.8586    4268.1354    6220.9782    6144.3321   -450.44882   -1146.9156   -1376.3788   -3680.8797 
 8198000    263.46462   -4850.9564   -4323.9947   -4850.9564            0    4258.6476    18.253116    22.928107    19.316088     8083.964     2059.338    4915.9109    5800.6939    505.27605    393.34415     923.7099   -3821.9158 
 8199000    251.05074   -4813.4896   -4311.3571   -4813.4896            0    5131.7115    18.121738    22.856241    19.470615    8064.6277    4727.0473      5608.36    5059.7272    442.75993   -250.96726    542.76135   -3707.7943 
 8200000    248.61539   -4828.8877   -4331.6262   -4828.8877            0    5730.2563    18.177412    22.970521    19.233328    8030.7724    5410.1387     5852.153    5928.4774   -1659.6917   -747.50707    -1809.229   -3660.4953 
 8201000    249.01307   -4826.6911   -4328.6342   -4826.6911            0    5566.8381    17.857864    22.977432    19.612061    8047.3746    7983.9798    3779.1475    4937.3869    1508.4751   -528.34819    1041.2549    -3675.295 
 8202000    250.71266   -4836.9119   -4335.4556   -4836.9119            0    5035.7336    18.126319    22.862396    19.407217     8042.566    3891.4913    6043.2688    5172.4406   -1711.7914    965.87125    922.09843   -3744.8015 
 8203000    243.67648   -4852.5237   -4365.1407   -4852.5237            0    6515.6631    18.077116     22.68892    19.563637    8024.0305    8738.2945    6034.5463    4774.1485   -348.25259    313.03181   -848.99585   -3602.6631 
 8204000     250.3902   -4857.8851   -4357.0738   -4857.8851            0    7146.9321    18.067138    22.794507    19.326186     7959.132    6313.7441     7156.891    7970.1614    227.32399   -527.75674   -981.69384   -3527.4881 
 8205000    255.30811   -4868.1788   -4357.5311   -4868.1788            0    6699.5469    18.042485    22.877997    19.368743    7994.9506    7109.0082    6670.2508    6319.3817    635.96631   -228.02117    2435.8157   -3576.3763 
 8206000    255.91238   -4863.0154    -4351.159   -4863.0154            0     6994.298    18.059144     22.80963      19.4163    7998.0085     9494.755    6707.1848    4780.9541   -823.33051    562.24868   -1457.0729   -3535.3248 
 8207000    253.21455   -4842.2314   -4335.7711   -4842.2314            0    6019.6682    18.186816    22.996836    19.236517     8045.466    6101.7984    6143.5269    5813.6795    509.75714    211.99755    922.06989   -3629.4541 
 8208000    264.10636   -4828.1098   -4299.8644   -4828.1098            0    6577.4948      17.8927    23.014504    19.483858    8023.2896    7373.9382     6116.446    6242.1001   -24.597716    215.43429   -3023.2403   -3530.2222 
 8209000    256.79969   -4837.3768   -4323.7457   -4837.3768            0    7346.5995    17.965088    23.009187    19.281661     7970.307    6846.6536    7300.7723    7892.3724   -763.66919    66.327866   -1447.5712   -3469.7861 
 8210000    258.74313   -4831.9303    -4314.412   -4831.9303            0    5889.7333    18.060146    23.139865     19.26849    8052.4821     6294.351    3446.4656    7928.3832      1071.79   -1025.6758   -306.31441   -3622.7383 
 8211000    271.99752   -4860.9736   -4316.9449   -4860.9736            0    8359.3493    17.860241    22.912249    19.424104    7948.6989    10664.761    7417.9555    6995.3311    1769.6154    141.66928     1206.361   -3347.8989 
 8212000    252.64818   -4822.5278   -4317.2002   -4822.5278            0    7300.7853    18.086458    22.902028    19.259505    7977.6063     6963.402    7507.7368     7431.217    1102.1268    687.01413    763.65293   -3467.7888 
 8213000    252.16236   -4831.2346   -4326.8787   -4831.2346            0    5853.9956    18.031317    22.790825    19.511539    8018.2395    6609.9347    6048.8739    4903.1781   -907.12003   -675.86053   -1579.4826   -3642.3254 
 8214000    251.52123   -4835.8562   -4332.7826   -4835.8562            0     3831.757    18.045849    22.918089    19.489221    8060.2817    3345.6137    5266.2172    2883.4401   -342.12084    -424.7451    -2324.402    -3882.356 
 8215000    239.51404   -4851.5453   -4372.4877   -4851.5453            0    5521.4828    17.949178    23.161216    19.308988    8027.2247    6845.3937    3338.9463    6380.1083    216.65456   -1542.8953     -236.518   -3726.0941 
 8216000    255.47218   -4842.1231   -4331.1472   -4842.1231            0    5625.4928    18.042587    23.016047    19.350707    8035.7492    4307.8698    6439.6703    6128.9383    577.87343    525.85448    -310.5998   -3671.8779 
 8217000    245.68976   -4855.4284   -4364.0185   -4855.4284            0    6001.1621    18.023963     22.97008    19.354257     8012.892    4570.7451    5506.5098    7926.2314    1525.4193    927.93924    1126.6851   -3662.7239 
 8218000     260.1416   -4827.1229   -4306.8076   -4827.1229            0    5134.3606    18.330776    22.850042    19.290191    8079.8702    4475.6039    5207.1542    5720.3237    260.07028   -916.58252   -758.91001   -3701.7919 
 8219000    252.92396   -4838.5829   -4332.7037   -4838.5829            0    5345.7469    18.101132    22.802864    19.473977    8038.0329    5063.9052    6234.2891    4739.0464    378.33209    323.91814    570.39518   -3706.0407 
 8220000    239.47193   -4847.4134     -4368.44   -4847.4134            0    5762.9659    17.974813    22.844062    19.472371    7995.7005    4393.0225    6450.5923    6445.2829    378.97675    555.03755   -765.23161   -3696.4257 
 8221000     250.1844   -4848.4709   -4348.0712   -4848.4709            0     5755.062    18.133364    22.948933    19.359125    8056.1322    4412.7834    5401.5681    7450.8345    1804.4752    1152.8832   -217.63748   -3671.9066 
 8222000    241.66183   -4855.7074   -4372.3539   -4855.7074            0    6282.7131    18.093702    22.789587    19.418563    8007.2053    7455.3213    5906.3896    5486.4285   -728.13344   -784.15163   -900.38919   -3638.6783 
 8223000    247.34415   -4852.3562   -4357.6373   -4852.3562            0    4865.0731    18.118989    22.932702    19.375475    8050.8467    4424.0391    4819.2177    5351.9624    1026.7557   -218.81694    325.53314   -3786.4128 
 8224000    257.85062   -4838.4863   -4322.7532   -4838.4863            0    8443.4531    17.987041    22.859327    19.351884    7956.9461    8300.5758    8621.5733    8408.2102    456.45116   -1121.7505   -1962.5765    -3342.942 
 8225000    255.79487   -4854.2406   -4342.6193   -4854.2406            0     5424.862    17.897348      22.9922    19.540128     8040.751    5727.6579    5411.3017    5135.6264    333.27348   -268.31174    819.32787   -3706.4668 
 8226000    243.94594   -4822.3766   -4334.4546   -4822.3766            0    5952.4129    18.068181    23.039774    19.355825    8057.5747    5879.1914    5844.4969    6133.5503    1171.4779    -92.22439   -2837.4293   -3634.9779 
 8227000    275.24717   -4820.3972   -4269.8688   -4820.3972            0    5578.8385    18.051984    23.007082    19.373499    8046.2692    5101.3981    6014.9882    5620.1291    1368.6192   -156.00059    3710.1567   -3615.2112 
 8228000    259.40219   -4823.8442   -4305.0078   -4823.8442            0     5628.734     18.13002     22.81703    19.461017    8050.5014    5154.3218    5808.2349    5923.6454   -44.863886   -854.81976   -658.14003   -3644.1476 
 8229000    261.09058   -4834.5262   -4312.3128   -4834.5262            0     5319.066    18.174635    22.754689    19.486242    8058.6947    3502.3321    6785.3711    5669.4948   -171.02372    317.57499    966.26984   -3687.1747 
 8230000    273.15267   -4834.6817   -4288.3427   -4834.6817            0    5027.5182    18.226751     22.64036    19.634966     8102.569    4795.4203    5746.6154    4540.5188   -449.01074   -1644.4133   -2188.4665   -3694.2526 
 8231000    267.91102   -4840.3526   -4304.4974   -4840.3526            0    5567.7032    18.168061    22.631656     19.50504     8019.952    6854.4799    4564.3916     5284.238    3498.1115   -579.32339    2881.0439   -3653.2834 
 8232000    251.44306   -4828.1255   -4325.2083   -4828.1255            0    6261.1767    18.305399    22.583718    19.463215    8046.1704    6889.2662    6176.9989    5717.2651    341.50003   -951.45813    -1523.889   -3590.4896 
 8233000     257.9464   -4851.9391   -4336.0144   -4851.9391            0    6449.6026    18.049731    22.626963    19.604703    8006.7688    5762.1373    7621.9253    5964.7452    699.23842   -99.979504   -958.75535    -3582.891 
 8234000    269.02613   -4840.3234   -4302.2379   -4840.3234            0    5039.8414    18.172378    22.760903    19.466517    8051.7355     6657.789    5694.0149    2767.7203    1033.8519    595.89165    501.35701    -3710.428 
 8235000    249.34163   -4854.8469   -4356.1328   -4854.8469            0    6109.4709    18.203274    22.773469    19.351597    8022.2372    5820.3317    6200.7895    6307.2914    1965.1867    915.42086    443.38493   -3641.3485 
 8236000    248.39909   -4838.8802   -4342.0514   -4838.8802            0    5443.3275    18.186995    22.908956    19.346363    8060.5666     6690.264    4996.6086      4643.11   -413.47605    1571.0765   -851.98425   -3702.1605 
 8237000    245.10931   -4830.6497   -4340.4008   -4830.6497            0    6392.6736    17.915128    23.086754    19.352229    8004.1231    8274.9802    5654.7522    5248.2885   -731.90687   -720.77678    435.03893   -3594.1717 
 8238000    260.53273   -4830.2402   -4309.1426   -4830.2402            0    5126.4261    17.961979    23.270246    19.274761    8056.4579     4744.963     3941.674    6692.6415    34.935997   -205.67683   -14.973147   -3706.8122 
 8239000      241.692   -4810.6856   -4327.2718   -4810.6856            0    5873.7455    17.914004    23.267846    19.233926    8017.0908    6951.3047    5142.2103    5527.7215   -877.15873   -795.65743    1525.0119   -3640.5073 
 8240000    256.75143   -4819.9376   -4306.4031   -4819.9376            0    7585.5458    17.940307    23.255062    19.077422    7959.1568     6466.982    7592.9736    8696.6818   -886.15716    662.09495    716.44593   -3425.9022 
 8241000    235.62128   -4822.3286    -4351.057   -4822.3286            0    5389.3096    17.922213    23.193163     19.40781    8067.2987    4317.7899    4838.7294    7011.4096    526.25719    331.69627   -1486.0705    -3716.987 
 8242000    248.21966   -4832.1788   -4335.7088   -4832.1788            0    5634.4776    18.034465    23.295681    19.176601    8056.5722    5197.7472    5218.8655    6486.8202    224.88215   -131.24565    172.52385   -3673.6754 
 8243000    255.40751   -4808.5997   -4297.7531   -4808.5997            0    6020.6916    17.891585    23.179957    19.397033    8044.4571    7297.6129    5261.3958    5503.0662    397.89508   -1377.7047   -2276.5158   -3591.4046 
 8244000    276.77885   -4860.8236   -4307.2318   -4860.8236            0    5800.5583    18.047012    23.033921    19.277811    8013.6595    6132.4891    5676.4203    5592.7656       636.04   -415.35301     496.7877   -3629.3147 
 8245000    259.20429   -4812.5317   -4294.0911   -4812.5317            0    6756.4012    17.979107     23.11092    19.356058    8042.7074     7500.315     6480.376    6288.5126   -335.16876    285.18318    -278.2928   -3501.6014 
 8246000    254.32722   -4839.1818   -4330.4959   -4839.1818            0     5845.561    18.009116    23.212486    19.258316    8050.6764    7830.8127    4789.4976    4916.3728    786.12536    551.70915   -644.34089   -3644.1636 
 8247000    247.63879   -4829.0451   -4333.7369   -4829.0451            0    5129.4502    17.973633    23.052036    19.488608    8074.6917    5693.8598    5260.1927    4434.2982    564.20648    20.611214    302.71951   -3729.6872 
 8248000     260.5717   -4823.2499   -4302.0743   -4823.2499            0    6764.3661    18.164554    22.916663     19.18429    7985.8625    6670.2556    6054.9358    7567.9068   -1563.0594   -1064.6718    120.78267   -3514.2582 
 8249000    243.25538   -4823.3336   -4336.7928   -4823.3336            0    6302.8581    17.857777    22.990813    19.561947    8031.4467      6051.87    7035.0611    5821.6431   -1448.2866     520.1113   -2214.4889   -3598.5364 
 8250000     256.8474   -4805.7793   -4292.0528   -4805.7793            0    6483.7364    18.150736     22.86433     19.38751    8045.9026    5802.8596    7281.5926    6366.7571    351.21339   -99.974856   -299.47413   -3531.2431 
Loop time of 491.078 on 64 procs for 250000 steps with 1008 atoms

Performance: 87.970 ns/day, 0.273 hours/ns, 509.084 timesteps/s
99.2% CPU use with 64 MPI tasks x 1 OpenMP threads

MPI task timing breakdown:
Section |  min time  |  avg time  |  max time  |%varavg| %total
---------------------------------------------------------------
Pair    | 28.227     | 32.109     | 35.584     |  32.4 |  6.54
Bond    | 0.27336    | 0.2827     | 0.29897    |   0.9 |  0.06
Kspace  | 226.92     | 235.5      | 243.02     |  26.5 | 47.96
Neigh   | 4.0946     | 4.7246     | 5.2102     |  14.2 |  0.96
Comm    | 90.866     | 99.843     | 108.06     |  41.8 | 20.33
Output  | 1.0278     | 1.0286     | 1.0331     |   0.1 |  0.21
Modify  | 104.5      | 108.63     | 114.38     |  25.6 | 22.12
Other   |            | 8.96       |            |       |  1.82

Nlocal:        15.7500 ave          20 max          12 min
Histogram: 3 5 6 11 0 20 9 7 1 2
Nghost:        2482.72 ave        2514 max        2445 min
Histogram: 1 2 3 8 11 13 13 7 4 2
Neighs:        5203.38 ave        6620 max        3926 min
Histogram: 3 5 6 10 10 12 8 7 1 2

Total # of neighbors = 333016
Ave neighs/atom = 330.37302
Ave special neighs/atom = 2.0000000
Neighbor list builds = 9156
Dangerous builds = 0

unfix		3
unfix		2
unfix		1

write_data	data.final.${pid}
write_data	data.final.0
System init for write_data ...
PPPM initialization ...
  extracting TIP4P info from pair style
  using 12-bit tables for long-range coulomb (../kspace.cpp:340)
  G vector (1/distance) = 0.37942151
  grid = 24 27 36
  stencil order = 5
  estimated absolute RMS force accuracy = 0.0024110836
  estimated relative force accuracy = 7.2609066e-06
  using double precision FFTW3
  3d grid and FFT values/proc = 4050 480
Last active /omp style is kspace_style pppm/tip4p/omp
WARNING: Not all mixed pair coeffs generated from mixing. Use write_data with 'pair ij' option to store all pair coeffs. (../write_data.cpp:312)

write_restart   restart.lmp.${pid}
write_restart   restart.lmp.0
System init for write_restart ...
PPPM initialization ...
  extracting TIP4P info from pair style
  using 12-bit tables for long-range coulomb (../kspace.cpp:340)
  G vector (1/distance) = 0.37942151
  grid = 24 27 36
  stencil order = 5
  estimated absolute RMS force accuracy = 0.0024110836
  estimated relative force accuracy = 7.2609066e-06
  using double precision FFTW3
  3d grid and FFT values/proc = 4050 480
Last active /omp style is kspace_style pppm/tip4p/omp
Total wall time: 0:08:12
