#include		in.partitions
include		in.temp
variable        temperature equal 136.88
variable	tempDamp equal 100.0
include		in.pressure
variable        pressure equal 11168.8
variable        pressureDamp equal 1000.0 # This is 1 ps
include		in.seed
variable        seed equal 745823

units		real
atom_style	full
box tilt large
read_restart	restart.lmp.${pid}
read_restart	restart.lmp.0
Reading restart file ...
  restart file = 30 Jul 2021, LAMMPS = 30 Jul 2021
  restoring atom style full from restart
  triclinic box = (-10.476583 -9.2030835 0.32344658) to (12.456583 12.193082 21.536552) with tilt (-8.9567045 1.8554019 2.6668465)
  4 by 4 by 4 MPI processor grid
  restoring pair style lj/cut/tip4p/long/omp from restart
  restoring bond style harmonic/omp from restart
  restoring angle style harmonic/omp from restart
  1296 atoms
  864 bonds
  432 angles
Finding 1-2 1-3 1-4 neighbors ...
  special bond factors lj:    0        0        0       
  special bond factors coul:  0        0        0       
     2 = max # of 1-2 neighbors
     1 = max # of 1-3 neighbors
     1 = max # of 1-4 neighbors
     2 = max # of special neighbors
  special bonds CPU = 0.005 seconds
  read_restart CPU = 0.011 seconds
include 	in.setup
variable	out_freq equal 1000
variable	out_freq2 equal 10000
variable	out_freq3 equal 1000

timestep	2.0

neigh_modify    delay 7 every 1

include		in.tip4p
# This is TIP4P/Ice

# create groups ###
group ox type 2
432 atoms in group ox
group hy type 1
864 atoms in group hy

# set charges - beside manually ###
set group ox charge -1.1794
Setting atom values ...
  432 settings made for charge
set group hy charge 0.5897
Setting atom values ...
  864 settings made for charge

# ### TIP3P Potential Parameters ###
pair_style lj/cut/tip4p/long/omp 2 1 1 1 0.1577 8.5
pair_coeff 1 1*2 0.000 0.000
pair_coeff 2 2 0.21084 3.1668
bond_style  harmonic
bond_coeff  1 450 0.9572
angle_style harmonic
angle_coeff 1 55 104.52
kspace_style pppm/tip4p/omp 1.0e-5
pair_modify tail yes

thermo          ${out_freq}
thermo          1000
thermo_style    custom step temp pe etotal epair emol press lx ly lz vol pxx pyy pzz pxy pxz pyz enthalpy

restart 	${out_freq3} restart.lmp.${pid} restart2.lmp.${pid}
restart 	1000 restart.lmp.${pid} restart2.lmp.${pid}
restart 	1000 restart.lmp.0 restart2.lmp.${pid}
restart 	1000 restart.lmp.0 restart2.lmp.0


include         in.dump
dump            myDump all atom ${out_freq2} dump.water.${pid}
dump            myDump all atom 10000 dump.water.${pid}
dump            myDump all atom 10000 dump.water.0
dump            myDump2 all dcd ${out_freq2} dump.dcd
dump            myDump2 all dcd 10000 dump.dcd
dump_modify     myDump append yes
dump_modify     myDump2 append yes


variable natoms 	equal  "count(all)"                        # NUMBER ATOMS
variable H      	equal  "enthalpy/v_natoms"                 # ENTHALPY-per-atom
variable Vol      	equal  "vol/v_natoms"                 # volume-per-atom
fix AVG all 		ave/time ${out_freq} 1 ${out_freq} v_Vol v_H file vol_enthalpy.dat
fix AVG all 		ave/time 1000 1 ${out_freq} v_Vol v_H file vol_enthalpy.dat
fix AVG all 		ave/time 1000 1 1000 v_Vol v_H file vol_enthalpy.dat


timer           timeout 10:00:00 every 1000
New timer settings: style=normal  mode=nosync  timeout=10:00:00

fix 		1 all shake 1e-6 200 0 b 1 a 1
       0 = # of size 2 clusters
       0 = # of size 3 clusters
       0 = # of size 4 clusters
     432 = # of frozen angles
  find clusters CPU = 0.001 seconds
fix             2 all nph tri ${pressure} ${pressure} ${pressureDamp}
fix             2 all nph tri 11168.8 ${pressure} ${pressureDamp}
fix             2 all nph tri 11168.8 11168.8 ${pressureDamp}
fix             2 all nph tri 11168.8 11168.8 1000
fix             3 all temp/csvr ${temperature} ${temperature} ${tempDamp} ${seed}
fix             3 all temp/csvr 136.88 ${temperature} ${tempDamp} ${seed}
fix             3 all temp/csvr 136.88 136.88 ${tempDamp} ${seed}
fix             3 all temp/csvr 136.88 136.88 100 ${seed}
fix             3 all temp/csvr 136.88 136.88 100 745823


run             250000
PPPM initialization ...
  extracting TIP4P info from pair style
  using 12-bit tables for long-range coulomb (../kspace.cpp:340)
  G vector (1/distance) = 0.37082032
  grid = 30 40 32
  stencil order = 5
  estimated absolute RMS force accuracy = 0.003830737
  estimated relative force accuracy = 1.1536151e-05
  using double precision FFTW3
  3d grid and FFT values/proc = 5168 640
Last active /omp style is kspace_style pppm/tip4p/omp
Neighbor list info ...
  update every 1 steps, delay 7 steps, check yes
  max neighbors/atom: 2000, page size: 100000
  master list distance cutoff = 10.8154
  ghost atom cutoff = 10.8154
  binsize = 5.4077, bins = 7 5 4
  1 neighbor lists, perpetual/occasional/extra = 1 0 0
  (1) pair lj/cut/tip4p/long/omp, perpetual
      attributes: half, newton on, omp
      pair build: half/bin/newton/tri/omp
      stencil: half/bin/3d/tri
      bin: standard
Per MPI rank memory allocation (min/avg/max) = 9.447 | 9.451 | 9.455 Mbytes
Step Temp PotEng TotEng E_pair E_mol Press Lx Ly Lz Volume Pxx Pyy Pzz Pxy Pxz Pyz Enthalpy 
36750000    139.14507   -6625.5676   -6267.6253   -6625.5676            0    11124.151    22.933166    21.396165    21.213106    10408.885    11107.093    11576.297    10689.063   -114.57778   -583.81815   -287.01128   -4578.9468 
36751000    139.06199   -6655.9233   -6298.1948   -6655.9233            0    11021.508     23.00682    21.171724    21.401575     10424.58    10741.266    11273.242    11050.017    556.42772   -557.32523      379.144    -4622.575 
36752000    134.50947   -6634.8069   -6288.7895   -6634.8069            0    10950.735    23.067347    21.208757    21.267951    10404.915    11239.424     11069.67    10543.112   -989.96131   -73.225314   -397.99371     -4627.07 
36753000    135.75761   -6641.8442    -6292.616   -6641.8442            0    11620.427    23.151819     21.02274     21.34422    10388.545     9970.118    13237.917    11653.247   -184.59077    401.30331   -4.1331484   -4532.0484 
36754000    131.79888   -6652.4348   -6313.3902   -6652.4348            0    11065.268    23.112167    21.077392    21.368229    10409.409     9786.046    11771.179     11638.58    960.68602    641.85525    428.25742   -4633.5656 
36755000    134.01031   -6639.7299   -6294.9966   -6639.7299            0     11672.68    22.881195     21.34589     21.31246    10409.421     11833.47    11191.252    11993.319    57.331976    584.03505    1342.7693   -4522.9585 
36756000    138.74597   -6637.5184   -6280.6028   -6637.5184            0    11640.221     23.09539    21.147317    21.311542    10408.675    11973.031    11168.905    11778.728    433.81452   -236.78673   -1461.7733   -4513.6189 
36757000    135.72248   -6653.2047   -6304.0669   -6653.2047            0    11436.653    23.018152    21.190571    21.335475    10406.757    11747.029    11227.388    11335.542    397.07762   -719.37559    827.58447   -4568.3046 
36758000    136.41414   -6643.2761   -6292.3591   -6643.2761            0    10240.561    23.135371    21.125156    21.376343    10447.438    9717.0173    11169.845    9834.8222  -0.85670251   -169.54883    88.605667   -4732.0542 
36759000    142.66319   -6642.4012   -6275.4088   -6642.4012            0    10251.329    23.149135    21.099899    21.366932    10436.559    9224.6664    10829.393    10699.928    186.00248   -105.70482    349.25786   -4715.0899 
36760000    141.94417    -6644.467   -6279.3243    -6644.467            0    12727.078    22.945909    21.188054    21.304909    10358.003    13055.942    12239.961    12885.331   -745.35758    822.16108    1524.7213   -4356.7612 
36761000    131.97206    -6636.457   -6296.9669    -6636.457            0    11661.706    23.031544    21.125559    21.409711    10416.986    12460.944    11685.645    10838.529    1313.8063    -1325.492    -1430.486   -4525.3083 
36762000    135.50493   -6622.8423   -6274.2641   -6622.8423            0    10786.174    22.963731    21.394547     21.22187    10426.275    11343.967    9713.2536    11301.302   -43.956765   -338.09123   -743.41289   -4634.1559 
36763000    139.44907    -6640.848   -6282.1237    -6640.848            0    10978.151    22.974752     21.21802    21.345277    10405.369    12324.072    10270.864    10339.518    127.48272    416.35802    83.612884   -4616.1713 
36764000    133.39084   -6662.6352   -6319.4954   -6662.6352            0    10324.583    23.077174    21.195472     21.33448    10435.368    10693.149    9554.8179    10725.782   -718.62499    -53.88223    65.058708   -4748.2059 
36765000    137.84027   -6646.1402   -6291.5544   -6646.1402            0    10951.291    23.138916    21.131632    21.320188    10424.784    10235.008    10065.862    12553.003     529.8545    951.05159    1203.7739   -4626.5772 
36766000    137.28658   -6641.0982   -6287.9368   -6641.0982            0     12063.94    23.095434    21.063675    21.311914    10367.707    12171.207    12329.575     11691.04    355.64177   -28.289797   -267.97512   -4463.8404 
36767000    140.74463    -6659.661    -6297.604    -6659.661            0    11145.484    22.970478    21.320656    21.293677    10428.486    10796.936    11508.351    11131.165    156.93573    402.81508   -147.80639    -4602.501 
36768000    134.54777    -6660.634    -6314.518    -6660.634            0    10788.587    23.083696    21.157559    21.344461    10424.521    10603.844    10812.008    10949.909   -300.04161    1767.6223   -485.18111    -4674.319 
36769000    139.22166   -6661.6698   -6303.5305   -6661.6698            0    10699.606    22.962776    21.225133    21.404242     10432.17    9712.2311    11783.816     10602.77     62.61572   -116.89437   -931.56185   -4675.6658 
36770000    135.82129   -6652.2195   -6302.8275   -6652.2195            0    11448.769    23.076083    21.299111     21.16993    10405.022    10392.013    10881.012    13073.282    1375.9572    871.74398    530.83826   -4565.5161 
36771000    134.32494   -6661.8383   -6316.2956   -6661.8383            0    11194.052     23.06547    21.154207    21.351697     10418.17     10523.82    10920.883    12137.453   -596.94397    1188.7027   -660.04827     -4615.49 
36772000    137.82193   -6643.5397   -6289.0012   -6643.5397            0    11651.831    23.146908    21.086993    21.318317    10405.443    11890.931    11851.199    11213.362   -1082.5123   -985.78991   -209.51299   -4520.8043 
36773000    133.37934   -6642.3106   -6299.2004   -6642.3106            0    11793.979    23.228137    20.951126     21.36548    10397.631    11284.982    11572.854    12524.101   -859.19138   -469.87862    712.48922   -4510.7759 
36774000    148.77707   -6641.7659   -6259.0459   -6641.7659            0    11820.239    23.079586    21.149179    21.335104    10413.969    12111.829    12209.358    11139.531   -522.70646    16.968151   -225.60192   -4463.8227 
36775000    142.09434   -6631.6982   -6266.1691   -6631.6982            0    12774.162    23.018337    21.234172    21.201837    10362.935    12039.671     12171.86    14110.954    781.09983    379.17065   -469.55556   -4335.5746 
36776000    140.05875    -6629.844   -6269.5514    -6629.844            0    12493.251    22.832419     21.22802    21.395089    10369.922    12607.053    12769.597    12103.103    331.51116    1266.6091   -289.35479   -4380.1385 
36777000    145.84201    -6661.374   -6286.2043    -6661.374            0    11047.855    22.947031    21.341484    21.291047     10426.73    11545.815    10465.085    11132.663    62.679983    250.69736    206.69093   -4606.2327 
36778000    130.88426   -6644.3736   -6307.6818   -6644.3736            0    12220.464    23.069145    21.078072    21.352586    10382.761    11720.319    12207.629    12733.444    236.58688    696.08989   -116.36342   -4457.2357 
36779000    141.18849   -6672.4379   -6309.2391   -6672.4379            0    10008.362    23.233777     20.99544    21.381377    10429.908    8419.0134    12176.063    9430.0104    -317.3598   -822.62515   -191.15863    -4786.872 
36780000     140.9444   -6637.1557   -6274.5848   -6637.1557            0    12152.001    23.202073    21.075967    21.327773    10429.411    11416.691    12640.444    12398.868     423.6257   -498.53203    210.50726    -4426.238 
36781000    136.43976   -6626.8322   -6275.8493   -6626.8322            0    12453.145    23.034503    21.108472    21.366056    10388.671    12563.461    12484.752     12311.22    629.58068   -73.464042   -37.412225   -4389.0968 
36782000    136.52538   -6633.9384   -6282.7352   -6633.9384            0    11682.238    22.934135    21.260255    21.326343    10398.417    11091.175    11239.917    12715.623   -87.164585    992.09241    1104.1531   -4511.1209 
36783000    137.11095   -6649.3684   -6296.6588   -6649.3684            0     11484.52    22.937336    21.294815    21.325393     10416.31    11736.648    10871.683     11845.23    725.49214    320.67625   -518.20274   -4552.0316 
36784000    132.24784   -6646.8399   -6306.6403   -6646.8399            0    10978.735    22.940274    21.273633    21.383643    10435.709    12387.959    10264.278     10283.97   -224.11783   -908.65927   -525.01953   -4635.7415 
36785000    136.98358   -6658.3391   -6305.9572   -6658.3391            0    11862.787    23.110163    21.089406    21.319786    10390.829     11418.84    12555.883    11613.639   -382.75687    118.92517   -202.23721   -4508.2754 
36786000    133.79475   -6649.5677   -6305.3888   -6649.5677            0    11048.179    23.308068    20.940622    21.345519    10418.437    9967.7617    12471.581    10705.195   -119.60227   -152.32209    12.251758   -4626.7039 
36787000    140.64788   -6647.8597   -6286.0516   -6647.8597            0    11823.271    23.093686    21.098681     21.31771    10386.976    11864.909    11488.283    12116.621   -880.80785   -226.98989    300.91113   -4495.0225 
36788000    139.03366   -6658.0878   -6300.4322   -6658.0878            0    10584.007    23.100111    21.143681    21.364173    10434.719    10601.515    10394.024    10756.482   -269.77249    93.932079   -403.47469   -4689.7615 
36789000    136.59182    -6647.869   -6296.4949    -6647.869            0    10492.911    22.995349    21.273995    21.319831    10429.724    10601.592    10205.337    10671.805   -796.21253    971.28595     365.0991   -4700.4515 
36790000    134.89407   -6655.9599   -6308.9532   -6655.9599            0    10178.534     22.93956    21.395822    21.254471    10431.923    10408.237     8752.334     11375.03    556.82214   -337.33521    353.19949   -4760.4024 
36791000    129.63996   -6647.3693   -6313.8784   -6647.3693            0    9539.1664    23.117736    21.216678    21.341085    10467.409    8889.2219    10151.461    9576.8166   -75.871172     417.1316   -379.34697   -4857.6634 
36792000    136.19263   -6647.4098   -6297.0625   -6647.4098            0    11608.128    23.079075    21.044067     21.39806    10392.558    11223.875    12560.004    11040.507   -400.75285   -7.7492212    278.03276   -4537.6788 
36793000    140.69103   -6650.9717   -6289.0526   -6650.9717            0     11556.98    23.136284    21.086925    21.332765    10407.682    10917.121    11453.777    12300.043    -362.1618     197.2444    94.704631   -4534.8721 
36794000    138.25717   -6647.5739   -6291.9158   -6647.5739            0    11014.477    23.122524    21.169041    21.267673    10410.136     10582.42    10804.792    11656.219    110.57265    466.71735    860.49283   -4619.6852 
36795000     129.7064   -6673.2177   -6339.5559   -6673.2177            0     9923.857    23.053137    21.186064     21.37878    10441.508    10009.203    10055.523    9706.8457   -968.27171    146.30455    383.48642    -4828.364 
36796000    133.45301   -6631.1233   -6287.8235   -6631.1233            0    11711.085    22.977514    21.304452    21.252484    10403.587    10934.307    11845.085    12353.864    9.6421026   -455.81934   -828.58215   -4510.9516 
36797000    138.45325   -6663.4898   -6307.3272   -6663.4898            0     11259.18     22.96682    21.257817    21.300125    10399.242    11837.087    10720.753      11219.7    383.71725    754.43299    847.18448   -4599.7344 
36798000    138.58393   -6646.9915   -6290.4928   -6646.9915            0    10673.315    23.065119    21.189084    21.359926     10439.21    10148.074    10919.777    10952.094    70.374573    119.09181   -106.17107   -4665.5321 
36799000    143.17877   -6657.5653   -6289.2467   -6657.5653            0    10330.324    23.122355    21.214383    21.291587    10444.088    9481.6178    10985.867    10523.488     614.0781   -373.72373   -471.31228   -4715.7699 
36800000    134.99396    -6632.888   -6285.6242    -6632.888            0    11813.641    23.153675    20.919849    21.416394    10373.488     11375.74    13589.047    10476.137   -553.97133    1434.0033    237.36655   -4498.3776 
36801000    140.79807    -6647.231   -6285.0365    -6647.231            0    10801.603    23.094961    21.117228    21.373766    10424.019    10146.905    11997.152    10260.752    345.44148   -578.56769    419.05869   -4642.9378 
36802000    136.72498   -6663.8807    -6312.164   -6663.8807            0    10744.849     23.08056    21.228517    21.276566    10424.795     10569.65    10505.769    11159.127    35.452383   -263.34007   -454.06415   -4678.5715 
36803000    135.40288   -6650.2534   -6301.9377   -6650.2534            0    12139.634    22.869402    21.248669    21.367601    10383.465    12421.321     11943.16    12054.421    464.00535    -633.3911   -280.54564   -4463.6064 
36804000    137.73517    -6636.124   -6281.8086    -6636.124            0    12041.424    23.089102    21.164406    21.243275     10380.89    11900.758    11912.341    12311.172    387.53467    732.79774    500.44968   -4458.8017 
36805000    142.02335   -6657.4257   -6292.0793   -6657.4257            0    10432.479    23.191574    21.010413    21.425895    10440.079    10859.618    10600.563    9837.2559    29.300006   -397.01442   -1485.1807   -4703.6525 
36806000    141.73246   -6640.0558   -6275.4577   -6640.0558            0    10692.273    23.161181    21.148151    21.266896    10416.869     10676.04    9864.3493    11536.431     219.6246    775.33553    116.06161   -4651.0944 
36807000    140.32734    -6653.152   -6292.1685    -6653.152            0    11671.058    22.949537    21.076648    21.477308    10388.559     11242.85    12649.943    11120.381   -517.37592    1129.1847    244.07607   -4523.9276 
36808000    136.22681   -6647.0163   -6296.5812   -6647.0163            0    11870.461    23.077114    21.190125    21.263476    10397.987     11913.34    10804.505    12893.536    190.08788   -366.92849   -135.08751   -4496.4974 
36809000    138.68634   -6654.2309   -6297.4687   -6654.2309            0    10390.534    23.059847    21.274687     21.30539    10452.233    10931.156    9352.9737    10887.472   -215.76167   -400.38531    377.76157   -4713.5866 
36810000    133.90872   -6666.6066   -6322.1346   -6666.6066            0    10651.275    22.957422     21.14847    21.489286    10433.357    10723.161     11123.22    10107.445   -816.61906    1111.3968    534.31583   -4701.4386 
36811000    135.60066   -6643.0789   -6294.2544   -6643.0789            0    11491.707    23.111163    21.257641     21.16867     10399.93    11832.747    10149.785    12492.589   -874.19628   -18.485659    160.53681   -4551.2806 
36812000    138.90892   -6643.7053   -6286.3706   -6643.7053            0      11755.4    23.050159    21.136554    21.345869    10399.727    11279.845    12213.262    11773.092   -75.958028   -457.38203   -703.44248   -4503.4367 
36813000    143.58145    -6629.329   -6259.9744    -6629.329            0    13055.387    23.195718    21.023011     21.21885    10347.241    12044.902    13448.127    13673.133   -511.63507    327.79722    43.981034   -4289.8656 
36814000    134.36529   -6651.2654   -6305.6189   -6651.2654            0    10994.411    23.039124    21.184502    21.368837    10429.539    11422.574     9439.989    12120.669   -916.53473    309.50041    744.17488   -4633.3237 
36815000    128.15651   -6654.0822   -6324.4074   -6654.0822            0    11243.086    23.136518    21.150577    21.274429    10410.657    10291.635    11342.453    12095.171   -439.95568    824.88601   -796.32967   -4617.3837 
36816000    145.06567   -6650.5333   -6277.3607   -6650.5333            0    11868.916    22.920152    21.365543    21.296438    10428.898    11997.041    11181.029    12428.676   -1525.7037    1604.9648   -410.14272   -4472.1607 
36817000    133.81584   -6655.6395   -6311.4064   -6655.6395            0    11850.976     22.99293    21.148728    21.327481     10370.94    11444.483     12069.93    12038.516     1299.422   -254.24565   -294.46319   -4518.9518 
36818000    137.05759   -6662.3983    -6309.826   -6662.3983            0    11710.134    23.024653    21.188956     21.29901    10391.113    11315.295      12218.6    11596.507    1031.4752   -727.56567   -232.05022   -4535.2286 
36819000    129.16009   -6657.9377   -6325.6813   -6657.9377            0    10785.124    23.115925    21.157012    21.334938    10434.148    10234.459    11118.237    11002.676    18.026825     602.2235    132.59046   -4684.4945 
36820000    140.98749   -6652.0802   -6289.3985   -6652.0802            0    12131.865    23.176261    20.916803    21.379044    10363.989    11144.343    13630.119    11621.133    723.14346    714.31731    247.39507   -4455.6895 
36821000     138.4954   -6655.6865   -6299.4155   -6655.6865            0    10220.642    23.068495    21.208344    21.356086     10448.35     9606.311    10781.687    10273.927   -1119.0827    509.76458    152.62859   -4742.0099 
36822000    137.27114   -6622.3716   -6269.2499   -6622.3716            0    10852.281     23.08263    21.189399     21.31134    10423.527     10966.35    10777.272    10813.219    1203.4757   -249.44786   -236.10775   -4619.5248 
36823000    137.54583    -6661.289   -6307.4608    -6661.289            0    11536.793    22.772061    21.358296     21.34614    10382.174    11310.353    12460.305    10839.721    557.00505    411.95951    654.67888   -4560.6362 
36824000    139.87071   -6655.3668    -6295.558   -6655.3668            0    12139.036     23.01644    21.219544    21.263616    10385.115     12959.05    10566.442    12891.615   -406.31636   -3.9125363    -19.22273   -4457.0251 
36825000    142.71696   -6660.0927    -6292.962   -6660.0927            0    11305.099    23.106815    21.051857    21.366273    10393.439    12067.679    10500.941    11346.678   -246.50815    132.32878    748.93611   -4579.3617 
36826000    139.73434   -6661.3554   -6301.8973   -6661.3554            0    10299.093    23.165518    21.168008    21.297029    10443.379    10098.625    9913.0177    10885.637   -885.52379   -962.90259    210.43113    -4733.284 
36827000    133.09458   -6658.1408   -6315.7631   -6658.1408            0     9886.139    23.234813    21.077562    21.355447    10458.472    10035.514    8843.3442    10779.558   -631.85544    -248.3757    11.137989   -4807.8691 
36828000    139.25734   -6639.1585   -6280.9274   -6639.1585            0    10528.939    23.025223    21.265174    21.373371    10465.158    10053.539    10202.715    11330.562    171.46019   -177.97984    873.08753   -4673.9629 
36829000    136.20649   -6667.4198   -6317.0369   -6667.4198            0    10673.297    23.077264    21.239141    21.301103    10440.549    9931.4182     9892.594    12195.879    218.74024    1211.2261    493.55945   -4691.8705 
36830000    143.24762   -6644.1819   -6275.6861   -6644.1819            0    11370.964    22.883422    21.383004    21.324866    10434.605    12054.244    10472.255    11586.392    481.12658    -124.0087   -626.46448   -4545.2755 
36831000    134.45727   -6647.0437   -6301.1606   -6647.0437            0    11819.216    23.024229    21.247148    21.223616    10382.576     12420.74     10171.56    12865.347   -454.35576   -324.02743    44.177464   -4511.5042 
36832000    142.10389   -6667.7239   -6302.1703   -6667.7239            0    11883.373    23.033303    21.013847    21.461116    10387.573    11569.045    13083.611    10997.463    282.04377    840.71837    252.11467   -4501.9332 
36833000    139.98044   -6653.0257   -6292.9346   -6653.0257            0    12173.485    23.104399      21.1176    21.263837    10374.827    11847.562    12764.619    11908.275   -1473.1451    139.66073    -298.3229   -4451.0106 
36834000    140.40297   -6630.9917   -6269.8137   -6630.9917            0    11376.123    23.153366    21.080914    21.310048    10401.309    11576.588    11568.361    10983.418    407.81995   -865.60677   -382.46882   -4544.1421 
36835000    135.91576   -6661.6904   -6312.0554   -6661.6904            0    9469.3917      23.0285    21.283039    21.348703    10463.351    8928.8658    9527.1368    9952.1724    79.401483   -132.02058   -264.11604   -4867.0524 
36836000    137.45459   -6660.4208   -6306.8272   -6660.4208            0    10635.463    23.013358    21.318309    21.239543    10420.245    11834.727    9166.9281    10904.734   -739.04344   -53.020648    140.58759   -4690.5709 
36837000    131.37375   -6649.7237   -6311.7727   -6649.7237            0    11406.732    22.872485    21.245377    21.391575    10394.906    13024.192    10947.412    10248.592    157.52035    310.10905   -675.79662   -4582.5231 
36838000    138.40508   -6646.9034   -6290.8648   -6646.9034            0    11249.103     23.04003    21.340961     21.14659    10397.702    11569.232    10880.224    11297.854    750.40617   -1102.6406   -92.966741   -4585.0528 
36839000    130.61531   -6654.1078   -6318.1079   -6654.1078            0    11875.226    23.029347    21.044833    21.404702    10373.762    12572.825    12048.604    11004.249   -1011.2017    251.25551   -758.26354   -4521.4969 
36840000    135.31817   -6655.1681   -6307.0703   -6655.1681            0    11152.503    23.098029     21.09696     21.35661    10407.038    11342.609      10916.9        11198   -127.16082    253.73254    396.15644   -4614.3884 
36841000    133.12658   -6661.2681   -6318.8081   -6661.2681            0    10574.031     23.08565    21.227362    21.275179    10425.847     10232.72    10506.709    10982.664    -501.1448   -439.91425   -127.14691   -4711.0236 
36842000    133.13842   -6644.2157   -6301.7253   -6644.2157            0    11223.996     23.12134    21.135172    21.387839     10451.67    11069.102    11231.931    11370.956     559.6541   -987.80235   -674.97923   -4590.8865 
36843000    133.35069   -6642.6321   -6299.5956   -6642.6321            0    10670.729     23.11356    21.144997    21.338692    10428.991    9717.1435     12362.83    9932.2147    358.32733    718.38661    59.358196    -4676.619 
36844000    138.87999   -6648.6412   -6291.3808   -6648.6412            0    11101.131    23.016806     21.11235    21.450972    10423.861    11727.394    11840.706    9735.2916   -1465.7309    273.67959   -1040.4273   -4603.7723 
36845000    130.16608    -6659.754   -6324.9097    -6659.754            0    9934.6266    23.115829    21.294645    21.239149     10454.83    9432.7181    9197.6106    11173.551    53.688491    505.17729   -423.31434   -4810.1476 
36846000    133.04623   -6631.7419   -6289.4885   -6631.7419            0     10361.61    23.005596    21.252915    21.379372    10453.144    10926.731    10210.625    9947.4731   -186.34702   -525.97917    300.00606   -4709.8778 
36847000    133.44458   -6641.2541   -6297.9761   -6641.2541            0    11603.329    23.096153    21.087849    21.357899    10402.326    11058.008    11499.404    12252.575   -436.56708    207.94704    5.3226803   -4537.6668 
36848000    133.65846    -6651.954   -6308.1258    -6651.954            0    12985.577    23.055929    20.963297    21.368891    10328.189    12682.242    14125.644    12148.845    601.57468   -412.27323   -259.45387   -4352.1597 
36849000    140.18727    -6657.718   -6297.0948    -6657.718            0    10583.138    23.162969     21.13317    21.279886    10416.653    9958.2251     10760.15    11031.038    174.78034    236.07003    657.24981   -4689.3449 
36850000    133.74638   -6661.1628   -6317.1084   -6661.1628            0    10399.728    23.025379    21.218497    21.382772    10446.851    11040.885    9547.7486     10610.55   -374.22895    266.98547    240.86328   -4732.6411 
36851000    132.94255   -6654.6082   -6312.6216   -6654.6082            0     11511.23    22.864918    21.373966    21.239655    10380.116    12052.182    10646.102    11835.406     152.2074    526.29017   -877.91645    -4570.013 
36852000    136.95856   -6649.9911   -6297.6736   -6649.9911            0    12263.396    22.956472    21.212967    21.332325    10388.307    12950.617    11449.547    12390.023   -649.93418    368.83608    1.9182211   -4439.7348 
36853000    134.76063   -6634.9002   -6288.2367   -6634.9002            0    9951.8527    23.121977    21.198805    21.349474    10464.621    10242.337     10060.14    9553.0812   -181.90017    122.65418    198.23329   -4769.4271 
36854000    143.83923    -6667.482   -6297.4644    -6667.482            0    10531.628    23.149018    21.045918    21.407691    10429.663    11533.206    10434.548    9627.1295   -764.46077   -731.36712   -872.79707   -4695.5413 
36855000    133.67744   -6623.7596   -6279.8825   -6623.7596            0    12985.567    23.127275    21.033771    21.303936    10363.381    12735.825    14032.165    12188.709    328.42002    -647.5216    412.29784   -4317.2533 
36856000    138.98541   -6665.6142   -6308.0827   -6665.6142            0    10833.161    23.129869    21.132207    21.299256    10410.761    10191.487    10970.611    11337.385   -641.94908    246.72085   -388.98069    -4663.281 
36857000    135.33007   -6654.2036   -6306.0753   -6654.2036            0    10661.732    22.936357     21.23489    21.424681    10434.913    10969.977     10585.66    10429.559    630.70846   -683.16262   -280.99573   -4683.5462 
36858000    134.42829   -6647.5405   -6301.7319   -6647.5405            0    11261.073    23.011141    21.263051    21.244242    10394.532    11466.086     12204.34    10112.792    472.04657    576.82919   -712.13164   -4594.6254 
36859000    137.09795   -6649.0426   -6296.3665   -6649.0426            0    13252.856    22.872877    21.180203    21.367877    10351.715    13963.292    11932.264    13863.011    1229.5932   -709.63483    305.61871   -4295.5943 
36860000    137.74094   -6659.4853   -6305.1551   -6659.4853            0    11489.508    23.132742    21.173687    21.229592     10398.37    10479.389    10807.214    13181.921   -842.46371    694.17398   -94.518406   -4562.7763 
36861000    138.01887   -6650.2055   -6295.1603   -6650.2055            0    11020.872    23.143429    20.963858    21.493658    10428.197    11165.436    11734.523    10162.658   -200.52259   -517.29066    1287.0151   -4619.0558 
36862000    141.12336   -6654.5933    -6291.562   -6654.5933            0    12041.913     23.11218    21.048463    21.374408    10398.134    12170.537    11966.318    11988.884   -738.42463    741.58744   -341.09384   -4465.4527 
36863000    134.63152   -6634.1647   -6287.8333   -6634.1647            0    12328.197    23.044708    21.226616    21.212616    10376.388    12530.303    12405.779    12048.509    47.034104   -695.62532    377.72212   -4422.2199 
36864000    134.50804   -6636.7696   -6290.7558   -6636.7696            0    11356.277    22.906265    21.315033    21.346112    10422.192    11927.873    11555.257    10585.701    1044.7404    653.38799   -138.26069    -4564.636 
36865000    134.99197   -6630.0305   -6282.7719   -6630.0305            0    12524.368     22.94296    21.184138    21.340773    10372.188    13759.257    12260.253    11553.593    894.66055   -445.23009   -1.2567643   -4388.2394 
36866000    131.25264   -6659.7273   -6322.0879   -6659.7273            0    11097.661      23.1007    21.129534    21.347525    10419.877    10703.086    9952.4421    12637.453    289.21642   -382.39687    938.85113   -4635.6517 
36867000    133.62545   -6676.0258   -6332.2825   -6676.0258            0    10711.619    22.995656     21.22269    21.322494     10406.01    10279.359    10803.964    11051.533   -1184.1811    153.30753   -845.35818   -4706.6767 
36868000    136.71659   -6669.3429   -6317.6477   -6669.3429            0     9773.445    22.980909    21.258064    21.357817    10433.927    10543.812     8708.113     10068.41    702.99085    105.40235    1559.8077    -4830.441 
36869000    135.26841   -6654.7034   -6306.7336   -6654.7034            0    10698.253    22.917873    21.261746    21.430674     10442.61    11141.462    10297.897      10655.4    318.48864     715.5854    374.97785   -4677.4458 
36870000    134.04985   -6648.7124   -6303.8774   -6648.7124            0    10422.436    23.078598    21.235503    21.283899    10430.933    10480.155    9966.1242    10821.028   -518.18349    308.74693     -646.675   -4718.3699 
36871000    133.38148   -6644.3071   -6301.1914   -6644.3071            0    11514.676    23.105938    20.969348    21.448003     10391.91    10936.099    12436.362    11171.567   -18.591451    -65.88756   -649.24762   -4556.0807 
36872000    142.59588   -6643.2404   -6276.4212   -6643.2404            0    11080.681    23.077027    21.213068    21.244245    10399.792    11664.933    10088.409    11488.699   -669.91136    45.456003    690.21111    -4595.811 
36873000    133.50685   -6648.3511   -6304.9128   -6648.3511            0    11626.474    23.063589     21.14142    21.327928    10399.435    12481.515    11052.971    11344.936   -384.11774   -525.07458   -974.83221   -4541.5826 
36874000    135.92829   -6642.9471   -6293.2799   -6642.9471            0     11384.71     22.95026     21.27697    21.300039    10401.065    11428.609    10355.846    12369.675   -815.79014    190.55309    381.37329   -4566.3462 
36875000    137.82605   -6635.9203   -6281.3711   -6635.9203            0    11810.817    22.967237    21.223424    21.319183    10391.895    13057.143    11220.565    11154.743   -1277.7313    582.89714   -465.39116   -4491.3811 
36876000    137.91853   -6652.6811   -6297.8941   -6652.6811            0    11879.325    23.013955    21.193247    21.311259    10394.363    11465.811    12167.062    12005.101    736.27721   -261.84865    -486.9892    -4497.094 
36877000    139.64963   -6663.5886   -6304.3484   -6663.5886            0    10270.702    23.022756    21.245949    21.343266    10439.851    9129.2931    11399.778    10283.034   -700.08683    269.56381   -145.12405   -4740.5876 
36878000    138.05582   -6655.6911   -6300.5509   -6655.6911            0    10453.215    23.171213    20.993686    21.446715    10432.737    11453.054    9597.5237    10309.067   -472.58929   -276.44581    20.766151   -4710.0862 
36879000    141.75097   -6646.0113   -6281.3656   -6646.0113            0    11035.327    23.178338    21.143116    21.298826    10437.751    10004.909    11428.126    11672.946    -770.6951    377.85392   -974.91912   -4601.5251 
36880000    134.91081   -6673.1672   -6326.1174   -6673.1672            0    11225.864    23.034393    21.159978    21.350026    10406.157    12020.961    9855.8237    11800.809   -737.53207   -2.2714907    410.41951   -4622.4451 
36881000    130.18714   -6651.8398   -6316.9413   -6651.8398            0    11804.046    22.924194    21.266159    21.312695    10390.142    13166.834    11602.803    10642.501    583.67005   -300.26433    150.14256   -4528.2794 
36882000     139.0841   -6634.1289   -6276.3436   -6634.1289            0    11559.409    22.952739    21.393897    21.177846     10399.35    11193.864    10399.945    13084.418   -126.88466    73.919799   -492.98769   -4523.1991 
36883000    137.74601   -6643.8512    -6289.508   -6643.8512            0    11196.161     23.05496    21.152153    21.344313    10408.812     11395.06    10981.704     11211.72   -957.94206    938.70732    228.56641   -4589.9101 
36884000    133.06244   -6659.3142   -6317.0192   -6659.3142            0    11112.304    23.105724    21.066125    21.395244    10414.094    10680.343    11641.133    11015.437   -419.61601    188.75664 -0.029670916   -4629.2949 
36885000    130.59607   -6654.8234   -6318.8729   -6654.8234            0    10890.523    23.281798     21.02852     21.28724    10421.844    11310.062    10418.205    10943.302    32.252911   -1330.1784    511.85199   -4663.6016 
36886000    139.27457   -6642.8305   -6284.5552   -6642.8305            0    11052.607    23.091326    21.094669    21.406082    10426.986    11882.586    11283.227    9992.0063    394.01634   -987.15811   -996.88489   -4603.8197 
36887000    138.80473   -6658.2361   -6301.1693   -6658.2361            0    11477.626    22.957054    21.264856    21.254613    10376.044    11105.787    11404.112    11922.979   -552.74363    218.37794    288.42781   -4564.3295 
36888000    130.97577    -6658.427   -6321.4998    -6658.427            0    10207.976    22.950655    21.187809    21.465749    10438.238    10348.818    10296.684    9978.4276    701.13796    -139.2177     254.4147   -4767.5294 
36889000    137.20818   -6659.7084   -6306.7487   -6659.7084            0     11563.03    22.979304    21.242795    21.299535    10397.254    12545.966    10499.296    11643.828    518.57069   -386.84629    532.99034   -4553.4085 
36890000     137.1586    -6662.131   -6309.2989    -6662.131            0    9465.2366    23.068397    21.256113    21.324996    10456.594    9158.5289    9262.5162    9974.6649    427.75042    693.86701    496.01234   -4865.8627 
36891000     133.0979   -6653.8407   -6311.4544   -6653.8407            0    12011.449    22.986679    21.113581    21.429226     10400.27    13086.669    12015.084    10932.594    61.656153    553.66097   -328.98377   -4489.5907 
36892000    144.01136   -6668.5092   -6298.0487   -6668.5092            0    11872.984    23.130261    21.117203     21.26602    10387.311    10717.366    11840.574     13061.01   -349.34677   -428.92247    284.93424   -4499.4309 
36893000    137.37835   -6658.4847   -6305.0872   -6658.4847            0    9479.5637    23.237907    20.904882    21.560322    10473.696      8603.66    10569.891    9265.1404    573.90784   -223.37803    76.071682   -4857.1017 
36894000    134.93769   -6652.2999   -6305.1809   -6652.2999            0    10514.098    23.178437    21.234479     21.22095     10444.57    10246.986    9675.5975    11619.709   -49.748823   -339.24006    951.01819   -4703.6384 
36895000    135.05844   -6623.5646    -6276.135   -6623.5646            0    11903.177    22.946823    21.212104    21.371287    10402.483    12075.026    12139.604      11494.9   -217.09907   -543.55101    354.96743   -4470.3095 
36896000    137.09893   -6658.3944   -6305.7157   -6658.3944            0    11290.376    22.963928    21.193544    21.376475    10403.653    12030.842    10778.838    11061.449    507.08091    584.09484   -23.890238   -4592.6653 
36897000    131.45772   -6651.6369     -6313.47   -6651.6369            0    10403.462    22.905973    21.382808    21.257219    10411.659    11023.008    9806.6922    10380.685    383.99453   -26.408648    793.41874   -4733.7733 
36898000    141.13104    -6674.652    -6311.601    -6674.652            0    11291.421     22.99965    21.131851    21.368832     10385.79    11131.813    11703.135    11039.314   -513.76113    499.00697     41.74591   -4601.3336 
36899000    134.96725   -6622.1522   -6274.9571   -6622.1522            0     12879.41    23.108896    21.108809    21.239345    10360.579    12272.636    13916.545     12449.05    120.94579    -584.3742   -723.69834   -4328.8985 
36900000    139.44055    -6670.698   -6311.9957    -6670.698            0    10561.872    22.967044    21.119111    21.495538    10426.272    12406.326    9907.2131    9372.0779    427.83063    -1384.322    392.89388   -4705.9946 
36901000    141.84688   -6644.9954    -6280.103   -6644.9954            0    11616.912    23.093804     21.16537    21.271894    10397.465    10987.254    12416.749    11446.732   -48.238805    647.65744   -540.98614   -4518.5567 
36902000     131.0099   -6657.2396   -6320.2246   -6657.2396            0    10029.484    22.859876    21.346476     21.41537    10450.225    11546.717    9525.5518    9016.1822   -524.41417      740.236    444.22561    -4791.673 
36903000    141.10708   -6642.0873   -6279.0979   -6642.0873            0    11882.365    23.033519    21.104408    21.357365    10382.002    12490.359    12813.282    10343.455    207.44676    228.74933   -394.55081   -4479.9788 
36904000    140.30244   -6654.6976   -6293.7781   -6654.6976            0    11922.577    23.143651    21.154544     21.22785    10393.015    11888.919    11933.454     11945.36    95.509571   -782.19172    638.33796   -4486.6556 
36905000    126.29193   -6642.3245   -6317.4462   -6642.3245            0    10528.273    23.169388    21.007293    21.438371    10434.615    9788.4285     11187.04    10609.349   -103.84298   -10.432981    633.66469   -4715.2731 
36906000    131.38881   -6667.2597     -6329.27   -6667.2597            0    10768.591    23.087433    21.173973     21.28704    10406.226    10863.919    10590.491    10851.363   -344.92295   -222.15656    7.0412204   -4694.9842 
36907000    134.83262     -6665.29   -6318.4413     -6665.29            0    10133.408    22.999074    21.347278    21.295431    10455.367    10407.692    8963.0679    11029.463   -414.04673    227.45041    740.43307   -4773.2911 
36908000    136.91485   -6657.6041    -6305.399   -6657.6041            0    11653.618    22.981846    21.224073    21.279607    10379.519    12125.325     11882.92    10952.609    585.65121    233.96151     57.98671   -4541.3368 
36909000    140.91196   -6658.8134   -6296.3259   -6658.8134            0    11790.903    22.960035    21.193729    21.364503    10396.154    12000.716    12505.255    10866.736    47.849718   -60.431394   -504.62346   -4508.6217 
36910000    134.82478   -6652.5684   -6305.7398   -6652.5684            0    11856.146    23.111159    21.154838    21.259784    10394.181    11955.542     11416.83    12196.065   -427.08699    26.817835    264.01054   -4508.4849 
36911000    130.49097   -6655.3601     -6319.68   -6655.3601            0      10760.5    23.136326    21.003059    21.472366    10434.144    10812.289    12227.777    9241.4325   -370.74305   -701.72462   -599.56528   -4682.2409 
36912000    134.69047   -6634.1439   -6287.6609   -6634.1439            0    12611.265    23.151705    21.058245    21.262781    10366.334    13521.999    13133.842    11177.954     99.00615   -1528.7318   -1171.2448   -4381.0602 
36913000     139.3117   -6658.8555   -6300.4847   -6658.8555            0    11489.727    23.062764    21.126801    21.318018    10387.043    11535.442    10744.471    12189.269    826.89901   -778.85761    798.76748   -4559.9706 
36914000    130.35667   -6654.1632   -6318.8286   -6654.1632            0    10241.228    23.014314    21.244137    21.381135    10453.648    10363.905    9545.3199    10814.461   -633.66441    1134.3725    933.41778   -4757.4945 
36915000    135.07194   -6647.8365   -6300.3722   -6647.8365            0    11055.438    23.031639    21.286132    21.244391    10415.159    10685.591    10592.221    11888.502   -136.73996   -149.82817    302.40305   -4621.1129 
36916000    142.21999   -6652.0753    -6286.223   -6652.0753            0    10872.911    23.025609    21.144266    21.427616     10432.24     11385.88    11051.071    10181.781    412.32908    -558.0753    496.32004   -4631.9801 
36917000    133.96755   -6653.7845   -6309.1612   -6653.7845            0    10679.459    23.050784    21.192733    21.355994    10432.597    11508.172    10060.692    10469.513    310.77166   -725.67859    863.71684    -4684.295 
36918000    139.28658   -6649.6582    -6291.352   -6649.6582            0     9197.467    23.120494    21.187974    21.380503    10473.804    9862.7164    8370.1908    9359.4939   -1355.1537    524.79292   -565.30279   -4886.4417 
36919000    146.18672   -6644.0168   -6267.9603   -6644.0168            0    11567.302    23.133175     21.12858    21.285529    10403.752    10089.356    12185.454    12427.097    48.640512    293.18381   -602.53753   -4512.8761 
36920000    131.39543    -6639.466   -6301.4593    -6639.466            0    11409.091    23.072527    21.153731    21.314715    10403.074    10730.522     12835.69     10661.06    1008.0294   -971.18109   -150.44607    -4570.493 
36921000    134.13111   -6642.6119   -6297.5677   -6642.6119            0    11227.653    23.071477    21.095439    21.399731    10415.312    11311.453    10709.199    11662.307    447.22569   -866.56896    32.484565   -4592.1249 
36922000    136.39371   -6647.7859   -6296.9214   -6647.7859            0    11507.116    23.186362    21.125746    21.233564     10400.82    10749.374     11489.44    12282.535   -620.94806   -953.03391   -155.76094   -4551.4611 
36923000    129.39763   -6646.2315    -6313.364   -6646.2315            0    10735.145    23.056833    21.174761     21.39269    10444.402    10680.278    10808.861    10716.296    195.04101    654.60026    650.33431   -4678.1772 
36924000    134.86285   -6659.4925    -6312.566   -6659.4925            0    10782.868    22.984189    21.275612    21.328465    10429.677    11444.447    9464.5593    11439.597   -711.00346    122.85039    1008.7384   -4672.4256 
36925000    133.00214   -6632.7827   -6290.6428   -6632.7827            0    11626.394    23.043559    21.266931    21.216265    10397.366    12280.301    10954.877    11644.005    1123.4379   -516.20116    128.23086   -4527.6755 
36926000    132.89997   -6654.8286   -6312.9515   -6654.8286            0    10305.844    22.883534    21.213045    21.476544    10425.347    10873.752    10852.443    9191.3359    677.40993   -215.13545    437.76199   -4746.0203 
36927000    141.06331   -6641.9635   -6279.0867   -6641.9635            0    10438.551    23.064455     21.26486    21.253628    10424.105    10188.969    10022.064    11104.619    -411.7952   -440.68496      278.991   -4692.1673 
36928000     134.0108   -6637.4977    -6292.763   -6637.4977            0    10846.933    23.146882    21.085455    21.354808    10422.482    10580.239    11398.601    10561.959    766.09409   -831.64074   -666.19187   -4644.0162 
36929000    132.37884   -6641.6311   -6301.0946   -6641.6311            0    10849.218    23.124842     21.10523    21.380102    10434.668     9914.079    11054.201    11579.374    -474.5242    698.85737    843.72033   -4650.0723 
36930000    141.25474   -6653.6275   -6290.2583   -6653.6275            0    11408.962    23.095532    21.210832    21.193075    10381.968    11377.789    11216.569    11632.528   -1349.8413    387.47158    7.6905276   -4562.8234 
36931000     132.8157   -6645.3827   -6303.7224   -6645.3827            0    11558.174    22.996595      21.1724    21.365102    10402.521     12116.08    11952.935    10605.507   -1089.8168    665.89609     -557.467   -4550.2307 
36932000    138.69839    -6642.155   -6285.3619    -6642.155            0    11927.198    22.981087     21.26906    21.271685    10397.304    12097.377    11583.581    12100.638   -374.57579    913.21528   -129.38423   -4476.7928 
36933000    137.56008   -6658.6727   -6304.8078   -6658.6727            0    11468.097    23.096456    21.116096    21.302363    10389.311     11474.84     11675.69     11253.76    452.46316   -994.86194    134.41708    -4567.191 
36934000    137.05976   -6663.9456   -6311.3678   -6663.9456            0     11349.39     23.09254    21.065304    21.373411    10397.125    11115.458    11497.201    11435.512   -184.91719   -815.75323   -429.76453   -4590.4437 
36935000    140.76473   -6645.1268   -6283.0181   -6645.1268            0    12440.546    22.988945    21.187514    21.301176    10375.347    12665.494    12238.081    12418.062   -731.78441    628.68161      316.014   -4400.5919 
36936000    133.59818   -6629.4223   -6285.7491   -6629.4223            0    11220.455    23.109788    21.212969    21.274667    10429.421     11098.31    11439.654      11123.4    385.68779   -154.83715    622.81665    -4579.091 
36937000     134.8765   -6665.1746    -6318.213   -6665.1746            0    10906.398    23.025839     21.22342      21.3137    10415.729    11163.862    9574.6949    11980.636   -124.91395    -647.3767    328.76567   -4661.5014 
36938000    138.73725   -6641.8623   -6284.9692   -6641.8623            0    11148.794    23.061782    21.140452    21.371466    10419.369    10232.604    12025.704    11188.076    526.47939    443.93402    -169.8536    -4590.845 
36939000    130.41254   -6657.5459   -6322.0676   -6657.5459            0    10749.534    23.140345    21.151386     21.26935    10410.291    10145.365    11293.513    10809.726   -90.884945     1046.863   -83.848307   -4690.0365 
36940000    141.87322   -6633.9019   -6268.9417   -6633.9019            0    11350.533    23.030138    21.153474    21.375071    10413.238    11296.931    11486.869      11267.8   -436.01266   -269.77533    -272.2057   -4545.1771 
36941000    136.63628   -6631.4502   -6279.9617   -6631.4502            0    12192.961    23.157006    21.101899    21.271723    10394.572     11922.31    12950.268    11706.306    437.63375   -126.80291   -471.69931   -4431.5798 
36942000    134.85368   -6645.5631   -6298.6602   -6645.5631            0    10413.784    23.163233    21.146949    21.343369    10454.658    10134.984    9981.5555    11124.812   -580.00925    969.09664    -191.6895   -4710.8657 
36943000    134.26355   -6655.2304   -6309.8456   -6655.2304            0    10605.659    23.084313    21.146447    21.364364     10429.04    10405.358    10132.535    11279.083   -404.65654    1024.2765    769.49027   -4696.7584 
36944000    136.91707   -6644.6038    -6292.393   -6644.6038            0    12194.938    22.972273    21.314001    21.242194    10400.838    13384.973    11382.239    11817.601   -270.38893   -1406.4699    -693.1088   -4442.5971 
36945000    136.71085   -6634.2949   -6282.6146   -6634.2949            0    12541.283     22.95508    21.224816    21.300987    10378.211    13261.592    11921.169    12441.089    485.97859   -867.33877   -74.966867   -4384.4217 
36946000    138.09544   -6658.1366   -6302.8945   -6658.1366            0    11249.014     23.00041    21.232252    21.298673    10401.218    10900.861    12466.895    10379.286   -20.029355    820.47353    262.40784   -4596.5192 
36947000    136.08581   -6647.4131   -6297.3407   -6647.4131            0    10937.112    23.072105    21.178923    21.350005    10432.516    11784.908     10357.61     10668.82    1036.5814    72.412636   -687.15576   -4633.2858 
36948000    137.39846    -6634.235   -6280.7858    -6634.235            0    11947.561    23.024353    21.150457    21.313859    10379.329    12322.616    11359.483    12160.583    73.785405   -723.94585    142.37941   -4472.2613 
36949000    144.54839   -6656.6523   -6284.8104   -6656.6523            0    11668.509    23.067554    21.058756    21.397811      10394.5    10621.977    13066.088    11317.461   -173.13566    327.65134    432.05542   -4515.9447 
36950000    139.63423   -6668.5492   -6309.3487   -6668.5492            0    10483.677     23.15382    21.164979    21.294554    10435.398    10097.702      10695.9    10657.429   -425.94102   -482.33993   -132.21069   -4713.8422 
36951000    142.79055    -6667.756    -6300.436    -6667.756            0    10305.199    23.103275    21.271293     21.24209    10439.139    9015.3558    9972.2659    11927.976    753.69814   -70.528452    1152.0989   -4731.5299 
36952000    140.61734   -6662.7588   -6301.0293   -6662.7588            0    11210.612    22.952871    21.046003    21.574138    10421.736    12168.058    11747.825    9715.9537    236.33322    692.55326   -170.16674   -4597.1246 
36953000    132.30457    -6670.662   -6330.3165    -6670.662            0    11068.284    23.125828    21.260384     21.18285    10414.844    10310.148    11153.138    11741.566    328.94169   -242.88831    96.183727   -4649.1568 
36954000    135.54619   -6646.9711   -6298.2868   -6646.9711            0    12324.103    22.950896    21.191406    21.351652    10384.627    14269.576    11694.978    11007.755   -317.15683    -214.5686     170.5293   -4431.8121 
36955000    137.93484   -6659.0413   -6304.2124   -6659.0413            0    11627.577    22.954444    21.164835    21.362553    10378.505      11953.2    11523.744    11405.787    895.10268   -78.986635    -261.4331    -4544.264 
36956000    137.51334   -6676.5957    -6322.851   -6676.5957            0    10392.527    23.035258    21.248326    21.325385    10437.937    9583.7439    10812.104    10781.734    711.54399     534.9234    418.97566   -4740.8319 
36957000    131.52764   -6656.6566   -6318.3097   -6656.6566            0    10650.946    23.078655    21.167993    21.377165    10443.361    11532.798    10420.982     9999.057   -815.72157   -311.16328    487.60568   -4696.1099 
36958000     133.5359   -6638.9328   -6295.4199   -6638.9328            0    10982.778    23.274502    20.950407    21.332879    10402.132    10873.929    12157.398    9917.0069    898.69566   -84.276806   -14.634366   -4629.2839 
36959000    139.30272   -6647.1384   -6288.7907   -6647.1384            0    11280.088    23.144457    21.058957     21.38058    10420.855    10631.069    12089.606    11119.589    299.78361   -1105.2077    326.39891   -4574.4713 
36960000    139.88892   -6662.6112   -6302.7555   -6662.6112            0    10765.866    23.060117    21.207713    21.293928    10413.845    10783.965    11078.997    10434.635   -583.37761    115.29574   -752.84569    -4667.687 
36961000    139.40004    -6650.015   -6291.4168    -6650.015            0    11326.374    22.974696    21.198462    21.355149     10400.56    11407.708    11445.215    11126.198   -343.86094    617.21797    423.28869   -4573.4155 
36962000    134.62974   -6654.3006   -6307.9738   -6654.3006            0     11913.12    22.830083    21.316327    21.373865    10401.667    12341.812    11997.313    11400.235   -622.69737    324.21751    148.00082   -4500.7816 
36963000    136.52792   -6652.1132   -6300.9034   -6652.1132            0    11655.845     23.15947    21.089935    21.266313    10387.142    10832.766    12678.754    11456.015   -982.21615    18.105475   -1126.7353   -4535.2084 
36964000    131.85281   -6640.6596   -6301.4763   -6640.6596            0    11022.897    23.098384    21.118978    21.357798    10418.638    11761.429    10555.219    10752.043    508.17737   -1230.5926    138.46398   -4626.6006 
36965000    131.01067   -6660.6117   -6323.5947   -6660.6117            0    10949.126    23.076449    21.120384    21.397248    10428.665    11554.544    11413.774    9879.0613   -719.60413    633.82232   -999.61434    -4658.327 
36966000    138.56325   -6646.8738   -6290.4283   -6646.8738            0    13261.543    23.059152    21.129061     21.23459    10345.879    14018.724    12464.687    13301.219   -1561.9499    203.94041   -670.46614   -4289.4731 
36967000    134.65993   -6654.9318   -6308.5274   -6654.9318            0    10233.003    23.059951    21.237192    21.317026    10439.557    10577.041    10326.135    9795.8321   -222.51393   -613.45189   -870.20364   -4750.5503 
36968000    138.79098   -6650.7802   -6293.7489   -6650.7802            0    10731.704    22.976925    21.242397    21.406985    10448.427    10776.758    11488.974    9929.3797    375.66891   -34.636609    -752.8698   -4658.4561 
36969000    139.07429   -6659.6892    -6301.929   -6659.6892            0    10921.465    22.925065    21.312177    21.284782    10399.384    11216.549    11028.602    10519.246    329.46373     655.0854   -256.02206   -4645.5321 
36970000    133.04008    -6664.668   -6322.4305    -6664.668            0    11206.977    22.985974    21.222201    21.311587    10396.068    12277.157    9658.1761    11685.598   -1077.9211      61.3113    491.67389   -4623.2736 
36971000    134.71986   -6659.4417   -6312.8831   -6659.4417            0    11376.123    23.055968    21.161822    21.368173    10425.667    10653.992    12770.712    10703.665   -476.03273    12.463457   -225.19166   -4583.1702 
36972000    138.52883   -6667.5248   -6311.1678   -6667.5248            0    11142.395    23.201994    21.054058    21.307586    10408.673    11666.412    10451.663    11309.109    297.12213   -921.41251    1282.4833   -4619.7543 
36973000    136.53441   -6648.5984    -6297.372   -6648.5984            0    12998.877    23.083706    21.058656    21.318904    10363.371    12976.716    12596.898    13423.017   -469.29511    373.11456   -299.36995   -4332.7329 
36974000    143.47176   -6651.2024   -6282.1301   -6651.2024            0    11395.262    23.016029    21.226315    21.293121    10402.658    11338.732    11696.868    11150.186    715.22776   -342.84577   -271.62702    -4553.331 
36975000    135.90129   -6662.8017   -6313.2039   -6662.8017            0    10527.437    23.012631    21.239283    21.337346    10429.093    10703.261    9914.5989    10964.452   -58.339269    676.51806    725.60425   -4712.0057 
36976000    134.13865   -6648.7141   -6303.6506   -6648.7141            0    11082.795    23.063215    21.173268    21.363552    10432.327    11605.936    10366.515    11275.935   -450.30886   -1158.6648    161.77874    -4617.461 
36977000    143.08218   -6637.7149   -6269.6447   -6637.7149            0    11566.724    23.122125    21.148635    21.282275    10407.062    11133.452    10923.665    12643.053   -65.211044   -176.42169    295.60895   -4514.0899 
36978000    137.72942   -6629.1327   -6274.8322   -6629.1327            0     11503.08    23.183938    21.049814    21.332379    10410.575    11069.834    11925.843    11513.561   -165.54724    746.73923    373.18313   -4528.3476 
36979000     136.3734   -6640.5937   -6289.7814   -6640.5937            0    11230.183    23.011432    21.142124    21.417029    10419.611    11009.458    11950.746    10730.346   -462.41902    100.19337    387.18801   -4583.2502 
36980000    142.71405   -6657.7125   -6290.5893   -6657.7125            0    9969.9128    22.967325    21.363415    21.331395    10466.473    10015.009    9724.7254    10170.004     552.3512    191.15585    492.77262   -4768.7542 
36981000    140.37063   -6641.7298   -6280.6349   -6641.7298            0    11391.577    22.922977    21.283016    21.351303    10416.662    12338.639    10286.673     11549.42    1726.7156   -711.47121    33.112197   -4550.0683 
36982000    141.33946   -6659.7811   -6296.1939   -6659.7811            0    10450.866    23.019134    21.245273    21.326931    10429.888    11463.767    9042.9203     10845.91   -558.72795    -686.4034    1078.6115   -4706.5208 
36983000    134.31544     -6654.99   -6309.4717     -6654.99            0    11296.149    23.122609    21.106666    21.319113    10404.605    10817.248    11770.992    11300.208    650.48575   -16.590668   -644.37949   -4595.3884 
36984000    135.06834   -6649.2042   -6301.7492   -6649.2042            0    11326.857    23.172149    21.036653    21.373298    10418.723    10679.029    11984.739    11316.802   -60.883586     175.4626    751.84354   -4580.6742 
36985000    142.17117   -6663.7163   -6297.9896   -6663.7163            0    12183.707       23.139    21.094338    21.244673    10369.565    11641.089    11727.636    13182.396   -816.49768   -472.67426    -268.8753    -4455.454 
36986000    136.50657   -6657.0798    -6305.925   -6657.0798            0     10969.85    22.934973    21.268184    21.352919    10415.638    11734.783    9958.0865    11216.679    704.20003   -907.64272    338.05296   -4639.5895 
36987000    131.67133     -6646.59   -6307.8735     -6646.59            0    11638.861    22.805215    21.339466     21.33707    10383.708     12414.69    11155.765    11346.129   -494.88052   -198.71561   -105.82581    -4545.334 
36988000     135.7791   -6624.0832   -6274.7997   -6624.0832            0    12675.138    22.941565    21.211011    21.298968    10364.372    12358.698    13106.702    12560.013    -122.8436    216.95255    50.846483   -4358.9054 
36989000    132.49065   -6645.5294   -6304.7053   -6645.5294            0    10902.115    23.230859    21.089428    21.277889    10424.581    11813.156      9804.76    11088.428    361.01581   -442.42423    719.25311    -4647.237 
36990000    137.55414   -6641.2404   -6287.3908   -6641.2404            0    11512.471    23.164095    21.027211    21.330441    10389.552    10780.002    11934.233    11823.178    194.61018   -1066.7277   -155.90725     -4543.01 
36991000    130.84643   -6641.6545   -6305.0601   -6641.6545            0    11855.228    23.111278    21.068747    21.356064    10398.816     13022.03    10501.296    12042.357   -364.52724   -1187.4516    707.93172   -4507.1429 
36992000    136.66315   -6649.9595   -6298.4018   -6649.9595            0    12430.015    22.996026    21.128622    21.339887    10368.503    12459.414    12413.968    12416.663   -700.61005    45.481041    -274.0518   -4418.8097 
36993000    140.86369   -6651.7617   -6289.3984   -6651.7617            0    10675.013    22.973203    21.309285    21.287396    10421.086     10955.09    9842.3416    11227.606    124.70847   -147.45597   -851.72706    -4667.001 
36994000    134.45293   -6641.0388   -6295.1669   -6641.0388            0    11286.972    22.955878    21.277846    21.265342    10387.091    11935.383    10368.733    11556.799    859.73511   -622.37081   -288.05892   -4585.3592 
36995000    138.48922   -6628.7521   -6272.4971   -6628.7521            0    11708.518    22.935561    21.199898    21.393414    10402.153    12955.552    11614.128    10555.874   -210.16119   -1290.4483   -539.96321   -4496.2596 
36996000    135.48122    -6659.637   -6311.1198    -6659.637            0     10995.42    23.068273    21.230759      21.2554     10409.98    11699.567    10097.008    11189.686   -382.66944   -613.78835    157.40331   -4641.8074 
36997000    134.04593    -6646.022    -6301.197    -6646.022            0    11043.253    23.124195    21.036979    21.431264    10425.521     11288.63    11102.249    10738.881   -242.16843   -746.96294    164.00255   -4622.1196 
36998000    142.86172     -6659.43   -6291.9269     -6659.43            0    10735.442    23.291232    21.115675    21.170761    10411.994    9502.7462    10517.984    12185.596    15.574657   -712.89937    300.14225   -4661.7688 
36999000    131.74778   -6640.1016   -6301.1885   -6640.1016            0    12154.362    23.061389    21.172594    21.244652    10373.114    11241.931    12782.657    12438.497    417.11427    729.73345     74.45263   -4462.4618 
37000000    139.88976   -6633.0871   -6273.2292   -6633.0871            0    11119.776    23.013705    21.171627    21.406386    10429.996    11482.315    11104.509    10772.505   -840.36728    932.63239    238.01334   -4581.7912 
Loop time of 558.866 on 64 procs for 250000 steps with 1296 atoms

Performance: 77.299 ns/day, 0.310 hours/ns, 447.335 timesteps/s
99.1% CPU use with 64 MPI tasks x 1 OpenMP threads

MPI task timing breakdown:
Section |  min time  |  avg time  |  max time  |%varavg| %total
---------------------------------------------------------------
Pair    | 30.921     | 42.172     | 53.187     | 109.0 |  7.55
Bond    | 0.28007    | 0.2892     | 0.305      |   0.8 |  0.05
Kspace  | 285.69     | 296.63     | 307.93     |  41.2 | 53.08
Neigh   | 2.0515     | 2.0778     | 2.0958     |   0.8 |  0.37
Comm    | 94.203     | 95.537     | 97.539     |   9.6 | 17.09
Output  | 0.56953    | 0.57071    | 0.57236    |   0.1 |  0.10
Modify  | 108.79     | 110.62     | 111.46     |   7.1 | 19.79
Other   |            | 10.98      |            |       |  1.96

Nlocal:        20.2500 ave          27 max          13 min
Histogram: 3 5 9 4 8 7 7 13 4 4
Nghost:        2681.83 ave        2704 max        2653 min
Histogram: 2 2 4 11 10 8 7 6 3 11
Neighs:        6696.42 ave        8980 max        4252 min
Histogram: 3 5 7 6 8 7 10 10 4 4

Total # of neighbors = 428571
Ave neighs/atom = 330.68750
Ave special neighs/atom = 2.0000000
Neighbor list builds = 3520
Dangerous builds = 0

unfix		3
unfix		2
unfix		1

write_data	data.final.${pid}
write_data	data.final.0
System init for write_data ...
PPPM initialization ...
  extracting TIP4P info from pair style
  using 12-bit tables for long-range coulomb (../kspace.cpp:340)
  G vector (1/distance) = 0.37195723
  grid = 30 40 32
  stencil order = 5
  estimated absolute RMS force accuracy = 0.0036001169
  estimated relative force accuracy = 1.0841645e-05
  using double precision FFTW3
  3d grid and FFT values/proc = 5168 640
Last active /omp style is kspace_style pppm/tip4p/omp
WARNING: Not all mixed pair coeffs generated from mixing. Use write_data with 'pair ij' option to store all pair coeffs. (../write_data.cpp:312)

write_restart   restart.lmp.${pid}
write_restart   restart.lmp.0
System init for write_restart ...
PPPM initialization ...
  extracting TIP4P info from pair style
  using 12-bit tables for long-range coulomb (../kspace.cpp:340)
  G vector (1/distance) = 0.37195723
  grid = 30 40 32
  stencil order = 5
  estimated absolute RMS force accuracy = 0.0036001169
  estimated relative force accuracy = 1.0841645e-05
  using double precision FFTW3
  3d grid and FFT values/proc = 5168 640
Last active /omp style is kspace_style pppm/tip4p/omp
Total wall time: 0:09:19
