#include		in.partitions
include		in.temp
variable        temperature equal 115.22
variable	tempDamp equal 100.0
include		in.pressure
variable        pressure equal 1992.6
variable        pressureDamp equal 1000.0 # This is 1 ps
include		in.seed
variable        seed equal 745823

units		real
atom_style	full
#include		in.box
read_restart	restart.lmp.${pid}
read_restart	restart.lmp.0
Reading restart file ...
  restart file = 30 Jul 2021, LAMMPS = 30 Jul 2021
  restoring atom style full from restart
  orthogonal box = (0.16191968 0.14664557 0.037099936) to (18.045653 23.482532 22.176096)
  2 by 4 by 4 MPI processor grid
  restoring pair style lj/cut/tip4p/long/omp from restart
  restoring bond style harmonic/omp from restart
  restoring angle style harmonic/omp from restart
  864 atoms
  576 bonds
  288 angles
Finding 1-2 1-3 1-4 neighbors ...
  special bond factors lj:    0        0        0       
  special bond factors coul:  0        0        0       
     2 = max # of 1-2 neighbors
     1 = max # of 1-3 neighbors
     1 = max # of 1-4 neighbors
     2 = max # of special neighbors
  special bonds CPU = 0.002 seconds
  read_restart CPU = 0.007 seconds
include 	in.setup
variable	out_freq equal 1000
variable	out_freq2 equal 10000
variable	out_freq3 equal 1000

timestep	2.0

neigh_modify    delay 7 every 1

include		in.tip4p
# This is TIP4P/Ice

# create groups ###
group ox type 2
288 atoms in group ox
group hy type 1
576 atoms in group hy

# set charges - beside manually ###
set group ox charge -1.1794
Setting atom values ...
  288 settings made for charge
set group hy charge 0.5897
Setting atom values ...
  576 settings made for charge

# ### TIP3P Potential Parameters ###
pair_style lj/cut/tip4p/long/omp 2 1 1 1 0.1577 8.5
pair_coeff 1 1*2 0.000 0.000
pair_coeff 2 2 0.21084 3.1668
bond_style  harmonic
bond_coeff  1 450 0.9572
angle_style harmonic
angle_coeff 1 55 104.52
kspace_style pppm/tip4p/omp 1.0e-5
pair_modify tail yes

thermo          ${out_freq}
thermo          1000
thermo_style    custom step temp pe etotal epair emol press lx ly lz vol pxx pyy pzz pxy pxz pyz enthalpy

restart 	${out_freq3} restart.lmp.${pid} restart2.lmp.${pid}
restart 	1000 restart.lmp.${pid} restart2.lmp.${pid}
restart 	1000 restart.lmp.0 restart2.lmp.${pid}
restart 	1000 restart.lmp.0 restart2.lmp.0


include         in.dump
dump            myDump all atom ${out_freq2} dump.water.${pid}
dump            myDump all atom 10000 dump.water.${pid}
dump            myDump all atom 10000 dump.water.0
dump            myDump2 all dcd ${out_freq2} dump.dcd
dump            myDump2 all dcd 10000 dump.dcd
dump_modify     myDump append yes
dump_modify     myDump2 append yes


variable natoms 	equal  "count(all)"                        # NUMBER ATOMS
variable H      	equal  "enthalpy/v_natoms"                 # ENTHALPY-per-atom
variable Vol      	equal  "vol/v_natoms"                 # volume-per-atom
fix AVG all 		ave/time ${out_freq} 1 ${out_freq} v_Vol v_H file vol_enthalpy.dat
fix AVG all 		ave/time 1000 1 ${out_freq} v_Vol v_H file vol_enthalpy.dat
fix AVG all 		ave/time 1000 1 1000 v_Vol v_H file vol_enthalpy.dat


timer           timeout 23:50:00 every 1000
New timer settings: style=normal  mode=nosync  timeout=23:50:00

fix 		1 all shake 1e-6 200 0 b 1 a 1
       0 = # of size 2 clusters
       0 = # of size 3 clusters
       0 = # of size 4 clusters
     288 = # of frozen angles
  find clusters CPU = 0.001 seconds
fix             2 all nph aniso ${pressure} ${pressure} ${pressureDamp}
fix             2 all nph aniso 1992.6 ${pressure} ${pressureDamp}
fix             2 all nph aniso 1992.6 1992.6 ${pressureDamp}
fix             2 all nph aniso 1992.6 1992.6 1000
fix             3 all temp/csvr ${temperature} ${temperature} ${tempDamp} ${seed}
fix             3 all temp/csvr 115.22 ${temperature} ${tempDamp} ${seed}
fix             3 all temp/csvr 115.22 115.22 ${tempDamp} ${seed}
fix             3 all temp/csvr 115.22 115.22 100 ${seed}
fix             3 all temp/csvr 115.22 115.22 100 745823


run             250000
PPPM initialization ...
  extracting TIP4P info from pair style
  using 12-bit tables for long-range coulomb (../kspace.cpp:340)
  G vector (1/distance) = 0.37165923
  grid = 24 27 25
  stencil order = 5
  estimated absolute RMS force accuracy = 0.003172167
  estimated relative force accuracy = 9.5528867e-06
  using double precision FFTW3
  3d grid and FFT values/proc = 4410 672
Last active /omp style is kspace_style pppm/tip4p/omp
Neighbor list info ...
  update every 1 steps, delay 7 steps, check yes
  max neighbors/atom: 2000, page size: 100000
  master list distance cutoff = 10.8154
  ghost atom cutoff = 10.8154
  binsize = 5.4077, bins = 4 5 5
  1 neighbor lists, perpetual/occasional/extra = 1 0 0
  (1) pair lj/cut/tip4p/long/omp, perpetual
      attributes: half, newton on, omp
      pair build: half/bin/newton/omp
      stencil: half/bin/3d
      bin: standard
Per MPI rank memory allocation (min/avg/max) = 10.19 | 10.21 | 10.23 Mbytes
Step Temp PotEng TotEng E_pair E_mol Press Lx Ly Lz Volume Pxx Pyy Pzz Pxy Pxz Pyz Enthalpy 
27500000      118.738    -4514.586   -4311.0731    -4514.586            0    1403.6433    17.883733    23.335887    22.138996    9239.3284    1409.9865      1229.54    1571.4035    590.53537    406.52528    312.25949   -4121.9376 
27501000     119.4423   -4534.5829   -4329.8628   -4534.5829            0    2194.7421    17.828684    23.174293    22.178626    9163.4799    2705.8453    1709.4835    2168.8977    583.93367   -689.84129   -285.14794   -4036.5576 
27502000     112.2667   -4524.1059   -4331.6846   -4524.1059            0     3027.207    17.755521    23.304585    22.095898    9142.9522    3707.2438    3078.5099    2295.8672   -6.6879799    422.06773    102.88955   -3928.0351 
27503000    114.96317   -4538.0105   -4340.9676   -4538.0105            0    1520.6069     17.98815    23.340101    21.961876    9220.5892     1557.224    2680.6369    323.95959   -102.93035   -394.77869   -101.66233   -4136.4873 
27504000    107.32672   -4532.0215   -4348.0672   -4532.0215            0    2972.5553    17.762093     23.40409    21.931989     9117.251    2704.7968    2596.3802    3616.4889    466.57916    106.28593   -218.11459   -3952.8191 
27505000    119.86507   -4534.3833   -4328.9387   -4534.3833            0     2023.404    17.825627    23.368442    22.005992    9166.7528    2762.6918    1953.6327    1353.8876   -427.56563   -179.72985    201.07235   -4058.4345 
27506000    120.53203   -4532.0461   -4325.4583   -4532.0461            0     2484.438    17.889344    23.254356    21.963435    9136.9026    2620.6235    3127.6086     1705.082    374.10424   -339.18618      74.0966   -3994.4011 
27507000    116.02322   -4535.6016   -4336.7418   -4535.6016            0    904.80636    17.986074    23.343434    22.008933    9240.5988    635.66669     885.2686    1193.4838   -69.986141    482.00379    566.09206   -4214.8059 
27508000    115.03424   -4523.9748   -4326.8101   -4523.9748            0    1894.8888    17.872522    23.330388    22.004804    9175.4061    2398.9462    1445.9116    1839.8086   -454.68491   -269.03115    448.09569   -4073.2476 
27509000    121.91557   -4529.0214   -4320.0623   -4529.0214            0    1612.6946    17.779208    23.348725    22.144236    9192.5557    3066.1018    648.94766    1123.0343    145.85663   -82.461477    14.717124    -4103.858 
27510000    116.24737   -4529.5338   -4330.2898   -4529.5338            0    3053.3088    17.919243    23.132829    22.028285    9131.2262    2718.2296    3867.5401    2574.1566   -344.20398    164.42143    370.91786    -3923.682 
27511000    114.50751   -4529.0046   -4332.7427   -4529.0046            0    2264.6025    17.807401    23.358867    22.099134    9192.3718    3227.5735    1945.1614    1621.0726   -34.175511    581.73181    422.15034   -4029.1471 
27512000    119.32134   -4518.1491   -4313.6364   -4518.1491            0     2046.439    17.771398    23.446831    22.043963     9185.344    2169.2138    1953.2594    2016.8438   -798.26375   -294.36365    455.51577   -4039.4978 
27513000    115.14001   -4519.8232   -4322.4772   -4519.8232            0    1764.1366    17.878016    23.467714    21.953276    9210.6328    1859.7479    1418.3309    2014.3309    89.073155   -118.03959    334.09571   -4085.5049 
27514000    115.02197   -4542.9582   -4345.8144   -4542.9582            0     1467.055    17.920833       23.341    22.013403    9207.9898    1685.3009    2276.2404    439.62357   -227.95361   -241.76337    463.02724    -4148.805 
27515000     118.8094   -4536.5443   -4332.9091   -4536.5443            0    1758.6011    17.843154    23.278621    22.129446    9191.7758    2501.7545    884.57558    1889.4732    370.71806   -38.864602    109.70963    -4097.164 
27516000    117.86138   -4536.5786   -4334.5682   -4536.5786            0    1944.5538    17.924987    23.348536    21.896235    9164.0601    1736.7186    2559.4626    1537.4804   -51.123318    85.704485   -317.68993   -4074.6817 
27517000    115.76068   -4531.1515   -4332.7416   -4531.1515            0     1499.914    17.923719    23.407226     21.93655      9203.36     1257.362    1933.7052    1308.6749   -133.06895    428.91665   -243.13345   -4131.4208 
27518000    111.32844   -4538.5825   -4347.7693   -4538.5825            0    2185.8139    17.931298     23.30215    21.962322     9176.688     2531.081    2537.1472    1489.2136    737.21154    60.623347    155.61378   -4055.2362 
27519000    108.52523   -4521.5127   -4335.5042   -4521.5127            0    1547.1569    17.856986    23.386919     22.04321    9205.6825    1089.5909    2467.8005    1084.0794   -452.81364   -411.28952    -362.6731   -4127.7899 
27520000    111.57814   -4535.6995   -4344.4584   -4535.6995            0    2203.0598    17.941806    23.370004    21.878996    9173.8647    1413.4238    2837.8463    2357.9094    430.03833    -310.4903    802.65522    -4049.708 
27521000     113.7347    -4538.687   -4343.7496    -4538.687            0    2730.8763    18.050307    23.236566    21.824293     9153.701    1768.9912    2940.1578    3483.4799    319.05865    241.88461   -264.91485   -3979.1849 
27522000    123.36797   -4538.7015    -4327.253   -4538.7015            0    1017.6116    18.055168    23.303354    22.002973    9257.6616    797.19039    1275.7542    979.89011    337.42338   -260.31986    481.09891   -4189.8617 
27523000    113.89687   -4539.4244    -4344.209   -4539.4244            0    3230.5195    17.879151     23.18952    22.034444    9135.6772    3215.0092    3384.4131    3092.1362   -141.70966   -235.80969    209.30239   -3913.7925 
27524000    123.15912   -4519.9241   -4308.8336   -4519.9241            0    2638.7448    17.911642    23.358674    21.900944    9163.1842    2554.4878     2107.188    3254.5587    137.65982   -236.12402    554.55765   -3956.2033 
27525000    120.56281   -4536.6618   -4330.0213   -4536.6618            0    2558.4877    17.997881    23.332664    21.764988     9139.957    2238.8372    2611.4724    2825.1536    5.4741561    156.03931   -260.85989   -3988.9828 
27526000     119.0709   -4521.3481   -4317.2647   -4521.3481            0    2592.2084    18.084327    23.222051    21.813984    9160.8952    2587.3768    2411.1614     2778.087   -389.70946    45.104386     278.2259   -3970.9398 
27527000    125.71875   -4540.1449   -4324.6673   -4540.1449            0    2785.8217    17.941296     23.33058    21.870421    9154.5393    2470.7934    2792.7863    3093.8855     921.5187   -136.36615   -17.523992   -3952.7335 
27528000    113.05608      -4534.8   -4341.0257      -4534.8            0    869.37583    18.020285    23.365659    21.965143    9248.5515    505.12337    1145.9529    957.05125    315.02699   -93.995323    576.48343   -4223.7637 
27529000    107.09762   -4532.6706   -4349.1089   -4532.6706            0    1678.2771    17.726413     23.57651    22.015649     9200.933    2180.4001    1312.1172    1542.3141   -276.69232   -465.39894    139.35202   -4123.9074 
27530000    117.18278   -4525.0626   -4324.2153   -4525.0626            0    2032.2894    17.856941    23.418489     21.98945    9195.6049    2964.5793    2203.8743    928.41472   -119.42332    -51.53249   -19.128574   -4051.6681 
27531000    118.83284    -4525.363   -4321.6876    -4525.363            0    934.89162    18.042036    23.387948    21.897129    9239.8483    393.08702    761.17352    1650.4143   -311.10447   -271.50186   -45.744945   -4195.7075 
27532000    113.76784   -4520.3789   -4325.3847   -4520.3789            0    2794.2484    17.897891    23.288989    21.954316    9151.0815     3174.606    3345.9026    1862.2366    94.962168     310.4445     121.3562   -3952.4667 
27533000    123.43263   -4544.4459   -4332.8865   -4544.4459            0    1752.9821    17.896098    23.248537    22.096029    9193.2323    2133.2221    1967.8718    1157.8525    28.523708    -132.9302    464.12612   -4097.8575 
27534000    108.74122   -4530.7712   -4344.3925   -4530.7712            0    2352.7067    18.036707    23.174981    21.934539    9168.6452     2098.427    2259.7965    2699.8965   -250.79156   -609.30846     388.5987   -4029.7997 
27535000    111.80856   -4542.4025   -4350.7665   -4542.4025            0    2390.3566    17.990804    23.372724    21.822118    9176.0717    2522.4453    1777.0581    2871.5664   -805.96213    373.74876    182.29755   -4030.8804 
27536000    111.35134   -4534.3784    -4343.526   -4534.3784            0    1494.6854    17.917822    23.491249    21.837394    9191.6212    1392.6263    1428.9965    1662.4333   -161.72796    238.07894   -166.89141   -4143.1629 
27537000    118.81808   -4536.6403   -4332.9902   -4536.6403            0     1987.826    17.958405    23.401609    21.885831    9197.6425    1404.6061    1494.3264    3064.5455    665.88716   -318.54013   -221.20478   -4066.3468 
27538000    115.33809   -4531.0836   -4333.3981   -4531.0836            0    2609.2326    18.014394    23.223459    21.885978    9156.1421    2121.4078    3707.1033    1999.1867    78.981643   -131.28615   -350.32865   -3984.9796 
27539000    111.54951   -4523.3415   -4332.1495   -4523.3415            0    1453.4757    17.986362     23.52378    21.780635    9215.5439    951.46779    1210.0354     2198.924   -241.56023   -70.156961   -72.731696   -4136.8034 
27540000     116.2096   -4538.4756   -4339.2963   -4538.4756            0    2197.3788    17.968113    23.372793    21.824504    9165.5276    1725.6063    1722.3352    3144.1951    934.84836   -236.56566    182.73992   -4045.5731 
27541000    119.58442   -4545.8903   -4340.9267   -4545.8903            0    1820.6576    18.023932    23.304108     21.88743    9193.4134    1267.6062    1700.2417    2494.1248   -10.540856   -68.770048    579.45006   -4096.8192 
27542000    117.15883   -4541.1294   -4340.3232   -4541.1294            0    254.39859    18.157443    23.284663    21.916355    9266.0146    -559.2279   -98.780273     1421.204     257.4673   -389.99438    676.32403   -4305.9449 
27543000    110.14506   -4516.5263   -4327.7414   -4516.5263            0    1800.5806    17.936674    23.423237    21.879624    9192.3953    2024.0213    2345.1235    1032.5972    -282.2422    582.32358    292.53816   -4086.3526 
27544000    118.21958   -4536.8615   -4334.2372   -4536.8615            0    1434.9618    17.978361    23.428981    21.907069    9227.5789    947.37917    666.45683    2691.0492    272.18964    62.076055   -634.81245   -4141.1275 
27545000     108.5546   -4541.9316   -4355.8727   -4541.9316            0    970.30055    17.964887    23.270066    22.052438    9218.8917    601.93286    904.62594    1404.3428   -193.40772   -241.03477   -456.66344   -4225.4177 
27546000    117.67888   -4531.2185    -4329.521   -4531.2185            0     2150.357    17.986912    23.195977    22.006815    9181.7713    1517.5089    3066.3855    1867.1765     478.2556   -697.95054   -55.963111   -4041.5737 
27547000    114.27437   -4536.8333   -4340.9709   -4536.8333            0    3028.4117    18.012178    23.130454     21.92619    9135.1052    2843.7126    4238.0246    2003.4979   -358.09089    634.15875   -331.34196   -3937.5073 
27548000    115.48757   -4529.0714   -4331.1297   -4529.0714            0    2517.4513    17.935379    23.348444    21.897228     9169.753    2821.1676    2029.4849    2701.7014    581.45858   -626.94403    735.89175   -3994.4673 
27549000     120.3474   -4534.4315   -4328.1601   -4534.4315            0    2686.0208     17.85875    23.351395    21.982132    9167.1362     2650.324    3709.6236     1698.115   -617.98391    243.58957    389.55727   -3969.0572 
27550000    117.03914   -4542.0539   -4341.4528   -4542.0539            0     1283.127    18.028874    23.187838    22.044704    9215.8023    490.10742    2052.1482    1307.1253    455.67397   -220.75579   -154.96347   -4168.9966 
27551000    117.35317    -4526.586   -4325.4467    -4526.586            0     1475.698    17.958032    23.340664    21.958107    9203.7931    1022.8119    1324.7996    2079.4824    403.00181    479.36489   -183.16972   -4127.3669 
27552000    115.12345   -4534.8235   -4337.5059   -4534.8235            0    1786.3061    17.795961    23.651137    21.865462    9203.0576    1255.6541    926.21972    3177.0445   -170.61715    -329.8501   -262.31579    -4097.753 
27553000    110.74166   -4530.5258   -4340.7184   -4530.5258            0    2526.5806    17.857848    23.276629    22.033949    9158.8627    3361.4964    1982.1577    2236.0877   -285.20938     34.23402   -495.14054   -4003.2364 
27554000    122.21184   -4533.4111   -4323.9442   -4533.4111            0    3321.8648    17.915765    23.218762    21.936308    9125.1067    3159.0822    3532.4823    3274.0298    188.55213    247.39916   -503.58086   -3881.8694 
27555000    109.79056   -4527.1705   -4338.9932   -4527.1705            0     2021.037     17.90294    23.474932    21.856984    9185.8411    2021.8248     1751.842    2289.4441   -228.59493    134.00998   -771.49255   -4068.2429 
27556000    118.66582   -4523.1557   -4319.7665   -4523.1557            0    1283.6575    17.902438    23.583614    21.838776    9220.4229    2068.5016    928.25678    854.21405    245.91308   -21.965186   -36.174495   -4147.1526 
27557000    116.37959   -4531.4693   -4331.9987   -4531.4693            0    2513.0296    17.921283    23.357638    21.876157    9157.3344    1416.9875    2914.0014    3208.0999    -28.27182    60.792079   -222.03163   -3996.3828 
27558000    117.34535    -4536.235   -4335.1091    -4536.235            0    2265.6326    18.133195    23.172317    21.814819    9166.3281    1011.9038    2531.4064    3253.5878    420.19376    388.51293    116.95929   -4032.2359 
27559000    115.64916   -4529.4884   -4331.2697   -4529.4884            0    1211.4518    18.069152    23.298791    21.861689    9203.5392    968.90394    1547.9606     1117.491   -671.32364    9.2496578    150.73673   -4168.6635 
27560000     109.8895   -4538.4231   -4350.0763   -4538.4231            0    1359.3195    17.864255    23.583034    21.806357    9186.8731    1093.0049    1388.0128    1596.9409    359.48521    202.66694    13.463462   -4167.9531 
27561000     112.4872   -4528.1873   -4335.3881   -4528.1873            0    1777.5565    17.986537    23.317101    21.897018    9183.4759     1806.592    1922.5465    1603.5311    171.69385   -694.22878   -206.80142   -4097.3172 
27562000    118.21617   -4527.2112   -4324.5928   -4527.2112            0    2731.9564    18.045528    23.135395    21.894619    9140.7933     2162.012    3254.1603     2779.697   -148.36156    54.646716   -88.668757   -3960.3981 
27563000     116.2704   -4517.5982   -4318.3147   -4517.5982            0    1452.3018    18.041996    23.321227    21.931768    9228.0432     2022.001    1083.7871    1251.1172   -423.64329     -421.157   -4.1050296   -4122.8617 
27564000    113.53912   -4529.7134   -4335.1112   -4529.7134            0    2650.8818    17.942925    23.385944    21.831958    9160.9571    3106.2914     1861.606    2984.7479    650.09825   -257.17055    407.72433    -3980.945 
27565000    113.34018   -4541.0466   -4346.7854   -4541.0466            0    2210.3841    17.932534    23.433697    21.854334    9183.7497      2902.63    1941.7094    1786.8129   -751.50283   -310.24486   -601.83377   -4050.7364 
27566000    114.59377    -4517.419   -4321.0092    -4517.419            0      2198.18    18.180532    23.116954    21.837598    9177.8735     2294.744    2368.2218    1931.5741   -744.50624   -286.67342   -655.27427   -4026.7831 
27567000    110.34845   -4539.8868   -4350.7533   -4539.8868            0    2071.6891    18.060653    23.185134    21.914675    9176.5216    1966.7407    2274.0187     1974.308    531.03394    66.828846   0.84198454   -4073.4988 
27568000    110.37789   -4525.2939     -4336.11   -4525.2939            0    1868.3187    17.845395    23.423303    21.995303    9193.9946    2440.5072      532.589    2631.8601   -367.75956    536.83904   -156.74857   -4085.5965 
27569000    111.34787   -4544.5411   -4353.6946   -4544.5411            0    1548.4391     17.88263    23.399061    21.973061    9194.3359    1867.1575    2154.4229    623.73691   -589.79731    268.95696   -307.85731   -4146.0645 
27570000    115.32246   -4534.0693   -4336.4105   -4534.0693            0    2223.0652     18.02459    23.229022    21.913922    9175.2187    1570.5703    2923.0222    2175.6031    104.22764    95.784504    84.100208   -4038.9396 
27571000    113.53714   -4530.6147   -4336.0159   -4530.6147            0    928.02437    18.103365    23.233135    21.931946    9224.5309    299.07217    1378.6985    1106.3025    995.08871     95.12865    132.45995   -4211.1685 
27572000    125.04604   -4522.5128   -4308.1882   -4522.5128            0    1671.5619    17.906152    23.435224    21.947167    9209.7927    839.63066    1547.8889    2627.1661     609.2693   -154.86567   -85.758486   -4083.6717 
27573000    108.17938   -4538.1178    -4352.702   -4538.1178            0    1562.5171     17.87754    23.472991    21.918563    9197.8911    1568.6901    1056.6673    2062.1938     655.1171   -161.77387    187.90108   -4143.1031 
27574000    109.48298   -4525.9684   -4338.3184   -4525.9684            0    1818.5318    18.068556    23.212161    21.949174    9205.7086    763.41677    2623.3931    2068.7856    249.16521   -437.09444    315.97255   -4094.1699 
27575000    110.05353   -4525.3679   -4336.7399   -4525.3679            0    2231.9498    17.955876     23.22813    21.987835    9170.7174    2500.2053    1721.6774    2473.9669   -360.70176   -499.12145    361.34069   -4038.2266 
27576000    107.59479   -4523.2098    -4338.796   -4523.2098            0    1950.4276    17.839297    23.254296    22.142449    9185.5803    3586.8438    1838.1417    426.29728   -637.44244    146.90007    479.68209   -4077.5123 
27577000     114.5029   -4541.5567   -4345.3027   -4541.5567            0    1516.9515    17.843825    23.241574    22.171638    9194.9903    1626.8727    2054.4184    869.56328     734.3176    241.64859    85.191074   -4141.8802 
27578000    119.56557   -4521.9356   -4317.0044   -4521.9356            0    1641.5762    17.975957    23.294823     22.04756     9232.344    2393.0134    1545.9017    985.81353    552.69781    392.78068    24.560422   -4095.9755 
27579000    115.86574   -4534.9484   -4336.3585   -4534.9484            0    2635.7495    17.859699    23.256926     22.09977     9179.398    3608.1503    1997.6744    2301.4238    172.78659   -488.88453    186.34957   -3983.5052 
27580000    125.49567   -4532.9479   -4317.8526   -4532.9479            0    1795.3451    17.856853    23.399167     21.99916    9192.0299    1458.3647    2386.6128    1541.0577    -127.5116     132.7919    227.69602   -4077.1752 
27581000    111.84073    -4524.083   -4332.3918    -4524.083            0    1964.0376    17.833618    23.482002    21.939316    9187.5065    1989.1939    1793.7702    2109.1489    11.774512    206.51491   -126.67618   -4069.2297 
27582000    111.91278   -4540.2623   -4348.4476   -4540.2623            0    1412.3565     17.94042    23.471549    21.865394    9207.2864    1847.6267    1019.6556     1369.787    1093.6232    210.02854    -72.85344    -4158.798 
27583000    107.68539   -4531.3675   -4346.7984   -4531.3675            0    1576.1377    17.959934     23.31872    21.907338    9174.8516    885.53568     980.9405    2861.9369   -772.77808   -138.96757     198.1239    -4135.902 
27584000    122.72741    -4525.544   -4315.1934    -4525.544            0    1698.7298    17.968761    23.418386    21.856105    9197.0356    1874.5315    1839.8579    1381.7999    92.990453    398.29735   -719.31887   -4087.3439 
27585000    114.88667    -4536.971   -4340.0592    -4536.971            0    1227.2282    18.081764    23.364362    21.853605    9232.4676    835.80218    1497.4941    1348.3883   -227.97156    26.661362    480.80843   -4174.8178 
27586000    110.47651   -4523.0567   -4333.7037   -4523.0567            0    2510.2397    17.962494    23.226551    21.876289    9126.9363    1894.6478    3124.2515    2511.8198   -492.74238    393.45278    8.3909121   -3999.5733 
27587000    119.44259    -4547.473   -4342.7525    -4547.473            0    2303.4588    17.965538    23.267153    21.903355    9155.7537    1899.5262     2602.069    2408.7813   -436.62172    300.92324    22.990428   -4035.1779 
27588000    116.60943   -4520.4769   -4320.6123   -4520.4769            0    1873.7056    17.923215    23.357132    21.939589    9184.6774    1119.1292    2002.9568    2499.0307    95.420792   -714.30066    163.99597   -4069.6312 
27589000    109.13213   -4535.5661   -4348.5173   -4535.5661            0    2541.2124    17.781221    23.478043    21.956512    9166.1471    3164.1236    2059.7344    2399.7792   -395.52205     -259.928    155.28771    -4008.811 
27590000    116.08742   -4532.4212   -4333.4513   -4532.4212            0     1616.856    17.902879    23.304406     22.05636    9202.2655    2091.8154    1522.0354    1236.7173   -428.93904   -285.49813   -746.29495   -4116.4602 
27591000    108.71098   -4534.2597   -4347.9328   -4534.2597            0     1824.823    17.960307    23.105666    22.087537    9165.9933    2776.0084    2870.9745   -172.51396    424.58523   -321.05326    -643.8648   -4103.9966 
27592000    122.56381   -4537.9788   -4327.9086   -4537.9788            0    1864.6672    17.868744    23.465366     21.97129    9212.4877    1652.0417    1767.8177    2174.1422   -969.73318    -470.2378   -73.908257   -4077.3818 
27593000    108.95576   -4533.7106   -4346.9641   -4533.7106            0    1227.4517    17.896888    23.433243    21.938303    9200.5322    2099.9633    449.71373    1132.6782   -121.70689    -91.99975     573.9826   -4182.2643 
27594000    110.73692   -4527.1388   -4337.3395   -4527.1388            0    2088.2237    17.932528    23.303332    21.940828    9168.8009    1880.9115    2865.7676    1517.9921    73.988309   -22.596664   -48.043107   -4058.1073 
27595000    113.40738   -4538.1229   -4343.7465   -4538.1229            0    2004.4504    17.957403    23.285361    21.951102    9178.7348    2494.2405    1474.0657    2045.0451   -92.730868   -23.288132    -62.81141   -4075.4259 
27596000    123.37551   -4538.6129   -4327.1515   -4538.6129            0    2042.3193    17.967425    23.178748    22.007348    9165.2333    1265.4942    2702.5313    2158.9323    408.24909   -538.13591    145.64033   -4054.1638 
27597000    121.87257   -4540.8443   -4331.9589   -4540.8443            0    2544.3919    17.890331    23.223942    22.001147     9141.125     2816.207    2584.8125    2232.1562   -266.61582   -432.70675    224.52014    -3992.756 
27598000    116.08736   -4548.3718   -4349.4021   -4548.3718            0    2033.1831    17.906115    23.350411    21.935466    9171.5505    1947.5677    830.91514    3321.0663   -600.08375   -492.36266    182.18318   -4077.4483 
27599000    114.50303   -4525.7248   -4329.4705   -4525.7248            0    2842.2067    17.886061    23.235247    21.981118    9135.0678    3067.6455    2857.1131    2601.8616    540.43227   -407.01615     118.9552   -3950.8158 
27600000    115.05213   -4543.7035   -4346.5081   -4543.7035            0    2115.5851    18.014466     23.16446    21.998433    9179.8447    1211.9309    2704.1883    2430.6363   -53.365071   -194.61407     413.5422   -4063.2765 
27601000    112.43728    -4544.945   -4352.2313    -4544.945            0    2245.2351    17.996909     23.35616    21.844443    9182.0649    1511.5602    2629.0208    2595.1242    94.844789    132.75697   -437.08304   -4051.5697 
27602000    119.38119   -4531.0345   -4326.4192   -4531.0345            0    2746.2358    17.802321    23.491514    21.891083    9154.9267    2732.6237     2484.592    3021.4916   -396.23759    73.697747    69.457735   -3959.7549 
27603000    116.21727   -4528.2692   -4329.0768   -4528.2692            0     1694.715    17.928143    23.284457    22.025624    9194.5321    3299.9582     1486.972    297.21469    96.007479   -231.49665    253.72592   -4101.8277 
27604000    118.74754   -4540.3412    -4336.812   -4540.3412            0      1942.41    17.997964    23.035366    22.104521    9164.3064    2543.0047    2157.7934    1126.4318   -167.26364    76.162783    235.14456    -4077.205 
27605000    123.00156   -4535.0914   -4324.2709   -4535.0914            0    2481.2114     17.85166    23.383522    21.929647    9154.1953    2759.4774    1874.4495    2809.7074   -474.37478    147.58411      90.3898   -3993.0179 
27606000    112.72034   -4539.4048    -4346.206   -4539.4048            0    1762.4627    17.878154     23.57083    21.767428    9172.8579    2276.4965     1513.164    1497.7276   -552.04664    160.31624    359.96132   -4110.4296 
27607000    117.50826   -4548.4457   -4347.0406   -4548.4457            0    2232.3575    18.030546    23.313918    21.844472    9182.6007    2535.7642    1960.2592    2201.0491    524.70421   -172.09162   -250.11694   -4048.0859 
27608000      114.615   -4531.6478   -4335.2016   -4531.6478            0    1737.7533    18.100875    23.229463    21.871483    9196.3812    1319.3249    1553.7271    2340.2079   -16.260623   -113.49927    411.73366   -4102.1345 
27609000    113.17118   -4533.8961   -4339.9246   -4533.8961            0    2565.3663    17.873909    23.409795    21.867072    9149.7197    2829.8154    2402.8214     2463.462    595.17834   -62.879867    102.33185    -3997.604 
27610000    113.79488    -4536.848   -4341.8074    -4536.848            0    1937.6073    17.888188    23.479198      21.8426    9173.8985    2318.1334    2002.7504     1491.938    554.45024   -439.18962   -368.62544   -4082.5713 
27611000    114.16591   -4526.8573   -4331.1809   -4526.8573            0    2533.5774    17.949821    23.304109     21.87065    9148.5931    2379.8415    2724.4551    2496.4357   -441.99692    234.35706    -346.6776   -3993.1438 
27612000    119.30319   -4537.2289   -4332.7473   -4537.2289            0    2547.6102    17.997161    23.244627    21.861252    9145.3768    3078.6548    1255.4915    3308.6843    207.60512    173.51084   -49.860631   -3992.9574 
27613000    111.34289   -4526.8668   -4336.0289   -4526.8668            0    1953.7331    18.033889    23.339646    21.762001    9159.7262    1686.2219    1475.2936    2699.6839    109.69562    932.26456    86.355528   -4075.0391 
27614000     123.6317   -4528.8014   -4316.9009   -4528.8014            0     2548.755    17.789053    23.531382    21.914509    9173.4351     2968.373    2605.8615    2072.0305    382.30158   -356.99295   -313.74829   -3975.9154 
27615000    123.75636   -4537.4535   -4325.3394   -4537.4535            0     1617.837    17.931319    23.358685    22.003402    9216.1694    2551.7266     1954.132    347.65249   -739.86237   -234.67345    191.50002   -4107.8885 
27616000    112.06824   -4537.5436   -4345.4625   -4537.5436            0    1832.5409    18.063217    23.265961    21.903701     9205.208    2107.2796    1960.4019    1429.9413    303.84982   -118.77292   -54.173445   -4099.4466 
27617000    110.58481   -4543.6663   -4354.1277   -4543.6663            0    1574.5899    18.039124    23.435848    21.813581    9221.9573     1928.784    1183.0306     1611.955   -96.406252   -624.15907    47.184116   -4142.3567 
27618000    112.15068   -4537.1758   -4344.9534   -4537.1758            0    689.51111    17.918797    23.615731    21.852352    9247.1616     596.0768    411.71865    1060.7379   -160.52079    25.517349    131.14571   -4251.9657 
27619000    120.52568   -4533.0236   -4326.4467   -4533.0236            0    2867.7393      17.9581    23.133917    21.979898    9131.3553    2139.6175    3145.2972    3318.3032   -377.65818   -358.44351    394.98787   -3944.5457 
27620000    114.97937   -4539.9964   -4342.9257   -4539.9964            0     2166.097    18.035589    23.210197    21.961595    9193.3341    1429.6596    2738.6243     2330.007   -64.670704    287.42719    199.57889   -4052.5055 
27621000    114.18095   -4538.8769   -4343.1747   -4538.8769            0    1860.9392    17.922993    23.423239    21.865839    9179.5973    2363.9926    1560.2145    1658.6105    84.614129   -223.87674   -279.53889   -4094.0414 
27622000    120.61554   -4531.9885   -4325.2576   -4531.9885            0     1268.929    17.997411    23.398594    21.905443    9224.6911    1326.9545    682.74673    1797.0858    235.38129    281.38685    207.87289   -4154.5452 
27623000     107.9775   -4539.7663   -4354.6966   -4539.7663            0    2040.8164    18.074369    23.242541    21.877287    9190.5229    1492.0776    2301.9545    2328.4172    -145.3279    -61.01684   -327.75893   -4081.1571 
27624000    118.49966   -4530.6125   -4327.5081   -4530.6125            0    1107.5363    17.888692    23.461576    22.035934    9248.4134    1099.5388    1038.7921     1184.278   -743.11302   -105.23901   -205.69825   -4178.1252 
27625000    118.86131   -4519.7135   -4315.9892   -4519.7135            0    1551.5559    17.713217    23.598678      21.9411    9171.5666    1255.0335    847.58154    2552.0527   -9.2410974     221.1009   -77.695911   -4108.4564 
27626000    112.85216   -4528.4549   -4335.0302   -4528.4549            0    2155.7832    17.986488    23.252041    21.958399    9183.4979     2572.308    1792.5712    2102.4705   -460.75623    10.646363   -170.70525   -4046.3021 
27627000    120.63469   -4538.1879   -4331.4242   -4538.1879            0    1966.0408    18.033496    23.107245    22.056606    9191.0849    1897.5639    3230.7832    769.77529   -385.47014    -417.0952      212.629   -4067.8911 
27628000    111.90651   -4524.7989    -4332.995   -4524.7989            0    1567.8987    17.983894    23.266648    21.978866    9196.5056    472.12141    1982.6909    2248.8836    1221.9897   -151.87464    273.30852   -4122.7059 
27629000    118.38627   -4527.1676   -4324.2576   -4527.1676            0    2174.6965    17.804416    23.516223    21.903046    9170.6441    3553.6616     523.6275    2446.8003   -149.26466    11.997494   -124.66964    -4033.404 
27630000    114.14369   -4541.8088   -4346.1704   -4541.8088            0    1763.8761    17.850734    23.306041    22.090333    9190.2396    1271.4153    2276.8749     1743.338   -688.63256   -155.53672   -200.59213   -4109.7577 
27631000    111.90593   -4536.9881   -4345.1852   -4536.9881            0    2545.3973    17.947963     23.09841    22.091427    9158.4301    1783.0925    3176.6042    2676.4952    185.02462   -164.46982    459.36331   -4005.2058 
27632000    118.09348   -4526.2961   -4323.8879   -4526.2961            0    1631.5762    17.889182    23.352329    22.043072     9208.583    1205.9248    1406.0702    2282.7338    402.26728    51.705658    5.0277488    -4104.771 
27633000    112.23234   -4533.7788   -4341.4164   -4533.7788            0    2881.2201    17.784025    23.345345    22.020959     9142.534    3316.4029    3162.9815    2164.2759   -112.89809   -287.63589    175.69138   -3957.2505 
27634000    111.87736   -4540.2669    -4348.513   -4540.2669            0    1871.5968    17.958088    23.283531      22.0144    9204.8303    589.67797    2330.1771    2694.9355    583.49833    21.463708    201.39904   -4097.2642 
27635000    110.11888   -4542.4427   -4353.7027   -4542.4427            0    1080.4524    18.032228    23.128696    22.090951    9213.2946     263.2699     1890.881    1087.2064    657.87647   -388.24659   -0.4364118   -4208.5261 
27636000    117.45124   -4535.4498   -4334.1424   -4535.4498            0    2047.5641    17.888075    23.302024    21.972239    9158.6521    1596.2078    2819.2491    1727.2354   -337.44258    86.600816    105.49906   -4060.6502 
27637000    110.05089   -4533.2399   -4344.6165   -4533.2399            0      1356.35    17.809635    23.556755    21.965548    9215.3648    2461.3304    962.04335    645.67622   -728.24165    161.00904    213.46061   -4162.3276 
27638000    115.23835   -4530.5221   -4333.0075   -4530.5221            0    1691.5583    17.884152    23.428563    21.974857    9207.4648    1987.2527    1292.4284    1794.9937   -333.27041   -26.192516    88.026876   -4105.8626 
27639000    108.07118    -4541.159   -4355.9287    -4541.159            0     2181.987    17.836927    23.142585    22.173453    9153.0371    2544.0031    3076.0961    925.86187   -133.28597    315.11978    397.66449   -4064.6604 
27640000    113.93544   -4529.4581   -4334.1767   -4529.4581            0    2217.6618    17.836517    23.301113    22.092291    9181.7922    2484.2839    2147.7776     2020.924    530.90881    311.77939     143.4689   -4037.2162 
27641000    113.52132   -4543.2119   -4348.6403   -4543.2119            0    2221.7246    17.828124    23.329346    22.027705    9161.7294    2719.0013    2658.3517    1287.8208    3.1511096   -811.29547     828.2761   -4051.7858 
27642000    113.02836   -4537.5274   -4343.8007   -4537.5274            0    2256.4445    17.822968    23.301797     22.08988    9174.0858    2726.5849    2098.4689    1944.2796   -138.91538    271.33272   -284.29728   -4041.9006 
27643000    113.04824   -4537.0584   -4343.2976   -4537.0584            0    2295.1513    18.015791     23.02815     22.09745    9167.5769    1888.5027    2125.6449    2871.3062    -256.3874    241.82582    505.46034   -4036.4365 
27644000    114.26283   -4536.8122   -4340.9696   -4536.8122            0    2265.1522    17.912656    23.326717    21.956834    9174.5193    2683.4966    2595.0574    1516.9028   -660.10618    273.22731     523.4859   -4037.8901 
27645000     116.1921    -4524.625   -4325.4757    -4524.625            0    1509.4032    17.756323     23.53401    22.082003    9227.5714    1589.4314    950.78424     1987.994    -99.22264   -244.95124    557.01709   -4122.3483 
27646000    104.68297   -4522.1344   -4342.7114   -4522.1344            0    2405.7382    17.897597    23.313753    22.042979    9197.6571     2466.403     2502.349    2248.4624   -657.05909   -23.370361    -236.6155   -4020.0095 
27647000    106.56769   -4533.2991   -4350.6457   -4533.2991            0    2250.3218    17.924136    23.242425    22.070452    9194.5585    2771.0704    2131.6407    1848.2542    483.10737   -173.09699    26.520368   -4048.8929 
27648000    110.69984   -4543.9866   -4354.2508   -4543.9866            0    1488.6029    17.993385    23.186423    22.069387    9207.3977    1417.9381    2371.2392    676.63157    9.2276207    301.43323   -56.011958   -4154.3605 
27649000    120.12157   -4525.1342   -4319.2499   -4525.1342            0    1876.2886    17.857132    23.446545    21.965401    9196.6505    3074.4318    1434.6854    1119.7485   -436.13717   -157.31109    232.74332   -4067.5951 
27650000    109.87173   -4528.9336   -4340.6173   -4528.9336            0    2136.9169    17.807269    23.411811    22.043453     9189.925    3682.4877    1412.7723    1315.4906    737.46334   -127.73013     208.1926   -4054.2156 
27651000    120.16242   -4531.6455   -4325.6912   -4531.6455            0    1999.8519    17.813763    23.285058    22.159306    9191.5587    2922.0015    2140.2705    937.28377    78.453872    166.52262   -399.70811   -4057.6121 
27652000    110.69159   -4544.0961   -4354.3745   -4544.0961            0    1638.5819    17.885828    23.284867    22.097996    9203.1334    2762.6225    484.48368    1668.6395   -547.97087   -414.81461    134.27956   -4134.4469 
27653000    112.59807   -4526.0907   -4333.1015   -4526.0907            0    2969.1444    17.738774    23.364204    22.049615    9138.5143    3551.1332    3394.5333    1961.7668    -156.0233    3.6463367    75.443022   -3937.3862 
27654000     113.6781   -4543.7956   -4348.9552   -4543.7956            0    2058.5819    17.962421    23.239896    22.020087    9192.1708    1807.4266    2545.8241     1822.495    326.95476   -42.397222    87.917415    -4072.985 
27655000     120.6488   -4546.8655   -4340.0776   -4546.8655            0    2528.3952    17.922438    23.289028    21.927813    9152.5848    3470.4983    1430.0235    2684.6637    1090.6657   -345.10039    152.36559   -4002.5847 
27656000    109.17601   -4542.5532   -4355.4293   -4542.5532            0    1838.9563    17.890868    23.433162    21.937736    9197.1681    1558.4139    1757.0118    2201.4431    523.79485   -430.15332    13.369602   -4108.7677 
27657000    106.97446   -4524.8674   -4341.5168   -4524.8674            0    1983.0215    17.998682    23.304775     21.88425    9179.4635    2177.3561    2601.9478    1169.7606    447.80982    231.62287    276.82651   -4076.0436 
27658000    114.25099   -4541.6546   -4345.8323   -4541.6546            0    1634.2767    18.042166    23.324204    21.869578    9203.1376      1321.92    2101.9015    1479.0086    541.44055   -542.10514   -575.04224   -4126.4824 
27659000    112.69701   -4529.7507   -4336.5919   -4529.7507            0    2216.6601    18.120734    23.255394    21.750335    9165.6958    1523.3192    2595.1829     2531.478   -482.77133    429.31333     27.26958   -4040.2859 
27660000    119.10061   -4527.3125   -4323.1781   -4527.3125            0    2942.1768    17.858226    23.570973    21.770041     9163.789    2835.3288    1938.2269    4052.9749    -156.0944   -482.24427   -61.093118   -3929.9724 
27661000    116.10986    -4550.344   -4351.3357    -4550.344            0    1846.2872    17.863124     23.47235    21.894184    9180.0017    2606.8818    1036.0515    1895.9283    407.10779    16.896994   -5.9152258   -4104.1531 
27662000    114.73561   -4536.4636   -4339.8107   -4536.4636            0    2460.9337    17.916975    23.168869    21.961081    9116.3972    2553.4021    2046.9852    2782.4139    -73.22998   -116.70436   -140.88392   -4012.6214 
27663000     114.0655   -4530.9122   -4335.4079   -4530.9122            0     2359.417    17.990697    23.262673    21.873676    9154.3895    2010.7111    2554.7351    2512.8048    224.26857   -125.64417     896.3774   -4020.4083 
27664000    117.46388   -4544.6056   -4343.2765   -4544.6056            0    2712.9919    17.973724    23.449127    21.705358    9148.1169    1847.7273    2266.2433     4025.005   -645.50558    377.40055    89.407103   -3981.3203 
27665000    114.20283   -4533.5364   -4337.7967   -4533.5364            0    2379.7076    17.973654     23.18606    21.975171    9157.8941    1316.0255    4071.8846    1751.2127   -1100.2011    83.725191     717.8428   -4019.9665 
27666000    115.79436   -4528.9742   -4330.5067   -4528.9742            0    1645.3228    17.963705    23.152025      22.0849    9185.0251    885.68746    1369.1607    2681.1201   -224.54632   -338.89654    125.10238   -4110.1088 
27667000    111.98809   -4543.0292   -4351.0855   -4543.0292            0    2270.9409    17.908467    23.311553    22.003762    9186.0023     1811.898    2292.1304    2708.7943    113.24154   -78.677445   -448.53011   -4046.8511 
27668000    116.16905   -4518.8657   -4319.7559   -4518.8657            0    1088.9441    17.910813     23.52261    21.966822    9254.8213    1773.3575    1320.3008    173.17388    1.2189719   -68.636584    352.29892   -4172.7789 
27669000    119.18258   -4527.5721   -4323.2973   -4527.5721            0    1827.7165    18.010388    23.255453    21.987266     9209.141    1150.0197    1684.7177     2648.412    206.15596    1.5565847    303.10365   -4077.8242 
27670000    117.18438   -4535.2106   -4334.3606   -4535.2106            0    2936.0331    17.849641    23.276186    21.984091    9133.7645    3463.9899    2553.5705    2790.5388   -229.28338   -138.38688    209.77351   -3943.2617 
27671000    115.47969   -4534.6154   -4336.6871   -4534.6154            0    2110.2942    17.917465    23.376837    21.931939    9186.2729    2902.5776    2557.3265    870.97846    149.56209   -212.78619   -50.838071    -4053.966 
27672000    115.70846   -4536.6747   -4338.3544   -4536.6747            0     1659.175    17.949495     23.14167    22.110303    9184.2059    2023.5675    1789.7308    1164.2267    275.87459   -848.72247   -112.72763   -4116.1208 
27673000    111.30769   -4531.3068   -4340.5293   -4531.3068            0    1939.8491    17.791631     23.29956    22.150388     9182.159    1939.0583    1788.9397    2091.5495   -278.43457    239.86791   -256.43809   -4080.7595 
27674000    114.21947    -4541.705   -4345.9367    -4541.705            0    1596.1288    17.913863    23.367414     22.01318    9214.7318    1579.3006    1544.3827    1664.7032    582.93372   -154.54681    606.57792   -4131.4371 
27675000    115.18826   -4524.9154   -4327.4866   -4524.9154            0    2194.9524    18.115301    23.097512    21.985944    9199.3233    1777.0136    2709.8377    2098.0058    560.93746    425.41571   -15.533493   -4033.0059 
27676000    115.49309   -4541.6866   -4343.7354   -4541.6866            0    2647.3459    18.035707    23.222226    21.907831     9175.641    2167.0257     2277.623     3497.389   -514.73158   -768.73434     405.9504   -3989.4747 
27677000    114.55618   -4518.8178   -4322.4725   -4518.8178            0    870.49753    17.937309    23.413731    21.957196    9221.5685    1316.1685    1064.8438    230.48026    56.005691     188.8303    192.98456   -4205.4018 
27678000    116.92388    -4525.965   -4325.5615    -4525.965            0    2920.8983     17.91393     23.26277    21.927779    9137.9115      2347.76    3254.8681    3160.0668   -313.72031   -685.27976   -823.51732    -3936.302 
27679000    107.63095   -4523.5705   -4339.0947   -4523.5705            0    2036.7527    18.051093    23.110711    21.992758    9174.7979    2530.0584    2408.2472    1171.9525    -905.1511   -227.17484   -374.34463    -4066.567 
27680000    115.98174   -4538.8611   -4340.0724   -4538.8611            0    2095.1868    17.891628    23.265859    22.064387     9184.612    3632.2612    1706.4665    946.83275    116.10526    405.00047    210.08695    -4059.426 
27681000    111.58147   -4522.6021   -4331.3553   -4522.6021            0    1879.1311    17.888404    23.380247      22.0458    9220.3321    1416.3826    2289.7208    1931.2901    88.635887   -140.61958    629.99458   -4078.6702 
27682000    120.59491   -4528.2625   -4321.5669   -4528.2625            0    3227.7785    17.796778    23.365979    22.002786      9149.62    3229.6631     2536.708    3916.9643    236.00418   -360.89492     227.0881   -3890.8592 
27683000    107.62608   -4526.9793   -4342.5119   -4526.9793            0    2333.2784    17.936599    23.241521     22.00745      9174.33    2235.8284    2409.3796    2354.6272    441.28999    257.19884   -205.70172   -4030.3235 
27684000    111.96179   -4539.4116    -4347.513   -4539.4116            0    1234.2484    17.892242    23.517657    21.905245    9217.3678    1219.8682    1030.2519     1452.625    139.87913   -379.27651   -129.87302   -4181.5981 
27685000    118.66896   -4531.6905    -4328.296   -4531.6905            0     2242.285    17.917041    23.481392    21.811276    9176.3756    1902.0807    1874.2926    2950.4816   -124.86963    354.04285    713.57618   -4028.2154 
27686000    116.71657   -4528.3583   -4328.3101   -4528.3583            0    1709.9338     17.93144     23.40669    21.955682    9215.1436    1839.5028    1671.8208    1618.4777    93.579786     449.6832   -10.880493   -4098.5063 
27687000    113.00506   -4539.1053   -4345.4185   -4539.1053            0    2035.4978    17.826163    23.435375     21.97637    9180.9104    2702.1925    1759.4198    1644.8811    42.003354   -244.45164    386.34144   -4072.8773 
27688000    121.62214   -4533.0052   -4324.5491   -4533.0052            0    1071.8686    17.994365    23.328461    22.009692     9239.247    913.58649    584.43935    1717.5799    226.88181    443.92549   -63.462117   -4180.1202 
27689000    112.79492   -4541.8631   -4348.5365   -4541.8631            0    1416.5071    17.977048    23.369617    21.916319    9207.4119     1305.009    1892.7634    1051.7489    254.90195   -192.59175   -263.89217    -4158.327 
27690000    116.72832   -4517.3004    -4317.232   -4517.3004            0    3275.9364     17.83707    23.355923    21.934679    9138.0141    3649.1588     3631.442    2547.2082    541.78845   -582.81585   -379.90447   -3880.6527 
27691000    114.78638   -4528.0363   -4331.2963   -4528.0363            0    1776.7726    17.975118    23.272201    21.940459    9178.1453    1287.8466    2169.1347    1873.3366   -482.37542    382.24789   -240.41693   -4093.4685 
27692000    112.82267   -4524.1035   -4330.7293   -4524.1035            0    1472.1191    18.198866    23.090009    21.925651    9213.4211    448.36862    2542.1614    1425.8273    550.37724    120.15218   -171.77384   -4132.9232 
27693000    115.60475   -4532.3422   -4334.1996   -4532.3422            0    2679.4629    17.914955    23.325746    21.879694      9143.08     1305.393    3260.5022    3472.4934   -698.07474   -1053.6029    491.85407   -3976.9135 
27694000    118.25259   -4526.6312   -4323.9503   -4526.6312            0    2114.4843    17.920995    23.470584    21.824946    9179.9258    2777.6915    1706.1222    1859.6391   -807.18792   -512.93605    275.41602   -4040.8636 
27695000    114.67676   -4533.4156   -4336.8636   -4533.4156            0    2240.2149    18.031116    23.159913    21.970377    9174.8094    1360.4877    2986.1948    2373.9622   -87.385787   -172.18498    453.11654   -4037.1112 
27696000    114.39319   -4532.8733   -4336.8073   -4532.8733            0    2269.5212    17.936375    23.325262    21.917898     9169.805    2810.0288    1780.8888     2217.646   -53.970247   -134.07924   -76.623214   -4033.2993 
27697000    114.45803   -4527.6402   -4331.4631   -4527.6402            0    2420.1357    17.965783    23.280922    21.879374    9151.2668    2726.1679     1649.522    2884.7171   -1069.2253    330.88781    644.31184   -4008.4673 
27698000    113.64106   -4526.7484   -4331.9715   -4526.7484            0     1813.604    17.864095    23.511054    21.859445    9181.0478    1686.7885     1778.041    1975.9826   -228.66134   -115.79488   -42.254215   -4089.1369 
27699000    121.53081   -4537.1729   -4328.8733   -4537.1729            0    2279.6377    17.921398    23.424902    21.886114    9187.9439    1512.3337    2591.1284    2735.4509    37.697049   -413.28456    443.30092   -4023.4092 
27700000    110.01968   -4524.7479   -4336.1779   -4524.7479            0    3064.9539    17.904664    23.189543    22.020243    9142.8263    2259.5957    4146.0318    2789.2343   -400.57822   -291.14886   -315.33746   -3927.5008 
27701000    109.66553   -4523.2954   -4335.3324   -4523.2954            0    2325.2154    17.821143    23.234322     22.15219    9172.3835     1950.877    3254.1505    1770.6187    127.80672   -509.03505   -1047.5751   -4024.2888 
27702000    118.72441   -4537.0142   -4333.5247   -4537.0142            0    1958.6035    17.852318    23.337807    22.009974    9170.1022    1883.6184    1983.7018    2008.4903    -420.0314    575.37685    338.87444   -4071.5878 
27703000    106.71957    -4527.499   -4344.5853    -4527.499            0    1885.0287    18.081995    23.074461    22.047465    9198.9143    1285.9588    3268.8935    1100.2337    752.73639    175.82513     239.2805    -4091.696 
27704000    112.28274   -4537.9042   -4345.4555   -4537.9042            0    1500.2692     17.92383    23.320227    22.011958    9200.7296    1896.1632       236.31    2368.3343    233.54464     421.7739   -107.55193   -4144.1445 
27705000     109.1389   -4536.8725   -4349.8121   -4536.8725            0    2224.0223    17.887539    23.339263    22.012155    9189.6782    1414.2114    2618.7461    2639.1096   -142.83353    167.70288    656.42904   -4051.7441 
27706000    111.60887   -4536.7422   -4345.4484   -4536.7422            0    2103.9994    17.856132    23.312886    22.042135     9175.655    2514.1261    2185.9939    1611.8782     75.94868   -340.35504    321.36308   -4063.8964 
27707000    116.65128   -4540.1782   -4340.2419   -4540.1782            0    1542.3093    17.861186     23.27781    22.106513    9191.2092    1464.6157    1538.1545    1624.1577    525.31302    15.254972    245.57739    -4133.504 
27708000    115.86713   -4527.4111   -4328.8188   -4527.4111            0    3088.7522    17.790915    23.399383    21.924964    9127.2841    3657.8176    2742.7444    2865.6946   -660.57266    197.56346    155.28238   -3917.6685 
27709000    117.03886   -4538.3906     -4337.79   -4538.3906            0    2437.3035    17.889317    23.276289    21.981529    9153.0411      3444.71     3140.423    726.77743    255.63072   -226.57163   -179.55094   -4012.4399 
27710000    117.75259   -4525.3864   -4323.5625   -4525.3864            0    1551.7339    17.869255    23.425533    22.042038    9226.7267    1421.8249    2501.9539    731.42301    564.86592   -204.11989    448.48112   -4114.7575 
27711000    120.11136   -4548.8942   -4343.0274   -4548.8942            0      1219.85    18.021817    23.264368    21.982946    9216.7057    758.42423    1565.0351    1336.0906   -595.22323   -330.57761    951.63151   -4179.0598 
27712000    117.53492   -4534.5005   -4333.0497   -4534.5005            0     1037.341     17.87911    23.419046    22.027474    9223.1613    1223.5149    385.75791    1502.7501    72.272799   -558.25025   -110.27386   -4193.5166 
27713000     115.3832   -4525.3629   -4327.6001   -4525.3629            0    2793.2682    17.845348    23.466801    21.838572    9145.4098    3284.5885    2448.3772    2646.8387    -24.06171    687.14735    368.52812    -3955.044 
27714000    110.03098   -4528.5959   -4340.0065   -4528.5959            0    1427.1523    17.916113    23.451473    21.870093    9188.9215    1576.1511    175.99237    2529.3135   -196.14386    63.909267    258.39006   -4148.7524 
27715000     107.5554    -4544.728   -4360.3818    -4544.728            0     1783.026      18.0293    23.110919      22.0029    9168.0299    1242.9772    1833.3579     2272.743    -25.84741   -304.70771   -480.41441   -4121.9799 
27716000    109.79891   -4533.9997   -4345.8081   -4533.9997            0     940.0241    17.966435    23.283678    22.085926    9239.0878   -419.64066    1761.7465    1477.9664   -396.64622   -71.302828    148.19225   -4219.1468 
27717000    110.00171   -4538.4689   -4349.9297   -4538.4689            0    2222.4979    17.714486    23.472315    22.067965    9175.8596    2859.9465    1998.0785    1809.4688    271.16968    93.199273   -21.128748    -4052.514 
27718000    117.08989   -4535.0394   -4334.3513   -4535.0394            0    2361.0473    17.954141    23.251827    22.014609    9190.3634    1559.1646    2273.0742    3250.9029    480.66904    375.14718    310.19123   -4017.8954 
27719000    119.18668   -4533.9037   -4329.6218   -4533.9037            0    1893.3555     17.96274    23.224195    22.057182    9201.5989    1883.7757     2441.073    1355.2179   -52.441979   -163.32856   -418.63813   -4075.5413 
27720000    113.36522   -4541.8971    -4347.593   -4541.8971            0    3166.9646    17.844079    23.377517    21.956011    9158.9556    3290.1542    3341.1614    2869.5781    2080.2277    154.14854    194.72461   -3924.5689 
27721000     115.8008   -4537.6514   -4339.1728   -4537.6514            0    1655.7273    17.973752    23.521848     21.81959    9224.7964    781.13397    2178.6379      2007.41   -668.89246   -76.784548   -195.03001   -4116.4208 
27722000    109.65719   -4534.0754   -4346.1267   -4534.0754            0    2217.7607    18.020556    23.236694    21.956442    9193.9997     2194.176    2853.2274    1605.8788   -447.95498    355.27402    347.06647   -4048.7582 
27723000    111.14425    -4531.495   -4340.9976    -4531.495            0    2656.3802    17.954779    23.199161    21.984544    9157.3501    1920.0617     3046.991    3002.0878    450.41778    665.79385    452.34884   -3986.2365 
27724000    116.36524   -4537.3769   -4337.9309   -4537.3769            0    1737.8683    18.015005    23.203087    22.041008    9213.2234    984.90991    2061.9397    2166.7553   -748.63758    117.86311    755.30634   -4104.4215 
27725000     111.1156   -4536.0989   -4345.6506   -4536.0989            0    2427.2683     17.77179    23.493699     21.95881     9168.354    4048.3868    2164.7915    1068.6268   -668.84249    287.00097    141.24245    -4021.098 
27726000    116.63658   -4533.8116   -4333.9005   -4533.8116            0    3052.1594    17.863036    23.361525    21.867064    9125.2957     3000.056    2541.4437    3614.9785    461.75934    748.65232    120.27457   -3927.7097 
27727000    119.08869   -4514.7158   -4310.6019   -4514.7158            0    2100.1355    17.986919    23.313147    21.959636    9208.3711     2694.444    1681.0349    1924.9275    133.26151   -232.29763   -441.56043    -4028.565 
27728000    123.67362   -4536.6561   -4324.6838   -4536.6561            0    2394.1513    17.939136    23.310306    21.934803     9172.405    2257.5919    2653.2324    2271.6295   -739.00388    412.00224     96.79252   -4004.4179 
27729000    113.25182   -4517.7496   -4323.6398   -4517.7496            0    4818.0144    17.843149    23.305608    21.818844    9073.2665    4582.4494    4390.2852    5481.3086   -77.209139    389.85596   -360.87328   -3686.0995 
27730000    121.65578    -4530.469   -4321.9551    -4530.469            0    2686.3892    17.961558    23.284464    21.897042    9157.8958     2433.512    2910.1621    2715.4933    399.55748    474.71915    116.13632    -3963.165 
27731000    116.29135   -4527.0126   -4327.6932   -4527.0126            0    1736.6087    18.052839    23.192247    21.897345    9168.1098    1563.0328    2052.6632    1594.1302    1014.0594   -568.84436    63.367225   -4095.4956 
27732000    111.66605    -4524.959   -4333.5672    -4524.959            0    1695.7733    18.041182    23.326821    21.834772    9189.0203    1716.4698    1943.1103    1427.7399   -589.09189     768.3203    145.22564   -4106.3125 
27733000    116.31314   -4542.8782   -4343.5214   -4542.8782            0    1900.9749    17.909219    23.426985    21.898002    9187.5043    2448.8191    1430.6153    1823.4903    605.43165    223.00469   -10.495188   -4088.8092 
27734000    114.81492   -4523.4693   -4326.6805   -4523.4693            0    2559.2002    17.824655    23.285921    22.025931    9142.1599    3244.5834    2059.4954    2373.5219    466.81285   -29.192839    964.09684   -3985.4648 
27735000    111.75588   -4535.9557     -4344.41   -4535.9557            0    1756.0492    18.024044    23.103013    22.088388    9197.8194      2352.06    1781.6979    1134.3897    652.21178    222.86993    229.38814   -4108.8522 
27736000     116.4293    -4539.256   -4339.7001    -4539.256            0    2252.8669    17.937561    23.228683    22.008893    9170.3554    1755.6712    3301.3802    1701.5493    373.18315   -281.93296    354.20807   -4038.4012 
27737000    120.41088    -4544.697   -4338.3169    -4544.697            0    2119.6065    17.839001    23.521645     21.81509    9153.6695    2386.5046      2020.97     1951.345   -1012.6052    125.58529    229.50076    -4055.356 
27738000    118.00766    -4531.478   -4329.2169    -4531.478            0    2453.9578    17.947076    23.305421    21.951232    9181.4135    2026.3588     2710.144    2625.3704    5.9782975   -99.007082   -40.001993   -4000.6283 
27739000     118.3003   -4536.6879   -4333.9252   -4536.6879            0    2387.5224    18.000693    23.260977     21.90161    9170.5047    2785.7834    1959.5711    2417.2126     295.4991   -248.14323     505.9998   -4014.6123 
27740000    117.20974   -4537.8643   -4336.9708   -4537.8643            0    962.24156    17.955374    23.503658    21.936079    9257.3979    125.06249    865.30083    1896.3614     -92.7465    266.98545   -279.33493   -4207.0589 
27741000    108.88482   -4534.1701   -4347.5452   -4534.1701            0    2692.5388    17.955322    23.329225    21.903572    9175.0503    2908.5215    2917.1329     2251.962    36.973338   -362.24674    206.58194   -3987.2601 
27742000    116.04359   -4537.1959   -4338.3012   -4537.1959            0    1534.7841    17.876284    23.413283     21.97749    9198.5134    2113.9498     1890.608    599.79444    -572.8672   -197.82618    -306.8705   -4132.4085 
27743000    115.88409   -4522.2115   -4323.5902   -4522.2115            0    1650.3282    17.868536    23.409195    21.992483    9199.1926    1771.5584    1760.4774    1418.9489    314.28885    470.23063    425.74287   -4102.1808 
27744000    115.91468   -4529.7931   -4331.1193   -4529.7931            0    1958.0159    18.013978    23.232032    21.921758    9174.2846    1466.8758     2227.962    2179.2098     226.4987   -221.27372   -177.64395   -4069.1416 
27745000    126.05807   -4540.9216   -4324.8624   -4540.9216            0    2300.8637    17.943428    23.344403    21.968397    9202.0919    1833.4403    2798.8678     2270.283     492.7577    160.86142   -45.781392   -4016.0794 
27746000     116.6817   -4539.3804    -4339.392   -4539.3804            0    1772.6527    17.902539    23.364427     21.97394    9191.3161     1459.355    1599.5614    2259.0416    -496.8717   -511.88582   -319.97253   -4101.7751 
27747000    109.64426   -4526.1045    -4338.178   -4526.1045            0    2339.2235     17.88723    23.314865    21.984803     9168.506    2741.6463    3205.2601     1070.764    443.97891   -138.05237   -615.42046   -4025.3928 
27748000    114.99878    -4520.868    -4323.764    -4520.868            0    1558.5175    17.966613    23.380638    21.988624    9236.7809    820.70487    1879.7759    1975.0717   -572.64797   -325.56324    425.18046   -4113.8177 
27749000    107.85498    -4530.071   -4345.2112    -4530.071            0    1729.1325    17.955961    23.348316    22.002366     9224.304    2339.8745    1722.6183    1124.9047    66.196273   -439.89077    545.02178   -4112.5962 
27750000    120.79974   -4526.3896    -4319.343   -4526.3896            0    1350.9865    17.961201    23.375673    21.933631    9208.9485    796.86778    1778.9089    1477.1827    14.662245    379.81389   0.64758496   -4137.9013 
Loop time of 354.965 on 64 procs for 250000 steps with 864 atoms

Performance: 121.702 ns/day, 0.197 hours/ns, 704.296 timesteps/s
194.5% CPU use with 32 MPI tasks x 2 OpenMP threads

MPI task timing breakdown:
Section |  min time  |  avg time  |  max time  |%varavg| %total
---------------------------------------------------------------
Pair    | 17.934     | 25.149     | 33.368     | 104.2 |  7.08
Bond    | 1.0326     | 1.2169     | 1.8568     |  13.2 |  0.34
Kspace  | 174.13     | 185.79     | 195.75     |  43.7 | 52.34
Neigh   | 0.66336    | 0.72432    | 0.80603    |   5.2 |  0.20
Comm    | 52.641     | 57.183     | 61.839     |  29.5 | 16.11
Output  | 0.52431    | 0.52459    | 0.52619    |   0.0 |  0.15
Modify  | 64.782     | 67.21      | 70.764     |  17.5 | 18.93
Other   |            | 17.17      |            |       |  4.84

Nlocal:        27.0000 ave          39 max          19 min
Histogram: 5 7 4 1 2 2 2 2 5 2
Nghost:        2140.44 ave        2241 max        2035 min
Histogram: 8 8 0 0 0 0 0 0 6 10
Neighs:        6595.50 ave        9612 max        4635 min
Histogram: 8 4 4 3 2 1 1 4 3 2

Total # of neighbors = 211056
Ave neighs/atom = 244.27778
Ave special neighs/atom = 2.0000000
Neighbor list builds = 2469
Dangerous builds = 0

unfix		3
unfix		2
unfix		1

write_data	data.final.${pid} nocoeff
write_data	data.final.0 nocoeff
System init for write_data ...
PPPM initialization ...
  extracting TIP4P info from pair style
  using 12-bit tables for long-range coulomb (../kspace.cpp:340)
  G vector (1/distance) = 0.37191083
  grid = 24 27 25
  stencil order = 5
  estimated absolute RMS force accuracy = 0.0031345214
  estimated relative force accuracy = 9.4395181e-06
  using double precision FFTW3
  3d grid and FFT values/proc = 4410 672
Last active /omp style is kspace_style pppm/tip4p/omp

write_restart   restart.lmp.${pid}
write_restart   restart.lmp.0
System init for write_restart ...
PPPM initialization ...
  extracting TIP4P info from pair style
  using 12-bit tables for long-range coulomb (../kspace.cpp:340)
  G vector (1/distance) = 0.37191083
  grid = 24 27 25
  stencil order = 5
  estimated absolute RMS force accuracy = 0.0031345214
  estimated relative force accuracy = 9.4395181e-06
  using double precision FFTW3
  3d grid and FFT values/proc = 4410 672
Last active /omp style is kspace_style pppm/tip4p/omp
Total wall time: 0:05:55
