LAMMPS (30 Jul 2021)
Processor partition = 1
  using 2 OpenMP thread(s) per MPI task
using multi-threaded neighbor list subroutines
variable        pid world 0 1
variable        phase world IceIh IceIII

shell cd ${phase}
shell cd IceIII
include Restart.lmp
echo both
log log.lammps
#include		in.partitions
include		in.temp
variable        temperature equal 72.72
variable	tempDamp equal 100.0
include		in.pressure
variable        pressure equal 2092.3
variable        pressureDamp equal 1000.0 # This is 1 ps
include		in.seed
variable        seed equal 745823

units		real
atom_style	full

read_restart	restart.lmp.${pid}
read_restart	restart.lmp.1
Reading restart file ...
  restart file = 30 Jul 2021, LAMMPS = 30 Jul 2021
  restoring atom style full from restart
  orthogonal box = (0.014842536 0.014272143 0.0044367317) to (19.985158 19.985729 20.695561)
  2 by 4 by 4 MPI processor grid
  restoring pair style lj/cut/tip4p/long/omp from restart
  restoring bond style harmonic/omp from restart
  restoring angle style harmonic/omp from restart
  972 atoms
  648 bonds
  324 angles
Finding 1-2 1-3 1-4 neighbors ...
  special bond factors lj:    0        0        0       
  special bond factors coul:  0        0        0       
     2 = max # of 1-2 neighbors
     1 = max # of 1-3 neighbors
     1 = max # of 1-4 neighbors
     2 = max # of special neighbors
  special bonds CPU = 0.002 seconds
  read_restart CPU = 0.007 seconds
include 	in.setup
variable	out_freq equal 1000
variable	out_freq2 equal 10000
variable	out_freq3 equal 1000

timestep	2.0

neigh_modify    delay 7 every 1

include		in.tip4p
# This is TIP4P/Ice

# create groups ###
group ox type 2
324 atoms in group ox
group hy type 1
648 atoms in group hy

# set charges - beside manually ###
set group ox charge -1.1794
Setting atom values ...
  324 settings made for charge
set group hy charge 0.5897
Setting atom values ...
  648 settings made for charge

# ### TIP3P Potential Parameters ###
pair_style lj/cut/tip4p/long/omp 2 1 1 1 0.1577 8.5
pair_coeff 1 1*2 0.000 0.000
pair_coeff 2 2 0.21084 3.1668
bond_style  harmonic
bond_coeff  1 450 0.9572
angle_style harmonic
angle_coeff 1 55 104.52
kspace_style pppm/tip4p/omp 1.0e-5
pair_modify tail yes

thermo          ${out_freq}
thermo          1000
thermo_style    custom step temp pe etotal epair emol press lx ly lz vol pxx pyy pzz pxy pxz pyz enthalpy

restart 	${out_freq3} restart.lmp.${pid} restart2.lmp.${pid}
restart 	1000 restart.lmp.${pid} restart2.lmp.${pid}
restart 	1000 restart.lmp.1 restart2.lmp.${pid}
restart 	1000 restart.lmp.1 restart2.lmp.1


include         in.dump
dump            myDump all atom ${out_freq2} dump.water.${pid}
dump            myDump all atom 10000 dump.water.${pid}
dump            myDump all atom 10000 dump.water.1
dump            myDump2 all dcd ${out_freq2} dump.dcd
dump            myDump2 all dcd 10000 dump.dcd
dump_modify     myDump append yes
dump_modify     myDump2 append yes


variable natoms 	equal  "count(all)"                        # NUMBER ATOMS
variable H      	equal  "enthalpy/v_natoms"                 # ENTHALPY-per-atom
variable Vol      	equal  "vol/v_natoms"                 # volume-per-atom
fix AVG all 		ave/time ${out_freq} 1 ${out_freq} v_Vol v_H file vol_enthalpy.dat
fix AVG all 		ave/time 1000 1 ${out_freq} v_Vol v_H file vol_enthalpy.dat
fix AVG all 		ave/time 1000 1 1000 v_Vol v_H file vol_enthalpy.dat


timer           timeout 02:55:00 every 1000
New timer settings: style=normal  mode=nosync  timeout=02:55:00

fix 		1 all shake 1e-6 200 0 b 1 a 1
Finding SHAKE clusters ...
       0 = # of size 2 clusters
       0 = # of size 3 clusters
       0 = # of size 4 clusters
     324 = # of frozen angles
  find clusters CPU = 0.001 seconds
fix             2 all nph aniso ${pressure} ${pressure} ${pressureDamp}
fix             2 all nph aniso 2092.3 ${pressure} ${pressureDamp}
fix             2 all nph aniso 2092.3 2092.3 ${pressureDamp}
fix             2 all nph aniso 2092.3 2092.3 1000
fix             3 all temp/csvr ${temperature} ${temperature} ${tempDamp} ${seed}
fix             3 all temp/csvr 72.72 ${temperature} ${tempDamp} ${seed}
fix             3 all temp/csvr 72.72 72.72 ${tempDamp} ${seed}
fix             3 all temp/csvr 72.72 72.72 100 ${seed}
fix             3 all temp/csvr 72.72 72.72 100 745823


run             250000
PPPM initialization ...
  extracting TIP4P info from pair style
  using 12-bit tables for long-range coulomb (../kspace.cpp:340)
  G vector (1/distance) = 0.37261089
  grid = 24 24 25
  stencil order = 5
  estimated absolute RMS force accuracy = 0.00338348
  estimated relative force accuracy = 1.018925e-05
  using double precision FFTW3
  3d grid and FFT values/proc = 3458 576
Last active /omp style is kspace_style pppm/tip4p/omp
Neighbor list info ...
  update every 1 steps, delay 7 steps, check yes
  max neighbors/atom: 2000, page size: 100000
  master list distance cutoff = 10.8154
  ghost atom cutoff = 10.8154
  binsize = 5.4077, bins = 4 4 4
  1 neighbor lists, perpetual/occasional/extra = 1 0 0
  (1) pair lj/cut/tip4p/long/omp, perpetual
      attributes: half, newton on, omp
      pair build: half/bin/newton/omp
      stencil: half/bin/3d
      bin: standard
Setting up Verlet run ...
  Unit style    : real
  Current step  : 36250000
  Time step     : 2
  Walltime left : 2:54:59.94
Per MPI rank memory allocation (min/avg/max) = 10.19 | 10.20 | 10.21 Mbytes
Step Temp PotEng TotEng E_pair E_mol Press Lx Ly Lz Volume Pxx Pyy Pzz Pxy Pxz Pyz Enthalpy 
36250000    73.389981   -5097.9222   -4956.3834   -5097.9222            0    1710.7421    19.970316    19.971457    20.691125    8252.3716    1676.2172    1547.8647    1908.1444   -244.72009    104.13584   -174.48776   -4750.4915 
36251000     72.42149   -5108.1567   -4968.4858   -5108.1567            0    2145.8028    19.949894    19.874881    20.681776    8200.3606    2632.0787    1922.1451    1883.1844   -32.381688    265.56312     448.6852    -4711.861 
36252000    73.685202   -5111.1505   -4969.0424   -5111.1505            0    874.14618    20.004067    19.952925      20.7564    8284.7023    264.94106    684.40584    1673.0916   -404.17024    110.44449     593.6419   -4863.4247 
36253000    74.252389   -5113.8189   -4970.6169   -5113.8189            0    2406.7026    19.974693    19.924514    20.703021    8239.5136     1922.933    2893.3503    2403.8245    259.76692   -1082.8632   -346.10609   -4681.4159 
36254000    69.753558   -5112.6554   -4978.1298   -5112.6554            0    1749.9904     19.84183    19.944719    20.857723    8254.2297    2955.5233    1381.8549     912.5931   -168.66931   -987.51397    686.23262   -4767.4669 
36255000    71.305595   -5105.6076   -4968.0888   -5105.6076            0    1785.5696    19.997725    19.954692    20.670685    8248.6049    2260.6495      736.493    2359.5663   -239.43535   -146.69151    86.732457   -4753.2893 
36256000    76.486007    -5112.152   -4964.6423    -5112.152            0    1634.2101    19.969317      19.9294    20.700666    8238.3789    718.64987    2553.0398    1630.9408   -140.76585   -526.12432    681.52689   -4768.2947 
36257000    74.899221   -5114.1374   -4969.6879   -5114.1374            0    1034.2288    19.959956    20.023109     20.66009    8257.0193    1450.8372    15.194345    1636.6548   -127.13935   -47.734836   -93.814732    -4845.146 
36258000    70.928498   -5105.1595    -4968.368   -5105.1595            0    1562.8927    19.941149    19.966775      20.7196    8249.7255    1199.4354    2151.8331    1337.4095   -147.35421    412.65762    317.61265   -4780.3304 
36259000     74.27724   -5106.0309    -4962.781   -5106.0309            0    1852.8021    19.983967    19.859447    20.851086    8275.1817    1829.7173    1999.7382    1728.9509    152.72296   -12.498172    378.59685   -4739.1756 
36260000    73.128223   -5104.6262   -4963.5923   -5104.6262            0    1368.0537    19.995498    20.016721    20.662333    8269.9814    2273.6343    -141.4741    1972.0009    48.066865    378.08601    555.27773   -4798.5924 
36261000    72.736269   -5111.2283   -4970.9503   -5111.2283            0     2490.074    19.905173    19.842169    20.848529    8234.3729    2255.3405    3041.2127     2173.669   -466.52907    222.53358   -511.24175   -4671.9176 
36262000    75.046101   -5099.2184   -4954.4856   -5099.2184            0    1504.5457    19.994368    19.913456    20.651912    8222.7028    2185.2799    787.11248    1541.2448    239.87775    194.28726    228.78133    -4774.061 
36263000    73.525777      -5098.2   -4956.3993      -5098.2            0    2198.1098    19.918981    19.923702    20.733759    8228.3961    3013.6441    1885.8759    1694.8093   -358.63379    386.12026    372.49229   -4692.6202 
36264000    70.446817   -5107.0533   -4971.1906   -5107.0533            0    2955.5436     19.80965    19.957739    20.802129    8224.2432    4481.2439    1780.8075    2604.5793   -232.66503    362.39458    205.83949   -4616.6964 
36265000    74.623922    -5114.057   -4970.1385    -5114.057            0    1944.4418    19.886201    19.922193     20.80792    8243.6137    2202.5529    1801.5637    1829.2087    29.034173    965.60761   -202.40131   -4736.3687 
36266000    70.016726   -5102.1695   -4967.1364   -5102.1695            0    1578.4619    20.033627    19.825198    20.744854    8239.2464    664.71424    2376.1657    1694.5056    65.779565    583.79048    501.43245   -4777.4669 
36267000    72.553019   -5107.2336    -4967.309   -5107.2336            0    1383.4839    19.918279     19.99258    20.717658    8250.1402    783.84544    1928.1692    1438.4371    63.423937     122.1329    294.85783   -4800.8484 
36268000    69.125197   -5106.8063   -4973.4925   -5106.8063            0    1649.5939     19.82106    20.089546    20.696079    8241.0978    2352.6912    857.86971    1738.2208    8.3582259    622.49157    162.11508   -4775.2312 
36269000     74.19034   -5109.2813   -4966.1989   -5109.2813            0    2711.8199    20.018644      19.8968    20.531573    8177.8682     2747.182    2178.4778    3209.7997    396.45585    241.63339   -267.62126   -4642.7715 
36270000    74.014161   -5111.8569   -4969.1144   -5111.8569            0    2191.8952    19.921884    19.858174    20.740057    8205.0206    2226.7844    2958.4461    1390.4551    22.731673    56.396993   -107.37992   -4706.8282 
36271000    72.754423   -5117.3717   -4977.0587   -5117.3717            0    1733.7698    19.947579    19.893085    20.755251    8236.0751    1783.8163    1227.9912    2189.5019   -284.37232    469.67798    -32.73423   -4768.8074 
36272000    70.970855   -5104.5518   -4967.6785   -5104.5518            0    2370.6874    19.877258    19.975534     20.68956    8214.9728    2823.9411     1525.912    2762.2092    320.54162      401.809   -52.875501   -4683.6537 
36273000     71.42764   -5113.6479   -4975.8937   -5113.6479            0    2226.4687    19.968557    19.895304    20.661248    8208.3114    2312.7157    1777.8129    2588.8774   -238.43298   -402.73962    179.26652   -4709.3636 
36274000    78.606476    -5106.082   -4954.4828    -5106.082            0    2042.4611    19.961981    19.884368    20.783557    8249.6461    1863.9317    2403.3364    1860.1152   -349.88624   -170.44542   -97.137298    -4708.749 
36275000    75.482083    -5107.348   -4961.7744    -5107.348            0    1891.1693     19.91801    19.969533    20.795045    8271.2991    1444.4627    2271.4887    1957.5563   -76.625906     -276.594    -327.8337   -4733.6457 
36276000     76.85935   -5108.6188    -4960.389   -5108.6188            0    1778.6497     19.92032    19.916681    20.851666    8272.8291    2175.6578     1377.673    1782.6183   -234.17076   -542.76849    -225.4363   -4745.7937 
36277000     74.90532   -5104.3464   -4959.8851   -5104.3464            0    1646.1443    20.013147    19.956783     20.71242       8272.5    2146.4334    325.81419    2466.1853   -353.71224    339.61929    525.21183   -4761.2845 
36278000    70.228467   -5108.7015     -4973.26   -5108.7015            0    910.00844    20.028749    19.974444     20.63761    8256.3469    941.66907    796.71381    991.64245    49.150737    594.32699   -374.09475   -4863.6856 
36279000    73.776806   -5110.3426   -4968.0579   -5110.3426            0    1322.4196    19.924013    20.018732    20.712577    8261.2833    1040.7616    1169.4325    1757.0649   -117.54636   -69.862451    367.57345   -4808.7296 
36280000    72.786835   -5103.9513   -4963.5758   -5103.9513            0    1262.7246    19.967707    19.928643    20.800174    8276.9988    878.31091    1478.0438    1431.8191     121.1143    185.07391    538.86818   -4811.1504 
36281000    71.069659    -5095.438   -4958.3742    -5095.438            0    3203.0859    19.886252    19.923562    20.730217    8213.4154    3093.0845    3091.4822     3424.691   -435.66457    323.94073    568.03306    -4574.695 
36282000    73.017711   -5104.4848    -4963.664   -5104.4848            0    1750.5323    19.935989    19.907749    20.703877    8216.9684    1326.0183    1950.5526     1975.026   -145.89868    958.77705    99.024596   -4753.8872 
36283000    73.202741   -5105.7147   -4964.5371   -5105.7147            0    3108.9905    19.884642    19.847401    20.756479    8191.7202    3944.7829    3394.2671    1987.9216     95.07555   -490.36968    -452.0917   -4593.1127 
36284000     70.79159   -5107.2199   -4970.6924   -5107.2199            0     2043.957    20.017112    19.816522     20.68266    8204.1817    1476.5852    2582.7691    2072.5167   -153.02744    680.55686    -861.8301   -4726.1338 
36285000    69.858829    -5115.805   -4981.0764    -5115.805            0    2205.2385    19.881628    19.923793    20.801314    8239.7632    2115.7154    2270.8968    2229.1033   -39.653608    277.04677    -11.83882   -4716.0762 
36286000    68.776375    -5109.744    -4977.103    -5109.744            0    1455.0875    19.819643    20.015051    20.789363    8246.9563    2169.6941    1060.0163     1135.552    142.30901    34.347778    277.96363   -4802.0947 
36287000    76.752897   -5118.8942   -4970.8698   -5118.8942            0    1795.5767    19.881552    19.883714     20.84704     8241.233    1585.7792    2315.0331    1485.9179    65.315078    658.90779    127.85408   -4755.0595 
36288000    74.785981   -5106.4893   -4962.2582   -5106.4893            0    2748.4487    19.913605     19.86719    20.753907    8210.8138    2745.5855    3216.6066     2283.154   -478.84808   -45.346781   -153.62628   -4633.1416 
36289000    71.734467   -5111.7201   -4973.3742   -5111.7201            0    2464.2117    19.957569    19.906741    20.655745    8206.3243    1675.7702     3580.738    2136.1269   -27.851919    167.91678    803.92245   -4678.4553 
36290000    73.089752   -5111.6296   -4970.6699   -5111.6296            0    1170.4315    19.821233    19.990077    20.852034     8262.159    2074.9116    298.65327    1137.7297   -60.498685   -2.6294723    -71.46774   -4829.6386 
36291000    76.149068   -5114.9789   -4968.1191   -5114.9789            0    1937.3091    19.834362    20.042865    20.667578    8216.1361    1630.2415    1273.0067    2908.6791   -170.25818   -327.90491    259.78272   -4735.9831 
36292000    75.580425   -5116.9358   -4971.1726   -5116.9358            0    2602.5423    19.903114    19.984333    20.704974    8235.4127    3133.7654    2172.1502    2501.7113   -518.80299   -370.31535    661.33385   -4658.5942 
36293000    76.297408   -5109.5712   -4962.4253   -5109.5712            0    1571.3458    19.868066    20.070266    20.636437    8228.9316    1881.4806    1070.8393    1761.7176   -156.07719      345.953   -264.52179   -4773.8472 
36294000    70.070472   -5112.1991   -4977.0623   -5112.1991            0    1604.8638    19.917077    20.008719    20.624565    8219.2029      2286.29     1097.234    1431.0675   -381.98146    266.13841   -24.008762   -4784.6895 
36295000    70.992398    -5115.758   -4978.8432    -5115.758            0    2325.9069    19.857328    20.029816    20.694366    8230.9488    2842.2514    1477.1157    2658.3535    -259.9387   -127.56134   -103.07949   -4699.6415 
36296000    67.225381   -5103.0478    -4973.398   -5103.0478            0    2871.1855       19.938    19.866683    20.695157    8197.3916    3266.6535    2528.9618    2817.9412    92.505959    558.33445   -427.60877   -4630.1462 
36297000    72.513718    -5109.281   -4969.4322    -5109.281            0    2764.9102    19.967549    19.858682    20.742015    8224.8145    1885.2341     3368.935    3040.5615   -193.97601    218.03806    709.63571   -4637.7799 
36298000     69.69926   -5111.1543   -4976.7334   -5111.1543            0    2018.6051    19.923391    19.883107     20.80411    8241.3178    2187.0928    2038.8353    1829.8872    44.917229     598.9261   -673.87609   -4734.1149 
36299000    75.641944   -5110.5128    -4964.631   -5110.5128            0    1952.7018     19.87075    20.030818    20.746559    8257.6981     1835.223    1774.2112    2248.6712    55.360392    329.65161    226.96835    -4729.467 
36300000    69.579357   -5106.7647    -4972.575   -5106.7647            0    3553.7751    19.896895    19.825339    20.742327    8182.0741    4123.7013    3278.3179     3259.306   -54.416969   -2.6770025   -269.79138   -4548.5131 
36301000    80.261417   -5103.4381   -4948.6472   -5103.4381            0    1857.6824    19.976367    19.882812    20.715677    8227.9837    2087.5146    1838.9814    1646.5512    89.050653    64.393355   -183.95415   -4725.7314 
36302000    69.991123   -5107.6196   -4972.6358   -5107.6196            0    2216.6246    19.895074    19.877327    20.777546    8216.7066     2164.594    3284.4367    1200.8431   -186.64497    312.61011   -446.76583   -4707.0127 
36303000    69.259961   -5111.0524   -4977.4788   -5111.0524            0    2439.7344    19.930482    19.853915    20.703007    8192.1403    2492.3858    2610.9451    2215.8723    225.10891    577.48472   -359.77461   -4685.9941 
36304000    74.283582   -5103.7685   -4960.5063   -5103.7685            0    1955.9704    19.970694    19.796953    20.816382    8229.9416    1132.0605    2880.1541    1855.6967    308.77076    357.05498   -268.45271   -4725.7405 
36305000    72.760857   -5107.2825   -4966.9571   -5107.2825            0    2327.7538    19.882165    19.982896    20.745968    8242.4403     1673.426     2542.714    2767.1215    22.310918    245.26357   -137.11369   -4687.1435 
36306000    76.283326   -5105.1005   -4957.9816   -5105.1005            0    1423.4633    19.866057     19.96363    20.802918    8250.4086    2493.1507    398.50002    1378.7392   -171.46615    195.94482    542.43342   -4786.7052 
36307000    72.600206   -5118.8512   -4978.8356   -5118.8512            0    2429.7059    20.019234    19.905584    20.674921    8238.8431    1829.4556    1860.8142    3598.8481   -191.28519    288.67922   -89.226185   -4686.8941 
36308000    71.817448   -5105.0898   -4966.5838   -5105.0898            0    1687.3696    19.958488    19.862611    20.758207    8229.1276    199.99664    3017.2526    1844.8597    83.162905   -52.925942   -88.935256   -4764.0768 
36309000     71.80669   -5108.4731   -4969.9879   -5108.4731            0    1886.1779    19.852215    19.954333    20.725257    8210.0558    2730.3536    1140.9523     1787.228    165.58777    173.48273    133.14896   -4744.1459 
36310000    71.999806   -5107.7674   -4968.9097   -5107.7674            0    1662.7345    19.928881    19.971472     20.72301    8247.9465    1760.6265    1385.9619    1841.6152   -107.45713    258.76811    307.03705   -4768.9029 
36311000    71.511148   -5101.4171   -4963.5018   -5101.4171            0    2826.1056    19.862456    19.900385     20.81932    8229.2639    3922.0465    2512.5244    2043.7458    231.07501   -536.95955    317.08852   -4624.3257 
36312000    76.577717   -5103.5136   -4955.8271   -5103.5136            0    2058.3658    19.885222    19.989422    20.709129    8231.7567    1796.8901    2426.6961    1951.5111   -94.393536    245.74856   -40.168093   -4708.7167 
36313000     74.30876   -5103.8432   -4960.5325   -5103.8432            0    2728.3142    20.030151    19.807795    20.670952    8201.2649    1714.8763    3164.2479    3305.8184   -643.91338    36.429732    334.70659   -4634.2069 
36314000     73.59973   -5106.8689   -4964.9256   -5106.8689            0    2613.4518    19.929812    19.944126    20.655372    8210.1524    3419.8185    1522.6027    2897.9341   -85.122438    374.82456    843.68545   -4651.9997 
36315000    71.164343   -5107.7873   -4970.5409   -5107.7873            0    1852.3935    19.850342    19.965617    20.719229    8211.5344    2203.5335    2223.7529    1129.8941   -302.07985    740.40762    -136.2995   -4748.7041 
36316000    77.210704   -5103.8414   -4954.9341   -5103.8414            0     1768.635    19.843857    19.993244    20.734075    8226.1003    2098.4782    1885.8109    1321.6159   -210.49729    -1245.644   -235.44793   -4742.7523 
36317000    73.471996    -5112.188   -4970.4911    -5112.188            0    3424.9447    19.970018    19.792309    20.695467    8179.9407     2024.201    4452.7615    3797.8717   -32.773604    -62.89422   -611.37792   -4561.9087 
36318000    72.960905    -5108.668   -4967.9567    -5108.668            0    2549.8233    19.872897    19.919696    20.727641    8205.2865    2444.4975    2578.9759    2625.9964    -281.1443    676.95438    141.79675   -4662.8304 
36319000    68.856506   -5109.9734   -4977.1778   -5109.9734            0    2566.2138    19.959467    19.918186    20.624513    8199.4067    1782.1886    3394.6602    2521.7928    -102.8933    789.57057    617.47004   -4670.3101 
36320000    72.922129   -5107.4276   -4966.7911   -5107.4276            0    2211.0096    19.902861    19.941325    20.702259    8216.5074    3136.8805    720.30239    2775.8458   -219.01713   -200.73899    145.42873   -4701.8473 
36321000    75.013524   -5109.7955   -4965.1256   -5109.7955            0    2299.5133     19.84673    19.784677    20.882407    8199.7097    2004.9525    3470.8149    1422.7726   -332.36133    695.69613   -329.69208   -4690.1398 
36322000    79.432234   -5105.6784   -4952.4866   -5105.6784            0    2510.7703    19.981955    19.890035    20.726383    8237.5303    1398.2334    3007.0827    3126.9949   -406.97324    396.69301   -241.04431   -4650.8529 
36323000    70.780302   -5114.8357   -4978.3299   -5114.8357            0    1921.3569    19.985954    19.804047    20.812241    8237.5425    1817.9307    2004.7279    1941.4122   -224.19756     193.3833    397.20032   -4747.5056 
36324000    71.706149   -5115.2381   -4976.9468   -5115.2381            0    2748.9743    19.955834     19.94199    20.620539      8206.13    1788.4696    3214.1282    3244.3252    345.29394    193.07901   -57.278271   -4647.9551 
36325000    71.306086   -5109.3974   -4971.8776   -5109.3974            0    1959.0891    19.897012    19.858487    20.779863    8210.6341    1155.8503    2804.3129    1917.1039   -454.60622   -324.65186    139.11217   -4737.2891 
36326000     74.35417   -5111.8405   -4968.4422   -5111.8405            0    3059.3363    19.931077    19.994856    20.649828     8229.349     3812.162    1973.4865    3392.3606   -201.09579   -166.15669     117.1027    -4601.271 
36327000    71.410244   -5120.5208   -4982.8001   -5120.5208            0    2104.9156    19.913831    19.869017     20.84751    8248.6976    1864.7051    2692.6883    1757.3535   -113.31808     358.7817     234.7214   -4729.5813 
36328000    75.107085   -5101.4419   -4956.5916   -5101.4419            0    2327.4166    19.978056    19.839804    20.709071    8208.2621     1395.433    2718.5418    2868.2749    94.278619    781.77063    306.12328   -4677.9787 
36329000    70.240258   -5110.9929   -4975.5287   -5110.9929            0    1692.5628    19.804308    19.979176    20.847048    8248.6298    3034.8371    264.01811    1778.8332    149.69385    466.02205   -356.13415   -4771.9171 
36330000    75.514911   -5106.7874   -4961.1506   -5106.7874            0    1824.3169    19.937822    20.025908    20.591017    8221.4366    1850.3638    1139.8538    2482.7331   -91.683579    55.424793   -480.61074   -4742.4128 
36331000    73.150161   -5105.2373   -4964.1611   -5105.2373            0    2924.6311    19.938416    19.968501    20.609693    8205.5487    3162.9577    2336.5324    3274.4032   -38.772431    580.83921    -497.2495   -4614.1719 
36332000    70.017319   -5110.9963   -4975.9621   -5110.9963            0    1709.4737    20.004803    19.883029    20.761776    8258.1228    1903.1296    1332.8901    1892.4013    353.84743    408.34194    60.370506   -4770.0795 
36333000    73.142255   -5107.3707   -4966.3097   -5107.3707            0    1746.7451    19.833492    19.900888    20.902537    8250.3173    2744.7072    1207.4145    1288.1136    96.638369    611.63062    654.69005   -4756.1371 
36334000    72.063457   -5093.0288   -4954.0484   -5093.0288            0    2367.7148    19.924365    19.999894    20.534105    8182.5368     2795.441    1195.5268    3112.1767   -465.36169   -191.43991   -530.84085   -4671.4997 
36335000    70.854606   -5112.5899   -4975.9408   -5112.5899            0    1393.9875    19.993666    19.937866    20.729663    8263.4869    526.80407     1930.303    1724.8554    1.8723458   -55.736572   -257.41684   -4807.9451 
36336000    70.163683   -5109.6524   -4974.3358   -5109.6524            0    1230.4017    19.957059    19.946785    20.675113    8230.3319    1961.9941    761.99047    967.22054     21.86668     370.0784    618.18325   -4826.6496 
36337000    70.854353   -5108.3318   -4971.6832   -5108.3318            0    2088.2245    19.951501    19.891253    20.692952     8212.212    1631.1085    2054.3361    2579.2289   -255.76062      49.2964   -173.19454   -4721.5834 
36338000    70.704299    -5103.204   -4966.8449    -5103.204            0    2193.4733    19.932451    19.805899    20.819687    8219.1983    2007.0638    2848.0805    1725.2757    31.899182   -790.89052    365.37673   -4703.9163 
36339000    69.570629   -5118.2022   -4984.0294   -5118.2022            0    1505.7787    19.934922    19.984538    20.731007    8259.0301    1355.5593    1325.2245    1836.5523   -46.871432    134.46426   -96.842197   -4802.6591 
36340000    70.072406   -5104.9418   -4969.8012   -5104.9418            0    2125.0621    19.838226    19.940768    20.775026    8218.3812    3589.5883    1523.4357    1262.1624   -382.33364   -93.559943   -213.99769   -4715.0984 
36341000    71.931996    -5110.292   -4971.5651    -5110.292            0    2634.1793    19.944987    19.875471     20.68742    8200.8248    1026.1021     4392.642    2483.7939   -363.77745   -126.58786    650.08376   -4656.5156 
36342000    73.060432   -5113.1229   -4972.2197   -5113.1229            0    1739.8055    20.046709    19.859522    20.704668    8242.9026     1616.282    1795.8944    1807.2402   -192.31516   -399.32188   -277.13985   -4763.0703 
36343000     76.67515   -5110.2997   -4962.4252   -5110.2997            0    1922.6114    19.916106    19.934046    20.828773    8269.2012    1871.6885    2028.0372    1868.1084   -359.99464    187.41443   -474.35263   -4730.5625 
36344000    74.121568   -5111.7036   -4968.7539   -5111.7036            0    2061.4219    19.969879    19.897949    20.639935    8201.4769    1867.1748     2093.063    2224.0279   -190.07234   -261.46314   -432.18167   -4722.1869 
36345000    69.445962   -5113.8001   -4979.8678   -5113.8001            0    1975.5607    19.864478    19.976764    20.737237    8229.1161    2569.9904     1476.368    1880.3238   -204.38762   -79.367428   -22.651373   -4742.7744 
36346000    74.504897   -5108.1285   -4964.4395   -5108.1285            0    2568.8356    19.928804    19.956459    20.580618    8185.0843     2219.595    2437.9487    3048.9631   -51.902995    422.72101   -61.738625   -4657.7949 
36347000    73.104563    -5110.149   -4969.1607    -5110.149            0    921.92701    20.006077    19.900844    20.738152    8256.6427    987.88253    175.21382    1602.6847   -526.20293    147.64613    169.45136   -4858.1471 
36348000    73.624092   -5112.3527   -4970.3624   -5112.3527            0    1525.2971    20.002225     19.92892    20.780956    8283.7618    1459.0397    1063.6426    2053.2089   -176.30282   -614.86124    130.44124    -4786.091 
36349000    70.412058   -5104.8211   -4969.0255   -5104.8211            0    3028.2073    19.967543     19.83662    20.650507    8179.4301    2149.1443    3868.0055    3067.4722   -274.09716    277.21425    139.26167   -4607.7949 
36350000    73.106427   -5110.7555   -4969.7636   -5110.7555            0    1679.0439     19.83275    20.040671     20.73147    8239.9637    2597.9407    816.52908    1622.6618   -290.61247    46.235247   -31.292158   -4767.9906 
36351000    68.142447   -5110.1095   -4978.6911   -5110.1095            0    2007.7757     19.91009    19.959051    20.682377    8218.8974    1929.8175    1925.0332    2168.4763    -149.7418   -481.64427   -107.61367   -4738.0307 
36352000    69.878279   -5101.1791    -4966.413   -5101.1791            0    2667.0069    19.893192    19.989448    20.636081    8206.0183    3764.9965    2376.2902     1859.734   -305.31575    352.53667    145.33563   -4647.2353 
36353000    75.195192   -5111.9667   -4966.9464   -5111.9667            0    877.30586    19.959271     19.98552    20.800429    8297.2165    1577.3148   -253.38725      1307.99   -258.36284    86.021711   -429.96708   -4860.7868 
36354000    72.666471   -5105.9425   -4965.7991   -5105.9425            0    2447.0421     19.96013    19.917265    20.653959    8211.0065    2294.2224    2599.3124    2447.5916   -116.03795    -47.61216   -499.78246    -4672.768 
36355000    77.074779   -5105.2163   -4956.5711   -5105.2163            0    1825.3848    19.868815    20.002864    20.814811    8272.4973    1765.4731    2578.8581    1131.8231   -231.21194   -524.06155   -146.78729    -4736.346 
36356000    70.365356   -5110.6128   -4974.9073   -5110.6128            0    2150.3062    19.977898      19.8305    20.731689    8213.3087    1823.6169    2389.7851    2237.5166    149.14185    904.51535    47.188422   -4717.3379 
36357000     74.84521   -5112.3096   -4967.9643   -5112.3096            0    808.13522    20.010574    19.905798    20.780028    8277.2345   -345.80062    1816.6491    953.55722    -115.8762   -133.04009   -493.33666   -4870.4103 
36358000    74.239243   -5106.8468   -4963.6702   -5106.8468            0    2167.3916    19.951526    19.950278     20.67799    8230.6362    968.47546    2740.7213     2792.978    388.78934    531.92392   -253.17243   -4703.5065 
36359000     72.05026   -5108.3372   -4969.3822   -5108.3372            0    1641.1328    19.900239    19.992116    20.717574    8242.4433    2560.1179    860.03891    1503.2417    96.825213    170.65653    373.58878   -4772.1056 
36360000    75.589483   -5104.4023   -4958.6216   -5104.4023            0    2585.6156    20.021461     19.80762    20.626731    8180.0973    2666.9786    3096.9597    1992.9085    131.67457   -227.11167    -616.5107    -4650.162 
36361000    75.216173   -5105.6431   -4960.5824   -5105.6431            0    1962.9623    19.840178    20.002238    20.735752    8228.9409    3006.0999    1424.8085    1457.9784    -188.0408   -21.087233   -31.509137   -4725.0059 
36362000    74.717879   -5108.9437   -4964.8439   -5108.9437            0     1908.547    19.909237     20.01054    20.661634    8231.4831     1227.566    2466.3517    2031.7232   -314.62032    -19.19769   -179.15735   -4735.7272 
36363000    70.416904   -5110.8234   -4975.0185   -5110.8234            0    2144.5748     19.93377    19.905726    20.712156    8218.5045    2073.8101    2060.1717    2299.7426    -498.5777   -53.007164    186.96156   -4717.9731 
36364000    77.135396    -5114.531   -4965.7689    -5114.531            0    1681.4006    19.991307    19.863398    20.679815    8211.8574    2121.4838    1054.5977    1868.1204   -157.66536    386.46966   -420.60969   -4764.4018 
36365000    74.600653   -5110.7262   -4966.8525   -5110.7262            0     2664.996    19.966993    20.005059    20.548278    8207.8221    1438.6064    2711.0875     3845.294   -156.52966   -46.227366    143.42816   -4647.8454 
36366000    71.910645   -5116.3939   -4977.7081   -5116.3939            0    1720.4431    19.872587    20.032006    20.714795    8246.3066    1991.4801    1322.0954    1847.7539   -300.82139    182.65656    749.52705   -4770.8009 
36367000      68.1717   -5109.6756   -4978.2007   -5109.6756            0    1635.2036    19.954001    19.971742     20.70948    8253.0621     2084.564    1486.1342    1334.9127    187.74436   -552.86818    -166.6395   -4781.3836 
36368000    68.441294   -5108.3157   -4976.3209   -5108.3157            0    2017.9539     19.95177    19.898303    20.809453    8261.4849    1625.7551    2884.9686    1543.1379   -87.526965   -334.15073    453.53967   -4733.1871 
36369000    68.415231   -5107.8865    -4975.942   -5107.8865            0    2336.1532    19.821796    19.919525    20.844391    8230.2153    1702.1523     2872.474    2433.8332    327.34472    329.69913    838.59307   -4695.5353 
36370000    71.074967   -5103.2253   -4966.1513   -5103.2253            0    1282.6389    19.841237    19.927156    20.835827    8238.0572    1841.7589    310.96447    1695.1934   -252.02507   -127.62605    120.93977   -4812.0504 
36371000    66.584151   -5107.2749   -4978.8617   -5107.2749            0    1620.3623    19.879732    19.967759    20.775268    8246.8193    1993.9262    1347.6589    1519.5019    188.96723    380.16705    223.92017   -4783.9785 
36372000    75.136066   -5106.4527   -4961.5465   -5106.4527            0    1175.4892     19.95122     19.92123    20.728842    8238.7375    800.32353    1267.4187    1458.7253   -104.03958   -17.085354    178.31419   -4820.3073 
36373000    73.663366   -5111.8152   -4969.7492   -5111.8152            0    2467.9484    19.853978    19.995713    20.812876    8262.5962    2824.0532    2040.0664    2539.7256   -18.861051   -343.85158   -75.868728   -4672.3577 
36374000    72.242536   -5105.3218    -4965.996   -5105.3218            0    1616.9887    19.917617    20.022332    20.671038    8243.5508     817.4503    1973.8715    2059.6444   -190.88884   -67.615043   -22.792094   -4771.5956 
36375000     73.03747   -5100.4679    -4959.609   -5100.4679            0     1858.571     19.79426    20.014449    20.754481    8222.3275    2785.3065    486.70517    2303.7014   -94.329949   -308.14575    559.50797   -4736.7399 
36376000    68.351793   -5109.8201   -4977.9979   -5109.8201            0    1943.8096    19.783496    20.122502    20.701272    8241.0408    3483.1317    872.74625    1475.5507    159.88664   -55.226274   -69.962155    -4744.377 
36377000    73.806534   -5113.3022   -4970.9601   -5113.3022            0    2669.4183    19.812822    19.906908     20.81311    8208.9407    2703.3012    2902.2586    2402.6951   -570.90094    1098.1629    70.562247   -4651.3801 
36378000    71.732502   -5111.0554   -4972.7133   -5111.0554            0    1754.9189    19.950275    19.820403    20.853172    8245.8132    2019.1978    2477.4752    768.08352   -614.81822    1616.3799    515.33664   -4761.6725 
36379000    76.339367   -5103.6316   -4956.4047   -5103.6316            0      1543.47    19.994709    19.971592     20.68416    8259.7264    957.85014    1741.7974    1930.7623    -156.9849    212.32908    432.60141   -4770.4789 
36380000    71.014893   -5118.4377   -4981.4795   -5118.4377            0    1663.8969    19.961725    19.859034    20.717266    8212.7502    1651.8368    1771.8431    1568.0108   -119.46419    -20.02279     303.8408   -4782.1871 
36381000    69.948913   -5111.9959   -4977.0936   -5111.9959            0    3454.9637    19.866817    19.852589    20.695724    8162.5538    3851.9837    2900.0015     3612.906   -625.51403    861.96519    470.50669   -4565.8061 
36382000    74.322805   -5100.5702   -4957.2324   -5100.5702            0    1899.8698    20.037662    19.838215    20.661809    8213.3059    1058.3938    2749.8797     1891.336   -164.31933   -13.321473    575.47663    -4729.661 
36383000    74.500634   -5104.1362   -4960.4554   -5104.1362            0    1925.9158    19.954699    19.889801    20.799521    8255.2259    2107.5124    1524.8065    2145.4285   -265.85871    667.72896    404.94206   -4728.5867 
36384000    73.457103   -5114.4129   -4972.7447   -5114.4129            0    3168.7423    19.943793    19.884781    20.611966    8174.2516    3284.4292     2864.608    3357.1898    249.25431    387.83602   -11.479701   -4594.9892 
36385000    73.338413   -5113.6774   -4972.2381   -5113.6774            0    2279.9099    19.957259    19.808914    20.832934    8235.9176    1991.1079    2298.6459    2549.9761    332.75375    480.66421   -723.88247   -4698.3926 
36386000    73.516992   -5105.5227    -4963.739   -5105.5227            0    2895.6485    20.020559     19.86426    20.606994    8195.2691    2174.7224    3966.2761     2545.947   -398.96358    -342.0633     775.7577   -4617.6523 
36387000    71.605587   -5111.2379   -4973.1405   -5111.2379            0    1924.0534    19.990777    19.867478    20.716513    8227.9013    856.66252    2923.7975    1991.7001    -201.7254   -140.01421    403.51284   -4742.2628 
36388000     70.82793   -5108.6025   -4972.0049   -5108.6025            0    2256.9282    19.942347    19.930517    20.687014    8222.2872    2196.7441    2201.0721    2372.9684   -393.86971    817.00686    -826.1447   -4701.3685 
36389000    68.776008   -5115.5378   -4982.8975   -5115.5378            0    1793.4977    20.027323    19.841319     20.68569    8219.8422     793.3153    2511.1824    2075.9953    123.35811   -296.39906    501.17847   -4767.8966 
36390000     73.14405   -5104.5091   -4963.4447   -5104.5091            0    3191.0023    19.917705    19.877896    20.740144    8211.4805    1893.4746     4659.999    3019.5332   -40.139905    199.21104   -266.49504    -4581.303 
36391000    71.789925   -5110.3568   -4971.9039   -5110.3568            0    1404.0802    19.999768    19.993534    20.657787    8260.3476    1682.3215    710.50905    1819.4101    32.262611   -213.15051    89.643441   -4802.7562 
36392000    72.394862   -5111.2008   -4971.5812   -5111.2008            0    1801.5025    20.008736    19.958874    20.648305    8245.9387    1982.8002    1426.5031    1995.2041   -304.71703   -157.11014     396.3667   -4754.9352 
36393000    68.435372   -5105.1815   -4973.1981   -5105.1815            0    1825.0336     19.96112    19.817572    20.838316    8243.2405    1918.5494    2491.2737    1065.2776   -156.97632    328.12742    479.15761    -4753.794 
36394000     75.71308   -5115.8097   -4969.7907   -5115.8097            0    1932.2727    19.991446    19.918336    20.660697    8227.0139    1552.3897    2535.9226    1708.5058   -295.02699   -359.09647    -466.9283   -4737.9517 
36395000    74.997218   -5114.4953   -4969.8569   -5114.4953            0     1742.236    19.939544    19.861065    20.793895      8234.81    411.61404    2717.1152    2097.9788   -519.73213    478.22941   -496.87825   -4760.6209 
36396000    69.753751   -5108.9228   -4974.3968   -5108.9228            0    1796.1765    20.011882     19.88572    20.750714    8257.7608    985.02512     2762.264    1641.2404    121.76999     433.9493   -165.37909   -4758.0815 
36397000    70.877621   -5112.7759   -4976.0825   -5112.7759            0    2073.0754    19.998338    19.920087    20.604337    8208.1218    1771.9721    2386.6547    2060.5994   -294.66073   -133.30506    60.695722   -4727.9207 
36398000    71.204174   -5111.9205   -4974.5972   -5111.9205            0      2623.31    19.894702    19.882328    20.784788    8221.4847    2591.1264    3631.9534    1646.8501   -359.74406   -211.76878    318.17648   -4660.0573 
36399000    71.468652   -5099.6791   -4961.8458   -5099.6791            0    2381.4532    19.932225    19.931899    20.606589    8186.7319    2525.5157    2269.7395    2349.1043   -244.91298    218.36825    -179.0575    -4677.512 
36400000    68.202839   -5103.0223   -4971.4874   -5103.0223            0    1872.9694    19.907283    19.934825    20.778684    8245.9838    1335.6025     2307.504    1975.8018    199.50933      146.636   -543.74929   -4746.2456 
36401000    77.927879   -5106.1736   -4955.8831   -5106.1736            0    2894.9276    19.932596    19.964092    20.646741    8216.0851    2184.0947    3055.6763    3445.0118   -163.77202    1614.9976    622.67559   -4609.0037 
36402000     72.27276   -5104.5715   -4965.1874   -5104.5715            0    1930.2847    19.902721    19.831949    20.937472    8264.2245    2061.2061    2390.9156    1338.7325   -197.09575   -10.164969   -87.019025   -4732.5394 
36403000    71.960751   -5108.0655   -4969.2832   -5108.0655            0    2110.4769    20.002433     19.87534    20.736778    8244.0131    1939.4207    3103.4193    1288.5908    220.35743    212.52954     481.9925   -4715.5395 
36404000    70.256008    -5103.846   -4968.3513    -5103.846            0    2069.1201    20.126777    19.831255    20.566439    8208.8732    1467.5678    2470.1936    2269.5989    -193.7233    119.18688   -262.02859   -4720.6404 
36405000    73.420664   -5110.6012   -4969.0033   -5110.6012            0    1927.5876    20.007821    19.875509    20.739059    8247.2108    1553.8732    2500.9414    1727.9483   -187.61605      8.15401   -1.5620471   -4737.1586 
36406000    68.699474   -5109.8427     -4977.35   -5109.8427            0    1371.2678    19.950865    19.902978    20.850182    8279.2241    1671.1271    1430.4469    1012.2293   -314.40592    221.81079   -99.646819   -4811.7777 
36407000    75.397301   -5111.8521   -4966.4421   -5111.8521            0    2576.4921    19.938169    19.948476    20.676789     8223.905    1543.5914    3754.3825    2431.5024   -295.49292    937.51791    419.94647   -4657.4248 
36408000     70.62997   -5114.1029   -4977.8871   -5114.1029            0    2563.8152    20.066341    19.731222    20.671276     8184.449    1834.6112    2538.4225    3318.4118    8.9798524   -125.07699    303.88386   -4671.8655 
36409000    70.339217   -5110.1973   -4974.5422   -5110.1973            0    1437.2113    20.018776    19.977634    20.593752    8236.0137    505.61245    1601.4129    2204.6085   -136.34208   -277.96596    169.31427   -4801.9133 
36410000    76.933781   -5117.5864   -4969.2131   -5117.5864            0    1570.9944     20.06571    19.893659    20.591396    8219.6816    445.70886    2270.1221    1997.1523   -40.492309   -154.68261   -435.99628   -4780.8892 
36411000    71.927724   -5112.8434   -4974.1247   -5112.8434            0    2396.2962    19.942802    19.809762    20.864911    8242.9369     3236.371     1995.233    1957.2846    108.62121    394.71256    74.486651   -4686.0545 
36412000     71.30254   -5103.8595   -4966.3466   -5103.8595            0    1641.8659    20.096072    19.886719    20.641586    8249.3055    1157.4392    1180.3129    2587.8456   -509.90343   -39.722434    526.06595   -4768.8175 
36413000     71.00245   -5105.5062    -4968.572   -5105.5062            0    912.91657    19.913741    19.933146     20.85904    8279.8605    1435.2274    768.93978    534.58253    -390.5176    624.59352   -30.597572   -4858.3344 
36414000    73.707708   -5115.0062   -4972.8547   -5115.0062            0     2290.048    19.890416    20.000845    20.650239    8215.1842    1939.2651    2571.8231    2359.0559   -444.68987    370.20243   -672.57347    -4698.484 
36415000    72.016059   -5109.1209   -4970.2318   -5109.1209            0     2596.965    19.974518    19.878475    20.683814    8212.7765     1575.018    3109.6665    3106.2106    88.905234   -604.05292    62.237715   -4659.1806 
36416000    72.129797   -5102.5078   -4963.3994   -5102.5078            0    3160.8908    19.830491    19.834265    20.829619    8192.7729    4419.3047    2751.0492    2312.3185   -177.11389    240.76089    758.17782   -4585.7261 
36417000    72.920962   -5108.0713   -4967.4371   -5108.0713            0    2951.6491    19.905915    19.931575    20.623076    8182.3342    2836.4536    2890.5048    3127.9888    224.45077    88.382194    1152.1926    -4615.214 
36418000    77.340597   -5107.5266   -4958.3688   -5107.5266            0    2112.3555    19.867503    19.962261    20.740146    8225.5476    1866.5484    2266.0098    2204.5083   -153.35245    125.87829   -332.38445   -4704.9681 
36419000    76.325441   -5106.1973   -4958.9972   -5106.1973            0    2353.0069    19.941257    20.051317    20.580084    8228.9151    2222.3544     1938.873    2897.7933    112.46043    1009.6606   -143.06962   -4676.6122 
36420000    72.784437   -5108.8941   -4968.5232   -5108.8941            0    1266.6063    20.020699    19.968494    20.577087    8226.3737    1170.2866    1424.7256    1204.8067   -129.19747    -18.67322    521.98516   -4816.5644 
36421000     75.60435   -5110.4708   -4964.6614   -5110.4708            0    1997.0624    19.933745    19.909339     20.68342    8208.5812    2028.9694     1689.352    2272.8658   -44.121519   -755.16664    46.116686   -4725.5856 
36422000     74.44263   -5117.9135   -4974.3446   -5117.9135            0    1711.9074    19.946395    19.867299     20.88673    8277.0142    1737.8059    1970.6521     1427.264   -264.97242    51.115512   -10.435368   -4767.6973 
36423000    68.782279   -5107.3473   -4974.6949   -5107.3473            0    2836.9295    19.845802    19.869665    20.745312    8180.4871    3816.1138    2669.4521    2025.2226   -42.555339   -856.57863    299.75727   -4636.2378 
36424000    73.285904   -5111.6221   -4970.2841   -5111.6221            0    1244.5826    19.932957    19.908572    20.800656     8254.464    746.73683    1810.2706    1176.7403   -202.62663    421.66686    3.5510488   -4820.4577 
36425000    72.935844   -5111.0853   -4970.4224   -5111.0853            0    2352.9341    19.924348    19.999114    20.608651    8211.9149    2793.6406    2046.7583    2218.4033   -221.31406   -111.38669    609.15764   -4688.6294 
36426000    71.765284   -5116.2062   -4977.8008   -5116.2062            0    2654.5746    19.997696    19.956573    20.616106    8227.5884    1656.6618    3373.0369    2934.0253   -244.75549    565.18475    1064.9188   -4659.2759 
36427000    73.132308   -5110.0411   -4968.9993   -5110.0411            0    1775.0331    19.996859    19.916938    20.790567     8280.388    1906.1232    1990.3929    1428.5832   -158.73584    581.42523   -189.16935   -4754.6446 
36428000    73.367106   -5111.2523   -4969.7576   -5111.2523            0    1554.7361    19.978611    19.887656    20.733935    8238.1678     1973.376     817.9466    1872.8856   -326.98771    937.27409   -418.87788   -4782.9635 
36429000    72.652689   -5099.9014   -4959.7846   -5099.9014            0    1180.0485    20.036585    19.969079    20.658542    8265.7334   -82.926288    1565.3204    2057.7513   -141.72283   -172.09651   -738.67063    -4817.533 
36430000    74.615844   -5107.7312   -4963.8283   -5107.7312            0    1939.9974    19.982511    19.997123    20.625025      8241.61    2514.9025    672.59649    2632.4933   -197.55163    1059.0081   -66.180319   -4730.6494 
36431000    75.608388   -5116.5551   -4970.7379   -5116.5551            0    2970.5267    19.957307    19.858079    20.683749    8197.2546    3321.3126    2473.1791    3117.0883   -156.05275   -282.51117    753.58462   -4615.6158 
36432000    72.236141   -5108.2218   -4968.9083   -5108.2218            0     1920.954    19.995139    19.914395    20.691176    8239.0418    2432.9806    1455.1925    1874.6889    9.7595866   -712.57571   -745.63973   -4738.0903 
36433000    69.839763   -5112.7435   -4978.0516   -5112.7435            0     2320.515    19.881803    19.939993    20.729873    8218.2131    2836.5404    1958.6675    2166.3372   -482.48826   -146.79028    288.01811   -4699.9281 
36434000    70.004216   -5112.0822   -4977.0731   -5112.0822            0    1535.3671    19.980087    19.952032    20.614557    8217.8557    405.10828    2212.2086    1988.7846   -211.11575   -12.879925    355.69413   -4793.0609 
36435000    75.270096   -5106.6349   -4961.4702   -5106.6349            0    2120.8956    19.999632    19.775251    20.754047     8208.179     1287.135    2982.0982    2093.4535    346.66712   -213.98157      316.459   -4707.5823 
36436000    75.283794   -5107.2802   -4962.0891   -5107.2802            0    2075.2848    19.936529    19.980999    20.585205     8200.153    1581.0337    1869.6362    2775.1845    138.06338    371.37861    665.57986   -4713.9041 
36437000     70.89338   -5108.0594   -4971.3355   -5108.0594            0    2355.7335    19.919981    19.882378    20.822332    8246.8216    2436.1862    2369.4573    2261.5569     196.2596    276.33364    68.648803   -4688.0081 
36438000    75.140082   -5110.5188   -4965.6048   -5110.5188            0    1672.5013    19.944865    19.800406    20.816056    8220.6025    1317.7292    2401.8336    1297.9412   -207.33661    211.80443   -230.38212   -4765.0902 
36439000    69.121564   -5110.7775   -4977.4707   -5110.7775            0    1910.8468    19.938524    19.959206    20.694181    8235.3966    1208.7767    2285.1138    2238.6498   -388.09382    336.59085    609.91944   -4747.9688 
36440000    74.878826   -5103.7696   -4959.3595   -5103.7696            0    1427.0632    19.943659    19.993473    20.738011    8269.1366    1155.1548    1543.3606    1582.6741    39.253312    60.068633    479.20321   -4787.2601 
36441000    71.045773   -5103.3665   -4966.3487   -5103.3665            0    2278.6583    20.025463    19.873962    20.681226    8230.8239    1324.3388    2989.1463    2522.4898   -352.48922    590.90021   -324.95538   -4692.8229 
36442000    73.515383   -5108.4361   -4966.6555   -5108.4361            0      2726.85     20.03886      19.9043    20.644358    8234.1981    1881.9633    2874.5566    3424.0302   -400.52803    1142.8752    -109.4355   -4639.1953 
36443000    73.677853   -5112.2827   -4970.1888   -5112.2827            0    2615.4392    20.010887    19.847233    20.779764    8252.9067    1441.6275    3466.8832    2937.8068   -621.21095    -62.54859   -10.502393   -4655.3941 
36444000     75.85197   -5108.4119    -4962.125   -5108.4119            0    1344.0862    20.038451    19.941752    20.675486    8261.9623    1363.1248    716.11294    1953.0209   -249.27641    26.631395    418.90342    -4800.173 
36445000    74.109062   -5111.9573   -4969.0317   -5111.9573            0    2007.5715    19.917529    19.822876    20.880475    8244.0859     3156.227    1728.0872    1138.4003   -118.05384   -400.67195   -1025.2611   -4727.6583 
36446000    70.679412   -5105.3802    -4969.069   -5105.3802            0    2669.0528    19.843942    20.017204    20.657767    8205.6834    3887.3477    1876.9188    2242.8918   -70.727159    343.57662   -405.44545   -4649.6595 
36447000    72.766029   -5108.6366   -4968.3012   -5108.6366            0    1925.6808    19.935445    19.929572    20.768485    8251.4205    2813.3722    1606.1761     1357.494    33.811531    335.03063   -158.28736   -4736.5677 
36448000    72.995854   -5108.3021   -4967.5235   -5108.3021            0    1466.7154    19.975516    19.872515    20.824707    8266.6539    1261.0362    1944.8212    1194.2887    -166.2625      881.977    219.48155   -4790.6953 
36449000    74.117059   -5105.9247   -4962.9838   -5105.9247            0    1654.5627      19.9604    19.967298     20.71782    8257.1963    1952.8097     1079.081    1931.7974    85.575349    192.83779    144.32921   -4763.7368 
36450000    69.616462   -5106.5338   -4972.2726   -5106.5338            0    2314.9229    19.902365    19.996326    20.660834    8222.4785    1641.0272    3284.4095     2019.332   -322.58512   -282.32227   -641.20283   -4694.6754 
36451000    69.589933   -5104.9381   -4970.7281   -5104.9381            0    2039.0633    19.958136    19.895364    20.704317    8221.1542    1962.5191    1899.0791    2255.5918    56.197735    25.192573   -285.51342   -4726.2503 
36452000    72.467318   -5106.2507   -4966.4914   -5106.2507            0    2361.3068    19.885618    19.970225    20.702469    8221.3701    2441.2542    1981.0264    2661.6397    73.730751    1763.5497   -586.20991   -4683.3701 
36453000    69.012227   -5107.9929    -4974.897   -5107.9929            0    2385.0099    19.948147    19.907325    20.680659    8212.5845    2946.8494    1733.2339    2474.9465   -270.17358    452.02881    144.74879   -4689.2393 
36454000    69.284911   -5107.7043   -4974.0825   -5107.7043            0    2335.7636    19.943987    19.906554    20.640052    8194.4318    2122.2349    1905.4896    2979.5663    24.592144    1121.2385     287.0277   -4694.9415 
36455000    68.928824   -5112.3091   -4979.3741   -5112.3091            0    1465.4571    20.040416    19.829465    20.757241    8248.7353     584.4255    2604.8932    1207.0527   -477.93268    184.56423    60.439815   -4803.0806 
36456000    71.739784   -5114.4349   -4976.0787   -5114.4349            0    2484.4273    19.943731    19.894173    20.681402    8205.6368    3079.7715    2044.6621    2328.8485   -62.327744    751.43822   -516.40575   -4678.7653 
36457000    70.259043   -5105.3122   -4969.8117   -5105.3122            0    2315.7817    19.956347    19.889965     20.74279    8233.4574    2201.3839    1889.5441    2856.4172    -12.15765   -133.40218   -347.72414   -4691.7407 
36458000    74.718889   -5110.8276    -4966.726   -5110.8276            0    2246.1603    19.940945    19.908624    20.751099    8238.1193    2797.7288    1446.3645    2494.3876    14.548626   -118.25625   -4.4703594   -4696.8621 
36459000    72.973487   -5109.5335    -4968.798   -5109.5335            0     2806.394    20.024862    19.860347     20.75529    8254.3933     3568.152    1808.0674    3042.9627     115.1606    849.96958   -22.222678    -4630.959 
36460000    71.812332   -5099.8681    -4961.372   -5099.8681            0    2777.5391    20.026254    19.876482    20.682962    8232.8838    1228.9147    4372.4776    2731.2249    257.77325      908.888    -947.3422    -4627.878 
36461000    74.932901   -5113.6166   -4969.1022   -5113.6166            0    1628.0922     19.95038    19.875901    20.803811    8249.3722    1078.2113    2041.6391    1764.4263    113.62063   -255.37889   -594.61072   -4773.2286 
36462000    73.295864   -5108.0079   -4966.6506   -5108.0079            0    3055.9143    19.894997    19.999714    20.595839     8194.966    3020.4948    2907.7874    3239.4606    35.983257    -568.1659   -382.65524   -4601.4225 
36463000    76.300181     -5110.03   -4962.8787     -5110.03            0    2583.8936    19.950895    19.814261    20.844111    8239.9323    2367.5126    3314.8382    2069.3301    283.75838    442.03771    262.10263   -4652.3697 
36464000    74.574445   -5110.7627   -4966.9397   -5110.7627            0    2767.5459    19.965945    19.911277    20.647945    8208.5384    2977.5061    2436.5349    2888.5968   -443.11205    256.28233   -318.76198   -4635.6281 
36465000    69.856563   -5118.8009   -4984.0766   -5118.8009            0    1570.3331    19.970193    19.971632    20.705214    8258.0125    1831.0948    1369.2549    1510.6495   -298.65587     1591.934   -580.16751   -4794.9541 
36466000    72.496736   -5114.0762   -4974.2602   -5114.0762            0    1626.8204    19.901829    19.900788    20.791097     8234.565    1556.3948    2533.9322    790.13424    154.25817    331.70074   -214.84443   -4778.8909 
36467000    69.684895   -5115.5165   -4981.1233   -5115.5165            0    1427.6852    19.976583     19.90649    20.772783     8260.581    718.48279    1965.0774    1599.4953    478.69938    127.19889   -103.68866   -4809.1271 
36468000    74.474422    -5108.397   -4964.7668    -5108.397            0    1571.3543    19.992359    19.862146    20.751066    8240.0649    1376.0347    1178.2106    2159.8176   -290.22997   -343.66453   -433.32431   -4775.9326 
36469000    73.984535   -5108.8011   -4966.1157   -5108.8011            0    2172.7563    19.941221    19.883608    20.761246    8231.9047    2893.7005      997.591    2626.9774   -130.72013    166.97417    325.40669   -4705.2679 
36470000    70.009353   -5110.9843   -4975.9654   -5110.9843            0    2091.0221    19.924424    19.997711      20.6387    8223.3429    3527.8621    463.57889    2281.6253   -50.019835    531.62363    785.06359   -4725.1912 
36471000    76.056942   -5119.0142    -4972.332   -5119.0142            0    2612.4231    20.006856    19.790474    20.780406    8227.9013    3661.5069    1876.4982    2299.2643   -149.87621   -263.03127   -289.75966   -4658.8529 
36472000    70.392145   -5108.7377   -4972.9806   -5108.7377            0    3137.8056     20.02861    19.762811    20.681222    8186.0754    3497.7962    3230.4827    2685.1378   -371.77959     212.7543    181.44443    -4598.372 
36473000    68.694013   -5104.8303   -4972.3481   -5104.8303            0    2383.6151    19.917884    19.913255    20.690482    8206.4641    2470.2674    2917.7324    1762.8456   -219.79242   -35.106794    414.91159   -4687.0703 
36474000    75.804019   -5116.8926   -4970.6982   -5116.8926            0    1184.3388     19.94341    19.862681    20.857529    8262.2845    1478.3891    1229.9244    844.70285    30.441103    544.41267   -204.33162    -4827.989 
36475000    72.379421   -5116.1368    -4976.547   -5116.1368            0    2490.7485    19.948671    19.881608    20.743984     8227.306    1261.5275    3243.1619    2967.5561   -455.22615    940.71162   -1019.6996     -4677.69 
36476000    71.815261   -5106.9827   -4968.4809   -5106.9827            0    1999.4963    19.838236     20.02258    20.717576    8229.2838       2235.4    1437.6637    2325.4251    221.96041   -37.051729   -870.06811     -4728.51 
36477000    76.430789   -5100.9047   -4953.5015   -5100.9047            0    1702.4624    19.996813    19.987178    20.718577    8280.7981    1354.8867    1480.3467    2272.1537    2.7489317    739.98277    188.34811   -4747.9003 
36478000    76.310088    -5107.903   -4960.7326    -5107.903            0    2807.6946    19.843001    19.974972    20.703474    8206.0991    1980.3295    3666.5394    2776.2149   -121.30668    199.76528   -110.43106   -4624.7146 
36479000    76.526024   -5113.7569     -4966.17   -5113.7569            0    1794.1914    19.981703    19.847309    20.827603    8259.8736    2043.4789    2496.4387    842.65662   -210.92902    286.86663   -72.114928   -4750.0385 
36480000    73.825221    -5101.054   -4958.6759    -5101.054            0    2404.8677    19.829709    20.011153    20.704392    8215.8207    2217.8428     2675.606    2321.1543   -106.67152   -513.70815   -618.71344   -4670.5262 
36481000    72.701602   -5104.0282   -4963.8171   -5104.0282            0    1281.8055    19.921037    19.972126    20.725786    8246.0746    1974.7693    728.27595    1142.3713    64.705465    513.90828    341.48543   -4809.6665 
36482000    71.824263   -5107.9414   -4969.4222   -5107.9414            0    964.74965    19.929682    19.949899    20.793958     8267.577     730.6573    969.48618    1194.1055   -193.12829    112.82359     865.9182   -4853.0984 
36483000    72.019461   -5112.3778   -4973.4822   -5112.3778            0    1759.1604    20.004895    19.982057    20.612125    8239.4693    1426.7667    1630.7856     2219.929    283.50789    128.98948    236.31034   -4762.0941 
36484000    72.127317   -5103.5661   -4964.4625   -5103.5661            0    2914.1029    19.884665    19.916445    20.769104    8225.2265    2798.0047     3127.099    2817.2051     112.7039    496.42913    101.32414   -4614.8969 
36485000    69.042311   -5107.3474   -4974.1935   -5107.3474            0    2884.2463    19.789104    19.901253    20.745407    8170.1214    2729.0693     3684.716    2238.9537   -29.832209    489.01384   -322.66639   -4630.5274 
36486000    69.376059   -5107.6283   -4973.8308   -5107.6283            0    2220.4779    19.927769    19.914926    20.695138    8213.0732    1547.6557    3030.3022    2083.4759    285.34417    158.12774   -132.47205   -4707.8636 
36487000    69.352237   -5103.3448   -4969.5932   -5103.3448            0    1677.2909    19.884081    20.026382    20.606026    8205.4474    2055.9172    770.16427    2205.7912    439.55224      242.652   -518.02032   -4768.8751 
36488000    74.542496   -5108.9739   -4965.2124   -5108.9739            0     2470.057    19.923984    19.913551    20.752533    8233.7187    2134.8247    2642.1429    2633.2034   -200.52419    274.51629    573.70203   -4668.6071 
36489000    71.300463    -5105.388    -4967.879    -5105.388            0    1866.1795    19.924798    19.904493    20.672304    8198.4912    1900.3557    1654.2238     2043.959   -325.70178    493.47616    52.199251   -4744.7463 
36490000    72.813466   -5109.3876   -4968.9607   -5109.3876            0     1051.565    20.052787    19.991028    20.613616    8263.5002    985.28508    429.65701     1739.753   -308.16157    460.76336    -352.2951   -4842.2317 
36491000    69.877519   -5108.4681   -4973.7034   -5108.4681            0    2326.3047    19.926057    19.903181    20.773767    8238.7083    2397.5562    2290.9662    2290.3918    295.64263   -551.13597    406.99258   -4694.1907 
36492000    71.571478   -5107.5419   -4969.5103   -5107.5419            0    1822.5756     19.97249    20.024415    20.647089    8257.5437    2102.1811    1285.0904    2080.4553    -31.45667    90.636663    -28.11232   -4750.0215 
36493000    74.847138   -5105.4282   -4961.0792   -5105.4282            0    2376.5754     20.03274    19.811378      20.6501    8195.5329    1173.6533    2797.3167    3158.7563   -271.94632    715.77032   -189.01742   -4677.0227 
36494000    74.664026   -5106.4637   -4962.4678   -5106.4637            0    2725.1456    19.951352    19.810236    20.718142    8188.6587     2223.161    3369.5774    2582.6985   -14.433109    94.758534    189.67187   -4637.0223 
36495000    77.650352   -5106.2436   -4956.4883   -5106.2436            0    2014.8486    19.919416    19.901791    20.774879    8235.8279    1156.0333    2367.0858    2521.4269    32.132181    132.43086    308.17988   -4714.4826 
36496000    74.705577   -5107.1982   -4963.1223   -5107.1982            0    2367.0539    19.808648    19.908232     20.93296    8255.0209    2121.1668    2937.8219    2042.1732   -225.05124    -83.99852    449.52927   -4678.1502 
36497000     71.71725   -5107.5413   -4969.2285   -5107.5413            0     2061.269    19.906374    19.951099    20.653491    8202.6176      2170.22     1388.281     2625.306   -431.54682   -147.65183    -49.47732   -4722.6456 
36498000    72.916725   -5101.8296   -4961.2036   -5101.8296            0    1824.2686    19.876218    19.985147    20.661022    8207.1598    1927.3162    1840.8186     1704.671    50.044794    284.20078    282.15981   -4742.8514 
36499000    70.473905   -5110.7299    -4974.815   -5110.7299            0    2088.0685     19.99419    19.977054    20.504619    8190.0575    1934.1853    1499.7754    2830.2448    133.47727    486.60658  -0.43305781   -4725.4086 
36500000    74.384983   -5103.0811   -4959.6234   -5103.0811            0    1446.9422    19.999975    19.883416    20.806623    8274.1244    2257.4898    1312.0212    771.31559   -298.37593    815.70285    -9.628699   -4785.0215 
Loop time of 371.902 on 64 procs for 250000 steps with 972 atoms

Performance: 116.160 ns/day, 0.207 hours/ns, 672.220 timesteps/s
194.3% CPU use with 32 MPI tasks x 2 OpenMP threads

MPI task timing breakdown:
Section |  min time  |  avg time  |  max time  |%varavg| %total
---------------------------------------------------------------
Pair    | 26.101     | 34.235     | 42.413     |  74.2 |  9.21
Bond    | 0.96017    | 1.188      | 1.5519     |  11.3 |  0.32
Kspace  | 163.72     | 174.32     | 185.26     |  44.3 | 46.87
Neigh   | 0.12354    | 0.13988    | 0.1584     |   3.0 |  0.04
Comm    | 62.6       | 69.066     | 75.341     |  39.4 | 18.57
Output  | 0.57621    | 0.57654    | 0.57806    |   0.0 |  0.16
Modify  | 72.664     | 75.389     | 79.017     |  15.4 | 20.27
Other   |            | 16.98      |            |       |  4.57

Nlocal:        30.3750 ave          37 max          26 min
Histogram: 3 7 6 4 0 2 6 2 1 1
Nghost:        2628.97 ave        2658 max        2609 min
Histogram: 5 1 5 5 4 3 6 2 0 1
Neighs:        9528.88 ave       12084 max        7828 min
Histogram: 6 4 4 2 3 6 2 2 2 1

Total # of neighbors = 304924
Ave neighs/atom = 313.70782
Ave special neighs/atom = 2.0000000
Neighbor list builds = 386
Dangerous builds = 0

unfix		3
unfix		2
unfix		1

write_data	data.final.${pid}
write_data	data.final.1
System init for write_data ...
PPPM initialization ...
  extracting TIP4P info from pair style
  using 12-bit tables for long-range coulomb (../kspace.cpp:340)
  G vector (1/distance) = 0.37254976
  grid = 24 24 25
  stencil order = 5
  estimated absolute RMS force accuracy = 0.003390189
  estimated relative force accuracy = 1.0209453e-05
  using double precision FFTW3
  3d grid and FFT values/proc = 3458 576
Last active /omp style is kspace_style pppm/tip4p/omp
WARNING: Not all mixed pair coeffs generated from mixing. Use write_data with 'pair ij' option to store all pair coeffs. (../write_data.cpp:312)

write_restart   restart.lmp.${pid}
write_restart   restart.lmp.1
System init for write_restart ...
PPPM initialization ...
  extracting TIP4P info from pair style
  using 12-bit tables for long-range coulomb (../kspace.cpp:340)
  G vector (1/distance) = 0.37254976
  grid = 24 24 25
  stencil order = 5
  estimated absolute RMS force accuracy = 0.003390189
  estimated relative force accuracy = 1.0209453e-05
  using double precision FFTW3
  3d grid and FFT values/proc = 3458 576
Last active /omp style is kspace_style pppm/tip4p/omp
Total wall time: 0:06:12
