#include		in.partitions
include		in.temp
variable        temperature equal 262.86
variable	tempDamp equal 100.0
include		in.pressure
variable        pressure equal 7125.0
variable        pressureDamp equal 1000.0 # This is 1 ps
include		in.seed
variable        seed equal 745823

units		real
atom_style	full

read_restart	restart.lmp.${pid}
read_restart	restart.lmp.0
Reading restart file ...
  restart file = 30 Jul 2021, LAMMPS = 30 Jul 2021
  restoring atom style full from restart
  orthogonal box = (0.0031067848 -0.060497960 0.098482814) to (19.996894 20.060499 20.601515)
  2 by 4 by 4 MPI processor grid
  restoring pair style lj/cut/tip4p/long/omp from restart
  restoring bond style harmonic/omp from restart
  restoring angle style harmonic/omp from restart
  972 atoms
  648 bonds
  324 angles
Finding 1-2 1-3 1-4 neighbors ...
  special bond factors lj:    0        0        0       
  special bond factors coul:  0        0        0       
     2 = max # of 1-2 neighbors
     1 = max # of 1-3 neighbors
     1 = max # of 1-4 neighbors
     2 = max # of special neighbors
  special bonds CPU = 0.002 seconds
  read_restart CPU = 0.010 seconds
include 	in.setup
variable	out_freq equal 1000
variable	out_freq2 equal 10000
variable	out_freq3 equal 1000

timestep	2.0

neigh_modify    delay 7 every 1

include		in.tip4p
# This is TIP4P/Ice

# create groups ###
group ox type 2
324 atoms in group ox
group hy type 1
648 atoms in group hy

# set charges - beside manually ###
set group ox charge -1.1794
Setting atom values ...
  324 settings made for charge
set group hy charge 0.5897
Setting atom values ...
  648 settings made for charge

# ### TIP3P Potential Parameters ###
pair_style lj/cut/tip4p/long/omp 2 1 1 1 0.1577 8.5
pair_coeff 1 1*2 0.000 0.000
pair_coeff 2 2 0.21084 3.1668
bond_style  harmonic
bond_coeff  1 450 0.9572
angle_style harmonic
angle_coeff 1 55 104.52
kspace_style pppm/tip4p/omp 1.0e-5
pair_modify tail yes

thermo          ${out_freq}
thermo          1000
thermo_style    custom step temp pe etotal epair emol press lx ly lz vol pxx pyy pzz pxy pxz pyz enthalpy

restart 	${out_freq3} restart.lmp.${pid} restart2.lmp.${pid}
restart 	1000 restart.lmp.${pid} restart2.lmp.${pid}
restart 	1000 restart.lmp.0 restart2.lmp.${pid}
restart 	1000 restart.lmp.0 restart2.lmp.0


include         in.dump
dump            myDump all atom ${out_freq2} dump.water.${pid}
dump            myDump all atom 10000 dump.water.${pid}
dump            myDump all atom 10000 dump.water.0
dump            myDump2 all dcd ${out_freq2} dump.dcd
dump            myDump2 all dcd 10000 dump.dcd
dump_modify     myDump append yes
dump_modify     myDump2 append yes


variable natoms 	equal  "count(all)"                        # NUMBER ATOMS
variable H      	equal  "enthalpy/v_natoms"                 # ENTHALPY-per-atom
variable Vol      	equal  "vol/v_natoms"                 # volume-per-atom
fix AVG all 		ave/time ${out_freq} 1 ${out_freq} v_Vol v_H file vol_enthalpy.dat
fix AVG all 		ave/time 1000 1 ${out_freq} v_Vol v_H file vol_enthalpy.dat
fix AVG all 		ave/time 1000 1 1000 v_Vol v_H file vol_enthalpy.dat


timer           timeout 02:55:00 every 1000
New timer settings: style=normal  mode=nosync  timeout=02:55:00

fix 		1 all shake 1e-6 200 0 b 1 a 1
       0 = # of size 2 clusters
       0 = # of size 3 clusters
       0 = # of size 4 clusters
     324 = # of frozen angles
  find clusters CPU = 0.001 seconds
fix             2 all nph aniso ${pressure} ${pressure} ${pressureDamp}
fix             2 all nph aniso 7125 ${pressure} ${pressureDamp}
fix             2 all nph aniso 7125 7125 ${pressureDamp}
fix             2 all nph aniso 7125 7125 1000
fix             3 all temp/csvr ${temperature} ${temperature} ${tempDamp} ${seed}
fix             3 all temp/csvr 262.86 ${temperature} ${tempDamp} ${seed}
fix             3 all temp/csvr 262.86 262.86 ${tempDamp} ${seed}
fix             3 all temp/csvr 262.86 262.86 100 ${seed}
fix             3 all temp/csvr 262.86 262.86 100 745823


run             250000
PPPM initialization ...
  extracting TIP4P info from pair style
  using 12-bit tables for long-range coulomb (../kspace.cpp:340)
  G vector (1/distance) = 0.37148733
  grid = 24 24 24
  stencil order = 5
  estimated absolute RMS force accuracy = 0.0035955556
  estimated relative force accuracy = 1.0827909e-05
  using double precision FFTW3
  3d grid and FFT values/proc = 3211 432
Last active /omp style is kspace_style pppm/tip4p/omp
Neighbor list info ...
  update every 1 steps, delay 7 steps, check yes
  max neighbors/atom: 2000, page size: 100000
  master list distance cutoff = 10.8154
  ghost atom cutoff = 10.8154
  binsize = 5.4077, bins = 4 4 4
  1 neighbor lists, perpetual/occasional/extra = 1 0 0
  (1) pair lj/cut/tip4p/long/omp, perpetual
      attributes: half, newton on, omp
      pair build: half/bin/newton/omp
      stencil: half/bin/3d
      bin: standard
Per MPI rank memory allocation (min/avg/max) = 10.18 | 10.18 | 10.19 Mbytes
Step Temp PotEng TotEng E_pair E_mol Press Lx Ly Lz Volume Pxx Pyy Pzz Pxy Pxz Pyz Enthalpy 
20750000    267.99124   -4664.1517   -4147.3081   -4664.1517            0    5367.5807    19.993787    20.120997    20.503032    8248.2661    5667.9298    4570.3274    5864.4848    28.967287   -23.409692   -24.343357   -3501.6284 
20751000    258.89973   -4708.8607   -4209.5508   -4708.8607            0    6476.9666    19.989885    19.940642    20.620876    8219.7112    5966.7149    7607.1775    5857.0075    -191.0038   -255.22745   -51.337955   -3433.1176 
20752000    271.98461   -4716.2831   -4191.7379   -4716.2831            0    5698.1708    19.762398    20.050601    20.723269     8211.553    7707.2938    4317.1098    5070.1088   -376.47695     669.5191   -778.10021   -3509.3416 
20753000    265.42986   -4707.7095   -4195.8057   -4707.7095            0    7864.7668    19.811025    19.782335    20.814016    8157.1866    8453.5011    8250.7759    6890.0236   -373.80297   -673.91873   -250.54344     -3260.18 
20754000     252.2548   -4716.9616    -4230.467   -4716.9616            0    7955.9349    19.904728     19.95202    20.482943    8134.5866    9184.6807    8028.5384    6654.5856   -810.02497    1705.3543   -466.82252   -3286.6178 
20755000    260.35369   -4684.1231   -4182.0091   -4684.1231            0    6696.6978    20.019775    20.052356    20.413055    8194.6914    6201.0371    4956.3098    8932.7467   -76.887579   -474.91954   -1892.1092   -3381.6789 
20756000    272.89262    -4698.054   -4171.7577    -4698.054            0    6944.4357    19.946744    19.900514    20.646119    8195.4866    6701.1721    7340.2277    6791.9072   -79.472086    112.89945     103.8036   -3341.7395 
20757000    265.12712   -4696.9448   -4185.6249   -4696.9448            0    7394.3645    19.859451    19.822737    20.834283    8201.8045    8802.2497    6441.8557    6938.9881   -660.28968    526.33331   -1447.2959   -3301.1487 
20758000    262.83695   -4690.9954   -4184.0922   -4690.9954            0    7553.2077     19.97868    19.800598    20.715934    8195.0123    5800.5431     9281.577    7577.5031    172.07259   -569.66874   -714.60971   -3281.3642 
20759000    271.30882   -4693.8525   -4170.6107   -4693.8525            0    7512.5565     20.04902    19.922682    20.552451    8209.2705    8148.8158    7743.1136    6645.7401    -572.8437    740.18726   -465.68874   -3271.1789 
20760000    264.73089     -4684.45   -4173.8942     -4684.45            0     8048.902    19.980963    19.988723     20.52429    8197.2769    9265.9117    7774.0871    7106.7074    175.03873   -178.50753    1392.9109    -3211.657 
20761000    263.46268   -4708.7084   -4200.5985   -4708.7084            0    6496.8956    20.096896    19.722371    20.710503    8208.7829    7317.0028    4891.7539    7281.9301   -595.46401   -504.21978    305.86888   -3422.8117 
20762000    268.04181   -4668.9846   -4152.0434   -4668.9846            0     6462.708    20.010774    19.916651    20.763379    8275.1946    4834.4472    8024.5951    6529.0816   -792.01079    722.16059   -1044.9366   -3372.0901 
20763000    269.16102   -4660.7358   -4141.6361   -4660.7358            0    6431.6491      19.9809    20.015349     20.35355    8139.8871    5930.1222    5244.9057    8119.9194    17.822679    105.67653   -1167.8864   -3378.1228 
20764000    261.22823   -4707.3908   -4203.5902   -4707.3908            0    7245.2492    20.086628    19.683557    20.802583    8224.8478    5342.9603    8657.4827    7735.3045    276.42013    423.77292   -157.81893   -3334.5155 
20765000    275.18691   -4721.2057   -4190.4846   -4721.2057            0       6250.1    19.697338    20.098919    20.667943    8182.3392    7366.1151    5285.9287    6098.2561     46.17111    -121.4143    472.24263   -3444.6538 
20766000    268.92331   -4709.7985   -4191.1573   -4709.7985            0    6934.1863    19.947381    19.749581    20.855267    8215.9831    6548.3928    7639.5813    6614.5847   -822.58041    227.40166   -1033.6531   -3360.2914 
20767000     256.8706    -4683.319   -4187.9224    -4683.319            0    7775.8838    19.860334    19.792521    20.770518    8164.6011     9814.418    6696.0103    6817.2232    6.7105471    67.333034    -1292.814   -3262.0298 
20768000    249.11402   -4700.0071   -4219.5697   -4700.0071            0    7508.8707    19.985865    20.073823     20.33853    8159.6701    8042.1398     6079.503    8404.9693    32.199757   -1573.7896    11.989579    -3326.011 
20769000    246.51949    -4668.894   -4193.4604    -4668.894            0    7355.2656    20.109344    19.905319    20.511051    8210.2231    6791.3373    7303.4077    7971.0518   -101.71067    1027.2879   -745.42592    -3312.758 
20770000    267.89123   -4726.1556   -4209.5048   -4726.1556            0     6055.024    20.072691     19.93091    20.635666    8255.6488    4467.9161    7408.5075    6288.6484   -599.63678     865.1071    487.25299   -3480.4789 
20771000    260.98072   -4715.0801   -4211.7569   -4715.0801            0    8590.9102    19.625764    19.990166    20.701295    8121.5796    8927.4679    8324.9197    8520.3431    148.12675    1063.1561    568.92573   -3194.2073 
20772000    270.70762   -4709.4739   -4187.3915   -4709.4739            0    6484.0783    20.216116    19.637531    20.555695    8160.4999    5500.5432     6994.956    6956.7357    622.26712   -426.70226    1178.2037    -3415.705 
20773000    248.94073    -4702.794   -4222.6908    -4702.794            0    6721.6534    20.041789    19.996572    20.387471    8170.6268    6917.7404    5888.1778    7359.0419   -118.49918    1616.9068   -276.72246   -3421.7372 
20774000     278.7986   -4680.3543   -4142.6677   -4680.3543            0    7355.6704    20.044578    19.806458     20.68624    8212.6874    5761.6085    9063.8185    7241.5842    753.77787    -145.1438   -112.74292   -3261.6525 
20775000     274.0287   -4688.9631   -4160.4757   -4688.9631            0    6449.3073    19.807176     19.86516    20.851267     8204.405    6065.0097    8479.5741    4803.3381    665.48231    497.27503   -529.97728   -3388.7978 
20776000    263.29916   -4659.5362   -4151.7416   -4659.5362            0    8313.7285    20.167861    19.834785    20.305429    8122.6829    6041.9258    11152.695    7746.5649    457.76092    714.12941    461.12552    -3166.889 
20777000     269.3551   -4664.1345   -4144.6605   -4664.1345            0     7899.421     19.90943    19.768519    20.627434    8118.5442    8746.5136    7300.6358    7651.1136    90.004376    390.70383   -1086.0249    -3209.364 
20778000    269.04849   -4726.8923   -4208.0096   -4726.8923            0    6832.0251    20.064198    19.710402    20.598519    8146.1665    6659.0292     8384.266    5452.7801    116.28852   -341.13312   -612.00682   -3396.3412 
20779000    269.83361   -4702.0428    -4181.646   -4702.0428            0    6436.6247     20.11798    20.006134    20.399444    8210.4293    6109.1616    5061.5475     8139.165    201.62381   -562.04375     69.72399   -3410.9201 
20780000    283.72264   -4711.2701   -4164.0871   -4711.2701            0    8716.8729    19.884227    19.947653     20.33572    8066.0344    10133.288     7193.485     8823.846   -608.75514   -1536.6451    337.21865   -3138.6792 
20781000    260.67966   -4659.1001   -4156.3574   -4659.1001            0    7527.2263    20.000255    19.850001    20.617231    8185.1458    7457.9679    6862.5125    8261.1985    324.55967    487.25224    1318.1861   -3257.8177 
20782000     251.2448   -4661.9585   -4177.4117   -4661.9585            0    6620.7239    20.051608    19.979912    20.344147    8150.4626    7810.2194    5886.1379    6165.8144   -107.09916     652.5247    333.34056   -3390.4319 
20783000    267.34442   -4705.5341   -4189.9379   -4705.5341            0    8138.2491    20.016317     19.93802    20.462435    8166.2656    8908.8493    7223.9324    8281.9655   -510.10681    312.07472   -1631.0301   -3220.7001 
20784000    258.54969   -4700.5179   -4201.8831   -4700.5179            0    8100.2636    19.763271    19.932589    20.799727    8193.7019    8189.6324    10355.876    5755.2825    930.02375    371.66875   -29.719014    -3233.928 
20785000    260.04589   -4723.2784   -4221.7581   -4723.2784            0    9491.5105    19.799406    19.939504    20.566984    8119.6463    8564.2442    10888.384    9021.9035    547.40344    1130.4274   -1441.1872   -3097.8046 
20786000    256.23924   -4713.6355   -4219.4566   -4713.6355            0     6674.422    20.097799    19.786088    20.469099    8139.6768    6634.7177    5936.7986    7451.7497    604.94038   -696.87016   -674.03303   -3427.1437 
20787000    267.84248    -4716.238   -4199.6812    -4716.238            0    6424.1344    19.929351    20.174339    20.525015    8252.3182    6310.1402    6799.0934    6163.1697    123.15486    1071.7065    834.72158   -3426.5264 
20788000    268.21782   -4679.8563   -4162.5757   -4679.8563            0    8672.6804    19.929527    19.937471    20.480887    8137.9651    8175.5995    9262.7942    8579.6476   -102.94441    1296.4046    584.89094   -3133.2684 
20789000    261.98641   -4716.6534   -4211.3905   -4716.6534            0    9180.2274     19.87471    20.091371    20.347133    8124.8173    9995.5668    8264.1096    9281.0059    537.70394    2352.7346    2252.4228   -3123.6059 
20790000    257.14401   -4687.7616   -4191.8378   -4687.7616            0    7543.0535    19.989017    19.851186    20.587553    8169.2581     6869.277    8109.5361    7650.3474    90.438257    980.50584    -70.92873   -3293.1565 
20791000    261.41133    -4690.694   -4186.5403    -4690.694            0    7259.5359    19.955115    19.880572    20.711336    8216.5825    4835.1957    9288.4404    7654.9717   -107.64631    851.97941    349.52396    -3316.627 
20792000    264.91743   -4717.2772   -4206.3616   -4717.2772            0    4941.4811    20.033824    20.037909    20.643238    8286.9376    4316.6787    5119.3686     5388.396    16.188794    -409.9563    64.796241   -3609.1516 
20793000    270.89693   -4693.7663   -4171.3188   -4693.7663            0    7027.4752    19.830768    20.198519     20.47306    8200.5282    7529.0603    6191.2132    7362.1522    166.85452     75.41695   -1897.0969   -3330.8588 
20794000     249.5429   -4702.8574   -4221.5929   -4702.8574            0    7441.5456    20.097839     19.89729    20.419283    8165.5186    7683.1899    5721.0535    8920.3934    27.766435    440.69867    17.697117   -3335.4111 
20795000    259.74898   -4729.3107    -4228.363   -4729.3107            0    7965.5745    19.632784     20.03833    20.657369    8126.7785    10602.626    5668.3509    7625.7464    1297.0336    477.41014    655.31339   -3284.2773 
20796000    263.57107   -4719.1625   -4210.8435   -4719.1625            0    8164.0495    19.861664    19.796098    20.810375    8182.2953    9611.3883    7420.1311    7460.6291   -482.40046   -341.14929    171.13159   -3236.6244 
20797000     269.7334   -4722.2804   -4202.0769   -4722.2804            0    6251.7528     20.00139    19.929925    20.655097    8233.6629    7284.5972    6155.1202    5315.5411    343.21417    1011.5496   -99.796942   -3451.3694 
20798000    252.71404    -4711.826   -4224.4458    -4711.826            0    7733.2601    19.997124    19.914701     20.54375    8181.2759    7509.5085    7208.0644    8482.2075    -201.2055     326.5189   -352.74252   -3301.7478 
20799000    265.22651   -4693.2832   -4181.7715   -4693.2832            0    7600.3244    20.086723    19.907545    20.515542    8203.7003    5930.5255    8422.9301    8447.5176   -579.91303   -1143.2086    1454.3515   -3272.4493 
20800000    250.76134   -4698.6773    -4215.063   -4698.6773            0    9116.3383    19.827727    19.934692    20.613656    8147.7461    10081.224    9293.5237     7974.267    419.56983    -1042.437   -192.16989   -3131.8002 
20801000    278.50291   -4659.6328   -4122.5165   -4659.6328            0    5877.2256     20.16476     19.84397    20.601813    8243.7925    6161.6373    6921.8277    4548.2116    154.06024    826.41857   -622.87089   -3415.9138 
20802000    258.93791   -4716.7616   -4217.3781   -4716.7616            0    6271.2691    20.042947    19.880916    20.614279    8214.2157    6084.0304    5403.0747    7326.7023   -402.04289    2226.6381    353.27711   -3466.1057 
20803000    255.39794    -4719.838   -4227.2816    -4719.838            0    6027.8602    19.890933    20.036641    20.544695    8188.0367    4789.9831    5637.7389    7655.8587   -27.931085    991.91167      867.142     -3507.47 
20804000    264.39564   -4670.6201   -4160.7109   -4670.6201            0    6113.2361    20.111809    20.171877     20.30422    8237.2788     6785.154    4989.8961    6564.6583    197.54423     1100.913    1180.5651    -3426.314 
20805000    267.79119   -4712.3081   -4195.8503   -4712.3081            0    7330.1088    19.978655    19.989987    20.620454    8235.2539    6022.3297    8607.4365    7360.5601    -594.1206   -935.29015    629.66757   -3315.4842 
20806000    280.70641   -4688.2164   -4146.8505   -4688.2164            0    7278.5568    19.881675    19.846266    20.803303    8208.5053    6920.2296     8035.808    6879.6328   -296.47244    1145.0993   -990.21701   -3275.5153 
20807000    245.69374   -4703.8774   -4230.0364   -4703.8774            0    8853.1274     19.89282    19.847136      20.7572    8195.2641    10929.659    7740.7076    7889.0156    653.70899    759.99413   -1496.1346   -3171.9148 
20808000    270.15496    -4710.998   -4189.9814    -4710.998            0    5990.2733    20.354816    19.925676    20.341011    8249.9779    3794.7189    8000.9641    6175.1368   -467.06141   -498.98842    1014.1976   -3469.2469 
20809000    267.62996   -4717.3613   -4201.2144   -4717.3613            0    7840.5736    19.904748    20.041581    20.530197    8189.9601    8541.8027    7573.7864    7406.1316   -662.43079   -815.56727    118.56408   -3264.7193 
20810000    264.78886   -4701.9317   -4191.2641   -4701.9317            0    7103.4548    19.837385    20.058077    20.643113    8213.8902    8024.7626    6742.7607    6542.8412    389.61792    7.0514989    -825.5849    -3340.333 
20811000    269.48219   -4692.6803   -4172.9613   -4692.6803            0    7270.0229    20.055037    19.767958     20.63402    8180.2983    6055.4586    8287.6656    7466.9445   -287.20028   -548.04957   -551.84777   -3305.6384 
20812000    284.00204   -4686.5532   -4138.8313   -4686.5532            0    6915.2884     20.07421    19.920728    20.502286    8198.7181    7647.1602    6131.6708    6967.0342    430.96567    1105.4593   -361.03271    -3311.971 
20813000    268.50091   -4684.2304   -4166.4038   -4684.2304            0    6036.5748    19.881265    20.015326    20.620325     8205.446    7374.7056    4248.3253    6486.6934    147.94331    59.289589    -278.8867   -3444.0189 
20814000    262.09751   -4694.1125   -4188.6354   -4694.1125            0     5135.531    20.009681    19.653261    20.911693    8223.6383    5527.3819    5517.9021    4361.3091   -282.69957    436.40476   -512.55679   -3572.7141 
20815000    277.50208   -4729.9899   -4194.8038   -4729.9899            0    7529.4415    19.847426    19.970004    20.533172    8138.3879    8313.2398    5859.7543    8415.3302    25.861367   -286.44807    491.59202   -3301.1341 
20816000    267.82325    -4676.274   -4159.7543    -4676.274            0    5273.3839    20.168536    20.000599     20.61313    8314.9822    5694.9372     5645.052    4480.1624    758.38748    309.28377    1492.5756   -3520.2748 
20817000    259.48583   -4717.3203     -4216.88   -4717.3203            0    6582.1935    19.978531    19.969434    20.651219    8239.0099    7543.6568     5576.565    6626.3587     7.174303  -0.15041756    544.50863   -3425.9801 
20818000    265.56279   -4700.5512    -4188.391   -4700.5512            0    6471.3868    20.087216    19.967914    20.434707     8196.357    5413.4324    7115.6637    6885.0643   -204.18087    1120.7854   -671.33513   -3414.8308 
20819000    254.98376   -4724.6791   -4232.9214   -4724.6791            0     6732.729    19.999984    19.930552    20.643442    8228.6973    5958.2167    7477.7281    6762.2422    15.924709    775.32199    32.579697   -3424.9461 
20820000     265.8107    -4691.867   -4179.2287    -4691.867            0    6910.9207    19.981494    19.898657    20.640217    8206.6515    7023.1518    6012.8651    7696.7453   -7.8360158    351.70206    675.32121    -3352.091 
20821000    271.55342   -4707.6916    -4183.978   -4707.6916            0    6916.4275     20.02022    19.825867    20.728094    8227.3581      6694.22    8305.1392    5749.9233    95.154728     1430.785   -235.02704   -3354.0926 
20822000    277.54605   -4662.0757   -4126.8048   -4662.0757            0    5776.4301    20.129453    20.115613    20.415465    8266.5545    3891.0606    6416.6315    7021.5981   -78.194181     169.3751   -2722.9934   -3430.4029 
20823000    258.63736   -4720.1357   -4221.3318   -4720.1357            0     8766.814    19.916799    20.070315      20.3438    8132.1579    8743.8667    8127.4875    9429.0879   -807.31823    903.05186   -1088.1246   -3181.5948 
20824000    252.49433   -4720.4235    -4233.467   -4720.4235            0    5966.2166    20.014048    19.769294    20.782543    8222.8959    8090.1974    5661.3135    4147.1389   -261.56541    743.42945   -824.80393   -3517.9833 
20825000     256.5105   -4695.6904   -4200.9883   -4695.6904            0    7458.3841    19.918393    20.073777    20.383844    8150.2226    8438.7694    5838.5491    8097.8339    184.21456    501.60791    631.52458   -3314.4651 
20826000    276.14053   -4721.7542    -4189.194   -4721.7542            0    6977.1624    19.996952    19.903534     20.41961    8127.2092    8699.8018    6127.2499    6104.4355    207.17675     373.5691   -1014.0314   -3362.2118 
20827000    256.39191   -4728.0365   -4233.5632   -4728.0365            0    7683.8644    19.732805    20.013562    20.645642    8153.4538    9339.4109     7639.287    6072.8953   -18.989963    279.26001    808.88647   -3319.8767 
20828000    285.92776   -4702.0353   -4150.5995   -4702.0353            0    6186.5428    20.081162    19.836523    20.549749    8185.7958    6194.1437    5934.3573    6431.1273   -277.22343   -935.34021    173.83886   -3412.0412 
20829000    252.10487   -4704.7346   -4218.5291   -4704.7346            0    7259.6627    19.923188    19.920336    20.611199    8180.1021    8894.8968    5830.3506    7053.7405   -48.535297    551.28006   -546.59717    -3352.463 
20830000    274.14867   -4689.7211   -4161.0023   -4689.7211            0    6674.4114    20.034936    19.991952     20.51478    8216.9385    8172.7079    4829.8976    7020.6286   -183.99745   -552.85705    503.99563   -3361.1701 
20831000    278.23527    -4713.013   -4176.4129    -4713.013            0    7645.4901    20.134089     19.87626     20.36635    8150.4174    7162.9319    6187.9523    9585.5861   -57.623716    1017.5208   -1119.3788   -3267.6281 
20832000    259.19101   -4716.0057    -4216.134   -4716.0057            0    9507.1605    19.794473     19.84168    20.671632    8118.8991    10201.682    10021.619    8298.1803   -119.95125    541.60118   -58.032843   -3090.4309 
20833000    261.33031   -4677.0686   -4173.0712   -4677.0686            0    6750.0802    20.167161    19.893575    20.467412    8211.4629    5103.2082    8212.4221    6934.6104    674.03233   -255.11429   -437.84225   -3364.7102 
20834000    264.64256   -4666.6985    -4156.313   -4666.6985            0    6794.9476    20.015728    19.932624    20.515518    8184.9939    6876.6087    6700.0465    6808.1875   -877.66799    2144.8721    515.42708   -3345.2019 
20835000    255.05699   -4708.7727   -4216.8738   -4708.7727            0    6856.2595    19.725305    19.965908     20.66837    8139.8991    8402.7233    5331.3917    6834.6636   -539.34813    736.35887   -793.86965    -3402.953 
20836000    261.96169   -4704.3216   -4199.1065   -4704.3216            0    7502.0948     19.93982     19.71957     20.73876    8154.5774    8130.9358    7552.3245     6823.024   -81.009932    776.46835    454.22807   -3306.9113 
20837000    261.80218   -4711.0856   -4206.1781   -4711.0856            0    6324.3176    20.033525    19.789611    20.601476    8167.5715    5572.3224    7363.8454    6036.7849    286.96859    -290.2436    166.82936   -3452.8529 
20838000    273.71906   -4716.3831   -4188.4929   -4716.3831            0     5784.985    20.103051    19.766379    20.591476    8182.3226    5539.3679    5954.5018    5861.0852    264.25486   -306.04763   -817.92009   -3498.1661 
20839000    256.08721   -4732.8434   -4238.9577   -4732.8434            0    7429.6447    19.828864     19.79016    20.756753    8145.2902    7332.5601    7484.8741    7471.4998    438.15955    16.389925   -1443.9829    -3356.385 
20840000    261.21741    -4698.221   -4194.4413    -4698.221            0     8819.383    19.915154    19.905279    20.407904    8090.0338    7669.1687    9901.9355    8887.0447   -302.14756    184.91483    261.23947   -3153.8878 
20841000    256.49175   -4704.3704   -4209.7045   -4704.3704            0    6294.4945    19.806979    19.967764    20.736891    8201.4629    5230.2102    6473.9713    7179.3019    861.94521   -641.38226    706.93575   -3456.8205 
20842000    253.35057   -4679.3229    -4190.715   -4679.3229            0    8255.3388    20.257756    19.937763    20.231388    8171.3432    6016.9604     8838.302     9910.754    552.45728   -1448.4059     1026.398   -3206.9209 
20843000    271.23148   -4699.9737    -4176.881   -4699.9737            0    5882.1927     19.97886    19.951589    20.699308    8250.9511    5780.7558    6556.4016    5309.4206     196.9792     649.5554    395.96375    -3469.067 
20844000    261.65867   -4693.2001   -4188.5693   -4693.2001            0    7127.3788    19.791969    19.973068    20.602112    8144.1456    7698.2329    7091.7257    6592.1777   -562.15048    418.85608    67.494847    -3342.022 
20845000    252.91526    -4722.938   -4235.1696    -4722.938            0    6418.2431    19.863289    20.072026    20.566132    8199.6438    8061.8332    5078.1938    6114.7024    403.06552    611.73701    760.80436   -3467.6543 
20846000    267.13683   -4698.4787   -4183.2829   -4698.4787            0     6978.458    20.190372    19.824319     20.45359    8186.7613    7023.2259    6637.8117    7274.3363    122.43155    515.43057    630.11483   -3350.0863 
20847000    255.67719   -4673.3745   -4180.2795   -4673.3745            0    6934.2543    20.040368    19.923715    20.524792    8195.1099    9091.3207    5396.9108    6314.5313    98.496976    876.42813   -771.08246   -3351.5163 
20848000    266.31721   -4706.3917   -4192.7765   -4706.3917            0    8052.4584    20.069153    19.835251    20.381223    8113.2901    7837.5902    7777.6469    8542.1381    -285.7396    767.69462    752.91786   -3239.9773 
20849000    259.69241   -4699.2611   -4198.4224   -4699.2611            0    6930.9296    20.036113    19.911924    20.453957    8160.2608    5185.6604    9327.9038    6279.2247   -430.45065    584.38284    57.606782   -3373.5792 
20850000    265.67408   -4703.4744   -4191.0996   -4703.4744            0    6748.8961     19.99143    20.095491    20.279466     8147.024    5443.7932    6944.8266    7858.0686    341.90461    72.752566   -105.81183   -3389.2228 
20851000     249.0636   -4712.5566   -4232.2165   -4712.5566            0    6384.0265    20.127736    19.584122    20.733309    8172.7395    7107.9036    6664.1774    5379.9987   -135.51439    1085.5518      1565.82   -3471.2979 
20852000    254.13179   -4670.3152   -4180.2007   -4670.3152            0    7308.0181    19.795146    19.731972    20.980142    8194.7864    6636.6766    9307.3588    5980.0189    754.08371    770.71686    -567.9671   -3306.8008 
20853000    263.02629   -4679.6175   -4172.3492   -4679.6175            0    7068.5974    19.970753    19.901588    20.548769    8167.1016     6439.934    6744.9204    8020.9379    170.00128    -479.3792    1145.5967    -3330.417 
20854000    262.33907   -4673.4224   -4167.4795   -4673.4224            0    8020.4903    19.894919     20.10323    20.417354    8165.9642    8504.7427    7728.9592    7827.7691    548.43537    1038.7923    661.79447   -3212.3015 
20855000    273.69709   -4676.2124   -4148.3646   -4676.2124            0    5143.8667    20.042667    19.738278    20.758462    8212.2082    6647.4647     4685.886    4098.2495    204.52251    51.726324   -217.24024    -3532.301 
20856000    260.02796   -4719.1509   -4217.6652   -4719.1509            0    7056.4894    19.794708    20.119609     20.54208    8181.1255    7671.1911    6730.8389    6767.4382    137.81445    -33.55805    1115.8935   -3375.7319 
20857000    267.33257   -4690.1918   -4174.6184   -4690.1918            0    8556.1066    20.000518    19.645602    20.599358     8093.945    7029.1328     9954.106    8685.0811    630.38652    809.47034    829.29453   -3164.6395 
20858000    268.90476   -4685.6273   -4167.0218   -4685.6273            0    7602.4678    19.948503    20.063719    20.445081     8182.963    7074.0746    7716.5941    8016.7348   -339.15972    597.20964    -666.9305   -3259.7424 
20859000    250.57472   -4674.6121   -4191.3577   -4674.6121            0    7525.2251    20.032918    20.256409    20.240773    8213.6042    5727.5056    8107.8685    8740.3012   -170.86816   -7.3541386    -1275.134   -3289.9336 
20860000    262.27992   -4675.6816   -4169.8527   -4675.6816            0    5255.7985    19.984764      20.0075    20.640648    8253.0631    6687.1202    3363.4741    5716.8013    476.18077   -1352.8893    1678.9242   -3537.2519 
20861000    270.35205   -4678.9748   -4157.5781   -4678.9748            0    6966.6556    19.977433    19.790814    20.736568    8198.6096    6107.7858    7961.0528    6831.1283    579.50075    232.19174   -381.26691   -3324.5869 
20862000    259.30749   -4682.1122   -4182.0159   -4682.1122            0    5737.3398    20.308018    19.823894    20.507566    8256.0176    5203.1572    6188.6305    5820.2317    31.822458    251.46409     1248.147   -3491.2083 
20863000     256.2869   -4714.0737   -4219.8029   -4714.0737            0    6945.8557    19.889536    19.941306     20.64109    8186.7376    6166.0011    8350.3897    6321.1762   -134.40313    642.66846   -1761.5326   -3390.5013 
20864000    263.98845   -4690.2709    -4181.147   -4690.2709            0    6147.1852    20.252867    19.760275    20.576076    8234.5913    4472.1517     7493.298    6476.1061    195.93567   -39.992368   -614.24125   -3442.9127 
20865000     260.2907   -4689.8593   -4187.8668   -4689.8593            0    7578.3141    19.796312    20.008089     20.70392    8200.5404    8711.5341    5863.5142    8159.8939   -637.54161   -309.61069    858.17679   -3281.5272 
20866000    254.95917   -4715.6171   -4223.9069   -4715.6171            0    8056.1744    19.920307    19.872985    20.724915    8204.4958    9194.8669    6433.5865    8540.0699   -187.27646    839.21905   -24.712139   -3259.9521 
20867000    243.37787   -4681.4649   -4212.0903   -4681.4649            0     9673.586    19.913325    19.765605    20.423269    8038.5763    10519.785    7939.4952    10561.477   -961.88894   -3.2877748   -933.20458   -3078.0133 
20868000    256.92678   -4707.2774   -4211.7725   -4707.2774            0     6189.005    19.937957    20.131368     20.41774    8195.2387    6786.9245     5723.278    6056.8124   -647.32126   -1068.1523   -412.19091   -3472.0679 
20869000     258.2342   -4710.1392   -4212.1128   -4710.1392            0     7719.648    20.133697    19.638219    20.601846    8145.7626    7460.1506    7762.2005    7936.5928   -393.91771    644.34264    297.21209   -3295.0372 
20870000     257.8355   -4681.1152   -4183.8577   -4681.1152            0    8040.4921    19.813298    19.913978    20.638312    8143.0849    8151.7632    8581.5217    7388.1915   -376.60738    297.00687   -714.10049   -3228.9806 
20871000    260.86481   -4735.3831   -4232.2833   -4735.3831            0    6441.9212    19.847663    19.852451    21.018427     8281.781    7705.7982    5865.2911    5754.6744    455.23638   -837.79315    1384.2117   -3454.2198 
20872000    273.24283    -4693.417   -4166.4453    -4693.417            0    5854.8411     20.00757    20.093209    20.497672    8240.3979    5401.3365    5574.1271    6589.0595   -41.961277   -477.35235   -389.70459   -3462.8236 
20873000    258.70638   -4686.8768   -4187.9398   -4686.8768            0    6749.2255     19.86922     20.01018    20.529293    8162.1731    7772.1718    6252.0799    6223.4248   -16.963708   -739.60762    34.753932   -3384.5327 
20874000    273.06178   -4700.2067   -4173.5841   -4700.2067            0    8525.4011     20.03507     19.55811    20.776733    8141.3233    7955.9314    10519.985    7100.2871    638.19271    1122.4132   -648.43509   -3161.3389 
20875000    265.61207   -4678.1296   -4165.8744   -4678.1296            0    6951.5045    19.983627    19.861512    20.804006    8257.2151    5304.2219    9320.6282    6229.6634    33.504196    7.5319077    718.43841   -3328.7533 
20876000    249.92167   -4713.3349     -4231.34   -4713.3349            0    5443.4744      19.8744    19.997522    20.666901     8213.827    6903.5923    4924.7502    4502.0807   -314.33235   -651.95779    758.96735   -3579.2648 
20877000    265.11917   -4707.1191   -4195.8145   -4707.1191            0    8001.0627    20.049173    19.911352    20.514326    8189.4446    5502.0585    9064.9418    9436.1879   -613.44667   -1546.2063   -65.199282   -3240.2104 
20878000    258.02705   -4699.4947   -4201.8678   -4699.4947            0    7863.1314     20.00396    19.877745    20.518417     8158.812    5713.6255     10296.61     7579.159   -502.74721   -763.57294   -1213.1559   -3266.2503 
20879000    274.35591   -4680.6703   -4151.5519   -4680.6703            0    7522.7253    19.828301    20.001889     20.63294    8183.0959     8731.753     5176.738    8659.6848     297.3132    1179.6254    128.32943   -3253.7743 
20880000     254.5598   -4716.7632   -4225.8232   -4716.7632            0    7578.4143    19.873294    19.790727    20.635257    8115.9899     7590.115    8054.5336    7090.5943    190.98924    1538.7818    296.89023   -3328.8164 
20881000    260.40432   -4736.8686   -4234.6569   -4736.8686            0    7555.6029    19.994148     19.76535    20.560703    8125.4121     6600.787    7485.3278     8580.694   -199.55801    397.91533   -340.64835   -3339.3119 
20882000    265.67316    -4675.076    -4162.703    -4675.076            0     6029.211    19.816895      20.1527     20.55852    8210.3314    6320.1816    4576.2279    7191.2236    604.96052    546.63862    77.551437   -3440.7697 
20883000    276.97938   -4682.5014   -4148.3233   -4682.5014            0     6637.108    19.893576    19.986548    20.690415    8226.5898    7231.4142    6530.7655    6149.1442   -665.31163   -1335.0936    45.971749   -3352.0272 
20884000    251.56786   -4696.3755   -4211.2058   -4696.3755            0    6446.6417    20.103246    19.880322    20.552253     8213.893    5948.4005    6813.2536     6578.271    400.90511   -830.02421   -607.40437   -3438.9548 
20885000     273.1212   -4728.0157   -4201.2785   -4728.0157            0    7386.9779    19.965721    19.969374    20.489986    8169.4179    6804.3947    6466.2938    8890.2451    -170.5858    59.265238     378.9906   -3321.1749 
20886000    270.31399    -4708.331   -4187.0077    -4708.331            0    6351.8173     20.06841    19.918559    20.528384    8205.8895    6451.8365    6473.5625    6130.0528    -280.9858    638.98626   -1484.8975   -3426.8572 
20887000    254.21842   -4700.4658   -4210.1841   -4700.4658            0    7561.8711    20.113145     19.76439    20.544483    8166.9264     7443.181     8268.659    6973.7733   -586.25499    380.89768   -522.41667   -3309.5181 
20888000    265.18785   -4720.9824   -4209.5453   -4720.9824            0    8088.0481    19.789472    20.083457    20.565621    8173.6208    9281.2844    8120.3579     6862.502    537.98968   -83.023864   -841.00912   -3245.4186 
20889000    237.28818   -4690.8916   -4233.2614   -4690.8916            0    8078.8858    20.080485    19.655863    20.623286     8139.996    7383.1239    7662.4345     9191.099   -158.34583   -135.09596    -467.4109   -3274.1887 
20890000    267.96326    -4695.854   -4179.0643    -4695.854            0    7163.5869    19.765507    20.004044    20.550607    8125.5058     6834.134    7492.0765    7164.5502    462.27913   -291.12839    -61.77089   -3330.1637 
20891000    255.35684   -4695.8614   -4203.3843   -4695.8614            0    6641.4805      20.0503     19.82021    20.653406    8207.6873    6355.6327    7137.1942    6431.6147    63.508694    350.15958    1177.8782   -3408.3944 
20892000    270.42034   -4718.0741   -4196.5457   -4718.0741            0    7446.0012     19.98899    20.036212    20.529177    8222.0104     6385.113    7369.3485     8583.542   -696.73766   -287.36414    565.45129   -3303.6988 
20893000    258.22491   -4699.0229   -4201.0145   -4699.0229            0    6539.9524    19.745192    19.851543    20.823311    8162.1659    8472.5715     7290.975    3856.3109    1232.8347    328.00482    619.44615   -3422.5194 
20894000    258.83242   -4688.4008   -4189.2207   -4688.4008            0    7248.3303    20.044252    19.777346    20.553479    8147.8534    8839.0382    4930.8097    7975.1431    97.732467   -600.51597    740.47954   -3327.9155 
20895000    264.32224   -4709.4582   -4199.6905   -4709.4582            0    7011.2916    20.081583    20.023961    20.358295    8186.3315    6994.9243    6349.8171    7689.1334    349.35749    1475.1539   -551.39894   -3362.6177 
20896000    253.58863    -4707.547     -4218.48    -4707.547            0    6563.6929    20.020826    19.885529    20.704203    8242.8549     7728.274    5108.8604    6853.9444    117.09568    718.97969    586.41987    -3429.435 
20897000     257.8842   -4717.0584    -4219.707   -4717.0584            0    7047.1926    20.146118    19.591964    20.725425    8180.3673    5827.2161    8380.1392    6934.2225    725.26002   -582.27342    634.23162    -3378.961 
20898000    267.81685   -4727.6456   -4211.1383   -4727.6456            0    7839.1276    19.923549    19.990961    20.598527    8204.2055    10150.517     5720.149    7646.7167   -562.63165    -780.6318    740.61634   -3273.1873 
20899000    266.59713   -4685.4415   -4171.2865   -4685.4415            0    5967.3868    19.933322    20.125436     20.57977    8255.9206    3876.4688    7371.6478    6654.0436     484.7931    191.14954    1137.4994   -3452.7885 
20900000    267.22211     -4704.88   -4189.5197     -4704.88            0    7042.1318    19.933984    19.828584    20.551315    8123.1677     7701.355    7589.1132    5835.9271   -274.41132   -95.270807    89.490594   -3355.2519 
20901000    265.72413   -4667.6648   -4155.1935   -4667.6648            0    5594.8431    19.888816    19.842042    20.769638    8196.4201    4523.0114    6804.9389    5456.5789    346.63573    162.61995   -321.38604   -3486.4062 
20902000    271.75397   -4692.6042   -4168.5038   -4692.6042            0     6243.747    19.866275    20.029175    20.567501    8183.9132    5772.6789    5706.9006    7251.6616   -636.49877    796.64095    179.97281   -3423.2877 
20903000    255.78636   -4691.8246   -4198.5191   -4691.8246            0    6695.3627    20.260979    19.852666    20.385262    8199.6547    6967.8746     5316.724    7801.4894   -851.05688   -1630.6582   -445.27969   -3397.8639 
20904000    258.52676    -4687.743   -4189.1524    -4687.743            0    7816.6463      19.8902    19.966116    20.540718    8157.3361    7083.4097    8073.1561    8293.3732      454.831   -1292.4214    341.96147   -3259.2343 
20905000    266.12355   -4714.8215   -4201.5798   -4714.8215            0    7227.3757    19.917494    19.913403    20.579874    8162.4943    5323.4785    7964.0045     8394.644   -178.33824   -876.76934    950.20016   -3341.2214 
20906000    250.87318   -4701.1779   -4217.3479   -4701.1779            0    5650.7495    19.863097    20.086585    20.553796    8200.5901    5078.7513    6428.9668    5444.5305   -312.65787    409.43542    467.38524   -3541.5341 
20907000    267.86885   -4708.1735   -4191.5659   -4708.1735            0    7164.9844    19.921717    20.059005    20.660499    8256.1382    8559.4075    6539.8679    6395.6777    764.91332    1006.3791    830.06049   -3328.8494 
20908000    247.26308   -4706.3205   -4229.4529   -4706.3205            0    6765.6372    19.822049    19.778628    20.793148    8152.0149    5931.3297    8253.1438    6112.4382    97.907457    819.34277     89.91891   -3425.0945 
20909000    259.17697   -4719.7482   -4219.9036   -4719.7482            0    6841.0549    19.951828     19.89078    20.562171    8160.2503    4970.7019     8075.966    7476.4969    181.98521   -192.94849    1391.9595   -3405.7573 
20910000    257.08436   -4678.4042   -4182.5954   -4678.4042            0     7492.273    20.167239     20.00135    20.252296    8169.2094    5287.0726    8576.1021    8613.6443    431.59538     702.1361   -447.52988   -3289.9694 
20911000    247.51544   -4694.8513    -4217.497   -4694.8513            0    7226.3226    20.001259    20.037248    20.467868    8202.9113    6606.8656    6095.6208    8976.4813    406.99311    292.05642    1475.5569   -3353.0044 
20912000    260.15924   -4686.2345   -4184.4955   -4686.2345            0    6004.7926    19.790166    19.849287    20.840467    8186.5667    6412.1455    6764.8279    4837.4044   -925.19186    180.58231   -354.39092   -3467.5673 
20913000    260.21434   -4679.9793   -4178.1341   -4679.9793            0    8133.7192    19.875906    19.909907    20.549955    8132.1812    8415.6159    7899.4017    8086.1399    535.40529   -1601.7042    101.91335   -3213.4789 
20914000     264.8392   -4723.5942   -4212.8296   -4723.5942            0    5567.6264    20.062646     19.99294    20.506731     8225.481    4243.2169    5875.1487    6584.5136   -956.79201    2.0590667    1083.2045    -3544.936 
20915000    261.66235   -4693.5941   -4188.9562   -4693.5941            0    8383.9086    19.577759    19.946246    20.867811    8148.9389    9280.9809    8256.3911    7614.3537   -417.16089   -1089.0451   -681.99059   -3192.5797 
20916000    266.32386   -4700.0595   -4186.4315   -4700.0595            0    6540.1891    20.002361    19.919008    20.622682     8216.637    5521.0472    6632.0065    7467.5137    405.11092   -2235.4625    191.33441   -3402.7127 
20917000     263.4286   -4704.7205   -4196.6763   -4704.7205            0    6138.1007    19.809809    19.945411    20.837454    8233.1858    7503.5156    6307.1274     4603.659   -36.432125     439.0904     1288.913   -3459.6588 
20918000      267.652    -4673.898   -4157.7086    -4673.898            0    6756.3336    20.025153    19.963517    20.426504     8165.954    4767.4705    8006.1555    7495.3749   -96.288064    463.40622    -1178.167   -3353.0829 
20919000    272.61838   -4683.0328   -4157.2653   -4683.0328            0    7567.9667    20.098531    19.833355    20.525854    8182.0429    6585.5472    8307.8783    7810.4746   -934.44024   -244.14149   -866.73521   -3254.2048 
20920000    268.69724   -4697.3117   -4179.1065   -4697.3117            0    7030.7628    19.803076    20.037936    20.694134    8211.6966    9151.9604     4733.514    7206.8141    477.41879   -1113.6405    1031.2927   -3337.1082 
20921000    283.47845    -4733.008    -4186.296    -4733.008            0    7346.3127    20.018376    19.749862    20.753677    8205.1769    6952.5287     7710.123    7376.2865    791.88688    857.91591    396.40702   -3307.2061 
20922000    274.55537   -4736.5182   -4207.0151   -4736.5182            0     8468.334    19.918623    19.858456    20.455938    8091.4095    8955.9144    8636.1073    7812.9803     294.8784   -244.84996   -924.72815   -3207.7101 
20923000    263.64724   -4725.5977   -4217.1318   -4725.5977            0     7417.818    19.940009    19.908513    20.568179    8165.0722    8484.4276    6358.0414    7410.9849    620.36749     782.1113   -329.29777    -3333.824 
20924000    251.63923   -4680.2088   -4194.9014   -4680.2088            0    5496.0053    20.036618    19.835734     20.69508    8225.0742     4701.372    6225.5994    5561.0445    645.68889    53.718102    186.09442   -3535.6321 
20925000    269.49723   -4714.3689   -4194.6208   -4714.3689            0    8413.9561    19.852051    19.942286    20.557954     8138.797    10626.683    7295.2233     7319.962   -355.13086   -270.23344   -535.39726   -3195.9178 
20926000    258.48905   -4712.4649   -4213.9471   -4712.4649            0    7833.2883    19.881722    20.015061    20.513691    8163.0927    7640.7403    7490.2244    8368.9003     205.0203    547.81112    -90.82268   -3281.3915 
20927000    261.56218   -4690.8893   -4186.4446   -4690.8893            0    5787.3828    19.904445    19.868902    20.723888    8195.8723    4570.3425    8441.4922    4350.3136    160.04556   -404.60295    308.18339   -3494.6881 
20928000    262.00527     -4695.81   -4190.5108     -4695.81            0     5231.321     19.83846    20.007585    20.694905     8214.215    4094.3049    5310.9969    6288.6611    -219.5338    1063.9799    443.11429     -3563.82 
20929000    264.57521    -4668.961   -4158.7055    -4668.961            0    7328.7496    20.165125    19.948316    20.293673    8163.3387    6688.3075    6221.1458    9076.7955     -295.562    242.36091   -74.860801   -3286.1891 
20930000    255.52193   -4680.2237   -4187.4282   -4680.2237            0    5699.0152    19.913269    20.142883    20.706991    8305.7948    6109.7773    5598.7417    5388.5264   -496.78996   -1289.3588   -105.91739   -3497.0979 
20931000    266.21384    -4722.638   -4209.2222    -4722.638            0     6557.358    19.924516    20.013403    20.644038    8231.9624    6206.7739    6994.2094    6471.0906    56.991571    246.45254   -875.35503   -3421.9804 
20932000     260.9767   -4702.3377   -4199.0221   -4702.3377            0    5834.9083    20.134247    19.976988    20.438129    8220.6572    5850.4178    5909.5468    5744.7602   -59.892558    1058.1997    1047.5927   -3499.4758 
20933000    262.10274    -4730.311   -4224.8239    -4730.311            0    7117.8363    20.053901    19.994047    20.404505    8181.3626     8692.759    5781.8792    6878.8706    1167.9261   -149.51198    572.11732   -3375.5466 
20934000    257.10612   -4707.1046   -4211.2538   -4707.1046            0    7898.3937    19.912873    19.603399    20.832934    8132.3442    10059.637    6283.5966    7351.9474   -587.65281    944.42575     390.8145   -3274.4893 
20935000    270.00722   -4689.5229   -4168.7912   -4689.5229            0    6276.3053    19.936552    19.944135    20.629684    8202.7188     4436.298    7875.1706    6517.4474   -1020.1845   -332.62155   -281.41976   -3417.9679 
20936000    271.21318   -4682.8037   -4159.7462   -4682.8037            0    6893.9536    20.221795    19.996841    20.229046    8180.0599    6550.9395    5218.4817    8912.4395   -490.02128     650.4445    2090.1953   -3337.3128 
20937000    256.16609   -4687.8642   -4193.8263   -4687.8642            0    7498.5392    19.807214    19.885723    20.638615    8129.1533    6783.6578    8647.7235    7064.2365    1109.3682   -1599.7805    923.14662   -3304.8343 
20938000    259.25266   -4656.3634   -4156.3728   -4656.3634            0    8844.9654    19.773373    19.790122    20.594566    8059.0133    9282.2064    9049.4521    8203.2376   -766.68511   -499.75298   -749.15439   -3116.8025 
20939000     242.2106   -4680.7137   -4213.5902   -4680.7137            0    7585.5657    19.951156    19.794876    20.573536      8125.12    6983.2397    8176.1488    7597.3087    595.50895     2343.238    626.12519   -3314.7269 
20940000    269.23844   -4651.9467   -4132.6977   -4651.9467            0    7301.2623    19.811024    19.815917    20.610939    8091.3107    8563.5654    7139.7848    6200.4367   -460.05003   -422.57346   -555.67748   -3271.1234 
20941000    269.61432   -4700.6374   -4180.6635   -4700.6374            0    6202.7688    20.252413    19.725009    20.461307    8173.8629    5372.9554     7040.869     6194.482    582.17409    195.63481    151.31919   -3441.2475 
20942000     270.9569   -4695.3468   -4172.7836   -4695.3468            0    9048.6531    19.837491    19.871909    20.560861    8105.2725    9596.1396    8373.4059    9176.4138   -312.00331    272.98447    737.84463   -3103.1687 
20943000    259.64743   -4686.8617   -4186.1098   -4686.8617            0    6628.9056    20.009869    19.892943     20.56288     8185.161    5975.7409    6649.2308    7261.7451   -1265.8332    -743.3923   -1242.4893   -3394.8029 
20944000    271.68937   -4696.3739   -4172.3981   -4696.3739            0       7702.7    19.926633    20.085345    20.376081    8155.1863    10891.438    5448.8456    6767.8167    153.15461     1501.949    1228.0066   -3256.2772 
20945000    261.46333   -4691.4689   -4187.2149   -4691.4689            0    7297.4222     20.02743    19.779509    20.639592    8176.0181    7865.2355    7010.6801    7016.3508   -237.48638    12.696683    262.65975   -3317.0788 
20946000    264.56813   -4708.9873   -4198.7454   -4708.9873            0    7466.6665    20.026468    19.948624    20.551435    8210.3081    7329.9592    7656.1435    7413.8969   -91.755167   -1088.1504    907.33735   -3304.6948 
20947000    260.77821   -4696.6324   -4193.6996   -4696.6324            0    8583.0943    19.870416    19.868261    20.661633    8157.0187    10518.642    6277.5523    8953.0883    -239.6035   -532.08113    816.53187   -3172.6397 
20948000    265.28085   -4693.5904    -4181.974   -4693.5904            0    7126.1824    20.103402    20.020219    20.400911    8210.8469    6056.5025    6861.3989    8460.6457   -699.00012   -1292.8337   -671.04282   -3328.6366 
20949000    272.10831   -4693.4518    -4168.668   -4693.4518            0    7116.0047    19.916145    19.905304    20.681468    8198.8975    7983.8283    6756.6609    6607.5248     146.8704     -648.003    1070.6798   -3317.7895 
20950000    259.25933   -4702.0922   -4202.0888   -4702.0922            0    7528.6497    19.998286    19.847343    20.626192    8186.8003    7576.1833    8435.0563    6574.7095   -514.50069   -328.50406    1196.8246   -3303.1975 
20951000    260.47448   -4694.6924   -4192.3454   -4694.6924            0    7146.6997    19.930342    20.019395     20.53414    8192.9862    6220.7387    7577.7168    7641.6436    177.40861    414.03267   -3024.2778   -3338.4127 
20952000    266.69453   -4684.8587   -4170.5159   -4684.8587            0    9311.0816    19.882603    19.737964    20.645811    8102.2854    9310.6631    9967.8775    8654.7042     -427.258    245.05726     633.6968   -3070.2857 
20953000    260.80373   -4723.3729    -4220.391   -4723.3729            0     8372.239    19.853124     20.02901    20.565744    8177.7299    11096.057    6828.6303    7192.0293   -427.21848   -500.84079     219.3452    -3221.886 
20954000    259.75769   -4721.0906    -4220.126   -4721.0906            0    7532.3152    20.122057    19.725727    20.614674    8182.4218    6454.8895    8954.0628    7187.9934     257.2491    1590.0521    130.83235   -3321.2781 
20955000    248.20942   -4706.4259   -4227.7331   -4706.4259            0    7394.4329    19.865552    20.014211    20.581164    8182.9338    6516.2315     8244.119    7422.9483    315.97208   -939.25372    117.03608   -3345.2838 
20956000    253.94938   -4715.6342   -4225.8715   -4715.6342            0    5453.4554    20.211444     19.87163    20.455355    8215.5729    2840.7873    6579.9605    6939.6183   -326.28556    1424.8816    411.93342   -3572.4619 
20957000    265.74093   -4706.5558   -4194.0521   -4706.5558            0    6566.6209     19.95997     20.04729    20.446188    8181.4053    5959.4552    6912.8633    6827.5444    310.04951    434.19787    -519.5844   -3410.5399 
20958000    266.61429   -4693.6568   -4179.4687   -4693.6568            0    7503.0236     20.01836    20.006813    20.358899    8153.8119    6167.6092    8099.0418    8242.4197   -74.848396    763.85201   -1376.6504   -3287.2468 
20959000    249.47318   -4680.4942   -4199.3642   -4680.4942            0    7537.3542    20.065571      19.8718    20.506377    8176.6926    8217.0794    7413.2491     6981.734    -922.1383   -646.66257    105.68867   -3300.5447 
20960000    274.44964   -4689.3941   -4160.0949   -4689.3941            0    7382.7767    19.778338    19.963142    20.655692    8155.6476    6306.3595     8868.852    6973.1187    55.839233   -750.14266    686.90098   -3281.9745 
20961000    264.87454   -4693.6419   -4182.8091   -4693.6419            0    8330.2249     19.82379    19.816954    20.707695    8134.9584    8121.3253    8927.5835     7941.766   -22.592302   -461.43097   -263.78722    -3194.511 
20962000    257.84119   -4683.6009   -4186.3324   -4683.6009            0    7912.8752    20.110939    19.889486      20.4108    8164.2432    7414.2691    7294.8137    9029.5428   -584.21422   -168.45986    793.54166   -3244.1692 
20963000    270.11798   -4689.5759   -4168.6307   -4689.5759            0    6687.6168    19.890639    20.140813     20.52307    8221.8218    6412.7499    5985.5338    7664.5666    336.13585   -1027.9895   -1313.6347   -3366.7397 
20964000    266.90746    -4697.285   -4182.5315    -4697.285            0    6894.4654     19.76799     19.96531    20.726747    8180.3092    7269.1508    7237.3973    6176.8482    650.19245   -784.42797    15.592801    -3360.012 
20965000    251.46611   -4731.3309   -4246.3573   -4731.3309            0    6225.6722    20.070999    19.890228    20.521011    8192.3311    6096.5484    5048.4743    7531.9939   -17.393646    610.10063    804.56971   -3502.5343 
20966000    264.55203   -4713.3764   -4203.1656   -4713.3764            0    6430.3102    19.942195    20.110048    20.379269    8172.8714    7464.4367    5917.6965    5908.7975    22.253976   -412.86738    533.51345    -3436.718 
20967000     245.0913   -4692.7529   -4220.0737   -4692.7529            0       8222.8    20.044478    19.777041    20.527938    8137.6951    8123.5347    7978.9141    8565.9512    290.49156   -681.27994   -564.07284   -3244.1923 
20968000    271.67987   -4701.9016   -4177.9441   -4701.9016            0    6279.0126    19.876301    20.051644    20.546397    8188.8184    5910.5556    6678.1679    6248.3142   -20.100284    -417.4006    915.84359   -3428.0698 
20969000    268.06584   -4694.3475     -4177.36   -4694.3475            0    5826.5431     19.88221    19.966792    20.683825    8211.1463    4096.2645    6996.9223    6386.4425    757.16468   -1097.5457   -905.48522   -3479.6247 
20970000    257.19875   -4717.8772   -4221.8478   -4717.8772            0    6861.2165    19.982159    20.001704    20.535091     8207.408    6254.9534    7592.5707    6736.1256    -535.5935    1857.6361    497.84828   -3400.5833 
20971000    268.97335   -4701.2761   -4182.5383   -4701.2761            0    9582.6313     19.95293     19.66759    20.498078    8043.9797    9215.7373    10523.701    9008.4556    661.86793     928.4335   -139.37685   -3058.3693 
20972000    250.23526   -4700.9506   -4218.3509   -4700.9506            0    6459.0918    19.905054    20.061703    20.644154     8243.815    8517.2916    4302.0392    6557.9446    716.61364   -826.75079    2262.3159   -3441.7898 
20973000    261.01805   -4711.2476   -4207.8523   -4711.2476            0    6832.9917    20.078159    19.928681    20.422804     8171.802    7574.2147    6230.3082    6694.4522   -281.27012    1610.6622     118.4481   -3393.5145 
20974000    267.37823   -4707.7734    -4192.112   -4707.7734            0    6096.0258    19.748882    20.193622      20.5026    8176.4668    6237.9167    5476.3029    6573.8579    119.04139   -306.58121    389.07104   -3465.1891 
20975000    258.55647   -4706.6966   -4208.0487   -4706.6966            0    6971.3937    19.970611    19.707296     20.63411    8120.8994    7155.1699    7092.6116    6666.3996   -30.713185    5.9661306     154.8936   -3382.3917 
20976000    267.97766   -4714.2142   -4197.3967   -4714.2142            0    6565.1392    19.874931    19.995196    20.667714    8213.4145    6892.3325     6691.743     6111.342   -448.65089    222.16547   -709.10689   -3410.9966 
20977000    274.27296   -4662.7532   -4133.7947   -4662.7532            0    6807.2925    20.160214    19.960791    20.470442    8237.5885    6196.7264    8464.6452    5760.5059   -923.29435   -1294.3786    198.18486   -3315.9886 
20978000    275.17116   -4704.9599   -4174.2692   -4704.9599            0    5912.9797    20.193024    19.888662    20.463636    8218.4463    6905.5932    6064.3817    4768.9643    -824.5806    943.51445    1037.8016   -3465.5535 
20979000    259.77015    -4680.358   -4179.3694    -4680.358            0    6664.4831     19.91182    20.080605    20.595375    8234.8836    5311.1786    7681.3202    7000.9506    398.65041    288.15051    -2383.836   -3378.9828 
20980000    262.05357   -4663.6249   -4158.2325   -4663.6249            0    7363.8444    19.890504      19.8709    20.784211    8214.7975    6577.9935    8179.9047    7333.6351   -229.45666    215.95613   -152.93766   -3276.0116 
20981000    277.04406   -4704.1198    -4169.817   -4704.1198            0    7660.6336    20.096993    19.809631    20.718067    8248.1528    6477.1022    7870.3147    8634.4839   -530.28294    847.50529    808.87152   -3248.3129 
20982000    256.27246   -4678.5859   -4184.3429   -4678.5859            0    6747.2473    19.872011    19.942561    20.577679    8154.9093    5822.1415    6704.9282    7714.6724    455.45842    1036.2707    380.72861   -3381.8861 
20983000    263.47133    -4722.907   -4214.7803    -4722.907            0     6009.639    20.153763    19.958524    20.475851    8236.1935    4715.9699    6545.7327    6767.2145   -563.02555    267.36877    548.36249   -3492.9239 
20984000    276.13158   -4708.5726   -4176.0296   -4708.5726            0    5712.1282    19.955824    20.125232    20.548193    8252.4747    7214.2427    4411.1237     5511.018   -114.69696    232.36989   -195.45718   -3488.5528 
20985000    240.92737   -4691.0346   -4226.3859   -4691.0346            0    6858.2909    20.192231    19.878536     20.45139    8209.0242    6805.7766    6825.2934    6943.8026    549.46541    206.56588     1384.072     -3405.31 
20986000    245.39856   -4682.5511   -4209.2793   -4682.5511            0    7030.4923    19.929845    19.964516     20.54089    8173.0083    6218.3802    8470.6406    6402.4561   -148.57685    852.38479   -258.30636   -3371.2802 
20987000    261.52048   -4695.5477   -4191.1835   -4695.5477            0    7431.0567    19.947999    19.772105    20.746484    8182.7027    10139.291    6178.7022    5975.1764    1019.8457   -696.75257   -1217.3421   -3304.3885 
20988000    268.19144   -4695.4732   -4178.2435   -4695.4732            0    7358.9109    20.247976    19.920774    20.206377    8150.3503    7076.8386    6788.7207    8211.1732    944.56695    520.79887    176.72989   -3303.5302 
20989000    258.43322   -4702.5225   -4204.1123   -4702.5225            0    5554.5482    19.961864    20.021952    20.652707    8254.3809    5635.8243    5151.4391    5876.3812   -715.79063   -522.67362   -1790.0706   -3535.4465 
20990000    271.43115   -4703.1357   -4179.6579   -4703.1357            0    6006.1275    20.009266    19.804448    20.664559    8188.7957    5491.4138    6100.7534    6426.2153   -924.68611    1286.0285    338.13477    -3462.375 
20991000    261.36921   -4711.2818   -4207.2093   -4711.2818            0    8339.0299    19.860859    20.043102    20.319258    8088.5523    9971.1724    5871.9495    9173.9679    482.98754    2641.7349    380.73866   -3223.5103 
20992000    257.75933   -4694.9697   -4197.8591   -4694.9697            0    6961.1971     20.15984    19.753917    20.613781    8209.1456    5306.7557    7409.0585    8167.7771   -414.95538   -12.103773    478.15258   -3364.4509 
20993000    268.83622   -4687.6552    -4169.182   -4687.6552            0    7657.0607    19.765275    19.927909    20.757414    8175.9424    7225.3924    7864.3682    7881.4214   -76.091471    234.43822    27.649949   -3256.1714 
20994000     256.3229   -4671.7941   -4177.4538   -4671.7941            0    9301.0688    19.923691    19.974654    20.516292    8164.8448    9396.8699     9217.519    9288.8175    844.80812    639.10017   -605.12574   -3069.9208 
20995000    273.15325   -4673.8067   -4147.0077   -4673.8067            0     6990.488    19.872187    20.095648    20.599314    8226.2222    7588.4164    5080.6551    8302.3924   -77.264978    646.62403   -79.926671   -3308.3518 
20996000    279.56404   -4714.8797   -4175.7169   -4714.8797            0    6361.8933    20.135659    19.747199    20.636007    8205.3482    6586.6514    7326.1519    5172.8766    545.57673    228.61526   -451.14429   -3414.4108 
20997000    261.13088   -4681.8566   -4178.2437   -4681.8566            0     7611.431    19.798674    19.788009    20.490421    8027.6621    8718.9255    7335.5337    6779.8337    -167.7075    434.49347    1072.4248   -3287.1338 
20998000    248.68746   -4644.8533   -4165.2386   -4644.8533            0    7521.9514    19.943147    19.801469     20.76872    8201.6423    8375.5104      7168.22    7022.1238   -812.68229     113.7467   -1213.9021   -3265.5189 
20999000    246.51125   -4700.9643   -4225.5466   -4700.9643            0    6274.0334    19.784075    20.006184     20.74981     8212.855     7497.204    4620.2739    6704.6222     448.9358   -530.82805   -69.691094   -3474.0676 
21000000    268.89855   -4663.6771   -4145.0836   -4663.6771            0    8059.4437    19.926809    19.930792    20.505039    8143.7216     7925.938    7733.1776    8519.2154    328.37441   -269.54806   -252.34732    -3187.881 
Loop time of 391.396 on 64 procs for 250000 steps with 972 atoms

Performance: 110.374 ns/day, 0.217 hours/ns, 638.739 timesteps/s
191.0% CPU use with 32 MPI tasks x 2 OpenMP threads

MPI task timing breakdown:
Section |  min time  |  avg time  |  max time  |%varavg| %total
---------------------------------------------------------------
Pair    | 26.593     | 34.85      | 40.943     |  63.2 |  8.90
Bond    | 0.78392    | 1.1266     | 1.4574     |  14.4 |  0.29
Kspace  | 166.63     | 175.09     | 182.73     |  30.7 | 44.73
Neigh   | 2.4321     | 2.6727     | 2.9464     |  11.1 |  0.68
Comm    | 73.802     | 79.877     | 85.536     |  37.4 | 20.41
Output  | 0.50914    | 0.50941    | 0.51084    |   0.0 |  0.13
Modify  | 75.789     | 79.587     | 84.231     |  24.4 | 20.33
Other   |            | 17.68      |            |       |  4.52

Nlocal:        30.3750 ave          34 max          25 min
Histogram: 1 2 1 4 5 1 4 6 7 1
Nghost:        2650.88 ave        2679 max        2627 min
Histogram: 2 2 5 6 2 5 4 4 1 1
Neighs:        9650.09 ave       11657 max        7203 min
Histogram: 1 2 3 4 1 6 6 5 3 1

Total # of neighbors = 308803
Ave neighs/atom = 317.69856
Ave special neighs/atom = 2.0000000
Neighbor list builds = 8007
Dangerous builds = 0

unfix		3
unfix		2
unfix		1

write_data	data.final.${pid}
write_data	data.final.0
System init for write_data ...
PPPM initialization ...
  extracting TIP4P info from pair style
  using 12-bit tables for long-range coulomb (../kspace.cpp:340)
  G vector (1/distance) = 0.37182088
  grid = 24 24 24
  stencil order = 5
  estimated absolute RMS force accuracy = 0.0035542522
  estimated relative force accuracy = 1.0703525e-05
  using double precision FFTW3
  3d grid and FFT values/proc = 3211 432
Last active /omp style is kspace_style pppm/tip4p/omp
WARNING: Not all mixed pair coeffs generated from mixing. Use write_data with 'pair ij' option to store all pair coeffs. (../write_data.cpp:312)

write_restart   restart.lmp.${pid}
write_restart   restart.lmp.0
System init for write_restart ...
PPPM initialization ...
  extracting TIP4P info from pair style
  using 12-bit tables for long-range coulomb (../kspace.cpp:340)
  G vector (1/distance) = 0.37182088
  grid = 24 24 24
  stencil order = 5
  estimated absolute RMS force accuracy = 0.0035542522
  estimated relative force accuracy = 1.0703525e-05
  using double precision FFTW3
  3d grid and FFT values/proc = 3211 432
Last active /omp style is kspace_style pppm/tip4p/omp
Total wall time: 0:06:31
