LAMMPS (30 Jul 2021)
Processor partition = 1
  using 2 OpenMP thread(s) per MPI task
using multi-threaded neighbor list subroutines
variable        pid world 0 1
variable        phase world IceII IceIh

shell cd ${phase}
shell cd IceIh
include Restart.lmp
echo both
log log.lammps
#include		in.partitions
include		in.temp
variable        temperature equal 245.10
variable	tempDamp equal 100.0
include		in.pressure
variable        pressure equal 2156.9
variable        pressureDamp equal 1000.0 # This is 1 ps
include		in.seed
variable        seed equal 745823

units		real
atom_style	full
#include		in.box
read_restart	restart.lmp.${pid}
read_restart	restart.lmp.1
Reading restart file ...
  restart file = 30 Jul 2021, LAMMPS = 30 Jul 2021
  restoring atom style full from restart
  orthogonal box = (0.15869693 0.011526310 0.046602649) to (18.048875 23.617651 22.166593)
  2 by 4 by 4 MPI processor grid
  restoring pair style lj/cut/tip4p/long/omp from restart
  restoring bond style harmonic/omp from restart
  restoring angle style harmonic/omp from restart
  864 atoms
  576 bonds
  288 angles
Finding 1-2 1-3 1-4 neighbors ...
  special bond factors lj:    0        0        0       
  special bond factors coul:  0        0        0       
     2 = max # of 1-2 neighbors
     1 = max # of 1-3 neighbors
     1 = max # of 1-4 neighbors
     2 = max # of special neighbors
  special bonds CPU = 0.002 seconds
  read_restart CPU = 0.008 seconds
include 	in.setup
variable	out_freq equal 1000
variable	out_freq2 equal 10000
variable	out_freq3 equal 1000

timestep	2.0

neigh_modify    delay 7 every 1

include		in.tip4p
# This is TIP4P/Ice

# create groups ###
group ox type 2
288 atoms in group ox
group hy type 1
576 atoms in group hy

# set charges - beside manually ###
set group ox charge -1.1794
Setting atom values ...
  288 settings made for charge
set group hy charge 0.5897
Setting atom values ...
  576 settings made for charge

# ### TIP3P Potential Parameters ###
pair_style lj/cut/tip4p/long/omp 2 1 1 1 0.1577 8.5
pair_coeff 1 1*2 0.000 0.000
pair_coeff 2 2 0.21084 3.1668
bond_style  harmonic
bond_coeff  1 450 0.9572
angle_style harmonic
angle_coeff 1 55 104.52
kspace_style pppm/tip4p/omp 1.0e-5
pair_modify tail yes

thermo          ${out_freq}
thermo          1000
thermo_style    custom step temp pe etotal epair emol press lx ly lz vol pxx pyy pzz pxy pxz pyz enthalpy

restart 	${out_freq3} restart.lmp.${pid} restart2.lmp.${pid}
restart 	1000 restart.lmp.${pid} restart2.lmp.${pid}
restart 	1000 restart.lmp.1 restart2.lmp.${pid}
restart 	1000 restart.lmp.1 restart2.lmp.1


include         in.dump
dump            myDump all atom ${out_freq2} dump.water.${pid}
dump            myDump all atom 10000 dump.water.${pid}
dump            myDump all atom 10000 dump.water.1
dump            myDump2 all dcd ${out_freq2} dump.dcd
dump            myDump2 all dcd 10000 dump.dcd
dump_modify     myDump append yes
dump_modify     myDump2 append yes


variable natoms 	equal  "count(all)"                        # NUMBER ATOMS
variable H      	equal  "enthalpy/v_natoms"                 # ENTHALPY-per-atom
variable Vol      	equal  "vol/v_natoms"                 # volume-per-atom
fix AVG all 		ave/time ${out_freq} 1 ${out_freq} v_Vol v_H file vol_enthalpy.dat
fix AVG all 		ave/time 1000 1 ${out_freq} v_Vol v_H file vol_enthalpy.dat
fix AVG all 		ave/time 1000 1 1000 v_Vol v_H file vol_enthalpy.dat


timer           timeout 23:50:00 every 1000
New timer settings: style=normal  mode=nosync  timeout=23:50:00

fix 		1 all shake 1e-6 200 0 b 1 a 1
Finding SHAKE clusters ...
       0 = # of size 2 clusters
       0 = # of size 3 clusters
       0 = # of size 4 clusters
     288 = # of frozen angles
  find clusters CPU = 0.001 seconds
fix             2 all nph aniso ${pressure} ${pressure} ${pressureDamp}
fix             2 all nph aniso 2156.9 ${pressure} ${pressureDamp}
fix             2 all nph aniso 2156.9 2156.9 ${pressureDamp}
fix             2 all nph aniso 2156.9 2156.9 1000
fix             3 all temp/csvr ${temperature} ${temperature} ${tempDamp} ${seed}
fix             3 all temp/csvr 245.1 ${temperature} ${tempDamp} ${seed}
fix             3 all temp/csvr 245.1 245.1 ${tempDamp} ${seed}
fix             3 all temp/csvr 245.1 245.1 100 ${seed}
fix             3 all temp/csvr 245.1 245.1 100 745823


run             250000
PPPM initialization ...
  extracting TIP4P info from pair style
  using 12-bit tables for long-range coulomb (../kspace.cpp:340)
  G vector (1/distance) = 0.37135577
  grid = 24 27 25
  stencil order = 5
  estimated absolute RMS force accuracy = 0.0032067379
  estimated relative force accuracy = 9.656996e-06
  using double precision FFTW3
  3d grid and FFT values/proc = 4410 672
Last active /omp style is kspace_style pppm/tip4p/omp
Neighbor list info ...
  update every 1 steps, delay 7 steps, check yes
  max neighbors/atom: 2000, page size: 100000
  master list distance cutoff = 10.8154
  ghost atom cutoff = 10.8154
  binsize = 5.4077, bins = 4 5 5
  1 neighbor lists, perpetual/occasional/extra = 1 0 0
  (1) pair lj/cut/tip4p/long/omp, perpetual
      attributes: half, newton on, omp
      pair build: half/bin/newton/omp
      stencil: half/bin/3d
      bin: standard
Setting up Verlet run ...
  Unit style    : real
  Current step  : 1500000
  Time step     : 2
  Walltime left : 23:49:59.94
Per MPI rank memory allocation (min/avg/max) = 10.19 | 10.20 | 10.23 Mbytes
Step Temp PotEng TotEng E_pair E_mol Press Lx Ly Lz Volume Pxx Pyy Pzz Pxy Pxz Pyz Enthalpy 
 1500000    253.37232   -4244.9861   -3810.7146   -4244.9861            0    2054.0431    17.890179    23.606125    22.119991    9341.6656    1130.2642    2829.4794    2202.3858    800.59111   -578.06538    363.96303   -3530.8746 
 1501000    244.97448   -4258.1907   -3838.3129   -4258.1907            0    3263.4423    17.883529    23.687243    21.782365    9227.2601    3601.1428    3044.0821    3145.1021    133.81231   -270.90452   -296.56781    -3399.151 
 1502000    247.37154   -4275.5149   -3851.5285   -4275.5149            0    2438.6208    18.101294    23.429382    21.939383     9304.539    1577.9186    2289.4047    3448.5391    182.78687    100.83676    298.95937   -3520.6146 
 1503000    254.49195   -4282.8599   -3846.6694   -4282.8599            0    2371.3906    18.256926    23.157848    22.003222    9302.7669     2064.186    3126.9486    1923.0371    177.27261    190.54843    -670.4036   -3524.9397 
 1504000    228.96424   -4280.9253   -3888.4885   -4280.9253            0    2183.1817    18.165029     23.16238    22.073537    9287.3369    2388.4523    679.31362    3481.7793    -198.7286   -706.10302    143.52876   -3592.7846 
 1505000    242.93887    -4254.632   -3838.2431    -4254.632            0    2170.4831    18.007243    23.582829     21.98469    9336.0567    1577.3474    2129.0846    2805.0174   -269.58318   -51.136518   -601.34765   -3542.7171 
 1506000    248.25796   -4251.6494   -3826.1437   -4251.6494            0    2295.4844     17.64629    23.945797    21.965528    9281.6322    3945.7872   -23.718632    2964.3847    288.52861    381.12877     818.9717   -3515.4199 
 1507000    248.44176   -4268.1999   -3842.3793   -4268.1999            0    2741.5539    18.003937    23.309361    22.031562     9245.771    1271.5497    1969.0272    4984.0847    1133.6576    192.41638    370.14946   -3472.7079 
 1508000    238.99397   -4246.7989   -3837.1714   -4246.7989            0    2094.3702    18.235606    23.311833     21.98461    9345.7768    703.75761    2845.9725    2733.3805   -216.56049   -104.69855   -622.93279   -3551.7117 
 1509000    249.17937   -4245.7697   -3818.6848   -4245.7697            0    3249.0736     18.09461    23.363965    21.890206    9254.3439    2495.3747    3544.7764    3707.0697    508.08552    78.428753    864.26685   -3380.1733 
 1510000    254.31611   -4268.5479   -3832.6588   -4268.5479            0    1348.5174    17.870783    23.615537    22.101853    9327.6037     2795.219    210.10721    1040.2261   -741.42705   -611.00044    346.62937   -3649.2152 
 1511000    252.82419   -4278.4647   -3845.1327   -4278.4647            0    2944.5006    17.780471    23.706405    22.012598    9278.5533      3673.32    1504.5654    3655.6165     1059.218   -179.01794   -463.41358   -3446.6882 
 1512000    255.57638   -4238.4068   -3800.3577   -4238.4068            0    1773.5214    18.107186    23.531896    21.946536    9351.3402    2525.3097     906.5069    1888.7477    165.87025    955.91852   -119.03568   -3558.4853 
 1513000    241.59495    -4234.229   -3820.1435    -4234.229            0     1146.172    18.209131    23.176403    22.181929    9361.2655     394.2834    2925.8485    118.38405   -73.327904    308.69522   -28.543277    -3663.663 
 1514000    239.32757   -4270.7469   -3860.5476   -4270.7469            0    3150.3516      18.0615    23.261113    21.871697    9188.9688    2328.6617    3206.3321    3916.0611     -436.827    872.04989   -550.28759   -3438.3637 
 1515000     253.5842   -4275.3055   -3840.6709   -4275.3055            0    2133.7278    17.956205    23.487496    22.033342      9292.48    1984.9877    1971.8138    2444.3819   -130.90153    183.61598   -267.16386   -3551.5053 
 1516000    240.56145   -4254.3258   -3842.0117   -4254.3258            0    1495.1514    17.843198    23.561644    22.188502    9328.3812    2034.1894    1040.4001    1410.8645    532.54846    187.36554   -131.25719    -3638.604 
 1517000      250.709   -4271.7619   -3842.0552   -4271.7619            0    3214.3912    18.010239    23.610259    21.867823    9298.7755    4026.2061    1963.1713     3653.796    685.40486    343.56197   -95.525914   -3406.1417 
 1518000    236.44583   -4284.2327   -3878.9727   -4284.2327            0    1100.9837    18.112268    23.370251    22.170755    9384.6201    1158.0399    1848.9937     295.9174    -561.4874    118.23208    783.85633   -3728.2865 
 1519000    250.49079   -4274.7358   -3845.4032   -4274.7358            0    2653.9094    18.151681    23.145586    22.019225     9250.965    912.12729    2984.3569     4065.244    543.62678    1134.9785    245.51238   -3487.3488 
 1520000    238.06936   -4273.5328   -3865.4901   -4273.5328            0    2767.1406    18.203882    23.445224    21.705268    9263.6802    1507.9361     3248.421    3545.0646   -1119.7275   -266.52838    909.78043   -3491.6459 
 1521000    238.32755   -4269.2702    -3860.785   -4269.2702            0    1415.8527    17.937067    23.565069     22.01686    9306.2676    2412.5954    303.43839    1531.5244   -623.19889   -499.61974   -490.17958   -3668.6221 
 1522000    250.33057   -4255.3498   -3826.2917   -4255.3498            0     2766.044    17.772847     23.62388    22.005868    9239.4634    1626.2478    2446.1976    4225.6864   -783.38115    158.35489    270.60572   -3453.5726 
 1523000    241.45802   -4289.6967   -3875.8459   -4289.6967            0    2714.9317    17.969212    23.619049    21.892679    9291.5965    2327.1904    2608.3817    3209.2229    346.99834    54.952669   -1075.1552   -3507.9498 
 1524000    252.64676   -4224.6539    -3791.626   -4224.6539            0    2635.4979    18.129164    23.184886    22.182538    9323.8218    2270.7949    3951.6003    1684.0984   -189.39415   -367.98524   -356.16084   -3433.2552 
 1525000    235.01887   -4231.0363    -3828.222   -4231.0363            0    3423.1827    18.215651    23.054401    21.930755    9209.8409    2413.8856    4192.9163    3662.7463    491.37531    263.27909    625.35035   -3368.4335 
 1526000    256.35503   -4257.6108   -3818.2271   -4257.6108            0    1977.9109    18.090585    23.409321    21.981998    9309.1193    1252.9268     2010.942    2669.8638   -1454.0128    -524.0687   -46.742306   -3549.6981 
 1527000    248.24006   -4249.0514   -3823.5764   -4249.0514            0    2914.5974    17.877106    23.609288    22.021538    9294.5365    2892.0494    3049.4591    2802.2836   -580.52415    1121.5958   -596.55244    -3428.499 
 1528000    257.97005   -4302.5052   -3860.3533   -4302.5052            0    2882.1017    17.796706    23.576096    22.040388    9247.6364     2767.701    2885.9389     2992.665    1476.1192    257.90165     206.9621   -3471.6521 
 1529000    235.89226    -4290.848   -3886.5368    -4290.848            0    1885.8217    18.095392    23.435605    21.991368    9326.0218    1570.1903    1737.4382    2349.8367    30.395561    536.71612   -371.59982   -3630.0453 
 1530000    268.14613   -4285.6661   -3826.0728   -4285.6661            0     1980.102    18.312459    23.238975    21.966715    9348.2163    2351.9077    2780.1538    808.24441   -790.86008   -763.17687     78.23745   -3556.1173 
 1531000    263.67827   -4264.0288   -3812.0933   -4264.0288            0    1902.7558    18.021766    23.244989    22.201959    9300.7505    2187.0421    2196.3044    1324.9209     1069.138    30.352077   -333.25064   -3553.9998 
 1532000    249.41653   -4259.0356   -3831.5442   -4259.0356            0    981.85067    18.034852    23.796888    21.849549    9377.2443    479.82787    562.11086    1903.6133    136.86392   -327.27764   -652.03855   -3697.2688 
 1533000    248.83379   -4266.1866    -3839.694   -4266.1866            0    1445.6105    17.945063    23.617125    22.115391    9372.7417    1495.0252    2420.3396    421.46683   -470.31455   -348.01564   -355.57028   -3642.0908 
 1534000    234.64773   -4271.8965   -3869.7183   -4271.8965            0    2034.8371    17.883476    23.424706    22.153869    9280.5915    1019.8104    3173.1709    1911.5301   -1201.4691    213.39257     537.0684   -3594.3074 
 1535000    237.99961   -4288.7169   -3880.7938   -4288.7169            0    2737.6137    18.265923    23.243761    21.799256    9255.2828    1413.9306    2681.9718    4116.9387   -1229.5381   -614.81218   -630.16475   -3511.2739 
 1536000    234.05992   -4274.7719   -3873.6012   -4274.7719            0    1759.8464    18.002181    23.320508    22.185284     9313.826    3410.2865    1828.9132    40.339719    -1517.854    116.26018    552.91125   -3634.5567 
 1537000    253.70633   -4277.6319   -3842.7879   -4277.6319            0    2158.5034    18.016248    23.507429    21.996983     9316.067    154.34512    3931.5172    2389.6478    333.87243    261.00999    534.05881   -3549.5222 
 1538000    254.79071   -4286.0987   -3849.3961   -4286.0987            0    2062.4542    18.221084    23.452861    21.860487    9341.7847     1685.365    2647.0405    1854.9571   -369.49271    68.776547   -140.02534   -3568.4066 
 1539000    247.31088   -4266.8586   -3842.9762   -4266.8586            0    1872.5823    17.982644     23.26928    22.303127    9332.5909    2424.6696    1320.2432    1872.8339     436.4374   -563.34111   -222.39646    -3588.106 
 1540000    231.82366   -4251.1927   -3853.8548   -4251.1927            0    1926.8679    17.985997    23.415583    22.040525    9282.4243    1980.8397    2134.7435    1665.0206   -691.29873     11.18155    887.57333   -3593.0058 
 1541000    237.72538   -4253.4465   -3845.9933   -4253.4465            0    4524.8417    17.944658    23.470674    21.784502    9175.0486    4778.7554    2773.8078     6021.962    378.43839   -470.65689   -363.14364   -3240.5302 
 1542000    243.64429   -4277.4562   -3859.8582   -4277.4562            0    1816.4407    17.958939    23.378167    22.082197     9271.146    2298.4726    1643.1823    1507.6672    48.256467   -719.88723   -468.44347    -3614.257 
 1543000    240.40952   -4246.9097    -3834.856   -4246.9097            0    1869.8979    18.171062    23.252762    22.100277    9337.9719    935.11898    3315.2117    1359.3631   -273.11148   -325.37656    243.84509   -3580.2044 
 1544000    248.35956    -4258.901   -3833.2212    -4258.901            0    3692.8621    18.043884    23.430928    21.794108    9214.2207    3656.3792    3726.2568    3695.9504    434.78154   -99.432233   -1066.8963   -3336.9746 
 1545000    230.59872   -4286.3648   -3891.1264   -4286.3648            0    3126.8914    17.944312    23.265554    22.144384    9244.9338    1401.5939    3711.7197    4267.3606    254.30297   -171.61852    150.96805   -3469.5343 
 1546000    257.45155   -4274.2468   -3832.9836   -4274.2468            0    2394.2941    18.112478    23.482272    21.789649    9267.6199    3477.0101    1391.9613    2313.9108   -702.00328   -15.599546   -30.271279   -3509.3739 
 1547000    239.31491   -4272.0374   -3861.8598   -4272.0374            0     2193.662    17.897975    23.468502    22.151708    9304.5736    2885.3964    1573.8668    2121.7229   -1443.0575   -334.58891    168.24192    -3564.185 
 1548000    250.29087   -4267.8111   -3838.8211   -4267.8111            0    1005.0106    18.043787    23.435919    22.210159    9392.0703    836.26234    1275.2005    903.56898   -598.56373    412.76748    449.59933   -3701.1611 
 1549000    249.49762   -4256.7397   -3829.1093   -4256.7397            0    2323.1813    18.074411    23.594131    21.849567    9317.7481    2241.6881    1823.3394    2904.5163   -575.44274   -242.73677    187.37247   -3513.4127 
 1550000     246.0513   -4279.3515    -3857.628   -4279.3515            0    3420.7451    18.139357    23.271308    22.007752    9290.0565    2176.4476    3231.0508    4854.7368   -330.55596    100.63244    -750.3516   -3394.1651 
 1551000    257.35866   -4269.1635   -3828.0596   -4269.1635            0     2567.741    18.048742    23.303279     22.07611    9285.0984    2049.2719    3230.2028    2423.7484    1469.3573    443.81874    1036.1923   -3480.3525 
 1552000    240.86429   -4263.9323   -3851.0992   -4263.9323            0    1711.0155    18.085482    23.464827    22.025411    9346.9836     1771.943     1135.696    2225.4074   -83.537646   -125.29181    341.93665   -3617.8601 
 1553000    232.48202   -4264.2963   -3865.8301   -4264.2963            0     3396.292    17.816079    23.668176    22.035506    9291.8015    3985.0044    3492.5084     2711.363    757.51691    384.96391    23.598919   -3405.5939 
 1554000    255.99592    -4263.763   -3824.9948    -4263.763            0    1220.2204     17.94957    23.600581    22.141256    9379.4848    1625.3723   -142.97683    2178.2656   -395.60021   -514.28535    469.87493   -3658.0806 
 1555000    247.09818   -4267.0981   -3843.5802   -4267.0981            0    3684.7019    18.075943     23.28537    21.941816    9235.4209    2314.8948    4839.5557    3899.6553    146.29094   -188.49472    456.31482   -3347.2909 
 1556000     251.7174   -4244.6819   -3813.2469   -4244.6819            0    1128.5313    18.206331    23.345062    22.074746    9382.3834    249.25947    1944.6114    1191.7231   -1006.7661   -7.6565354    216.34825   -3658.8272 
 1557000     255.8927   -4278.9359   -3840.3445   -4278.9359            0    3927.9458    17.838109    23.346662    22.080044    9195.4614    5622.6099    3288.4456    2872.7817    1376.9299    192.87932    566.39383    -3313.582 
 1558000    244.76944   -4267.2798   -3847.7533   -4267.2798            0    1949.0355    18.194789     23.52424    21.885597    9367.4422    1427.5497    3587.1437    832.41313    270.34584   -638.68209    -455.5739   -3581.4867 
 1559000    250.45499   -4268.4647   -3839.1934   -4268.4647            0    1697.4661    18.060715    23.510226    21.902368    9299.9976    455.08227    2400.3547    2236.9614   -517.70958   -899.95592   -208.34052   -3608.9645 
 1560000     234.0861   -4287.2789   -3886.0634   -4287.2789            0    974.62729     17.86953    23.408485    22.355779    9351.3913    2085.9446    1941.5926   -1103.6553    813.91215   -83.107414     371.7476   -3753.1433 
 1561000    232.30427   -4244.1135   -3845.9519   -4244.1135            0     1859.186    18.121917    23.512547    21.888742    9326.6274    1152.8512    2423.1142    2001.5925   -711.69237   -757.23579    44.910698   -3593.0668 
 1562000    237.34495   -4239.1807   -3832.3796   -4239.1807            0     851.3653    18.188951    23.279757    22.133012    9371.8782    595.72594    1860.7864    97.583534    350.47116    442.53843   -908.04751   -3716.0156 
 1563000    254.61864    -4240.542   -3804.1343    -4240.542            0    2782.8759    18.131701    23.161299    22.084066    9274.2864    2986.5109     2615.904    2746.2129   -1267.1863    7.7838769   -269.41927   -3427.7338 
 1564000    249.09084   -4269.4548   -3842.5216   -4269.4548            0    3673.2343     17.99653    23.324778     21.92865    9204.8813    1743.9137    4837.1231    4438.6662   -977.66949   -515.40541   -165.69219   -3349.4128 
 1565000    241.04983   -4287.1372    -3873.986   -4287.1372            0    1158.7781    18.012009    23.469041    22.070549    9329.7635    1340.1028    252.86907    1883.3625    341.28903    359.05192   -459.67079   -3716.3168 
 1566000    257.46052   -4259.0611   -3817.7825   -4259.0611            0    2727.8387    18.015782    23.438139    22.042372    9307.5329    1751.0307    2305.2857    4127.1997   -29.046588    248.66799   -613.98487   -3447.5035 
 1567000    245.42924   -4308.1462   -3887.4889   -4308.1462            0    1118.1697    18.057203    23.465509    22.005842    9324.3476    574.82324    1932.6593    847.02648    348.00516   -641.14304    78.431208   -3735.4335 
 1568000    238.56969    -4258.674   -3849.7737    -4258.674            0    2339.9606    17.925898    23.439767    22.128269    9297.8314    1743.9722     3148.976    2126.9338    -625.1415   -18.616735    479.54405   -3532.4766 
 1569000    234.48955   -4289.8299   -3887.9229   -4289.8299            0    1701.0909    18.025359    23.308449    22.144583    9303.8949    1681.9698    2254.0127    1167.2902    558.25234   -36.431199   -334.54531   -3657.1057 
 1570000    239.78812   -4266.9493   -3855.9607   -4266.9493            0    2109.8931    18.150301    23.550881    21.917714    9368.8493    1737.8377     1397.724    3194.1177    462.07109    241.78516    187.27897   -3567.6753 
 1571000    241.36701   -4267.0275   -3853.3327   -4267.0275            0    628.48061    18.042682    23.237117    22.323415     9359.313    1425.9373    800.30416   -340.79966   -626.72805    452.95891   -198.64994   -3767.5476 
 1572000    258.84193   -4234.5013   -3790.8551   -4234.5013            0    1201.6227    18.298425    23.418561      21.8319    9355.4668    1254.8457    1082.7215     1267.301    181.59538    -441.4682    746.11259   -3626.9058 
 1573000    232.13126   -4276.8533   -3878.9883   -4276.8533            0    2764.4943    17.982622    23.378762    22.105692    9293.4856    2670.8482     3047.508    2575.1266   -1315.0647    -187.6284    114.59902   -3504.2999 
 1574000    245.30974   -4276.2523   -3855.7998   -4276.2523            0    2101.8463    17.987633    23.418732    22.100805    9309.9098    1406.2685    2527.7162    2371.5543   -89.239412   -608.49619   -246.59742   -3570.4206 
 1575000    242.75059   -4273.1336   -3857.0674   -4273.1336            0    2943.0658    18.251999    23.398628    21.596146    9223.1038    1648.6369    3303.7548    3876.8056    443.04533   -85.102311    928.45632   -3461.1971 
 1576000    235.70277   -4255.3324   -3851.3459   -4255.3324            0    2909.4438    17.987289    23.310623     22.09695    9265.1386    2643.9193    2716.5433    3367.8688    100.73009    365.52866   -36.455733   -3458.2145 
 1577000    236.25271   -4275.0168   -3870.0877   -4275.0168            0    1497.3388    17.939858     23.53225    22.165375    9357.4506    1701.1912    638.82566    2151.9996    814.82532    227.37334   -372.24894   -3665.7476 
 1578000    256.01261   -4244.5836   -3805.7868   -4244.5836            0    2586.6252    18.115292    23.763106    21.637858      9314.57    1989.2866    1486.5291    4284.0599    321.21839     -421.563   -759.39628   -3454.4107 
 1579000       252.84   -4290.5866   -3857.2274   -4290.5866            0    1629.8694    18.015295    23.275256    22.196602    9307.2708    1790.2209    2316.5365    782.85067     256.1475   -35.736373   -595.28084   -3635.9939 
 1580000    260.14971   -4255.2393   -3809.3516   -4255.2393            0    524.03665      18.1367    23.403689    22.161321    9406.7202    -99.47998    31.803489    1639.7864   -539.11345   -978.86576   -338.18653   -3737.4603 
 1581000    240.99511   -4263.8132   -3850.7558   -4263.8132            0    2602.2505    18.148306    23.588241    21.797739    9331.3204     3236.021    1433.7048    3137.0257   -1408.2326   -456.58253    175.59576   -3496.6215 
 1582000    246.90278   -4294.5003   -3871.3174   -4294.5003            0    2496.5853    17.770994    23.237163    22.450293    9270.7921    4183.6358     2542.467     763.6531   -519.83585    302.14333    456.36971   -3533.7666 
 1583000    220.69111   -4252.5608   -3874.3038   -4252.5608            0    817.39877    18.139842    23.477633    22.014902    9375.7184    215.73853    1363.6405    872.81726    1510.5374    1094.4002    969.89595   -3762.5366 
 1584000    253.94932   -4242.6384    -3807.378   -4242.6384            0    2782.3449    18.000324    23.478256    21.900366    9255.4497    1859.7306    4441.7401    2045.5641   -92.345061   -118.25958   -487.58695   -3431.8136 
 1585000    252.87724   -4281.8881   -3848.4651   -4281.8881            0    2237.7043    17.863935      23.4013    22.146193    9257.9791    3014.9497    2194.1337    1504.0296    318.15223    494.76279    70.569269   -3546.3345 
 1586000    237.81578    -4254.107   -3846.4989    -4254.107            0    2717.1112    17.984854    23.461599    21.734228     9170.832    2304.2402    3094.2767    2752.8167    855.78382    1255.8825   -77.181718   -3483.0929 
 1587000    244.75238   -4290.2054   -3870.7081   -4290.2054            0    1387.2092     18.09173    23.321007    22.178827     9357.632   -61.912196    2158.9318    2064.6079   -544.60438    -260.5152    316.30987   -3681.3937 
 1588000    256.33479   -4258.1857   -3818.8367   -4258.1857            0    2230.6794    18.099656    23.537696    21.868588     9316.548     3063.642    1130.5371    2497.8591   -388.59399    -6.289855    -221.9036   -3515.7491 
 1589000    241.44795   -4297.5245    -3883.691   -4297.5245            0    2639.9887    18.063808    23.432808    21.994213    9309.8368    2943.2643    1227.6471    3749.0547   -207.89603    638.06797    488.93818    -3525.248 
 1590000    247.07988   -4274.3634   -3850.8769   -4274.3634            0    1231.8444    17.986797    23.351252    22.314122     9372.249    1484.8631    1867.7545    342.91566   -406.92684     83.33224   -291.99475   -3682.5027 
 1591000    229.74415   -4272.9183   -3879.1447   -4272.9183            0     2419.984    18.077289    23.399051    21.879312    9254.7606    2069.6991    1616.3257    3573.9272     338.5287   -245.61818   -1162.7588   -3552.5165 
 1592000     256.7052   -4271.6112   -3831.6273   -4271.6112            0    3047.5366    17.976508     23.39912    21.979988    9245.5405    3510.2584    2532.4936    3099.8578    448.89476     318.0007   -761.03591   -3420.7074 
 1593000    237.76385   -4281.3756   -3873.8565   -4281.3756            0    1369.8456    17.824915    23.497589    22.345745    9359.3484    1675.1517    4032.6176   -1598.2324    629.75094   -40.016029    647.10836   -3686.8774 
 1594000    251.43064   -4286.7322   -3855.7887   -4286.7322            0    2650.7885     18.12844    23.331292      21.8872    9257.4084    2672.8446    2232.6467    3046.8742    384.97308    539.77959    1378.0088   -3497.9063 
 1595000    252.24962   -4299.6129   -3867.2657   -4299.6129            0    2283.5525    18.120329    23.206932    22.028947    9263.5522    2679.6917    1879.3614    2291.6045    42.822786   -616.05769    423.15388   -3558.7591 
 1596000    246.44515   -4247.6149   -3825.2164   -4247.6149            0    2363.7147    17.889226    23.373643    22.277921    9315.2089    1937.8301    2920.5306    2232.7835    658.49927    523.20311    445.94044   -3504.0992 
 1597000    240.05372   -4255.0258   -3843.5819   -4255.0258            0    1955.5343    17.954035     23.75867    21.906796    9344.6503     2624.546    387.89672    2854.1603    803.49881     -14.6407   -549.86639   -3577.0775 
 1598000    233.70608   -4277.7657   -3877.2014   -4277.7657            0    456.65505    17.814982     23.53292    22.364435    9376.0333    1404.0027    1503.1917   -1537.2292    -204.3817    220.49082    82.484983   -3814.7585 
 1599000    257.97478   -4286.4719   -3844.3119   -4286.4719            0    1349.2836    18.031588    23.406578    22.031849    9298.7129    1471.0789    1432.6644    1144.1077   -1400.4439   -279.98656   -674.47171   -3661.3326 
 1600000    243.94935   -4284.5035   -3866.3827   -4284.5035            0    3202.7054    18.041075    23.341279    21.874809    9211.5207    4025.2795     3355.214    2227.6226    524.43502    -671.3598    496.71151   -3436.1294 
 1601000    234.53274     -4283.76   -3881.7789     -4283.76            0     3173.179    18.084241    23.112269    22.115886    9243.7294    3717.1068     2467.896    3334.5343   -1634.2306    578.68013    184.80663   -3454.0016 
 1602000    253.48332   -4268.3058    -3833.844   -4268.3058            0    2313.8538    18.141936    23.404326    21.989583    9336.7722    2786.5163     2179.314     1975.731   -129.99239   -126.27072    -516.4694   -3518.7729 
 1603000    240.29995   -4248.9732   -3837.1073   -4248.9732            0      1522.17    17.949387    23.728125     22.07166     9400.437    2708.4833    1464.7682     393.2586  -0.94699064   -288.83022    357.69434   -3628.4243 
 1604000    244.16212   -4268.0362   -3849.5507   -4268.0362            0    1417.0302    17.846047    23.699714    21.996944    9303.5238    2085.4099   -405.17501    2570.8558   -945.40647   -304.97907    209.38555   -3657.2847 
 1605000    248.23424     -4252.19    -3826.725     -4252.19            0    2654.9983    18.099798     23.53335    21.841739    9303.4641    3538.9832    2480.2054    1945.8062    228.85602    149.34036     488.9285   -3466.4909 
 1606000    246.77151   -4296.7941   -3873.8362   -4296.7941            0    2704.6002    18.071225    23.197331     22.09011    9260.2668    3294.2046       2838.9     1980.696   -44.961198    310.04821    239.98685   -3508.5759 
 1607000    240.57876   -4281.4544   -3869.1107   -4281.4544            0    3732.5391    18.083873    23.328517    21.898827    9238.4571    3648.5714    4657.8194    2891.2265    519.74074    11.736484    284.81688   -3366.2129 
 1608000    231.97431   -4237.3896   -3839.7936   -4237.3896            0    1785.7234    18.010651    23.416825    22.153074     9343.109    2516.0565    1673.3647     1167.749   -643.76851    575.38998   -391.65072   -3596.4715 
 1609000    236.90291   -4269.5268   -3863.4833   -4269.5268            0    2413.1201    17.833908    23.555465    22.119477    9292.0823    3822.1935    1009.0595    2408.1074     1316.835    571.50271    577.62018   -3536.4682 
 1610000    250.98564   -4286.5972   -3856.4164   -4286.5972            0     1760.429    17.861168    23.748401    21.847793    9267.2695    3087.6882   -486.13079    2679.7295    612.63022    30.733774   -75.782739   -3618.4881 
 1611000    250.29424   -4273.0178   -3844.0221   -4273.0178            0    1922.6911    18.103108    23.300254    22.038135    9295.8398   -1068.7906    3647.0026    3189.8613    923.75188   -72.948785   -919.20674   -3583.3623 
 1612000    246.04758   -4269.0382    -3847.321   -4269.0382            0    3083.9567     18.21498    23.042221    22.077702    9266.3119    2297.0908    3929.0419    3025.7374   -241.11714    443.01763     21.11158   -3430.5562 
 1613000    243.51814   -4277.6719   -3860.2901   -4277.6719            0    777.84856    18.200723    23.450807    21.921442    9356.5458    349.51145    797.13287    1186.9014    99.291015    176.22744    166.88703   -3754.1483 
 1614000    257.60127   -4255.6862   -3814.1664   -4255.6862            0    3047.3995    17.885001    23.586377    21.984672    9274.0663    4615.7001    1577.2539    2949.2443    -595.9151   -291.04743   -297.15674   -3401.9973 
 1615000    249.19219   -4252.2217   -3825.1148   -4252.2217            0    4120.0747     17.70581    23.485251    22.166237    9217.2841    5312.5366    1897.3607     5150.327     349.6206   -100.50129   -316.56383   -3271.2753 
 1616000     226.5966   -4251.6456   -3863.2668   -4251.6456            0    3162.7261    18.143836    23.385809    21.807524    9253.1132    3023.8289    2502.0866    3962.2627   -1298.5261   -407.49536    1061.1671   -3436.4659 
 1617000    230.71201   -4273.1421   -3877.7096   -4273.1421            0    3047.8852    18.256367    23.138727    22.008535    9297.0455    3547.4094    5245.1589    351.08745   -52.410767    -377.0869   -227.82798   -3464.4533 
 1618000    254.60758   -4299.1792   -3862.7905   -4299.1792            0    2082.5269    18.012056     23.36453    22.055479    9281.8992    2461.8977    1041.1878    2744.4953    145.30277   -41.231325   -205.99833   -3580.8851 
 1619000    251.50159   -4275.3907   -3844.3256   -4275.3907            0    1908.0914    17.964086    23.486771    22.152213    9346.4259    2171.3805    3598.5082   -45.614387   -47.136836   -398.77782    348.17454   -3584.2374 
 1620000    232.72769    -4258.145   -3859.2577    -4258.145            0    4132.4342     17.91097    23.873485     21.58814    9231.0299    4125.3667    2011.8417    6260.0943     138.0061    240.21005    528.22843   -3302.9283 
 1621000    240.18682   -4274.0385   -3862.3665   -4274.0385            0    1979.2871    17.941654    23.514397    22.098358     9323.014    3268.5737    2901.3967   -232.10899    680.16739   -312.59936    600.15545   -3593.2496 
 1622000    244.77247   -4241.0646    -3821.533   -4241.0646            0    2124.6695    18.061458    23.121209    22.238136    9286.7064    1878.2177    1349.3719    3146.4189    150.07455    408.44551   -287.27507   -3533.7739 
 1623000     234.9226   -4285.9206   -3883.2713   -4285.9206            0    1681.1785     18.13761    23.322602    22.030174     9319.122    1043.9798    2521.0968    1478.4589    357.17605    810.05915     222.2047   -3654.7826 
 1624000    240.31109   -4238.9652   -3827.0802   -4238.9652            0    875.13858    18.122525    23.415597    22.122372    9387.6231    249.98507    1261.1144    1114.3163   -747.02875    991.64655    425.27691    -3707.266 
 1625000    243.96551    -4233.702   -3815.5535    -4233.702            0    3096.3879    17.894588    23.679517    21.806469    9240.1686    4600.4492    3197.9922    1490.7222   -969.19112   -167.71064   -996.16439   -3398.2893 
 1626000    244.84112    -4271.652   -3852.0027    -4271.652            0     1554.167    17.849643    23.729846    22.047407     9338.604    2459.1076      1322.15    881.24337   -709.78829    353.89461     334.8723   -3640.3345 
 1627000    245.34097   -4267.9488   -3847.4428   -4267.9488            0    2132.3765    18.103598    23.423532     22.01398    9335.0326     1279.356    2536.3453    2581.4281    101.54165    94.906928   -41.648402    -3557.137 
 1628000    243.07631    -4269.835   -3853.2105    -4269.835            0    1931.9757     18.14786    23.317206     22.05677    9333.4854    1034.6942    2924.7238     1836.509   -1037.9042    446.17604     30.82954   -3590.2313 
 1629000    250.57247   -4249.3973   -3819.9246   -4249.3973            0    1546.4388    18.092993    23.149021    22.119303    9264.3399     439.5957    3814.7218    384.99896    -1185.913    495.65276   -550.54306   -3610.9839 
 1630000    238.34478   -4279.4015   -3870.8867   -4279.4015            0    2589.2998    17.945351    23.586222    21.840566     9244.304    2334.8471    1306.3654    4126.6868    353.05035   -1121.0279   -735.30335   -3521.8007 
 1631000    247.50409   -4304.4569   -3880.2434   -4304.4569            0    1256.3536    17.990626    23.511628     22.03149    9319.0756    775.41932    751.78605    2241.8554     97.96144    11.271781   -776.25234   -3709.4935 
 1632000    251.05852   -4251.3985   -3821.0928   -4251.3985            0    3276.3419    18.072307    23.457885    21.846499     9261.563    4938.7192    1965.7815    2924.5252    194.55829   -970.36934    433.55716   -3378.5559 
 1633000    236.02459   -4262.8668   -3858.3288   -4262.8668            0    3167.0652    18.086153    22.999402    22.202014    9235.3876    2213.6243    4066.7102    3220.8611   -808.63883    461.01696   -11.931483    -3431.761 
 1634000    237.36087   -4283.8484     -3877.02   -4283.8484            0    2710.1492    18.109653    23.317815    21.901244    9248.4035    3223.3468    2197.8926    2709.2081    299.79745    207.73041   -342.37174   -3511.4792 
 1635000    229.05324   -4279.0164    -3886.427   -4279.0164            0     1177.474    18.084869    23.163987    22.168121    9286.6177    1882.9673    1964.7163   -315.26152   -159.45537    -412.8699   -265.10724   -3726.9549 
 1636000    244.65295   -4263.6806   -3844.3538   -4263.6806            0    2058.0476    17.873254    23.413038    22.165652    9275.5977     2076.592    2282.8062    1814.7447   -981.98507   -274.25365   -515.70835   -3565.9513 
 1637000    245.46502   -4292.9893   -3872.2706   -4292.9893            0     2208.541    17.917911    23.746908    21.798913    9275.3283    2901.6338    2153.9771    1570.0123    705.94393   -330.33219    202.11022   -3573.5187 
 1638000    232.82346   -4253.4654    -3854.414   -4253.4654            0    1995.7319    17.912902    23.647305    22.019066    9327.0973     4144.435   -397.18811    2239.9487   -109.34289   -584.18516    583.85029   -3582.9423 
 1639000    231.22688   -4299.8486   -3903.5336   -4299.8486            0     1749.205    17.987214    23.265827    22.189505    9286.0286    2326.3649    2431.3582    489.89179   -366.50218    149.37334    1054.6797   -3666.6437 
 1640000    251.49703   -4285.4337   -3854.3764   -4285.4337            0    2075.9783    18.172149    23.279978    21.944084     9283.384    858.75985    2613.9173    2755.2578    1358.4112   -6.0039131    747.85616   -3573.3126 
 1641000    240.19748   -4281.7748   -3870.0845   -4281.7748            0    1467.8117    18.286257    22.999863    22.208144     9340.332    1208.6008    687.86118    2506.9732   -629.64459    361.12836   -16.870085   -3670.1404 
 1642000    234.37894   -4273.4822   -3871.7647   -4273.4822            0    1451.2973    17.992107    23.400895     22.10294    9306.0322    1001.5281    1373.6878    1978.6759   -552.90301   -329.17094   -193.38693   -3674.7962 
 1643000    237.52367   -4268.4265   -3861.3191   -4268.4265            0    1771.0883    17.880773    23.822488    21.889351    9324.0863    2638.5167    91.728984    2583.0192    294.74207     403.9336    224.40874   -3620.4825 
 1644000    239.38846   -4268.5696   -3858.2659   -4268.5696            0    2138.7719    17.926412    23.614226     21.98313    9305.8623    1626.0629    2874.3389    1915.9139   -152.92949    -269.8409    18.460544   -3567.9994 
 1645000    246.16928   -4237.0383   -3815.1126   -4237.0383            0    3066.7258     17.98249    23.291199    22.064439    9241.3314    3152.7632    2923.6895    3123.7247    167.27957    667.05043   -30.781758   -3401.7936 
 1646000    235.69786   -4267.6107   -3863.6326   -4267.6107            0    1738.1182    18.409872     23.14374    21.776669    9278.4569      1262.07    1299.3336     2652.951    -872.3114   -613.06978     570.9013   -3628.4361 
 1647000    234.39283    -4282.255   -3880.5137    -4282.255            0    2534.9651    17.997646    23.281351    22.076909    9250.4347    3853.2398    1884.8911    1866.7646   -922.74856    464.41376    1258.1991   -3538.5264 
 1648000     226.7622   -4279.5639   -3890.9012   -4279.5639            0    2563.5841    18.061692    23.440875     21.96176    9298.2107    3784.6937    2289.4981    1616.5604    653.50446   -617.98258   -373.05387   -3543.2668 
 1649000    253.84896    -4245.822   -3810.7336    -4245.822            0    1481.8158    18.010784    23.704774    21.917503    9357.4934    2445.5183   -278.28066    2278.2097   -318.45553    75.353085    1173.8475    -3608.511 
 1650000     247.1133   -4278.3343   -3854.7906   -4278.3343            0    1938.9392      17.7086    23.598989    22.247511    9297.3472    3331.7787      1997.64    487.39894   -14.502619    924.11711    118.18417   -3591.8854 
 1651000    248.11067   -4258.0775   -3832.8243   -4258.0775            0    1552.3063    18.071083    23.564497    21.918713    9333.7766     3334.061    1028.3996    294.45845   -453.64748    112.53379   -104.88064   -3621.5188 
 1652000    238.65057   -4288.4102   -3879.3713   -4288.4102            0    1230.6696    18.241466    23.103331    22.227246    9367.4197   -237.85892    2034.3237     1895.544    -669.1938    307.48837   -21.602655   -3711.2444 
 1653000    257.64439   -4290.4174   -3848.8237   -4290.4174            0    2237.8271    18.106145    23.274385     22.07013      9300.56     3222.271    2163.4332    1327.7771   -226.28316    2.1420688    190.04273   -3545.2868 
 1654000    232.19497   -4268.9407   -3870.9664   -4268.9407            0    2113.7138    18.119892     23.52981     21.86232    9321.1666    2421.6314    1661.8696    2257.6404    418.25907   -395.72489   -85.418869   -3583.6289 
 1655000    240.10296   -4270.4005   -3858.8722   -4270.4005            0    2301.3196    17.871882     23.62458    22.078655    9321.9551     697.1864    2677.1602     3529.612   -304.57413    -239.6492     388.6362   -3546.0052 
 1656000    234.57904   -4302.7058   -3900.6453   -4302.7058            0    1465.8613    17.873387    23.648582    22.104082    9342.9588    1221.0333    1673.5103    1503.0402    780.65848   -26.325282   -319.99268   -3700.9108 
 1657000    240.25444   -4281.5789   -3869.7911   -4281.5789            0    1948.8991    18.194592    23.379693    21.935443    9330.9859    2622.7715    1724.7021    1499.2235     512.7401   -540.16938    475.11952   -3604.5793 
 1658000     244.7193    -4284.673   -3865.2325    -4284.673            0    1235.4543    18.192918    23.011455    22.368165    9364.3321    669.27444    2250.9153    786.17327     223.7324   -411.11133  -0.89481353   -3696.5075 
 1659000    242.61685   -4269.2208   -3853.3838   -4269.2208            0    3225.1371    18.033111    23.551623     21.88695    9295.5854    4050.7705    1561.7885    4062.8524     603.6202   -324.29068   -599.76691    -3416.163 
 1660000    248.68046   -4248.9876   -3822.7578   -4248.9876            0    1964.1742    18.035134    23.527878    21.941502    9310.4034    849.90635    2013.8939    3028.7224    160.37719    76.580128    542.71253   -3556.0569 
 1661000    241.29859   -4305.3224   -3891.7449   -4305.3224            0    1254.4984    17.827964    23.496283    22.277623    9331.8932     1883.474    1212.2343    667.78681    535.99916   -899.45511    613.54355   -3721.0126 
 1662000    231.46497   -4269.9612   -3873.2382   -4269.9612            0     1655.648    18.103176    23.386256    22.066853    9342.3444    641.69992     1915.172    2410.0721   -661.88548   -635.18061     212.2708   -3647.6586 
 1663000    249.25122   -4275.7623   -3848.5543   -4275.7623            0    1835.4977    18.253464    23.358787     21.82052    9303.8067    1312.7985    2326.9355    1866.7591    1209.5667    377.64658    255.89143    -3599.502 
 1664000    248.53415   -4288.4998   -3862.5207   -4288.4998            0    2997.2566    17.956656    23.164201    22.206063    9236.6471    3333.8537    3074.7191    2583.1969    -329.8194    814.39888   -72.226581   -3458.7692 
 1665000    243.12991   -4273.1656   -3856.4492   -4273.1656            0    2746.9387    17.985682    23.578576    21.707258     9205.544    3303.6928    3047.3842    1889.7393    78.397742   -74.269224   -383.65294   -3487.6633 
 1666000    253.74435   -4275.9263   -3841.0172   -4275.9263            0    1308.6327    17.850395    23.672109    22.101338    9339.0637    1403.5912    1838.5226    683.78435    659.74815    -187.0802     98.88092   -3662.7805 
 1667000    244.07786   -4297.6463   -3879.3052   -4297.6463            0    2234.6363    17.954569    23.420396    22.092807     9290.094    2687.5351    2110.2137    1906.1601    305.87506   -838.26911    343.30523   -3576.5422 
 1668000    247.16842   -4235.3237   -3811.6855   -4235.3237            0    4035.0487    18.108362    23.194565    22.007425     9243.461    4577.8736    4930.4566     2596.816    -32.75117   -710.47306    571.22006   -3267.7351 
 1669000    256.39464   -4263.5059   -3824.0543   -4263.5059            0    2072.4118    18.116006    23.175483    22.185079     9314.343    1454.9879    2098.0141    2664.2334   -124.53977   -328.42848    120.40421   -3542.5376 
 1670000    247.37416   -4276.2706   -3852.2797   -4276.2706            0    2861.4084     18.02621    23.534445    21.875085    9280.2174    3372.0026    2226.7136    2985.5089    -589.0529   -2.2524807    16.149087   -3465.0097 
 1671000    237.58918   -4262.3504   -3855.1307   -4262.3504            0    1847.2287    17.574348    23.915311    22.105392    9290.8081    3647.9159   -401.15429    2294.9244    576.79121     99.74223    1170.8195   -3604.8369 
 1672000    241.04271   -4265.4392   -3852.3002   -4265.4392            0    3056.6784    17.847971    23.579453    21.943943    9235.0075    2663.4642    3102.8635    3403.7074    305.57161    339.37725    1281.7372   -3440.6173 
 1673000    237.71666   -4267.0006   -3859.5624   -4267.0006            0    2705.6604    18.047051    23.360237    22.092134    9313.6771    3097.4938    2400.2782    2619.2093    833.71059    28.949088    249.55734   -3492.0514 
 1674000    234.00812   -4275.4181   -3874.3362   -4275.4181            0    2736.2774    18.286394    23.064252     22.08314     9313.829    1592.9739    5264.1887    1351.6696   -338.76971    731.06589    203.85414   -3502.6604 
 1675000    263.97424     -4294.01   -3841.5672     -4294.01            0    2113.7381    18.138521    23.398215    22.032653    9350.8564    1019.2166    2984.3272    2337.6704   -246.25428   -343.43794   -744.34051   -3553.3111 
 1676000    250.37311   -4292.3755   -3863.2445   -4292.3755            0    2857.1444    17.815694    23.482617    22.187601    9282.3852    2842.2971    4438.0522    1291.0841   -719.65652    215.62643    417.99969   -3476.4612 
 1677000     255.1476   -4263.6245   -3826.3102   -4263.6245            0    1529.0289    18.006662    23.696383    21.911876    9349.6389    846.83334    3066.4502    673.80321   -457.16129   -828.45227    593.28351   -3617.8197 
 1678000    243.47404   -4250.3269   -3833.0208   -4250.3269            0    1952.3636    17.905062    23.532613    22.138542    9328.1386    2789.3882    1994.6686     1073.034    534.72585    -283.8717    41.761733   -3567.4186 
 1679000    244.87139   -4274.7444   -3855.0432   -4274.7444            0     2090.742    18.108444    23.255102    22.088957    9301.9626    2106.2026    2814.5483     1351.475   -299.53817   -393.98969    -312.4167   -3571.4141 
 1680000    246.84323   -4283.0958   -3860.0149   -4283.0958            0    1011.6801    18.430722    23.134827    22.010008    9384.8819   -794.65158    2598.1588     1231.533    265.87527   -431.66844    201.39624   -3721.5474 
 1681000    248.71631   -4267.4112     -3841.12   -4267.4112            0    1452.5416      17.9879    23.321657    22.249242    9333.7265    2571.2411    1358.5773    427.80636   -598.38695    421.89831     973.3658   -3643.3959 
 1682000    255.42945   -4256.7853    -3818.988   -4256.7853            0    2817.6972    18.016202    23.757565    21.746866    9308.1171    2501.8105    2523.3189    3427.9623    346.71803    69.821378    -737.8031   -3436.4874 
 1683000     236.6838    -4273.581    -3867.913    -4273.581            0    1923.2418     18.02179    23.535483    22.054926    9354.6304    773.10635    2276.7737    2719.8453    218.65911    236.90162   -459.06225   -3605.5296 
 1684000    245.86732    -4290.384   -3868.9758    -4290.384            0    2153.5742    17.858054    23.552782    22.111781    9300.3669    2582.8452    1241.9122    2635.9651    344.02398    630.25249   -99.580367    -3576.873 
 1685000    255.38327   -4264.5817   -3826.8635   -4264.5817            0    2936.8892    18.068928    23.358895    21.885253    9237.1134    2710.9571      2204.93    3894.7806    501.91788    769.60792    365.84522   -3431.2239 
 1686000    250.78678   -4264.1472   -3834.3072   -4264.1472            0    2452.8578    18.178827    23.002315    22.278968    9316.0641    3438.1434    2948.5509    971.87915   -1423.1797   -444.62081   -46.995501   -3501.0491 
 1687000    237.53573   -4270.5473   -3863.4192   -4270.5473            0    2301.5305     18.21541    23.284691    21.902631    9289.7861    2403.1862    616.25396    3885.1514    1142.9685   -624.78045   -179.59443   -3551.6032 
 1688000    245.94158   -4242.9627   -3821.4273   -4242.9627            0    2164.4808    17.897106    23.585885    22.008219    9290.0892    4139.4391    1430.6449    923.35858   -318.82241   -170.41293   -314.98572   -3528.1695 
 1689000    246.10954    -4304.433   -3882.6097    -4304.433            0    1461.4116    17.973419    23.553328    22.058134    9337.9543    1358.6401    977.72105    2047.8737   -696.06982   -214.67722    601.34062   -3683.5881 
 1690000    261.15563   -4256.9517   -3809.3399   -4256.9517            0    1458.1823    18.005827    23.711167    21.896218    9348.3533    35.599451    2177.2996    2161.6479    30.041347     398.3305   -291.51558   -3610.5369 
 1691000    251.63911   -4277.7175   -3846.4167   -4277.7175            0    1763.2539    18.070233    23.307781    22.137206    9323.6826    2682.0311    1194.0956    1413.6349   -399.02714    332.28913   -78.303952   -3606.6559 
 1692000    252.55566    -4276.846   -3843.9742    -4276.846            0    2821.7031    18.138332     23.30262    21.896259    9254.9062    2004.2465    4230.0987    2230.7642   -109.06216   -546.61533    750.51179   -3463.1196 
 1693000    245.16937   -4260.9414   -3840.7294   -4260.9414            0    2202.6756    18.206905    23.318875    21.815846    9262.2344      246.186    3255.6788     3106.162    563.12986    574.67605   -1184.5177   -3543.1916 
 1694000    253.47072   -4262.8314   -3828.3913   -4262.8314            0      2435.86    17.892488    23.196283    22.319307    9263.3875    2384.2887    2961.3853     1961.906    445.40975   -460.13776   -327.32854   -3499.3139 
 1695000      239.106   -4269.8524   -3860.0329   -4269.8524            0    2100.0206    18.042491    23.447114    21.922301    9274.1055    2327.9237    1797.7566    2174.3815    249.81883   -249.92424    339.81702   -3575.9982 
 1696000    240.23788   -4263.2034   -3851.4439   -4263.2034            0    503.01846    18.263609    23.339977    21.982203    9370.4024   -472.48078    935.94071    1045.5955    653.47972   -436.06657    -202.2284   -3782.7025 
 1697000    244.66627   -4272.9329   -3853.5833   -4272.9329            0    1652.4929    18.061671    23.217336    22.340003    9368.1439    1316.0918    3237.4024    403.98444    -576.1273    -437.3099    66.047004   -3627.8119 
 1698000    241.73448   -4260.7693   -3846.4447   -4260.7693            0    2711.0688    18.213064    23.294053    21.889854    9286.9038    1256.2503    3599.0297    3277.9263   -323.24155   -18.080939    283.08874   -3479.2576 
 1699000    255.80254   -4269.3976   -3830.9609   -4269.3976            0    1727.8806      18.0158     23.38775    22.154357    9334.7169    630.22723    4503.2247    50.189858   -577.66572   -12.762838   -842.44683   -3595.7319 
 1700000    251.20892     -4289.27   -3858.7065     -4289.27            0    1998.5799    17.892858    23.587934    21.990716     9281.304    2352.3841    1252.6826     2390.673   -506.98779    174.18855    268.47352   -3588.1822 
 1701000    248.06709   -4272.2268   -3847.0483   -4272.2268            0    2172.7329    18.119393    23.435709    21.903049    9300.9289    1616.8287    4146.9238    754.44624    153.82195   -33.068823   -354.06014    -3552.329 
 1702000    244.53815   -4254.4473   -3835.3172   -4254.4473            0    3699.8425    18.030927    23.174424    22.118391      9242.31    4056.9109    3082.3188    3960.2978    213.88859    706.55142    929.70102   -3336.6169 
 1703000    252.67885   -4308.7575   -3875.6746   -4308.7575            0    956.90981    18.068538    23.418759    22.053656    9331.8444    1372.0807    549.00197    949.64678   -125.77075    225.75371    340.11972   -3745.4436 
 1704000    229.61528   -4270.0541   -3876.5014   -4270.0541            0    2437.3923    17.835162    23.533613    21.935717    9206.9862    1936.8708    2145.7947    3229.5113   -969.11831    362.51512     124.9209   -3549.2219 
 1705000    243.23062   -4292.5648   -3875.6759   -4292.5648            0    3108.0654    17.874313    23.443531    22.062795    9245.1274    4482.9686    2768.7884    2072.4391   -341.15705     -245.528   -436.50475   -3456.6132 
 1706000    236.88011   -4278.7637   -3872.7593   -4278.7637            0    977.34659    17.996265    23.902396    21.771657    9365.1621    1805.6311    -1763.963    2890.3717    688.51814     198.8297    -57.16626   -3739.2721 
 1707000    242.17077   -4265.9338   -3850.8614   -4265.9338            0    2208.1223    18.028572    23.419622    22.002203    9289.8214    1485.0575    2270.4613    2868.8482   -234.20373   -42.937903    287.40526   -3551.6994 
 1708000    245.68808   -4258.3407   -3837.2397   -4258.3407            0    2225.7858    18.346556    22.990661    22.017307    9286.8878    1434.8354    1768.3299    3474.1919    343.76382   -80.812752   -1032.2401   -3535.7799 
 1709000    234.15113   -4258.4109   -3857.0839   -4258.4109            0    1453.2595    18.139485    23.368597    22.041963    9343.4624    779.68325    1330.5591    2249.5361    331.07162    146.25386    151.99123   -3659.0558 
 1710000    256.92638   -4270.6913   -3830.3283   -4270.6913            0    1168.1195    17.899709    23.761132    22.058255    9381.7587    2095.1146    21.570107    1387.6737    413.73585   -235.58251   -188.35607   -3670.5023 
 1711000    246.86233   -4290.9297   -3867.8161   -4290.9297            0     2120.968    17.888425    23.612591    21.929535    9262.8616    2977.0409      1138.73     2247.133    409.23194   -174.32623   -763.24173    -3581.296 
 1712000    253.49581   -4285.9385   -3851.4553   -4285.9385            0    2746.3118    18.015203    23.350036    22.120875    9305.2708    4029.7012    1335.0621    2874.1721    182.27788    183.83145   -184.51683   -3478.7593 
 1713000      251.066   -4258.6212   -3828.3026   -4258.6212            0    2969.7043    18.124962    23.226378    21.903221    9220.7569    394.35104    4656.1296    3858.6324    686.09219   -572.39728    282.67408   -3428.9508 
 1714000    243.59056   -4271.4674   -3853.9615   -4271.4674            0    2380.3606    18.121797    23.335338    22.018662    9311.2133    1927.1095    2725.0164     2488.956     1364.466   -344.64359   -481.51696   -3530.7216 
 1715000    227.39613   -4300.3841   -3910.6349   -4300.3841            0    2087.0224    17.842282    23.380153    22.316044    9309.2557    2744.4354    2796.8798    719.75214      805.702    -359.6432    159.81858   -3627.2883 
 1716000    244.55728   -4283.2911   -3864.1283   -4283.2911            0    1665.3971    18.041291    23.645922    21.725646    9268.2249    1819.4054       282.53     2894.256   -776.29108   -250.85953    737.05543   -3639.0206 
 1717000     249.2159   -4305.7457   -3878.5981   -4305.7457            0    3582.3121    18.012982    23.241333    22.153466    9274.4533    4317.5248    3076.1653    3353.2461    391.95059   -237.28017    304.91925   -3394.0604 
 1718000    255.25684   -4284.0162   -3846.5147   -4284.0162            0    3234.9459    18.056826     23.25045    22.123506     9288.097    2659.7772    3905.0901    3139.9704    622.97952   -559.55028   -176.95116   -3408.3175 
 1719000    250.75764   -4264.0717   -3834.2817   -4264.0717            0    1698.6529    18.106153    23.535616    21.947093    9352.5224    455.29055    1642.9169    2997.7512    262.18778    631.75045    145.79792   -3602.5906 
 1720000    231.62311   -4271.5188   -3874.5247   -4271.5188            0    3605.6907    17.874204    23.425463    22.106601    9256.2882    4152.6143    2974.1715    3690.2864   -599.92902   -286.54957    901.13144     -3387.78 
 1721000    251.17041   -4282.6886   -3852.1911   -4282.6886            0    3425.2314    17.815308    23.567101    21.962192    9220.9399    4175.1117    3244.8433    2855.7394   -846.89351    223.08057   -665.30139    -3391.573 
 1722000    249.65629   -4304.1121   -3876.2098   -4304.1121            0    1579.4792    18.093834    23.432419    21.981763    9319.8784    1127.5435    1274.6513    2336.2427     338.2558    36.791899   -514.35467   -3661.5256 
 1723000    240.14696    -4272.892   -3861.2883    -4272.892            0    2008.0112    18.203656    23.009982     22.15299    9279.1298    1040.3797    3057.5616    1926.0922   -98.957823    415.08079     196.3823    -3589.551 
 1724000    238.89703   -4257.6229   -3848.1616   -4257.6229            0     2329.941    18.233961    23.297099    21.965204    9330.7833    2561.0341    3396.0725    1032.7166   -92.068725    13.117786     546.3934   -3531.1034 
 1725000     246.7847    -4288.893   -3865.9124    -4288.893            0    2816.3877    18.156688    23.228368     21.94055    9253.4321    3444.6046    2601.9859    2402.5727    278.93028   -311.70255   -616.65304   -3485.8358 
 1726000    245.87888   -4263.2541   -3841.8261   -4263.2541            0    3370.7221    17.784371    23.504604    22.018574    9204.0849    3908.0519    3045.8491    3158.2654   -36.871219   -252.83727    777.16112   -3389.3669 
 1727000    261.96428   -4245.5125   -3796.5147   -4245.5125            0    1443.0128    17.912958    23.712476    21.978567    9335.6286    2333.7347    1336.1872    659.11663   -989.00624   -355.95931   -227.43976   -3600.0477 
 1728000    246.69118   -4249.8202        -3827   -4249.8202            0    2087.7694    18.086356    23.407038    21.959332    9296.4398    2513.2843    1338.2839    2411.7399   -104.10644     240.1626    -456.7608   -3543.9422 
 1729000     261.5993    -4288.924   -3840.5518    -4288.924            0    2022.9029    18.284618    23.031494    22.148306    9327.1405    2094.6117    1814.5415    2159.5557    261.39223   -12.688593    673.94252   -3565.3828 
 1730000    243.18304   -4228.7564   -3811.9489   -4228.7564            0    3234.6837    18.049176    23.304528    21.949414     9232.528    2400.0393    2996.7868    4307.2249   -86.729666    294.96164    204.17399   -3376.4087 
 1731000    245.54167   -4255.3104   -3834.4604   -4255.3104            0    3696.7312     17.85915    23.514638    22.079699    9272.4015    3266.5909    4373.3834    3450.2194    961.10298    283.83098    908.37729   -3334.5571 
 1732000    245.36483   -4267.6546   -3847.1077   -4267.6546            0    1812.8509    17.825522    23.628405    22.057724    9290.4629    1839.4289    1102.0215    2497.1024   -459.27845   -32.780313    733.26414   -3601.4811 
 1733000    238.07097   -4273.8269   -3865.7814   -4273.8269            0    2248.5432    18.065357    23.390623    21.918305    9261.7977    2964.3469    1998.4636    1782.8191   -631.75521     145.4633    131.77454   -3562.0621 
 1734000    240.76316    -4236.631   -3823.9711    -4236.631            0    2806.0922    18.200562    23.112071    21.980463    9246.1409    2518.7565    3367.9522    2531.5679   -6.5808523    443.37491   -125.28842   -3445.5823 
 1735000    234.82259   -4277.7814   -3875.3035   -4277.7814            0    2300.0592    18.071817    23.237754    22.102713    9281.9997    2170.1563    2642.3511    2087.6703   -867.99667    259.87701    60.992475   -3563.9481 
 1736000    245.42545   -4280.3667   -3859.7159   -4280.3667            0    1390.9954    18.035421    23.631975    21.891936    9330.6192    1143.8415    1724.5044    1304.6403   -659.54222    96.578212    31.825753   -3670.4327 
 1737000    246.62365   -4278.9943   -3856.2898   -4278.9943            0    2264.6313    17.833082    23.523255    22.142093    9288.4339    4027.5451    2138.1704     628.1786   -608.82445    62.185302     127.2486   -3549.5176 
 1738000    245.51278   -4252.2367   -3831.4362   -4252.2367            0    2130.8669    17.867921    23.406657     22.08159    9235.1463    3263.7725    1437.3742     1691.454    224.92656   -603.08217   -420.21332   -3544.4401 
 1739000    243.81756   -4261.0183   -3843.1234   -4261.0183            0    2332.1016    18.122101    23.533059    21.834873    9311.8849      2370.61     2069.105    2556.5899    25.085928   -1076.4179   -299.74376    -3526.414 
 1740000    250.80454   -4279.1354    -3849.265   -4279.1354            0    398.21503    17.889005    23.359329    22.503701    9403.7373    737.54179   -77.026331    534.12964     9.608008     41.92733   -26.399952   -3794.6522 
 1741000    233.37807     -4273.28    -3873.278     -4273.28            0    1860.8392    18.116488    23.429779    21.964121    9323.0074    1257.1802    1923.8255    2401.5119   -220.64402   -559.49379    481.91052   -3620.2662 
 1742000    249.38034   -4274.5396   -3847.1103   -4274.5396            0    1334.4408    18.257299    23.359089    21.938107    9356.0294    1646.4758    1162.0624     1194.784   -461.28762   -72.344611   -688.51585   -3665.0284 
 1743000    255.37411   -4265.1003   -3827.3978   -4265.1003            0    3032.3796    17.970566    23.364116    22.148959    9299.6034    2375.2712    3866.8946     2854.973   -404.12826     1097.414   -29.805947   -3416.1308 
 1744000    256.52617   -4283.2836   -3843.6065   -4283.2836            0    2328.9005    17.899043    23.590996    21.939067    9263.9081    2338.4096    1417.1112    3231.1808   -175.08747   -1029.9986    751.18544   -3528.9613 
 1745000    255.42395   -4263.1564   -3825.3685   -4263.1564            0    1607.2886    17.972251    23.579112    21.949629    9301.5881    950.89593    2460.6787    1410.2911    834.60191    566.66164    140.80475   -3607.3332 
 1746000    243.72883   -4275.0347   -3857.2918   -4275.0347            0    1719.0865    18.047296    23.242591    22.269706    9341.3825    2193.7191    1903.2563    1060.2843    402.38127    -854.9208    104.77123   -3623.0929 
 1747000    248.47133   -4281.4701   -3855.5988   -4281.4701            0    2518.2068    18.161129    23.432766    21.828533    9289.4706    1839.4444    3308.2635    2406.9126   -416.95259     124.2513    606.75568   -3514.4387 
 1748000    248.40655   -4248.9811   -3823.2208   -4248.9811            0    1576.5089    18.165746    23.345614    22.087744    9367.2026    2009.7323    2589.7526    130.04159    562.83651   -45.189342    102.77175   -3607.8523 
 1749000    240.79697   -4289.2332   -3876.5155   -4289.2332            0    2143.0023     17.98173    23.245211    22.240641    9296.3457    2021.2896    3534.4869    873.23039    76.216232   -411.48131     271.9261   -3585.9722 
 1750000    258.60686   -4250.9806   -3807.7373   -4250.9806            0    1134.4442    18.136131    23.596315    21.849138    9350.2483    1637.7324    1469.4688    296.13138   -445.86921     540.0149    314.21755   -3653.0402 
Loop time of 360.507 on 64 procs for 250000 steps with 864 atoms

Performance: 119.831 ns/day, 0.200 hours/ns, 693.468 timesteps/s
194.9% CPU use with 32 MPI tasks x 2 OpenMP threads

MPI task timing breakdown:
Section |  min time  |  avg time  |  max time  |%varavg| %total
---------------------------------------------------------------
Pair    | 17.597     | 24.852     | 33.676     | 103.2 |  6.89
Bond    | 0.86557    | 0.99893    | 1.2057     |   8.8 |  0.28
Kspace  | 180.86     | 190.85     | 201.84     |  42.2 | 52.94
Neigh   | 1.4671     | 1.5869     | 1.8331     |   7.8 |  0.44
Comm    | 52.252     | 58.833     | 62.797     |  33.4 | 16.32
Output  | 0.84881    | 0.84953    | 0.851      |   0.0 |  0.24
Modify  | 64.604     | 66.59      | 70.611     |  15.8 | 18.47
Other   |            | 15.94      |            |       |  4.42

Nlocal:        27.0000 ave          38 max          18 min
Histogram: 6 2 4 4 1 2 4 2 1 6
Nghost:        2104.22 ave        2209 max        1996 min
Histogram: 5 11 0 0 0 0 0 2 4 10
Neighs:        6512.84 ave        9217 max        4201 min
Histogram: 3 6 4 2 3 1 4 2 3 4

Total # of neighbors = 208411
Ave neighs/atom = 241.21644
Ave special neighs/atom = 2.0000000
Neighbor list builds = 5629
Dangerous builds = 0

unfix		3
unfix		2
unfix		1

write_data	data.final.${pid} nocoeff
write_data	data.final.1 nocoeff
System init for write_data ...
PPPM initialization ...
  extracting TIP4P info from pair style
  using 12-bit tables for long-range coulomb (../kspace.cpp:340)
  G vector (1/distance) = 0.3716231
  grid = 24 27 25
  stencil order = 5
  estimated absolute RMS force accuracy = 0.0031593451
  estimated relative force accuracy = 9.5142739e-06
  using double precision FFTW3
  3d grid and FFT values/proc = 4410 672
Last active /omp style is kspace_style pppm/tip4p/omp

write_restart   restart.lmp.${pid}
write_restart   restart.lmp.1
System init for write_restart ...
PPPM initialization ...
  extracting TIP4P info from pair style
  using 12-bit tables for long-range coulomb (../kspace.cpp:340)
  G vector (1/distance) = 0.3716231
  grid = 24 27 25
  stencil order = 5
  estimated absolute RMS force accuracy = 0.0031593451
  estimated relative force accuracy = 9.5142739e-06
  using double precision FFTW3
  3d grid and FFT values/proc = 4410 672
Last active /omp style is kspace_style pppm/tip4p/omp
Total wall time: 0:06:00
