LAMMPS (30 Jul 2021)
Processor partition = 0
  using 2 OpenMP thread(s) per MPI task
using multi-threaded neighbor list subroutines
variable        pid world 0 1
variable        phase world IceII IceIh

shell cd ${phase}
shell cd IceII
include Restart.lmp
echo both
log log.lammps
#include		in.partitions
include		in.temp
variable        temperature equal 245.10
variable	tempDamp equal 100.0
include		in.pressure
variable        pressure equal 2156.9
variable        pressureDamp equal 1000.0 # This is 1 ps
include		in.seed
variable        seed equal 745823

units		real
atom_style	full
box tilt large
read_restart	restart.lmp.${pid}
read_restart	restart.lmp.0
Reading restart file ...
  restart file = 30 Jul 2021, LAMMPS = 30 Jul 2021
  restoring atom style full from restart
  triclinic box = (-10.661865 -9.4310297 -0.047625418) to (12.641865 12.421028 21.907624) with tilt (-9.3187329 1.5616962 3.0669403)
  2 by 4 by 4 MPI processor grid
  restoring pair style lj/cut/tip4p/long/omp from restart
  restoring bond style harmonic/omp from restart
  restoring angle style harmonic/omp from restart
  1296 atoms
  864 bonds
  432 angles
Finding 1-2 1-3 1-4 neighbors ...
  special bond factors lj:    0        0        0       
  special bond factors coul:  0        0        0       
     2 = max # of 1-2 neighbors
     1 = max # of 1-3 neighbors
     1 = max # of 1-4 neighbors
     2 = max # of special neighbors
  special bonds CPU = 0.002 seconds
  read_restart CPU = 0.008 seconds
include 	in.setup
variable	out_freq equal 1000
variable	out_freq2 equal 10000
variable	out_freq3 equal 1000

timestep	2.0

neigh_modify    delay 7 every 1

include		in.tip4p
# This is TIP4P/Ice

# create groups ###
group ox type 2
432 atoms in group ox
group hy type 1
864 atoms in group hy

# set charges - beside manually ###
set group ox charge -1.1794
Setting atom values ...
  432 settings made for charge
set group hy charge 0.5897
Setting atom values ...
  864 settings made for charge

# ### TIP3P Potential Parameters ###
pair_style lj/cut/tip4p/long/omp 2 1 1 1 0.1577 8.5
pair_coeff 1 1*2 0.000 0.000
pair_coeff 2 2 0.21084 3.1668
bond_style  harmonic
bond_coeff  1 450 0.9572
angle_style harmonic
angle_coeff 1 55 104.52
kspace_style pppm/tip4p/omp 1.0e-5
pair_modify tail yes

thermo          ${out_freq}
thermo          1000
thermo_style    custom step temp pe etotal epair emol press lx ly lz vol pxx pyy pzz pxy pxz pyz enthalpy

restart 	${out_freq3} restart.lmp.${pid} restart2.lmp.${pid}
restart 	1000 restart.lmp.${pid} restart2.lmp.${pid}
restart 	1000 restart.lmp.0 restart2.lmp.${pid}
restart 	1000 restart.lmp.0 restart2.lmp.0


include         in.dump
dump            myDump all atom ${out_freq2} dump.water.${pid}
dump            myDump all atom 10000 dump.water.${pid}
dump            myDump all atom 10000 dump.water.0
dump            myDump2 all dcd ${out_freq2} dump.dcd
dump            myDump2 all dcd 10000 dump.dcd
dump_modify     myDump append yes
dump_modify     myDump2 append yes


variable natoms 	equal  "count(all)"                        # NUMBER ATOMS
variable H      	equal  "enthalpy/v_natoms"                 # ENTHALPY-per-atom
variable Vol      	equal  "vol/v_natoms"                 # volume-per-atom
fix AVG all 		ave/time ${out_freq} 1 ${out_freq} v_Vol v_H file vol_enthalpy.dat
fix AVG all 		ave/time 1000 1 ${out_freq} v_Vol v_H file vol_enthalpy.dat
fix AVG all 		ave/time 1000 1 1000 v_Vol v_H file vol_enthalpy.dat


timer           timeout 10:00:00 every 1000
New timer settings: style=normal  mode=nosync  timeout=10:00:00

fix 		1 all shake 1e-6 200 0 b 1 a 1
Finding SHAKE clusters ...
       0 = # of size 2 clusters
       0 = # of size 3 clusters
       0 = # of size 4 clusters
     432 = # of frozen angles
  find clusters CPU = 0.001 seconds
fix             2 all nph tri ${pressure} ${pressure} ${pressureDamp}
fix             2 all nph tri 2156.9 ${pressure} ${pressureDamp}
fix             2 all nph tri 2156.9 2156.9 ${pressureDamp}
fix             2 all nph tri 2156.9 2156.9 1000
fix             3 all temp/csvr ${temperature} ${temperature} ${tempDamp} ${seed}
fix             3 all temp/csvr 245.1 ${temperature} ${tempDamp} ${seed}
fix             3 all temp/csvr 245.1 245.1 ${tempDamp} ${seed}
fix             3 all temp/csvr 245.1 245.1 100 ${seed}
fix             3 all temp/csvr 245.1 245.1 100 745823


run             250000
PPPM initialization ...
  extracting TIP4P info from pair style
  using 12-bit tables for long-range coulomb (../kspace.cpp:340)
  G vector (1/distance) = 0.36668681
  grid = 30 40 32
  stencil order = 5
  estimated absolute RMS force accuracy = 0.0046066078
  estimated relative force accuracy = 1.3872663e-05
  using double precision FFTW3
  3d grid and FFT values/proc = 7752 1200
Last active /omp style is kspace_style pppm/tip4p/omp
Neighbor list info ...
  update every 1 steps, delay 7 steps, check yes
  max neighbors/atom: 2000, page size: 100000
  master list distance cutoff = 10.8154
  ghost atom cutoff = 10.8154
  binsize = 5.4077, bins = 7 5 5
  1 neighbor lists, perpetual/occasional/extra = 1 0 0
  (1) pair lj/cut/tip4p/long/omp, perpetual
      attributes: half, newton on, omp
      pair build: half/bin/newton/tri/omp
      stencil: half/bin/3d/tri
      bin: standard
Setting up Verlet run ...
  Unit style    : real
  Current step  : 1500000
  Time step     : 2
  Walltime left : 9:59:59.94
Per MPI rank memory allocation (min/avg/max) = 10.63 | 10.64 | 10.64 Mbytes
Step Temp PotEng TotEng E_pair E_mol Press Lx Ly Lz Volume Pxx Pyy Pzz Pxy Pxz Pyz Enthalpy 
 1500000    263.10485   -6323.6304   -5646.8092   -6323.6304            0     365.1349    23.303729    21.852057     21.95525    11180.369    1274.0663   -1773.6589    1594.9973    725.45268    775.97445    1022.1808   -5587.2725 
 1501000    251.95754   -6340.8468   -5692.7014   -6340.8468            0    2129.6115    23.563754     21.41914    21.944558    11075.755    703.21287    2689.2304    2996.3911    1465.4083   -588.84962    193.77096   -5348.7084 
 1502000    240.87901   -6305.4735   -5685.8269   -6305.4735            0    1699.2788    23.358734    21.655223    21.966399    11111.452    2279.1276    941.31179     1877.397   -46.774715   -477.45292   -161.01207   -5410.4603 
 1503000    242.80697   -6311.2656   -5686.6595   -6311.2656            0    2401.5903    23.513366    21.688833    21.705606     11069.37    2145.3776     1245.361    3814.0324   -1261.9619    527.98348    806.15335   -5298.9578 
 1504000    242.69702   -6365.9875   -5741.6642   -6365.9875            0   -148.52308    23.683039    21.449932    21.939822     11145.42   -817.05449    306.98871    64.496528   -1179.0636    195.42712    163.56886   -5765.8058 
 1505000    239.93675   -6313.3602   -5696.1375   -6313.3602            0    3565.2323    23.250427    21.673566    21.868947    11020.192    5024.0632    2016.9636    3654.6702    575.10654   -297.62381    255.72342   -5123.1398 
 1506000    250.28116   -6311.3466   -5667.5135   -6311.3466            0     2151.149     23.66681    21.405453    21.911234    11100.204    1828.5744    2922.7389    1702.1337   -293.63825     76.71383    144.44862   -5319.2746 
 1507000    245.12064   -6339.9194   -5709.3615   -6339.9194            0    2615.2907    23.312075    21.744745    21.827559     11064.72    3265.6529    2350.1287    2230.0905    105.09783   -226.15412   -206.93205   -5287.3384 
 1508000    252.06839    -6331.884   -5683.4534    -6331.884            0    1884.7797    23.535014    21.602251    21.897112    11132.695    2548.9772    1648.2633    1457.0986   -1133.3441   -444.11848   -843.16884   -5377.4426 
 1509000    251.22853   -6295.9026   -5649.6325   -6295.9026            0    3130.3496    23.611846    21.537929    21.781617    11077.047    1630.5928    3846.3297    3914.1264    800.34161    252.69821   -113.13921   -5143.9328 
 1510000    236.79938   -6287.3158   -5678.1638   -6287.3158            0    1865.5375     23.30497    21.739604    22.046916    11169.867     3323.726    1453.0484    819.83825    486.89882   -829.07421   -1043.9303   -5374.2657 
 1511000    247.86186   -6336.8742   -5699.2647   -6336.8742            0     2498.023    23.534821    21.423704    21.947637    11066.065    1373.0353    3692.3391    2428.6947   -215.30841    647.92774   -966.05086   -5296.1158 
 1512000    249.88142   -6292.5957    -5649.791   -6292.5957            0    2479.3724    23.300716     21.67743    21.919216    11071.389    2645.2621     1947.609    2845.2461   -872.98297    620.16455    740.14212   -5249.4595 
 1513000    250.94154   -6300.2248   -5654.6929   -6300.2248            0    2861.2054    23.695508    21.364797    21.876095    11074.767    2981.0183    2327.7035    3274.8944    623.37866   -1332.1136    1115.1635   -5192.5679 
 1514000    239.16367    -6336.292    -5721.058    -6336.292            0    2029.2277    23.378754    21.754221    21.795322    11084.808    1986.5928    1540.1132    2560.9771    214.76613     280.0529    140.04389    -5393.012 
 1515000    241.69001   -6308.1977   -5686.4649   -6308.1977            0    2935.2553    23.476379    21.482215    21.996291    11093.271    3763.3401    2604.6813    2437.7446     212.0205    359.06437   -1147.6232   -5211.5876 
 1516000    244.82691   -6323.5885   -5693.7862   -6323.5885            0    1843.6309    23.541416    21.661768    21.811526    11122.759     3397.858    659.81902    1473.2158   -649.20198    39.030905   -170.71063   -5394.7234 
 1517000    253.01266   -6333.8348   -5682.9751   -6333.8348            0    3712.2009    23.304983    21.605719    21.865322    11009.647    2659.8869    4582.0147     3894.701   -631.14967   -92.288781   -531.09913   -5086.9278 
 1518000     243.4501   -6351.0334   -5724.7729   -6351.0334            0    221.11011    23.616737    21.538124    22.004647    11192.889   -428.80266    1352.9725   -260.83952   -222.75246   -90.212708   -411.42982   -5688.6796 
 1519000      248.752   -6348.1675   -5708.2681   -6348.1675            0    1420.3632    23.388782    21.657577    21.862675    11074.414     2454.009    347.07014    1460.0104   -915.60495   -609.06497    70.933165   -5478.8667 
 1520000    247.54884   -6349.7001   -5712.8958   -6349.7001            0    1449.9555    23.495935    21.477334    22.030868    11117.438    1402.3288    1641.4865    1306.0513   -1082.1326   -15.636714    873.79395   -5477.8052 
 1521000    245.38724   -6362.6285   -5731.3848   -6362.6285            0    2036.5502    23.366579    21.803878    21.765947    11089.359    2625.7239     942.6425    2541.2842   -1393.4585   -727.41076   -942.22046   -5402.0198 
 1522000    246.30594   -6322.1637   -5688.5567   -6322.1637            0    1894.4429    23.518461    21.604766    21.911046     11133.24    1692.0185    2540.5435    1450.7667   -515.36233   -138.58212   -234.07685   -5380.9619 
 1523000    239.87972   -6329.6341   -5712.5582   -6329.6341            0     1951.736    23.507598     21.46535    22.088544    11145.853    2290.8336    3513.7303    50.644094    271.64772    1111.2942   -670.15959   -5395.3018 
 1524000    269.84778   -6312.5988   -5618.4318   -6312.5988            0    2226.4813    23.478167    21.677517     21.71845     11053.57    3213.1376    1115.6101    2350.6962    620.23145    60.586937     81.00643    -5259.512 
 1525000    250.44436   -6300.0487   -5655.7959   -6300.0487            0    2429.7803    23.607275    21.440478    21.986968    11128.732    1668.9571    3564.5706    2055.8132    11.727246     233.7008   -336.07384   -5261.4398 
 1526000    261.90762   -6335.2823   -5661.5409   -6335.2823            0    2034.1124    23.361921    21.753612    21.894771    11127.058    3031.1129    545.15546    2526.0687   -587.66506   -1084.1214   -643.41814   -5331.4518 
 1527000    253.66008    -6320.286   -5667.7609    -6320.286            0    2387.9894    23.757739    21.539023    21.705946    11107.334    588.08792    3120.1337    3455.7466   -1708.3839   -56.599415    364.95721   -5280.9328 
 1528000    240.64732   -6342.9961   -5723.9456   -6342.9961            0    1122.6574    23.416262    21.636795    22.034767    11163.978    1133.6451    737.89884    1496.4283    751.35992   -348.48816    827.25103   -5541.1599 
 1529000     246.1698   -6351.9107   -5718.6539   -6351.9107            0    1740.0384    23.382628    21.620254    21.948491    11095.804    2347.0285    1043.5086    1829.5783     219.7429    634.24475    199.51554   -5437.0793 
 1530000     254.3371   -6294.0961   -5639.8294   -6294.0961            0    1681.5043    23.688946    21.438689    21.883298    11113.651    1424.2629    2204.2519    1415.9981   -567.16116   -262.31457   -432.15998   -5367.2891 
 1531000    252.97626   -6321.5337   -5670.7677   -6321.5337            0    268.83582    23.356844    21.817985    21.988787     11205.47    1162.6202   -530.40422    174.29152    8.0295908    825.16577   -174.48594   -5626.8344 
 1532000    252.93817   -6325.3199   -5674.6519   -6325.3199            0    2199.4557    23.750279    21.326291    21.866212    11075.353      373.853    3036.8879    3187.6262    1020.9115    229.21915   -490.41167   -5319.3899 
 1533000    249.82625   -6331.9845   -5689.3217   -6331.9845            0    2348.3159    23.189333    21.729452    21.924132    11047.384    3607.9808    1606.0772    1830.8898   -273.37659    925.78251   -131.24817   -5310.9733 
 1534000    238.11515   -6323.3503   -5710.8136   -6323.3503            0    1584.8335    23.661788      21.4263    21.915489    11110.815    519.69033    3110.0813    1124.7287    38.856433    830.80912     5.567634   -5454.0075 
 1535000    242.51979   -6340.3752   -5716.5078   -6340.3752            0      4147.37    23.269022    21.622803    21.882591    11010.039    4872.1151    4403.8999    3166.0949   -1140.7028     774.8663   -754.60481    -5050.564 
 1536000    240.47293   -6329.9204   -5711.3184   -6329.9204            0    2606.0275    23.448482    21.403643    22.064294    11073.693     3071.562    2449.5607    2296.9598   -723.17991   -171.06384   -52.659084    -5290.449 
 1537000    243.92292   -6309.4439    -5681.967   -6309.4439            0     2077.764    23.591585    21.576718    21.758948    11075.935    1304.5702    2050.6948     2878.027   -408.74632    882.19301    1034.7124   -5346.3434 
 1538000    260.33443   -6357.4956   -5687.8011   -6357.4956            0    2007.3526    23.273373    21.638502    22.017011    11087.788     2308.048    2312.0988     1401.911   -547.12824    681.39508    341.39321   -5363.2041 
 1539000    248.59255   -6332.8117   -5693.3225   -6332.8117            0    1729.5759    23.479741     21.53881    22.028155    11140.203    2052.8518    1876.1495    1259.7264   -130.57587    644.98514   -309.72625    -5412.321 
 1540000     246.6049   -6339.9813   -5705.6052   -6339.9813            0      1827.88    23.546268    21.695164    21.728118    11099.595    1891.9419    1453.2732    2138.4248   -366.70327    670.14812   -1424.5675    -5409.715 
 1541000    253.19202   -6362.0664   -5710.7454   -6362.0664            0    2095.7888    23.515588    21.365743    22.056091    11081.598    1920.1425    3634.3779    732.84599   -290.02719    985.45678   -286.65539   -5372.0371 
 1542000    246.36744   -6335.6424   -5701.8771   -6335.6424            0     3078.015    23.299394    21.586656     21.91089    11020.213    3627.9978     2670.745    2935.3022    583.52482    92.682051   -166.81107   -5207.1831 
 1543000    249.76967   -6317.5509   -5675.0336   -6317.5509            0    2389.9769    23.496477    21.590269     21.85496    11086.918    2422.3519    1816.1438    2931.4351   -884.99387    252.49404     463.0534   -5288.5951 
 1544000    250.74251   -6329.6233   -5684.6035   -6329.6233            0    2029.0274    23.536644    21.528639    21.905031     11099.54    1861.6268    1436.6436    2788.8116   -297.27539    -327.4897   -164.41191   -5356.1539 
 1545000    226.37645   -6344.1734   -5761.8337   -6344.1734            0    1512.1493    23.317607    21.767163    21.950767    11141.291    2188.5168    274.92092    2073.0102   -595.70049   -566.01751    184.64458   -5516.1332 
 1546000     241.4569   -6308.5109   -5687.3778   -6308.5109            0    1452.4334    23.673114    21.535861    21.849121    11139.139    1253.0087    1712.7933    1391.4982   -2628.2429   -474.26261    132.64726   -5451.4258 
 1547000    243.39679   -6340.5345   -5714.4111   -6340.5345            0    2554.5147    23.370553    21.529412    22.035934    11087.474    3267.6647    1588.9972    2806.8824   -13.984876    -1128.993    381.00773   -5301.3475 
 1548000    251.59363   -6319.9283    -5672.719   -6319.9283            0    2550.8658    23.348856    21.651991     21.93494    11089.192    3120.4066    2345.6631    2186.5277   -33.359058    -388.2315   -264.72209   -5260.1815 
 1549000    247.39292    -6303.641   -5667.2378    -6303.641            0    3780.5926    23.529373    21.446062    21.846166    11023.846    3048.5864    4550.8575    3742.3338    675.76751    162.40904    279.73834   -5059.4263 
 1550000     249.2432   -6322.6254   -5681.4624   -6322.6254            0     2610.884    23.295851    21.541932    22.127657    11104.491    3674.6432    2869.8689      1288.14    1188.8158   -322.30358   -317.55222    -5258.636 
 1551000    255.91068   -6323.7665   -5665.4519   -6323.7665            0    815.13608    23.581648    21.672576    21.821668    11152.511    298.49297    677.89072    1469.0246    384.90813   -414.44308   -710.18189   -5532.8717 
 1552000    239.93226   -6336.6354   -5719.4243   -6336.6354            0    3192.2093    23.417157    21.645977     21.75627    11027.976    2355.1216    2868.1402    4353.3661    191.70777    768.18506   -220.62513   -5206.0158 
 1553000    245.09458   -6341.7976   -5711.3067   -6341.7976            0    3237.2951    23.449935     21.36606    22.120689    11083.189    3728.8518    4790.4637    1192.5699   -628.07801   -310.30468   -966.77143   -5188.0402 
 1554000    247.95533   -6314.2475   -5676.3975   -6314.2475            0    1446.5849    23.608389    21.772861    21.617743    11111.999    944.05113    2054.4257    1341.2779   -521.15978   -91.132672   -499.15251   -5441.9681 
 1555000     252.4909   -6330.2716   -5680.7541   -6330.2716            0    1655.9857    23.477996    21.575415    21.872285    11079.351    870.87016    1279.6269      2817.46    883.88725   -661.38853   -457.87057   -5413.1783 
 1556000    254.30035   -6315.8004   -5661.6282   -6315.8004            0    1742.3295    23.498436    21.521944    22.056909    11154.885    1317.7876    1613.2671    2295.9339   -481.04164    527.35513     1404.407   -5378.1816 
 1557000    245.40182   -6321.3811   -5690.0998   -6321.3811            0    3848.3358    23.443611    21.658081    21.740262     11038.48    4080.3646    3143.0245    4321.6184   -1109.7618    -614.2304    346.70133   -5070.5758 
 1558000    256.82772   -6355.3414   -5694.6678   -6355.3414            0    2082.5799    23.429255    21.519715    22.010941    11097.716    1563.4081    3292.8046    1391.5269    420.80142   -734.28526   -270.19079   -5357.6047 
 1559000    244.58178   -6314.1805   -5685.0088   -6314.1805            0     1252.427    23.517281    21.600298    21.952267    11151.318    1575.6953    1365.1517    816.43417    1179.6103   -787.85325   -284.76859   -5481.3259 
 1560000    236.00625   -6340.0162   -5732.9045   -6340.0162            0    2108.9537    23.561604    21.613121    21.779655    11091.067    1380.6996    2677.0264    2269.1351    328.13135   -284.73435    631.95469   -5391.7774 
 1561000    245.98519   -6330.0268   -5697.2449   -6330.0268            0    1418.1337    23.428509    21.588704    21.996311    11125.539    1775.5129    1063.1871    1415.7012    1152.5713   -760.56465    568.43865   -5467.1462 
 1562000    244.78207   -6312.7551   -5683.0681   -6312.7551            0    2283.5108    23.523262    21.634392    21.870816    11130.309    3317.8659    1803.0281    1729.6385   -121.05806   -811.23596   -92.826425   -5312.3992 
 1563000    245.39438   -6272.3433   -5641.0812   -6272.3433            0     2105.696    23.678476    21.680699    21.681652    11130.622    1871.7656    1081.7857    3363.5367    745.63916   -881.54097    617.65204   -5299.2663 
 1564000    249.88433   -6347.4817   -5704.6695   -6347.4817            0    1247.2424     23.46165    21.502364    22.075906    11136.874    375.02965     2148.373    1218.3246   -742.12933   -535.00498    926.41468   -5502.0925 
 1565000    234.33887   -6347.2619   -5744.4394   -6347.2619            0    2204.4239    23.362086     21.66544    21.905928    11087.682    2262.6079    2525.5523    1825.1115   -601.80539   -1036.0851   -103.12074   -5387.9786 
 1566000    260.07638   -6326.5339   -5657.5033   -6326.5339            0    4499.0616     23.59182    21.380752    21.774519    10983.304    5043.8599    4205.2204    4248.1046   -726.01959   -1159.4819   -472.37564   -4936.8426 
 1567000    236.63501   -6340.0196   -5731.2905   -6340.0196            0    2111.2288    23.414582      21.7881     21.70956    11075.333    2254.3506     1104.622    2974.7138   -433.81878   -200.22679   -319.77623   -5390.2798 
 1568000    239.04997   -6332.5974   -5717.6559   -6332.5974            0      1830.98    23.507568    21.492664    22.037097    11134.029    1632.8405    2248.1723    1611.9271    219.67202    384.34429   -1032.1675   -5420.3443 
 1569000    230.36894   -6338.9611   -5746.3511   -6338.9611            0    3452.2931    23.346743    21.503267    21.936708    11012.913    3437.3554    3824.8758     3094.648    239.12607    889.81201   -480.43991   -5191.8712 
 1570000     246.7689   -6328.5284   -5693.7304   -6328.5284            0    3367.0089    23.613932    21.589768    21.693052    11059.537    2955.4308    2821.8625    4323.7334    388.99198    260.13223    670.32276   -5150.6588 
 1571000    244.05859   -6320.7484   -5692.9226   -6320.7484            0    1229.5946    23.440587    21.610857    21.992193    11140.611    1871.3798   -1.1905065    1818.5945   -77.034414    759.80893   -544.76043   -5493.1449 
 1572000    250.16693   -6274.2636   -5630.7244   -6274.2636            0    2787.7076    23.521191    21.601973    21.824649    11089.194    1319.4326    3832.7036    3210.9867    177.59595    965.94886   -507.58917   -5179.8837 
 1573000    240.93711   -6343.0839   -5723.2879   -6343.0839            0    1584.8131    23.467278    21.526393    21.998361    11112.821    1531.5083    1812.7931    1410.1378   -1031.3343    114.89476   -422.20717   -5466.4387 
 1574000    244.19979   -6323.6226   -5695.4336   -6323.6226            0    3106.1144    23.394665    21.646158    21.748151    11013.364    1660.1405    3758.1193    3900.0833   -1340.1633   -112.78767    167.81511   -5196.5338 
 1575000    245.82928   -6326.3635   -5693.9826   -6326.3635            0    2592.1028    23.580846    21.477359     21.91075    11096.794    1818.1848    2678.7588    3279.3647   -68.031098   -508.81077    1789.8828   -5274.4887 
 1576000    243.92547   -6319.2101   -5691.7267   -6319.2101            0    2739.3474    23.391573    21.576615    21.975029    11091.038    3366.0777    2698.9173    2153.0473    162.65968    753.85136   -338.97269   -5248.6334 
 1577000    239.70918   -6332.4743    -5715.837   -6332.4743            0    2294.6695    23.536147    21.525968    21.936807    11114.028    1016.1194    3426.5977    2441.2914     1994.065    1035.7136   -126.11995   -5343.9016 
 1578000    259.50489   -6319.3532   -5651.7927   -6319.3532            0    2752.9706    23.601467    21.578378    21.747524    11075.609    2431.3346    1446.6276    4380.9495    1176.0284   -228.76626    368.26071   -5207.1153 
 1579000    235.31152   -6328.2727   -5722.9481   -6328.2727            0    3322.2566    23.259467    21.568895    22.008177    11041.084    4026.1617     3576.531    2364.0771   -208.98518     787.2943    397.67908   -5187.9888 
 1580000    245.74984   -6288.4736   -5656.2971   -6288.4736            0    2836.6916     23.57742    21.575251    21.794433    11086.583    3489.0637    2594.1191     2426.892    559.82573   -541.32493   -85.958796   -5197.6426 
 1581000    237.77038   -6321.5657   -5709.9159   -6321.5657            0    1947.6582    23.326202     21.73571    21.932022    11119.789    2562.6322    957.11561    2323.2267    -267.4902   -387.97207    324.96493   -5394.0628 
 1582000    238.73842   -6327.0122   -5712.8722   -6327.0122            0    2916.4248    23.411708    21.487733    22.023111    11079.046     3240.704    4563.4914    945.07905    585.84777   -61.768989    456.91894   -5241.6464 
 1583000    246.74663   -6330.7207   -5695.9801   -6330.7207            0    3159.8585    23.416577    21.643445    21.812858    11055.092    4033.2671    2879.6614    2566.6469   -1070.9215     -723.761   -803.59806    -5186.525 
 1584000     262.7837   -6314.9073   -5638.9122   -6314.9073            0    1554.3492    23.503779    21.731742    21.883451    11177.587    609.07598    2037.7605    2016.2112   -1369.0778    1611.9984    33.618388   -5385.5321 
 1585000    252.61739   -6358.1966   -5708.3538   -6358.1966            0    3616.0175     23.53961    21.451519    21.786595    11001.367     3638.611    3443.6288    3765.8126   -216.79651   -307.31274   -491.12983   -5128.1867 
 1586000    236.86311   -6321.2809    -5711.965   -6321.2809            0    1112.8701    23.499424    21.652939     21.86306    11124.616    1156.5902     660.9454    1521.0746   -119.90253    402.95959    372.59475   -5531.4117 
 1587000    241.07388   -6353.8151   -5733.6673   -6353.8151            0    1688.5807     23.44885    21.474599    22.013077    11084.787    2233.1858    1630.5097    1202.0466   -513.68762   -410.31355     36.27896   -5460.6909 
 1588000    240.16133   -6300.1193   -5682.3189   -6300.1193            0    1633.5426    23.258117    21.709177    22.073566    11145.266    1704.6514    2703.8644     492.1121     261.9972    619.59116    370.45154   -5416.7992 
 1589000    241.75905    -6367.222   -5745.3115    -6367.222            0    3085.9919    23.529314    21.442548      21.8093    11003.412    1906.5293    3625.8111    3725.6351   -995.40244    313.99548    699.28213   -5250.0917 
 1590000    241.10997   -6332.2413   -5712.0006   -6332.2413            0    3208.5276    23.376562    21.606904    21.823366    11022.876     3039.761    3308.7489    3277.0729   -1364.1669   -657.08773   -169.10662   -5196.2063 
 1591000    240.20665   -6342.9129   -5724.9959   -6342.9129            0    1939.5119    23.465036    21.515648    21.965457    11089.601    1305.5526    3813.9077     699.0755    1291.6619    635.56115   -49.621128   -5411.3178 
 1592000    252.37124   -6347.9031   -5698.6935   -6347.9031            0    1674.1543    23.569874    21.578904    21.826845    11101.397    607.88506    1801.5242    2613.0536   -449.18591    902.60041     198.3368   -5427.6437 
 1593000    238.60491   -6306.2131   -5692.4165   -6306.2131            0    2748.1728    23.391903    21.519219    21.966019    11057.156    3574.9676    2728.2101    1941.3406   -75.286192    16.550022    -492.5628   -5249.2536 
 1594000    250.80416    -6330.613   -5685.4346    -6330.613            0    2733.6003    23.365062    21.512183     21.99009    11052.955     3777.815    2304.0638    2118.9222   -838.77828    544.50108    93.678692   -5244.7891 
 1595000    229.42819   -6331.4046   -5741.2146   -6331.4046            0    3063.9571    23.491441    21.621287    21.718202    11031.005    3693.6529    2218.2371    3279.9813   -1141.4564    1540.4614   -682.96194   -5248.2977 
 1596000    258.00613   -6329.7371    -5666.032   -6329.7371            0    2331.9321    23.525259    21.429523     22.01401    11098.035    1956.5603    3387.7089     1651.527   -97.329601    1163.4879   -1422.0026   -5288.6007 
 1597000    245.01326   -6331.1048   -5700.8231   -6331.1048            0    2445.3495    23.350408    21.700951    21.860521    11077.295    3131.7885    1093.2709    3110.9891    5.1360165     414.5446    639.61171   -5305.7745 
 1598000    233.61129   -6334.4337   -5733.4829   -6334.4337            0    1733.1827    23.547601    21.674062    21.738398    11094.673    924.66871    1425.6341    2849.2454   -666.95538    309.90314   -372.31451   -5453.0463 
 1599000    244.79085   -6328.7783   -5699.0687   -6328.7783            0     2706.373     23.46824      21.5814    21.859719    11071.455    2273.5801     2977.088    2868.4507    435.13638   -754.85086   -317.41874    -5262.082 
 1600000    239.88283   -6332.4428   -5715.3588   -6332.4428            0    2541.8806    23.439897    21.609628    21.827289    11056.121    2549.1274    2356.4162    2720.0983     223.3879    603.67028   -436.35649   -5305.5004 
 1601000     249.2883   -6363.9278   -5722.6489   -6363.9278            0    1101.4708    23.650874    21.515141    21.880716    11134.044   -920.72992    1717.6958    2507.4465    1034.6997    589.22018    192.59765   -5543.7936 
 1602000    239.80909   -6325.2997   -5708.4055   -6325.2997            0    1426.7749     23.47378    21.578812    21.992856    11140.179    1798.7453     1509.004    972.57533    337.42762    512.61242    128.99656   -5476.6001 
 1603000    248.09738    -6302.291   -5664.0756    -6302.291            0     2923.918     23.29328    21.536353    22.059738    11066.318    1576.7637    3612.9822    3582.0079    553.35724    1680.3182    751.44083   -5192.1819 
 1604000    246.84013   -6332.1711   -5697.1899   -6332.1711            0     1202.139     23.66013    21.505116    21.897918    11141.964    698.84368    1779.5806    1127.9927   -115.08417    132.04617    256.57368   -5501.8494 
 1605000    248.38827   -6321.5326   -5682.5689   -6321.5326            0    2660.4724    23.489937    21.610038    21.847975    11090.435     1826.619    3613.1545    2541.6438   -705.41383    364.75654   -125.81387   -5252.2571 
 1606000    241.88549   -6327.0474   -5704.8117   -6327.0474            0    1763.9984    23.357812     21.70497    21.929775    11117.971    1939.1861    1510.8862    1841.9228    1587.7846   -1322.7492    587.10139   -5418.7896 
 1607000    239.86855   -6326.1189   -5709.0716   -6326.1189            0    1636.8606    23.720864    21.336574    21.987402    11128.307    136.94626    3257.3603    1516.2753    1057.9108   -423.08134   -866.58976   -5443.4174 
 1608000    238.95798   -6315.3486   -5700.6438   -6315.3486            0    2355.4776    23.389803    21.674778    21.884433    11094.724    3007.3348     1769.077    2290.0211   -913.25963    481.78102   -219.22295   -5319.5153 
 1609000    235.92824    -6318.591     -5711.68    -6318.591            0    2677.6486    23.512608    21.569691    21.856454    11084.713    489.75198    4105.4715    3437.7223    1494.0317    695.28103    306.82148   -5278.8136 
 1610000    239.73418   -6328.2449   -5711.5433   -6328.2449            0    1584.9429    23.602964    21.568103    21.869198    11132.978    1392.4302    1687.0511    1675.3475    686.07297   -1574.4311   -175.29501   -5454.2071 
 1611000    242.45104   -6316.7961   -5693.1056   -6316.7961            0    439.89725    23.488122     21.69028    21.989875    11203.048   -334.35114    1020.5152    633.52774    -229.7872    505.30102    146.76413    -5621.233 
 1612000    242.02715      -6318.3   -5695.6999      -6318.3            0    1595.7235    23.584462      21.4968    21.863484    11084.578    1488.8012    1022.5017    2275.8677    146.21704   -556.46412   -620.57694   -5437.7397 
 1613000    246.73324   -6320.6252    -5685.919   -6320.6252            0    3691.1968    23.456806    21.699031    21.655421    11022.392    3457.7936    1990.4488    5625.3479    809.56514   -196.24801   -528.53679    -5092.558 
 1614000    241.65844   -6287.8352   -5666.1836   -6287.8352            0    2857.6189    23.584562    21.383312    21.857577    11023.126    1830.4523    3655.9358    3086.4686   -590.31616   -611.64136    208.27501   -5206.7899 
 1615000    251.63919   -6330.3497   -5683.0232   -6330.3497            0    405.33061    23.372519    21.734927    22.035296     11193.93    663.19105    490.15322    62.647546    1159.4984   -781.81554    277.06335   -5616.8522 
 1616000    244.75138   -6373.4301   -5743.8221   -6373.4301            0    1596.9587    23.626662    21.486293    21.834713    11084.379    1741.5583    2085.5587    963.75914   -275.19897   -642.75601   -215.80938   -5485.6668 
 1617000    237.66273   -6377.6793   -5766.3064   -6377.6793            0     2236.714    23.457025    21.570833    21.825427    11043.395    1693.0422    2280.8148    2736.2851    1074.1669   -472.01473   -404.29371   -5406.0689 
 1618000    245.50808   -6358.2821   -5726.7275   -6358.2821            0     3141.335    23.343932    21.539455    21.954324    11038.976    4154.3147    1853.5704    3416.1198    165.13456   -173.66376    586.99947   -5220.9973 
 1619000    250.58797   -6348.4429   -5703.8206   -6348.4429            0    1424.7608    23.633084     21.49888    21.855637    11104.517    1338.4958     1653.701    1282.0855   -421.90275    -468.4628   -9.1115764   -5473.0834 
 1620000    249.93938   -6344.4675   -5701.5137   -6344.4675            0    1491.4489    23.348368    21.774937    21.889742    11128.947    2573.0407    1128.1117    773.19435   -310.60982    18.386444   -257.57649   -5459.4452 
 1621000    241.45695    -6329.102   -5707.9687    -6329.102            0     3723.036    23.649986    21.391728    21.803022    11030.456     2703.567    4188.2998    4277.2412   -472.51561     -282.323   -35.786354   -5109.0518 
 1622000    257.66222   -6322.6816   -5659.8613   -6322.6816            0    1210.2637    23.418794    21.679541    21.952261    11145.354    2097.6451    864.40616     668.7398   -237.21285   -710.28016    241.19388   -5463.1407 
 1623000    251.67731   -6356.6404   -5709.2159   -6356.6404            0    3492.9994    23.259466    21.551149    22.046776    11051.348    3375.1793    5137.7926    1966.0263     646.6964    21.547751   -1167.2953   -5146.2402 
 1624000     247.6157   -6318.4575   -5681.4812   -6318.4575            0    3143.2753    23.588996    21.564913    21.728776    11053.312    2687.5609    3774.4402    2967.8248    762.69446    537.52683   -917.69373   -5174.7814 
 1625000    257.20606   -6330.1707   -5668.5238   -6330.1707            0    1883.9405    23.439548    21.541729    22.015787    11116.395    3067.8672    1331.7094    1252.2449   -429.33415    982.05582    413.33055   -5363.0971 
 1626000    249.22884   -6345.5786   -5704.4526   -6345.5786            0    1356.7676    23.373268    21.683086    21.932646    11115.566      362.437    1657.6542    2050.2116     -170.229    1401.8895    78.720665   -5484.5082 
 1627000    246.94982   -6338.2491   -5702.9857   -6338.2491            0    2328.6634    23.608877    21.443138    21.902151    11087.929    1412.7141    2002.5287    3570.7475   -267.64296     1242.109   -657.44343   -5326.4267 
 1628000    241.46984   -6323.5336   -5702.3672   -6323.5336            0    2193.9712    23.395414    21.582575    21.996233     11106.63    2348.2435    2208.2616    2025.4083   -379.15528    332.83752    219.09942   -5346.9904 
 1629000    246.62254   -6291.5994   -5657.1779   -6291.5994            0     2314.599    23.449417    21.597964    21.944461    11113.984    2409.7212    1812.0378    2722.0378   -616.14237    621.28725    602.60452   -5282.0137 
 1630000    238.45036    -6356.943   -5743.5439    -6356.943            0    2044.7672    23.499598    21.349708    22.031645    11053.487    2117.6238    3348.2683    668.40943   -523.49929   -1033.2515    619.05908   -5413.9198 
 1631000    238.22366   -6351.3197   -5738.5039   -6351.3197            0    2439.4237    23.220223    21.782722    21.877357     11065.56    3569.8444    1555.0297    2193.3972    -1365.175   -74.861781    212.84296     -5344.83 
 1632000    246.37785   -6300.9821   -5667.1901   -6300.9821            0    1354.6946    23.746996    21.487973    21.867767     11158.57   -775.63083    1477.2497    3362.4648   -655.40337    93.823671   -34.210351   -5446.7321 
 1633000    252.60344   -6332.8136   -5683.0066   -6332.8136            0    2211.4308    23.355221    21.752628    21.850498    11100.871    2732.0438    24.184977    3878.0636   -150.92528    149.59019      1212.44   -5324.9874 
 1634000    241.12891   -6353.7689   -5733.4795   -6353.7689            0    1717.0555    23.446551    21.462383    22.058249    11100.127    1135.6828    2950.0362    1065.4474   -252.24822   -19.607585   -734.67773   -5455.5158 
 1635000    228.96024   -6320.0702   -5731.0839   -6320.0702            0     3289.138     23.40861    21.476717    21.920558    11020.343    4690.9037    2598.8211    2577.6891    364.08668   -312.85161   -390.06162   -5202.4523 
 1636000    242.87297   -6298.4673   -5673.6914   -6298.4673            0    2243.5413    23.391779    21.763404    21.786175    11091.009    2441.5497    2442.1084    1846.9658    541.38742    186.45754     48.69528   -5310.7963 
 1637000    252.75152   -6360.5582   -5710.3703   -6360.5582            0    3236.2124    23.501637     21.38084     21.95174    11030.414    2025.8719    3852.5215    3830.2436   -118.80546    1035.6418    702.68209   -5189.7697 
 1638000    246.73118   -6361.1523   -5726.4514   -6361.1523            0    2185.0765    23.382087    21.639397    21.888666    11075.102    1786.9789    2347.4051    2420.8455     24.20372     1255.136   -309.15432   -5373.5201 
 1639000     244.6592    -6341.972   -5712.6011    -6341.972            0    1744.4188    23.609094    21.611787    21.742653    11093.856      654.125     2022.649    2556.4824   -767.34738    180.16044    1030.4235   -5430.3672 
 1640000    245.40501   -6328.7131   -5697.4236   -6328.7131            0    727.64539     23.65968    21.527111    21.884447    11146.286    -1234.318    2511.1808    906.07336    78.007833    740.27552    170.93825   -5579.1397 
 1641000    235.56695   -6327.1964   -5721.2147   -6327.1964            0    2083.6566    23.315447    21.612417    22.017498    11094.687    2792.2608    1776.2572    1682.4517    850.26013   -309.27064   -54.044392   -5384.0695 
 1642000    240.01324     -6311.69   -5694.2705     -6311.69            0    3151.3552    23.605945    21.433576    21.872214    11066.461    2536.3206    4561.8611    2355.8839   -270.37936   -289.39443    488.31369   -5185.6639 
 1643000    237.74831   -6303.2744   -5691.6813   -6303.2744            0     1968.942    23.469204    21.659497    21.863623    11113.961     2723.913    1377.8625    1805.0505   -239.79983   -64.683324    960.25496    -5372.544 
 1644000    239.17645   -6323.6792   -5708.4123   -6323.6792            0    2579.5953    23.462125    21.552623    21.889987    11069.117    2184.5812    3615.5199    1938.6848   -50.271046   -219.40847   -1500.1666   -5291.9838 
 1645000    259.88296   -6326.2653   -5657.7322   -6326.2653            0    2077.9915    23.445684    21.567467    22.027947     11138.74    3322.4817    2366.7537    544.73898    541.91865   -896.51468   -163.20927   -5320.1685 
 1646000    253.91554   -6362.5227   -5709.3405   -6362.5227            0    2887.9626    23.525841    21.587903    21.718463    11030.233    2276.2047    2115.5558    4272.1272   -57.659404    523.03745    -121.9206   -5244.7694 
 1647000    246.76368   -6354.9661   -5720.1815   -6354.9661            0    2221.6962    23.253316    21.676689    22.000466    11089.443     3159.887    1830.3933    1674.8083   -654.40282   -16.012718   -736.19984   -5360.8707 
 1648000    241.09726   -6353.6639   -5733.4558   -6353.6639            0    2498.3703    23.624169    21.405529    21.947278    11098.472    2391.5254     2333.334    2770.2513    260.82002   -647.95445    1384.9827   -5329.0701 
 1649000     252.0501    -6314.343   -5665.9595    -6314.343            0    1722.5904    23.446754    21.804023    21.762606    11125.775    2427.9509     858.6317    1881.1885    208.15835   -353.12244    897.31774   -5386.4554 
 1650000    240.91687   -6335.9973   -5716.2534   -6335.9973            0    2679.7423    23.477802    21.433572    22.049255    11095.475    2620.8766    3154.4408    2263.9095   -257.75487   -873.01048    1406.2417   -5282.6279 
 1651000    256.82485   -6332.3971   -5671.7308   -6332.3971            0    1555.4168    23.482977    21.575258    21.928926    11110.319    2326.8257    1058.9535    1280.4713   -1180.0909   -455.37803    603.87792   -5419.7026 
 1652000    239.27631    -6343.662   -5728.1383    -6343.662            0     2346.342    23.418095    21.674755    21.791615     11061.02    2249.7298    2088.9652    2700.3308   -887.89542   -100.45723     1091.668   -5349.6413 
 1653000    246.58336    -6298.191   -5663.8703    -6298.191            0    1428.2344     23.66902    21.322253    22.075882    11141.186    296.76706    2500.1109    1487.8253   -251.20308   -497.47455   -560.75997   -5431.8068 
 1654000     246.4151   -6345.1576   -5711.2697   -6345.1576            0    3395.3247    23.247409    21.731972    21.833129     11030.36      2959.71    3383.6857    3842.5783   -38.956869    645.51374   -891.98951   -5165.0758 
 1655000    232.51138   -6316.0405   -5717.9192   -6316.0405            0    3130.5639    23.647211     21.34767    21.856178    11033.279    1314.4937    5254.5737    2822.6242    1034.2278     103.5321   -608.91304   -5214.1831 
 1656000    236.67124   -6351.3541   -5742.5318   -6351.3541            0     303.0692    23.246209    21.881195    21.927288    11153.421    1122.5822   -143.39058   -69.983993   -273.07747   -217.70641    52.953258   -5693.2342 
 1657000    239.32876   -6337.2057    -5721.547   -6337.2057            0    1045.7101    23.509957    21.514018    22.035328    11145.329    868.81004    1091.7315    1176.5887   -929.38186   -327.81506     284.1266    -5551.574 
 1658000    246.81281   -6352.7968   -5717.8859   -6352.7968            0    2219.6155    23.440005    21.570082    21.868938    11056.997    3150.1064    1337.3833    2171.3566    -1049.676   -609.09909   -20.055398   -5359.9619 
 1659000    246.31874    -6318.384    -5684.744    -6318.384            0    2519.2176    23.272559    21.668332    22.013999    11101.165    3884.0995    1996.1832    1677.3702   -304.79272   -1270.0202    31.623717   -5276.8849 
 1660000     237.6986   -6329.9399   -5718.4748   -6329.9399            0      2099.11    23.752262    21.402888    21.832948     11099.15    1230.2024    2051.5532    3015.5743   -266.51238    409.82726    48.410309   -5378.6924 
 1661000    246.00499   -6364.9572   -5732.1244   -6364.9572            0     2420.156    23.241383    21.696638    21.900622    11043.605    2834.1405    1132.2103    3294.1171   -39.723915    574.17835   -390.70565   -5342.3349 
 1662000    242.05313   -6320.9336   -5698.2667   -6320.9336            0    810.74513    23.636715    21.449489     21.99867    11153.226   -138.56601    1735.0255    835.77587    109.60647    331.16269   -273.63608   -5566.3922 
 1663000    246.72971    -6332.278   -5697.5809    -6332.278            0    4350.3954    23.272995    21.628397    21.804364    10975.392    5067.9654    3825.4596    4157.7613    300.47697   -508.47398   -537.78111   -5001.2356 
 1664000    241.32376   -6341.9643   -5721.1736   -6341.9643            0    2562.6927    23.415519    21.616604    21.882342    11076.054     2285.984    1418.8148    3983.2792   -102.40483    683.05808    544.57947   -5307.2145 
 1665000    250.34524   -6344.5974   -5700.5995   -6344.5974            0     1013.598    23.652014    21.488913      21.8775    11119.372    137.45967    1755.3513    1147.9831   -46.580506   -135.16948    1424.5256   -5536.2298 
 1666000    244.53027   -6291.9131   -5662.8738   -6291.9131            0    1706.0141    23.308321    21.637707    22.052293    11121.823    2088.0073    1730.9912    1299.0438   -317.63218   -1313.5215    401.41242   -5386.1577 
 1667000    246.62104    -6348.902   -5714.4844    -6348.902            0    3649.7145    23.511684    21.372572    21.858458    10983.988    2750.6338    4713.2075    3485.3024    253.46703    698.95231    655.65852    -5129.836 
 1668000    249.13924   -6311.6158   -5670.7203   -6311.6158            0    2050.9167    23.397706     21.76244     21.81071    11105.821    1758.7308    1423.3635    2970.6558   -941.36301    581.46468   -120.36893   -5338.5395 
 1669000    252.17204   -6299.4877   -5650.7905   -6299.4877            0    1572.1531     23.46782    21.517143    22.062099    11140.487    2969.8147    1418.9225     327.7221   -819.60556   -13.185142   -1262.8031   -5395.3587 
 1670000    250.41945   -6345.8269   -5701.6381   -6345.8269            0    2845.6729    23.419754    21.574452    21.904079    11067.438    2941.3713    3271.6645    2323.9831   -521.95255   -667.78341   -581.95937   -5242.3259 
 1671000    239.78541   -6314.6961   -5697.8627   -6314.6961            0    1140.4198     23.58153    21.742836    21.699121    11125.776    -150.5092    413.68129    3158.0872   -418.60071    731.19743   -376.01494   -5512.8204 
 1672000    243.87397   -6321.1937   -5693.8428   -6321.1937            0    2569.6517    23.523741    21.364276    22.001525    11057.256    2716.3274    3301.0927     1691.535   -446.82418   -10.526821    -774.7134    -5279.464 
 1673000    246.13014   -6340.2578    -5707.103   -6340.2578            0    2941.8684    23.234981    21.685525    21.938167    11053.825    2755.0323    3023.8237    3046.7494   -621.14342    862.54487    68.862988   -5232.8482 
 1674000     239.3971   -6337.5356   -5721.7012   -6337.5356            0     507.5435    23.818862    21.398171     21.90808    11166.112   -1290.6511    1809.3237    1003.9579   -596.14401    1375.1112    907.11134   -5639.0496 
 1675000    244.76997   -6325.0622   -5695.4063   -6325.0622            0    2029.6755    23.276107    21.718882    21.899703    11070.979    2583.2763     1978.321    1527.4293   -23.020935    150.89105    219.36289   -5367.6972 
 1676000    245.88652    -6362.295   -5729.7669    -6362.295            0    1287.9123    23.544657    21.478322    21.962378    11106.369    1767.7993      1017.46    1078.4777   -318.51622   -459.46343   -610.81492   -5521.1574 
 1677000    251.53907   -6309.5795   -5662.5106   -6309.5795            0    2267.0595    23.554772    21.588167    21.833077    11102.215     2855.852    644.12991    3301.1965    35.118604    267.42994   -555.49457    -5295.441 
 1678000    257.37009   -6350.0289   -5687.9601   -6350.0289            0    2823.2667     23.36166     21.70594    21.783252    11045.999    2898.1735    2416.2427    3155.3837    214.02779   -693.84138   -661.88496   -5233.1472 
 1679000     236.7771   -6304.2471   -5695.1524   -6304.2471            0    1593.9825    23.488773    21.482262     22.07016    11136.426    2130.7617    2090.9919    560.19391   -1347.9524   -352.86862    239.56075   -5436.2684 
 1680000      248.603   -6330.1188   -5690.6028   -6330.1188            0    1046.9881    23.430071     21.69439    21.877571    11120.393    1483.9656    1315.4448    341.55387    1169.7852   -309.98159     490.8879   -5520.8027 
 1681000    249.96318   -6353.0227   -5710.0077   -6353.0227            0    4210.1159    23.378352    21.512233     21.84163    10984.605    4571.1231    3949.8223    4109.4022   -22.484436    482.99014    831.48276   -5035.5505 
 1682000    253.36131   -6324.4622   -5672.7057   -6324.4622            0    1899.2481    23.429254    21.565857    22.094395    11163.678    1924.4613      2143.64     1629.643   -913.79441    410.20087   -357.32492   -5363.4876 
 1683000    247.01059    -6361.252   -5725.8323    -6361.252            0    2009.0213    23.409668    21.708391    21.788094    11072.409    2028.7255    935.34272    3062.9956     73.78133   -600.92473   -982.44739   -5401.4161 
 1684000    239.84669   -6340.8737   -5723.8827   -6340.8737            0    1802.5781    23.624117    21.478809    21.915913    11120.527    1012.4674    1784.9133    2610.3535   -453.80967   -239.04902   -421.40211   -5431.5379 
 1685000    245.52739   -6313.7622   -5682.1579   -6313.7622            0    2696.0908    23.437593    21.485136    21.990241    11073.403    2182.7976    2636.5373    3268.9377    61.377625    196.28148    706.15718   -5246.7548 
 1686000    246.30418   -6305.2081   -5671.6056   -6305.2081            0    3351.0034    23.328478    21.669817    21.812037    11026.505    3111.9223    2137.1505    4803.9372    1433.5706    157.80756    1097.8592   -5132.7298 
 1687000    239.33609   -6349.2309   -5733.5534   -6349.2309            0    2174.4156    23.553923    21.486676    21.895935    11081.435    1575.7945    3315.7714    1631.6809   -528.04085   -320.54494    -814.3714   -5382.1432 
 1688000    245.03306    -6300.848   -5670.5154    -6300.848            0    2429.5023    23.385941    21.736117    21.815213    11089.099    3198.2604    212.59396    3877.6525   -827.86337   -146.60394      -688.07   -5277.6087 
 1689000    234.78787   -6347.1547   -5743.1772   -6347.1547            0    1366.9261    23.569388    21.489235    21.919974    11102.206    1401.5347    2001.2013    698.04222   -388.69463   -211.14682   -58.669985   -5521.8523 
 1690000    257.61508   -6305.6249   -5642.9258   -6305.6249            0     2368.722      23.3612    21.583236    22.021413    11103.423    3185.0888    1308.6506    2612.4266    -372.5349   -622.14584    1783.1886   -5259.3539 
 1691000    248.72398   -6315.2868   -5675.4595   -6315.2868            0    2386.7284    23.474611      21.6413    21.828835    11089.509    2065.7769    2582.4232    2511.9851   -59.868607   -666.76248    824.65091    -5289.456 
 1692000    248.07771   -6326.4792   -5688.3144   -6326.4792            0    2471.0138    23.599572    21.460751    21.894027    11088.548    1672.7539    3358.5902    2381.6972    456.24918    -660.7044    366.06757   -5288.7142 
 1693000    239.94732   -6330.9026   -5713.6527   -6330.9026            0    2344.7419    23.265713    21.797767    21.878899    11095.678    2523.6449    2289.8819    2220.6989    119.11558    435.86153   -1134.3395   -5334.2288 
 1694000    235.74248   -6297.6953   -5691.2621   -6297.6953            0      2913.74    23.680881    21.413875    21.792043    11050.733    2351.2726    3223.7595    3166.1878   -146.65374    521.57751   -986.27284   -5221.6733 
 1695000    248.67577   -6319.4797   -5679.7764   -6319.4797            0     1933.253    23.460032    21.670371    21.841211    11103.801    2041.7774    2121.1231    1636.8584     1096.202    708.90186    33.415776   -5366.7102 
 1696000     245.2719    -6339.141    -5708.194    -6339.141            0    1300.2751    23.475679    21.469833    22.098077    11137.849    1243.1775     2041.933    615.71478   -20.473508    -1022.842   -165.76232   -5496.9849 
 1697000    243.17608   -6322.4967   -5696.9411   -6322.4967            0     1823.117    23.492303    21.697085    21.848328     11136.41    1357.4482    1219.2594    2892.6434   -1142.1391   -117.70228    787.82942    -5400.843 
 1698000    251.52039   -6327.7534   -5680.7326   -6327.7534            0    2978.6591    23.474491    21.645474    21.799956    11076.918    2083.3116    3964.3175    2888.3481   -227.49316    994.80629    350.53285   -5199.5437 
 1699000    242.33785   -6302.8221   -5679.4227   -6302.8221            0      2084.94    23.460865    21.489322    22.068254    11125.889    3383.5792    1350.7611    1520.4798   -213.59152   -1870.9691    629.50975    -5341.121 
 1700000    243.04349   -6334.7287   -5709.5141   -6334.7287            0    2609.8562    23.421017    21.574773    21.845674    11038.688    3706.0844    2344.2988    1779.1852   -344.51763    -68.98873     272.0128   -5289.3587 
 1701000    245.95832   -6319.7895   -5687.0767   -6319.7895            0    2478.5469    23.657666    21.502984    21.759825    11069.449    1045.4335    2780.1752     3610.032    808.63618   -645.22811    797.54483   -5286.9486 
 1702000    243.00228   -6327.3817   -5702.2731   -6327.3817            0    2793.7358    23.407264    21.596436    21.948978    11095.504    3509.9402    1969.4005    2901.8667   -622.79236   -292.85452    -937.9476   -5250.2005 
 1703000    234.23794   -6355.1797   -5752.6169   -6355.1797            0    1855.5311    23.504543    21.577333      21.9039    11108.899    1533.6053    1009.8657    3023.1225    57.751457    -711.7941    413.95621   -5451.9988 
 1704000    248.66039   -6359.7049   -5720.0412   -6359.7049            0    2409.3729    23.571574    21.622623     21.74664    11083.811    1680.6439     1710.992    3836.4828    973.91346   -900.90715    483.40053   -5330.5756 
 1705000    247.19438   -6358.0808   -5722.1883   -6358.0808            0    2294.2102     23.42983    21.535588    21.954512    11077.701    2205.9292    2825.7922    1850.9092    1548.3383    1150.0948   -472.13701   -5351.5428 
 1706000    237.33064   -6341.6467   -5731.1281   -6341.6467            0    1668.8766    23.529794    21.500912    21.937964     11098.68    1542.2827    2325.5635    1138.7834    1070.8476    1457.4481   -668.10118    -5460.999 
 1707000    238.67917   -6341.1456    -5727.158   -6341.1456            0    3598.4752    23.507538    21.395726    21.896645    11013.155    3381.2141    5082.1197    2332.0918    1107.2302    506.76286   -500.57727   -5149.1869 
 1708000    248.98113   -6335.6983   -5695.2095   -6335.6983            0    1591.9693    23.453945    21.829304    21.769255    11145.495    2013.5199   -569.91336    3332.3014    1734.8726   -1512.1816    -380.9696   -5436.4419 
 1709000    251.42078   -6330.9784   -5684.2137   -6330.9784            0    2120.5093    23.632229    21.459782    21.927358    11120.295    1667.3932    1549.0852    3145.0496    415.08578   -438.92109   -628.41586   -5340.3136 
 1710000     253.3966   -6362.3327   -5710.4854   -6362.3327            0    2369.4721    23.336962     21.56006    22.015391    11076.963    3137.7409    3042.4554    928.22003    488.27094   -1300.1404    1141.8769   -5327.7063 
 1711000    244.70153   -6312.5137   -5683.0339   -6312.5137            0    928.59464    23.635876    21.656977    21.759394    11138.234   -893.58622    1174.4962    2504.8739    211.42625    493.87626    1085.9228   -5532.1933 
 1712000    241.88677   -6343.1683   -5720.9293   -6343.1683            0    3183.3551    23.382447    21.443576    21.989612    11025.664    3729.3892    2220.6795    3599.9966   -891.99451    815.67259    350.80573   -5209.0522 
 1713000    245.85813   -6343.4338   -5710.9788   -6343.4338            0     1678.685    23.402573    21.595947    21.965161    11101.208    2161.9259    580.12525    2294.0038    1166.2906   -421.12189      449.226   -5439.2002 
 1714000    247.19642   -6340.1005   -5704.2027   -6340.1005            0    3369.3039     23.61285    21.533175    21.685983    11026.447    2554.9434    3026.7704    4526.1981    956.61481    133.44231    231.83921   -5162.3869 
 1715000    238.86258    -6350.212   -5735.7525    -6350.212            0     1933.295    23.331169    21.697488    21.888738    11080.687    2811.7406    241.26297    2746.8815   -96.546271   -141.28555    24.452416   -5423.3312 
 1716000    233.04936   -6311.2968   -5711.7915   -6311.2968            0    742.42715    23.627547    21.450054    22.018083    11159.032    926.58384    614.79102    685.90659   -100.20755   -341.73379   -367.76456   -5590.9667 
 1717000    239.30987   -6319.0394   -5703.4293   -6319.0394            0    2818.4233     23.39849    21.774899    21.756458     11084.91    3990.4531    2167.7193    2297.0974    1226.9846   -1284.0846   -803.72109   -5247.7973 
 1718000    245.24118   -6303.1185   -5672.2505   -6303.1185            0    2121.6324     23.44523    21.593576    21.962601    11118.926    2870.7189    2209.4244    1284.7539   -168.04334   -1725.9928   -265.04817   -5328.2106 
 1719000    244.43193   -6336.4268   -5707.6406   -6336.4268            0    1703.2477    23.552128    21.608226    21.807605     11098.32    1666.5678     1175.495    2267.6802   -1019.2273   -655.67501    329.22639    -5431.957 
 1720000    229.61296   -6336.4929   -5745.8275   -6336.4929            0     2900.403    23.384521    21.554538    21.877603    11027.243    3393.2792    2865.0042    2442.9257     48.46995   -456.50949    272.45143   -5279.3817 
 1721000    235.31746      -6311.3   -5705.9602      -6311.3            0    2138.2814    23.674894    21.362325     21.94121    11096.784    2714.4668    1823.3309    1877.0465   -569.76236   -1777.3922    -56.25957   -5359.9109 
 1722000     249.0464    -6358.258   -5717.6013    -6358.258            0    1321.2049    23.333933    21.778077     21.89811    11127.923    2468.0935      46.2666    1449.2547   -115.47304   -588.24343   -571.18983   -5503.1839 
 1723000    242.65072   -6349.8807   -5725.6765   -6349.8807            0    2501.0759    23.533607    21.602748    21.810947     11088.48     2008.587    2506.0843    2988.5565   -236.47993   -554.51315   -444.56952   -5321.2172 
 1724000    255.68918    -6325.767   -5668.0222    -6325.767            0    3661.9248    23.559916    21.478713    21.806657    11034.968    3416.7161    3696.5631    3872.4953    746.73096   -631.75603    385.35468   -5078.6951 
 1725000    235.36233    -6323.934   -5718.4788    -6323.934            0    -144.8667    23.366146    21.878295    21.870649    11180.526    2554.7932   -2306.3716   -683.02174   -729.54794    86.053947    -711.3437   -5742.1003 
 1726000    241.44959   -6327.7791   -5706.6648   -6327.7791            0    1487.1594     23.56739    21.460366    21.974601     11113.98    1688.4808    2355.7598    417.23758    467.37918    17.281248   -152.80435   -5465.6171 
 1727000    259.87238   -6311.0563   -5642.5505   -6311.0563            0    3051.9262     23.38259    21.653072    21.896806     11086.46    2751.8683    2135.9611    4267.9493    712.48412    453.97839    755.21602   -5149.1008 
 1728000    252.31759   -6304.4513   -5655.3797   -6304.4513            0    2014.3044    23.498403    21.495744     22.00947    11117.328     798.0932    3324.0177    1920.8023    783.62076    861.06888   -935.79772   -5328.7908 
 1729000    246.78393   -6319.7681   -5684.9315   -6319.7681            0     766.5749    23.529192    21.582492    21.984573    11164.175    -514.3746    1090.3993       1723.7    29.362222    1608.2152   -234.18237   -5560.1192 
 1730000    252.44482   -6309.9948   -5660.5958   -6309.9948            0    1634.8665    23.468811    21.720413    21.784909    11104.907    2545.5015    614.62655    1744.4714    -366.1053     1335.705   -140.00974   -5395.8232 
 1731000      256.714   -6329.0392   -5668.6581   -6329.0392            0    2115.6811    23.550715    21.457077    21.907662    11070.588    2140.9499     2059.374    2146.7193   -335.37627    65.956946    90.031149   -5327.0747 
 1732000    247.73149   -6321.2042     -5683.93   -6321.2042            0    2338.5262    23.136211    21.682901    22.070523    11071.902    3588.4255    1998.2552    1428.8978   -104.96727    384.95621    125.82892   -5306.3227 
 1733000    240.38507   -6338.0081   -5719.6322   -6338.0081            0     1929.423    23.581069    21.442185    21.908333    11077.502    2816.9711    2012.2533    959.04452   -1249.0891   -756.81153    63.007804   -5407.9262 
 1734000    243.98097   -6325.1394   -5697.5132   -6325.1394            0    2530.4946    23.354397    21.731736    21.804311    11066.377    2380.8247    1004.9987    4205.6604    -745.1965    61.107491    739.62246   -5289.1122 
 1735000     251.8671   -6354.7799   -5706.8671   -6354.7799            0    2857.0514    23.449434    21.504876      21.9223    11054.915    3427.4684     2603.103    2540.5827   -137.13405   -272.32391    864.96498   -5246.2402 
 1736000    247.81225   -6340.3283   -5702.8464   -6340.3283            0    618.69034     23.59567    21.483954    21.997449    11151.129    365.17287    1575.1362   -84.238056   -93.913656    1614.6352    265.31354   -5602.2302 
 1737000    238.10923   -6340.9378   -5728.4163   -6340.9378            0    1063.5568    23.436051     21.71225    21.975533    11182.237     1198.386    1152.9608    839.32347    969.67087    414.60979   -672.06942   -5554.9699 
 1738000     253.1007   -6317.3186   -5666.2325   -6317.3186            0    3586.5808    23.522963    21.452466    21.898681    11050.634    4617.0306    3218.6644    2924.0473    654.94275   -983.56235   -1243.4485   -5088.2114 
 1739000      236.153   -6318.5746   -5711.0854   -6318.5746            0    2388.3399    23.475158    21.757264    21.753158    11110.538    1582.1164    2086.3598    3496.5434    961.34159   -481.10519    -1538.587   -5324.0888 
 1740000    247.01781   -6321.1599   -5685.7216   -6321.1599            0    2610.2456    23.571612     21.49576    21.871001    11081.811    2038.2096    3041.5291    2750.9981    472.59828   -2226.4707   -262.70479    -5263.862 
 1741000    246.61588   -6347.5102   -5713.1059   -6347.5102            0    1617.2082    23.295393    21.660571     21.96971    11085.729    2190.8647    1314.6328     1346.127     784.2109   -186.63682    940.08665   -5451.6454 
 1742000      239.607   -6337.1425   -5720.7681   -6337.1425            0      1396.37    23.566755    21.512776     21.94293    11124.766    738.98288    2417.1143    1033.0128    537.24619   -371.36759    977.54332   -5494.2165 
 1743000    243.39931   -6302.4975   -5676.3676   -6302.4975            0    3027.7949    23.379235    21.628852    21.889235    11068.642    3107.9739    3322.8604    2652.5502   -114.82133   -567.55347    1002.9563   -5187.6065 
 1744000    240.14166   -6327.1139   -5709.3641   -6327.1139            0    1513.6129    23.603892    21.688443    21.768626    11144.049    190.13026    1718.9686    2631.7398    361.21058   -355.27153    61.804731   -5463.3649 
 1745000    251.43129   -6296.8966   -5650.1049   -6296.8966            0    4194.8207    23.481676    21.486704    21.850198    11024.383     4941.384    4015.8094    3627.2686   -322.33179   -1636.4705   -682.62689   -4975.6645 
 1746000     238.5583   -6328.3817    -5714.705   -6328.3817            0    467.36713    23.403894      21.7572    21.934295    11169.013    1239.0162    548.80566   -385.72047   -299.88063    395.39047    17.118656   -5638.5762 
 1747000    250.08336    -6341.267   -5697.9428    -6341.267            0    3456.8216    23.715714    21.387101    21.691506    11002.157    2037.3319     4266.661    4066.4718    1024.4153   -687.20832   -406.92612   -5143.2779 
 1748000    251.44917   -6327.4631   -5680.6255   -6327.4631            0    2771.8189    23.563016    21.561867    21.811903    11081.813    2282.1413    2707.8816    3325.4337    632.00402   -629.91291   -657.94485   -5232.6528 
 1749000    245.89903   -6349.4702   -5716.9099   -6349.4702            0    2175.4691    23.396559    21.679129    21.911841    11114.059    2565.6516    1465.8758    2494.8799    91.476048   -314.15083   -328.35748   -5364.2943 
 1750000    251.85085   -6288.4871   -5640.6161   -6288.4871            0    1519.0451    23.768151    21.570864    21.724606    11138.196    301.34094    1990.0759    2265.7184    -374.4752    638.73066    32.824528   -5393.8637 
Loop time of 532.524 on 64 procs for 250000 steps with 1296 atoms

Performance: 81.123 ns/day, 0.296 hours/ns, 469.463 timesteps/s
195.1% CPU use with 32 MPI tasks x 2 OpenMP threads

MPI task timing breakdown:
Section |  min time  |  avg time  |  max time  |%varavg| %total
---------------------------------------------------------------
Pair    | 37.665     | 47.212     | 57.623     |  73.3 |  8.87
Bond    | 0.57727    | 0.96748    | 1.1585     |  13.7 |  0.18
Kspace  | 273.95     | 284.26     | 293.19     |  31.3 | 53.38
Neigh   | 3.9112     | 4.1756     | 4.4591     |   7.2 |  0.78
Comm    | 74.25      | 77.606     | 81.938     |  20.3 | 14.57
Output  | 0.80974    | 0.81013    | 0.81177    |   0.0 |  0.15
Modify  | 101.61     | 104.38     | 107.03     |  14.4 | 19.60
Other   |            | 13.11      |            |       |  2.46

Nlocal:        40.5000 ave          48 max          27 min
Histogram: 1 0 0 2 4 8 4 2 7 4
Nghost:        3019.09 ave        3051 max        2984 min
Histogram: 2 3 3 6 1 1 6 4 3 3
Neighs:        12520.9 ave       14903 max        8410 min
Histogram: 1 0 0 2 5 8 3 2 9 2

Total # of neighbors = 400668
Ave neighs/atom = 309.15741
Ave special neighs/atom = 2.0000000
Neighbor list builds = 9337
Dangerous builds = 0

unfix		3
unfix		2
unfix		1

write_data	data.final.${pid}
write_data	data.final.0
System init for write_data ...
PPPM initialization ...
  extracting TIP4P info from pair style
  using 12-bit tables for long-range coulomb (../kspace.cpp:340)
  G vector (1/distance) = 0.37726853
  grid = 30 40 36
  stencil order = 5
  estimated absolute RMS force accuracy = 0.0026137686
  estimated relative force accuracy = 7.8712865e-06
  using double precision FFTW3
  3d grid and FFT values/proc = 8208 2400
Last active /omp style is kspace_style pppm/tip4p/omp
WARNING: Not all mixed pair coeffs generated from mixing. Use write_data with 'pair ij' option to store all pair coeffs. (../write_data.cpp:312)

write_restart   restart.lmp.${pid}
write_restart   restart.lmp.0
System init for write_restart ...
PPPM initialization ...
  extracting TIP4P info from pair style
  using 12-bit tables for long-range coulomb (../kspace.cpp:340)
  G vector (1/distance) = 0.37726853
  grid = 30 40 36
  stencil order = 5
  estimated absolute RMS force accuracy = 0.0026137686
  estimated relative force accuracy = 7.8712865e-06
  using double precision FFTW3
  3d grid and FFT values/proc = 8208 2400
Last active /omp style is kspace_style pppm/tip4p/omp
Total wall time: 0:08:52
