LAMMPS (30 Jul 2021)
Processor partition = 1
  using 4 OpenMP thread(s) per MPI task
using multi-threaded neighbor list subroutines
variable        pid world 0 1
variable        phase world IceVI IceV

shell cd ${phase}
shell cd IceV
include Restart.lmp
echo both
log log.lammps
#include		in.partitions
include		in.temp
variable        temperature equal 200.77
variable	tempDamp equal 100.0
include		in.pressure
variable        pressure equal 8306.0
variable        pressureDamp equal 1000.0 # This is 1 ps
include		in.seed
variable        seed equal 745823

units		real
atom_style	full
read_restart    restart.lmp.${pid}
read_restart    restart.lmp.1
Reading restart file ...
  restart file = 30 Jul 2021, LAMMPS = 30 Jul 2021
  restoring atom style full from restart
  triclinic box = (-3.1772824 -0.085791037 0.021119634) to (14.787281 22.665790 19.208878) with tilt (-0.31778452 -6.5244591 0.41892272)
  2 by 4 by 2 MPI processor grid
  restoring pair style lj/cut/tip4p/long/omp from restart
  restoring bond style harmonic/omp from restart
  restoring angle style harmonic/omp from restart
  1008 atoms
  672 bonds
  336 angles
Finding 1-2 1-3 1-4 neighbors ...
  special bond factors lj:    0        0        0       
  special bond factors coul:  0        0        0       
     2 = max # of 1-2 neighbors
     1 = max # of 1-3 neighbors
     1 = max # of 1-4 neighbors
     2 = max # of special neighbors
  special bonds CPU = 0.001 seconds
  read_restart CPU = 0.005 seconds

include 	in.setup
variable	out_freq equal 1000
variable	out_freq2 equal 10000
variable	out_freq3 equal 1000

timestep	2.0

neigh_modify    delay 7 every 1

include		in.tip4p
# This is TIP4P/Ice

# create groups ###
group ox type 2
336 atoms in group ox
group hy type 1
672 atoms in group hy

# set charges - beside manually ###
set group ox charge -1.1794
Setting atom values ...
  336 settings made for charge
set group hy charge 0.5897
Setting atom values ...
  672 settings made for charge

# ### TIP3P Potential Parameters ###
pair_style lj/cut/tip4p/long/omp 2 1 1 1 0.1577 8.5
pair_coeff 1 1*2 0.000 0.000
pair_coeff 2 2 0.21084 3.1668
bond_style  harmonic
bond_coeff  1 450 0.9572
angle_style harmonic
angle_coeff 1 55 104.52
kspace_style pppm/tip4p/omp 1.0e-5
pair_modify tail yes

thermo          ${out_freq}
thermo          1000
thermo_style    custom step temp pe etotal epair emol press lx ly lz vol pxx pyy pzz pxy pxz pyz enthalpy

restart 	${out_freq3} restart.lmp.${pid} restart2.lmp.${pid}
restart 	1000 restart.lmp.${pid} restart2.lmp.${pid}
restart 	1000 restart.lmp.1 restart2.lmp.${pid}
restart 	1000 restart.lmp.1 restart2.lmp.1


include         in.dump
dump            myDump all atom ${out_freq2} dump.water.${pid}
dump            myDump all atom 10000 dump.water.${pid}
dump            myDump all atom 10000 dump.water.1
dump            myDump2 all dcd ${out_freq2} dump.dcd
dump            myDump2 all dcd 10000 dump.dcd
dump_modify     myDump append yes
dump_modify     myDump2 append yes


variable natoms 	equal  "count(all)"                        # NUMBER ATOMS
variable H      	equal  "enthalpy/v_natoms"                 # ENTHALPY-per-atom
variable Vol      	equal  "vol/v_natoms"                 # volume-per-atom
fix AVG all 		ave/time ${out_freq} 1 ${out_freq} v_Vol v_H file vol_enthalpy.dat
fix AVG all 		ave/time 1000 1 ${out_freq} v_Vol v_H file vol_enthalpy.dat
fix AVG all 		ave/time 1000 1 1000 v_Vol v_H file vol_enthalpy.dat



fix 		1 all shake 1e-6 200 0 b 1 a 1
Finding SHAKE clusters ...
       0 = # of size 2 clusters
       0 = # of size 3 clusters
       0 = # of size 4 clusters
     336 = # of frozen angles
  find clusters CPU = 0.000 seconds
fix             2 all nph tri ${pressure} ${pressure} ${pressureDamp}
fix             2 all nph tri 8306 ${pressure} ${pressureDamp}
fix             2 all nph tri 8306 8306 ${pressureDamp}
fix             2 all nph tri 8306 8306 1000
fix             3 all temp/csvr ${temperature} ${temperature} ${tempDamp} ${seed}
fix             3 all temp/csvr 200.77 ${temperature} ${tempDamp} ${seed}
fix             3 all temp/csvr 200.77 200.77 ${tempDamp} ${seed}
fix             3 all temp/csvr 200.77 200.77 100 ${seed}
fix             3 all temp/csvr 200.77 200.77 100 745823


run             250000
PPPM initialization ...
  extracting TIP4P info from pair style
  using 12-bit tables for long-range coulomb (../kspace.cpp:340)
  G vector (1/distance) = 0.37993225
  grid = 24 27 32
  stencil order = 5
  estimated absolute RMS force accuracy = 0.0023746974
  estimated relative force accuracy = 7.1513306e-06
  using double precision FFTW3
  3d grid and FFT values/proc = 7875 1344
Last active /omp style is kspace_style pppm/tip4p/omp
Neighbor list info ...
  update every 1 steps, delay 7 steps, check yes
  max neighbors/atom: 2000, page size: 100000
  master list distance cutoff = 10.8154
  ghost atom cutoff = 10.8154
  binsize = 5.4077, bins = 5 5 4
  1 neighbor lists, perpetual/occasional/extra = 1 0 0
  (1) pair lj/cut/tip4p/long/omp, perpetual
      attributes: half, newton on, omp
      pair build: half/bin/newton/tri/omp
      stencil: half/bin/3d/tri
      bin: standard
Setting up Verlet run ...
  Unit style    : real
  Current step  : 12750000
  Time step     : 2
Per MPI rank memory allocation (min/avg/max) = 12.45 | 12.47 | 12.48 Mbytes
Step Temp PotEng TotEng E_pair E_mol Press Lx Ly Lz Volume Pxx Pyy Pzz Pxy Pxz Pyz Enthalpy 
12750000    198.46112   -4931.2131   -4534.2663   -4931.2131            0     8822.171    17.964564    22.751581    19.187759    7842.4635    8213.2418    9247.3982     9005.873    497.64964   -53.577972    -1035.319   -3525.2368 
12751000    203.96932   -4978.8043   -4570.8405   -4978.8043            0    7250.5669    17.918584    22.843703    19.272745    7888.8513    7339.4384    7199.7688    7212.4935     49.16839    141.46652    837.32118   -3736.6569 
12752000    204.08549   -4963.6888   -4555.4926   -4963.6888            0    8506.5166    17.807133    22.938029    19.232396    7855.6749    8420.9437    8298.4728    8800.1331    141.83039   -936.39518    1599.6492   -3580.9268 
12753000    192.36898    -4949.694   -4564.9323    -4949.694            0    8673.6195    17.869234    22.876665    19.154241    7830.0334    8281.9864    8294.6139    9444.2581    1103.7587    -2210.619   -939.98196   -3574.4656 
12754000     192.7446   -4981.4884   -4595.9754   -4981.4884            0    8161.4508    17.865111     22.85596    19.241013    7856.5725     8780.298    8156.1046    7547.9496   -121.03429   -680.35485   -461.54106    -3660.836 
12755000    196.40312   -4948.0466   -4555.2161   -4948.0466            0    9023.2485    17.828483    22.866852    19.214305    7833.3122    9035.0433    9439.3445    8595.3577    591.38716    240.94222   -185.82282   -3524.3928 
12756000    205.91114   -4959.2735   -4547.4258   -4959.2735            0    8574.7103    17.940271    22.753066    19.196636     7835.993      8057.07    9065.3993    8601.6615    178.05016    223.48704    154.03929   -3567.5086 
12757000    201.02989    -4974.085   -4572.0004    -4974.085            0     8215.971    17.940508    22.725024    19.327637     7879.848    8680.7884     8021.881    7945.2436   -221.41072   -1387.8485   -62.269211   -3627.8251 
12758000    202.82557   -4958.9235   -4553.2473   -4958.9235            0     10965.22    17.750056    22.686719    19.373716    7801.6121     12271.17    10858.939    9765.5506   -1477.4913   -99.628111   -1580.7761   -3305.6409 
12759000    213.91606   -4959.2683   -4531.4097   -4959.2683            0     7793.188    17.773597    22.849571    19.329523    7850.0875    7863.0532    7848.0766     7668.434   -724.26934    255.72843    888.38198   -3639.2029 
12760000    206.26794   -4960.5704    -4548.009   -4960.5704            0    9936.7701    17.843536    22.705588    19.260769    7803.4617    9609.0033    10118.966    10082.341   -736.68924    642.83422    214.30105     -3417.15 
12761000    195.29456   -4955.9744   -4565.3611   -4955.9744            0    7684.5178    18.057784    22.728592    19.140241    7855.6908    8340.6248    7348.9752    7363.9534   -177.39131   -1046.7173    390.63057   -3684.9675 
12762000    211.42611   -4957.9813    -4535.103   -4957.9813            0    7230.9075    18.057156    22.575925    19.322025    7876.7592    6706.2427    7789.6906    7196.7893    2236.5498    314.44675    413.13163   -3704.4564 
12763000    204.30429   -4946.2279   -4537.5941   -4946.2279            0    7156.8815    18.108261    22.834628    19.185798    7933.2393    5722.2898    7276.2714    8472.0832   -978.13399    159.33835   -971.15192   -3709.5561 
12764000    206.23407   -4983.8237   -4571.3301   -4983.8237            0    6692.5717    17.890103    22.949829    19.231638    7896.0262    7594.7557     7130.674    5352.2856    26.689482    694.02086   -452.80544    -3800.644 
12765000    207.94347   -4974.1232   -4558.2105   -4974.1232            0    8346.3455    17.715404    23.038354    19.211033    7840.6706    9330.2064    8044.8348    7663.9953     617.4788    1082.3657    847.30675   -3603.8215 
12766000    206.95047   -4967.3869   -4553.4604   -4967.3869            0    9405.2868    17.677433    23.001811    19.200783    7807.2877    11682.876    9225.1504    7307.8338    431.37474    395.23565    1889.9165   -3482.5624 
12767000    198.95762   -4958.1982   -4560.2584   -4958.1982            0    9541.1137    17.891666    22.799139    19.224259    7841.8559    11476.434     8643.342    8503.5647   -373.39019   -1306.5013    -1619.913   -3469.0849 
12768000    200.40919   -4979.5944   -4578.7512   -4979.5944            0    6958.7377    18.073141     22.72301    19.206267    7887.5559    5384.5354    7851.6709    7640.0067    537.47009    613.04116    324.37731   -3778.2743 
12769000    196.30633   -4949.4266   -4556.7897   -4949.4266            0     9892.017    17.949268    22.709236    19.181293    7818.5668    9410.1485    10447.795    9818.1073   -404.42003    782.23105   -379.05725   -3428.8448 
12770000    210.43539   -4983.0872   -4562.1904   -4983.0872            0    8843.8019    17.689343    22.890942    19.342624     7832.326    8849.0141    8917.5224    8764.8691   -888.57956    639.59371   -716.28465   -3551.9944 
12771000    198.36804   -4972.7526    -4575.992   -4972.7526            0    8047.5647    17.833013    22.891902    19.206688    7840.7765    6516.4294    9128.1191    8498.1457    312.27941    589.91623   -206.34835   -3655.7555 
12772000    205.87391   -4966.8139   -4555.0407   -4966.8139            0    8902.2183    17.923882     22.82856    19.112096    7820.2188    8932.6798    9431.6474    8342.3278    602.72396    588.77485    398.05869   -3539.7438 
12773000    197.33509    -4981.557   -4586.8624    -4981.557            0    7553.6917    18.024805    22.727162    19.192739    7862.3568     8167.106    7831.3571    6662.6121    -567.3239     582.8081   -231.51095   -3720.7228 
12774000    207.93972   -4947.7634   -4531.8583   -4947.7634            0    8052.0723    18.004792    22.629865    19.353325    7885.4349    5974.7238     9439.817    8741.6762    329.01154    445.70143   -480.75032   -3605.8621 
12775000    211.05878   -4962.4825   -4540.3389   -4962.4825            0    6808.1632    17.979161    22.677577    19.389974    7905.7542    6331.1318    7770.0308    6323.3271    47.525165    496.47638    934.59736   -3755.3759 
12776000    204.43524   -4957.3065   -4548.4107   -4957.3065            0    5966.0715    17.815415    23.121079    19.225492    7919.2037    6635.1098    5533.6762    5729.4286   -715.38935   -256.59681   -942.04676   -3859.3684 
12777000    206.25363   -4950.4512   -4537.9184   -4950.4512            0    8352.2439    17.765674    22.958018    19.282509    7864.6541    8462.0816    7708.9051    8885.7452   -594.55154    -578.0382   -116.33275   -3579.9335 
12778000    203.15621   -4976.0693   -4569.7318   -4976.0693            0    7998.4568    17.792179    22.918455    19.274644    7859.6069     7574.365    8830.0406    7590.9649    413.50871     363.2446   -776.94514   -3652.9143 
12779000    192.83697   -4945.6653   -4559.9675   -4945.6653            0    8058.0078     17.99822    22.825269    19.146859    7865.8017    7370.2617    7876.5486    8927.2129    650.19465   -1598.3247   -586.03132    -3635.596 
12780000    202.79677   -4944.1113   -4538.4927   -4944.1113            0    8877.6878    17.861241    22.844776    19.215707    7840.7012     8994.692    10659.261      6979.11    762.28725   -625.90051    1172.9618   -3523.3417 
12781000    205.84065   -4951.5745   -4539.8678   -4951.5745            0    7725.3468    17.845194    22.652916    19.428665    7853.9541    9982.7107    8162.5678    5030.7619    1678.0015   -446.70021    634.00356   -3654.9922 
12782000     201.4755   -4956.9078    -4553.932   -4956.9078            0    8305.7249    17.862259    22.630862    19.491239    7879.1057    7593.0893    7757.4542    9566.6312    -177.9749   -2059.6226   -948.16502   -3599.5321 
12783000    201.43876   -4958.5571   -4555.6547   -4958.5571            0    8893.8374    17.966715    22.618668    19.327178    7854.2398    8444.3143    9336.7808    8900.4171   -1992.6865   -472.15258    809.24386   -3536.9009 
12784000    195.02711   -4975.8818   -4585.8035   -4975.8818            0    7243.6728    17.950453    22.891677    19.250329     7910.268    9370.6824    5969.7885    6390.5473    204.00073     416.8185    1379.3466   -3750.1506 
12785000    205.73363   -5001.3977    -4589.905   -5001.3977            0    8185.9008    17.780244    22.984692     19.16325    7831.5111    8386.8185    7421.4114    8749.4724   -1103.9665    13.531718    1013.6297    -3654.956 
12786000    189.51114   -4964.3417    -4585.296   -4964.3417            0    8604.7224     17.88462    22.858259     19.22246    7858.3581     9520.569    7461.7106    8831.8877   -1300.2684   -793.21392    179.60987   -3599.1424 
12787000    209.07512   -4977.6709   -4559.4948   -4977.6709            0    9498.9428    18.008785    22.655129    19.188374    7828.6904       9885.9    9089.9686    9520.9597    2150.3422   -742.84698    670.67947    -3474.968 
12788000    199.84767   -4964.1157   -4564.3957   -4964.1157            0    7880.1787    18.051604    22.716606    19.182313    7866.1137    8426.3922    7394.3086    7819.8352    762.29277    686.72176    157.58298   -3660.3879 
12789000    199.36819   -4960.5194   -4561.7584   -4960.5194            0    8565.3143    17.852065    22.838018    19.233441     7841.585    9328.5622    7880.9338    8486.4468   -987.10189    677.16213    57.306716   -3582.2164 
12790000    207.31043   -4965.8423   -4551.1958   -4965.8423            0    8630.2906    17.899373    22.886598    19.095796     7822.703    8874.0374    8474.9526    8541.8819    654.69614    154.13267    109.53677   -3566.5996 
12791000    208.72605   -4976.4303   -4558.9525   -4976.4303            0    8853.2259    17.909734    22.774222    19.255415    7853.9036    9651.0013    7955.7105    8952.9657   -992.68832    941.42626    420.31475    -3544.894 
12792000    206.20657   -4972.0905   -4559.6519   -4972.0905            0    8364.4989    17.950924     22.59569    19.347894    7847.7672    8461.9291    9063.1124    7568.4552   -764.79698    -259.5536    1920.0754   -3602.3213 
12793000    203.04813   -4944.4846   -4538.3632   -4944.4846            0    7388.6715    17.919653    22.802762    19.238764    7861.2972    7369.7595    7664.3328    7131.9221   -195.00379    1213.6375    54.539781   -3691.2598 
12794000    190.83905   -4962.3591   -4580.6575   -4962.3591            0    8812.8259     17.81269    22.933108    19.165935    7829.2907    9254.3364    8846.7547    8337.3866    774.45628    617.09547   -1014.3269   -3574.3898 
12795000    197.06225   -4971.9997   -4577.8508   -4971.9997            0    9900.8946    17.959256     22.60872    19.186661    7790.4713     9000.202    10371.208    10331.273    761.73091    381.02263    -888.9718   -3452.9505 
12796000    201.93138   -4971.7654   -4567.8777   -4971.7654            0    10136.556    17.958035     22.56346    19.211063    7784.2347    9765.9191    9899.8333    10743.914   -15.369037    151.60284    433.96795   -3417.1244 
12797000    205.76061   -4973.7149   -4562.1683   -4973.7149            0    7974.9189    17.945107    22.763555    19.245438    7861.6544    7936.4325    8184.2257    7804.0984   -714.70689    83.295966   -118.83442   -3647.8106 
12798000    201.68361   -4972.4268   -4569.0347   -4972.4268            0    9075.7789     17.84861    22.819212    19.207602    7823.0877    9410.6342    8750.5147    9066.1878   -463.58033    372.98267   -952.43845   -3533.5635 
12799000    204.73523   -4961.6576   -4552.1618   -4961.6576            0    8114.6383     17.91515     22.88167    19.184775    7864.3869    9256.7756     7705.941    7381.1983   -650.15675   -369.86112    434.55301   -3621.4614 
12800000    192.71707   -4968.0914   -4582.6335   -4968.0914            0    6764.7043    18.062215     22.92322     19.07235    7896.7947    7349.3508    4989.6313    7955.1307   -1008.3262   -1994.1679   -982.00762   -3803.5652 
12801000    213.54674   -4934.8797   -4507.7599   -4934.8797            0    7914.2117    17.942012    22.804556    19.235788    7870.5082    6313.2097    8481.0426    8948.3828   -217.71734   -325.52568   -968.19187   -3599.3406 
12802000    195.79988    -4972.239    -4580.615    -4972.239            0    8771.1593    17.903554    22.804283    19.199258    7838.6289     7670.779    8433.2777    10209.421    327.53436   -327.76835    -330.5558   -3577.9104 
12803000    190.69068   -4974.5902   -4593.1853   -4974.5902            0     9516.243    17.917941    22.952135    19.035039    7828.2551    10386.102    9016.1473    9146.4796    113.99156    505.92879   -411.05214   -3506.7437 
12804000    204.94923   -4942.9858    -4533.062   -4942.9858            0    9749.4604    17.866993    23.015168    19.033026    7826.6054    10272.138    8960.5865    10015.656    540.27264   -1217.0329    765.74285   -3420.2292 
12805000    201.60646   -4946.0054   -4542.7675   -4946.0054            0    9709.8742     17.94251    22.733348     19.15631     7813.731    9475.8095    9833.7971    9820.0159    1299.7952    472.29201    1254.3832   -3436.2764 
12806000     206.3605   -4935.8255    -4523.079   -4935.8255            0    9211.6969    17.844147    22.871287    19.240998    7852.6095    9352.1395    8732.1159    9550.8352   -519.29154    1895.0161   -2201.5358   -3468.1347 
12807000    188.44404   -4965.9617   -4589.0503   -4965.9617            0     8913.145    17.856862    23.047964    19.052253     7841.227    9119.4516    7855.6409    9764.3425   -92.039019    870.19728    -142.9034   -3569.7765 
12808000    197.79683   -4961.7209   -4566.1028   -4961.7209            0    7626.4057    18.019838    22.824671    19.170709    7884.8526    7286.2611    7057.6042    8535.3519    1887.6329    -106.0224    541.89768   -3689.1235 
12809000    198.68613   -4953.9219   -4556.5251   -4953.9219            0    10299.412    17.942535    22.617114     19.23826    7807.0464    8535.2666    11898.802    10464.168   -524.23121    1201.8303   -1249.2528   -3383.8571 
12810000    205.15062   -4978.4476    -4568.121   -4978.4476            0    7210.0767    17.925739    22.799215    19.277303     7878.494    8758.7033    6702.4703    6169.0564    735.22714   -641.89748    180.90459   -3739.6849 
12811000    206.18338    -4957.652   -4545.2598    -4957.652            0    9142.8122    17.927249    22.810667    19.164204    7836.8656    10005.356    8617.0738    8806.0063   -143.23693    23.778659   -847.94588   -3500.3036 
12812000    215.80412   -4952.4838   -4520.8489   -4952.4838            0    8290.2339    17.931922    22.995599    19.039595    7851.0778    8321.3668    7694.5129    8854.8221   -650.69398    1010.2197   -469.74937   -3571.6178 
12813000    209.91505   -4959.0603   -4539.2043   -4959.0603            0    7168.6801    17.898993    22.700662    19.392057    7879.3609    7723.7371    7855.8094    5926.4938    169.26837   -66.424091    -242.1273    -3715.434 
12814000    200.03071   -4962.7791    -4562.693   -4962.7791            0    9380.8377    17.898531    22.619725    19.310692    7818.1239     9121.562    9543.3431    9477.6081    780.72836   -24.373497    512.88056   -3493.0963 
12815000    194.28943   -4972.9467   -4584.3439   -4972.9467            0    8147.9151    18.075678    22.685876    19.190342    7869.2413    5718.2722    9300.3552    9425.1179    345.97556    370.01531   -852.65028   -3649.2499 
12816000    200.14184    -4940.017   -4539.7086    -4940.017            0    8252.5486    17.891824    22.924842    19.204269     7876.962    9883.2823    7717.0597    7157.3039    18.148781   -807.45411   -471.90881   -3591.6772 
12817000    198.17032   -4958.3438   -4561.9787   -4958.3438            0    9174.9831    17.720977    22.891424    19.249317    7808.6472    9954.1445    9221.2255    8349.5792    1365.0467    31.722523    295.76283   -3517.1214 
12818000    208.53844    -4979.473   -4562.3704    -4979.473            0    7064.0952    17.840681    22.886258     19.32748    7891.5344    7499.0358      6689.55    7003.6996   -609.83907   -399.40456   -32.428378   -3749.3641 
12819000    185.24154   -4958.5096   -4588.0036   -4958.5096            0     8732.614    17.862112    22.855537    19.172471     7827.126    9184.7627    8642.0209    8371.0582    446.38279    133.50014   -1153.2145   -3591.1705 
12820000     203.0902   -4965.4701   -4559.2646   -4965.4701            0    6458.7398    17.857375     22.88404     19.35875    7910.9319    7095.8733    6342.4057    5937.9406   -1257.5135    153.79319   -846.43876   -3814.1015 
12821000    200.80188   -4963.3694   -4561.7408   -4963.3694            0    6816.2373    17.823685    22.899097    19.338572    7892.9667    7460.1395    6318.7868    6669.7855   -392.46815   -2159.2185   -753.82781   -3777.1181 
12822000    217.38482   -4953.8456   -4519.0491   -4953.8456            0    9360.3158    17.884919     22.87645    19.168637    7842.7226    7756.9738    9832.7233     10491.25    563.86264    196.89341    485.77321   -3448.4343 
12823000    201.77177   -4993.2741   -4589.7056   -4993.2741            0    8549.8553     17.92351    22.730847    19.194102    7819.9949    8616.6169      8902.91    8130.0389    1339.4392   -519.46743    176.72351   -3614.6237 
12824000    191.50839   -4972.5676   -4589.5272   -4972.5676            0    7964.5094    17.833314    22.716805    19.383573    7852.5938    8728.9302    7887.6542    7276.9438    -73.60546   -1075.1687   -215.57486   -3677.4154 
12825000    200.41128    -4978.197   -4577.3497    -4978.197            0    6711.8253    17.887003    22.817631    19.420868    7926.4142    7047.2504    6728.1904    6360.0351   -1324.2308    209.65055   -130.54217    -3801.472 
12826000    203.24771   -4961.9719   -4555.4514   -4961.9719            0    7764.6114    18.180688     22.44055    19.330847    7886.6888    8177.3148    8484.2075     6632.312    724.11872   -419.73718     248.8248   -3662.3715 
12827000    179.92157   -4960.6138   -4600.7484   -4960.6138            0    7818.0275    18.002351    22.728868    19.228395    7867.7412    8014.4405    7419.9011    8019.7408    362.12356   -1162.6288    1437.4448    -3703.685 
12828000    208.35665   -4944.3105   -4527.5715   -4944.3105            0    8145.0035    17.827182    23.004163    19.181792    7866.4416    9249.0278    7001.9641    8184.0187    551.06233    176.21649    883.26578   -3593.1443 
12829000    195.18272   -4962.2281   -4571.8385   -4962.2281            0    9305.0743    17.898572    22.860107    19.135238    7829.4363     7026.011    10122.051    10767.161    778.76554    593.18003   -632.15766   -3509.3451 
12830000    200.95257   -4943.5188   -4541.5888   -4943.5188            0    8696.8806    17.848105    22.883743    19.291286    7879.1679    10158.287    7519.4062    8412.9486    356.07523   -27.224581     170.0984   -3542.2339 
12831000    200.54606   -4959.3882   -4558.2713   -4959.3882            0    8011.2609     17.91444    22.796298    19.273505    7870.9704    8039.7141    7830.0186    8164.0501   -1684.2622    606.96449   -3103.7104   -3638.6584 
12832000    195.63429   -4973.3808    -4582.088   -4973.3808            0    7695.4585    18.001448    22.590581    19.359913    7872.9638    6775.6714    8928.9602    7381.7441   -416.74184    584.86145    396.16807   -3698.5024 
12833000    206.20419   -4959.3561   -4546.9223   -4959.3561            0    8042.6268     17.91357    22.823434    19.229777    7862.0785    9300.3806    7688.1503    7139.3496    833.74473   -230.86076    485.64844   -3624.7519 
12834000    208.81487   -4945.3698   -4527.7143   -4945.3698            0    8761.8739    17.741676    23.213965    18.993265    7822.4642    7818.9347    8881.5234    9585.1635    1202.0323    1499.3226    2528.3678   -3528.1368 
12835000    206.32832   -4986.7602    -4574.078   -4986.7602            0    8526.7469    17.916969    22.885705    19.121982     7840.825    8067.1584    7454.6909    10058.391    1059.0078    534.24438   -1093.7953   -3599.0412 
12836000    202.92234   -4981.4163   -4575.5466   -4981.4163            0    7646.2679    18.048388    22.490976    19.387856    7870.0319    7806.9223    8916.4869    6215.3946    1404.3309    225.87514    182.88019   -3697.9359 
12837000    194.37754    -4959.247   -4570.4679    -4959.247            0    8484.4521    17.987134    22.497331    19.353192    7831.5108    9331.2259    8357.6752    7764.4551    496.68602    188.84321   -603.75881     -3601.42 
12838000    195.95806   -4951.9284   -4559.9881   -4951.9284            0    8321.2325    17.870959    22.929255    19.188265    7862.7327    9713.2803    8104.7654    7145.6517   -1252.2914    335.06999   -669.30493   -3605.7932 
12839000    194.16861   -4988.8631   -4600.5019   -4988.8631            0    9202.5472    17.817579     23.14406    18.926419    7804.7084    9446.7031    8123.1383      10037.8    82.177344      643.157   -1315.9411   -3553.0343 
12840000    199.37987   -4974.0115   -4575.2271   -4974.0115            0    7917.5581    17.923906    22.795575    19.215914    7851.3485    7776.8993    7585.7132    8390.0618   -151.45008    74.724904    578.65281   -3668.6361 
12841000    197.77374   -4968.7523   -4573.1804   -4968.7523            0    7901.2407    17.963666    22.506441    19.380615    7835.5476    6882.8858    8362.8128    8458.0235    1105.1587   -431.53734   -160.20525   -3670.2786 
12842000    195.25399   -4961.2659   -4570.7338   -4961.2659            0    8537.9061    17.947149    22.635165    19.306766    7843.1167    9045.5812    8125.6962    8442.4409   -627.60549   -204.10488    16.048222   -3594.1356 
12843000    211.37275   -4959.9301   -4537.1585   -4959.9301            0    9284.6913    17.863517     22.82823    19.182298    7822.3965    9242.9359    9316.8906    9294.2473   -365.15429   -1126.0592    1223.1393   -3477.9458 
12844000    201.85543    -4964.587   -4560.8512    -4964.587            0    9429.2688    17.751518     23.09119    19.071171    7817.3427    10359.244    8452.3841    9476.1779    822.45365   -1252.8155    -866.7217   -3485.8399 
12845000     190.2503   -4979.8041     -4599.28   -4979.8041            0    7878.3503    17.909801    22.951107    19.104497     7852.899    7283.3452    8589.4551    7762.2507   -430.50613    125.23197   -376.07645   -3697.0003 
12846000    205.69254   -4963.8825   -4552.4721   -4963.8825            0    7318.0471     17.90929    22.919969    19.144341    7858.3762    6677.0525    7239.1315    8037.9575    415.06608   -1173.8938    155.52666   -3713.7773 
12847000    197.21838   -4958.9512     -4564.49   -4958.9512            0     10873.24    17.880466    22.590777    19.304013    7797.5396    11110.714    11404.004    10105.003   -202.82078    362.84273    1969.9941   -3327.9948 
12848000    193.50956   -4951.8575   -4564.8145   -4951.8575            0    7391.2821    17.781246    22.793102    19.419925    7870.6964    7757.8717    8010.3312    6405.6435   -717.65459     216.5837   -2705.2005   -3716.3985 
12849000    197.28833    -4967.603    -4573.002    -4967.603            0    7230.5089    17.847679    22.928819    19.257601    7880.7148    8153.5955    6974.1448    6563.7863   -425.24169    417.76618   -337.55204   -3741.9841 
12850000    198.40259   -4962.5199   -4565.6902   -4962.5199            0    8069.3149    18.019938    22.850601    19.074573    7854.2684    7968.0099    7697.2569     8542.678    561.13644    202.94659   -1363.8224   -3641.3788 
12851000    186.62528    -4966.518   -4593.2444    -4966.518            0    9525.1812    18.027758     22.80573    19.012885    7816.8853    8220.8267    9264.1871     11090.53   -378.68505    932.46703   -165.12956   -3507.3618 
12852000    201.17222   -4966.3724   -4564.0031   -4966.3724            0    7795.2895    17.900261    22.778724    19.332405    7882.6932     9528.718    7295.5871    6561.5633    294.40648   -1199.7858   -73.656376   -3667.8489 
12853000    208.01202   -4958.3452   -4542.2954   -4958.3452            0    8483.1837    17.785712     22.79214    19.355842    7846.3636    7819.7572    8624.4447    9005.3492   -1383.0204   -253.16257    -778.4641   -3571.5548 
12854000    212.87584   -4973.1102   -4547.3322   -4973.1102            0    9895.0979     18.00749    22.528441    19.251874    7810.1133    6527.0736    11360.797    11797.423    905.32879    1090.4135   -1757.0855   -3420.2559 
12855000     204.8567   -4937.1173   -4527.3786   -4937.1173            0    8327.6638    18.198476    22.502002    19.273151    7892.3969    7252.3859    9451.9797    8278.6259    1754.6157    629.57489    244.98586   -3568.8435 
12856000    195.36914   -4982.2577   -4591.4952   -4982.2577            0    6645.6588    17.925597    22.983008    19.174988    7899.7908    6661.4616    4497.5365    8777.9783   -598.42999   -981.57462   -2814.0299   -3825.8466 
12857000    202.04887   -4960.8351   -4556.7124   -4960.8351            0    7646.9072    17.801067    23.033263    19.194562    7870.0902    9239.1293    6388.1361    7313.4562    542.75665   -277.37385    983.45865   -3679.0219 
12858000    202.08158    -4947.363   -4543.1749    -4947.363            0    8777.0653    17.930113    22.970062    19.053798    7847.4173     6774.688    9062.9046    10493.604   -301.70454    320.27579    1096.6071   -3538.6702 
12859000    193.62114   -4959.6853   -4572.4191   -4959.6853            0    7859.3575    18.009767    22.717447    19.212226     7860.412    5929.4465    7605.4602    10043.166   -443.64663   -1403.2552    701.28238   -3671.4535 
12860000    195.44853   -4938.0654   -4547.1442   -4938.0654            0    7840.4518    17.964017    22.729968    19.330275    7892.9679     6906.213    7846.9981    8768.1444   -1016.7276    276.12009    668.95643   -3644.6232 
12861000    213.01944   -4958.6045   -4532.5393   -4958.6045            0    7796.0533    17.936635     22.67219    19.400666    7889.5289    10012.975    7154.5595    6220.6259   -335.25065   -700.28851    170.05924   -3635.5201 
12862000    199.39032   -4964.2242   -4565.4189   -4964.2242            0    8063.8475    17.979135    22.860016    19.225645    7901.8036    9359.6145    7894.3204    6937.6076   -207.77428   -25.525433    919.33073   -3636.1435 
12863000    200.25519   -4977.9457   -4577.4106   -4977.9457            0    9482.0889    17.863552    22.785312    19.220776    7823.3671    9569.0824    9664.9539    9212.2305    79.265779    424.00903   -239.49314   -3495.5443 
12864000    201.79911   -4958.0604   -4554.4373   -4958.0604            0    7530.0719    17.956407    22.985945    19.096536    7881.9995    7318.2753    7636.0707    7635.8698   -370.83852     210.2592   -1581.4593   -3688.8489 
12865000    197.09945   -4952.4562   -4558.2329   -4952.4562            0    9372.0506    17.830352    22.879994    19.165606    7818.7689    8935.9635    9474.2717    9705.9167    1863.1117    622.45783    669.60624   -3489.5499 
12866000    198.09933   -4982.3277   -4586.1045   -4982.3277            0    6611.2706    17.781008    22.766941    19.404616    7855.3604    6963.5572    6435.0029    6435.2516     489.5156   -567.70349     547.3485   -3828.7017 
12867000    197.48918   -4991.4492   -4596.4465   -4991.4492            0    7197.1493    17.957293    22.711264    19.296865    7869.8948      7328.89    7570.6163    6691.9415    926.38779   -442.68156   -1278.0539   -3770.3984 
12868000    197.35675   -4968.6803   -4573.9424   -4968.6803            0    8460.0624    18.022012     22.74038    19.122706    7837.0088    7592.9721    9056.0206    8731.1943   -746.91231   -542.19114    232.07569   -3607.0018 
12869000    194.74439    -4971.533   -4582.0202    -4971.533            0    9307.6589    17.879574    22.755965    19.240015    7828.1266    7888.4734    10018.422    10016.081    334.83841    527.87947   -497.28175   -3519.4095 
12870000    204.70264   -4968.6515   -4559.2209   -4968.6515            0     8938.125    17.757277    23.026088    19.120541    7818.0183    9706.5482    7952.2961    9155.5307   -696.42379   -1131.2106    48.735878   -3540.1157 
12871000    204.19813   -4992.3809   -4583.9595   -4992.3809            0    8269.7801    17.753099     22.96871    19.205371     7831.293     9423.235    7931.9334     7454.172   -190.84204   -347.97548   -87.697522   -3639.4565 
12872000    196.91135   -4928.7181   -4534.8711   -4928.7181            0     10632.54    17.804705    22.843558    19.250224    7829.5051    10657.595    11029.952    10210.072    -1092.433     302.7746    46.211774   -3320.7914 
12873000    203.25079   -4971.0047    -4564.478   -4971.0047            0    7389.9505    17.889758    22.869365    19.171775    7843.6986    6995.1616    7605.6636    7569.0264   -1390.1244   -1380.3468    -683.8131   -3719.1246 
12874000    200.45095   -4950.1309   -4549.2042   -4950.1309            0    8440.9083    17.874434    22.764903    19.281945    7846.0117    7324.2538    8923.3643    9075.1069   -1649.5752   -649.95579    75.063857   -3583.3446 
12875000     202.6589   -4948.3168   -4542.9739   -4948.3168            0    9492.7538    17.818341    22.819423    19.248025    7826.3291    10069.143    8283.5954    10125.523    1718.7538   -529.57354     196.1152   -3459.4807 
12876000    203.38273   -4990.6037   -4583.8131   -4990.6037            0    6133.3213    18.010007    22.632218    19.343039    7884.3465     5757.926    7375.3063    5266.7315    574.25339    133.28377   -1926.7999   -3878.5725 
12877000     195.0681   -4969.2635   -4579.1032   -4969.2635            0    7944.2599    17.861351    22.891888    19.269574    7878.9445    8419.7115    7546.3089    7866.7595   -199.60451   -511.27932   -149.60297   -3666.2575 
12878000    204.38005   -4983.1008   -4574.3155   -4983.1008            0      9426.22    17.614275     23.12514    19.174554    7810.4203    9992.2194    8773.1226     9513.318    727.79777    164.34389    527.08209   -3500.6034 
12879000    201.43641   -4932.2939   -4529.3962   -4932.2939            0    7427.8941     17.90261     22.89717    19.284272    7904.9914    7619.3238    6282.4629    8381.8954   -47.762585   -452.49092    1174.9895   -3673.0625 
12880000    193.28941   -4974.6623   -4588.0596   -4974.6623            0    8925.6554    17.911907    22.637461    19.259918    7809.5135    10313.456    8007.2567    8456.2538   -851.01724    19.339639   -1191.5372   -3571.4833 
12881000    192.78218   -4971.4219   -4585.8338   -4971.4219            0    9601.8724    17.858503    22.721755    19.218397    7798.3741    10157.507    9365.9404    9282.1697   -428.83353    74.219348   -1248.8921   -3493.8004 
12882000    213.69918   -4963.9294   -4536.5046   -4963.9294            0    7319.2093    17.884274     22.74858    19.326242    7862.7234    7276.0528    8263.3963    6418.1787     1465.549   -94.301955   -353.01701   -3697.2127 
12883000    204.61778   -4948.6381   -4539.3772   -4948.6381            0    7978.5178    17.893165    22.899225    19.180204    7858.8891     8184.681    8007.8753     7742.997    1250.7316     40.28325    1759.3008   -3624.9287 
12884000    198.16692   -4984.5019   -4588.1435   -4984.5019            0    6895.4787    17.883349    22.930221    19.226954    7884.3806    5572.4496    7040.9038    8073.0827    339.60757   -52.432382    -1258.663   -3795.2628 
12885000    193.38139   -4958.8164   -4572.0297   -4958.8164            0    10308.626    17.789326    22.913699    19.110979    7790.0034    10789.452    10495.425    9640.9998    831.94604   -390.64991    919.75919   -3400.8749 
12886000    210.27313   -4968.9298   -4548.3576   -4968.9298            0    8191.4354    17.893213    22.910495     19.18696    7865.5477    7644.0513    8459.8589    8470.3959   -962.49697   -208.27875    1333.3011   -3608.7103 
12887000    205.49806   -4988.1419   -4577.1204   -4988.1419            0    7967.5179     17.94345    22.724995    19.240971    7845.7911    6413.9073    8380.2598    9108.3868    742.21708   -930.73481    1205.1918   -3665.4545 
12888000    199.79244   -4972.7799   -4573.1704   -4972.7799            0    6205.5652    18.062816    22.598665     19.38318    7912.1274      6714.61     6608.777    5293.3085    213.10517    353.11381    612.15852   -3857.1086 
12889000    199.16192   -4981.0895   -4582.7411   -4981.0895            0    9445.2837    17.981029    22.560005    19.214683    7794.4763    8888.2928    9765.6963    9681.8621    -291.5713    535.12466   -1519.9366   -3509.0537 
12890000    205.43955   -4966.4697   -4555.5652   -4966.4697            0    7483.2313    17.766147    23.119667    19.240704    7903.0693    8105.0129    7160.7234    7183.9578    585.60146    139.33258    532.15728   -3693.0617 
12891000      205.103   -4985.0969   -4574.8656   -4985.0969            0    7735.1809    17.788122    22.889152    19.318513    7865.6299    7704.7974    7257.2491    8243.4961    -1088.469    283.58067   -1537.2359   -3687.5464 
12892000    204.93688   -4974.7927   -4564.8936   -4974.7927            0    7566.9106    17.865624    22.749028    19.317721    7851.2156    7192.6526    8184.8898    7323.1895    54.554759    328.68732   -792.61215   -3698.4678 
12893000    196.58624   -4974.2582   -4581.0615   -4974.2582            0    7110.8611    18.116447    22.409277    19.465349     7902.474    6596.7987    9008.8961    5726.8884   -223.86453    820.88646   -993.70252   -3761.5384 
12894000    200.42427   -4961.3387   -4560.4654   -4961.3387            0    8491.1941    17.947098    22.808687    19.168293     7846.536    7941.2756    8511.1514    9021.1552     1083.467   -360.34691    1475.9448   -3588.7869 
12895000    193.93416   -4954.9596   -4567.0673   -4954.9596            0    7970.1364    17.848457    23.087715    19.048734     7849.604    6910.5562    7605.8665    9393.9867    1654.3851   -283.62181    1836.9888   -3654.6587 
12896000    198.27278   -4963.7647   -4567.1947   -4963.7647            0    8896.0681     17.86767    22.685694    19.287942    7818.1842    9259.1113    8297.6001     9131.493     434.4629   -1119.3725   -65.157782   -3552.8632 
12897000    195.00273    -4979.339   -4589.3094    -4979.339            0    8694.7485    17.889993    22.609337    19.361578    7831.3882     10003.26    8651.4996    7429.4856     379.7613   -958.82218    1218.6389   -3596.2582 
12898000    193.54719   -4964.1664   -4577.0481   -4964.1664            0    7853.5007    18.022853    22.585593    19.337648    7871.5215    5978.5152    8339.4662    9242.5209   -272.59715    59.935659     22.83792   -3675.4814 
12899000    187.49985   -4916.5714   -4541.5486   -4916.5714            0    9042.9231    18.089345    22.569197    19.275545    7869.4722    8270.8695    9892.0673    8965.8326    250.21085   -478.97391    976.92682   -3503.7087 
12900000    204.20712    -4985.747   -4577.3075    -4985.747            0    7892.3207    17.898303    22.877171     19.17965    7853.3479    8780.6007    7213.8995    7682.4619   -97.063922    346.88531     -839.678   -3673.3762 
12901000    208.87899   -4943.2003   -4525.4165   -4943.2003            0    9623.5335     17.74109     23.09974    19.071161    7815.6394    8825.6242    9996.1675    10048.809   -598.60444    711.52061    20.346682   -3428.4965 
12902000    203.54609    -4968.054   -4560.9367    -4968.054            0    7134.2359    17.807149    22.909909    19.336264    7888.4255    8435.1532    6935.8266    6031.7278   -114.42109    852.08194   -297.84825   -3740.1814 
12903000    202.82364   -4954.8095   -4549.1371   -4954.8095            0     8219.295    17.913869    22.621545    19.360082     7845.468    8705.5411    9459.0555    6493.2884   -1993.7564    661.27146   -192.45666    -3608.701 
12904000    193.72248   -4951.4435   -4563.9746   -4951.4435            0    9555.7712    17.996078    22.489086    19.303307    7812.3445    9114.0015    9559.8822    9993.4298    308.29587    353.83737    605.88374   -3475.2375 
12905000    188.30455    -4955.703   -4579.0707    -4955.703            0    7207.8412    18.052076     22.70511    19.290289    7906.5952    6537.2756    8356.5491    6729.6988    508.24358     1085.145    96.379447   -3747.9375 
12906000    193.61852     -4973.48    -4586.219     -4973.48            0    7653.9306    17.905246    22.800604    19.228342    7849.9788     7625.394    7625.2426    7711.1552   -671.40418   -398.58395   -86.730218   -3709.9673 
12907000    200.54085   -4967.4353   -4566.3288   -4967.4353            0    9621.9099    17.877642    22.981526    19.046186      7825.23     8409.052    9549.6327    10907.045    235.78373     1132.267   -118.66602    -3468.248 
12908000    197.41562   -4983.2985   -4588.4429   -4983.2985            0    8585.6499    17.812938    22.887246    19.245824    7846.3124    9719.7487    8586.5056    7450.6954    330.72986   -229.43043    1924.5699   -3605.9834 
12909000    194.29694   -4971.4205   -4582.8027   -4971.4205            0    6868.2617    17.794125    22.997843     19.27256    7886.8422    8131.8797    6309.2621    6163.6432   -614.57458   -882.58991    509.23928   -3792.8049 
12910000    211.08311    -4977.835   -4555.6427    -4977.835            0    8202.8665    17.897257    22.773501    19.272259    7855.0492     8880.583    8201.0701    7526.9464    54.774241    7.4463883    535.25179   -3615.9401 
12911000    201.29124   -4985.2743   -4582.6669   -4985.2743            0    9371.9273    17.912588    22.730291    19.245881    7836.1209    9678.0616    8368.8717    10068.849   -176.18679   -628.81658    -735.7399   -3511.6264 
12912000     198.5245   -4956.3571   -4559.2836   -4956.3571            0    8594.3612    17.894052    22.707026    19.299859    7841.9328    8364.5534    9048.4054    8370.1249   -991.36695   -1158.7197   -1435.5236   -3576.3762 
12913000    196.69348    -4969.143   -4575.7318    -4969.143            0    7383.1186    17.771781    22.986634    19.281404    7876.7123    8721.0536    7088.2417    6340.0606   -1915.6982   -435.85828     15.18328   -3727.6051 
12914000    196.32334   -4961.4152   -4568.7443   -4961.4152            0    8551.1077     17.95093    22.907773     19.08075    7846.3065    8182.5002    8478.6844    8992.1385   -1954.5748   -678.31389   -1710.0896   -3590.2382 
12915000     199.3506   -4968.3019    -4569.576   -4968.3019            0    9062.4981    17.945575    22.784064    19.121606     7818.311    9985.0505    8303.3849    8899.0589    132.40968    299.32163    1735.0863   -3536.2515 
12916000     205.0555   -4940.0362   -4529.8999   -4940.0362            0    8302.9351    17.890842    22.837015    19.247105    7863.8557    8430.5936    8306.4725    8171.7392    775.47953   -84.216425     1208.273   -3577.6672 
12917000    193.70415   -4963.4871   -4576.0549   -4963.4871            0    6158.0778    17.953232     22.96757    19.239169    7933.1198     5537.284     6454.301    6482.6485    737.02611     345.5726    1266.3465   -3863.5874 
12918000    201.49071   -4943.8506   -4540.8443   -4943.8506            0    9480.8488    17.848407    22.745357    19.301653    7835.8609    10111.486    10160.143     8170.917   -159.03967    1009.0826    757.51905   -3457.3919 
12919000    205.24485     -4945.12   -4534.6049     -4945.12            0    7465.3284    17.788827    23.109407    19.279899    7925.7591     9640.003    6623.8152    6132.1669    713.17599    641.66368    490.20939   -3671.6946 
12920000    204.67489   -4961.6485   -4552.2734   -4961.6485            0    9686.3694     17.84218    22.704177    19.247354    7796.9495    9978.8845    10068.994    9011.2299    970.71672     318.9779     46.66533   -3450.8314 
12921000    204.35434   -4958.7141   -4549.9802   -4958.7141            0    9779.8463     18.02964    22.540694    19.225513      7813.26     10079.62    9995.4777    9264.4411   -619.28925   -657.79752    -166.6924   -3435.5825 
12922000    199.22068   -4972.0527   -4573.5867   -4972.0527            0    8563.7342    18.035886     22.64889    19.159885     7826.675    6905.9514    9758.4424    9026.8087   -539.37771   -301.91342   -2591.4562   -3596.0877 
12923000    200.44691   -4979.0141   -4578.0955   -4979.0141            0    8185.3513    17.729481    23.059927    19.098248    7808.1379    8510.9531    8101.2001    7943.9006    1739.7674   -650.16594    385.43269   -3645.9994 
12924000    194.96107   -4961.2943   -4571.3481   -4961.2943            0    9293.5995    17.737658    22.937859    19.210502    7816.0598    7826.0121    10249.383    9805.4033    977.79204    2005.7065    -1029.356    -3511.978 
12925000    200.43348   -4976.4419   -4575.5502   -4976.4419            0    7809.6332    18.002792    22.748497    19.211385    7867.7625    7478.5224    6744.0237    9206.3536    282.72559    111.24996   -77.004568   -3679.4475 
12926000      198.438   -4967.2835    -4570.383   -4967.2835            0    9290.1009    18.149675     22.51016    19.161809    7828.5973    9284.9303    9118.8931    9466.4792     121.7022   -254.17405   -41.379375    -3509.713 
12927000    206.16385   -4965.1994   -4552.8463   -4965.1994            0    7752.1929    18.076601    22.583568    19.308848    7882.5314    8095.1426    7924.9786    7236.4575    331.76705    1104.7836   -465.59231   -3661.6647 
12928000    201.48741    -4959.911   -4556.9113    -4959.911            0    7936.2667    17.914384    22.869428    19.212121    7871.0471    8318.7911    7871.3596    7618.6493    2037.3344    683.73005    1242.4538   -3645.8981 
12929000    208.51398   -4969.8983   -4552.8446   -4969.8983            0    6647.4154    17.899715    23.051331    19.119083    7888.7678    6120.9302    6172.6279    7648.6881    1169.7018    407.55609   -300.77455   -3788.0622 
12930000    198.47321   -4956.0632   -4559.0923   -4956.0632            0    7159.4395    17.846753    23.127329    19.110192    7887.6882    8273.7733    6035.4099    7169.1354    152.18511    317.06958   -902.90294   -3735.5144 
12931000    199.62601    -4978.797   -4579.5203    -4978.797            0    7968.8215    17.924447    22.747214    19.295759    7867.4834    8102.0688    8329.8873    7474.5085   -1048.9753    -8.297915   -2024.2572   -3665.1843 
12932000    207.01427   -4968.0106   -4553.9565   -4968.0106            0    9379.3196    17.996561    22.593244    19.249166     7826.724    8007.0363    9519.9274    10610.995    228.54891     -111.811   -1199.9281   -3483.3565 
12933000    195.00299   -4976.2212   -4586.1911   -4976.2212            0     8072.866    18.140058    22.471818    19.241492    7843.6034    7801.5508     7721.699    8695.3482   -97.027816   -1219.8358    363.71869   -3662.7286 
12934000    199.22988   -4979.4193   -4580.9349   -4979.4193            0    8312.1389    17.901542    22.810548     19.19559    7838.4036    8956.1176    8309.9882     7670.311    1621.2865    205.91729    2042.7302   -3630.7321 
12935000    203.04312   -4949.3435   -4543.2322   -4949.3435            0    7461.5909    17.758694    22.944578    19.287879    7859.1498    8714.7624    7778.0488    5891.9615    284.88699    850.80869    93.176454   -3688.0023 
12936000    194.89585   -4947.3873   -4557.5716   -4947.3873            0    7563.2855    17.920019     22.89891     19.22561    7889.2079     6430.364    8173.5204    8085.9722     728.9526     913.3663   -298.67321   -3687.3701 
12937000    196.44775   -4970.9476   -4578.0278   -4970.9476            0    8892.2229    18.062106    22.613654    19.203675    7843.7452    9760.2892    8540.4351    8375.9445    1015.6483    301.05943    1016.7754     -3560.82 
12938000    204.68477   -4955.8785   -4546.4837   -4955.8785            0    9372.0279    18.028846    22.530666    19.262672    7824.5346    8615.1751    9606.0469    9894.8618    502.15832   -373.32906   -1444.9372   -3477.0152 
12939000    191.48872    -4970.603   -4587.6019    -4970.603            0    8936.3026    17.942985    22.609285     19.31907     7837.323    10244.452    8688.0809    7876.3747    1126.0285    -465.9433    514.49155   -3566.1886 
12940000     202.4282   -4929.8905   -4525.0091   -4929.8905            0      9329.33    17.919051    22.757543    19.230818    7842.2038    9692.3042    9637.5049     8658.181   -940.63962    255.26302   -1160.1118    -3458.009 
12941000    205.26202   -4974.1674    -4563.618   -4974.1674            0    7982.1884    17.933932    22.907479    19.189351    7883.3921    7574.3687    8295.3053    8076.8911    319.99107    1125.3017    1356.0356   -3645.8963 
12942000    209.17044   -4973.1136   -4554.7469   -4973.1136            0    7800.8278    18.022751    22.830105    19.095807    7857.1858    7057.1921    8230.1561    8115.1352    336.86558    656.36722    824.47899   -3660.8579 
12943000    200.31412   -4963.1748   -4562.5218   -4963.1748            0    10169.656    17.917647    22.682311    19.152436    7783.8113    10720.681    11437.291    8350.9962     1849.451     1097.987    1189.7223   -3408.0736 
12944000    198.26794   -4960.0123   -4563.4519   -4960.0123            0    7094.0459    18.086326    22.694579    19.240639    7897.5424    8850.0004     7089.104    5343.0331   -43.402725    408.56554    152.06771   -3746.3771 
12945000    200.41273   -4963.3301   -4562.4799   -4963.3301            0    7646.6516    17.921977    22.700921    19.330098     7864.361    8754.9173    7813.8366    6371.2008    492.14708   -137.07471   -1164.7759   -3685.4576 
12946000    196.52645   -4965.6736   -4572.5964   -4965.6736            0    7744.3106    17.692247    23.048553    19.234499    7843.4574    10267.415    6207.0765    6758.4399   -443.28042   -184.86298    1155.0154   -3686.7342 
12947000    190.64606   -4944.4648   -4563.1491   -4944.4648            0    7444.6697    17.941854    23.062223    19.014228    7867.6892    8036.6892     6278.565     8018.755   -1292.0443   -1120.6646    685.57113   -3708.9315 
12948000    193.42894   -4950.9292   -4564.0474   -4950.9292            0    9083.2483    17.998683    22.743964    19.168827    7846.9782    8042.3715    9577.7498    9629.6235    266.14482    67.960483   -167.43242   -3524.5593 
12949000     211.7259   -4971.5849    -4548.107   -4971.5849            0    7575.5542    17.943721    22.683245    19.344924    7873.8061    8101.2384    7918.4169    6707.0074    1477.0637   -434.49526    -748.2225   -3678.1956 
12950000    197.19512   -4969.6579   -4575.2433   -4969.6579            0    7787.2715    17.924091    22.633599    19.424634    7880.3155    8097.8643    9108.0198    6155.9304   -130.40879   -601.44177    136.09694   -3680.2809 
12951000    197.92612   -4952.3975   -4556.5208   -4952.3975            0    8543.9191    17.894114      22.9868    19.050246     7835.908    7576.2945    8476.7366    9578.7263   -1838.2447    928.11534   -1807.0251    -3580.133 
12952000    206.58722   -4974.4915   -4561.2915   -4974.4915            0    9128.7751    17.790375    23.027219    19.092313    7821.4115    7964.8534    8922.3082    10499.164   -223.21601   -346.23223   -1054.5412   -3519.9971 
12953000    193.20866   -4968.6372   -4582.1961   -4968.6372            0    8856.4712    18.005799    22.600254    19.273839    7843.2116    8210.7693    9659.5575    8699.0869     974.4491    479.95191    898.72194   -3569.1469 
12954000    192.19349     -4975.44   -4591.0293     -4975.44            0    8730.4467    17.965934    22.452192    19.416819    7832.2514    7726.3408    10672.795    7792.2047    822.58474    1307.4297    1093.3207    -3593.791 
12955000    197.13953   -4983.3817   -4589.0783   -4983.3817            0    8366.8505    17.899599     22.74811    19.271217    7846.8933    7290.2707    10108.013    7702.2677   -1519.7509     1339.567   -3006.0052   -3631.5852 
12956000    198.84562   -4971.0564   -4573.3406   -4971.0564            0    8421.6653    17.778636    23.101608    19.085481    7838.6945     8103.004    7497.7984    9664.1935    61.171741     1387.338   -502.18274   -3610.5815 
12957000    203.92836   -4967.4267   -4559.5448   -4967.4267            0    8714.9227    17.902461    22.816367    19.170894     7830.718    9402.8344    7720.0946     9021.839   -452.42663    460.72363   -783.48985   -3564.2745 
12958000     207.6871   -4957.7934   -4542.3935   -4957.7934            0    8620.0092    17.801941     22.80006    19.346262    7852.3637    9717.4298    9104.7565    7037.8413    22.599439    511.91152    647.57633   -3555.2416 
12959000     201.8409   -4968.6402   -4564.9335   -4968.6402            0    9658.6498    17.989926    22.575956    19.266852    7825.0351    10294.324    9896.3267    8785.2985    194.53912    72.322843    195.16573   -3462.6873 
12960000    201.54883   -4953.5487   -4550.4261   -4953.5487            0    9311.2227    17.943393    22.779969    19.162157    7832.5302    7524.0259     10114.33    10295.312   -27.824074    302.08188    1587.1006   -3486.8106 
12961000    195.89332    -4951.424   -4559.6132    -4951.424            0    8660.1205    17.791145    22.934525    19.253385    7855.9865    8892.5831    8916.2519    8171.5265   -915.81724    15.377182    195.88972   -3567.4101 
12962000    203.38365   -4971.4705   -4564.6781   -4971.4705            0    8567.2428    17.774317    22.872949    19.290406    7842.5344    8634.9848    8666.0674    8400.6761   -32.435855    122.79718    2159.8852    -3584.797 
12963000    195.35694   -4955.0713   -4564.3333   -4955.0713            0    9156.1016    17.849281    22.791098    19.247477    7829.9642    9881.2462    8831.9787      8755.08   -264.67374     347.4583    353.27406   -3518.7798 
12964000    202.61168   -4974.0568   -4568.8084   -4974.0568            0    7768.1981    17.867373    22.808008    19.277393    7855.9078    8322.7643    7080.5942    7901.2358    497.95078   -473.15208   -1111.2617   -3678.8032 
12965000    198.73537   -4996.9616   -4599.4664   -4996.9616            0    7607.7822    17.941193    22.680326    19.235871    7827.3088    8592.7588    7800.2162    6430.3714    315.85687   -328.05478    7.7715319   -3731.0131 
12966000    201.55259   -4978.1185   -4574.9884   -4978.1185            0    7153.2783    17.907458    22.801329    19.223155    7849.0801    7166.3644    7365.1843    6928.2862    701.40898   -418.70765    1393.4969    -3756.147 
12967000    195.82147   -4982.2593   -4590.5921   -4982.2593            0    7606.1719    17.871584    22.788875    19.301429    7860.9563    8984.7779    7746.0111    6087.7266    153.14502   -26.129629    1330.3001   -3718.5903 
12968000    200.74685   -4947.1171   -4545.5986   -4947.1171            0    10607.829    17.846005    22.773919    19.225879    7813.8483    12145.505     9645.632     10032.35   -1463.5003    -19.81628   -832.11092   -3336.7626 
12969000    191.13814   -4955.1856   -4572.8857   -4955.1856            0    8202.8018    17.924256    22.682034    19.344886    7864.8293    7431.9584    9270.0706    7906.3764   -933.47438    77.986843   -704.34228   -3632.0205 
12970000    184.28395   -4959.8604   -4591.2697   -4959.8604            0    8689.5669    17.849462     22.63874    19.404303    7841.0719     8036.756    9898.1564    8133.7883   -849.87373    249.99748   -687.26992   -3597.5831 
12971000    200.06114   -4974.3464   -4574.1994   -4974.3464            0    8184.6586     18.01243    22.575248    19.276494    7838.4984    6670.5675    10221.051    7662.3574    36.822214    130.12136   -1490.9513   -3638.5582 
12972000    195.59774   -4991.9231   -4600.7035   -4991.9231            0    6829.0206    17.831632    22.872281    19.323902    7881.2552    8285.1313    6999.2385     5202.692   -142.71195     21.39209   -1046.9958   -3815.7757 
12973000    191.07799   -4972.4743   -4590.2947   -4972.4743            0    8520.9769     17.79063    23.122921    19.002281    7816.9937    8862.8351    7282.8295    9417.2661   -284.15423   -167.97965   -565.40069   -3618.8792 
12974000    199.05012   -4961.5773   -4563.4525   -4961.5773            0    10115.545    17.865275    22.807389    19.172204    7811.9114    9458.0515    11013.119    9875.4637    790.57469    655.87876    431.88575   -3411.0015 
12975000    195.76348   -4970.2096   -4578.6585   -4970.2096            0    8562.3349    17.948758    22.596805    19.339967    7843.9922    8768.0074    9508.2143    7410.7828    -541.9179   -47.030613    381.67013   -3599.1566 
12976000    187.17998   -4945.3125   -4570.9295   -4945.3125            0    9112.1298    18.039355     22.64703    19.265082    7870.5144     7882.238    9663.0682    9791.0831   -1231.0516    1497.3902   -469.65654   -3525.0084 
12977000    210.38305   -4937.2963   -4516.5042   -4937.2963            0    7546.6728    17.985647    22.829414    19.202723    7884.6723      5781.26    8258.9966    8599.7618   -409.12913    1604.1408   -755.44959   -3648.7133 
12978000    208.04257   -4961.9109      -4545.8   -4961.9109            0    8178.0547    17.897048    22.986451    19.171851    7887.1003    7528.7042    7474.3986    9531.0613   -480.74627    225.21048    414.52617   -3605.1171 
12979000    200.75555   -4953.7444   -4552.2085   -4953.7444            0    7429.9231    17.915838    22.944924     19.17803    7883.6575    8225.1287      6715.63    7349.0108    1140.4153    388.40717    3550.4947   -3697.9527 
12980000    212.11684    -4955.735   -4531.4751    -4955.735            0    8300.7095    17.946608    22.738358    19.265327    7861.7251    9480.6167    7721.8384    7699.6735   -744.05587    -297.8883   -978.57857   -3579.7556 
12981000     215.9329   -4974.8091   -4542.9166   -4974.8091            0    7776.3718    17.855582    22.745135    19.381263    7871.2664    7839.0885     7804.139    7685.8879   -553.61233   -699.09919   -1848.7887   -3650.2331 
12982000    203.37446   -4975.5608   -4568.7868   -4975.5608            0    6745.3606    17.937302    22.711634    19.317693    7869.7466    7431.1711    7224.3316     5580.579   -1586.1148    -1292.903   -651.00827    -3794.607 
12983000    206.43329   -4988.8728   -4575.9807   -4988.8728            0    8227.2563    17.869583    22.930143    19.176628    7857.6634    6911.8432    7590.3533    10179.572   -346.59315   -504.83448    1386.6007   -3633.1704 
12984000    206.08135     -4957.37   -4545.1818     -4957.37            0    8973.2355    17.916601    22.836221    19.197838    7854.7468    10667.336    8257.7665    7994.6037   -1990.6574   -35.337567    662.01737    -3517.267 
12985000     196.9303   -4973.7701   -4579.8852   -4973.7701            0    10168.275    17.886488    22.617672    19.258294    7790.9566    8415.5104    11130.571    10958.743   -778.46614   -279.32406   -605.96403   -3424.5342 
12986000     199.9196   -4973.9423   -4574.0784   -4973.9423            0    8605.6811    17.958842    22.553845    19.359668    7841.4581     8082.637     9987.235    7747.1714    -868.8917    310.96257    910.98761   -3589.9359 
12987000    197.48417   -4969.3702   -4574.3775   -4969.3702            0    7218.6722    18.020937    22.674436    19.315082    7892.4243    6590.6679    8337.8994    6727.4492    1243.0317   -169.55047   -157.07526   -3743.4873 
12988000    186.58043   -4927.1063   -4553.9223   -4927.1063            0     9734.396    17.728534    22.917757    19.274522    7831.2042    8937.7033    10139.406    10126.079    29.479534    2313.8735    432.87416   -3442.1562 
12989000    197.64164   -4956.5026   -4561.1949   -4956.5026            0    8478.0325    17.847088    22.989525    19.161198    7861.7646    10179.755     7598.335    7656.0072   -1674.3225    701.40817    2032.7185   -3589.1395 
12990000    194.16721   -4939.9864    -4551.628   -4939.9864            0    9215.0084    17.922953    22.796236     19.20321    7845.9684     11406.64    8742.7799    7495.6053   -350.92301     1418.135    697.60885    -3497.197 
12991000    201.68386   -4987.9269   -4584.5343   -4987.9269            0    6722.0178    18.103719    22.669093     19.25184    7900.8571    6385.1137    7836.2382    5944.7014   -700.12231    993.53239    760.36966   -3809.9838 
12992000    197.10844   -4977.9642   -4583.7229   -4977.9642            0     6545.655    17.920672    22.668917    19.516579    7928.4584    7094.8998    6524.8078    6017.2574    870.85374    594.55797    283.49858   -3826.8591 
12993000    215.82762   -4976.6379    -4544.956   -4976.6379            0    8605.3379    17.866979    22.801353    19.280533    7854.7211     9822.918    8196.1239    7796.9718   -122.49151    53.343182   -463.06729   -3559.1883 
12994000    211.80372   -4970.7452   -4547.1116   -4970.7452            0    9800.0936    17.878029    22.975303    19.026863    7815.3433    9177.1844    9559.9483    10663.148    657.27821   -59.040327   -1044.2636    -3430.109 
12995000    207.78146   -4955.9487   -4540.3601   -4955.9487            0    8682.7343    17.948704    22.924303    19.105137    7861.0286    9431.8012    8757.5173    7858.8843  -0.59610971   -531.24789    611.78254   -3544.9277 
12996000     198.8051    -4964.971   -4567.3363    -4964.971            0    8841.6593     18.02573    22.882483    19.018722    7844.7183     8806.787    8310.9927    9407.1984    380.34969    1398.4247    -521.2262    -3555.787 
12997000    204.46425   -4973.9406   -4564.9868   -4973.9406            0    8193.5793    17.873888    22.883199    19.177339    7843.7567    7997.1204      7614.02    8969.5975    945.71677    170.77826    824.55169   -3627.6975 
12998000    202.01426   -4956.4813   -4552.4278   -4956.4813            0    7588.3562    17.976433    22.652122    19.381864    7892.3794    6726.0588    8563.4456     7475.564    681.68493    128.37177   -1234.8447   -3678.9909 
12999000    191.75834   -4958.3335   -4574.7931   -4958.3335            0    8900.6002     17.93912    22.606202    19.367258    7854.1084    9409.2521    9129.2988    8163.2496   -925.40837   -973.06958   -2365.5369   -3555.2817 
13000000    211.87968   -4963.2829   -4539.4974   -4963.2829            0    9147.3242    17.878445    22.847166    19.202711    7843.7658    8552.2117      8964.98    9924.7808   -362.26711   -284.02897   -374.58882    -3493.105 
Loop time of 433.228 on 64 procs for 250000 steps with 1008 atoms

Performance: 99.717 ns/day, 0.241 hours/ns, 577.063 timesteps/s
382.0% CPU use with 16 MPI tasks x 4 OpenMP threads

MPI task timing breakdown:
Section |  min time  |  avg time  |  max time  |%varavg| %total
---------------------------------------------------------------
Pair    | 40.903     | 43.812     | 48.98      |  34.0 | 10.11
Bond    | 1.6165     | 1.8764     | 2.9402     |  25.4 |  0.43
Kspace  | 206.88     | 211.77     | 218.58     |  26.9 | 48.88
Neigh   | 2.1295     | 2.2825     | 2.5259     |   7.7 |  0.53
Comm    | 53.135     | 60.171     | 64.864     |  43.2 | 13.89
Output  | 0.50342    | 0.50377    | 0.50622    |   0.1 |  0.12
Modify  | 94.947     | 97.949     | 102.66     |  26.3 | 22.61
Other   |            | 14.86      |            |       |  3.43

Nlocal:        63.0000 ave          68 max          58 min
Histogram: 1 1 1 3 2 0 2 2 3 1
Nghost:        3425.56 ave        3435 max        3401 min
Histogram: 1 0 0 0 1 1 2 2 7 2
Neighs:        21308.8 ave       23039 max       19701 min
Histogram: 2 1 1 4 0 1 3 2 1 1

Total # of neighbors = 340940
Ave neighs/atom = 338.23413
Ave special neighs/atom = 2.0000000
Neighbor list builds = 5763
Dangerous builds = 0

unfix		3
unfix		2
unfix		1

write_data	data.final.${pid}
write_data	data.final.1
System init for write_data ...
PPPM initialization ...
  extracting TIP4P info from pair style
  using 12-bit tables for long-range coulomb (../kspace.cpp:340)
  G vector (1/distance) = 0.37980855
  grid = 24 27 32
  stencil order = 5
  estimated absolute RMS force accuracy = 0.0023906742
  estimated relative force accuracy = 7.1994444e-06
  using double precision FFTW3
  3d grid and FFT values/proc = 7875 1344
Last active /omp style is kspace_style pppm/tip4p/omp
WARNING: Not all mixed pair coeffs generated from mixing. Use write_data with 'pair ij' option to store all pair coeffs. (../write_data.cpp:312)

write_restart   restart.lmp.${pid}
write_restart   restart.lmp.1
System init for write_restart ...
PPPM initialization ...
  extracting TIP4P info from pair style
  using 12-bit tables for long-range coulomb (../kspace.cpp:340)
  G vector (1/distance) = 0.37980855
  grid = 24 27 32
  stencil order = 5
  estimated absolute RMS force accuracy = 0.0023906742
  estimated relative force accuracy = 7.1994444e-06
  using double precision FFTW3
  3d grid and FFT values/proc = 7875 1344
Last active /omp style is kspace_style pppm/tip4p/omp
Total wall time: 0:07:13
