LAMMPS (30 Jul 2021)
Processor partition = 0
  using 1 OpenMP thread(s) per MPI task
using multi-threaded neighbor list subroutines
variable        pid world 0 1
variable        phase world IceII IceIII

shell cd ${phase}
shell cd IceII
include Restart.lmp
echo both
log log.lammps
#include		in.partitions
include		in.temp
variable        temperature equal 66.53
variable	tempDamp equal 100.0
include		in.pressure
variable        pressure equal 168.8
variable        pressureDamp equal 1000.0 # This is 1 ps
include		in.seed
variable        seed equal 745823

units		real
atom_style	full
box tilt large
read_restart	restart.lmp.${pid}
read_restart	restart.lmp.0
Reading restart file ...
  restart file = 30 Jul 2021, LAMMPS = 30 Jul 2021
  restoring atom style full from restart
  triclinic box = (-10.654860 -9.2014080 0.085018879) to (12.634860 12.191406 21.774980) with tilt (-9.1456592 1.9666610 2.8570308)
  4 by 4 by 4 MPI processor grid
  restoring pair style lj/cut/tip4p/long/omp from restart
  restoring bond style harmonic/omp from restart
  restoring angle style harmonic/omp from restart
  1296 atoms
  864 bonds
  432 angles
Finding 1-2 1-3 1-4 neighbors ...
  special bond factors lj:    0        0        0       
  special bond factors coul:  0        0        0       
     2 = max # of 1-2 neighbors
     1 = max # of 1-3 neighbors
     1 = max # of 1-4 neighbors
     2 = max # of special neighbors
  special bonds CPU = 0.009 seconds
  read_restart CPU = 0.020 seconds
include 	in.setup
variable	out_freq equal 1000
variable	out_freq2 equal 10000
variable	out_freq3 equal 1000

timestep	2.0

neigh_modify    delay 7 every 1

include		in.tip4p
# This is TIP4P/Ice

# create groups ###
group ox type 2
432 atoms in group ox
group hy type 1
864 atoms in group hy

# set charges - beside manually ###
set group ox charge -1.1794
Setting atom values ...
  432 settings made for charge
set group hy charge 0.5897
Setting atom values ...
  864 settings made for charge

# ### TIP3P Potential Parameters ###
pair_style lj/cut/tip4p/long/omp 2 1 1 1 0.1577 8.5
pair_coeff 1 1*2 0.000 0.000
pair_coeff 2 2 0.21084 3.1668
bond_style  harmonic
bond_coeff  1 450 0.9572
angle_style harmonic
angle_coeff 1 55 104.52
kspace_style pppm/tip4p/omp 1.0e-5
pair_modify tail yes

thermo          ${out_freq}
thermo          1000
thermo_style    custom step temp pe etotal epair emol press lx ly lz vol pxx pyy pzz pxy pxz pyz enthalpy

restart 	${out_freq3} restart.lmp.${pid} restart2.lmp.${pid}
restart 	1000 restart.lmp.${pid} restart2.lmp.${pid}
restart 	1000 restart.lmp.0 restart2.lmp.${pid}
restart 	1000 restart.lmp.0 restart2.lmp.0


include         in.dump
dump            myDump all atom ${out_freq2} dump.water.${pid}
dump            myDump all atom 10000 dump.water.${pid}
dump            myDump all atom 10000 dump.water.0
dump            myDump2 all dcd ${out_freq2} dump.dcd
dump            myDump2 all dcd 10000 dump.dcd
dump_modify     myDump append yes
dump_modify     myDump2 append yes


variable natoms 	equal  "count(all)"                        # NUMBER ATOMS
variable H      	equal  "enthalpy/v_natoms"                 # ENTHALPY-per-atom
variable Vol      	equal  "vol/v_natoms"                 # volume-per-atom
fix AVG all 		ave/time ${out_freq} 1 ${out_freq} v_Vol v_H file vol_enthalpy.dat
fix AVG all 		ave/time 1000 1 ${out_freq} v_Vol v_H file vol_enthalpy.dat
fix AVG all 		ave/time 1000 1 1000 v_Vol v_H file vol_enthalpy.dat


timer           timeout 10:00:00 every 1000
New timer settings: style=normal  mode=nosync  timeout=10:00:00

fix 		1 all shake 1e-6 200 0 b 1 a 1
Finding SHAKE clusters ...
       0 = # of size 2 clusters
       0 = # of size 3 clusters
       0 = # of size 4 clusters
     432 = # of frozen angles
  find clusters CPU = 0.001 seconds
fix             2 all nph tri ${pressure} ${pressure} ${pressureDamp}
fix             2 all nph tri 168.8 ${pressure} ${pressureDamp}
fix             2 all nph tri 168.8 168.8 ${pressureDamp}
fix             2 all nph tri 168.8 168.8 1000
fix             3 all temp/csvr ${temperature} ${temperature} ${tempDamp} ${seed}
fix             3 all temp/csvr 66.53 ${temperature} ${tempDamp} ${seed}
fix             3 all temp/csvr 66.53 66.53 ${tempDamp} ${seed}
fix             3 all temp/csvr 66.53 66.53 100 ${seed}
fix             3 all temp/csvr 66.53 66.53 100 745823


run             250000
PPPM initialization ...
  extracting TIP4P info from pair style
  using 12-bit tables for long-range coulomb (../kspace.cpp:340)
  G vector (1/distance) = 0.36716511
  grid = 30 40 32
  stencil order = 5
  estimated absolute RMS force accuracy = 0.0045678754
  estimated relative force accuracy = 1.3756021e-05
  using double precision FFTW3
  3d grid and FFT values/proc = 5168 640
Last active /omp style is kspace_style pppm/tip4p/omp
Neighbor list info ...
  update every 1 steps, delay 7 steps, check yes
  max neighbors/atom: 2000, page size: 100000
  master list distance cutoff = 10.8154
  ghost atom cutoff = 10.8154
  binsize = 5.4077, bins = 7 5 5
  1 neighbor lists, perpetual/occasional/extra = 1 0 0
  (1) pair lj/cut/tip4p/long/omp, perpetual
      attributes: half, newton on, omp
      pair build: half/bin/newton/tri/omp
      stencil: half/bin/3d/tri
      bin: standard
Setting up Verlet run ...
  Unit style    : real
  Current step  : 7500000
  Time step     : 2
  Walltime left : 9:59:59.90
Per MPI rank memory allocation (min/avg/max) = 9.436 | 9.441 | 9.446 Mbytes
Step Temp PotEng TotEng E_pair E_mol Press Lx Ly Lz Volume Pxx Pyy Pzz Pxy Pxz Pyz Enthalpy 
 7500000    70.336379   -6828.4126   -6647.4765   -6828.4126            0    206.11673     23.28972    21.392814    21.689961    10806.647   -78.335772    301.07354    395.61242    254.46727    214.67208    82.897075   -6614.9917 
 7501000    66.126649   -6849.3212   -6679.2145   -6849.3212            0    299.29212      23.2439    21.359297    21.746105    10796.362    990.04209    485.74399   -577.90972   -82.911828   -954.22483   -638.19168   -6632.0898 
 7502000    67.722542   -6851.0066   -6676.7945   -6851.0066            0    427.80362    23.225736    21.366147    21.762238    10799.391    769.49045    737.18992   -223.26952    49.878817   -639.88019   -919.82433   -6609.4162 
 7503000    65.868923   -6848.7171   -6679.2733   -6848.7171            0   -32.753591    23.271301     21.40114    21.699766    10807.186   -482.54749    500.72957   -116.44286    568.85202     268.9466    202.08202   -6684.4356 
 7504000    64.568565   -6852.2942   -6686.1955   -6852.2942            0    12.905143    23.289174    21.451512    21.601815    10792.007   -130.40132   -17.018202    186.13495    164.06079   -444.55379    424.69629   -6684.1643 
 7505000    67.650597   -6854.7702   -6680.7432   -6854.7702            0   -278.51699    23.296965    21.356187    21.726079    10809.471   -632.69611   -741.20989    538.35502    406.69341   -347.70229    298.56404     -6724.65 
 7506000     67.55556   -6844.8481   -6671.0655   -6844.8481            0   -12.098353    23.262556    21.339386    21.770783    10807.206    954.79996   -247.28365   -743.81137    18.647572   -996.90994   -227.14437   -6672.9724 
 7507000    67.405574   -6855.7231   -6682.3264   -6855.7231            0   -215.98165    23.261131    21.396282     21.68677    10793.543   -271.47882   -295.59727   -80.868847   -213.29379    144.76024   -61.099745   -6716.3247 
 7508000    67.376232   -6847.9878   -6674.6666   -6847.9878            0    243.19565    23.237621    21.448524    21.636352    10783.832    176.34019    324.54527    228.70148    122.36403     87.14719   -61.725718   -6636.4189 
 7509000    67.480793   -6840.5406   -6666.9504   -6840.5406            0   -109.58712    23.306057     21.37814    21.675308    10799.509   -1008.7688     119.7921    560.21537    238.71505    432.28158    120.63856   -6684.2103 
 7510000    67.786481   -6850.7965   -6676.4199   -6850.7965            0   -268.98291    23.307234     21.34872    21.717918    10806.393    -270.2939   -157.05535   -379.59948    158.85159   -865.37831    262.15124   -6718.8117 
 7511000    66.134499   -6849.3894   -6679.2624   -6849.3894            0   -214.29104    23.321308    21.307871    21.752079    10809.205   -499.62152    423.87186   -567.12345    493.95606   -597.56346   -63.262579   -6713.0435 
 7512000    70.849931   -6849.0104   -6666.7533   -6849.0104            0   -156.23179    23.187494    21.444258    21.720232    10800.138    522.92906   -668.10501    -323.5194    407.17454    -87.52222    424.04369   -6691.3612 
 7513000    69.388588   -6849.4482   -6670.9503   -6849.4482            0    90.966809    23.195869    21.467365    21.682727    10797.005    317.26159   -226.19049    181.82933    347.44125    337.78199   -322.34525   -6656.6264 
 7514000    64.904721    -6852.919   -6685.9556    -6852.919            0   -322.93049     23.30736    21.373929    21.705481    10813.016   -722.11556    179.61061   -426.28652   -248.28713   -249.97264   -360.84237   -6736.8807 
 7515000    64.886202   -6842.8184   -6675.9026   -6842.8184            0   -94.259973     23.31365    21.311599    21.776525    10819.692    -349.7819     72.97184   -5.9698617   -253.27831     16.75627    501.22863   -6690.7763 
 7516000    67.030312   -6850.8626   -6678.4312   -6850.8626            0    259.65088    23.251069    21.393873    21.680652    10784.616    375.41388    124.74877    278.78999   -83.538411   -101.55693    649.50535   -6637.5927 
 7517000    65.626514   -6846.4926   -6677.6723   -6846.4926            0    483.55547    23.251292     21.43997    21.635677    10785.537    836.89378   -434.98062    1048.7533   -433.95871    377.85912    290.73957    -6601.611 
 7518000     63.64236    -6850.985   -6687.2689    -6850.985            0    445.32947    23.219908    21.401725    21.719182    10793.263    783.35616    174.00615     378.6261    8.0826594    76.951345   -21.172415   -6617.1702 
 7519000    69.043213   -6857.8839   -6680.2744   -6857.8839            0    43.027837    23.286953    21.270565      21.8124    10804.263    1.8627621    1012.7135   -885.49273    119.21604    610.83098   -497.71421   -6673.4946 
 7520000    66.070982    -6852.119   -6682.1554    -6852.119            0    -256.2518    23.326997    21.336916    21.721972    10811.594   -544.25995    194.95816   -419.45362    779.55069    104.30068    61.995295   -6722.5602 
 7521000    65.799956   -6855.8749   -6686.6085   -6855.8749            0    19.270307    23.231001    21.485077    21.605663    10783.815    245.67358    -220.0274    32.164738   -517.76304   -386.92549   -162.68518   -6683.5779 
 7522000    67.294429   -6848.8074   -6675.6966   -6848.8074            0    513.90711    23.202066    21.408344     21.70021    10778.881    1060.7936   -89.381446     570.3092   -526.19277    101.55014   -1.9875536    -6594.911 
 7523000    67.089547    -6853.411   -6680.8272    -6853.411            0    280.01245    23.252722    21.290212    21.790342    10787.426     351.5283    192.11395    296.39509    39.888217   -128.20029    118.88704   -6636.7746 
 7524000    70.793541   -6841.3165   -6659.2044   -6841.3165            0    156.76656    23.317745    21.291078    21.735469    10790.789    -100.6153    1027.1772   -456.26216    93.669254   -41.789168   -6.5142565   -6634.5336 
 7525000    67.847635   -6841.0274   -6666.4935   -6841.0274            0    156.40276    23.288122    21.405655    21.657494    10796.207     147.9756    260.69155    60.541126    591.67661    77.552253   -537.09025   -6641.8676 
 7526000    66.737009   -6839.7189    -6668.042   -6839.7189            0    57.439259    23.192601    21.435287    21.723878    10799.809    684.14667   -480.31497   -31.513916    443.65115   -507.68597   -355.68954   -6658.9951 
 7527000    67.282417   -6844.6616   -6671.5817   -6844.6616            0    -29.19028    23.250451      21.3863    21.737888    10808.972    183.86802     223.1083   -494.54716   -10.463795    -355.1805   -166.31748   -6676.1832 
 7528000     66.52918   -6856.4944   -6685.3522   -6856.4944            0    560.28876     23.26483    21.390628    21.660657    10779.412    519.92135    121.20339    1039.7415   -69.050797   -392.35221    176.09428   -6597.2711 
 7529000    64.788336    -6849.877    -6683.213    -6849.877            0     212.3001    23.273157    21.373809    21.687034    10787.912    328.11798    639.59123   -330.80892     152.4659   -196.13075    216.32786   -6649.8117 
 7530000    71.135503   -6849.7051   -6666.7133   -6849.7051            0    323.62175     23.19234    21.455276    21.669566    10782.734     349.4109   -327.37131    948.82566   -177.37858     13.51486    854.80628   -6615.8222 
 7531000    70.848718   -6850.6105   -6668.3565   -6850.6105            0      601.839    23.257034    21.380333    21.687512    10783.966    788.45897    432.48538    584.57264   -264.92791   -41.048796   -570.65594   -6573.7035 
 7532000     69.79909    -6851.488   -6671.9341    -6851.488            0    570.34318    23.256631    21.306715    21.759207    10782.175    641.39965    485.11019    584.51971     232.6193    3.7751161    483.54138   -6582.2494 
 7533000    65.207255   -6844.3069   -6676.5652   -6844.3069            0    1033.8557    23.310201     21.29723    21.666521    10756.187    678.90538    1419.7968    1002.8649    197.66431   -337.90396   -15.495271   -6514.3863 
 7534000    67.337296   -6855.3572   -6682.1361   -6855.3572            0    677.26093    23.238101    21.463041    21.587543    10767.009    1011.4406    205.10923    815.23298   -72.075733   -48.723274   -590.85148   -6575.7887 
 7535000    65.519752    -6853.687   -6685.1414    -6853.687            0    452.85482    23.144656    21.440775    21.711626    10774.163    683.53119    237.54258    437.49071   -320.74491   -197.55964    488.91444   -6613.9843 
 7536000    63.995929   -6847.9088   -6683.2832   -6847.9088            0     123.6538    23.195988    21.308601    21.858332    10804.006    461.37239    294.73248   -385.14347   -26.400394    436.15056   -26.438244   -6663.7996 
 7537000    66.484469   -6846.6081   -6675.5809   -6846.6081            0    375.52342    23.290683    21.338212    21.689645    10779.353    59.895307    779.27955     287.3954    -81.66863    541.51765    20.156175   -6616.5464 
 7538000    65.963031   -6847.2479    -6677.562   -6847.2479            0    613.89519    23.282148    21.349282    21.645035    10758.819    653.90924    486.86458    700.91174   -519.23018     517.1271   -489.06175    -6581.238 
 7539000    66.033685    -6846.764   -6676.8964    -6846.764            0    586.48445    23.174303    21.423448    21.705324    10776.118    879.83691    478.24828    401.36817    170.10735    270.10417    232.77956   -6584.7253 
 7540000    65.378702   -6849.5186   -6681.3359   -6849.5186            0    721.95695    23.174461    21.430071     21.69095    10772.384    1438.6703    320.82824     406.3723   -802.24783     319.6581   -409.59362   -6567.9134 
 7541000    65.489679    -6852.256   -6683.7878    -6852.256            0    609.26289    23.179631    21.363793    21.749264    10770.341    1285.4289    489.43989    52.919859    36.121336   -390.00607   -104.42762   -6588.0882 
 7542000    65.583861   -6848.2983   -6679.5878   -6848.2983            0    254.10578    23.293171    21.301419    21.723326    10778.628    540.48788    144.38914    77.440341    -728.3682    584.53073   -77.239453   -6639.6436 
 7543000    68.710637   -6851.6737   -6674.9198   -6851.6737            0    99.125369    23.315303    21.356921    21.676945    10793.885   -596.70617    542.58624    351.49604   -263.35396    452.61367   -257.02287   -6659.3157 
 7544000    67.508703   -6848.7647   -6675.1026   -6848.7647            0    361.78801    23.176757    21.423208    21.721992    10785.414   -642.93527    1419.3954     308.9039    545.64358     393.0394   -203.03837   -6618.1955 
 7545000    62.714224   -6856.2694   -6694.9409   -6856.2694            0    443.91839    23.126868     21.40712    21.780539    10783.101    1360.5002    272.91904   -301.66404   -182.22776   -392.30393   -191.35762   -6625.1301 
 7546000    68.664055   -6850.8001    -6674.166   -6850.8001            0     416.0482    23.268876    21.315073    21.757891    10791.431    293.08252    617.24753    337.81455   -171.44012    463.55818   -264.33353   -6608.6875 
 7547000    66.745116   -6854.4637    -6682.766   -6854.4637            0    221.81105    23.405048    21.271361    21.653927    10780.564    16.151822    578.60346    70.677873   -90.467046   -22.083429   -86.294945   -6647.8921 
 7548000    68.348609   -6850.0164   -6674.1938   -6850.0164            0    225.35979    23.254388    21.357995    21.696719    10776.047     360.1571    644.93468    -329.0124    86.905691    56.702674   -442.28631   -6638.7768 
 7549000    68.521926   -6848.1471   -6671.8787   -6848.1471            0    11.425385    23.104836    21.476289    21.757781    10796.344    657.69212   -257.97509   -365.44088   -79.582886    28.507163    2.0790338   -6670.0797 
 7550000    66.481063   -6847.6838   -6676.6653   -6847.6838            0     389.3903    23.202947    21.425258    21.693044    10784.245    693.25734   -104.02615    578.93971   -295.07653    353.61772   -335.46904   -6615.4231 
 7551000    66.568024   -6841.1793   -6669.9371   -6841.1793            0    426.06513    23.321712    21.288573     21.71618    10781.779    776.07409    605.23918   -103.11789   -146.84634   -468.63542    447.10459   -6602.9421 
 7552000     68.23855   -6859.6048   -6684.0653   -6859.6048            0  -0.81475115    23.383002     21.30993    21.671443    10798.666   -591.88999    419.16579    170.27995    -652.9744    99.084002    35.717916   -6684.1936 
 7553000    68.476822   -6859.3641   -6683.2116   -6859.3641            0   -111.46516    23.251376    21.434631    21.697253    10813.578    185.80821   -656.60978    136.40608   -439.57619    -73.89087    168.89553   -6700.7902 
 7554000    68.051897   -6849.0354    -6673.976   -6849.0354            0   -204.24655    23.176773    21.479373    21.720951    10813.179   -30.816781   -219.89469   -362.02819      -501.94    507.02321    48.021433   -6706.1855 
 7555000    66.756775   -6845.9601   -6674.2323   -6845.9601            0    -219.5234    23.178477    21.447265    21.768444    10821.418     -518.121    0.2205934    -140.6698     239.5168    472.25532    326.71392   -6708.8774 
 7556000    69.452617   -6845.2955   -6666.6329   -6845.2955            0   -237.86745    23.372195    21.348243    21.716742    10835.683   -850.98073    355.66624   -218.28787   -1066.4433   -88.384956   -332.94893   -6704.2224 
 7557000    66.352464   -6846.5874   -6675.8997   -6846.5874            0   -210.17565    23.389638    21.292357     21.68155    10797.857   -489.40171    687.20396    -828.3292   -453.04956    -380.7586    39.400181   -6708.9973 
 7558000    69.670742   -6858.3664   -6679.1427   -6858.3664            0    493.26336    23.255239    21.357923    21.704583     10780.31    150.43778    777.15389    552.19842   -161.82533     518.1634    16.780696   -6601.5919 
 7559000    66.654815   -6847.0205    -6675.555   -6847.0205            0   -114.22783    23.162617    21.496822    21.717906    10813.838    287.14658   -335.73154   -294.09852    420.26448   -29.842954   -485.60027   -6693.5697 
 7560000     63.62109   -6850.5427   -6686.8813   -6850.5427            0    391.96474     23.20139    21.427426    21.687112    10781.662    770.21823   -667.30331    1072.9793    37.123938   -155.83208    188.69478    -6625.249 
 7561000    65.832034   -6847.5888   -6678.2399   -6847.5888            0    506.58258    23.312961     21.32005    21.663476    10767.473    104.11777    606.93832    808.69166     256.2657   -93.382891    35.141741     -6598.69 
 7562000     65.63156   -6843.0721   -6674.2389   -6843.0721            0    589.73357     23.39889    21.238436    21.667292    10767.687   -607.93524    2096.7301    280.40582    466.07504   -282.32692   -284.86976   -6581.6297 
 7563000    66.593514    -6838.057   -6666.7492    -6838.057            0    295.54884    23.257442    21.362444    21.748512    10805.439    50.936069    437.41092    398.29953    96.793069   -500.11388    265.97131   -6620.1748 
 7564000    66.305021   -6850.8702   -6680.3046   -6850.8702            0       337.93    23.138662    21.441572    21.726742    10779.273    493.41196    336.68384     183.6942   -174.08555   -94.099045   -116.60806   -6627.1804 
 7565000    63.933662   -6854.6121   -6690.1467   -6854.6121            0    1.2542248    23.227924    21.508176    21.588745    10785.527   -379.31003   -269.89041    652.96311   -50.786912    239.96812   -296.87989   -6689.9494 
 7566000    66.775875   -6840.5423   -6668.7654   -6840.5423            0    54.547051      23.3351    21.408565    21.637023    10809.229    99.603875   -347.77259    411.80987    23.161829   -5.8972396    43.917826   -6660.1665 
 7567000    62.486667   -6850.4863   -6689.7431   -6850.4863            0   -313.93545    23.357748    21.248803     21.80162    10820.672    -422.0237    511.33635    -1031.119    299.44832    172.95719    14.569425   -6739.2848 
 7568000    65.564166   -6853.6617   -6685.0018   -6853.6617            0   -709.64721    23.255001    21.408508    21.776312    10841.443   -19.092562   -1512.5856   -597.26351   -705.31533   -1066.7578    634.83923   -6797.2051 
 7569000     65.26088   -6858.4723   -6690.5926   -6858.4723            0   -214.01183    23.150328    21.542284    21.689108    10816.595   -401.91135   -711.02742    470.90326    652.49816     135.8061    164.61126   -6724.3528 
 7570000    66.509342   -6851.5575   -6680.4663   -6851.5575            0   -3.1789756    23.225783    21.440952    21.679559    10796.049    314.60207   -713.58884    389.44984   -305.44848    249.60624    456.22523   -6680.9668 
 7571000    65.318901   -6846.2252   -6678.1963   -6846.2252            0    79.575863    23.345407    21.321908    21.691089    10797.144   -432.07824    645.07372    25.732113    337.49393    268.66594   -256.02859   -6665.6659 
 7572000    71.267694   -6846.2716   -6662.9398   -6846.2716            0    264.25804    23.336743    21.295419    21.725466    10796.812    198.16775    617.43495   -22.828572    -225.7144    -320.7351   -468.24845   -6621.3296 
 7573000    65.397624   -6852.6658   -6684.4344   -6852.6658            0    184.97231    23.124256    21.398555    21.794396    10784.426    422.97169   -81.351911    213.29716    42.640709    219.83219     199.7265    -6655.342 
 7574000    65.635864   -6848.0082    -6679.164   -6848.0082            0    462.63508    23.138577    21.428476     21.72321    10770.899    1007.2014    128.74406    251.95975    543.19442   -551.97409   -59.962747   -6606.4921 
 7575000    67.143984   -6849.0683   -6676.3445   -6849.0683            0    286.19298    23.273968    21.448559    21.613553    10789.336    -112.4972    147.59778    823.47837   -415.15046   -13.855748    223.60006   -6631.3116 
 7576000    67.440515   -6850.5697   -6677.0831   -6850.5697            0    620.05626    23.422498    21.268724    21.642331    10781.488   -356.70284    967.53522    1249.3364    99.868714   -880.10764    114.28724   -6579.5874 
 7577000    65.304256   -6851.3318   -6683.3405   -6851.3318            0    236.62181    23.343024    21.304581     21.69405    10788.741   -242.07844     923.2553    28.688572     1.580545    251.15306    173.48466   -6646.1098 
 7578000    70.031061   -6848.1246    -6667.974   -6848.1246            0   -319.66334    23.202831    21.459305    21.755398    10832.374    162.31492    -626.1727   -495.13224   -64.550548   -158.39332    359.03805   -6718.4741 
 7579000     65.39478   -6852.2348   -6684.0107   -6852.2348            0    62.893216    23.151334    21.522525    21.670666    10797.954    539.39228   -336.49204   -14.220593    792.98414   -91.770049    -669.2595   -6674.1064 
 7580000    65.502798   -6837.5828   -6669.0809   -6837.5828            0    161.25125    23.276503    21.399817    21.679265    10798.721   -322.67831   -141.81264     948.2447    512.41894    509.86999     71.97313   -6643.6857 
 7581000     67.62064   -6858.2346   -6684.2847   -6858.2346            0    -52.07607    23.283822    21.280976    21.804979     10804.42    -4.892733    35.914426    -187.2499    150.99462    210.39164    -192.7496   -6692.4904 
 7582000    66.026943   -6852.2372   -6682.3869   -6852.2372            0    775.67005    23.239442     21.31387    21.745907    10771.236    417.57505    1403.6292    505.80586    292.29858    104.43175   -9.5825749   -6560.5389 
 7583000     67.04654   -6850.8264   -6678.3533   -6850.8264            0    1049.3411     23.14805    21.465608    21.633134    10749.223    706.69995    742.61911    1698.7042   -979.93033    678.85992    128.95547   -6513.8519 
 7584000    69.926791   -6844.5763   -6664.6939   -6844.5763            0     689.6001    23.155474    21.431275    21.690146    10763.764    1353.2991    231.06703    484.43419    177.90354   -26.619928    544.77654   -6556.4416 
 7585000    65.826676    -6849.824   -6680.4889    -6849.824            0    605.78269    23.239376     21.31129    21.757401    10775.594    356.35748     1153.969    307.02154   -43.813375    452.75522   -676.37182   -6585.2896 
 7586000    69.656435   -6860.5055   -6681.3186   -6860.5055            0   -9.4311344    23.350081     21.22829    21.790838    10801.332   -521.80481    663.10197   -169.59056   -680.24635   -19.876024   -315.82577   -6682.8043 
 7587000    64.048576   -6851.9482   -6687.1872   -6851.9482            0    195.01014    23.300701    21.349847    21.686263    10788.187   -362.18474    178.22985    768.98532    744.68753    715.76633    566.00771   -6656.5053 
 7588000    65.572854   -6846.1466   -6677.4644   -6846.1466            0    410.01565    23.178332    21.493441    21.637884    10779.607    1042.3931   -406.06062    593.71451   -481.47773    499.15098    186.60409    -6613.006 
 7589000    63.104797   -6855.7315   -6693.3983   -6855.7315            0   -323.58184    23.165102    21.518078    21.703286    10818.404    244.87692   -778.59076   -437.03168    233.53041   -70.155961   -94.533256   -6744.4515 
 7590000    65.189014   -6849.6901   -6681.9953   -6849.6901            0    10.518305    23.251205    21.351508    21.772064    10808.704    86.864164    50.227674   -105.53692   -341.25544   -95.068887    200.65064   -6680.3373 
 7591000    63.183246   -6851.0493   -6688.5142   -6851.0493            0    355.02257    23.383201    21.263044    21.694196    10786.312   -772.64772    1390.9931    446.72235   -141.18395    322.26431   -487.84645   -6632.6666 
 7592000    65.784448   -6846.5168   -6677.2903   -6846.5168            0    155.74963    23.308926    21.366736    21.696854    10805.807     329.4773    304.66959   -166.89799   -87.784383   -220.05306   -5.5279297   -6652.7455 
 7593000    66.230425    -6850.574   -6680.2002    -6850.574            0   -693.69289    23.211416    21.479799    21.729284    10833.711   -240.93402   -1540.6664   -299.47826    81.993559    443.74785    409.46378   -6789.8027 
 7594000    64.011256   -6840.1445   -6675.4794   -6840.1445            0   -93.167803    23.108964    21.541976    21.735169    10820.044    806.20746   -649.11858   -436.59228    -190.9491    91.585026   -219.45252   -6690.1812 
 7595000    65.229298   -6856.0282   -6688.2298   -6856.0282            0    293.68015    23.279017    21.343476     21.72007    10791.728    65.070247    651.07952    164.89067    -426.4692    474.66698   -441.80045   -6642.0086 
 7596000    67.309518   -6842.9284   -6669.7787   -6842.9284            0    616.28749    23.380117    21.232708    21.714052    10779.359   -125.76704    1477.2335      497.396    76.254585    605.01538    188.45537   -6572.8947 
 7597000    65.879212    -6850.203   -6680.7327    -6850.203            0    466.67235    23.361859    21.304277    21.664896    10782.782   -357.29573    597.65975     1159.653    -506.5204     536.1207    346.11605   -6607.3458 
 7598000    64.376972     -6856.87   -6691.2642     -6856.87            0   -213.74685    23.190551    21.501061    21.673348    10806.796    534.65622   -1187.8541    11.957337    489.18969    312.02559     277.6913    -6724.952 
 7599000    67.070788   -6849.7526   -6677.2171   -6849.7526            0    229.97898    23.121802     21.47384     21.73397    10791.218     899.8926   -407.27031    197.31465     284.2236    120.09809   -41.280186   -6641.0233 
 7600000    67.022397   -6857.6229   -6685.2119   -6857.6229            0     204.8193    23.203061    21.317928    21.807659    10786.966      718.875    115.32782   -219.74491   -298.61359   -317.22848    208.93383   -6652.9903 
 7601000    62.718506   -6848.8976   -6687.5581   -6848.8976            0    740.37003    23.366758     21.27235     21.66206     10767.47    -308.0365    1480.1701    1048.9765   -104.26893    117.54015   -62.510761   -6571.2959 
 7602000    65.796738    -6850.559   -6681.3009    -6850.559            0    339.11287    23.280771    21.344397     21.68559    10775.874    270.81882    318.26418    428.25561   -502.20378   -163.70014    171.84479   -6628.0076 
 7603000    67.119934   -6843.9902   -6671.3283   -6843.9902            0    536.67528    23.119004     21.43056    21.762219    10782.161     1332.971    12.600996     264.4538    571.61031    5.7764285   -185.20497   -6586.9379 
 7604000    68.740681   -6852.4221   -6675.5908   -6852.4221            0    854.41038    23.122889    21.486313    21.661095    10761.787    984.52336    125.03996    1453.6678   -51.244636    388.64729    368.57735   -6541.4914 
 7605000    68.042963   -6850.9105   -6675.8741   -6850.9105            0   -114.13815    23.292072    21.370551    21.707231    10805.087   -614.79576    25.999394    246.38192   -346.46881    295.75141    451.82232   -6693.8601 
 7606000    67.429482   -6855.7132    -6682.255   -6855.7132            0   -457.64161      23.4124    21.246302    21.753814    10820.933   -406.02048   -103.29522   -863.60913   -397.56341   -542.62041    190.63517   -6754.4764 
 7607000    67.215974    -6854.276    -6681.367    -6854.276            0   -189.39325    23.332176    21.317691    21.754252    10820.306   -843.63249    358.58683    -83.13408    -93.02513    565.67906     81.32974   -6711.2539 
 7608000    64.852904   -6847.4137   -6680.5836   -6847.4137            0    191.10499    23.181628    21.459578    21.708125    10799.097     509.0598     163.0637   -98.808532   -156.27526    228.18958     32.22395   -6650.4857 
 7609000    65.926973   -6854.0083   -6684.4152   -6854.0083            0    174.31042    23.145813    21.501457    21.688908    10793.891    140.58334    93.316832     289.0311    675.36604    423.62783   -495.58757   -6656.9756 
 7610000    64.703493   -6851.8893   -6685.4435   -6851.8893            0    197.53287    23.198833    21.356005    21.793435    10797.217    769.25932   -123.91581   -52.744912    -230.9981    362.49477    325.96551   -6654.3387 
 7611000    66.125019   -6847.3867   -6677.2841   -6847.3867            0    421.96796    23.303169    21.288383    21.763365    10796.518    362.97945      1013.39   -110.46551    188.54087   -79.876263   -159.97583   -6610.8427 
 7612000    68.146778   -6854.3442   -6679.0408   -6854.3442            0    415.14549    23.348176     21.33689    21.643771    10782.439   -23.316704    427.17776    841.57542    75.735741    355.20147    323.49558   -6613.7588 
 7613000    65.790453   -6848.2982   -6679.0563   -6848.2982            0    216.32909    23.251405    21.452695    21.636621    10792.461    155.55922   -501.36666    994.79472   -230.41441    387.54372    438.44923   -6645.0067 
 7614000    66.941338   -6846.1775    -6673.975   -6846.1775            0   -391.08919    23.141772    21.438353    21.820509    10825.623    291.72113   -469.51055   -995.47815    28.708503   -205.95621    51.545002   -6735.7204 
 7615000    69.604381   -6853.5266   -6674.4735   -6853.5266            0   -387.43542    23.240825    21.404144    21.743163    10816.136    186.26832   -663.37844   -685.19615   -226.10544    -61.87566    257.96378   -6735.5885 
 7616000    63.896332   -6854.0002   -6689.6307   -6854.0002            0    743.93366    23.376285    21.318087    21.596145    10762.173    195.78645    1018.7992    1017.2153   -185.69597   -32.534578   -328.90292   -6572.8664 
 7617000    63.591152   -6859.8861   -6696.3017   -6859.8861            0    842.73618    23.331553    21.304991    21.615143    10744.423    415.56023    642.55913    1470.0892   -123.06759    45.285712    101.03602    -6564.248 
 7618000    64.784055   -6853.4551   -6686.8021   -6853.4551            0    493.84975    23.142619    21.433826    21.736377    10782.001    1111.5449   -93.148608    463.15294    367.24588   -400.89036    423.21866    -6609.147 
 7619000    66.480532   -6852.8757   -6681.8586   -6852.8757            0    110.25064    23.154987    21.452142    21.755351    10806.406    1244.0447   -734.54402   -178.74878   -29.957376   -534.41093    90.142821    -6664.483 
 7620000    62.994498   -6842.9786   -6680.9291   -6842.9786            0     370.3877    23.304014    21.358809    21.676164    10789.224    307.72464     402.8448    400.59366   -314.41153    -43.16048   -66.649858   -6622.6487 
 7621000    66.846034   -6852.5772   -6680.6198   -6852.5772            0    945.67669    23.390564     21.24677    21.646619    10757.806   -165.08472    1741.4696    1260.6451    184.35717    231.69612    123.98123   -6532.2511 
 7622000    68.330648   -6843.4408   -6667.6644   -6843.4408            0    79.958813    23.271703    21.333657    21.740241    10793.389   -659.51412    697.53688    201.85368   -79.380626    831.23832    528.63542    -6655.078 
 7623000    65.576053   -6849.5689   -6680.8785   -6849.5689            0    286.25672     23.17425    21.426396    21.745084    10797.318    387.14882    765.60016   -293.97882   -235.19043   -323.19651   -392.06064   -6635.8023 
 7624000    67.179273   -6848.8173   -6676.0027   -6848.8173            0   -178.58812    23.182209    21.437033    21.735012    10801.383     85.91964   -401.81305   -219.87094    12.840249    396.06676   -65.624057   -6704.1351 
 7625000     69.11767   -6849.6846   -6671.8836   -6849.6846            0   -72.972269    23.294261    21.398379    21.667013    10800.127   -544.66652   -398.59933    724.34904    275.78891     742.1017    253.60927   -6683.3774 
 7626000     67.85762   -6854.5689   -6680.0093   -6854.5689            0   -152.01424    23.401441    21.285143    21.708741     10813.19   -843.89139    1027.2606   -639.41197   -112.65373    256.62444   -438.54729   -6703.9819 
 7627000    66.151904   -6851.8797    -6681.708   -6851.8797            0   -326.57555    23.262924     21.39391      21.7238    10811.608   -135.20025   -646.71089   -197.81552   -399.40731     14.78819    275.58499   -6733.2012 
 7628000    64.101339   -6843.8353   -6678.9385   -6843.8353            0    398.17957    23.108125    21.455232     21.75856    10787.681    789.25499    579.31533   -174.03162   -397.14306    5.1261004    210.08305    -6616.294 
 7629000    69.655093   -6846.3284   -6667.1449   -6846.3284            0   -20.056909    23.229182    21.435937    21.697442    10804.009   -147.86289    255.82345   -168.13129   -110.79144    123.80429    434.52711   -6670.3052 
 7630000    62.649463   -6852.4179    -6691.256   -6852.4179            0    359.84043    23.348583    21.298457    21.682203    10782.317    315.58509    601.68658    162.24963   -187.29949   -254.79275   -134.53531   -6634.6714 
 7631000    65.008076   -6856.4905   -6689.2612   -6856.4905            0   -141.82921    23.297159    21.297696    21.779662    10806.541   -445.84455     196.2232   -175.86629    649.21919     668.5309   -50.843435   -6711.6138 
 7632000    69.485423     -6850.42    -6671.673     -6850.42            0    372.13566    23.244061    21.388697    21.693842    10785.314    354.01305    273.22656    489.16737    162.17791    135.33824    128.47237   -6613.1388 
 7633000     69.00929   -6852.5283   -6675.0061   -6852.5283            0     679.6937    23.229956    21.454051    21.607801    10768.824      905.903   -34.941371    1168.1195    -847.6024    151.13301    -306.0744   -6568.2587 
 7634000    63.796585   -6853.7895   -6689.6767   -6853.7895            0   -100.34181    23.225826    21.428875    21.704582    10802.443    297.97793   -393.84412   -205.15923    289.64147   -724.48915    175.40631   -6705.4848 
 7635000    64.788382   -6854.4756   -6687.8115   -6854.4756            0    48.262219    23.271926    21.362385    21.729048    10802.463    188.97992   -259.13675    214.94349   -100.68237   -428.07089    515.24365   -6680.2081 
 7636000    69.680021   -6849.8205   -6670.5729   -6849.8205            0   -283.95728    23.358984    21.320825    21.713773    10814.171   -492.99797    158.40947   -517.28335    756.59418   -516.11966   -310.79197   -6715.3568 
 7637000    68.293938    -6857.509    -6681.827    -6857.509            0     50.22425    23.271697    21.343742    21.732611    10794.699   -188.01252    904.69656    -566.0113    480.19831   -52.903758   -216.98656   -6673.9203 
 7638000    64.608619   -6853.0549   -6686.8532   -6853.0549            0    554.22245    23.222547    21.390104    21.674447    10766.406    107.69917    674.09134    880.87684    361.03369    619.58731     452.6983   -6599.8308 
 7639000    66.477348   -6853.2724   -6682.2634   -6853.2724            0    770.18801     23.20736    21.450315    21.624703    10764.889    827.60917    351.60043    1131.3544   -70.996325   -794.26089   -3.2678685   -6561.3479 
 7640000    65.268085    -6847.791   -6679.8928    -6847.791            0   -28.691729    23.290053    21.348713    21.716882    10797.908   -570.77337    424.80921    59.888973   -195.92813   -500.88646    203.29323   -6684.4111 
 7641000    63.997124   -6848.2176   -6683.5889   -6848.2176            0    65.628806    23.324138    21.274619    21.756261    10795.721   -28.403824    467.32253   -242.03228   -93.229136   -313.24029    97.836375    -6673.256 
 7642000    65.203384   -6845.8404   -6678.1086   -6845.8404            0   -422.17344    23.226228    21.436208    21.742868    10825.388    64.264957   -934.31992   -396.46537   -50.249855   -470.28868   -407.66288   -6744.7602 
 7643000    65.158426   -6845.4444   -6677.8283   -6845.4444            0    148.38036    23.246986    21.454448    21.651677    10798.801   -363.42912    593.55824    215.01196    843.75659    306.20755   -135.23408     -6654.46 
 7644000    65.999913   -6851.4321   -6681.6513   -6851.4321            0    25.063362    23.284669    21.329421     21.72281    10788.601   -14.963081     195.5482   -105.39504    574.81053   -6.8333054     453.9605   -6677.7078 
 7645000    66.797753   -6841.1185   -6669.2853   -6841.1185            0   -158.34239    23.354592     21.30326    21.752601    10822.549   -760.27921    489.01307   -203.76103   -630.98592    399.39002    161.68314   -6694.2774 
 7646000    65.418357   -6849.6604   -6681.3756   -6849.6604            0    496.22141    23.228759    21.413173     21.69708    10792.159    484.42648     351.6243    652.61345   -215.08338   -457.68753   -215.06181   -6603.2741 
 7647000    66.095994   -6855.6354   -6685.6075   -6855.6354            0     621.0982    23.147284    21.444669    21.687511    10765.374    1067.4461    133.78107    662.06738   -391.28121    296.61395    259.45431   -6588.0938 
 7648000     65.86226    -6856.443   -6687.0163    -6856.443            0    382.09594    23.193694    21.397021    21.725521    10781.853    1379.0042   -347.76664    115.05026   -397.31574    56.915881    388.72163   -6626.9347 
 7649000    66.980553   -6842.2372   -6669.9338   -6842.2372            0    413.95589    23.328094    21.287571    21.732104    10792.129   -515.14477     1131.019    625.99346   -236.21372    271.66684   -352.81649   -6604.7804 
 7650000    64.658118   -6848.1739   -6681.8448   -6848.1739            0    192.45995    23.323715    21.290272      21.7351     10792.96   -231.05766    642.27964    166.15788   -281.61098   -40.460286   -108.31011   -6651.5508 
 7651000    66.143167    -6840.426   -6670.2767    -6840.426            0    439.29511    23.205934    21.404578    21.708139     10782.72    -99.28444    862.21654    554.95323    729.30704    386.48241    209.72289   -6601.1954 
 7652000    67.244385   -6858.1306   -6685.1486   -6858.1306            0    234.68468    23.092269    21.577214    21.610877    10767.983    787.26886    -1360.527    1277.3122   -280.62598    74.359486    170.92296   -6648.2937 
 7653000     68.38316   -6847.2068   -6671.2953   -6847.2068            0    427.39779    23.290124    21.361886    21.679522    10786.017    626.06103    359.93584    296.19651    117.70827    -448.4089   -414.08534   -6604.0643 
 7654000    65.579442   -6847.0217   -6678.3225   -6847.0217            0    497.42586     23.30442    21.222811    21.798129    10781.034    553.92083    1259.9248   -321.56804     168.2176   -512.13429     44.08504   -6600.1121 
 7655000    64.326256   -6851.6792   -6686.2039   -6851.6792            0    61.463645    23.252523    21.323202    21.806444    10812.033    158.97791    264.50078   -239.08775    137.50247   -248.95744    521.52942   -6676.5121 
 7656000    62.557539   -6854.2552   -6693.3297   -6854.2552            0    357.29941    23.149545    21.476518    21.689156    10783.233    877.63764     13.39292    180.86769    207.64442    7.3005401   -422.16731   -6637.1399 
 7657000    66.782436   -6855.2855   -6683.4917   -6855.2855            0    215.87419    23.210265    21.458186    21.668914    10792.206    249.44398   -32.051798     430.2304    454.55054    223.02915   -34.457232   -6649.5146 
 7658000    65.492453   -6853.9827   -6685.5074   -6853.9827            0    285.70505    23.324079    21.326569    21.692261    10790.221    356.83371    498.66439    1.6170631   -559.55014    22.798657   -230.09124   -6640.5476 
 7659000     67.03837   -6851.4486   -6678.9965   -6851.4486            0    253.50837    23.328904    21.282694    21.708566    10778.345     179.5589    357.27476    223.69146   -308.81619    -147.6669    296.78905   -6639.1472 
 7660000    65.532153   -6850.4663   -6681.8888   -6850.4663            0     426.8619    23.275569    21.380447     21.68062    10789.189    658.03924     190.2031    432.34336   -269.08119   -96.829207   -26.959234   -6614.7224 
 7661000    66.294975   -6859.2895   -6688.7498   -6859.2895            0    291.34143    23.195268    21.484802    21.639641    10784.023   -103.68172   -340.17928    1317.8853    150.49384    84.898668    851.11936   -6642.9293 
 7662000    67.215281   -6852.5294   -6679.6222   -6852.5294            0    292.09046    23.211013    21.434238    21.683699    10787.865    477.52782    94.947091    303.79648   -202.63735   -64.955266    265.56925   -6633.6676 
 7663000    65.680299   -6850.2627   -6681.3042   -6850.2627            0   -384.00089    23.295371    21.367212    21.734077    10818.292   -709.11854    384.63094   -827.51506     355.4225   -72.486669   -448.41998   -6741.8894 
 7664000    66.669712   -6858.2061   -6686.7024   -6858.2061            0    511.74778     23.34891    21.240472    21.743479    10783.501   -103.04109    874.39673    763.88769   -419.15384     212.8676   -211.21439   -6606.2217 
 7665000    67.490907    -6854.069   -6680.4528    -6854.069            0   -224.82985    23.292445    21.367432    21.721278    10810.674   -281.73418    26.871396   -419.62676   -190.58636    209.16358    334.51786   -6715.9001 
 7666000    69.271625   -6849.4603   -6671.2633   -6849.4603            0    -150.9863    23.147143    21.534787    21.657967    10795.821    421.18552   -1007.5009    133.35651    81.382947    81.007475    361.66246   -6695.0354 
 7667000    66.872823   -6853.2322   -6681.2059   -6853.2322            0   -261.83076     23.16332    21.519759    21.698674    10816.118    424.54982   -1032.8231   -177.21898    386.99986       228.27    -41.66588   -6722.5076 
 7668000      68.7581   -6848.8309   -6671.9549   -6848.8309            0   -298.59294    23.306773     21.33133    21.768427    10822.488    -976.7953    52.201652    28.814818   -18.912056    551.26144    123.36749   -6719.0833 
 7669000    71.459306   -6849.8693   -6666.0446   -6849.8693            0   0.86105782    23.415946    21.251305    21.733113    10814.819   -952.97374    1200.1472   -244.59031    131.70711   -20.488974   -222.00405   -6665.9088 
 7670000    64.596661   -6849.1117   -6682.9407   -6849.1117            0   -273.05763    23.303049    21.419722    21.674814    10818.871   -313.17969   -581.95958    75.966374    -594.1491   -451.29272    77.967453   -6726.0243 
 7671000     65.59478   -6849.3332   -6680.5946   -6849.3332            0    188.80331    23.207395    21.457527    21.681734    10796.925    434.26237    53.872405    78.275162    72.086805    292.19094   -92.818381   -6650.8652 
 7672000       64.632   -6844.8412   -6678.5793   -6844.8412            0   -94.884692    23.174737    21.485241    21.714178    10811.811    412.94828   -557.99575   -139.60661   -59.267479    -4.765934    502.24426   -6693.5406 
 7673000    66.313675   -6854.1018   -6683.5139   -6854.1018            0    99.041776    23.296242    21.332863    21.763489    10815.921   -310.65338    1052.4395   -444.66076   -28.270569   -9.9511049   -491.12436   -6667.8912 
 7674000    65.366643   -6854.3576   -6686.2059   -6854.3576            0   -6.3055791    23.395607     21.20515    21.780975    10805.702    -528.5281    234.99051    274.62085   -26.340083   -316.94716     108.4793   -6687.1996 
 7675000     63.45175    -6840.914   -6677.6882    -6840.914            0    558.53323    23.272048    21.365425    21.662211    10770.824    311.65846    842.90879    521.03244     65.11765     179.9217   -210.28499    -6589.953 
 7676000    65.176815   -6853.8085   -6686.1452   -6853.8085            0    754.01681    23.166372    21.430627    21.657788    10752.439    491.61421    484.47969    1285.9565    305.80394    369.12012      15.6136   -6567.9053 
 7677000    67.954791   -6843.3179   -6668.5084   -6843.3179            0     273.2151    23.145321    21.413825     21.76526    10787.513    1307.7968   -395.04578   -93.105735   -263.42441   -167.74461    52.375343   -6625.5249 
 7678000    66.974834   -6847.4823   -6675.1936   -6847.4823            0   -20.501085    23.305332    21.322197     21.76406    10815.016    190.87432    13.485793   -265.86337   -218.13087   -13.067941   -139.68653   -6678.4271 
 7679000    67.782506   -6854.5312   -6680.1649   -6854.5312            0   -481.39469    23.345239    21.322877    21.725248     10814.56    -992.0424   -186.23698   -265.90468    758.19579   -200.87199    527.18306   -6756.0901 
 7680000    65.749547   -6846.1315   -6676.9948   -6846.1315            0    91.647006    23.322126    21.399183    21.632896    10796.426   -1250.1235    485.40288    1039.6617   -182.15726   -91.936172    218.39193   -6662.5645 
 7681000     65.54416   -6849.4378   -6680.8295   -6849.4378            0   -67.203038    23.264552    21.498935    21.632539    10819.798   -74.389159   -422.65007    295.43011    34.549534   -721.74557   -22.663187   -6691.4338 
 7682000    67.731496   -6848.1129   -6673.8778   -6848.1129            0    321.78231    23.161939    21.395249    21.808606    10807.374    998.69312    566.75206   -600.09825    49.572126    78.847801    100.17074   -6623.1602 
 7683000    66.894232   -6858.6801   -6686.5988   -6858.6801            0    101.37103    23.245023    21.337439    21.789464     10807.34    642.83213    305.94123   -644.66028    96.294875   -1041.3835   -140.33705   -6670.6213 
 7684000    65.281236   -6854.1389   -6686.2069   -6854.1389            0    743.34474    23.366417    21.328084     21.59478    10761.994    339.05304     700.5824    1190.3988    -246.2264    478.00843   -292.58724    -6569.537 
 7685000    67.520388   -6847.8103   -6674.1182   -6847.8103            0    451.97236    23.306809    21.387289    21.613486    10773.663   -43.142091    842.76974    556.28943    176.00126   -72.976505   -75.980252   -6603.1031 
 7686000      66.8359   -6845.9721   -6674.0408   -6845.9721            0    1006.5266    23.170644    21.342526    21.771512    10766.449    1112.9929    1211.2054    695.38156    461.44186   -279.17767      387.362   -6515.9984 
 7687000    64.590051   -6856.3711   -6690.2172   -6856.3711            0    629.18772    23.148983    21.379728      21.7804    10779.533    1172.9801    430.84636    283.73669    216.73913   -550.60648    437.84878   -6591.3035 
 7688000    66.928976   -6843.5844   -6671.4137   -6843.5844            0    85.395144    23.319624    21.386292    21.685799    10815.148    355.45613   -99.891153   0.62045647    42.984672   -425.53964   -579.14143   -6657.9445 
 7689000    64.410283   -6857.3298   -6691.6382   -6857.3298            0    448.60651    23.305208    21.323903    21.673461      10770.8    6.4429067    1092.8115     246.5651   -548.41222    352.08322    511.16621   -6621.1707 
 7690000    68.757137   -6842.3306   -6665.4571   -6842.3306            0     365.4631    23.261822    21.358844     21.72095    10791.959    229.15488    889.94957   -22.715152   -185.58596   -17.695849    352.96385    -6607.937 
 7691000    66.791135   -6844.1586   -6672.3425   -6844.1586            0    485.39216    23.182143    21.467235    21.700401    10799.346    792.39446    102.17004      561.612   -602.34863   -155.58906   -343.87831   -6595.8945 
 7692000    67.817469   -6850.0084   -6675.5521   -6850.0084            0    347.65983    23.096715    21.475558    21.747976    10787.319    1376.0132   -192.18892   -140.84481   -330.22595     398.9824    -192.0376   -6620.8576 
 7693000    67.136284   -6856.5321   -6683.8281   -6856.5321            0    1149.7698    23.247372    21.316833    21.681433    10744.459    413.84517    1941.4493    1094.0148    569.89368    192.36632    24.839474   -6503.6627 
 7694000    64.495726    -6844.376   -6678.4647    -6844.376            0    600.27425    23.332455    21.299102    21.651752    10760.062    363.94086    708.87798    728.00391    365.63999   -411.45425   -319.07185    -6584.267 
 7695000     68.36494   -6850.4092   -6674.5446   -6850.4092            0    650.73026    23.271086    21.341565    21.690794    10772.546   -85.512625    1093.3491    944.35427    263.54406   -190.48003    83.905988   -6572.3106 
 7696000    66.079622   -6852.9324   -6682.9466   -6852.9324            0    110.39815     23.15007     21.41282    21.768384    10790.768    404.63726    522.57088    -596.0137   -148.39696    141.02015    -68.76241    -6665.573 
 7697000    66.249503   -6847.4923   -6677.0695   -6847.4923            0    143.01144    23.190163    21.421507    21.720595    10790.101     212.6856    368.76828   -152.41955   -433.00809   0.65813164    -322.5801   -6654.5649 
 7698000    67.144286   -6847.5147   -6674.7902   -6847.5147            0    1059.1693    23.306478    21.322344      21.6439    10755.909    343.43824    1345.9692    1488.1005    -20.99985    93.191125    32.263613   -6508.6447 
 7699000     67.99043   -6850.9504   -6676.0491   -6850.9504            0    358.56919    23.330282     21.26069    21.743559    10785.194   -582.27036    1235.1815     422.7964    558.10955    216.82632   -22.765986   -6619.6494 
 7700000    66.348881   -6856.5448   -6685.8663   -6856.5448            0    270.49535    23.255329    21.352843    21.724475    10787.666    280.34528     427.9847    103.15607    665.49628    365.17437    94.590734   -6643.3101 
 7701000    66.531838   -6850.7277   -6679.5786   -6850.7277            0    489.53202    23.147837    21.464064    21.686514    10774.872    1390.6863   -32.021648    109.93135   -178.76268   -6.3276186   -783.89458   -6602.6533 
 7702000    69.670918   -6859.1883   -6679.9641   -6859.1883            0    683.33517    23.128919    21.407364    21.729292    10758.807    1215.0781    276.00393    558.92352     241.2928     310.4891   -113.90324   -6572.7446 
 7703000    65.012307   -6858.8151   -6691.5749   -6858.8151            0    454.58164    23.257901    21.337757     21.70229    10770.226    713.05221    42.976974    607.71574   -397.35269    3.3459475    275.72567   -6620.1725 
 7704000    67.300826   -6855.0305   -6681.9032   -6855.0305            0    648.46904    23.338809    21.293808    21.663561    10766.186    269.23318    524.76645    1151.4075   -130.82444    680.61027    531.24306   -6580.0846 
 7705000    65.532845   -6853.8716   -6685.2923   -6853.8716            0    384.99512    23.289704    21.337769    21.685945    10776.837    109.06999    533.21301    512.70235   -730.65577   -210.84542     186.2237    -6624.783 
 7706000    62.628608   -6849.5197   -6688.4115   -6849.5197            0    643.62924    23.137334    21.396434    21.763155     10773.99    930.17278    786.71272    214.00221   -131.99778    325.34662   -95.308897   -6587.2796 
 7707000    65.682259    -6856.432   -6687.4684    -6856.432            0    315.95023    23.200756     21.41351    21.713772    10787.611    579.92334    792.42741   -424.50005   -614.00069    204.16929   -499.31887   -6637.7612 
 7708000    65.084036   -6844.9435   -6677.5188   -6844.9435            0     12.61308    23.283437    21.404639    21.675108      10802.3   -470.95316    228.66589     280.1265   -469.65741    505.76947    340.10649   -6675.5317 
 7709000    67.376672   -6847.0279   -6673.7055   -6847.0279            0    514.28923    23.318449    21.269389    21.766704    10795.614    601.19158    863.74868    77.927426    328.57187    484.35153    222.05451   -6592.7343 
 7710000    66.350829   -6852.1718   -6681.4884   -6852.1718            0    355.74974    23.278393    21.309126    21.756213        10792    436.63967    597.36487    33.244666   -380.33368     283.0779    59.402592   -6625.4968 
 7711000    66.865125   -6848.2155    -6676.209   -6848.2155            0    708.56768    23.158032    21.453223    21.671206    10766.568    692.32472     993.8662    439.51211   -260.66473    325.09599   -805.03561   -6564.9502 
 7712000    65.619541   -6853.7697   -6684.9675   -6853.7697            0    419.50261    23.102409    21.486968    21.693787    10768.811    1310.7669   -503.44417    451.18513   -422.31026   -444.74308    116.83508   -6619.0837 
 7713000    65.622655    -6850.189   -6681.3787    -6850.189            0    389.98538     23.20217    21.388544    21.723959    10780.746    740.65038    460.45407   -31.148319    67.117237   -212.48974    260.92468   -6620.0628 
 7714000    68.743429   -6856.0519   -6679.2136   -6856.0519            0    391.62411    23.333866    21.273423    21.685312    10764.399    -76.58921     571.8738    679.58775   -3.4156768    7.9095673    -429.7001   -6617.7335 
 7715000    64.757367   -6856.9286   -6690.3443   -6856.9286            0    582.48853    23.283662    21.297641     21.72603    10773.657    522.18056    745.37745    479.90758   -13.494475    135.22192   -158.64075   -6598.8221 
 7716000    68.308842   -6856.7886   -6681.0682   -6856.7886            0    180.13295    23.218263    21.381689    21.748575    10796.986    727.90991    492.85007   -680.36115    266.18926    302.87787   -270.15851    -6652.704 
 7717000    67.477287   -6855.0387   -6681.4574   -6855.0387            0   -236.64556    23.170987    21.571976    21.608676    10800.967    22.561681   -1509.1879    776.68959   -387.65146    520.35936   -14.367172   -6718.7341 
 7718000    64.956673   -6841.9297   -6674.8326   -6841.9297            0    -187.9515    23.247385    21.426079    21.716037    10816.765   -688.40591   -125.76838     250.3198    275.80526   -11.316303    364.15565   -6704.4823 
 7719000    65.145106   -6849.9447   -6682.3629   -6849.9447            0   -403.58396    23.334568    21.279527    21.797839    10823.686   -1090.6637    425.00255   -545.09074   -245.93207   -436.75669    56.136828   -6746.0696 
 7720000    63.124476   -6853.3283   -6690.9444   -6853.3283            0   -315.13866    23.276615    21.374091    21.728724    10810.398    -281.3519   -429.61059   -234.45349    -140.5181   -4.9478158    174.41917   -6740.6287 
 7721000    61.655936   -6841.6316   -6683.0254   -6841.6316            0   -552.65434    23.241363    21.522444    21.643558    10826.345   -631.74273   -1491.4192    465.19889    154.55455     173.0979    612.69159   -6770.2846 
 7722000    66.393786   -6857.4924   -6686.6984   -6857.4924            0    70.387302     23.18439    21.479029    21.694368    10803.322    193.50077    -83.49696     101.1581    517.93022    550.93768    260.04947   -6675.6085 
 7723000    66.648785   -6856.8521   -6685.4021   -6856.8521            0   -137.07726    23.238775    21.345982    21.779081    10803.611    282.69742   -370.17214   -323.75706   -220.02797    196.16452   -89.697689        -6707 
 7724000     68.06045   -6846.8154    -6671.734   -6846.8154            0    396.47137    23.296095     21.27555    21.777928    10793.952    706.74264    735.22335   -252.55189   -215.80739   -244.33624   -663.04926    -6609.322 
 7725000     65.21077   -6851.7309   -6683.9802   -6851.7309            0    142.30944    23.298021    21.317755    21.729036    10791.976    146.37853   -21.546442    302.09624   -477.91418   -180.38863    573.39485   -6661.5821 
 7726000    64.741323   -6848.3055   -6681.7624   -6848.3055            0    97.107911    23.190764    21.404665    21.740357    10791.708    734.00146    -140.4914   -302.18633    559.24573   -152.60732    220.10217    -6666.479 
 7727000      68.6781   -6841.5769   -6664.9067   -6841.5769            0    33.425499    23.182837    21.496314    21.678811    10803.539    20.390321   -226.36216    306.24834     28.83166    93.647348    223.08016   -6659.6402 
 7728000    71.448712   -6850.3803   -6666.5828   -6850.3803            0   -392.87013    23.279975    21.409269    21.701362    10816.116   -41.740062   -886.17269   -250.69766   -444.86317     217.4149    -87.52304   -6728.5549 
 7729000    66.575866   -6847.0561   -6675.7937   -6847.0561            0     447.2021    23.278108    21.277004    21.757966    10776.468    1062.2535    281.52918   -2.1763471    186.16952    46.727715    336.31645   -6605.5098 
 7730000    69.232846   -6848.1299   -6670.0326   -6848.1299            0    307.70409    23.279876    21.305867    21.760915    10793.369    149.96357    745.78148    27.367205   -746.90257    520.80958   -419.82343   -6621.5969 
 7731000    68.247097   -6846.1676   -6670.6061   -6846.1676            0   -607.60139    23.204116     21.52453    21.682355    10829.419    -221.5944   -1399.8596   -201.35023    16.926327   -225.28869   -25.486735   -6766.5682 
 7732000    66.129974   -6846.6026   -6676.4873   -6846.6026            0    171.04403     23.21747    21.427925    21.678435    10785.069    460.36942   -200.06721    252.82989    517.72117    240.93566   -143.92266   -6649.5839 
 7733000    65.088718   -6852.4004   -6684.9637   -6852.4004            0    146.84117    23.266553     21.36198    21.714718    10792.642   -290.30965    263.50472    467.32845   -467.43471    203.91387    67.971556   -6661.8509 
 7734000    68.434773   -6854.4273    -6678.383   -6854.4273            0    216.72715    23.327292    21.272573    21.763313    10799.642    204.62554    758.04427   -312.48836   -592.49047   -657.29902    -511.1996   -6644.2481 
 7735000    65.847902   -6850.8984   -6681.5087   -6850.8984            0    248.98907     23.26958    21.339977    21.723058    10787.069    521.15409   -171.40159    397.21472    -797.9887   -202.98437    635.13289   -6642.3381 
 7736000    65.132087   -6849.8208   -6682.2724   -6849.8208            0   -30.385292     23.20948    21.478891    21.657659    10796.644    61.745632   -676.46664    523.56513    41.160056    -225.4842    111.72788   -6687.0568 
 7737000    64.612438   -6852.1172   -6685.9056   -6852.1172            0   -169.62344    23.213694    21.489022    21.643606    10796.687    2.2332176    -827.9334    316.82985    310.53187   -408.91973   -359.10127   -6712.6143 
 7738000     65.13346   -6837.2926   -6669.7407   -6837.2926            0   -341.44921    23.243044    21.347811    21.825536    10829.572    93.368721   -136.46251   -981.25384    231.67743    314.65719   -72.567833   -6723.6686 
 7739000     64.19162    -6846.214    -6681.085    -6846.214            0   -22.715299    23.269019    21.299591    21.825527     10817.18    -22.49803   -44.606007   -1.0418603    258.48077    218.63457    595.95207   -6684.6685 
 7740000    68.280753   -6851.5154   -6675.8673   -6851.5154            0   -372.92765    23.342424     21.33573    21.716592    10815.464   -544.03316   -311.15762   -263.59216   -163.17758   -581.69795   -197.28556   -6734.6901 
 7741000    66.235368    -6853.875   -6683.4886    -6853.875            0    -244.4124    23.235451    21.514756    21.612793    10804.345   -307.77279   -1143.6624    718.19804    388.09207    313.85293    390.66512   -6722.0007 
 7742000     66.27633   -6855.8375   -6685.3457   -6855.8375            0    204.44994    23.178504    21.437929    21.730166      10797.7   -29.287019    809.58788   -166.95105    175.33435    59.171183   -171.89773   -6653.1503 
 7743000     64.60107   -6843.0896   -6676.9072   -6843.0896            0    130.27441    23.255836    21.349439    21.792984    10820.196   -78.327942    346.01404    123.13713   -239.55361    156.84725    33.510386   -6656.3498 
 7744000    64.782052   -6847.5735   -6680.9257   -6847.5735            0   -57.698339    23.403824     21.25908    21.723294     10808.29   -999.68381    1181.7923   -355.20348    183.25879   -326.89486   -271.39831   -6690.0205 
 7745000    67.602925   -6841.0109   -6667.1065   -6841.0109            0      393.644    23.287821    21.381998     21.67923    10794.959   -314.34492    868.12639    627.15052    504.11827   -362.83293    79.932905   -6605.1338 
 7746000    64.925772   -6851.4421   -6684.4245   -6851.4421            0   -132.97543     23.15066    21.487305    21.719149    10804.088   -140.78602   -652.79933    394.65906   -266.61927    176.97173    300.42454    -6705.377 
 7747000    62.440729   -6840.4448   -6679.8198   -6840.4448            0    198.56063    23.103149    21.454171    21.792588    10801.691    1198.4238    11.765246   -614.50716   -347.15112   -259.37315    350.78254   -6648.5402 
 7748000    67.324447   -6849.7081   -6676.5201   -6849.7081            0    606.27808    23.298096    21.321929    21.707178    10783.265    136.33242    1249.0152    433.48662    331.77529   -154.70731   -611.78184   -6581.1751 
 7749000    67.360021   -6857.5347   -6684.2552   -6857.5347            0    250.61057    23.355146     21.25783    21.729034    10788.025   -169.87655    709.36701    212.34125    320.05443   -289.80787    331.52186   -6644.8261 
 7750000    70.273277   -6845.9237     -6665.15   -6845.9237            0    549.99014    23.239686    21.368734    21.688637    10770.635    1092.9994   -244.10054    801.07151    524.81866    35.132469    47.188796   -6578.7583 
Loop time of 523.502 on 64 procs for 250000 steps with 1296 atoms

Performance: 82.521 ns/day, 0.291 hours/ns, 477.553 timesteps/s
99.1% CPU use with 64 MPI tasks x 1 OpenMP threads

MPI task timing breakdown:
Section |  min time  |  avg time  |  max time  |%varavg| %total
---------------------------------------------------------------
Pair    | 28.748     | 40.013     | 51.949     | 119.0 |  7.64
Bond    | 0.28058    | 0.28929    | 0.29666    |   0.7 |  0.06
Kspace  | 265.14     | 277.25     | 288.69     |  45.5 | 52.96
Neigh   | 0.44235    | 0.44959    | 0.45632    |   0.5 |  0.09
Comm    | 89.235     | 90.456     | 92.492     |  10.7 | 17.28
Output  | 0.54334    | 0.54524    | 0.54723    |   0.1 |  0.10
Modify  | 101.71     | 103.44     | 106.11     |   8.8 | 19.76
Other   |            | 11.06      |            |       |  2.11

Nlocal:        20.2500 ave          26 max          13 min
Histogram: 4 4 5 10 5 2 12 5 8 9
Nghost:        2598.97 ave        2620 max        2560 min
Histogram: 3 0 2 5 2 6 12 17 12 5
Neighs:        6486.03 ave        8323 max        4131 min
Histogram: 4 4 5 10 5 2 10 7 8 9

Total # of neighbors = 415106
Ave neighs/atom = 320.29784
Ave special neighs/atom = 2.0000000
Neighbor list builds = 880
Dangerous builds = 0

unfix		3
unfix		2
unfix		1

write_data	data.final.${pid}
write_data	data.final.0
System init for write_data ...
PPPM initialization ...
  extracting TIP4P info from pair style
  using 12-bit tables for long-range coulomb (../kspace.cpp:340)
  G vector (1/distance) = 0.36727774
  grid = 30 40 32
  stencil order = 5
  estimated absolute RMS force accuracy = 0.0045479892
  estimated relative force accuracy = 1.3696134e-05
  using double precision FFTW3
  3d grid and FFT values/proc = 5168 640
Last active /omp style is kspace_style pppm/tip4p/omp
WARNING: Not all mixed pair coeffs generated from mixing. Use write_data with 'pair ij' option to store all pair coeffs. (../write_data.cpp:312)

write_restart   restart.lmp.${pid}
write_restart   restart.lmp.0
System init for write_restart ...
PPPM initialization ...
  extracting TIP4P info from pair style
  using 12-bit tables for long-range coulomb (../kspace.cpp:340)
  G vector (1/distance) = 0.36727774
  grid = 30 40 32
  stencil order = 5
  estimated absolute RMS force accuracy = 0.0045479892
  estimated relative force accuracy = 1.3696134e-05
  using double precision FFTW3
  3d grid and FFT values/proc = 5168 640
Last active /omp style is kspace_style pppm/tip4p/omp
Total wall time: 0:08:43
