LAMMPS (30 Jul 2021)
Processor partition = 0
  using 4 OpenMP thread(s) per MPI task
using multi-threaded neighbor list subroutines
variable        pid world 0 1
variable        phase world IceII IceIh

shell cd ${phase}
shell cd IceII
include Restart.lmp
echo both
log log.lammps
#include		in.partitions
include		in.temp
variable        temperature equal 40.10
variable	tempDamp equal 100.0
include		in.pressure
variable        pressure equal 2003.1
variable        pressureDamp equal 1000.0 # This is 1 ps
include		in.seed
variable        seed equal 745823

units		real
atom_style	full
box tilt large
read_restart	restart.lmp.${pid}
read_restart	restart.lmp.0
Reading restart file ...
  restart file = 30 Jul 2021, LAMMPS = 30 Jul 2021
  restoring atom style full from restart
  triclinic box = (-10.616987 -9.1131939 0.11411920) to (12.596987 12.103192 21.745880) with tilt (-9.1082798 1.9074818 2.8310020)
  2 by 2 by 4 MPI processor grid
  restoring pair style lj/cut/tip4p/long/omp from restart
  restoring bond style harmonic/omp from restart
  restoring angle style harmonic/omp from restart
  1296 atoms
  864 bonds
  432 angles
Finding 1-2 1-3 1-4 neighbors ...
  special bond factors lj:    0        0        0       
  special bond factors coul:  0        0        0       
     2 = max # of 1-2 neighbors
     1 = max # of 1-3 neighbors
     1 = max # of 1-4 neighbors
     2 = max # of special neighbors
  special bonds CPU = 0.001 seconds
  read_restart CPU = 0.005 seconds
include 	in.setup
variable	out_freq equal 1000
variable	out_freq2 equal 10000
variable	out_freq3 equal 1000

timestep	2.0

neigh_modify    delay 7 every 1

include		in.tip4p
# This is TIP4P/Ice

# create groups ###
group ox type 2
432 atoms in group ox
group hy type 1
864 atoms in group hy

# set charges - beside manually ###
set group ox charge -1.1794
Setting atom values ...
  432 settings made for charge
set group hy charge 0.5897
Setting atom values ...
  864 settings made for charge

# ### TIP3P Potential Parameters ###
pair_style lj/cut/tip4p/long/omp 2 1 1 1 0.1577 8.5
pair_coeff 1 1*2 0.000 0.000
pair_coeff 2 2 0.21084 3.1668
bond_style  harmonic
bond_coeff  1 450 0.9572
angle_style harmonic
angle_coeff 1 55 104.52
kspace_style pppm/tip4p/omp 1.0e-5
pair_modify tail yes

thermo          ${out_freq}
thermo          1000
thermo_style    custom step temp pe etotal epair emol press lx ly lz vol pxx pyy pzz pxy pxz pyz enthalpy

restart 	${out_freq3} restart.lmp.${pid} restart2.lmp.${pid}
restart 	1000 restart.lmp.${pid} restart2.lmp.${pid}
restart 	1000 restart.lmp.0 restart2.lmp.${pid}
restart 	1000 restart.lmp.0 restart2.lmp.0


include         in.dump
dump            myDump all atom ${out_freq2} dump.water.${pid}
dump            myDump all atom 10000 dump.water.${pid}
dump            myDump all atom 10000 dump.water.0
dump            myDump2 all dcd ${out_freq2} dump.dcd
dump            myDump2 all dcd 10000 dump.dcd
dump_modify     myDump append yes
dump_modify     myDump2 append yes


variable natoms 	equal  "count(all)"                        # NUMBER ATOMS
variable H      	equal  "enthalpy/v_natoms"                 # ENTHALPY-per-atom
variable Vol      	equal  "vol/v_natoms"                 # volume-per-atom
fix AVG all 		ave/time ${out_freq} 1 ${out_freq} v_Vol v_H file vol_enthalpy.dat
fix AVG all 		ave/time 1000 1 ${out_freq} v_Vol v_H file vol_enthalpy.dat
fix AVG all 		ave/time 1000 1 1000 v_Vol v_H file vol_enthalpy.dat


timer           timeout 10:00:00 every 1000
New timer settings: style=normal  mode=nosync  timeout=10:00:00

fix 		1 all shake 1e-6 200 0 b 1 a 1
Finding SHAKE clusters ...
       0 = # of size 2 clusters
       0 = # of size 3 clusters
       0 = # of size 4 clusters
     432 = # of frozen angles
  find clusters CPU = 0.000 seconds
fix             2 all nph tri ${pressure} ${pressure} ${pressureDamp}
fix             2 all nph tri 2003.1 ${pressure} ${pressureDamp}
fix             2 all nph tri 2003.1 2003.1 ${pressureDamp}
fix             2 all nph tri 2003.1 2003.1 1000
fix             3 all temp/csvr ${temperature} ${temperature} ${tempDamp} ${seed}
fix             3 all temp/csvr 40.1 ${temperature} ${tempDamp} ${seed}
fix             3 all temp/csvr 40.1 40.1 ${tempDamp} ${seed}
fix             3 all temp/csvr 40.1 40.1 100 ${seed}
fix             3 all temp/csvr 40.1 40.1 100 745823


run             250000
PPPM initialization ...
  extracting TIP4P info from pair style
  using 12-bit tables for long-range coulomb (../kspace.cpp:340)
  G vector (1/distance) = 0.36791191
  grid = 27 40 32
  stencil order = 5
  estimated absolute RMS force accuracy = 0.0044187891
  estimated relative force accuracy = 1.3307052e-05
  using double precision FFTW3
  3d grid and FFT values/proc = 10353 2240
Last active /omp style is kspace_style pppm/tip4p/omp
Neighbor list info ...
  update every 1 steps, delay 7 steps, check yes
  max neighbors/atom: 2000, page size: 100000
  master list distance cutoff = 10.8154
  ghost atom cutoff = 10.8154
  binsize = 5.4077, bins = 7 5 5
  1 neighbor lists, perpetual/occasional/extra = 1 0 0
  (1) pair lj/cut/tip4p/long/omp, perpetual
      attributes: half, newton on, omp
      pair build: half/bin/newton/tri/omp
      stencil: half/bin/3d/tri
      bin: standard
Setting up Verlet run ...
  Unit style    : real
  Current step  : 40250000
  Time step     : 2
  Walltime left : 9:59:59.97
Per MPI rank memory allocation (min/avg/max) = 12.66 | 12.67 | 12.68 Mbytes
Step Temp PotEng TotEng E_pair E_mol Press Lx Ly Lz Volume Pxx Pyy Pzz Pxy Pxz Pyz Enthalpy 
40250000    41.408557   -6918.2583   -6811.7374   -6918.2583            0    2200.8986    23.213974    21.216386    21.631761    10654.002    1726.2224    3124.1092    1752.3642   -200.91434   -249.33946   -217.84168   -6469.7668 
40251000     41.90494   -6925.9473   -6818.1494   -6925.9473            0    2101.0284    23.032391    21.399216    21.605897    10649.009    2591.4632    1823.4743    1888.1479     233.0333     215.4832   -43.735559   -6491.8494 
40252000    40.166516   -6920.8625   -6817.5366   -6920.8625            0    1753.6625    23.204733    21.191639    21.696005     10668.93     1497.447    2614.4822    1149.0582   -144.13109    77.864344   -416.59124   -6544.6748 
40253000    38.710171   -6917.4485   -6817.8689   -6917.4485            0    2025.0007    23.119779    21.326552    21.607159    10653.738    1963.5056    1912.8085     2198.688   -33.819449    293.60947    213.51561   -6503.2368 
40254000    40.195918   -6927.6419   -6824.2403   -6927.6419            0    2244.8633    23.167446     21.28421    21.580612    10641.417    2621.6703    2265.8256    1847.0941   -13.780599    -376.6073   -397.39025   -6475.8506 
40255000    40.760136   -6924.1859   -6819.3329   -6924.1859            0    1895.3822    23.204203    21.309642    21.544372    10653.116    2034.0564    1572.7839    2079.3063   -63.033798    -222.9572   -31.734357   -6524.8573 
40256000    40.286955   -6918.5795   -6814.9438   -6918.5795            0    2000.7765    23.138153    21.342738      21.5591    10646.564    2145.0595    1554.8211    2302.4488   -4.5316882    119.69766    101.81378   -6504.2848 
40257000    39.504464    -6922.192   -6820.5691    -6922.192            0    2267.7372    23.283616    21.215559    21.533097     10636.81    1835.9904     2447.511    2519.7102   -396.71117    -478.5332   -42.304502   -6468.7819 
40258000    40.865916   -6921.5055   -6816.3804   -6921.5055            0    1865.2389     23.12889    21.382907    21.536343    10651.077    1881.0565    1504.1142    2210.5462    15.581062     406.9107   -86.354388   -6526.6435 
40259000     41.92909   -6919.6279   -6811.7678   -6919.6279            0    2065.7837    23.193567    21.212394    21.656389     10654.75    2159.7769    2362.7881    1674.7862   -180.67403     -121.829   -268.19569   -6490.7686 
40260000    40.210524   -6919.8119   -6816.3728   -6919.8119            0    2134.4697    23.074986      21.3719    21.596848    10650.622    2508.8761    1473.4237    2421.1093    90.120027    160.20221    484.57194    -6484.829 
40261000    39.556495   -6920.3219   -6818.5652   -6920.3219            0    2189.8448     23.12909    21.301335    21.621752    10652.615    3175.9489    1591.6565    1801.9292    58.551765   -677.85189   -123.53554   -6478.3564 
40262000    40.894443   -6917.4145    -6812.216   -6917.4145            0     2095.297    23.142484    21.286494    21.647373     10663.98      2576.87     1582.778    2126.2429   -256.18872   -80.692458    162.61495   -6486.3487 
40263000    41.087418   -6919.7998   -6814.1049   -6919.7998            0    2001.1758    23.059776    21.394848    21.596788        10655    2061.2788    1760.3043    2181.9444    324.91885   -23.557547    141.25328   -6503.1377 
40264000    38.511129   -6922.9545    -6823.887   -6922.9545            0     1901.597    23.238349    21.192103    21.649397    10661.667    1723.1473     2549.657    1431.9866   -217.40794    159.21763   -232.97668   -6528.2087 
40265000    39.968019    -6920.124   -6817.3087    -6920.124            0    2455.3652    23.084527    21.343586    21.587187    10636.149    2783.3386    2199.5434    2383.2135   -156.75981    30.553634    90.251106   -6436.4391 
40266000    41.586296   -6926.4973   -6819.5191   -6926.4973            0    1790.6606    23.215874    21.269167    21.580351    10655.995    1789.7613    1865.0696    1717.1508     125.8643   -723.69207   -316.97128   -6541.2383 
40267000    41.025688   -6924.5257   -6818.9896   -6924.5257            0    1873.5561    23.132558    21.362766    21.549973    10649.467    2297.1857    1600.3803    1723.1023   -206.62791    42.863081   -175.74671   -6528.0047 
40268000    38.875724   -6922.7374    -6822.732   -6922.7374            0    2220.8248    23.221939     21.26162    21.546622    10638.344    2285.8067    2257.9731    2118.6947    206.11937   -317.67787     269.2477   -6478.1725 
40269000    40.451483   -6923.6308   -6819.5719   -6923.6308            0    2023.3568    23.193941    21.294278    21.556869    10646.899    1581.3472    2025.4233    2463.2998    393.96678    434.34358     60.41155    -6505.397 
40270000    40.248539   -6924.5236   -6820.9866   -6924.5236            0    1998.8856    23.189796    21.314253    21.547279    10650.242    2020.0221    1635.1596     2341.475   -311.49621    273.41234   -191.12977    -6510.514 
40271000    38.686888   -6923.1224   -6823.6028   -6923.1224            0    2108.3267    23.178938    21.264567    21.602795    10647.803    1925.2862    2134.8228    2264.8711   -238.84477    227.64453    105.86287   -6496.2064 
40272000    40.631125   -6921.1856   -6816.6645   -6921.1856            0    1561.3588     23.05939    21.405604    21.609459    10666.432    1933.5466    815.37499    1935.1549   -16.935649    102.93645    545.31609   -6573.7811 
40273000    39.447618   -6922.0151   -6820.5385   -6922.0151            0    2049.5313    23.224079    21.223426    21.620226    10656.491    2127.7938    1976.8859    2043.9143   -203.28572     -443.825    69.658746   -6502.0127 
40274000    41.654766   -6915.3473   -6808.1929   -6915.3473            0     2001.044    23.063656    21.411194    21.582599    10657.928    2303.6878    1681.3657    2018.0784     437.4172   -60.769995    -363.7416   -6497.1608 
40275000    42.070332   -6920.0994   -6811.8761   -6920.0994            0    2269.2869    23.254408     21.18034    21.612267    10644.825    1731.9983    3247.0964    1828.7661   -232.96993   -291.79692     -45.2355   -6459.5832 
40276000    40.146829   -6916.1117   -6812.8365   -6916.1117            0    1903.0947     23.08978    21.385258    21.580454    10656.016    2425.0583    1799.1755    1485.0503    132.59504    1.0861238   -181.50661   -6517.0821 
40277000    39.003264    -6916.853   -6816.5194    -6916.853            0    1859.9645    23.203318    21.230562    21.639445    10660.012     1971.934    1911.2565     1696.703    -301.3663     305.2976    71.226561   -6527.3594 
40278000    37.988433    -6921.269   -6823.5461    -6921.269            0    2028.6269    23.138761    21.304223    21.599811    10647.699    2240.3932    1821.3688    2024.1186   -467.89097    124.38565   -154.11866   -6508.5292 
40279000    38.852541   -6922.4463   -6822.5006   -6922.4463            0    2165.6217    23.108009    21.328517    21.597346    10644.459    2504.0825    2051.2518    1941.5308    18.263915    101.78659    291.39543   -6486.3127 
40280000    41.408038   -6918.4502   -6811.9305   -6918.4502            0     2418.517    23.163408    21.223007    21.641076    10638.692    2505.7063    3059.6327    1690.2119    280.44571   -270.63238    -120.9625   -6436.6869 
40281000    40.965078    -6919.418   -6814.0379    -6919.418            0    2404.2801    23.077615    21.389523    21.537794    10631.468    2913.8133    1898.8602    2400.1669    21.331794     86.87767    4.0174107   -6441.2565 
40282000    40.923595   -6918.9319   -6813.6585   -6918.9319            0    2100.2952    23.233478    21.190838    21.635838    10652.121     1860.856    2510.3222    1929.7075     43.75604   -404.67117    -13.38702   -6487.3771 
40283000    39.999761   -6921.6321   -6818.7352   -6921.6321            0    2104.8073    23.086645    21.364504    21.593331    10650.581    2222.0483     2283.801    1808.5726    401.29545    409.52542   -423.77736   -6491.8001 
40284000    40.006836   -6924.0162    -6821.101   -6924.0162            0    2314.5173    23.277642    21.186754    21.580432    10642.987    2062.2077     2698.006    2183.3382   -527.15867    87.950602   -188.10686   -6461.8485 
40285000     39.84475    -6925.605   -6823.1069    -6925.605            0     1881.951    23.071237    21.389487    21.603958    10661.163    2608.1033    985.95416    2051.7956    109.47872   -51.607696    203.94443   -6530.4971 
40286000    40.549817   -6926.4451   -6822.1332   -6926.4451            0    2075.4815    23.209993    21.249416    21.602054    10654.107    2285.9074    1777.7483     2162.789    133.86374   -701.83512    10.148375   -6499.6465 
40287000    40.930227    -6921.558   -6816.2675    -6921.558            0    2162.5615    23.092336    21.353021     21.58894    10645.315    2507.7955    1994.5605    1985.3286    302.67847     43.41543    70.986222   -6480.5276 
40288000    39.799444   -6921.8176    -6819.436   -6921.8176            0    2025.7644    23.176701    21.258034    21.619974    10651.969    2243.8948     1957.714    1875.6845     -481.259    123.19143    548.18888   -6504.7374 
40289000    40.576442   -6923.0969   -6818.7164   -6923.0969            0    2188.5405    23.158843    21.301104    21.578847    10645.038    2205.8357     1508.208    2851.5777    37.481376   -86.242846    270.18347   -6478.9522 
40290000    40.872406   -6926.6278   -6821.4861   -6926.6278            0    2036.3188    23.090033    21.344685    21.612236     10651.58    2414.7646    2068.7468    1625.4451     181.6285    -292.7157     220.4983   -6505.1595 
40291000    39.753809   -6924.0255   -6821.7612   -6924.0255            0    1994.1941    23.183653    21.276616    21.601994    10655.608    2193.2063    1990.2595    1799.1164   -281.24263   -191.08517   -84.585351   -6511.8612 
40292000    39.239471   -6920.7481    -6819.807   -6920.7481            0    1667.0272    23.161812    21.372883    21.531291    10658.736    1804.5934    1460.6554    1735.8327    241.21062   -322.03638   -137.95698   -6560.6731 
40293000    41.746949    -6923.568   -6816.1765    -6923.568            0    2184.0755    23.238746    21.206266    21.600631    10644.943    1574.3118    2973.6337    2004.2811    50.709117    318.29919   -330.85575   -6477.1084 
40294000    40.786724    -6920.317   -6815.3957    -6920.317            0    2117.6412    23.105055    21.404349    21.512295    10638.877    2214.0366    2124.1281    2014.7588   -416.98779    425.34895   -244.50898   -6486.8286 
40295000    38.041077    -6926.915   -6829.0567    -6926.915            0    2237.2515    23.229138      21.2123    21.600137    10643.326    1978.5044    2526.6725    2206.5775   -257.10182    17.153713    -283.3765    -6481.786 
40296000    40.884663   -6921.9187   -6816.7454   -6921.9187            0    2107.4115      23.0963    21.342982    21.615822    10655.388    2224.0465    1735.8883    2362.2998    404.20703   -105.17814    167.76822   -6489.2581 
40297000    40.156861   -6925.4803   -6822.1793   -6925.4803            0    1846.9996    23.207243    21.292163    21.564662    10655.798    1743.9903    1648.3152    2148.6932   -91.108597   -163.09111    120.80348   -6535.1484 
40298000    40.134282   -6918.6406   -6815.3976   -6918.6406            0    2102.5411    23.128271    21.289168    21.634148    10652.257    2732.8947     2001.118    1573.6105    194.52813    -333.2494   -165.10559   -6488.7631 
40299000    40.695865   -6920.0866    -6815.399   -6920.0866            0    2228.2862    23.140198    21.253513    21.645845    10645.654    2801.5847    1978.3392    1904.9347   -85.442089    184.47126    465.65577   -6469.4443 
40300000    41.141722   -6923.6821   -6817.8476   -6923.6821            0    2062.2546    23.204715    21.253237    21.579329    10642.392    2014.6114     2233.216    1938.9365   -255.06864   -44.112565    33.592841   -6497.7684 
40301000    42.064566   -6922.7733   -6814.5647   -6922.7733            0    2060.6876    23.132315    21.352542    21.556838    10647.649    2075.5357    1741.2176    2365.3097   -289.40064    736.13954    167.04565   -6494.5708 
40302000    38.474101   -6922.0268   -6823.0545   -6922.0268            0    2102.6063    23.213068    21.223995    21.618305    10650.778    1959.7029    2691.6103    1656.5057    189.60407   -229.32017   -136.34287   -6496.4553 
40303000    38.150203   -6920.0463   -6821.9072   -6920.0463            0    2436.4001    23.073934    21.385738    21.559197    10638.453    2543.5022    2266.7109    2498.9872    466.30046   -3.3980639    -297.4604   -6443.8975 
40304000    40.103373   -6919.5127   -6816.3492   -6919.5127            0    1861.6218    23.241833    21.230598    21.618158    10667.221    1940.5791    1993.5394     1650.747   -692.37528    613.97948   -390.20777   -6526.7358 
40305000    41.312579   -6922.8274   -6816.5534   -6922.8274            0     2080.337    23.096824    21.354419    21.595564    10651.348    2645.6488     1720.339    1875.0233   -146.60042     61.51731    440.93449   -6493.3959 
40306000    41.599958   -6920.1226   -6813.1092   -6920.1226            0    1644.0753    23.195683    21.294102    21.611231    10674.462    1655.0705    1698.6844    1578.4709   -140.25218   -255.51359    26.352137    -6557.166 
40307000    39.885446   -6920.5174   -6817.9145   -6920.5174            0    2235.6367    23.144602    21.271297    21.625934    10646.787    2290.2912    2589.6421    1826.9769    241.21199   -152.61405   -340.98424   -6470.7817 
40308000    41.138924   -6926.0422   -6820.2148   -6926.0422            0    1605.2875    23.164595    21.308104    21.598122    10660.695     1860.745     1667.631    1287.4864    -100.1162    215.34462   -89.591592   -6570.6323 
40309000    41.312455   -6923.2971   -6817.0233   -6923.2971            0    2053.5925    23.220149    21.281138    21.540113    10644.073    1867.9633    1360.6113    2932.2028   -587.70482    201.66603    599.93318   -6498.2382 
40310000    38.749541   -6923.0942   -6823.4134   -6923.0942            0    1810.7562    23.087743    21.370132    21.586658    10650.601    1776.1055    1471.6716    2184.4916    327.35131    434.49607    758.52915   -6542.1521 
40311000     39.89961    -6921.633   -6818.9937    -6921.633            0     1920.307    23.237328     21.22446    21.600182    10653.204    1695.9156    2061.1036    2003.9016   -32.180912   -462.23351    794.41928   -6520.6432 
40312000    38.166556    -6914.031   -6815.8499    -6914.031            0    1935.0385    23.106488    21.406862    21.531573    10650.321    1938.6476    1435.1517    2431.3161     53.13314    193.79169    255.48638   -6515.2919 
40313000    40.832829   -6915.8665   -6810.8265   -6915.8665            0    1875.8872    23.234976    21.216653    21.627755      10661.8    1608.1941    2274.8298    1744.6378    134.33335    432.26784   -304.06446   -6519.1422 
40314000    39.946797    -6923.209   -6820.4483    -6923.209            0    2051.7937    23.094644    21.360355    21.587732     10649.44    2154.9632    1945.3525    2055.0654    482.18008   -638.53186   -5.4993095   -6501.7819 
40315000    38.551738   -6925.6442   -6826.4722   -6925.6442            0     1887.047    23.201764    21.224003     21.63961    10656.086    1934.0327    1860.5406    1866.5678   -110.14113    273.44516   -202.36304   -6533.2098 
40316000    40.283843   -6918.2845   -6814.6567   -6918.2845            0    2088.2967    23.114668    21.305628    21.627121    10650.762    2263.2004    2133.0025    1868.6872     183.5664    84.422076   -206.67209   -6490.2807 
40317000    39.265237   -6925.9985   -6824.9911   -6925.9985            0    2124.4872    23.142019    21.312457    21.580778    10643.926    2238.2678    2376.5112    1758.6826    125.17876    98.212426   -765.11683   -6495.2053 
40318000    38.304329   -6921.7376   -6823.2021   -6921.7376            0    2138.1641    23.146651    21.256958    21.625676    10640.425    2607.6211      2368.69    1438.1813    -1024.584   -58.180317   -112.91014   -6491.4024 
40319000    38.246715     -6924.73   -6826.3426     -6924.73            0    2247.0638    23.088719    21.300592    21.629208    10637.318     2099.118    2431.0018    2211.0714    600.93355     381.3816    500.92646   -6477.7458 
40320000     39.21224   -6921.7674   -6820.8963   -6921.7674            0     1712.207    23.207409    21.248771    21.624937    10663.882    1303.7579    2107.1997    1725.6634   -257.23917    129.11415    280.06422   -6554.6108 
40321000     39.66258   -6919.4996     -6817.47   -6919.4996            0    2196.4821    23.138225    21.323856    21.559078    10637.167    1987.1137    2271.8109    2330.5217    184.82034    387.74006   -1.2681765    -6476.725 
40322000    41.792855   -6917.3897   -6809.8801   -6917.3897            0    1923.7767    23.264528    21.209057    21.601305    10658.487    1248.5754    2829.7196    1693.0351   -112.74485    535.14464   -196.23259   -6510.8423 
40323000    39.440046   -6925.6679   -6824.2108   -6925.6679            0    2001.8037     23.12489    21.385062    21.532416    10648.366    1779.7765     1723.611    2502.0237    329.59892   -228.95823    205.44826   -6513.3397 
40324000    40.515642   -6923.4867   -6819.2627   -6923.4867            0    2316.7054    23.238525    21.196776    21.614765     10647.04    1908.4849    2429.3047    2612.3265    437.73138   -70.275149    353.00242   -6459.5335 
40325000    39.436801    -6919.623   -6818.1742    -6919.623            0     2234.249    23.121946    21.369633    21.557402    10651.674    2332.4266     1944.405    2425.9153   -107.40346    144.93299    111.71068   -6471.0976 
40326000    39.785691   -6921.6092   -6819.2629   -6921.6092            0    1708.5875    23.229834    21.279954    21.575931    10665.626    1223.3102    2034.5257    1867.9268    97.662469   -552.72103   -214.63166   -6553.4969 
40327000    39.637814   -6924.2755   -6822.3097   -6924.2755            0    1867.1048    23.107729    21.313492    21.644796    10660.201    2009.5026    2244.5665    1347.2454   -55.654612   -191.78002   -274.54726   -6532.0344 
40328000    40.235217   -6915.3677   -6811.8651   -6915.3677            0    2552.5311    23.104333    21.301587    21.619908    10640.431      2594.47    2498.5185    2564.6046   -297.87943    365.40642    112.38939   -6415.7639 
40329000    39.487793   -6923.3805   -6821.8005   -6923.3805            0    2181.1109    23.172048    21.261183    21.612126    10647.541    2619.5217     2151.676    1772.1348   -776.66993   -362.34791    186.59718   -6483.1101 
40330000     42.67453   -6922.4278   -6812.6502   -6922.4278            0    1995.4181    23.087459    21.314867    21.640661    10649.502    2233.6369    2162.5629    1590.0546    390.86309    106.87212   -70.864086   -6502.7377 
40331000    40.169193    -6925.013   -6821.6802    -6925.013            0    2105.0432    23.235822    21.206693    21.602748    10644.861    2085.2214    2153.6658    2076.2425   -115.84612   -346.34169    34.501548    -6494.884 
40332000    39.446614   -6922.3553   -6820.8813   -6922.3553            0    1937.1454    23.078872    21.418222    21.534484    10644.676    2443.9299    1315.7545    2051.7519   -29.514288   -183.30841   -100.89545   -6520.1556 
40333000    41.022175    -6925.397     -6819.87    -6925.397            0    1748.2163    23.206808     21.24712    21.616555    10658.644    1826.7894    2023.4013    1394.4582    92.078298   -722.81758   -93.247674   -6548.1178 
40334000    41.865065   -6918.3896   -6810.6943   -6918.3896            0    1894.8637    23.119907    21.384498    21.558465    10658.669    2161.1599    1553.1328    1970.2984    249.65771    -254.2358   -337.62396   -6516.1458 
40335000    40.893647   -6926.7952   -6821.5988   -6926.7952            0    2061.6125    23.198766    21.263833    21.593971    10652.191    1709.2574    1974.8753    2500.7047    286.55542     195.8113    55.992224   -6501.3246 
40336000    40.004225    -6924.441   -6821.5326    -6924.441            0    1998.5107     23.15335    21.289558    21.617889    10655.989    2352.2839    1668.6875    1974.5605   -678.83381     27.40136    350.20169   -6510.9507 
40337000    38.186831   -6922.3463    -6824.113   -6922.3463            0    1651.6027    23.159091    21.365054    21.565459    10670.487    1657.4254    963.82713    2333.5557    608.92036   -271.38483    438.25213   -6567.0937 
40338000    39.815259   -6920.3044   -6817.8821   -6920.3044            0    1896.7351    23.261103    21.233792    21.594447     10665.96     1785.292    2113.5699    1791.3433   -205.11625   -178.48249    92.619883    -6522.841 
40339000    38.462302   -6923.3552   -6824.4133   -6923.3552            0    1765.8213     23.01851      21.4525    21.586699    10659.611     2280.907    1545.1877    1471.3692    304.35558    292.38049    -64.79328   -6549.8996 
40340000    40.167056   -6924.1443    -6820.817   -6924.1443            0    2217.6572    23.231859    21.222236     21.58401    10641.607    1838.0787    2712.0055    2102.8874    208.13582   -733.19894    394.33473   -6476.6434 
40341000    38.536793    -6923.156   -6824.0225    -6923.156            0    2228.5914    23.046693    21.368412    21.601021    10637.882    2583.0815    2164.0037     1938.689   -22.781402   -81.560211    93.987727    -6478.273 
40342000    40.615175   -6922.0194   -6817.5394   -6922.0194            0    2565.8668    23.180565    21.190805    21.627421     10623.71    2503.9334     3110.517    2083.1501   -99.272442    -135.8509    56.485391   -6419.9944 
40343000    39.234216   -6919.5477   -6818.6201   -6919.5477            0    2211.9836    23.131656    21.336565    21.539762    10630.951    2575.7157    1459.2103    2601.0249     82.47395   -99.927045   -138.01165   -6475.6708 
40344000    40.856192   -6923.0156   -6817.9155   -6923.0156            0    1615.3537       23.212    21.227951     21.63563     10660.81     1400.697    2226.4593    1218.9049   -184.13787    471.80073   -678.32168   -6566.7652 
40345000    38.384649   -6924.5978   -6825.8556   -6924.5978            0    2387.4263    23.168629    21.278148    21.563637    10630.561    2123.8704    2902.7511    2135.6573    189.79809   -372.12892   -595.58597    -6455.719 
40346000    40.934413   -6918.9135   -6813.6123   -6918.9135            0    2218.4842    23.170067    21.348956    21.519538    10644.785    1540.5917    2493.6678    2621.1932    38.817479    -630.1927    80.169816   -6469.2075 
40347000    40.379117   -6923.5945   -6819.7217   -6923.5945            0    2144.3705    23.205983     21.25147    21.598713    10651.648    1891.8782    2894.4673    1646.7662   -308.65574   -25.719226   -149.88707    -6486.608 
40348000    38.636391   -6926.2324   -6826.8426   -6926.2324            0    1785.5456    23.102222    21.393871    21.576129    10663.914    1972.6915    1613.1787    1770.7666    584.94134    392.10616   -175.03999   -6549.1505 
40349000    40.157202   -6921.7328   -6818.4308   -6921.7328            0    2113.1986    23.274388    21.210186    21.588574    10657.288    1722.4229    2240.8507    2376.3223    91.675205   -228.12987    171.46633   -6489.9856 
40350000    39.897947   -6924.2806   -6821.6456   -6924.2806            0    2234.5497    23.081422     21.39891     21.54659    10642.233    2064.1456    1992.1399    2647.3637     136.2866    274.34801    249.62753     -6474.83 
40351000    39.881162   -6928.5293   -6825.9375   -6928.5293            0    1791.4168    23.193826    21.219041    21.683663     10671.63    1528.2056     2304.514    1541.5307    432.29375   -225.10922    303.12102   -6547.1307 
40352000    40.419456   -6924.4058   -6820.4292   -6924.4058            0    1863.6136    23.117387     21.36982    21.579301    10660.485     2044.945    1635.4267     1910.469   -133.04759    58.711474     8.416847    -6530.689 
40353000    41.021221   -6920.4352   -6814.9106   -6920.4352            0    2143.0339    23.135938    21.293569    21.621609    10651.815    2322.8616    1914.2465    2191.9937   -210.82282     191.7156   -335.57401   -6481.9993 
40354000    41.179219   -6923.9649   -6818.0339   -6923.9649            0    1989.2971    23.161451    21.235267    21.675084    10660.665    1795.1699    2652.6691    1520.0522   -150.21685    78.432128   -391.44458   -6508.7482 
40355000    40.993062   -6921.4568   -6816.0047   -6921.4568            0    1689.9614    23.118532    21.385526    21.559269    10658.945    1721.8956    1294.6365     2053.352    225.96714    654.85989    584.43933   -6553.3005 
40356000    40.158103   -6925.8196   -6822.5154   -6925.8196            0    2022.6019    23.254644    21.214499     21.58635    10649.316    1714.0168    2448.4319    1905.3568   -394.87111    66.556963   -71.722347   -6508.3864 
40357000    40.632869   -6925.3097   -6820.7842   -6925.3097            0    2234.9798    23.114566    21.323798    21.570943    10632.109    2459.5207    2370.1232    1875.2956    1037.7426   -8.5616666    -516.4987   -6474.2318 
40358000    40.180112   -6922.0678   -6818.7069   -6922.0678            0    2152.0052    23.320882    21.221018    21.499017     10639.71    1540.9513    2441.0965     2473.968   -320.38576   -188.03809    155.10146   -6484.7819 
40359000    39.062159   -6922.5663   -6822.0813   -6922.5663            0    2061.7571    23.161554    21.320293    21.559436     10646.29    2414.6578    1768.1665    2002.4469   -186.67445   -170.05585    278.52979   -6501.9621 
40360000    40.536255   -6925.0907   -6820.8136   -6925.0907            0     1880.432    23.186808    21.229124    21.664651    10664.113    1549.7738    2627.0875    1464.4347    278.43886     215.4132    62.247282   -6528.3592 
40361000    40.092535   -6921.7629   -6818.6273   -6921.7629            0    1974.8651    23.177053    21.329587     21.55631    10656.512    1524.3447    1793.0554    2607.1951    177.13621    125.64355    149.16365   -6511.7051 
40362000    41.741343   -6925.2943   -6817.9172   -6925.2943            0    1928.8327    23.142537    21.331693    21.596492    10661.529    1994.5925    1665.3724    2126.5332     -133.185   -179.81284    110.76065   -6518.0079 
40363000      40.9447   -6922.4689   -6817.1412   -6922.4689            0    2245.9349    23.176478    21.244056     21.62747    10648.553    2372.6238    2367.0469    1998.1341   -86.254913   -120.88088   -90.390259   -6468.3515 
40364000    40.463552   -6919.9635   -6815.8735   -6919.9635            0    1843.1415    23.187305    21.417379    21.436793    10645.753    1334.2253    1778.7512    2416.4479    -351.8362   -238.94386   -297.60408   -6529.7121 
40365000    38.314808   -6915.7539   -6817.1914   -6915.7539            0    2157.0355    23.203121    21.222313    21.633809    10653.005     1965.224    2810.2045    1695.6781    318.27026    116.41234    -524.7296   -6482.0676 
40366000    38.674794   -6925.6914   -6826.2029   -6925.6914            0       2229.2    23.117827    21.319691    21.593147    10642.505    2137.4223    2460.9526    2089.2251    142.66406    167.94529    83.164735   -6480.2087 
40367000    36.184306   -6922.6794   -6829.5975   -6922.6794            0    2064.1612    23.156843     21.32615      21.5612    10647.919    2019.3555     1888.163     2284.965    16.549395   -292.01743    100.78887    -6509.056 
40368000    37.084175   -6920.0398    -6824.643   -6920.0398            0    1825.5364    23.174953    21.244249    21.648958    10658.528    2154.2859    2146.9938    1175.3297   -45.694546    139.35445    224.17882   -6540.8749 
40369000    40.522005   -6925.6064   -6821.3661   -6925.6064            0    2162.5575    23.186484    21.276703    21.571295    10641.809    1979.1046    2038.2413    2470.3267   -83.768245    93.770861    405.58225   -6485.7374 
40370000    39.708546   -6921.8291   -6819.6813   -6921.8291            0    2198.0009    23.192569    21.271074    21.562669     10637.53    1816.2467    2262.6625    2515.0936    199.97252   -393.09655    583.27198    -6478.689 
40371000    40.407552   -6924.3395   -6820.3936   -6924.3395            0    1851.3998    23.154533    21.234912    21.685126     10662.24     1983.114     2221.297    1349.7883    293.88321    399.14954    8.3349597   -6532.5049 
40372000    40.264289   -6915.6267   -6812.0492   -6915.6267            0    1888.7063     23.14431    21.312223    21.613608    10661.057    2063.0482    1531.3012    2071.7696    41.717825   -118.14688   -59.831139   -6518.3921 
40373000    39.199193   -6922.3933   -6821.5557   -6922.3933            0    1591.6242    23.223633    21.264045    21.604811    10669.069    1158.8822    1865.1166    1750.8737   -530.89808   -220.23932   -6.5515887   -6573.9031 
40374000     39.61909   -6919.6691   -6817.7514   -6919.6691            0    2363.0854    23.123634    21.340221    21.564804    10641.443     2014.993    2254.2925    2819.9705    292.84719     310.1187   -55.704364   -6451.0135 
40375000    40.097856   -6917.5818   -6814.4325   -6917.5818            0    1665.2712    23.246187     21.25366    21.592746    10668.253    1456.8736    1773.5575    1765.3825    131.00989   -382.65647   -383.01932   -6555.3404 
40376000    40.053222   -6923.3552   -6820.3208   -6923.3552            0     2345.078    23.095875     21.39011    21.523644    10633.182    2433.8382     2393.233    2208.1629    101.96275    -443.2964   -138.86917     -6456.66 
40377000    40.858407   -6925.6301   -6820.5243   -6925.6301            0    1817.0162    23.218089    21.237111    21.608488    10654.824    1394.1655     2703.739    1353.1441     351.1078    98.142436   -327.62013   -6538.1788 
40378000    38.865341   -6918.3939   -6818.4152   -6918.3939            0    2064.0284    23.160174     21.31471    21.557234     10641.78    1984.7593    2152.8575    2054.4683   -3.9107414     194.2163   -112.26742   -6498.0791 
40379000    40.934012   -6917.2663    -6811.966   -6917.2663            0    2126.5404     23.19009    21.299531    21.545037    10641.913    2022.4892    1956.2435    2400.8884    74.550775   -486.69227     327.0526    -6481.924 
40380000    38.083789   -6925.9653    -6827.997   -6925.9653            0    1897.0789     23.18125    21.234106    21.651555    10657.613    1987.7821    2582.9378    1120.5168   -23.434503   -34.351288   -507.90188   -6533.1334 
40381000    38.639206    -6926.376    -6826.979    -6926.376            0    2014.5631    23.081687     21.38962    21.571025    10649.799    2466.7491    1783.1812    1793.7591    170.89503    95.514801   -70.697842   -6514.0843 
40382000    41.547776   -6921.2928   -6814.4137   -6921.2928            0     1904.198    23.216594     21.23303    21.628228    10661.822    1980.1528    2093.0507    1639.3904   -83.643711    -467.0118    262.50991   -6518.3266 
40383000    41.184127   -6922.9701   -6817.0264   -6922.9701            0    1878.2201    23.043884    21.426443     21.59149    10660.765    2397.2722     1356.211    1881.1771    342.31845    293.39676    -206.6838   -6525.0077 
40384000     38.49695   -6923.2753   -6824.2442   -6923.2753            0    2112.0869    23.259967    21.258474    21.539708     10650.77    1667.6853    2257.1266    2411.4488   -258.12802   -120.99955   0.18560441   -6496.1726 
40385000    38.500617   -6922.6995    -6823.659   -6922.6995            0    1982.7216    23.127641    21.399278    21.520338    10650.734      1902.03    1857.7569     2188.378    52.757784    31.455765   -25.422229   -6515.6828 
40386000     40.72896   -6920.2942   -6815.5215   -6920.2942            0    2194.7177     23.19616    21.241629    21.614599    10650.037    1926.4114    2542.7205    2115.0213    412.12751   -165.11808   -335.50707   -6474.6382 
40387000    39.795504   -6923.4025    -6821.031   -6923.4025            0    2135.4735    23.156991    21.304278    21.585458    10649.034    2008.0496    2032.4237    2365.9471   -272.84098    475.65923   -124.41379   -6489.3808 
40388000    37.786494   -6920.0498   -6822.8464   -6920.0498            0    1851.6098    23.124435    21.336502    21.604373     10659.48    2196.3654    2127.4654    1230.9986     -598.928   -301.50668   -135.91476   -6534.9996 
40389000    40.137148    -6924.006   -6820.7556    -6924.006            0    2068.3663    23.226628    21.155977    21.685652    10655.939    1901.1237    2956.1535    1347.8218    159.65665   -350.03806    -208.7566   -6499.3192 
40390000    39.073984   -6920.2888   -6819.7734   -6920.2888            0    1983.6635    23.128807    21.391598    21.519673     10647.12    1507.3212    1779.7406    2663.9288    208.06057    92.022182   -162.18821   -6511.7554 
40391000    39.343385   -6924.2579   -6823.0494   -6924.2579            0    1754.6707    23.285054    21.194327      21.6138    10666.649    1077.8242    2256.4973    1929.6905   -160.57077   -154.58745   -299.86378   -6550.0891 
40392000     39.01556   -6919.1557   -6818.7905   -6919.1557            0     2061.938    23.124044    21.363689     21.54718    10644.628    2375.1129     1827.166    1983.5351   -276.19991    544.65084   -651.78612   -6498.6932 
40393000    39.061991   -6919.6352   -6819.1507   -6919.6352            0    2063.3957    23.253504    21.217219    21.584171    10649.084    1880.9643    2162.7867     2146.436    -160.5601   -305.37678    215.53107    -6498.693 
40394000    39.362211   -6922.5913   -6821.3345   -6922.5913            0    1992.8196    23.121414    21.332096    21.589581    10648.591    2204.1259    2132.5734    1641.7597   -128.34421   -537.02053   -134.00584    -6511.852 
40395000    40.252415   -6917.3958   -6813.8489   -6917.3958            0    1962.4413     23.17889    21.309802    21.570393    10654.427     1897.259    1997.6984    1992.3665    108.69162   -104.39339   -215.39968   -6508.9171 
40396000     39.48095   -6925.2566   -6823.6943   -6925.2566            0    1976.3242    23.189876    21.252216    21.609013    10649.705    2214.0444    2148.1829    1566.7454   -545.22847    -48.38498   -123.42275   -6516.7415 
40397000    38.493582   -6922.0934    -6823.071   -6922.0934            0    2407.0363    23.103788    21.329081    21.574046    10631.313    2413.4743    2366.0123    2441.6223    431.27601    277.29712    45.345625   -6449.8678 
40398000    39.742538   -6925.9582   -6823.7229   -6925.9582            0    1794.7045    23.234579    21.233614    21.596121    10654.535    1369.6942    2284.0966    1730.3228    189.99704   -295.22412   -240.78291   -6544.8519 
40399000    39.611252    -6916.498   -6814.6004    -6916.498            0    2315.4944      23.0841    21.306184     21.64156    10644.057     2964.293    2619.7205    1362.4697    214.25516   -416.25882    199.36055   -6455.1601 
40400000    39.292983   -6922.2231   -6821.1443   -6922.2231            0    2302.3005    23.214024      21.2124    21.607145    10639.902     2145.995    2525.1927    2235.7139   -277.33401   -95.309166    605.06044   -6463.8916 
40401000    41.704386   -6923.5213   -6816.2393   -6923.5213            0    1133.5215    23.120553    21.376207    21.608446    10679.536    1420.6016    937.44097    1042.5219   -494.92458    371.61301    140.42581   -6639.6932 
40402000    39.483126   -6925.5887   -6824.0207   -6925.5887            0    2156.6992    23.217293    21.218153    21.614768    10648.042    1651.6153    2247.4996    2570.9827    341.87222    97.632867    519.19209   -6489.1053 
40403000    41.970957   -6921.5117    -6813.544   -6921.5117            0    2048.6621    23.108629    21.395145      21.5404    10649.843    2033.4958    1673.9361    2438.5545    89.670499    222.80005    123.06064   -6495.3519 
40404000    40.276118   -6924.5015   -6820.8937   -6924.5015            0    1838.2143    23.219734    21.250469    21.620331    10668.125    1721.8257    2286.0149    1506.8022    192.94297    121.29253   -534.76899   -6534.8976 
40405000    37.890447   -6921.9553   -6824.4844   -6921.9553            0    2070.2491    23.136025    21.347855    21.566605    10651.843     2347.091    1869.8535    1993.8029   -380.03381   -789.10493   -400.17509   -6502.8791 
40406000    38.237741    -6927.429   -6829.0648    -6927.429            0    2003.2823     23.18115    21.311058    21.574087    10657.919    2234.8651    1782.3581    1992.6239   -651.15822   -397.59186   -231.34319    -6517.685 
40407000    38.756348    -6923.133   -6823.4347    -6923.133            0    1704.6299    23.171029    21.314041    21.613968    10674.453    1534.7859    1463.0937      2116.01      119.301    -24.89824   -495.06951   -6558.0648 
40408000    39.108685   -6923.1459   -6822.5412   -6923.1459            0     2210.421    23.139117    21.326923    21.574208    10646.573    2215.1334     2254.118    2162.0115    342.45504   -118.76937   -406.00736   -6479.3306 
40409000    40.568909   -6922.6144   -6818.2533   -6922.6144            0    2754.9085    23.164848    21.222693    21.617315    10627.514    2592.9872    2994.5437    2677.1945   -68.513166    170.07562     114.9397   -6391.2662 
40410000     40.55308   -6925.8862   -6821.5659   -6925.8862            0    1885.2997    23.133634    21.348721    21.561642    10648.724    2421.4386    1520.2739    1714.1865    227.06148    24.393264   -18.412652   -6528.7775 
40411000    38.789973   -6924.5563   -6824.7715   -6924.5563            0    2246.3485    23.216099    21.222067    21.580412    10632.531       2076.1    2434.0844    2228.8611    11.175344   -248.10896    206.42362   -6476.4424 
40412000    40.968989   -6925.0119   -6819.6216   -6925.0119            0     1786.247      23.1453    21.327452    21.582704    10653.876    1992.3837    1482.0151    1884.3421    73.988122   -98.553699    949.38365    -6542.082 
40413000     39.46191   -6921.8939   -6820.3805   -6921.8939            0    2177.8099    23.191387    21.259011    21.582576     10640.77    1969.5111    2165.8843    2398.0342   -215.50424    551.88315    347.77012   -6482.4177 
40414000    39.202496   -6923.5694   -6822.7234   -6923.5694            0    1853.9856     23.14315    21.337561    21.588961    10661.025    1859.7488    1509.2079         2193    259.99431    156.66754    50.282466   -6534.4655 
40415000    39.028503   -6920.7813   -6820.3828   -6920.7813            0    1949.9428    23.157149    21.265033    21.659276    10665.841    2410.3534    1989.8531     1449.622   -410.62084    64.563789    70.182029   -6517.0686 
40416000    40.336287   -6918.5936    -6814.831   -6918.5936            0    2342.1073     23.16558    21.297474     21.57877    10646.281    2730.7478    2262.3535    2033.2206    -75.02835   -88.551947   -220.09088   -6451.1835 
40417000    39.641548   -6922.0349   -6820.0594   -6922.0349            0    2266.0143    23.091644    21.348683    21.598809    10647.698    2789.3317    1806.6516    2202.0597    7.2267368   -46.932052   -131.41511   -6468.1797 
40418000    40.946952   -6919.7902   -6814.4567   -6919.7902            0    1773.9673    23.185429    21.291982     21.61679    10671.425    2016.4917    1596.6122     1708.798   -230.79257   -127.56536   -89.149232    -6538.371 
40419000    40.858197   -6916.2298   -6811.1246   -6916.2298            0    1660.0463    23.125159    21.404361    21.549973     10666.79    1731.0353    1278.4403    1970.6632    738.14019   -109.67932   -16.709526   -6552.8808 
40420000    39.582219   -6923.5941   -6821.7712   -6923.5941            0    1873.0899    23.224783    21.259264    21.583517    10656.685    1364.5408    2164.7426    2089.9863   -33.412984    17.983097    192.19494   -6530.6615 
40421000    38.299629   -6917.7912   -6819.2678   -6917.7912            0    2197.5956    23.182503    21.306551    21.539742    10639.323    1903.9522    2442.8204    2246.0141    1013.9654   -549.72592   -89.642828   -6478.2809 
40422000    41.950268   -6925.8365    -6817.922   -6925.8365            0    2075.3895    23.203901    21.325302     21.50517    10641.407    2029.0321     1543.419    2653.7174   -154.14083   -286.18829     269.0719   -6495.8339 
40423000    38.479356   -6919.8371   -6820.8513   -6919.8371            0    1902.9924    23.191422    21.254041    21.617965    10655.742    2339.0498      1871.88    1498.0475   -625.86962    51.382708    285.39242   -6525.1205 
40424000    38.977161   -6923.6959   -6823.4295   -6923.6959            0    2167.6366    23.074184    21.311483    21.635433    10639.118    2534.6429    2170.7508     1797.516    610.71849    171.79999    8.7711825   -6487.0977 
40425000    39.874511   -6920.6251   -6818.0503   -6920.6251            0    2098.6559    23.185934    21.236414     21.62465    10647.676    1618.6678    2716.3995    1960.9006   -94.914431    48.263676   -207.85535   -6492.1596 
40426000    38.939483   -6923.7038   -6823.5344   -6923.7038            0    1962.5068    23.073585    21.304069    21.666268    10650.298     2252.854    2433.6725    1200.9939    4.0967302    113.47392   -11.969496   -6518.7106 
40427000    41.478115   -6919.2828   -6812.5829   -6919.2828            0      2126.09    23.187532    21.238796    21.633631    10654.028     2099.994    2295.0179     1983.258    90.325269   -160.48234    70.776375   -6482.2351 
40428000    41.654029   -6923.9261   -6816.7737   -6923.9261            0    2279.9974    23.126329    21.342605    21.548707    10635.926    2388.3776    2081.1442    2370.4704    378.80266    100.94441   -186.33382    -6463.114 
40429000     39.63398    -6922.325    -6820.369    -6922.325            0    1833.3357    23.192518      21.2969    21.588063    10662.965    1547.9428    1825.6387    2126.4256    15.473715   -205.35742    67.737586   -6535.2699 
40430000    41.647385   -6926.0179   -6818.8826   -6926.0179            0    1931.7153    23.232567    21.292276    21.541633     10656.09    1587.8383    1863.1498    2344.1578    60.478571   -222.17112   -376.46319   -6518.6783 
40431000    40.314824   -6924.4522   -6820.7448   -6924.4522            0    1922.5035    23.174596    21.364965    21.514591      10652.4    2455.2494    1495.4092    1816.8519   -138.64499   -158.17318   -287.78926   -6522.0756 
40432000    40.920399   -6921.2777   -6816.0125   -6921.2777            0    2301.5406    23.232157    21.212019    21.608943    10648.908    1998.0148    2877.9905    2028.6163    158.67298    185.60655    310.84237   -6458.5754 
40433000    38.589305    -6922.721   -6823.4524    -6922.721            0    1944.4072    23.139874    21.349832    21.565042     10653.83    2016.1963    1847.1988    1969.8265    271.42057    88.171316    175.36499   -6521.3398 
40434000    37.368362   -6918.4647   -6822.3368   -6918.4647            0    2086.2055    23.168295    21.258769    21.625133    10651.014    1943.8817    2623.6612    1691.0736   -847.74843    44.161317    245.70898   -6498.2779 
40435000    39.257646   -6916.6859    -6815.698   -6916.6859            0    2130.4987    23.045802    21.286024    21.720233    10654.936    2863.8721    2330.7902    1196.8337    346.59796    96.337178    173.26642    -6484.637 
40436000    40.879996   -6921.8425   -6816.6812   -6921.8425            0    1898.4682    23.147692    21.284059    21.635132    10659.128    1503.5424    2336.3048    1855.5575   -316.71954    347.55787    97.952528   -6521.5597 
40437000    38.814653   -6924.5253    -6824.677   -6924.5253            0    2107.8729    23.110921    21.284889     21.64301    10646.486    2263.4274    2417.9118    1642.2794   -183.46141   -182.32289    -400.5556   -6497.3916 
40438000    40.443899   -6919.4916   -6815.4521   -6919.4916            0    1745.1725    23.139302    21.319179    21.625936     10668.31     1596.851    1966.0018    1672.6648   -261.99922    51.867414   -290.17567   -6543.9271 
40439000    38.500673   -6925.7342   -6826.6935   -6925.7342            0    2252.7369    23.229287     21.25507    21.544069    10637.171    2038.3544    2413.8093    2306.0468    57.830697   -261.02548   -232.33579   -6477.2214 
40440000    40.541585   -6914.2945   -6810.0037   -6914.2945            0    2229.9991    23.146673    21.352779    21.538993    10645.556    2385.9126    1556.5799    2747.5049    154.61939    335.33991    25.906386   -6463.7863 
40441000    38.916729   -6914.7338   -6814.6229   -6914.7338            0    1934.8855    23.286397    21.231655    21.557752    10658.341    1369.9577    1816.6879    2618.0108   -162.71905    159.45492   -143.73976   -6513.8624 
40442000    40.510539   -6922.7939    -6818.583   -6922.7939            0    1700.8441    23.147301    21.405521    21.524503    10664.961    1829.9601    1274.2048    1998.3673    416.60115    -332.2003   -495.22878   -6554.0379 
40443000    38.755557   -6921.7673    -6822.071   -6921.7673            0    2252.9552    23.223058    21.250652    21.568365    10644.098    2289.3285    2119.7901     2349.747    173.98974   -19.647173    56.792923   -6472.3374 
40444000    39.917123   -6921.9497   -6819.2653   -6921.9497            0    2420.1644    23.100063    21.296745    21.628601    10640.324    2504.5192    2841.0221    1914.9518    311.66568    117.21541   -90.009327   -6443.7086 
40445000    41.049445   -6921.8368   -6816.2396   -6921.8368            0    1964.3606    23.150891    21.304739    21.590286     10648.84    1766.3732    2427.4133    1699.2954    -318.8315    113.27881   -306.98665   -6511.1696 
40446000    40.610587   -6926.4792    -6822.011   -6926.4792            0    1965.1327    23.196765    21.232822    21.621294    10649.196     1947.558    2238.4072    1709.4329   -518.71887    384.55389   -208.45219   -6516.8109 
40447000     39.48118    -6919.902   -6818.3391    -6919.902            0     2161.619     23.07267    21.318576    21.625991    10637.316    2621.9711    2330.5473    1532.3387    772.11078   -38.145875    362.25828   -6482.9977 
40448000    41.283783    -6921.994    -6815.794    -6921.994            0     2134.197    23.227005    21.235887      21.5638    10636.259    1828.0623     2029.175    2545.3537     10.95386   -194.52152   -43.367684   -6484.7397 
40449000     40.93079   -6921.9764   -6816.6845   -6921.9764            0    1774.0753    23.108896    21.373686    21.570193    10653.999    2242.1553    1103.2925     1976.778    247.74623    241.04593    182.71219   -6541.0328 
40450000    38.789461   -6921.7889   -6822.0054   -6921.7889            0    2090.7175    23.228128      21.2416     21.58001    10647.633    2025.1194    2900.6534    1346.3797   -364.86128   -108.27595     -281.109   -6497.3487 
40451000     41.43535   -6926.3745   -6819.7846   -6926.3745            0    1765.1966    23.166007    21.401221    21.506915    10662.717    1158.6797    1694.6786    2442.2316    478.03218     169.2437   -20.124833   -6545.2881 
40452000    40.531303   -6925.5052   -6821.2409   -6925.5052            0    1995.5497     23.22738    21.259088    21.572632    10652.413    1668.0788    2169.4732     2149.097    222.66501   -291.22964   -363.11908   -6511.2233 
40453000    37.591632   -6924.3587   -6827.6566   -6924.3587            0    2068.1519    23.144478    21.348852    21.566974    10656.415     2037.855    1765.0733    2401.5273   -219.30788   -115.38364    42.486301   -6506.2391 
40454000    39.703928   -6923.7582   -6821.6223   -6923.7582            0    2338.0923    23.191447    21.274821    21.566037     10640.55    2212.8992      2285.67    2515.7077    418.64263     338.2301   -4.3992747   -6458.7936 
40455000    39.190139   -6922.9977   -6822.1835   -6922.9977            0    2021.5396    23.151208    21.285819    21.618953    10653.656    2042.8263     1624.017    2397.7753   -294.74437    18.648517    265.30619   -6508.0915 
40456000    38.812384   -6925.3085    -6825.466   -6925.3085            0    1905.7715    23.115106    21.345702    21.598753    10657.001    1923.7327    1770.6977    2022.8842    123.72635   -43.028836   -356.27306   -6529.2683 
40457000    39.140152   -6925.2897    -6824.604   -6925.2897            0    1944.9736    23.187916    21.230413    21.639051    10652.667    2161.7562    2494.3543    1178.8102   -369.82733   -134.15062   -262.92132   -6522.4364 
40458000    38.401142   -6916.8729   -6818.0883   -6916.8729            0    2395.5323    23.078091     21.34019    21.587042     10631.42    2565.3039    2155.4997    2465.7934   -479.61241    139.11426     485.1652   -6446.6649 
40459000    40.584723   -6920.3436   -6815.9419   -6920.3436            0    2305.1936    23.186806    21.249612    21.580585    10632.984    2197.6925    2282.3503    2435.5379   -100.70549    -52.83843    242.50986   -6458.4729 
40460000    39.431387   -6922.0779    -6820.643   -6922.0779            0    2185.6118    23.134497     21.27225    21.625358    10642.331    2043.1962    2701.6807    1811.9586    595.60466    475.69287   -96.443988   -6481.4197 
40461000    39.676782   -6919.5574   -6817.4913   -6919.5574            0    2137.0056    23.173884    21.274067    21.586262    10642.087    1624.9737    2325.8007    2460.2423    97.915295    535.30888    195.07131   -6485.8197 
40462000    38.765696   -6921.6639   -6821.9415   -6921.6639            0    1984.1795    23.189006    21.291644    21.556491    10643.131    1993.1575    1996.5591    1962.8218    -452.8573   -573.77785   -129.08542   -6513.9589 
40463000    39.722401   -6923.0066   -6820.8231   -6923.0066            0    1943.6674    23.161501     21.29954    21.600509    10656.165    1474.7708    2341.4064     2014.825    1412.6921   -147.49095   -40.644512   -6518.7593 
40464000    40.367787   -6923.8935   -6820.0499   -6923.8935            0    1958.1766    23.255853    21.281622    21.535423    10658.361    1611.4996    2000.9337    2262.0965    -460.3749    -204.0914    -169.1609   -6515.6684 
40465000    37.469304   -6922.7195    -6826.332   -6922.7195            0    1778.4943    23.162434    21.370871    21.552335    10668.436    1741.2855    1811.8362    1782.3613     77.14219    147.27877   -490.24328   -6549.6193 
40466000    38.329387   -6919.6455   -6821.0454   -6919.6455            0    1764.6879     23.19105     21.29148    21.628584    10679.585    1834.7301    2032.5079    1426.8258    183.26482    15.976518   -111.35177   -6546.1939 
40467000    41.105401   -6925.9059   -6820.1648   -6925.9059            0    2461.8587    23.158777    21.346257    21.526318    10641.604    2181.8466    1923.8196    3279.9099   -353.80717    80.115221     33.49301    -6438.092 
40468000    41.445556   -6922.8767   -6816.2606   -6922.8767            0    1815.5594    23.179353    21.276587    21.625726    10665.322    2261.7467    1627.9655    1556.9659   -17.697009   -156.38779   -293.83709   -6533.8634 
40469000    40.703906   -6925.8785   -6821.1702   -6925.8785            0    1533.6907    23.178096    21.277949    21.642715    10673.805     1661.898     1746.061    1193.1131   -321.76764     89.17845   -95.168757   -6582.4259 
40470000    38.701427   -6925.2894   -6825.7323   -6925.2894            0    1890.7658    23.166432     21.30539    21.571425    10647.005     1644.301    1968.4942    2059.5021    259.21227   -12.457389   -79.709722   -6532.1424 
40471000    39.165621   -6922.9316   -6822.1805   -6922.9316            0    2051.3635    23.117499    21.269499    21.644629    10642.613    2331.1915    2194.7955    1628.1034    630.46423   -194.00707    353.59771   -6503.7851 
40472000    40.157591   -6926.5608   -6823.2578   -6926.5608            0     1685.057    23.186868    21.257495    21.601185     10647.11    1463.1436    2270.3707    1321.6565    145.52109    105.65035    281.80527   -6561.6069 
40473000    40.073469   -6926.4753   -6823.3887   -6926.4753            0    2014.3883    23.165945    21.278672    21.581631    10638.461    2161.0168    1910.7709     1971.377   -295.74251   -477.80738    180.94369   -6510.8543 
40474000    42.293111   -6922.8472   -6814.0508   -6922.8472            0    2235.4969    23.076251     21.27666    21.653643    10631.626    2603.2454    2068.2889    2034.9565    624.78941    152.40166    417.56683    -6467.434 
40475000    38.656248   -6920.8568    -6821.416   -6920.8568            0    2180.7664    23.192344    21.221755    21.603276    10632.749    2147.0504    2638.1727     1757.076    -533.0736   -181.04153    55.252164   -6483.2495 
40476000      38.7628   -6920.0044   -6820.2895   -6920.0044            0    2027.2542    23.083193    21.352448    21.594611    10643.609    2166.0458    1794.8338     2120.883    143.15206   -157.44225   -45.794394   -6505.6067 
40477000     41.89397    -6919.483   -6811.7133    -6919.483            0    2486.7136     23.23128    21.213486    21.587259    10638.556    2238.2074    2755.9352    2465.9983   -39.512456    -602.9398   -18.363826   -6425.8936 
40478000    41.550563   -6919.5423   -6812.6561   -6919.5423            0    2205.4892    23.133204    21.379294    21.532828    10649.524    2413.8406    2193.4124    2009.2145    365.36267   -28.558862   -495.91508   -6470.1163 
40479000    40.040715   -6920.2254   -6817.2231   -6920.2254            0    2010.1239    23.272813    21.251307    21.544166    10655.264     1528.297    2240.8917    2261.1831    417.27949   -277.78617   -341.61458   -6504.8577 
40480000    40.582497   -6919.7623   -6815.3663   -6919.7623            0    1820.0107    23.132916     21.38916     21.56479    10670.121    1895.0685    1309.2157    2255.7478    352.62313   -238.15898   -48.735206   -6532.1494 
40481000    41.531083   -6921.8449   -6815.0088   -6921.8449            0     2228.491     23.16587    21.309319    21.573958    10649.961    2155.2073    1804.9325    2725.3333    29.590819   -269.29004     6.971721   -6468.8823 
40482000    40.112538   -6919.7597   -6816.5726   -6919.7597            0    2205.0932    23.178536    21.271716    21.595024    10647.367    2411.5491    2024.0249    2179.7056   -430.06646   -109.67322   -467.02471   -6474.1637 
40483000    39.542385   -6924.9648   -6823.2444   -6924.9648            0    2207.2005    23.116493    21.332774    21.584972     10644.39    2257.2125    1744.0488    2620.3401    502.72738    25.684407    221.54621   -6480.6041 
40484000    40.395614   -6922.8225   -6818.9072   -6922.8225            0    2206.8707    23.220707    21.237269    21.573291    10638.748    2197.6388    2201.6278    2221.3455   -256.01113   -220.15271    160.13498   -6476.4997 
40485000    40.443517   -6923.5087   -6819.4702   -6923.5087            0    2155.5509     23.08299     21.32975    21.608609    10639.094    2789.0781    1960.1036     1717.471    -277.8409   -91.662718    263.18704   -6485.0143 
40486000    38.959799   -6921.4596   -6821.2379   -6921.4596            0     2038.679    23.193143    21.239329    21.613899    10647.153    2015.0461    1965.8052    2135.1856   -209.58181    -129.8307    273.18236   -6504.6763 
40487000     39.98175   -6925.8262   -6822.9756   -6925.8262            0    1924.0473      23.1287    21.329013    21.589295    10650.266    1782.5845    1399.5342    2590.0231    356.73691   -210.31126    371.44612   -6524.1264 
40488000    42.180638   -6923.6472     -6815.14   -6923.6472            0    2286.1955    23.117753    21.269681    21.642629    10641.837    2804.8495    1988.7652    2064.9718    172.00433    111.36847    11.370937   -6460.3219 
40489000    40.287152   -6923.6562     -6820.02   -6923.6562            0    2000.4032    23.169518    21.290412    21.588154     10649.19    2300.9244    1781.8836    1918.4017   -582.33175   -295.98233    101.79197   -6509.3424 
40490000    41.405202   -6924.6197   -6818.1073   -6924.6197            0    2157.2692    23.144073    21.330203    21.563147    10645.031     2491.071    1681.8047    2298.9319   -49.544499   -121.18078    101.79184   -6483.1981 
40491000    39.580568   -6922.8318   -6821.0132   -6922.8318            0    1952.1364    23.234943    21.248943    21.579021    10653.951    2223.5548    2197.0167    1435.8378   -393.03315   -195.12499   -340.13802   -6517.6962 
40492000    40.298767   -6925.9965   -6822.3304   -6925.9965            0    2199.5887    23.147803    21.363758    21.508231    10636.338    2057.2338    1685.1455    2856.3869   -460.30462    206.25063    3.6027221     -6481.13 
40493000    40.086356   -6920.2692   -6817.1495   -6920.2692            0    2047.2283    23.237492    21.258065    21.552748    10646.715    1231.9451    2399.2212    2510.5187     155.3558    407.35284   -155.84736   -6499.2734 
40494000    40.564583   -6924.3532   -6820.0033   -6924.3532            0    2463.1763    23.111782    21.359484    21.548528    10637.555    2182.9885    2460.5657    2745.9748     426.4271    208.37787   -292.06839   -6437.8715 
40495000    43.935266   -6925.8454   -6812.8246   -6925.8454            0     1771.862     23.24612    21.274459    21.556505     10660.74    1144.3545    2458.5605    1712.6711   -175.97103    208.41326   -329.97993   -6537.3427 
40496000    40.295122   -6925.4158   -6821.7591   -6925.4158            0    2269.9736    23.103701    21.365548    21.560606    10642.816    2223.1877    2353.6611    2233.0719    28.417738   -105.67735   -569.84053   -6469.4261 
40497000     40.88569     -6924.38   -6819.2041     -6924.38            0    1826.3035    23.194185    21.240113    21.657424    10669.468    1601.8528    2155.7493    1721.3084     310.9857   -34.646185    -244.8307   -6535.0253 
40498000    41.146464   -6924.0737   -6818.2269   -6924.0737            0    1860.0162     23.15962    21.299955    21.609468    10659.926    1656.4662    2009.1483    1914.4343   -139.61543    420.88429   -31.339937   -6529.0612 
40499000     40.77919   -6927.1914   -6822.2894   -6927.1914            0    2096.9384    23.124796    21.273141    21.645394    10648.171    1866.1868    2526.3723    1898.2559     122.3105    491.33316    129.91091   -6496.6502 
40500000    41.667218   -6917.5041   -6810.3177   -6917.5041            0    2067.8733    23.157528    21.230373    21.661603    10649.775    2314.5753    2386.3622    1502.6825    -138.8291   -93.963857    43.577852   -6489.1438 
Loop time of 580.223 on 64 procs for 250000 steps with 1296 atoms

Performance: 74.454 ns/day, 0.322 hours/ns, 430.868 timesteps/s
383.2% CPU use with 16 MPI tasks x 4 OpenMP threads

MPI task timing breakdown:
Section |  min time  |  avg time  |  max time  |%varavg| %total
---------------------------------------------------------------
Pair    | 39.98      | 51.145     | 60.663     |  84.0 |  8.81
Bond    | 1.4118     | 1.9195     | 2.6968     |  22.7 |  0.33
Kspace  | 287        | 298.23     | 320.29     |  45.1 | 51.40
Neigh   | 0.14806    | 0.16813    | 0.17745    |   1.9 |  0.03
Comm    | 61.18      | 70.312     | 77.6       |  43.3 | 12.12
Output  | 0.43313    | 0.43335    | 0.43481    |   0.1 |  0.07
Modify  | 130.44     | 135.21     | 139.8      |  26.5 | 23.30
Other   |            | 22.81      |            |       |  3.93

Nlocal:        81.0000 ave          96 max          65 min
Histogram: 2 0 2 1 3 2 2 0 0 4
Nghost:        3695.00 ave        3732 max        3661 min
Histogram: 1 1 4 1 3 0 2 1 1 2
Neighs:        26237.7 ave       31217 max       21040 min
Histogram: 2 0 2 1 3 4 0 0 0 4

Total # of neighbors = 419803
Ave neighs/atom = 323.92207
Ave special neighs/atom = 2.0000000
Neighbor list builds = 288
Dangerous builds = 0

unfix		3
unfix		2
unfix		1

write_data	data.final.${pid}
write_data	data.final.0
System init for write_data ...
PPPM initialization ...
  extracting TIP4P info from pair style
  using 12-bit tables for long-range coulomb (../kspace.cpp:340)
  G vector (1/distance) = 0.3680519
  grid = 30 40 32
  stencil order = 5
  estimated absolute RMS force accuracy = 0.0043859729
  estimated relative force accuracy = 1.3208227e-05
  using double precision FFTW3
  3d grid and FFT values/proc = 11832 2400
Last active /omp style is kspace_style pppm/tip4p/omp
WARNING: Not all mixed pair coeffs generated from mixing. Use write_data with 'pair ij' option to store all pair coeffs. (../write_data.cpp:312)

write_restart   restart.lmp.${pid}
write_restart   restart.lmp.0
System init for write_restart ...
PPPM initialization ...
  extracting TIP4P info from pair style
  using 12-bit tables for long-range coulomb (../kspace.cpp:340)
  G vector (1/distance) = 0.3680519
  grid = 30 40 32
  stencil order = 5
  estimated absolute RMS force accuracy = 0.0043859729
  estimated relative force accuracy = 1.3208227e-05
  using double precision FFTW3
  3d grid and FFT values/proc = 11832 2400
Last active /omp style is kspace_style pppm/tip4p/omp
Total wall time: 0:09:40
