LAMMPS (30 Jul 2021)
Processor partition = 1
  using 4 OpenMP thread(s) per MPI task
using multi-threaded neighbor list subroutines
variable        pid world 0 1
variable        phase world IceVI IceV

shell cd ${phase}
shell cd IceV
include Restart.lmp
echo both
log log.lammps
#include		in.partitions
include		in.temp
variable        temperature equal 175.77
variable	tempDamp equal 100.0
include		in.pressure
variable        pressure equal 8330.0
variable        pressureDamp equal 1000.0 # This is 1 ps
include		in.seed
variable        seed equal 745823

units		real
atom_style	full
read_restart    restart.lmp.${pid}
read_restart    restart.lmp.1
Reading restart file ...
  restart file = 30 Jul 2021, LAMMPS = 30 Jul 2021
  restoring atom style full from restart
  triclinic box = (-3.1037116 -0.13913873 -0.040856057) to (14.713711 22.719138 19.270854) with tilt (-0.24312296 -6.4801248 0.0020691046)
  2 by 4 by 2 MPI processor grid
  restoring pair style lj/cut/tip4p/long/omp from restart
  restoring bond style harmonic/omp from restart
  restoring angle style harmonic/omp from restart
  1008 atoms
  672 bonds
  336 angles
Finding 1-2 1-3 1-4 neighbors ...
  special bond factors lj:    0        0        0       
  special bond factors coul:  0        0        0       
     2 = max # of 1-2 neighbors
     1 = max # of 1-3 neighbors
     1 = max # of 1-4 neighbors
     2 = max # of special neighbors
  special bonds CPU = 0.001 seconds
  read_restart CPU = 0.005 seconds

include 	in.setup
variable	out_freq equal 1000
variable	out_freq2 equal 10000
variable	out_freq3 equal 1000

timestep	2.0

neigh_modify    delay 7 every 1

include		in.tip4p
# This is TIP4P/Ice

# create groups ###
group ox type 2
336 atoms in group ox
group hy type 1
672 atoms in group hy

# set charges - beside manually ###
set group ox charge -1.1794
Setting atom values ...
  336 settings made for charge
set group hy charge 0.5897
Setting atom values ...
  672 settings made for charge

# ### TIP3P Potential Parameters ###
pair_style lj/cut/tip4p/long/omp 2 1 1 1 0.1577 8.5
pair_coeff 1 1*2 0.000 0.000
pair_coeff 2 2 0.21084 3.1668
bond_style  harmonic
bond_coeff  1 450 0.9572
angle_style harmonic
angle_coeff 1 55 104.52
kspace_style pppm/tip4p/omp 1.0e-5
pair_modify tail yes

thermo          ${out_freq}
thermo          1000
thermo_style    custom step temp pe etotal epair emol press lx ly lz vol pxx pyy pzz pxy pxz pyz enthalpy

restart 	${out_freq3} restart.lmp.${pid} restart2.lmp.${pid}
restart 	1000 restart.lmp.${pid} restart2.lmp.${pid}
restart 	1000 restart.lmp.1 restart2.lmp.${pid}
restart 	1000 restart.lmp.1 restart2.lmp.1


include         in.dump
dump            myDump all atom ${out_freq2} dump.water.${pid}
dump            myDump all atom 10000 dump.water.${pid}
dump            myDump all atom 10000 dump.water.1
dump            myDump2 all dcd ${out_freq2} dump.dcd
dump            myDump2 all dcd 10000 dump.dcd
dump_modify     myDump append yes
dump_modify     myDump2 append yes


variable natoms 	equal  "count(all)"                        # NUMBER ATOMS
variable H      	equal  "enthalpy/v_natoms"                 # ENTHALPY-per-atom
variable Vol      	equal  "vol/v_natoms"                 # volume-per-atom
fix AVG all 		ave/time ${out_freq} 1 ${out_freq} v_Vol v_H file vol_enthalpy.dat
fix AVG all 		ave/time 1000 1 ${out_freq} v_Vol v_H file vol_enthalpy.dat
fix AVG all 		ave/time 1000 1 1000 v_Vol v_H file vol_enthalpy.dat



fix 		1 all shake 1e-6 200 0 b 1 a 1
Finding SHAKE clusters ...
       0 = # of size 2 clusters
       0 = # of size 3 clusters
       0 = # of size 4 clusters
     336 = # of frozen angles
  find clusters CPU = 0.000 seconds
fix             2 all nph tri ${pressure} ${pressure} ${pressureDamp}
fix             2 all nph tri 8330 ${pressure} ${pressureDamp}
fix             2 all nph tri 8330 8330 ${pressureDamp}
fix             2 all nph tri 8330 8330 1000
fix             3 all temp/csvr ${temperature} ${temperature} ${tempDamp} ${seed}
fix             3 all temp/csvr 175.77 ${temperature} ${tempDamp} ${seed}
fix             3 all temp/csvr 175.77 175.77 ${tempDamp} ${seed}
fix             3 all temp/csvr 175.77 175.77 100 ${seed}
fix             3 all temp/csvr 175.77 175.77 100 745823


run             250000
PPPM initialization ...
  extracting TIP4P info from pair style
  using 12-bit tables for long-range coulomb (../kspace.cpp:340)
  G vector (1/distance) = 0.37971921
  grid = 24 27 32
  stencil order = 5
  estimated absolute RMS force accuracy = 0.0023991457
  estimated relative force accuracy = 7.2249561e-06
  using double precision FFTW3
  3d grid and FFT values/proc = 7875 1344
Last active /omp style is kspace_style pppm/tip4p/omp
Neighbor list info ...
  update every 1 steps, delay 7 steps, check yes
  max neighbors/atom: 2000, page size: 100000
  master list distance cutoff = 10.8154
  ghost atom cutoff = 10.8154
  binsize = 5.4077, bins = 5 5 4
  1 neighbor lists, perpetual/occasional/extra = 1 0 0
  (1) pair lj/cut/tip4p/long/omp, perpetual
      attributes: half, newton on, omp
      pair build: half/bin/newton/tri/omp
      stencil: half/bin/3d/tri
      bin: standard
Setting up Verlet run ...
  Unit style    : real
  Current step  : 17500000
  Time step     : 2
Per MPI rank memory allocation (min/avg/max) = 12.45 | 12.47 | 12.48 Mbytes
Step Temp PotEng TotEng E_pair E_mol Press Lx Ly Lz Volume Pxx Pyy Pzz Pxy Pxz Pyz Enthalpy 
17500000    183.40707    -5004.968   -4638.1312    -5004.968            0    7358.0218    17.817422    22.858276     19.31171    7865.1876    8573.3682    6254.9464    7245.7507    1475.7224    -178.2135    1676.5638   -3794.1242 
17501000    167.97858   -5000.9281   -4664.9502   -5000.9281            0    8991.5511    17.792592    22.600296    19.380433    7793.2179    9465.7594    9830.1954    7678.6984   -663.89299   -139.43538    595.37181   -3643.0056 
17502000    171.80626   -5008.8838   -4665.2501   -5008.8838            0    9468.3491    17.865783    22.639053     19.26109    7790.4256    11589.162    9771.6992    7044.1863   -314.00356   -828.12984   -392.15103   -3589.5001 
17503000    175.10749   -5021.3834   -4671.1468   -5021.3834            0    9093.7763    17.726458    23.001926    19.076257    7778.2041    9161.9851    8153.7496    9965.5941    313.99906   -529.76627   -551.95455   -3639.5749 
17504000    169.66002   -5040.6542   -4701.3132   -5040.6542            0    6878.9454    17.933472    23.024221    18.984372    7838.7272    5962.4026    7168.7282    7505.7053   -936.74147   -85.427884   -1228.3016   -3914.9136 
17505000    177.89913   -5017.5024   -4661.6822   -5017.5024            0    9915.5906    17.915858    22.686711    19.120565    7771.5898    9765.3159    8446.9605    11534.496   -870.06841   -1069.7115    430.43972   -3537.8425 
17506000    175.93095   -5007.3984   -4655.5148   -5007.3984            0    9091.0909     18.00622    22.635149    19.167468    7812.1514    9330.6092    8002.9892    9939.6744    926.05697   -702.04926    1746.8148   -3619.7466 
17507000    169.77205   -5009.4598   -4669.8947   -5009.4598            0    6669.5739    18.057914    22.752059    19.112856    7852.6071    6014.5109    6342.6023    7651.6086    796.08582   -1147.6037   -837.82641   -3906.0803 
17508000    182.28137   -5026.0572   -4661.4719   -5026.0572            0    8711.5361     17.94366    22.936141    19.017415    7826.7757    7390.6829    8345.7629    10398.163    2054.5705    70.925476   -1590.3992   -3667.0893 
17509000    184.71015    -5011.177   -4641.7339    -5011.177            0    9547.6275    17.786461    22.970664    19.044209    7780.8315    9384.6032    8506.5545    10751.725    267.59374   -598.84773   -1241.2969   -3558.3126 
17510000    179.63596    -5018.657   -4659.3629    -5018.657            0    8688.1171    17.845679    22.690021    19.298915     7814.494    8923.5723     9353.371    7787.4079   -689.85195    18.499502   -2117.3752   -3669.2096 
17511000      175.284   -5026.7714   -4676.1818   -5026.7714            0    7846.6312    17.991538    22.387484    19.474229    7843.9323    8764.3113    8495.1262     6280.456    341.74764    222.36104    705.78415   -3778.5608 
17512000    181.60073   -4995.7715   -4632.5476   -4995.7715            0    8886.1624    17.978596    22.608607    19.215345    7810.4809    7255.2922    9349.5159    10053.679    910.79747    464.40552   -930.46423   -3620.3439 
17513000    182.00741   -5011.4533    -4647.416   -5011.4533            0    7607.5059    17.807945    22.894777    19.255868    7850.7892    7477.6835    7818.8433    7525.9911   -328.61678   -548.86044   -249.51826   -3776.3892 
17514000    176.05841   -5019.6391   -4667.5005   -5019.6391            0    8546.9683    17.713603    22.841284    19.254071    7790.2247     8866.809    8428.1359      8345.96    1165.4132   -437.93587   -579.93175   -3696.4586 
17515000    179.21923   -5026.7921   -4668.3315   -5026.7921            0    7255.6451      17.7244    22.844479    19.388391    7850.4506    8649.3663    7153.5216    5964.0474    650.47367    1141.4921     594.2169   -3837.6271 
17516000    177.99196   -5017.3689    -4661.363   -5017.3689            0    7177.5514    17.791802    22.743984    19.383702    7843.7402    6501.8392    7586.3594    7444.4554    75.829671    914.86469    901.89613   -3840.3021 
17517000    174.91018   -5006.9331   -4657.0912   -5006.9331            0    11021.325    17.871967    22.684384    19.119307    7751.2458    10752.418    11294.543    11017.014   -910.25317    152.27369   -1771.3284   -3411.1969 
17518000    167.01072   -5014.2252   -4680.1832   -5014.2252            0    8864.7122     17.96524    22.927664    19.012144    7831.1206    8997.3471    8086.6756     9510.114    89.035617   -814.38774   -1079.7815   -3667.7545 
17519000    174.62586   -5014.6498   -4665.3765   -5014.6498            0     8467.762    17.914532    22.776847    19.134677    7807.6473    8881.5782    8300.4081    8221.2998    1195.9226   -1159.6757   -594.14289   -3701.1819 
17520000    177.31048   -5023.7113   -4669.0684   -5023.7113            0    8163.9286    17.979266    22.674511    19.179027    7818.7342    5641.1501     8502.914    10347.722    546.95243   -354.72848     27.65993   -3738.1502 
17521000    172.60624   -5024.8934   -4679.6596   -5024.8934            0    8318.3278    17.952566    22.580239    19.238137    7798.6258    7928.3128    10021.734    7004.9368    5.6341385    736.51861    1163.8168   -3733.5749 
17522000    172.72132   -5018.1352   -4672.6712   -5018.1352            0    6854.0631    17.876482    22.918673    19.183529    7859.5926    5285.0948    7029.5181    8247.5764   -29.291527    493.46966   -1111.7883   -3887.0304 
17523000    176.34044   -5026.7312   -4674.0285   -5026.7312            0    9554.0211    17.684869     22.96974    19.057012     7741.279     10747.34    8697.9982    9216.7254   -97.901593   -366.20165    300.43949   -3595.3928 
17524000    180.52943   -4997.1614   -4636.0802   -4997.1614            0    8434.5636    18.040762    22.724639    19.103265    7831.7618    7351.1168    8643.2454    9309.3286    165.54635    43.561707    130.79959   -3672.6994 
17525000    187.45118   -5021.7956   -4646.8701   -5021.7956            0    9267.4151    17.905941    22.640809    19.261874      7808.86    10253.974    9205.1167    8343.1547    1452.9606   -29.716108    364.55601   -3591.4578 
17526000    181.90536   -5026.5824   -4662.7493   -5026.5824            0    5666.7371    17.889742    22.851353    19.372757     7919.676    6934.6931    5809.6371    4255.8813    576.60734   -688.81252    244.60373   -4008.2391 
17527000    186.49606    -5019.946   -4646.9308    -5019.946            0    8432.2381    17.877766    22.552226    19.370916    7810.0318    8348.4376    9195.1062    7753.1705   -137.61328    995.80097   -2023.1788   -3686.4879 
17528000    170.40592   -5019.2326   -4678.3997   -5019.2326            0    7431.7935    17.765118      22.8646    19.296419    7838.0572    8048.3684    7727.5925    6519.4195    701.22763    211.54378    1320.0274   -3828.8712 
17529000    177.98414   -5019.3362    -4663.346   -5019.3362            0    8690.5865    17.682203     22.84177    19.296685    7793.7922    7988.5543      9312.75    8770.4553    502.08271   -189.87213    163.30371   -3675.5351 
17530000    184.83633    -5017.805   -4648.1095    -5017.805            0    7910.4766    17.798834    22.773702    19.264884    7808.9314    7080.0481    7729.0624    8922.3194   -316.57554   -164.30499   -901.62994   -3747.2228 
17531000    178.62077   -5003.5439   -4646.2803   -5003.5439            0    6831.6706    17.761119    22.779199    19.393308    7846.2233    8522.1853    6387.9441    5584.8824    319.61627    -1181.257    1305.3437   -3864.5382 
17532000    170.55455    -4992.897   -4651.7668    -4992.897            0    10856.034    17.748075    22.723497    19.273831    7773.1036    10463.006    10808.799    11296.299    1064.0915   -164.32434    793.27485    -3421.097 
17533000    179.87004   -5027.4402   -4667.6779   -5027.4402            0     7369.723    17.815286    22.829662    19.272717    7838.5408    7018.2386    7580.5953    7510.3352    46.554323   -566.99089   -141.09119   -3825.1927 
17534000    166.15197   -5019.2327   -4686.9082   -5019.2327            0    6787.2343    17.724227    23.139845     19.12201    7842.6219    7419.8579    6534.2588    6407.5861    240.77344   -888.91525   -455.41333   -3910.6075 
17535000    173.83327    -5037.633    -4689.945    -5037.633            0    7592.2595    17.873529    22.673245    19.292837    7818.4398    8495.0768    7033.2304    7248.4714    650.37299   -385.68063    817.19317   -3824.2458 
17536000     172.7085   -5031.7562   -4686.3179   -5031.7562            0    8841.0528    17.879586    22.686034    19.225054    7798.0068    8973.7709    10063.873    7485.5147   -945.71958    984.02272    679.69888   -3680.8609 
17537000    175.23015   -5008.1835   -4657.7016   -5008.1835            0    9861.9587    17.838898    22.715704    19.151666    7760.6982    9366.0196    10439.195    9780.6619    686.20866   -619.80181    612.18361   -3541.5072 
17538000    168.68949   -5006.8058   -4669.4059   -5006.8058            0    6978.6651    17.771924    23.052259    19.156109    7847.9317    8255.5162    4944.4851    7735.9939   -136.08454   -1421.5699   -340.88903   -3870.6696 
17539000    169.09411   -5000.3127   -4662.1036   -5000.3127            0    9876.1721    17.749507     22.85426    19.143086     7765.428    10419.378    9608.8333    9600.3047   -703.85833   -599.94168   -201.03539   -3543.6192 
17540000    177.41811   -5011.6757   -4656.8175   -5011.6757            0    9867.4533    17.755446    22.974316    19.063085    7776.1988     10862.07     8975.069     9765.221   -302.97884   -775.11278    1574.8451   -3537.7705 
17541000    173.31737   -5007.0052    -4660.349   -5007.0052            0    8933.1217    17.996577    22.634239    19.146959       7799.3    9765.9291    8186.2359    8847.2001   -576.90767   -21.977401   -520.15596    -3644.253 
17542000    174.57306   -5016.6188   -4667.4511   -5016.6188            0     8785.402    18.032842    22.520494    19.234154    7811.1539    9146.6994    8588.0968    8621.4099   -35.782807    176.42536   -639.19879   -3666.6386 
17543000    179.99623   -5016.8891   -4656.8744   -5016.8891            0    7659.4514    17.650775    23.154962    19.151637    7827.3324    8958.4098    7256.8997    6763.0448   -42.979714    110.18044    569.87693   -3782.5203 
17544000    171.50413   -5029.9002   -4686.8707   -5029.9002            0    8855.3289    17.807488    22.953737     19.06421    7792.4652    7919.2535    9454.2082    9192.5251   -337.49193    1206.3574    69.668957   -3680.5059 
17545000    174.38453   -5038.6687    -4689.878   -5038.6687            0    7857.4312    18.052889     22.45008    19.322941    7831.3715    7996.6571    9428.8585     6146.778    44.399866   -618.74942    403.62873    -3792.461 
17546000    172.51785   -5027.6761   -4682.6191   -5027.6761            0    7481.0139    18.017391    22.446911    19.364023    7831.4838    6580.7348    9560.9959    6301.3109   -126.23685    113.03446    783.67563   -3828.1814 
17547000    172.46177   -5015.3901   -4670.4452   -5015.3901            0    8357.5549    17.758477    22.996204    19.173654    7830.0901    11139.071    7331.0952     6602.498    785.38489    304.25536    98.312549    -3716.064 
17548000    175.50479   -5030.1488   -4679.1176   -5030.1488            0    9720.1617    17.669908    22.890027    19.259882    7789.9419    10460.369    10528.382    8171.7335    119.11495    1047.4145    1619.5054   -3574.8264 
17549000    179.59081   -5017.9843   -4658.7805   -5017.9843            0    7896.4407    17.929303    22.696655    19.261359    7838.1249    7347.3891     8778.364    7563.5689    242.24197    1172.9705    367.71555   -3756.1304 
17550000    171.08026   -5028.9568   -4686.7752   -5028.9568            0    9134.0583    18.025643    22.543077    19.188228    7797.2028    8425.3233    9895.3662    9081.4854     -748.199    1028.0224   -1724.0106    -3648.103 
17551000    182.62339   -4982.6173    -4617.348   -4982.6173            0    9318.0397    17.967557     22.66452    19.178751    7810.0868     8486.817    9646.6941     9820.608    103.56789    772.50316   -195.99931   -3556.0036 
17552000    175.71194   -5034.6508   -4683.2052   -5034.6508            0    7100.6041    17.802922    23.079366    19.080565    7839.8256     9524.711    5014.9712    6762.1303   -121.07348    271.88245    823.96908   -3871.3519 
17553000    163.22715   -5020.7583   -4694.2838   -5020.7583            0    7367.1143    17.869989    22.871354    19.164917    7832.9092    7651.3931    7316.3363    7133.6135   -656.24696   -492.49989    330.03006   -3852.7019 
17554000    182.00057   -5012.5768   -4648.5532   -5012.5768            0    7729.5112     18.10615    22.515358    19.265108    7853.7378    5477.6916    9104.4657    8606.3762   -391.93525    696.60097   -396.32861    -3763.225 
17555000     176.1835   -5005.7536   -4653.3648   -5005.7536            0    9163.7459    17.869595    22.703995    19.200472    7789.8465    8029.7175    9724.6082     9736.912    1321.1081    347.16398    1203.1665   -3612.2998 
17556000     187.0542   -5005.8533   -4631.7218   -5005.8533            0    9632.4099    17.805201    22.963362    19.110877    7813.8123    9345.1033    10023.497    9528.6298   -329.71434    384.05466   -2331.7002   -3534.0467 
17557000      172.776   -5040.2124    -4694.639   -5040.2124            0    6971.8876    17.764305    22.980803    19.240889    7854.8619    9106.7496    5354.1914    6454.7218    1472.1485   -1187.3002    767.57251   -3895.9737 
17558000    177.60093   -5018.0184   -4662.7946   -5018.0184            0    9271.4564      18.0717    22.462136    19.225972    7804.3794    8208.4067    9432.4409    10173.521    -1343.956    833.48529   -614.73284   -3607.5279 
17559000     163.3441   -4997.7114   -4671.0031   -4997.7114            0    8325.9358    17.904316    22.677204    19.298852    7835.7166    8516.8241    8072.0205    8388.9629     56.71532   -1204.9058    132.08699   -3719.5493 
17560000    175.87837   -5021.2177   -4669.4392   -5021.2177            0    8300.6867    17.660518     22.93592    19.266832     7804.227    8929.3774    8815.5909    7157.0917   -565.46871    362.29196    1112.0956   -3724.6829 
17561000       179.27    -5011.823   -4653.2608    -5011.823            0    7454.7228    17.819797    22.990932    19.138976    7841.1186    7680.6919    6409.2177    8274.2588   -418.40035   -152.40876    259.59033   -3800.7785 
17562000     190.3337   -5011.6589    -4630.968   -5011.6589            0    8548.7357    17.942407    22.684326    19.222198    7823.6542    8631.9263    8027.0308    8987.2499   -389.12513   -764.07033   -657.82151   -3655.5575 
17563000    171.82195   -4989.9451     -4646.28   -4989.9451            0    8738.1054    17.865979    22.602555    19.381447    7826.5532    9666.9147    9121.5603    7425.8411   -265.57868   -356.18625   -164.31569    -3648.893 
17564000    174.87437   -5029.5308   -4679.7605   -5029.5308            0    6923.5852    17.864647    22.846955    19.230455    7848.9637     7426.924    7554.3011    5789.5304    502.32995    568.30939   -491.18678    -3887.224 
17565000    175.37893   -5027.3655    -4676.586   -5027.3655            0    9470.5493    17.817387    22.845854    19.101066    7775.1546     9178.932    9430.3761    9802.3396    874.70803    575.65527     1747.931   -3602.6953 
17566000    183.16989   -5014.2802   -4647.9177   -5014.2802            0    6548.3527    18.084338    22.787898    19.095719    7869.4231    6788.9173     5228.602    7627.5388    355.94775   -704.62873    404.26165   -3896.3799 
17567000    175.53625   -5023.4084   -4672.3142   -5023.4084            0    8099.0707    18.059378    22.595772    19.112569    7799.1819    8007.8711    8445.1025    7844.2385    12.442526   -603.89743   -679.89886    -3751.101 
17568000    175.77394   -5018.6298   -4667.0602   -5018.6298            0    7263.9908    17.987705    22.713043    19.255907    7867.1071    7297.8145    7449.8715    7044.2865    201.49192   -1060.0513    30.363248   -3833.6358 
17569000    171.20749   -5034.2826   -4691.8465   -5034.2826            0    9261.7153    17.875834    22.666781    19.241012    7796.2198    9301.2042    9226.5247     9257.417    143.91474   -940.37714   -224.25304   -3638.7906 
17570000    175.89393   -5019.8495   -4668.0399   -5019.8495            0    6541.8239    17.756691    22.902357    19.336515    7863.5821    6950.1857     6484.198    6191.0882   -918.17676   -130.18979   -41.996704   -3917.8086 
17571000     173.0709   -5008.0551    -4661.892   -5008.0551            0    9705.5537     17.74026    22.899017    19.180243    7791.6764    9406.1067     9555.985    10154.569    -608.2597    53.477974   -1150.6112   -3559.0149 
17572000     190.6568   -5012.8161    -4631.479   -5012.8161            0    8094.1785    17.932885    22.716077    19.202174    7822.2898    8982.6877    8536.3334    6763.5144    228.67918    38.768494   -1923.1076   -3708.0945 
17573000    173.19959   -5034.8315   -4688.4109   -5034.8315            0    9494.0446    18.045953    22.425441    19.214226    7775.7752    9269.4487    9535.0465    9677.6387   -831.62314   -1006.2235   -1020.7909   -3611.7701 
17574000    167.07888   -5021.8046   -4687.6262   -5021.8046            0    8802.7934    17.952542    22.686396    19.124589    7789.0335    8037.0331    7963.4597    10407.887    618.95794   -956.54954    131.48443   -3687.6723 
17575000    167.49402   -5010.1699   -4675.1612   -5010.1699            0    9845.4208    17.780499    23.088407     18.95459    7781.3022    10647.118    8694.0728    10195.072    68.909394   -41.693916    830.02252   -3557.8801 
17576000    175.46076    -5015.959   -4665.0159    -5015.959            0    8550.0823     17.84521    22.816672     19.21973     7825.665    9507.1828    8325.4718    7817.5921    901.01453    1212.1776    855.74318    -3689.201 
17577000    170.27101   -5046.7172   -4706.1541   -5046.7172            0    8661.6333     17.95418    22.483337    19.383965    7824.7226    6938.6534    9647.0824    9399.1642    443.28787    587.77118   -208.17911   -3717.7271 
17578000    186.51745   -5006.3205   -4633.2626   -5006.3205            0    8709.1458    17.883216    22.725244    19.238597    7818.5744    9999.9077    7854.2169    8273.3129   -79.714312   -891.86552   -562.95253   -3640.1945 
17579000    175.41829   -5035.6623    -4684.804   -5035.6623            0    6431.0155    17.800331     23.07949    19.066403    7832.9087    7470.3283    5432.4371     6390.281   -272.81563   -1764.6585    -186.5648   -3950.1574 
17580000    177.59119   -5005.3894   -4650.1851   -5005.3894            0    7603.9236    17.837602    23.061684    19.054981    7838.5552    8392.2461    6902.4185    7517.1063    527.78811    876.73533    184.91617   -3780.9252 
17581000    175.82732   -5019.0262   -4667.3498   -5019.0262            0    7872.5633    18.005781    22.604075    19.248255    7834.1171    8210.3117    8716.1627    6691.2155    110.46465    148.47851    1008.1424   -3767.8893 
17582000    176.17738   -5046.6302   -4694.2537   -5046.6302            0    7374.5449    18.003955    22.897894    19.077085     7864.579    5172.2003    7950.1637    9001.2707   -452.45858    1572.9709   -56.741187   -3848.4169 
17583000    174.99423   -5004.4542   -4654.4441   -5004.4542            0    8752.5963    17.983685    23.007785    18.887675    7815.0539    7122.9946    9658.2217    9476.5726    1089.3742    933.04077   -909.23024    -3656.871 
17584000    177.73658   -5006.1507   -4650.6556   -5006.1507            0    6727.9253    17.962922    22.870117    19.205765    7889.9995    5806.9847    6297.6652     8079.126   -145.92909    251.54983    804.18147   -3876.4897 
17585000    171.70333   -5030.0535   -4686.6256   -5030.0535            0    6679.3644    17.917156     22.63828    19.354074    7850.2758    6777.6375    7775.7062    5484.7495    224.11709   -563.92038   -389.56683   -3921.9171 
17586000    175.07234   -5023.9355   -4673.7692   -5023.9355            0    9208.3593    17.725485    22.828879     19.25762    7792.6526    8935.6687    9541.0017    9148.4076    -153.0452    694.52419   -484.28236    -3627.259 
17587000    174.54916   -5029.8729    -4680.753   -5029.8729            0    8367.4442    17.736934    22.920884      19.2082    7809.0208    9278.9602    7959.1183    7864.2542    114.22131      160.532       71.395   -3727.8136 
17588000    168.83646   -5005.4634   -4667.7696   -5005.4634            0    7407.9649      17.9231    22.875461    19.103743    7832.5188    7019.3706    8034.2958    7170.2284    359.40974   -1.6599975   -1459.5918   -3821.5633 
17589000    169.87152   -5035.1655   -4695.4015   -5035.1655            0    9095.5706    17.900638    22.735702    19.116787    7780.2181    8778.9965    8089.5238    10418.192    25.846265     391.6113    -339.5386   -3663.3589 
17590000    173.37323   -5019.9411   -4673.1732   -5019.9411            0    8619.7325    17.857638    22.892121    19.072908    7796.9898    8334.9752    8038.4137    9485.8084   -800.65035    1172.1012    1138.5873    -3693.014 
17591000    170.62292   -5019.8328   -4678.5659   -5019.8328            0    7595.9758    17.965201    22.713007    19.187351    7829.2785    7048.6748    7915.0874    7824.1652    430.09883    1160.0225   -1175.5998   -3811.2422 
17592000    172.95919    -5018.571   -4672.6313    -5018.571            0    8144.3355    17.878613     22.57733    19.357786    7813.7967    10240.638    7964.6737    6227.6946   -1218.5946    483.55343   -1589.1668   -3744.5337 
17593000    176.24504   -5007.4659   -4654.9541   -5007.4659            0    8047.2377    17.941071    22.669543    19.269638    7837.2676    8479.9061    8230.3382    7431.4687   -480.75704     660.2395    348.06371   -3735.1668 
17594000    172.97784   -5014.1768   -4668.1997   -5014.1768            0    8408.6745    17.990109    22.653639    19.207241    7827.7464    7210.7831    8127.0352    9888.2051     139.0282    270.29087   -827.35539   -3708.2684 
17595000    171.08586   -5038.3934   -4696.2006   -5038.3934            0    8054.7069    18.023219    22.584467    19.163037    7800.2141    7769.0139    8737.3425    7657.7644    1350.4505    1031.0371     683.1046   -3779.9122 
17596000    179.72179   -5021.9425   -4662.4767   -5021.9425            0    7396.8452    17.965252    22.895391    19.069852    7843.8396     7683.462    7179.8272    7327.2463    695.06722   -17.987984    315.47095   -3816.3193 
17597000    178.28554   -5022.5912   -4665.9981   -5022.5912            0    8387.0914    17.793093    23.043006    19.020063    7798.3468    8430.3519    7402.0574    9328.8648     -569.572   -308.15607    237.33244   -3712.1268 
17598000    174.58892   -5022.0531   -4672.8536   -5022.0531            0    7431.1959    17.886068    22.766612     19.24219    7835.5194    7581.5875    7464.5082    7247.4919   -1342.1799   -1545.9167   -255.47716   -3823.6685 
17599000    173.80824   -5021.2087   -4673.5707   -5021.2087            0     8703.412    17.899207    22.546836    19.311266     7793.457     8753.011    8997.0326    8360.1923    1219.9565   -593.41884   -231.31758   -3684.3446 
17600000     175.8221    -5021.479    -4669.813    -5021.479            0    9595.5775    17.866024    22.757835    19.172836    7795.5224    9840.4768    10039.493    8906.7625   -582.56712    366.31394    1432.6667   -3578.8947 
17601000    169.33281   -5036.5475    -4697.861   -5036.5475            0    8123.9679    17.817293    22.959906    19.087523    7808.3887    8556.7608    7420.8731    8394.2699   -276.59621   -86.387765   -703.83181   -3772.7252 
17602000    178.39378    -5024.615   -4667.8054    -5024.615            0    9321.2401    17.882023    22.838523    19.161271    7825.4438     7678.561    9990.9443    10294.215   -626.79556    592.74198   -188.96805   -3604.0088 
17603000     178.4228   -5014.1833   -4657.3157   -5014.1833            0    7703.8138    17.957831    22.715154    19.219906    7840.0859    7191.1128    7988.6868     7931.642   -407.07251   -769.41735    1612.5778   -3776.4646 
17604000    179.02645   -5016.4837   -4658.4087   -5016.4837            0    6832.0303    17.917837    22.673213    19.278898    7832.1476    8757.9051    5622.6077    6115.5781    600.66825   -1738.4542    51.031338    -3878.028 
17605000    178.22347   -4991.3881   -4634.9191   -4991.3881            0    9857.7632    17.809209     22.73872    19.194022    7772.7846    9978.0672    10395.663    9199.5588    641.53182    -124.9335    322.77476   -3517.4619 
17606000    177.00526   -5041.9524     -4687.92   -5041.9524            0    7298.9008    17.826885    22.885835    19.200553    7833.5021     6609.743    6805.8839    8481.0756     969.8583     82.27439     1217.842   -3854.0673 
17607000    175.94342   -5017.7977   -4665.8892   -5017.7977            0    7445.2729    17.769529    22.892475    19.215746    7816.7446    9117.0259     7105.299    6113.4937   -133.90506   -844.57817    1385.2113    -3817.134 
17608000     175.8688   -5010.7358   -4658.9764   -5010.7358            0    9164.4721    17.791815    22.835825    19.219241    7808.6001    9117.8179    10070.242    8305.3568   -120.89491    376.68655    1128.8444   -3615.3225 
17609000    182.86421   -5040.5961   -4674.8451   -5040.5961            0    8597.9985    17.936545     22.65429    19.223358    7811.2133    7571.4878    9429.9521    8792.5557   -510.79097    833.43875    107.64478   -3695.3737 
17610000    182.33877   -5010.6145   -4645.9144   -5010.6145            0    10407.972    17.947247    22.664948    19.107962    7772.6112    11076.791    10307.755    9839.3692   -98.035315   -32.034801   -1263.9808   -3466.1129 
17611000    175.22816   -4982.8115   -4632.3336   -4982.8115            0    9054.4151    17.714296     22.92304     19.18066    7788.6042    8980.3327    8601.8217    9581.0908    1510.5131   -643.11044   -137.15612   -3603.8534 
17612000    177.46849   -5019.7561   -4664.7971   -5019.7561            0    7880.3353    17.862446    22.799669    19.302294     7861.011     7265.896    7135.0339    9240.0759    -224.5537   -139.09862    114.03183   -3761.3578 
17613000    173.94828   -5022.0476   -4674.1296   -5022.0476            0    8577.4423    17.931141     22.69857    19.175814     7804.772    8591.6707    8041.2987    9099.3575   -321.17477   -1246.8827   -564.23817   -3697.8057 
17614000    182.81468     -5021.04   -4655.3881     -5021.04            0    8486.3332    17.925089    22.752929    19.122574    7799.1088    9525.4662    6706.3201    9227.2133   -879.99386   -1435.7153    1564.1631   -3690.1356 
17615000    175.53609    -5020.668   -4669.5741    -5020.668            0    7650.6051    18.025118    22.695002    19.146367    7832.3974    4916.6453    8296.7212    9738.4488    358.60215   -461.97925    710.21496   -3795.6647 
17616000    168.72569   -5021.8482    -4684.376   -5021.8482            0    8032.9512    17.855521    22.692074    19.300058    7819.9747    7320.8424    9169.5776    7608.4334     574.3362     839.4157    1113.9941   -3768.2475 
17617000    167.54076    -5027.748   -4692.6458    -5027.748            0    7659.2883     17.64094    22.875035    19.356711    7811.1516    9633.7145    7758.8766    5585.2739    400.04109    210.62336    339.84389   -3820.1178 
17618000    174.13879   -5031.7802   -4683.4811   -5031.7802            0    8319.9255    17.811523    22.848522    19.189841    7809.6315      8752.49    8414.6924    7792.5942    698.29338   -104.95275    1010.5131   -3735.8793 
17619000    173.66461   -5035.9449   -4688.5942   -5035.9449            0     6901.666    17.987868    22.749467    19.151949    7837.2538    5989.8904    7120.3321    7594.7756   -307.89019   -268.07441    783.06098   -3899.7455 
17620000     181.4876    -5030.022   -4667.0244    -5030.022            0    9231.1328    17.926347    22.624138    19.181962     7779.593    8932.6642    9404.5966    9356.1376    819.32519   -1144.8903    2192.6579   -3619.6842 
17621000    171.18249   -5030.1303   -4687.7442   -5030.1303            0    8110.6624    17.724873    22.922259    19.204435    7802.6491    8927.1319    7936.0273    7468.8278   -843.86948   -769.92412   -53.353968   -3764.8025 
17622000     184.0574   -5019.1145    -4650.977   -5019.1145            0     6768.751    17.786916    23.015481     19.15786    7842.7379    6383.1733    7161.1533    6761.9264    410.64456   -7.4154713    116.78417   -3876.7788 
17623000    172.39453   -5015.5889   -4670.7785   -5015.5889            0    8186.6649    17.862845     22.83594     19.16048    7815.8445    6787.0894    8008.2145    9764.6908    269.61775   -759.08875    1481.7527   -3737.6127 
17624000    181.85216   -5022.0589   -4658.3321   -5022.0589            0    9009.7686    17.936243    22.420937    19.377692    7792.6879     8985.125     9700.078     8344.103    -187.5272   -467.96549    1232.1109   -3634.3866 
17625000    180.89037   -5012.5325   -4650.7294   -5012.5325            0    7833.6533     17.85929    22.751063    19.315694    7848.3105    9756.0082    7446.0055    6298.9461   -581.01002   -637.36109   -26.012383   -3754.0929 
17626000    174.33874   -5020.7719   -4672.0729   -5020.7719            0    9730.5921    17.723123    22.895685    19.134489    7764.4514    10469.474    9509.0373    9213.2653   -562.40981    386.31183   -1001.8581   -3570.2141 
17627000    176.33226   -5042.1777   -4689.4914   -5042.1777            0    8061.5357    17.981326     22.66007    19.190281    7819.2355    9092.1678    7406.3488    7686.0905   -123.46666   -881.76096   -328.64449   -3770.1899 
17628000    167.94515    -5023.369    -4687.458    -5023.369            0    7686.5052    17.968914    22.586352     19.34775    7852.3268    6666.3211    8325.1594    8068.0349   -390.16228    232.42517   -489.61273   -3807.2138 
17629000      187.747   -5007.8135   -4632.2963   -5007.8135            0    8912.1456    17.743702    22.899779    19.159121    7784.8651    11177.004    8578.3807    6981.0519   -52.137749   -712.84876    781.58694   -3620.4623 
17630000    169.76994   -5029.1753   -4689.6145   -5029.1753            0    8112.8968    17.700057    22.900902    19.227971    7794.0055    8292.8029    8949.3872    7096.5003    306.62705    510.23368    984.54034   -3767.4412 
17631000    167.92693   -5035.8988   -4700.0242   -5035.8988            0    7428.6547    17.903552     22.53722    19.383011    7820.9732    8051.6462    7494.6967    6739.6212    63.005064    6.2383677    -77.05194   -3852.7053 
17632000    183.28743   -5016.8814   -4650.2839   -5016.8814            0    8553.5692    17.942852    22.677636    19.252467    7833.8569    8642.4035    9327.8115    7690.4926    1330.0584    1112.5363    1261.1399   -3673.0491 
17633000    180.13358   -5016.6022   -4656.3128   -5016.6022            0    9106.8024    18.019447    22.769048    19.099093    7836.0835    8173.7037    9023.4185    10123.285   -723.30903    1007.2865   -69.236336   -3615.5761 
17634000    166.45868   -5026.7745   -4693.8366   -5026.7745            0    8130.7307    17.989907    22.796981     19.14027    7849.7226    6664.7619    8546.3208    9181.1092   -71.108605    599.52472    340.54166   -3763.0293 
17635000    169.53629   -5020.1514   -4681.0579   -5020.1514            0    8632.5911    17.970595    22.723989    19.143597    7817.5485    7005.0813    9548.7592    9343.9327    335.52189    987.18343     632.3533   -3696.8482 
17636000    178.68887   -5008.9352   -4651.5354   -5008.9352            0    8782.1611    17.898953    22.826414    19.089087    7799.2072    10905.721    7774.8065    7665.9561    612.07382    1032.9964     232.6519   -3652.6222 
17637000    170.55922   -5020.1465    -4679.007   -5020.1465            0    8305.1945    17.950704    22.763041    19.081638    7796.9975    6925.4966    8825.7419    9164.3451   -478.54316    521.49204    -1860.227   -3734.6133 
17638000    173.48981   -5015.0103   -4668.0093   -5015.0103            0    9411.9906    17.863267    22.785168    19.137865    7789.4471     8550.164    10447.657    9238.1512   -119.09497    1005.4039    1591.6414   -3598.7968 
17639000     170.5303   -5029.1124   -4688.0307   -5029.1124            0    8352.7233    17.848605    22.787684    19.170148    7797.0429    8429.5439    7713.5529     8915.073    506.63326   -731.33129    2023.3758   -3738.2269 
17640000    181.85133   -5028.2523   -4664.5272   -5028.2523            0    8134.8753    17.907712    22.695677    19.275323    7834.0241    8563.6804    8049.1165    7791.8291    140.41887    359.55625    1416.7152   -3735.1079 
17641000    171.64882   -5011.0076   -4667.6888   -5011.0076            0     10398.69    17.795236    22.681788    19.248261    7769.1327    9257.7712    11704.561    10233.737    1523.1213    2399.1913    1780.7137    -3489.467 
17642000    175.84914   -5023.3367   -4671.6167   -5023.3367            0    7546.3417    17.709758    22.843305    19.418665    7855.8094    8964.4797    7089.2698    6585.2757   -1114.6745   -394.10328   -402.59397   -3807.0404 
17643000    174.90379   -5029.0578   -4679.2286   -5029.0578            0    7750.8075    17.818629    22.784956    19.244833    7813.3379    8659.2335    7053.8104    7539.3785   -526.45678   -238.01023   -1260.0129   -3796.0278 
17644000    184.24139   -5027.3191   -4658.8135   -5027.3191            0    9899.7769    17.716855    22.855545    19.114957    7740.1883    12045.628    8960.5136    8693.1889    85.068751   -870.46804   -294.56718   -3541.2999 
17645000     175.3174   -5024.1496   -4673.4932   -5024.1496            0    7029.1877    17.910573    22.760742    19.256332    7849.9967    8300.7916    6700.2254    6086.5462   -542.41297   -759.50357   -773.15492   -3868.7626 
17646000    181.68501    -5041.608   -4678.2155    -5041.608            0    7951.6594    17.979239    22.630092    19.243292    7829.5535    7240.5695     7906.101    8708.3077    883.64199    396.81052   -523.89879   -3770.2473 
17647000    171.29157   -5027.5312   -4684.9269   -5027.5312            0    9323.1178    17.824559    22.724191    19.183095    7770.0872    10802.381    8507.0661    8659.9059   -1225.9381   -750.07142    852.21002   -3628.4428 
17648000    172.61066   -5026.9167    -4681.674   -5026.9167            0    6966.6661    17.642151    22.996669    19.289461    7825.9408    8204.2466    6607.7995    6087.9523     117.0382   -1127.1072   -1401.6965   -3886.5453 
17649000    177.70675   -5003.1007   -4647.6653   -5003.1007            0     8635.997    17.705075    22.807629    19.375931      7824.21    10595.387    8030.9114    7281.6926    1693.4546   -436.36939    1046.0927   -3662.2283 
17650000    175.43359   -5038.3706   -4687.4817   -5038.3706            0    6774.3038    17.884883    22.726657    19.314115    7850.4849    7441.9824    6762.9468    6117.9821   -200.24522    163.80441    -1155.963   -3911.8831 
17651000    189.67057   -5018.8981   -4639.5335   -5018.8981            0    8234.6235    17.927076    22.711952    19.202391     7818.424    6821.0493    9936.4923    7946.3288    131.40693   -141.66928   -232.51859   -3700.5913 
17652000    175.72154   -5022.6752   -4671.2104   -5022.6752            0    7083.9911    17.768129    22.924079    19.240121    7836.8476    7006.6089    6749.3772    7495.9872    40.327285   -292.36872    731.18456   -3861.5641 
17653000    182.59985   -5020.7871   -4655.5648   -5020.7871            0    10094.911    17.700079    22.735356     19.29661    7765.2955    11028.141    10747.004    8509.5882   -607.67831    589.71862   -215.67927   -3512.3276 
17654000    179.17395   -5022.5836   -4664.2135   -5022.5836            0    9483.9301    17.865323    22.519204    19.292736    7761.7155    9408.0521    10666.005    8377.7329   -148.28481   -1198.4239   -657.70947   -3590.6643 
17655000    169.52329   -5026.1622   -4687.0947   -5026.1622            0    6308.8431    17.862727    22.755373    19.352797    7866.3892    5579.8234    7704.5935    5642.1125    -245.2007   -158.78185    1024.6901   -3963.3239 
17656000    169.61062   -5029.4328   -4690.1906   -5029.4328            0    9018.3991    17.684043    22.894183    19.223752    7782.9613    8822.0646    9687.7286    8545.4043   -396.16047   -304.22746   -208.18457   -3666.5437 
17657000    172.69097   -5013.4204   -4668.0171   -5013.4204            0    9117.5179    17.746788    22.902024     19.18416    7797.1595    9411.1383    9368.5483    8572.8669    1036.8579   -298.98691    1558.0096   -3631.2316 
17658000    168.70428   -5026.8928   -4689.4634   -5026.8928            0    8803.3461    17.978308    22.599534    19.242806    7818.3787    6427.9958    9407.6507    10574.392   -98.178681   -337.46365   -114.60081   -3685.6792 
17659000    171.74379   -5027.4047   -4683.8959   -5027.4047            0    9348.6156    17.796454    22.767655    19.243477    7797.1398    10173.628    9810.9614     8061.257    624.32535    150.53544    1258.8246   -3620.8341 
17660000    177.92953   -5022.0384   -4666.1574   -5022.0384            0    7727.3958    17.720729    22.917347    19.292984     7835.114    7953.2311    6799.3207    8429.6356    976.52361   -87.408211    281.85481   -3783.1703 
17661000    165.02395    -5013.475   -4683.4067    -5013.475            0     8510.214    17.738926    22.821582     19.29376    7810.6996    9025.4243    7900.6001    8604.6176    1241.7551   -58.897928   -726.90312   -3713.9994 
17662000    184.29594   -5039.9745   -4671.3599   -5039.9745            0    6231.8303     18.04315    22.394468    19.458733    7862.6267    6071.2003    7539.6267    5084.6641   -1005.8406   -862.70479    1217.4181   -3956.7662 
17663000     171.6599   -5014.4136   -4671.0726   -5014.4136            0    9990.4859    17.957539    22.559637    19.175569    7768.3212    8370.8197    10925.555    10675.083    122.51083    289.28535   -142.06396   -3539.2205 
17664000    179.42891   -5041.5036   -4682.6236   -5041.5036            0    7211.4711    17.824649     22.93548    19.180291    7841.2265    7233.7858    6579.4316     7821.196    564.11891    -15.25064    166.66962   -3857.9469 
17665000    171.26717   -5018.0903   -4675.5348   -5018.0903            0    9052.4401    17.795429    22.807335    19.178744     7784.006    10382.964    8670.4114    8103.9451   -733.39734   -499.33002   -2175.1351    -3647.886 
17666000     176.1451   -4998.0921   -4645.7801   -4998.0921            0    7415.1957    18.003401    22.669358    19.293061    7873.9909    7053.4513    7968.7178    7223.4179   -212.40517    499.62372    476.17541   -3794.2629 
17667000    171.05599   -5023.8609   -4681.7278   -5023.8609            0    7667.0534    18.012257    22.728965    19.144102    7837.5943    6697.8123    7249.3352    9054.0128    521.03992    366.48059   -573.34226   -3805.3584 
17668000    168.91909   -4993.8553   -4655.9963   -4993.8553            0     7667.801    17.924924    22.919563    19.060667     7830.721    8257.8619    6643.3047    8102.2364   -1586.1372   -692.05447   -1637.8152   -3780.3101 
17669000    186.72452   -5012.8206   -4639.3485   -5012.8206            0    8076.8943    17.918395    22.858417    19.082012    7815.7281    6668.2157    8444.7233    9117.7438   -210.71987    353.03879   -736.61123   -3718.7087 
17670000    178.59959   -5019.9563   -4662.7351   -5019.9563            0    9656.3715    17.931712    22.606369     19.19831    7782.4362    9682.8029    9517.8904    9768.4211    1602.4243    107.35975    899.87278    -3566.748 
17671000    180.55945   -5018.8886   -4657.7474   -5018.8886            0    9896.4656    17.816615    22.729423    19.207562     7778.321    11002.969    8846.8652    9839.5624   -232.50711    236.01998    981.10384   -3535.1039 
17672000    170.19736   -5022.6437   -4682.2279   -5022.6437            0     9083.568    17.790955    22.861779    19.121323    7777.2708    8136.1008    9228.5553    9886.0478    703.37091   -371.88002    383.05197   -3651.9377 
17673000    170.69936   -5030.4969   -4689.0771   -5030.4969            0    7832.9046    17.852508    22.852243    19.143235    7809.8627    9653.6543    7277.8885    6567.1709    198.67539    68.689297    126.33967   -3796.9184 
17674000    176.37089   -5025.2846   -4672.5211   -5025.2846            0    9634.9415    18.043228    22.602036    19.108384    7792.6608    8060.5297    10052.908    10791.387    1850.1879    160.14303    1089.0526   -3577.5296 
17675000    172.35279   -5025.1216   -4680.3948   -5025.1216            0    7503.9294    17.995042    22.701557    19.191148    7839.8811    6284.1953    8415.0014    7812.5916    1710.0575    822.61383    1653.1028   -3822.4208 
17676000    180.61616    -5035.437   -4674.1824    -5035.437            0    8041.0604     17.81735    22.737234    19.300022    7818.7722    7586.9064    8537.3984    7998.8764    116.01968    890.63508    1612.0785   -3757.2701 
17677000    177.25329    -5008.426   -4653.8975    -5008.426            0    8803.9612    17.782187    22.703841     19.37477     7822.059    10012.119    8611.9925    7787.7727   -154.91473    566.40935   -1440.1952   -3649.5706 
17678000      183.176   -5023.7484   -4657.3737   -5023.7484            0    8564.9709    17.760311    23.008768    19.150015     7825.517    9398.7531    7253.7763    9042.3834   -1210.6516    -595.6149   -2076.6534   -3679.8781 
17679000    177.91327   -5006.4346   -4650.5861   -5006.4346            0    9415.1815    17.797869    22.969487    19.035803    7781.9869    8814.8149     9589.081    9841.6485   -668.17049   -154.38512   -2090.0528   -3582.0355 
17680000    171.66651   -5013.8513   -4670.4971   -5013.8513            0    7329.9266    18.106405    22.609857    19.173121    7849.1544    5571.6181     8306.284    8111.8778   -977.17408    21.903477   -358.58957   -3831.4267 
17681000    176.57967   -5032.4049   -4679.2238   -5032.4049            0    8523.5872    17.966435    22.645501    19.152762    7792.4722     9177.217    8095.3585    8298.1861   -323.20264   -365.42848   -811.21878   -3710.5589 
17682000     179.8787   -5024.3774   -4664.5978   -5024.3774            0    8548.4079    17.869141    22.765285    19.187423    7805.3687    8799.2305    9572.3123     7273.681   -692.29502    679.02582     134.8055   -3691.5043 
17683000    173.72272   -5025.2465   -4677.7796   -5025.2465            0    9366.8868    17.679798    23.083577     19.07842    7786.1507    9752.5499    8716.6014    9631.5091    1254.7234    963.36083    931.45222   -3614.1413 
17684000    177.24391    -5047.553   -4693.0433    -5047.553            0    7490.7062    17.946973    22.809642    19.145809    7837.6052    5865.3536    7639.9415    8966.8235    1057.9546    740.60652    185.95194   -3836.8298 
17685000    185.97258   -5025.8919   -4653.9238   -5025.8919            0    8936.8155    17.940931    22.693347    19.219734    7825.1182    9333.8388    9426.8691    8049.7387    1453.7142    928.04404    480.29418   -3634.0426 
17686000    174.99776   -5006.5541   -4656.5369   -5006.5541            0    8503.4236    17.943486    22.720212    19.188683    7822.8388     8537.889    8538.2551    8434.1267   -1188.3147   -444.21391     610.2975   -3686.3977 
17687000    175.91134   -5038.6972   -4686.8528   -5038.6972            0    7486.4675    17.882609    22.923708    19.134668    7843.9835    6392.1114     7238.934     8828.357   -97.797242    205.14708   -768.91691   -3830.4275 
17688000    175.31101   -5001.5035   -4650.8598   -5001.5035            0    8999.7519    17.782636    22.817176    19.239163    7806.2817     9440.211     9327.105    8231.9398   -145.18364    907.51213   -1468.6913   -3626.2686 
17689000    169.33194   -5037.8101   -4699.1253   -5037.8101            0    8037.6901    17.893843     22.72258    19.257255    7829.8898    7512.3239     7951.089    8649.6573    138.39033   -404.38803   -1841.7202   -3781.2942 
17690000    182.66067     -5006.52   -4641.1761     -5006.52            0    8361.9522    17.952518    22.730089    19.178331    7825.9547    6120.1505    8693.8813    10271.825    1278.6855   -400.01391    1210.0471   -3686.7971 
17691000    176.10546   -5013.1912   -4660.9585   -5013.1912            0    8226.7498    17.829101    22.841518    19.188684    7814.4714    8748.2396    7856.0648    8075.9451     785.5557    631.16562    320.69075   -3723.3883 
17692000    178.45623   -5017.0062   -4660.0717   -5017.0062            0     9590.726    17.923865    22.811467    19.092478    7806.3348    7396.5903    9811.5723    11564.015    560.27753    308.32387   -791.43962   -3568.1926 
17693000    177.49357   -5025.8293   -4670.8202   -5025.8293            0    9189.9783    17.995584     22.54625    19.200286    7790.1884    9057.6998    8775.7783    9736.4568    261.03201   -766.69916   -61.740625   -3626.7292 
17694000    177.43466   -5018.8212     -4663.93   -5018.8212            0    9150.0127    17.892337    22.733944    19.165621    7795.8726    7982.1755    9332.4672    10135.395    485.44937    594.10526    377.03182   -3623.6211 
17695000    174.44938   -5022.9617   -4674.0414   -5022.9617            0    8717.4854    17.708288    22.992655    19.228554    7829.1086    10242.075    7659.8524    8250.5283    3.0350846     458.0312   -232.17812   -3678.6831 
17696000    170.14843   -5018.2705   -4677.9526   -5018.2705            0    7594.8209    17.673292    22.894152    19.375862    7839.7652     10714.77    7046.6916    5023.0014   -1566.6015   -303.27022    673.14631   -3809.5993 
17697000    178.39032   -5031.1568   -4674.3541   -5031.1568            0    7313.5891    17.917233    22.728925    19.296785    7858.4118    7093.5046     7686.207    7161.0557    301.71387   -141.17905    464.31895   -3836.1665 
17698000    171.88122   -5015.5681   -4671.7844   -5015.5681            0    8282.3345    18.027158    22.439034    19.356948     7830.118    8764.4573     8924.981    7157.5654    1204.4803   -433.98956    1582.4412   -3725.9895 
17699000     170.3871    -4997.425   -4656.6297    -4997.425            0     9100.831    17.940329    22.781314    19.122208     7815.328    9769.0211    8689.5164    8843.9554    64.260511   -239.26182    -160.6999   -3619.3303 
17700000    173.03468   -5021.1472   -4675.0564   -5021.1472            0    8299.2655    17.921758    23.116559    18.867919    7816.7785    6358.0764    7670.3138    10869.406   -165.95215   -580.37049    932.48483   -3728.9427 
17701000    172.39697   -5011.9338   -4667.1186   -5011.9338            0    10122.776    17.853545    22.888491    19.042903    7781.7054    9308.2768    9432.1873    11627.863   -637.80648   -126.95324   -362.00005   -3518.3031 
17702000    170.89283   -5015.2601   -4673.4533   -5015.2601            0    8618.6831    17.868824     22.66864    19.296832    7816.4126    8254.3008    9238.7957     8362.953    338.19134     814.0342    1772.4019   -3690.9721 
17703000    171.36461   -5036.6052   -4693.8548   -5036.6052            0    7895.0753    17.816374    22.692419    19.338933    7818.6652    10371.314    7993.6373    5320.2741   -162.03876    -47.93105    577.50364   -3793.6014 
17704000    165.65987   -5026.4046   -4695.0644   -5026.4046            0    8203.9554    17.938139    22.616939    19.341652    7847.0206    7613.1462    8631.6566    8367.0635   -672.06552    841.07857   -1619.6912   -3756.1976 
17705000    178.42364   -5047.4565   -4690.5871   -5047.4565            0    8758.9682    17.809792    22.731323    19.235765    7787.4097    9295.8175    8606.0229     8375.064    150.10044    1349.5243    943.95528    -3695.819 
17706000     173.1287   -5028.7949   -4682.5161   -5028.7949            0    9209.3756    17.848082    22.755866    19.175346     7788.039    9715.2965    10172.422    7740.4081   -315.94784    1170.8369   -490.42895     -3636.51 
17707000    180.79001   -5030.6371   -4669.0347   -5030.6371            0    8481.0153    18.000089     22.61573    19.217003    7822.9567    8408.8891    8992.1577    8041.9992   -1446.6909    656.21196   -2554.0293   -3701.4374 
17708000    179.85429   -5014.6445   -4654.9137   -5014.6445            0    8322.0322      18.0161    22.421697    19.379198    7828.2569    7988.8881    9036.9255     7940.283     527.4058   -881.73164   -779.79925   -3704.8114 
17709000    183.17915   -5037.6123   -4671.2314   -5037.6123            0    7210.2769    17.829558    22.906817    19.220561    7850.0309    8076.5709    7094.3768     6459.883   -246.79712    1209.1744    1151.3713   -3845.7654 
17710000    180.71138   -5021.4714   -4660.0263   -5021.4714            0    7130.3316    17.801377    23.107525    19.070107    7844.4078    6907.0781    5967.5048    8516.4119    9.3259326    677.48574    1141.4668   -3844.2975 
17711000    186.28487   -5044.1173   -4671.5246   -5044.1173            0    7190.3468    18.071828    22.527407    19.255958    7839.3203    6614.2262     7975.409    6981.4051    -204.9149    220.09435    -87.58472   -3849.4634 
17712000    169.33405   -5010.1209   -4671.4319   -5010.1209            0    7941.0603    17.912179    22.658412     19.33266    7846.3834    7931.2681    7356.3731    8535.5396   -34.041353    -360.5742   -103.77617   -3762.7248 
17713000    181.13091   -5035.6418   -4673.3576   -5035.6418            0    8583.7982    17.808144    22.827295    19.217093     7811.974    7013.9749     9250.243    9487.1768    817.78044   -135.08594     204.6359   -3695.4086 
17714000    175.23817   -5032.3011   -4681.8032   -5032.3011            0    7020.9297    17.780271    23.095485    19.148566    7863.2435     6922.715    6566.2492    7573.8249    644.91643   -325.35876   -486.95138   -3876.6616 
17715000    170.53708   -5045.9627   -4704.8675   -5045.9627            0    7891.3648    18.000814    22.735302    19.126527    7827.6065     7275.644    8062.2202    8336.2301   -838.88297    251.71394   -1783.4096   -3804.0081 
17716000    174.18422    -5021.197   -4672.8071    -5021.197            0    8831.3756    17.948794    22.624606    19.201029    7797.2379    8878.0814    9446.0619    8169.9836   -1620.3079    454.31345   -567.61487   -3668.5497 
17717000    175.67735   -5051.5576   -4700.1812   -5051.5576            0    8194.3072    17.913432    22.702557    19.237287    7823.4332      7035.79    8722.0409    8825.0907    1117.6323    22.555563    1467.9727   -3765.2374 
17718000    175.84605   -5005.0943   -4653.3805   -5005.0943            0    9398.9952    17.831788    22.974083     19.04522    7802.2358    9386.7454    8612.5769    10197.663    868.91225   -294.50177   -9.6498277   -3583.8913 
17719000    173.33632   -5023.4973   -4676.8033   -5023.4973            0    8584.8487    17.880313    22.901678    19.041066    7797.1107    9337.4506    7913.0655    8504.0299     1418.698    498.87008    348.09912   -3700.5956 
17720000    171.65771   -5031.2115   -4687.8749   -5031.2115            0    10226.502    17.920091    22.573455    19.162661    7751.6481     11091.95    10019.322    9568.2329   -1158.3164   -170.68485   -364.26392   -3531.7705 
17721000    177.16317   -5026.3787   -4672.0305   -5026.3787            0    10039.567    17.936684    22.547129    19.214244    7770.6383    10140.649    10375.746    9602.3051   -275.16533    548.86642    496.50023   -3534.2787 
17722000    167.53942   -5032.5453   -4697.4457   -5032.5453            0    9485.3474    17.828217    22.708943    19.244017     7791.132    11475.953     9120.104    7859.9851   -404.03051   -304.97772   -2124.7591   -3619.6668 
17723000    172.37464   -5042.0651   -4697.2945   -5042.0651            0    7286.6656    17.908327    22.837019    19.144883    7829.7365    5868.4632    8090.5243    7901.0092    1496.5648     1021.261   -485.69316   -3865.2398 
17724000    178.64634   -5024.8573   -4667.5426   -5024.8573            0    8752.5957    18.045091    22.574022    19.154371    7802.5385    6694.1117     9771.154    9792.5213   -231.05688   -57.550662     58.88843    -3671.567 
17725000    174.39005   -5036.6066    -4687.805   -5036.6066            0    8299.7973    17.891583    22.869436    19.113193     7820.553    8865.1398    7857.0091    8177.2429   -196.10628    240.63866    -203.3606   -3741.1737 
17726000    175.01027   -5027.7008   -4677.6587   -5027.7008            0    7471.6469    17.883255    22.797523    19.236674    7842.6749    6532.2945    8764.6495    7117.9969     1503.962    1208.1578    831.48737   -3823.0713 
17727000    181.41975   -4997.1376   -4634.2757   -4997.1376            0    7429.1153    17.872001     22.96452    19.131752    7852.0902    6460.6001    7461.6425    8365.1033    329.54513   -75.768566    433.22765   -3783.5329 
17728000    178.41034   -5004.0845   -4647.2418   -5004.0845            0    10423.415    18.037038    22.523162    19.121543    7768.1486    9684.7522    10636.991    10948.502    151.69593     346.4243   -754.38564   -3466.3681 
17729000    180.51506   -5018.1509   -4657.0985   -5018.1509            0    7947.6041    18.042913    22.651358    19.192615    7843.9542    6087.8961    8324.1703     9430.746   -586.99811   -429.93176    71.029933   -3747.9242 
17730000    185.84656   -5007.1072   -4635.3912   -5007.1072            0     9883.909    17.859578    22.791644    19.087055    7769.3691    9885.4398    10029.615     9736.672    1018.6939    -402.8276   -1101.0005   -3515.4624 
17731000    179.39668   -5012.8417   -4654.0262   -5012.8417            0    8424.7223    17.859998     22.91231    19.115744    7822.4262    9290.5907     7701.706    8281.8701    1107.6419   -375.94048    753.42962   -3692.9165 
17732000    175.51696   -5020.2928   -4669.2372   -5020.2928            0    7954.7742    18.024361    22.733909    19.117454    7833.6478     7498.377    7214.4102    9151.5353    71.674664    240.22464   -372.54327   -3760.4383 
17733000     179.2861    -5041.446   -4682.8516    -5041.446            0    8380.0677    18.058226    22.757482    19.047644    7827.8149    7315.6618    8386.4915    9438.0498   -168.77929    1502.6184    1029.3383   -3726.1776 
17734000    177.49749   -5006.4982   -4651.4813   -5006.4982            0    8199.5262    17.912934    22.952129    18.980488    7803.6374    6822.8696    7589.7904    10185.919    483.61898    173.40869    1860.9184   -3718.3092 
17735000    168.48513   -5028.6992   -4691.7081   -5028.6992            0    7891.8858    17.937417    22.922299    19.079596    7844.8967    9861.2823    7032.5928    6781.7823   -561.32406    126.21116   -955.57017   -3788.7993 
17736000     174.9843   -5029.6344   -4679.6442   -5029.6344            0    9816.5185    17.863919    22.880711    19.092524    7803.8624    8989.1432    9431.0447    11029.368    220.74917    38.399051   -909.90218   -3562.4132 
17737000    165.59487   -5018.0492    -4686.839   -5018.0492            0    8782.6582    17.981798    22.625285    19.280492     7844.139    10841.493    7888.7866    7617.6949   -38.060073     -123.306   -246.92219   -3682.1141 
17738000    187.79568   -5034.0922   -4658.4777   -5034.0922            0    9070.3342    17.935641    22.717991    19.188702    7818.6614    9332.1415    9132.1845    8746.6765    -1526.055    -154.1475   -1482.3017   -3624.2133 
17739000    180.23137    -5028.669    -4668.184    -5028.669            0    7717.0425    17.920969    22.675992    19.272667    7831.9443    8424.3126     8322.111     6404.704   -879.79508   -315.65303    46.818928   -3786.7367 
17740000    169.83849   -4994.3889   -4654.6909   -4994.3889            0    9410.0473    17.706982    22.847594    19.276538    7798.5537    11209.226    8395.3595    8625.5563    841.75814    412.80993    948.08803   -3584.4495 
17741000    163.68345   -5019.4884   -4692.1013   -5019.4884            0    7156.3203    17.913131    22.704857    19.320182    7857.8093    7465.7964    7815.7512    6187.4132    1220.8984    346.42861   -286.15885   -3872.0007 
17742000    173.87831   -5029.9818   -4682.2037   -5029.9818            0     6534.322    18.057501     22.64168    19.313217    7896.2507    6343.3027    5997.9025    7261.7608   -200.22624   -544.25198   -833.90071   -3929.7195 
17743000    179.82371   -5009.7862   -4650.1165   -5009.7862            0    8727.3608    18.079831    22.704799    19.013262    7804.9232     8043.629    7923.4784    10214.975   -1336.4642    -915.3378   -1549.4183    -3656.709 
17744000    180.81522   -5022.3032   -4660.6504   -5022.3032            0    6686.3878    17.874175    22.870164    19.290622    7885.7233    6780.5401    6577.0421    6701.5812    325.17009   -567.82263    1912.3805   -3891.6811 
17745000    180.73555   -5010.3472   -4648.8538   -5010.3472            0    7658.8538    17.673999    22.967416    19.331173    7847.0274    7796.7423    7742.3913     7437.428   -313.50437    390.24794    730.15485   -3772.3681 
17746000    180.67292   -5032.3167   -4670.9485   -5032.3167            0    7435.3245    17.601718    22.897799    19.448097    7838.3727     8428.393    7388.0427    6489.5378    -772.7116     847.8553     -914.343   -3820.9822 
17747000     167.2246   -5003.7977   -4669.3278   -5003.7977            0    9500.8996    17.942151    22.536917    19.298324    7803.4856    8698.8074    9702.8019     10101.09    1776.4948    452.03806    176.65889     -3588.07 
17748000    177.30431   -5016.8114   -4662.1808   -5016.8114            0    6689.4487    17.898144    22.776404    19.359087    7891.8355    6281.9053    7025.6326    6760.8082    140.77962    571.81901   -220.78049   -3892.2633 
17749000    178.32211   -5034.8375   -4678.1713   -5034.8375            0    10113.257    17.723326    22.951896    19.105206    7771.6908    8793.4059    10151.832    11394.532   -971.87628    288.33724   -1761.4715   -3531.9131 
17750000    174.46086   -4996.0999   -4647.1566   -4996.0999            0    7438.9247    17.926138    22.835497    19.161927    7843.9783    6899.4535     7292.944    8124.3766   -1557.2671    153.06483   -112.89982   -3796.1706 
Loop time of 483.276 on 64 procs for 250000 steps with 1008 atoms

Performance: 89.390 ns/day, 0.268 hours/ns, 517.302 timesteps/s
376.4% CPU use with 16 MPI tasks x 4 OpenMP threads

MPI task timing breakdown:
Section |  min time  |  avg time  |  max time  |%varavg| %total
---------------------------------------------------------------
Pair    | 41.429     | 43.523     | 46.876     |  20.1 |  9.01
Bond    | 1.6178     | 1.8697     | 2.6011     |  19.9 |  0.39
Kspace  | 231.18     | 235.2      | 242.16     |  21.2 | 48.67
Neigh   | 1.9967     | 2.1148     | 2.304      |   7.9 |  0.44
Comm    | 65.016     | 71.285     | 77.564     |  44.3 | 14.75
Output  | 0.54454    | 0.54485    | 0.54622    |   0.0 |  0.11
Modify  | 105.32     | 107.64     | 110.56     |  17.2 | 22.27
Other   |            | 21.1       |            |       |  4.37

Nlocal:        63.0000 ave          68 max          58 min
Histogram: 1 0 0 5 1 3 1 2 2 1
Nghost:        3432.81 ave        3459 max        3405 min
Histogram: 2 1 2 0 1 4 1 1 3 1
Neighs:        21303.3 ave       22887 max       19510 min
Histogram: 1 0 0 5 1 3 1 2 2 1

Total # of neighbors = 340853
Ave neighs/atom = 338.14782
Ave special neighs/atom = 2.0000000
Neighbor list builds = 4783
Dangerous builds = 0

unfix		3
unfix		2
unfix		1

write_data	data.final.${pid}
write_data	data.final.1
System init for write_data ...
PPPM initialization ...
  extracting TIP4P info from pair style
  using 12-bit tables for long-range coulomb (../kspace.cpp:340)
  G vector (1/distance) = 0.37891257
  grid = 24 27 32
  stencil order = 5
  estimated absolute RMS force accuracy = 0.0025109523
  estimated relative force accuracy = 7.5616583e-06
  using double precision FFTW3
  3d grid and FFT values/proc = 7875 1344
Last active /omp style is kspace_style pppm/tip4p/omp
WARNING: Not all mixed pair coeffs generated from mixing. Use write_data with 'pair ij' option to store all pair coeffs. (../write_data.cpp:312)

write_restart   restart.lmp.${pid}
write_restart   restart.lmp.1
System init for write_restart ...
PPPM initialization ...
  extracting TIP4P info from pair style
  using 12-bit tables for long-range coulomb (../kspace.cpp:340)
  G vector (1/distance) = 0.37891257
  grid = 24 27 32
  stencil order = 5
  estimated absolute RMS force accuracy = 0.0025109523
  estimated relative force accuracy = 7.5616583e-06
  using double precision FFTW3
  3d grid and FFT values/proc = 7875 1344
Last active /omp style is kspace_style pppm/tip4p/omp
Total wall time: 0:08:03
