LAMMPS (30 Jul 2021)
Processor partition = 0
  using 4 OpenMP thread(s) per MPI task
using multi-threaded neighbor list subroutines
variable        pid world 0 1
variable        phase world IceVI IceV

shell cd ${phase}
shell cd IceVI
include Restart.lmp
echo both
log log.lammps
#include		in.partitions
include		in.temp
variable        temperature equal 175.77
variable	tempDamp equal 100.0
include		in.pressure
variable        pressure equal 8330.0
variable        pressureDamp equal 1000.0 # This is 1 ps
include		in.seed
variable        seed equal 745823

units		real
atom_style	full
read_restart	restart.lmp.${pid}
read_restart	restart.lmp.0
Reading restart file ...
  restart file = 30 Jul 2021, LAMMPS = 30 Jul 2021
  restoring atom style full from restart
  orthogonal box = (-0.077291408 -0.030313235 -0.012418115) to (24.807292 24.760314 22.822418)
  4 by 2 by 2 MPI processor grid
  restoring pair style lj/cut/tip4p/long/omp from restart
  restoring bond style harmonic/omp from restart
  restoring angle style harmonic/omp from restart
  1920 atoms
  1280 bonds
  640 angles
Finding 1-2 1-3 1-4 neighbors ...
  special bond factors lj:    0        0        0       
  special bond factors coul:  0        0        0       
     2 = max # of 1-2 neighbors
     1 = max # of 1-3 neighbors
     1 = max # of 1-4 neighbors
     2 = max # of special neighbors
  special bonds CPU = 0.001 seconds
  read_restart CPU = 0.006 seconds
include 	in.setup
variable	out_freq equal 1000
variable	out_freq2 equal 10000
variable	out_freq3 equal 1000

timestep	2.0

neigh_modify    delay 7 every 1

include		in.tip4p
# This is TIP4P/Ice

# create groups ###
group ox type 2
640 atoms in group ox
group hy type 1
1280 atoms in group hy

# set charges - beside manually ###
set group ox charge -1.1794
Setting atom values ...
  640 settings made for charge
set group hy charge 0.5897
Setting atom values ...
  1280 settings made for charge

# ### TIP3P Potential Parameters ###
pair_style lj/cut/tip4p/long/omp 2 1 1 1 0.1577 8.5
pair_coeff 1 1*2 0.000 0.000
pair_coeff 2 2 0.21084 3.1668
bond_style  harmonic
bond_coeff  1 450 0.9572
angle_style harmonic
angle_coeff 1 55 104.52
kspace_style pppm/tip4p/omp 1.0e-5
pair_modify tail yes

thermo          ${out_freq}
thermo          1000
thermo_style    custom step temp pe etotal epair emol press lx ly lz vol pxx pyy pzz pxy pxz pyz enthalpy

restart 	${out_freq3} restart.lmp.${pid} restart2.lmp.${pid}
restart 	1000 restart.lmp.${pid} restart2.lmp.${pid}
restart 	1000 restart.lmp.0 restart2.lmp.${pid}
restart 	1000 restart.lmp.0 restart2.lmp.0


include         in.dump
dump            myDump all atom ${out_freq2} dump.water.${pid}
dump            myDump all atom 10000 dump.water.${pid}
dump            myDump all atom 10000 dump.water.0
dump            myDump2 all dcd ${out_freq2} dump.dcd
dump            myDump2 all dcd 10000 dump.dcd
dump_modify     myDump append yes
dump_modify     myDump2 append yes


variable natoms 	equal  "count(all)"                        # NUMBER ATOMS
variable H      	equal  "enthalpy/v_natoms"                 # ENTHALPY-per-atom
variable Vol      	equal  "vol/v_natoms"                 # volume-per-atom
fix AVG all 		ave/time ${out_freq} 1 ${out_freq} v_Vol v_H file vol_enthalpy.dat
fix AVG all 		ave/time 1000 1 ${out_freq} v_Vol v_H file vol_enthalpy.dat
fix AVG all 		ave/time 1000 1 1000 v_Vol v_H file vol_enthalpy.dat




fix 		1 all shake 1e-6 200 0 b 1 a 1
Finding SHAKE clusters ...
       0 = # of size 2 clusters
       0 = # of size 3 clusters
       0 = # of size 4 clusters
     640 = # of frozen angles
  find clusters CPU = 0.000 seconds
fix             2 all nph aniso ${pressure} ${pressure} ${pressureDamp}
fix             2 all nph aniso 8330 ${pressure} ${pressureDamp}
fix             2 all nph aniso 8330 8330 ${pressureDamp}
fix             2 all nph aniso 8330 8330 1000
fix             3 all temp/csvr ${temperature} ${temperature} ${tempDamp} ${seed}
fix             3 all temp/csvr 175.77 ${temperature} ${tempDamp} ${seed}
fix             3 all temp/csvr 175.77 175.77 ${tempDamp} ${seed}
fix             3 all temp/csvr 175.77 175.77 100 ${seed}
fix             3 all temp/csvr 175.77 175.77 100 745823


run             250000
PPPM initialization ...
  extracting TIP4P info from pair style
  using 12-bit tables for long-range coulomb (../kspace.cpp:340)
  G vector (1/distance) = 0.37482041
  grid = 30 30 30
  stencil order = 5
  estimated absolute RMS force accuracy = 0.0032297574
  estimated relative force accuracy = 9.7263185e-06
  using double precision FFTW3
  3d grid and FFT values/proc = 7920 1800
Last active /omp style is kspace_style pppm/tip4p/omp
Neighbor list info ...
  update every 1 steps, delay 7 steps, check yes
  max neighbors/atom: 2000, page size: 100000
  master list distance cutoff = 10.8154
  ghost atom cutoff = 10.8154
  binsize = 5.4077, bins = 5 5 5
  1 neighbor lists, perpetual/occasional/extra = 1 0 0
  (1) pair lj/cut/tip4p/long/omp, perpetual
      attributes: half, newton on, omp
      pair build: half/bin/newton/omp
      stencil: half/bin/3d
      bin: standard
Setting up Verlet run ...
  Unit style    : real
  Current step  : 17500000
  Time step     : 2
Per MPI rank memory allocation (min/avg/max) = 12.55 | 12.56 | 12.56 Mbytes
Step Temp PotEng TotEng E_pair E_mol Press Lx Ly Lz Volume Pxx Pyy Pzz Pxy Pxz Pyz Enthalpy 
17500000     179.9298   -9450.8763   -8764.9019   -9450.8763            0    9258.3825    24.884584    24.790627    22.834836    14086.912    8855.1811    9706.5558    9213.4105    1229.8792   -246.16504   -172.71411   -6862.8305 
17501000    173.17659   -9464.6944   -8804.4663   -9464.6944            0    8542.3701    24.690228    24.932697    22.870397    14078.878    9960.9281    7619.4013    8046.7809   -392.75163    580.65079    258.00786   -7050.4956 
17502000    179.02758   -9478.1793   -8795.6446   -9478.1793            0    8878.6815     24.88536     24.76024    22.834051      14069.6    7778.9327    9853.4587    9003.6531   -358.32928    109.75632    165.37811   -6973.8218 
17503000     178.9376   -9486.4672   -8804.2755   -9486.4672            0     7958.872     24.69963     24.91323    22.936668    14114.022    8670.3357    7118.4015    8087.8788   -90.659806   -1545.0728     85.94125   -7166.0329 
17504000    173.05516   -9492.3605   -8832.5953   -9492.3605            0     7326.194     24.84051     24.89839    22.836323    14124.008    6982.4706    8099.6527    6896.4585   -379.83171    260.94836   -465.50262   -7323.5153 
17505000    180.11436   -9484.5315   -8797.8534   -9484.5315            0    6962.4205    24.905113    24.861547    22.847224    14146.536    5848.2181    8310.9609    6728.0825   -488.25464   -401.84013    646.37152   -7361.4175 
17506000    176.69962   -9448.5754   -8774.9158   -9448.5754            0    8476.0935    24.767674    24.905998    22.890084    14120.061    9276.5064    8058.8392    8092.9348    36.004201   -560.08035    363.80038   -7029.4627 
17507000    173.12819   -9478.3727   -8818.3291   -9478.3727            0    7858.7646    24.911938    24.647782    22.974365    14106.812    6558.0719    9934.6903    7083.5317   -59.917079   -308.63657   -359.87968   -7201.5189 
17508000    175.01216   -9484.6816   -8817.4555   -9484.6816            0    8364.3091     24.72077    24.881359    22.911493    14092.547    10106.911    6712.2523    8273.7643   -366.95732   -213.94241    173.38105    -7098.378 
17509000    180.75513   -9463.8628   -8774.7418   -9463.8628            0     8711.795    24.906454    24.793905    22.811965    14087.033    8425.6067    9355.6846    8354.0937   -413.44357   -875.13261    239.43007   -6984.9477 
17510000    178.08015   -9472.7473   -8793.8245   -9472.7473            0    8451.3037    24.793003     24.90139    22.792516    14071.649    8243.0869    8473.9118    8636.9123   -321.38069    999.88558    1148.8967   -7059.4432 
17511000     176.4033   -9488.7109    -8816.181   -9488.7109            0    7310.1446    24.888981     24.78617    22.908062    14132.041    6265.6606    8149.8216    7514.9517    496.57512   -101.90802    499.41225   -7309.5505 
17512000    175.74317   -9449.0139   -8779.0007   -9449.0139            0    7825.8094    24.727199    24.948246    22.909893    14133.119    9437.2771     6788.596    7251.5552   -750.15398    35.622161     478.7395   -7165.9681 
17513000    176.51926   -9462.5085   -8789.5366   -9462.5085            0    6826.8257    24.939493    24.801031    22.889992    14158.036    5950.6802    7022.8525    7506.9445   -697.51599   -720.24129    259.91849   -7379.9307 
17514000    174.75924    -9504.046    -8837.784    -9504.046            0    7933.3153    24.823416    24.933608     22.77268    14094.862    7248.5067     7510.753     9040.686     314.6696    -710.9039   -572.86819   -7207.0189 
17515000     178.1267   -9478.2274   -8799.1272   -9478.2274            0    9055.3025    24.897116    24.805602    22.778951    14068.006    8288.7202     8993.732    9883.4552   -248.35728   -563.92069   -330.80538    -6941.274 
17516000    177.48146   -9463.9171   -8787.2768   -9463.9171            0    8810.8833    24.783575    24.824351    22.867922    14069.173    9095.8622    7822.6267    9514.1611   -335.45111    -189.0962   -246.26332   -6979.4205 
17517000    176.55248   -9472.3637   -8799.2651   -9472.3637            0    7812.6662    24.821307    24.770377      22.9831    14130.771    7622.6298    9108.7255    6706.6434   -652.46133   -543.89197    710.86261   -7189.2089 
17518000    176.88325   -9498.6694   -8824.3098   -9498.6694            0     7962.257    24.756607    24.802877    22.969557    14104.113    7078.6253    9120.9186    7687.2272    -462.0324    260.61018   -697.40815   -7186.5211 
17519000    168.51725   -9442.9484   -8800.4838   -9442.9484            0    9661.0627    24.777816    24.754263    22.891008     14040.35    9334.6924    10847.943    8800.5526    405.26201    16.821442    834.45118   -6822.2449 
17520000    174.18323    -9483.576   -8819.5101    -9483.576            0    8446.5087    24.789333    24.854782     22.86885    14090.264    8864.0596    8296.7249    8178.7415   -115.78795    -740.5283   -560.07598   -7083.8198 
17521000    175.76311   -9487.6395   -8817.5504   -9487.6395            0    8039.8982     24.86107    24.897623     22.79709    14110.978    7123.2614    9073.7086    7922.7246    185.78725    943.39754   -63.406854   -7162.9864 
17522000    181.42442    -9475.141   -8783.4684    -9475.141            0    8804.6538    24.822701    24.852915    22.830713    14084.644    8946.7457    8373.0006     9094.215    -526.1253   -443.87322   -38.368148   -6974.9037 
17523000    173.56624   -9497.3965   -8835.6828   -9497.3965            0    8716.6658    24.801507    24.842056     22.82048    14060.164    8613.3554      8782.14     8754.502   -834.13391    427.37799   -1034.0903   -7048.3037 
17524000    183.79223   -9450.2336   -8749.5338   -9450.2336            0    8909.3004     24.82141    24.802175    22.857578    14071.696    8879.4968     9702.852    8145.5525    366.75214    928.26581    1281.9755    -6921.156 
17525000    180.24166   -9475.4959   -8788.3325   -9475.4959            0    8980.0531    24.780912    24.997532    22.691527    14056.531    9065.7083    7651.2465    10223.204    354.35078    435.51125     336.2963   -6947.4209 
17526000    175.93997    -9446.082   -8775.3187    -9446.082            0    9080.3153    24.822538    24.766697    22.879618    14065.755    8508.7244     10137.97    8594.2512   -1198.9722    21.053428    304.73168   -6912.6318 
17527000    170.54625   -9441.9185   -8791.7184   -9441.9185            0    9936.2851    24.682821    24.850483    22.883928    14036.544    10286.348     10239.49    9283.0173    410.79321    329.40404   -22.207631   -6757.6755 
17528000      180.234   -9495.7295   -8808.5953   -9495.7295            0    9721.8036    24.778043    24.773905     22.85746    14031.026     9110.309    10472.277    9582.8253    30.455709    358.07438    794.86271   -6819.2409 
17529000    168.40535   -9462.4488   -8820.4107   -9462.4488            0    9106.6935     24.79623    24.830412    22.850828    14069.268     8767.714    9088.2041    9464.1624    1107.6592    -219.3159   -93.118434   -6951.8461 
17530000    181.00668   -9469.2503   -8779.1703   -9469.2503            0    9600.2768    24.728289    24.767439    22.941295    14050.543     10194.16    8981.0398    9625.6308   -550.28844   -92.065792   -466.92809   -6811.9511 
17531000    184.05707   -9471.8969   -8770.1874   -9471.8969            0    9286.6649    24.860829    24.749283    22.855123    14062.476    8617.1925    9486.2059    9756.5962   -301.99709   -1111.5452    972.06748   -6865.6152 
17532000    177.52414   -9457.9808   -8781.1778   -9457.9808            0    9291.8502    24.764563    24.869039    22.830747    14060.792    8852.3467     9326.399    9696.8048   -601.12927    -478.1819   -166.28192   -6875.7703 
17533000    178.36177   -9472.9603   -8792.9639   -9472.9603            0    7868.8386    24.894714    24.845428    22.816689    14112.574    7365.9839    8142.7078    8097.8243    19.879821   -56.394631   -115.87331   -7173.4198 
17534000    175.19536   -9499.2264   -8831.3018   -9499.2264            0    7887.2918     24.78711    24.903699    22.849763    14104.947    7625.9732    7867.4117    8168.4906    478.33823    578.06413    101.31131   -7208.8371 
17535000    170.61793   -9486.4988   -8836.0254   -9486.4988            0    9234.8622    24.834682    24.804921     22.78843    14038.182    9265.5656    8698.6418    9740.3794    435.30831   -576.92519    65.769138   -6945.3492 
17536000    172.46412   -9462.7207   -8805.2088   -9462.7207            0    8547.6323    24.756919     24.92829    22.802213    14072.332     9522.076    7754.6624    8366.1586   -58.957377   -241.96641    1090.7725   -7050.9737 
17537000    177.39086   -9481.4859    -8805.191   -9481.4859            0    8632.7332    24.881074     24.87768    22.750745    14082.333    8814.5504     7202.809    9880.8403    250.99968   -199.50196    809.08485   -7032.2314 
17538000    174.78955    -9459.063   -8792.6855    -9459.063            0    8458.3199    24.826731    24.915249    22.799439    14102.917    8257.9182    8076.1372    9040.9042   -271.68679    -340.5248    813.49809   -7053.0073 
17539000    171.85364   -9478.7127   -8823.5283   -9478.7127            0    7923.9723    24.888912    24.769653    22.921724    14131.007    6271.6194    9110.7816    8389.5161    665.09381   -11.955807    738.07501   -7190.5066 
17540000    175.33211   -9486.3185   -8817.8725   -9486.3185            0    7778.5398    24.786315    24.857494    22.914631    14118.292     8288.278    7831.7212    7215.6202    245.14539    43.742763   -33.390451   -7216.2648 
17541000    173.43724   -9499.2437   -8838.0218   -9499.2437            0    8416.0343    24.795627    24.730654    22.945666    14070.559    8912.3795    9193.2483    7142.4749    -580.8733   -576.42983    58.692496   -7111.0123 
17542000    178.47886    -9485.639   -8805.1962    -9485.639            0    8980.2654    24.722821    24.858201    22.889285     14066.95    8896.4428    9233.5319    8810.8216    293.77582   -653.17321    426.37297   -6962.8765 
17543000    176.11612   -9453.9395   -8782.5046   -9453.9395            0    9392.2423    24.824599    24.806936     22.83205    14060.484    8354.0243    9709.6246    10113.078    300.96451   -206.69792    404.90016   -6856.5526 
17544000    180.43903   -9487.5042   -8799.5883   -9487.5042            0    8818.6685    24.771651    24.891121    22.790337    14052.388    9916.4716    7084.7689    9454.7649     399.7171    334.06887   -885.80844   -6992.2934 
17545000    170.82104   -9502.2631   -8851.0153   -9502.2631            0    8527.5369    24.855145    24.904617    22.738444    14075.276    7511.4499    8305.9312    9765.2296   -113.43246    113.01914    217.36121   -7100.5383 
17546000    179.56799   -9462.6103   -8778.0153   -9462.6103            0    7846.0779     24.85735    24.802779    22.916559    14128.777    8041.5678    7866.3679    7630.2981   -178.67207   -433.32738    395.11385   -7161.3018 
17547000    169.93518   -9472.8412   -8824.9708   -9472.8412            0    8051.7026    24.736172    24.873806    22.952888    14122.516    8650.1365    7629.5657    7875.4055    332.86545   -1978.5646    840.41288   -7166.6228 
17548000    175.51038   -9484.1966    -8815.071   -9484.1966            0    7515.0479    24.845239    24.747446    22.992132    14136.855    7237.1849     8430.386    6877.5729   -236.20906    157.89141    567.86048   -7265.6821 
17549000    185.30501   -9500.9403    -8794.473   -9500.9403            0    6995.0072      24.7998    24.880986    22.925206    14145.849    7386.8278    6656.6089    6941.5851    47.303404    732.14562    918.72377   -7351.3842 
17550000    183.24664   -9479.2029   -8780.5831   -9479.2029            0    7947.7538    24.787205    24.767252    22.971224    14102.286    7515.4198    8842.1364    7485.7052    325.14384     4.556141   -540.49314   -7145.9894 
17551000    171.77011   -9449.8578   -8794.9918   -9449.8578            0    8148.0505    24.805561     24.87572    22.873702    14114.359    7679.2938    8300.8601    8463.9975   -851.19328    338.07419    399.52399    -7117.769 
17552000    178.35903   -9485.9568   -8805.9708   -9485.9568            0    8330.0691    24.795891    24.806533    22.918748    14097.324    7607.4281    9261.2283    8121.5509    270.24474   -190.17441   -668.66928   -7093.3501 
17553000    172.43799   -9459.3723     -8801.96   -9459.3723            0    8438.5324    24.819825    24.757972    22.914686    14080.812    8243.1663    9424.1436    7648.2872    -790.5414   -576.84763    276.70013   -7069.0719 
17554000    180.32666   -9474.0867   -8786.5993   -9474.0867            0    8626.6318    24.790742    24.911322    22.803332    14082.657    9368.6966    7502.7308    9008.4679   -270.84785    604.96509    576.96332   -7014.8521 
17555000    181.51508   -9475.8467   -8783.8285   -9475.8467            0    8720.4206    24.889042    24.783928    22.825073    14079.606    8830.8383    8837.4089    8493.0147   -550.73257   -393.89031    34.568795   -6993.2069 
17556000    182.29726   -9475.4762   -8780.4759   -9475.4762            0    8603.9344    24.729876    24.906171    22.855804    14077.495    8608.7422    8820.9392    8382.1219   -141.40919    353.27182   -941.48516    -7014.038 
17557000    171.37148   -9458.7566   -8805.4103   -9458.7566            0    8898.7672    24.791325    24.857535    22.835338    14072.305    8816.4543    8417.0074      9462.84    439.96601   -151.75603    511.50099   -6979.1151 
17558000    174.07415   -9480.0271   -8816.3771   -9480.0271            0    8368.0813    24.765618    24.819545    22.909056    14081.541    9158.6276    7394.7521    8550.8642   -213.28896   -1025.1132   -322.87768   -7097.8675 
17559000    174.45487    -9474.015   -8808.9135    -9474.015            0    7280.6654    24.849906    24.786163    22.966034    14145.557    6275.9997    8831.9406    6734.0559   -699.39007     294.2744   -63.795862   -7306.9236 
17560000    170.93118   -9487.4449   -8835.7773   -9487.4449            0    8138.5017    24.725471      24.8487    22.947088    14098.595    8209.0176     8134.276    8072.2116    1129.7247    256.47022    272.90534   -7162.3911 
17561000    174.61356   -9492.1348   -8826.4283   -9492.1348            0    7506.7018    24.762203    24.821653    22.990141    14130.633    7731.8154    7878.6088    6909.6811    520.75382   -539.79099   -322.04422   -7279.4413 
17562000     176.0794   -9482.9037   -8811.6088   -9482.9037            0     7698.956    24.839197    24.798832    22.925157    14121.508    7833.9974    8187.4663    7075.4043    649.05184   -1115.3702    528.27951   -7226.0264 
17563000    176.74373   -9448.8776   -8775.0498   -9448.8776            0    8317.7805     24.75614     24.89993     22.89249    14111.529    8712.1505    7229.7859    9011.4052   -289.61707    260.68822   -173.58676   -7063.2325 
17564000    174.34428   -9471.2657   -8806.5858   -9471.2657            0    7978.3909    24.934233    24.795142    22.853604    14129.191    6360.6495    8888.0274    8686.4959    -162.0337   -501.54279    261.90934   -7162.5605 
17565000    168.79095   -9487.9574   -8844.4494   -9487.9574            0    7779.2617    24.819372    25.017647     22.71835     14106.33    7616.3112    6557.1652    9164.3087   -107.86627    -1069.585   -596.83376   -7244.0502 
17566000    190.26925   -9478.2639   -8752.8708   -9478.2639            0    8110.7306    24.856204    24.850346    22.835085    14104.896    8145.3282    8219.1282    7967.7353    254.06934   -566.80812   -313.86199   -7084.4493 
17567000    171.41575   -9473.1432   -8819.6282   -9473.1432            0      10476.9    24.779999    24.778626    22.801142    14000.228    10612.383    10311.775    10506.542    467.73569    221.54539    1032.9584   -6680.4657 
17568000    168.39784   -9469.3775   -8827.3682   -9469.3775            0    8742.7213    24.797161    24.838508    22.881143    14093.056      8232.68    9277.9396    8717.5443    110.66001   -720.99922   -310.73137   -7030.4525 
17569000    174.46656   -9489.0032   -8823.8571   -9489.0032            0    8520.1314    24.814347    24.746434    22.914175     14070.83    7989.2106    9360.5233    8210.6601    410.86867   -192.12391   -513.04292   -7075.4527 
17570000    173.19935   -9477.9232   -8817.6083   -9477.9232            0    8644.2943     24.72614    24.850664    22.922019    14084.686    8521.3185    8807.8577    8603.7066   -235.09791   -746.01541   -80.147896   -7041.9778 
17571000    172.88951   -9453.7583   -8794.6246   -9453.7583            0    9631.2463    24.733397    24.731714    22.975041    14053.817    10030.245    10021.214      8842.28   -1097.7198    245.39614    285.83644   -6820.5996 
17572000    171.76604   -9438.9229   -8784.0724   -9438.9229            0    8558.3984    24.785366    24.875675    22.856715     14092.37    7704.3434    9135.0727    8835.7792   -1066.3943   -41.708257     859.7336   -7025.1268 
17573000    173.20286   -9516.4651   -8856.1368   -9516.4651            0    8191.6127    24.898306    24.831945    22.771595     14079.07    7594.1171    8241.6609      8739.06    115.64837   -163.66035   -593.82649   -7174.1628 
17574000    178.18621   -9479.3559   -8800.0288   -9479.3559            0     7934.774    24.830473    24.943573    22.804933    14124.479    8161.0403    7660.3776     7982.904    446.75049    741.95847   -140.50048   -7165.5364 
17575000     181.2226   -9470.8026   -8779.8994   -9470.8026            0    7377.5928    24.927198    24.882064    22.803307    14143.526    6726.6135    7144.8805    8261.2845    83.172036   -510.81993    353.69934    -7258.132 
17576000    176.87144   -9479.2922   -8804.9776   -9479.2922            0    8429.1964    24.778235    24.869114    22.890276    14105.279    7510.4652    9171.3972    8605.7266   -440.67603     362.6786    201.84158    -7070.999 
17577000    170.54657   -9486.4332   -8836.2319   -9486.4332            0    8204.5258    24.882775    24.712461    22.934751    14102.913    7451.9607    8936.5166       8225.1   -193.21313   -89.084108  -0.28488837   -7148.7535 
17578000    181.80575   -9474.0025    -8780.876   -9474.0025            0    7874.3255    24.745148    24.942705    22.883533    14123.966    8544.9108    6706.6142    8371.4515     -22.4642   -513.54172    724.01901   -7158.8944 
17579000    170.91331   -9469.8386   -8818.2392   -9469.8386            0    7862.0277    24.949169    24.771999    22.851995    14123.465    6597.4357    8521.6289    8467.0185    300.54533    298.70791   -201.56758   -7198.8482 
17580000    172.63427   -9462.1888   -8804.0282   -9462.1888            0    8645.1434    24.804036    24.884564    22.813506    14081.354    9053.3727     8303.127    8578.9303   -160.04164   -43.380024    69.846047   -7028.6434 
17581000    183.91841   -9480.5798    -8779.399   -9480.5798            0     8973.756    24.901869    24.744595    22.825935    14065.036    9023.7004    8996.5351    8901.0326   -42.919509    672.73809   -426.58124   -6938.6651 
17582000    175.89682   -9476.3463   -8805.7474   -9476.3463            0    9160.7608    24.769229    24.845148    22.845742    14059.159    9851.7181    8132.2138    9498.3504    82.935164   -766.72989    1000.6224   -6927.4395 
17583000    175.75017   -9516.1745   -8846.1347   -9516.1745            0    7301.4969    24.819352    24.813224    22.956919    14137.976    7124.0468    7437.7512    7342.6925    325.63951   -148.81479   -966.18383   -7340.6546 
17584000    182.13769   -9471.1129    -8776.721   -9471.1129            0    7170.8262    24.795551    24.908686    22.941674    14169.342    7243.2101    6544.4361    7724.8323   -369.90384    57.569549    201.46238   -7294.9033 
17585000    171.48059   -9472.0366   -8818.2744   -9472.0366            0    7637.7706     24.85116    24.825816    22.917352    14138.867    6643.8549    8968.2351    7301.2217    701.14253   -612.96095   -211.27237   -7243.3594 
17586000    182.19251   -9491.9932   -8797.3923   -9491.9932            0    8180.0551    24.773733    24.893725    22.856956    14096.125    8790.0617    7584.2512    8165.8524   -82.185248   -1572.4707   -117.90705   -7115.7568 
17587000    170.58938   -9454.5515    -8804.187   -9454.5515            0    8130.5497    24.862034    24.859273    22.840526    14116.635    7739.2724    7839.3033    8813.0735   -699.78863    489.01296    601.26829   -7130.2967 
17588000    183.92448      -9471.4    -8770.196      -9471.4            0    8896.3552    24.819894    24.882801    22.783488     14070.82    7927.7277    9501.1284    9260.2095    234.98689    243.16689   -394.54107   -6944.5885 
17589000    167.19814   -9477.3688   -8839.9332   -9477.3688            0    9000.3247    24.915615    24.838846    22.735212    14070.257    7841.9575    9280.0125    9879.0039   -619.49449   -820.53991    521.95176   -6993.0642 
17590000    176.08598   -9465.6339   -8794.3138   -9465.6339            0    8248.8055    24.791828    24.858451    22.893585    14109.006    8618.6868    8242.4983    7885.2312    586.60941   -24.722454    26.932761   -7096.9952 
17591000    169.96304    -9485.333   -8837.3564    -9485.333            0     7682.049    24.836182    24.779059    22.959037    14129.386    7245.8748    7939.3118    7860.9602    441.61702    264.07371    161.48277   -7254.3733 
17592000    179.75952    -9481.368   -8796.0428    -9481.368            0    8747.9125    24.734327    24.851677    22.910871    14083.072    9164.1993    8247.4239    8832.1142    164.57654   -564.45547    1827.3109   -6999.3339 
17593000    175.09946   -9468.5028   -8800.9438   -9468.5028            0    7875.3838    24.852545    24.847541     22.86489    14119.633    6739.7814    8020.2867    8866.0831    194.11559    1287.6587   -42.761777   -7179.2419 
17594000    171.54671   -9448.0524   -8794.0381   -9448.0524            0    9330.6811    24.795855    24.875357    22.785517    14054.237    9110.5934    9396.3103    9485.1395    199.36101    122.84544    348.63777   -6881.5598 
17595000    168.55304    -9492.581     -8849.98    -9492.581            0    7051.0088     24.81178    24.845626    22.921411    14130.229    7185.8746    7495.4984    6471.6535    521.68658     384.7225    107.26619    -7396.944 
17596000     177.3979   -9475.3308   -8799.0092   -9475.3308            0    8550.2814    24.785735    24.846235    22.858057    14076.727    7989.9454     9823.159      7837.74    -332.1324     271.2675   -972.39242   -7043.6823 
17597000    183.45084   -9485.9597   -8786.5615   -9485.9597            0    8446.4132    24.779667    24.869472     22.84044    14075.587    8948.6846    8502.8517    7887.7034   -579.94442    153.23776   -252.36165   -7052.6987 
17598000    172.65749   -9496.3182   -8838.0692   -9496.3182            0    9136.9737    24.732472     24.83258    22.859925    14039.905    9296.1428    8826.7444    9288.0338   -378.12325    170.87224    308.57132   -6967.2043 
17599000     188.3595   -9507.7084    -8789.596   -9507.7084            0    8189.5521    24.815388     24.73355    22.932439    14075.304    8363.2481    9043.3798    7162.0285   -357.54356   -381.08182    977.67275    -7108.495 
17600000    175.53924   -9486.1273   -8816.8916   -9486.1273            0     10247.02    24.711129    24.783745    22.861453    14001.139    9984.1555    10569.934    10186.972    -278.3988    -453.7387    544.50017   -6724.5295 
17601000    176.09805   -9485.6799   -8814.3139   -9485.6799            0    9725.4633    24.768008    24.784145    22.852345    14028.001    10051.317    10428.214    8696.8593   -941.81355    575.79063   -177.93274   -6824.6396 
17602000    179.26383   -9473.4895   -8790.0541   -9473.4895            0    8253.4956    24.827926    24.817432      22.8917    14105.073    9043.2196    7969.3856    7747.8816    555.94693    -149.6421    195.19992   -7092.2438 
17603000    175.85604   -9484.9456   -8814.5022   -9484.9456            0    6300.7547    24.837758    24.900126    22.942298    14188.969    6843.3051    6784.4843    5274.4746   -334.89308   -769.75338    911.31902   -7510.6771 
17604000    176.63795   -9488.3927   -8814.9683   -9488.3927            0    7482.4822    24.835901    24.872593    22.924283    14161.092    8147.0048    6596.5449     7703.897    390.33947   -947.30881    461.85933   -7269.6486 
17605000     173.2873   -9452.2208   -8791.5706   -9452.2208            0    8384.0395    24.817264    24.833287    22.891876    14108.131    8045.3098    9172.3096    7934.4991   -388.88181    163.53067   -47.477143   -7066.5324 
17606000    174.59939     -9493.19   -8827.5374     -9493.19            0    8936.0077    24.755095    24.753601    22.962623    14070.984    9071.2728    9440.5904    8296.1599    195.69534   -1184.7558    439.88639   -6993.7715 
17607000    175.08729   -9468.0231   -8800.5105   -9468.0231            0     8873.279    24.727081    24.792664    22.964464    14078.369     9199.446    8846.6118    8573.7794    138.52708    74.288733    714.27746   -6978.6615 
17608000    176.14688   -9485.4651   -8813.9128   -9485.4651            0    7652.3252    24.811969    24.726552    23.030659    14129.642    7309.5223     8648.654    6998.7992   -502.52565    485.34467   -350.52192   -7237.0262 
17609000    175.91385    -9485.386   -8814.7222    -9485.386            0    8944.0999    24.816664     24.85176     22.82408    14076.473    8102.4861    9085.1654    9644.6482   -824.16649    913.76861   -172.87936   -6978.5797 
17610000    176.19452   -9492.8368    -8821.103   -9492.8368            0    8683.5477    24.888936    24.847772    22.746335    14067.121    8545.0176    7736.8878    9768.7375    285.20398   -732.44247    710.91827   -7039.6338 
17611000    176.22641   -9471.2124    -8799.357   -9471.2124            0    9070.1814    24.796838     24.98901    22.691411    14060.697     9457.685     7695.073    10057.786   -463.46849   -549.17048    714.14456    -6939.418 
17612000    176.93574   -9462.4685   -8787.9087   -9462.4685            0    9146.1209    24.825932    24.786874    22.809205    14035.809    8693.0858    10330.976     8414.301    900.54558   -74.697695   -33.071828   -6915.7172 
17613000    173.44703   -9451.3915   -8790.1323   -9451.3915            0    10273.559     24.78545    24.739298    22.846292    14008.767    10956.254    9355.0801    10509.342   -761.28256   -904.57437    1176.8237   -6691.2083 
17614000    179.38376   -9440.1553   -8756.2626   -9440.1553            0     8838.745    24.726868    24.838785    22.935436    14086.609    9747.5417    9117.5824    7651.1108    225.83392    922.87603    1089.9773   -6940.4419 
17615000    179.50391   -9457.7969   -8773.4461   -9457.7969            0    8266.4536     24.85026    24.819128    22.875684    14108.848    7910.8605    8780.8048    8107.6954    281.34861   -674.51579   -279.20827   -7072.5153 
17616000     170.6463   -9477.4746   -8826.8931   -9477.4746            0    6739.2749    24.814811    25.006019     22.83511    14169.634    6911.7492    5743.8178    7562.2577    523.18538    290.60112    212.34499   -7434.2247 
17617000    168.22801    -9482.875   -8841.5131    -9482.875            0    8640.2376    24.842108    24.798496    22.836691    14068.473    8470.5775      8667.64    8782.4953   -170.63155    107.12821   -282.41107   -7068.7588 
17618000    170.61486   -9489.0484   -8838.5867   -9489.0484            0    9042.1356     24.73113    24.823701    22.885986    14050.123    9173.2702    9482.7697    8470.3669    93.379844   -360.36527    796.71282   -6985.7931 
17619000    171.16775   -9457.3565    -8804.787   -9457.3565            0    8925.8102    24.807942    24.779334    22.898721    14076.399    9230.2993    9523.7071    8023.4241    463.57466    503.28592   -64.276035   -6972.4088 
17620000    168.55763    -9465.019   -8822.4005    -9465.019            0    7194.4851    24.845368    24.832599    22.947695    14158.156    6928.6723    7718.8814    6935.9014   -930.37808   -1324.5394    819.56989   -7336.8675 
17621000    176.27191   -9491.3155   -8819.2866   -9491.3155            0    7701.3613    24.834941    24.830872    22.908459    14127.034     7842.021    7451.6323    7810.4306   -184.10629    1207.4125   -103.50791   -7232.5883 
17622000    178.93093   -9469.1995   -8787.0332   -9469.1995            0    8255.6598    24.734111     24.91655    22.859301    14087.929    9148.7726    8063.2594    7554.9475   -227.82619   -406.78268   -60.610718   -7090.8418 
17623000    172.20333   -9473.6639   -8817.1463   -9473.6639            0    9701.4854    24.879301    24.755338    22.755676    14015.119    8987.9699     9997.415    10119.071   -292.70523    295.42215    252.98802   -6834.2002 
17624000    177.08004    -9452.735   -8777.6251    -9452.735            0    9129.0174    24.793934    24.886958    22.806016    14072.351    9889.3995    8498.6826    8998.9702   -138.11886    546.59293   -698.18628   -6904.0695 
17625000    178.52747   -9453.2396   -8772.6115   -9453.2396            0    9054.8193     24.83136    24.808783    22.829341    14063.692     8918.622    9479.9514    8765.8846    63.984493   -883.04405   -177.83188   -6915.4271 
17626000    176.68344   -9481.0707   -8807.4728   -9481.0707            0    8411.4149    24.739666     24.85788    22.904762    14085.871    8123.1835    8776.1776    8334.8834    241.39918   -185.46304      -1744.5   -7079.5329 
17627000    180.51071   -9475.2962   -8787.1071   -9475.2962            0    9410.2304    24.852735     24.67005     22.92273    14054.343     8784.921    10883.267    8562.5036    321.08633   -451.64978    15.366181   -6858.3093 
17628000     179.0905    -9494.947   -8812.1723    -9494.947            0    8359.6571    24.679281    24.869502     22.94826    14084.756    8971.6898    8457.9918    7649.2896      623.905   -221.82667   -1750.8066   -7095.0007 
17629000    177.45097   -9470.4422   -8793.9181   -9470.4422            0    8326.4439     24.88044    24.754764    22.912003    14111.719    6544.5148    9379.5143    9055.3026   -644.98346    395.49512   -477.55402   -7080.2949 
17630000    178.65673   -9516.3303   -8835.2094   -9516.3303            0    7986.2925    24.742852    24.921108    22.864607    14098.758    9092.2219    6771.1048     8095.551    347.50842    1275.2823    773.24539   -7193.1005 
17631000    173.87511    -9493.551   -8830.6598    -9493.551            0    8418.3529    24.970244     24.78966    22.746752    14080.327    7271.3199     8647.937    9335.8019    164.95336   -658.62671    703.03473   -7101.9752 
17632000     175.6148   -9480.5614   -8811.0377   -9480.5614            0    8554.2843    24.781492     24.85783    22.888977    14099.933    8397.9908    9252.1889    8012.6732   -9.0110135    85.438572   -361.64459   -7051.9941 
17633000    169.87507   -9466.4029   -8818.7617   -9466.4029            0     7237.384    24.809051    24.819978    22.974455    14146.752    7378.7484    7767.7038    6565.6998   -147.63246   -302.14983     322.4097   -7325.5745 
17634000    173.67997   -9494.3738   -8832.2265   -9494.3738            0    8111.2759    24.841553    24.760956    22.916955    14096.232    8221.6855    8579.1013    7533.0409   -303.21468    53.757262    860.70231   -7164.7178 
17635000    170.41051    -9491.369   -8841.6865    -9491.369            0    8061.0898     24.81512    24.903133    22.829288    14107.912    8262.1328     7651.002    8270.1348   -69.900323    378.70524   -88.822932   -7183.1218 
17636000    168.00704   -9444.3759   -8803.8564   -9444.3759            0    8120.5787    24.936445    24.852931    22.774493    14114.349    6830.8721    8410.8828    9119.9811     839.4903   -528.16815    11.531275   -7132.2897 
17637000    171.31376   -9477.0716   -8823.9454   -9477.0716            0    8189.5856    24.788037    24.858333    22.872744    14093.939      8986.83    7858.1391    7723.7877   -159.88331   -188.42535   -508.00163   -7140.6117 
17638000    174.73664   -9469.8793   -8803.7035   -9469.8793            0    8437.3104    24.761416    24.808927    22.963634    14106.656    9077.6798    8156.1166    8078.1349   -1154.1299   -498.31748   -813.97347   -7067.8863 
17639000    172.75008   -9492.3492   -8833.7471   -9492.3492            0    7975.8696    24.742901     24.82122    22.955772    14098.264    8670.1882    8182.7071    7074.7134   -315.87504    1434.2233     46.80297   -7193.8387 
17640000    173.12331   -9470.7799   -8810.7549   -9470.7799            0    7285.1919    24.806625    24.819035     23.00841    14165.737    6982.5932    7917.4752    6955.5073   -926.02284   -369.04518   -434.12314   -7305.6871 
17641000    172.97925   -9489.0159   -8829.5402   -9489.0159            0    7984.0457       24.792    24.881585    22.872716    14109.361     8484.294    7588.7083    7879.1348    -48.28798    650.31544    -258.4437   -7186.6587 
17642000    172.60689   -9488.9926   -8830.9364   -9488.9926            0    8506.3433    24.871461    24.839885    22.769324    14066.985    7927.1259    8578.8754    9013.0285   -335.17228     150.4436    892.63834   -7085.8385 
17643000    175.50096   -9472.0272   -8802.9375   -9472.0272            0    8519.9681    24.766205    24.919352    22.795513    14068.428    9357.7125    6692.3858    9509.8059    216.08379   -522.36606    782.67303    -7054.865 
17644000    178.38418   -9490.6119     -8810.53   -9490.6119            0    8646.5213    24.851277    24.770177    22.879882    14084.181    9292.7561    8794.9313    7851.8765   -382.00624    289.60855    729.52587   -7034.5057 
17645000    180.76403   -9452.1139    -8762.959   -9452.1139            0    8920.9863     24.71652     24.82862      22.9241    14067.995    9879.2008    7936.5656    8947.1925    176.20242    223.96878   -360.42451   -6932.6645 
17646000    177.10674   -9483.1975   -8807.9859   -9483.1975            0     9060.186    24.673007    24.774859     22.99267    14054.735    11218.429    9088.1515    6873.9779    313.88859    206.73812    1427.5102   -6950.8843 
17647000    180.27247   -9496.8349   -8809.5541   -9496.8349            0    9527.6508    24.806538    24.782473    22.824242    14031.599    9500.8373    9749.9293    9332.1856   -207.81379   -394.37707    573.00821   -6859.8492 
17648000    173.12622   -9487.2589   -8827.2228   -9487.2589            0    9406.3415    24.732275    24.922813    22.733494    14012.877    10797.536    8482.1209    8939.3676   -591.51252    -381.8201   -1129.3488   -6904.9105 
17649000    176.80188   -9480.0833   -8806.0339   -9480.0833            0    7946.9869    24.884757    24.839472    22.824472    14108.359    7589.2473     8241.374    8010.3395   -335.93244   -159.41304   -275.93406   -7170.8941 
17650000    175.20447   -9490.9726   -8823.0133   -9490.9726            0    8618.1797     24.80201    24.914738    22.770293    14070.574     8645.426    8327.4744    8881.6386    337.24363   -450.34791   -1171.2533   -7054.5207 
17651000    168.64357   -9448.9423   -8805.9961   -9448.9423            0    7713.8581    24.924919    24.822294    22.850447    14137.427    6955.2942    8104.9436    8081.3366     371.9306     -251.163   -311.46965   -7215.5539 
17652000    173.07283   -9484.9732   -8825.1407   -9484.9732            0    8677.5578    24.792664    24.830012    22.865636    14076.134    8444.0898    8561.5005     9027.083    700.81756    831.25388    866.39556   -7043.7597 
17653000    176.91819   -9464.8546   -8790.3617   -9464.8546            0     8456.558    24.824161    24.721535     22.93011    14072.011     7899.939     9775.023    7694.7122   -417.10924   -167.51918    805.38715   -7054.8575 
17654000    172.67145   -9487.6411   -8829.3388   -9487.6411            0    8172.1589     24.74507    24.806779    22.956017    14091.447    8787.6689    7998.8096    7729.9982    241.37333   -682.02256    126.28574   -7149.8841 
17655000    173.32438   -9471.2125   -8810.4209   -9471.2125            0     8325.958    24.841968    24.754438    22.907756    14087.101    7573.9196    9696.4065     7707.548   -274.88198   -158.15277   -146.54142   -7099.8868 
17656000    172.43834   -9521.4377   -8864.0241   -9521.4377            0    8771.8668    24.809424    24.806533    22.812284    14039.497    9751.9753    8404.9797    8158.6455    880.12676   -955.69625   -846.68179   -7067.9698 
17657000    172.61511   -9470.9688   -8812.8812   -9470.9688            0    8564.5348    24.780671    24.871682     22.83597    14074.652    8931.5228    8426.9836     8335.098   -301.74928   -109.99941    962.91715   -7054.8875 
17658000    179.74342   -9487.6556   -8802.3917   -9487.6556            0    8430.3789    24.837798    24.895238    22.777212    14084.128    8264.2035    8452.4142     8574.519    -846.7762   -117.24962    680.74267   -7070.7703 
17659000    179.15664   -9463.2198    -8780.193   -9463.2198            0    9287.3342    24.840181    24.825557    22.770274    14041.775    8838.6395     9288.003    9735.3603   -216.72023    696.53666   -1742.8212   -6878.2873 
17660000    170.63203   -9461.0411    -8810.514   -9461.0411            0    9602.5115    24.761771      24.8594    22.804763    14037.763    9060.2113     9983.084    9764.2393   -919.80236   -418.02323   -268.04715   -6844.6266 
17661000    174.69712   -9508.9413   -8842.9162   -9508.9413            0    8297.5209    24.806381     24.84643    22.837675    14076.001    8141.3207    8240.3411    8510.9008   -413.24536    334.99968    590.75205   -7139.5676 
17662000    172.13797   -9468.6006   -8812.3322   -9468.6006            0    9034.6408    24.727932    24.831461    22.888993    14054.544    9534.0725    8809.0139    8760.8362   -410.87299   -414.59986   -359.26803   -6960.4918 
17663000     177.9934   -9475.0673   -8796.4753   -9475.0673            0    8239.0383    24.849581    24.762759     22.89898    14090.754    7895.3004    8795.0868    8026.7277    174.68848    971.39721   -818.07379   -7103.3595 
17664000    171.87369   -9477.1229    -8821.862   -9477.1229            0    8772.5901    24.717082    24.856867    22.908927    14074.998    9253.9158    8744.6872    8319.1672   -42.825227    -392.0549   -144.57987   -7021.1176 
17665000    181.58314   -9495.3538    -8803.076   -9495.3538            0    8648.4549     24.87871    24.858609    22.737801    14062.196    7806.4362    9273.5995    8865.3289    413.05121   -287.21524    300.76895   -7029.4275 
17666000    175.53161   -9454.6489   -8785.4423   -9454.6489            0    9053.6166    24.809923    24.909331    22.784235    14080.625    9581.7607    7326.5387     10252.55    244.96723   -60.329901   -119.57528   -6926.2689 
17667000    171.12238   -9494.1602   -8841.7637   -9494.1602            0    8608.8197    24.922127    24.824062    22.723541    14058.338     8028.041    8401.8114    9396.6067    137.49988   -536.73547   -242.51337    -7076.728 
17668000    177.10484   -9450.7398   -8775.5354   -9450.7398            0    7552.8427     24.81995    24.906709    22.859211    14131.182    7908.0351    8217.0211    6533.4719   -391.03912   -460.54482   -28.474133   -7218.9791 
17669000    176.89295    -9482.236   -8807.8394    -9482.236            0    8514.8238    24.809517    24.759474    22.946544    14095.387    8441.9636    8799.2143    8303.2935   -92.553812    1432.4579   -580.18523   -7057.4747 
17670000    175.92964   -9491.6094   -8820.8854   -9491.6094            0     6988.258    24.757895    24.865375    22.987392    14151.368    7479.8856    6903.4709    6581.4175   -728.10053   -603.95727    492.74647   -7378.6265 
17671000    171.70597   -9476.0896   -8821.4682   -9476.0896            0    7241.7149    24.880568    24.786919    22.940863    14147.919    6261.9892    8005.5514    7457.6041      485.932   -362.08717    104.95421   -7327.2642 
17672000    175.62536    -9484.075    -8814.511    -9484.075            0    8876.2924    24.762696    24.897776    22.811018    14063.815     9013.378    9014.4937    8601.0055    1235.1784   -1140.1199   -407.37788   -6993.9274 
17673000    172.74437   -9473.6354    -8815.055   -9473.6354            0    7606.6035    24.981417    24.725158    22.867044    14124.275     6567.102     8692.883    7559.8254    1057.0758    371.11159    -590.1271   -7248.1855 
17674000      171.127   -9479.1427   -8826.7285   -9479.1427            0    8365.4575      24.7226    24.941054    22.854627    14092.338    9376.4772    7125.8202    8594.0751   -577.93693     -579.052   -616.10612   -7107.4404 
17675000    172.43179   -9466.7889   -8809.4002   -9466.7889            0    8840.7976    24.819763    24.734315    22.943506    14085.015    8407.4682    9838.0311    8276.8935   -462.57068     479.2987   -419.48228   -6993.3634 
17676000    173.70341   -9488.3587   -8826.1221   -9488.3587            0    7489.5015     24.70714     24.88286    22.972986    14123.431    8768.8995    8070.6388    5628.9661   -333.51939   -253.91773   -84.134938   -7283.4663 
17677000    172.00334   -9464.0009   -8808.2457   -9464.0009            0    8176.4931    24.780866    24.826132    22.935867    14110.445     8825.711    8612.0157    7091.7527   -296.57851    603.57899   -69.867743   -7125.6349 
17678000    171.32548   -9467.6619    -8814.491   -9467.6619            0    8110.3419    24.826867     24.83894    22.885018    14112.574    8010.1564    7892.1898    8428.6795   -762.73643    55.058483   -739.05502   -7145.2413 
17679000    176.01157   -9493.0849   -8822.0485   -9493.0849            0    8643.4055    24.788077    24.854641    22.862367    14085.475    8136.6257    8790.3242    9003.2666    -24.68184   -591.21528    516.88423   -7046.5011 
17680000    173.27877   -9491.8706   -8831.2529   -9491.8706            0     8784.251    24.728139    24.811517    22.929445    14068.192    8755.4812    9071.3278    8525.9441   -978.70014   -113.46007     1029.212   -7028.9868 
17681000    172.02305   -9469.4023    -8813.572   -9469.4023            0    8843.3194     24.82604    24.746348    22.890034     14062.58    8160.9442    9593.9737    8775.0403   -349.39868    8.3803577    214.20112   -6999.9105 
17682000    176.66517   -9448.4895   -8774.9613   -9448.4895            0    10082.346    24.763958    24.811422    22.832515     14028.96    9192.0257    10459.903     10595.11   -977.23291    79.983972   -584.26278   -6712.1335 
17683000    175.66092   -9477.4607   -8807.7611   -9477.4607            0    9555.4676     24.74891    24.767876    22.910618    14043.703    9384.7622    11137.753    8143.8873   -229.73772   -314.91747   -615.50103   -6850.6771 
17684000    172.71564   -9466.6176   -8808.1468   -9466.6176            0    8254.2012    24.814535    24.857886    22.837384     14086.94    8527.6511    8684.5227    7550.4298    245.87551   -1271.2806     594.8752   -7112.3742 
17685000    177.16616   -9446.7609   -8771.3227   -9446.7609            0    8442.8922    24.792506    24.878042    22.870815    14106.467    8462.8836    8415.8462    8449.9469   -364.34949    639.18508      824.354   -7034.3804 
17686000    178.65313   -9465.3511   -8784.2439   -9465.3511            0    8152.2254    24.871797    24.854634    22.820819     14107.36    8168.7799    7862.1972    8425.6991    -371.8348   -628.20489    379.16685   -7106.9938 
17687000    174.31181   -9513.9282   -8849.3721   -9513.9282            0    7987.6648    24.811364    24.841425    22.856284    14087.463    8649.6825    7633.0354    7680.2766  -0.61586538   -457.88439   -452.21037   -7208.2968 
17688000    179.28309   -9468.9712   -8785.4623   -9468.9712            0    7555.2226    24.829944    24.852436    22.896038    14128.792    7819.3666    7222.7732    7623.5278   -1199.3605    299.89597    1422.2478   -7228.6789 
17689000    169.07817   -9492.1433   -8847.5403   -9492.1433            0    8020.0492    24.785315    24.781143    22.964653    14105.083    7825.5224    8050.6501     8183.975   -87.559584    425.35921    1496.3289   -7197.7506 
17690000     171.3546   -9435.3261   -8782.0442   -9435.3261            0    8287.6196    24.869175    24.853087    22.839201    14116.357    7403.9206    8677.1356    8781.8026   -183.03293    66.895808    938.65317   -7075.8505 
17691000    182.41848   -9499.9745   -8804.5121   -9499.9745            0    7426.1126    24.905909    24.936078    22.752399    14130.507    6416.6645    6694.8118    9166.8614   -226.86649    19.957896    -320.4514   -7274.1466 
17692000    180.97941    -9485.697    -8795.721    -9485.697            0    8212.2752    24.860582     24.85695     22.85592    14124.004    7835.5902     7709.218    9092.0174   -445.89176    187.52297    222.07213   -7104.1228 
17693000    172.12374   -9471.3869   -8815.1727   -9471.3869            0    7625.6595     24.68945    24.841933    23.057343    14141.844     8250.116    7041.4204     7585.442     296.8083   -573.01768    381.04614    -7242.424 
17694000    180.28707   -9500.7206   -8813.3841   -9500.7206            0    8012.1939    24.800337    24.761347    22.928381    14080.084    6977.0822    9547.9314     7511.568    -271.1033    691.74421    203.67372   -7168.1315 
17695000    177.25227    -9482.687   -8806.9205    -9482.687            0     8080.272    24.748744    24.841904     22.93115    14098.207    8224.5892    8128.4064    7887.8204    422.95945   -750.77194    426.10453   -7145.5529 
17696000    173.65145   -9458.3286     -8796.29   -9458.3286            0    8192.0688    24.883903     24.83095    22.794725    14084.654    8354.9827    8213.8037      8007.42   -162.41787   -307.45658    455.62549   -7113.5553 
17697000    175.59825   -9476.8439   -8807.3833   -9476.8439            0    7930.9913    24.873129    24.896882    22.767603    14099.142    7291.2673    7632.0216    8869.6851    253.91931   -163.92653    427.87355   -7176.6007 
17698000    178.12956   -9474.3262   -8795.2151   -9474.3262            0    8060.4826    24.855209    24.941362    22.772987    14117.493    8327.6175     7412.693    8441.1374    824.36327   -1369.5135   -123.74679    -7135.649 
17699000    178.83308   -9469.7971   -8788.0038   -9469.7971            0    7968.5101    24.839164    24.877377    22.856741    14123.941    8526.6473    7575.9154    7802.9675   -144.56683   -249.35659   -349.54914   -7146.6247 
17700000    178.57412   -9490.4422   -8809.6362   -9490.4422            0    8737.8626    24.793522    24.773154    22.928552    14083.032    9326.8394    8741.2134    8145.5351    144.52725   -253.83482    403.49153   -7014.9966 
17701000    177.87041   -9461.8565   -8783.7333   -9461.8565            0    8076.9955    24.766889    24.831481    22.946125    14111.833    7625.9623    9746.6407    6858.3835    308.91893    112.96102    297.58228   -7121.4343 
17702000      174.777   -9487.7644   -8821.4348   -9487.7644            0    8116.9463    24.878944    24.729482    22.913179    14097.183    6799.9571    9623.7606    7927.1212    -100.9451   -216.44513   -47.919198   -7152.6479 
17703000    173.81684   -9506.3439   -8843.6749   -9506.3439            0    7718.1856    24.850184    24.871395    22.841174    14117.187    9289.3121     5989.268    7875.9769    310.52852   -388.45603   -9.5873444   -7254.6186 
17704000    173.26182   -9447.8764   -8787.3233   -9447.8764            0    8640.3864    24.858003    24.822173    22.829219    14086.305    8616.6314    8794.8288    8509.6991    146.12138   -135.44629   -170.44337   -7012.2915 
17705000    173.02789   -9479.8221   -8820.1609   -9479.8221            0    9418.7922    24.789186      24.8598    22.762746    14027.638    9772.8012    8575.2415    9908.3338    184.29612    506.92474    926.02898   -6893.2765 
17706000    172.92001   -9515.5126   -8856.2626   -9515.5126            0    9338.2926    24.784437    24.784702    22.812263    14013.001    9074.6878     9823.486    9116.7042    671.04295   -279.62987    312.11148   -6947.8402 
17707000      174.525   -9463.7078   -8798.3389   -9463.7078            0    9533.7363    24.709815    24.774043    22.917067    14028.958     9369.433    10448.097    8783.6794      -276.62   -1474.5656   -275.74746   -6847.7559 
17708000    174.90369    -9472.337   -8805.5244    -9472.337            0    8476.6224    24.814257    24.784177    22.927111    14100.195    8708.4828    8748.7022    7972.6822    675.30775   -190.31316    324.76417   -7062.4182 
17709000    180.11993   -9471.9157   -8785.2164   -9471.9157            0    8107.8842    24.721247    24.869725    22.932445    14099.111    8454.6408      7978.73    7890.2816   -201.27352   -421.80823   -149.13787   -7118.0646 
17710000    179.59282    -9484.646   -8799.9563    -9484.646            0    8422.4179    24.820168    24.855328    22.852238    14097.852    9405.0819    7504.8781    8357.2937   -107.75525   -288.68069    -20.94919   -7068.2843 
17711000    175.10039    -9456.852   -8789.2895    -9456.852            0    8150.2146    24.909389    24.867356    22.811725    14130.281    7885.2266    7578.6646    8986.7527     51.09968    622.72847    553.39556   -7109.7286 
17712000    177.72092   -9492.4994   -8814.9462   -9492.4994            0    8412.6862    24.825089    24.930154    22.788823     14103.85    7896.7927    8294.9422    9046.3237    -746.7936    477.65157    -340.9699   -7084.5393 
17713000    174.62052   -9481.8352   -8816.1021   -9481.8352            0    8803.3722    24.899525    24.802437    22.783864    14070.606    8197.1834    8570.3331    9642.6001    71.930316    93.915385    654.06416    -7009.603 
17714000    176.95278   -9469.7542   -8795.1295   -9469.7542            0    8758.9265    24.735572     24.87997    22.885067    14083.934    9408.0409    8103.6118    8765.1269   -637.61371    1246.0899   -1032.4251   -6996.0484 
17715000    172.27449   -9471.4665   -8814.6776   -9471.4665            0     8640.669    24.783939    24.767298    22.938689    14080.483    9063.8582    9223.5105    7634.6385   -495.05695   -749.96552   -413.96288   -7040.3214 
17716000    173.92596   -9493.6904   -8830.6053   -9493.6904            0    8271.8306    24.720414    24.812219    22.982717     14096.87    8500.3799    8651.2725    7663.8395   -627.95424    429.44867   -133.77853   -7130.0129 
17717000    175.40571   -9457.9525    -8789.226   -9457.9525            0    8640.5061    24.787517    24.801593    22.922507    14092.067    9162.4864    8603.6174    8155.4146   -54.219716    211.21866   -504.06732   -7013.4434 
17718000    173.82452     -9471.77   -8809.0717     -9471.77            0    7681.8331    24.865043     24.87492    22.830528    14121.046    7608.9992    8262.0722     7174.428    125.90289     192.0739   -223.18542   -7227.0676 
17719000    173.42971   -9495.6584   -8834.4653   -9495.6584            0    8041.1885     24.83785    24.834389    22.843601    14090.683     7299.476    8176.9444    8647.1452    -403.7401    390.21268    604.65337   -7182.0158 
17720000     180.2842   -9500.0007   -8812.6751   -9500.0007            0    6741.7064    24.807254    24.982216     22.80632    14133.993    7831.0371    4865.0446    7529.0375   -34.668835   -638.79979    765.13112   -7423.0086 
17721000    175.74226   -9483.2561   -8813.2465   -9483.2561            0    7820.3164    24.886066    24.827925    22.834546    14108.767    7167.6801    7131.1465    9162.1226   -556.11807    -824.3989    604.77885   -7204.1234 
17722000    171.69635   -9485.2592   -8830.6744   -9485.2592            0    7889.3938    24.840466    24.823991    22.892452     14116.39    7571.9941     8343.762    7752.4253   -608.58647    425.81423    158.06538   -7206.4607 
17723000    175.87235   -9489.0386    -8818.533   -9489.0386            0    7134.3638    24.804793    24.892165    22.919844    14151.743    7738.0282    6667.1367    6997.9264   -356.14802   -171.73824   -487.67544   -7346.0812 
17724000    181.58764   -9469.0796   -8776.7847   -9469.0796            0    7240.6756    24.896828    24.743514     23.01534    14178.255    6326.8641    8520.3462    6874.8165    244.58394   -38.130249   -75.978162   -7279.5918 
17725000     172.4144   -9480.1967   -8822.8744   -9480.1967            0    8015.2983    24.811758    24.856071    22.857537    14096.765    8827.0604    6798.0737    8420.7609   -42.192206   -33.843143    47.771336   -7175.0344 
17726000    178.17268   -9484.9467   -8805.6712   -9484.9467            0    8537.5375    24.832551    24.910953    22.718727    14053.862     9005.058    7575.8964     9031.658   -302.26535   -541.08427   -262.17032   -7055.8076 
17727000    172.24609   -9444.2204   -8787.5398   -9444.2204            0    9410.3164    24.894102    24.840924    22.749309    14068.002    8763.9008    9589.9419    9877.1063   -403.30803    331.65411    -602.2833   -6856.8498 
17728000    172.33643   -9440.2847   -8783.2596   -9440.2847            0    9152.8158    24.810315    24.835895    22.826728    14065.519    8450.0884    9441.2598    9567.0993   -319.59671   -520.80359    1534.0921   -6905.7318 
17729000    172.45469   -9472.6337   -8815.1578   -9472.6337            0    9765.3284    24.765587    24.750382    22.915861    14046.454    9869.9615    9378.7656    10047.258   -303.86232   -1644.0428    886.90955   -6814.6998 
17730000      172.466   -9457.3771    -8799.858   -9457.3771            0    8528.7063    24.740493    24.836949     22.94302     14097.99    9153.0974    8966.0303    7466.9911    254.29274   -371.64927   -128.48093   -7046.3157 
17731000    178.64683   -9457.5719   -8776.4887   -9457.5719            0    8766.3968    24.832374    24.717079    22.961256    14093.246    8178.0456    9774.0842    8347.0605    -448.1315   -120.57359    157.79312   -6974.6826 
17732000    174.86082   -9464.0196   -8797.3705   -9464.0196            0    7547.0026     24.71259    24.942273    22.944784    14142.893    8779.2009    6380.7286    7481.0783    220.83402   -872.81531   -122.48368   -7240.7288 
17733000    179.42003   -9470.3261   -8786.2951   -9470.3261            0    8497.3287     24.90519    24.781306    22.844245    14099.082    7264.0274    9343.7889    8884.1697    -824.4225   -469.91978   -454.82132   -7039.0688 
17734000    178.60034   -9475.2012   -8794.2953   -9475.2012            0    8541.6362     24.75495    24.924042    22.833081    14087.861    9397.8614    7102.4352    9124.6119   -3.5025185    202.72353    746.78745   -7039.3563 
17735000    172.00505   -9480.0875   -8824.3258   -9480.0875            0    8632.4879    24.918021      24.7521    22.816458    14072.583    7844.3969    8911.9994    9141.0676    -106.9023    1083.9692    223.43741   -7052.6442 
17736000    174.61841    -9460.852    -8795.127    -9460.852            0    7619.6402     24.81712    24.933016    22.825697    14123.757    8151.6074     6556.319    8150.9943   -84.694987    7.8024502    510.35707   -7225.6296 
17737000    174.49081   -9486.1422   -8820.9037   -9486.1422            0    7079.2649    24.858917    24.831081    22.886273    14127.096    7366.2511    7684.3377     6187.206   -334.13512   -727.78521    1017.4647   -7362.3683 
17738000    186.70461   -9482.4182   -8770.6151   -9482.4182            0    7021.7637    24.754047    24.871094     23.01572    14169.864    7409.7646    6991.6044    6663.9222   -144.86568   -347.31824    257.34764   -7319.5471 
17739000    178.67819   -9479.9658    -8798.763   -9479.9658            0    8065.4602     24.79007    24.761688    22.994023    14114.742    8440.6966    8565.0952    7190.5888   -581.43701    611.73288    -155.6528   -7138.4958 
17740000    180.04553   -9467.0515   -8780.6358   -9467.0515            0     8467.429    24.727494    24.848054    22.934146     14091.43     9752.961    8113.8288    7535.4972   -336.39123   -556.11402   -864.93942   -7040.5026 
17741000    179.35664   -9474.8426   -8791.0533   -9474.8426            0    8734.7228    24.833121    24.805862    22.863471    14084.058    8448.6876    8170.6028    9584.8779   -174.39032   -13.091055   -364.98448   -6996.9279 
17742000     177.2699   -9463.9831   -8788.1494   -9463.9831            0    8901.2275    24.770293    24.894195    22.825096    14074.787    8658.2814    8446.9491    9598.4518    863.59883   -381.24975   -921.85987    -6961.027 
17743000    174.21355   -9483.0258   -8818.8443   -9483.0258            0    7406.6594    24.884165    24.818105    22.895948     14140.03    6689.9862    7717.7888    7812.2033   -256.95348   -338.10124    521.88596    -7291.459 
17744000    170.23239   -9476.8553   -8827.8518   -9476.8553            0    7577.9002    24.747767    24.889561     22.96371    14144.752    7592.3428    7689.8727    7451.4851   -31.249296   -125.59052    221.15509   -7264.6319 
17745000    173.91702   -9467.1008   -8804.0498   -9467.1008            0    8235.9126    24.846805    24.751725    22.931055    14102.628     7844.631    9923.1261    6939.9806   -714.60299   -819.22245   -409.34784   -7110.1502 
17746000    169.98562   -9469.8406   -8821.7778   -9469.8406            0    8693.2171    24.752026    24.884024    22.865143    14083.327     9035.526    8537.3685    8506.7569   -852.26787   -768.99334   -1533.4367   -7036.2703 
17747000    178.28285   -9455.4727   -8775.7772   -9455.4727            0    7695.8202    24.915399    24.909326    22.791943    14145.268    7768.6262    7493.3556    7825.4786   -549.59905   -99.765324    382.41181   -7188.1739 
17748000    177.82129   -9507.6328   -8829.6969   -9507.6328            0    8828.6959    24.842376    24.790027    22.811429    14048.263     7463.253    9787.2709    9235.5637    113.37193   -739.41238    566.37396   -7020.8781 
17749000    174.84108   -9508.8795   -8842.3055   -9508.8795            0    9852.2131     24.81604    24.667657    22.883436    14008.177    9298.8714    11124.693    9133.0749    -12.74392    898.10776   -364.20126   -6829.5487 
17750000    176.81586   -9462.0455   -8787.9428   -9462.0455            0    9222.3807    24.691104    24.836688    22.932173    14063.046    9612.4413    9307.0073    8747.6935     130.9855    -156.8732   -289.91293   -6896.4777 
Loop time of 546.833 on 64 procs for 250000 steps with 1920 atoms

Performance: 79.000 ns/day, 0.304 hours/ns, 457.178 timesteps/s
377.2% CPU use with 16 MPI tasks x 4 OpenMP threads

MPI task timing breakdown:
Section |  min time  |  avg time  |  max time  |%varavg| %total
---------------------------------------------------------------
Pair    | 76.161     | 77.855     | 82.407     |  15.8 | 14.24
Bond    | 1.5275     | 1.875      | 2.6818     |  23.9 |  0.34
Kspace  | 259.66     | 266.14     | 273.49     |  24.3 | 48.67
Neigh   | 1.9812     | 2.1059     | 2.3082     |   6.3 |  0.39
Comm    | 70.549     | 78.377     | 85.499     |  44.8 | 14.33
Output  | 0.58167    | 0.58198    | 0.58354    |   0.1 |  0.11
Modify  | 83.018     | 94.095     | 98.904     |  39.9 | 17.21
Other   |            | 25.8       |            |       |  4.72

Nlocal:        120.000 ave         125 max         114 min
Histogram: 1 0 2 2 2 2 2 2 1 2
Nghost:        4185.25 ave        4249 max        4153 min
Histogram: 4 4 3 1 0 0 0 1 1 2
Neighs:        43229.9 ave       44711 max       41005 min
Histogram: 1 0 0 2 3 1 3 4 0 2

Total # of neighbors = 691678
Ave neighs/atom = 360.24896
Ave special neighs/atom = 2.0000000
Neighbor list builds = 4171
Dangerous builds = 0

unfix		3
unfix		2
unfix		1

write_data	data.final.${pid}
write_data	data.final.0
System init for write_data ...
PPPM initialization ...
  extracting TIP4P info from pair style
  using 12-bit tables for long-range coulomb (../kspace.cpp:340)
  G vector (1/distance) = 0.37492647
  grid = 30 30 30
  stencil order = 5
  estimated absolute RMS force accuracy = 0.003213903
  estimated relative force accuracy = 9.6785735e-06
  using double precision FFTW3
  3d grid and FFT values/proc = 7920 1800
Last active /omp style is kspace_style pppm/tip4p/omp
WARNING: Not all mixed pair coeffs generated from mixing. Use write_data with 'pair ij' option to store all pair coeffs. (../write_data.cpp:312)

write_restart   restart.lmp.${pid}
write_restart   restart.lmp.0
System init for write_restart ...
PPPM initialization ...
  extracting TIP4P info from pair style
  using 12-bit tables for long-range coulomb (../kspace.cpp:340)
  G vector (1/distance) = 0.37492647
  grid = 30 30 30
  stencil order = 5
  estimated absolute RMS force accuracy = 0.003213903
  estimated relative force accuracy = 9.6785735e-06
  using double precision FFTW3
  3d grid and FFT values/proc = 7920 1800
Last active /omp style is kspace_style pppm/tip4p/omp
Total wall time: 0:09:06
