LAMMPS (30 Jul 2021)
Processor partition = 1
  using 1 OpenMP thread(s) per MPI task
using multi-threaded neighbor list subroutines
variable        pid world 0 1
variable        phase world IceII IceIII

shell cd ${phase}
shell cd IceIII
include Restart.lmp
echo both
log log.lammps
#include		in.partitions
include		in.temp
variable        temperature equal 112.33
variable	tempDamp equal 100.0
include		in.pressure
variable        pressure equal 3543.8
variable        pressureDamp equal 1000.0 # This is 1 ps
include		in.seed
variable        seed equal 745823

units		real
atom_style	full

read_restart	restart.lmp.${pid}
read_restart	restart.lmp.1
Reading restart file ...
  restart file = 30 Jul 2021, LAMMPS = 30 Jul 2021
  restoring atom style full from restart
  orthogonal box = (0.051667690 0.033162454 -0.025107383) to (19.948333 19.966839 20.725105)
  4 by 4 by 4 MPI processor grid
  restoring pair style lj/cut/tip4p/long/omp from restart
  restoring bond style harmonic/omp from restart
  restoring angle style harmonic/omp from restart
  972 atoms
  648 bonds
  324 angles
Finding 1-2 1-3 1-4 neighbors ...
  special bond factors lj:    0        0        0       
  special bond factors coul:  0        0        0       
     2 = max # of 1-2 neighbors
     1 = max # of 1-3 neighbors
     1 = max # of 1-4 neighbors
     2 = max # of special neighbors
  special bonds CPU = 0.007 seconds
  read_restart CPU = 0.019 seconds
include 	in.setup
variable	out_freq equal 1000
variable	out_freq2 equal 10000
variable	out_freq3 equal 1000

timestep	2.0

neigh_modify    delay 7 every 1

include		in.tip4p
# This is TIP4P/Ice

# create groups ###
group ox type 2
324 atoms in group ox
group hy type 1
648 atoms in group hy

# set charges - beside manually ###
set group ox charge -1.1794
Setting atom values ...
  324 settings made for charge
set group hy charge 0.5897
Setting atom values ...
  648 settings made for charge

# ### TIP3P Potential Parameters ###
pair_style lj/cut/tip4p/long/omp 2 1 1 1 0.1577 8.5
pair_coeff 1 1*2 0.000 0.000
pair_coeff 2 2 0.21084 3.1668
bond_style  harmonic
bond_coeff  1 450 0.9572
angle_style harmonic
angle_coeff 1 55 104.52
kspace_style pppm/tip4p/omp 1.0e-5
pair_modify tail yes

thermo          ${out_freq}
thermo          1000
thermo_style    custom step temp pe etotal epair emol press lx ly lz vol pxx pyy pzz pxy pxz pyz enthalpy

restart 	${out_freq3} restart.lmp.${pid} restart2.lmp.${pid}
restart 	1000 restart.lmp.${pid} restart2.lmp.${pid}
restart 	1000 restart.lmp.1 restart2.lmp.${pid}
restart 	1000 restart.lmp.1 restart2.lmp.1


include         in.dump
dump            myDump all atom ${out_freq2} dump.water.${pid}
dump            myDump all atom 10000 dump.water.${pid}
dump            myDump all atom 10000 dump.water.1
dump            myDump2 all dcd ${out_freq2} dump.dcd
dump            myDump2 all dcd 10000 dump.dcd
dump_modify     myDump append yes
dump_modify     myDump2 append yes


variable natoms 	equal  "count(all)"                        # NUMBER ATOMS
variable H      	equal  "enthalpy/v_natoms"                 # ENTHALPY-per-atom
variable Vol      	equal  "vol/v_natoms"                 # volume-per-atom
fix AVG all 		ave/time ${out_freq} 1 ${out_freq} v_Vol v_H file vol_enthalpy.dat
fix AVG all 		ave/time 1000 1 ${out_freq} v_Vol v_H file vol_enthalpy.dat
fix AVG all 		ave/time 1000 1 1000 v_Vol v_H file vol_enthalpy.dat


timer           timeout 02:55:00 every 1000
New timer settings: style=normal  mode=nosync  timeout=02:55:00

fix 		1 all shake 1e-6 200 0 b 1 a 1
Finding SHAKE clusters ...
       0 = # of size 2 clusters
       0 = # of size 3 clusters
       0 = # of size 4 clusters
     324 = # of frozen angles
  find clusters CPU = 0.002 seconds
fix             2 all nph aniso ${pressure} ${pressure} ${pressureDamp}
fix             2 all nph aniso 3543.8 ${pressure} ${pressureDamp}
fix             2 all nph aniso 3543.8 3543.8 ${pressureDamp}
fix             2 all nph aniso 3543.8 3543.8 1000
fix             3 all temp/csvr ${temperature} ${temperature} ${tempDamp} ${seed}
fix             3 all temp/csvr 112.33 ${temperature} ${tempDamp} ${seed}
fix             3 all temp/csvr 112.33 112.33 ${tempDamp} ${seed}
fix             3 all temp/csvr 112.33 112.33 100 ${seed}
fix             3 all temp/csvr 112.33 112.33 100 745823


run             250000
PPPM initialization ...
  extracting TIP4P info from pair style
  using 12-bit tables for long-range coulomb (../kspace.cpp:340)
  G vector (1/distance) = 0.37269711
  grid = 24 24 25
  stencil order = 5
  estimated absolute RMS force accuracy = 0.0033723846
  estimated relative force accuracy = 1.0155836e-05
  using double precision FFTW3
  3d grid and FFT values/proc = 2366 288
Last active /omp style is kspace_style pppm/tip4p/omp
Neighbor list info ...
  update every 1 steps, delay 7 steps, check yes
  max neighbors/atom: 2000, page size: 100000
  master list distance cutoff = 10.8154
  ghost atom cutoff = 10.8154
  binsize = 5.4077, bins = 4 4 4
  1 neighbor lists, perpetual/occasional/extra = 1 0 0
  (1) pair lj/cut/tip4p/long/omp, perpetual
      attributes: half, newton on, omp
      pair build: half/bin/newton/omp
      stencil: half/bin/3d
      bin: standard
Setting up Verlet run ...
  Unit style    : real
  Current step  : 6000000
  Time step     : 2
  Walltime left : 2:54:59.89
Per MPI rank memory allocation (min/avg/max) = 9.229 | 9.232 | 9.238 Mbytes
Step Temp PotEng TotEng E_pair E_mol Press Lx Ly Lz Volume Pxx Pyy Pzz Pxy Pxz Pyz Enthalpy 
 6000000     113.5234   -5016.8088   -4797.8694   -5016.8088            0     2860.541    19.896666    19.933676    20.750213    8229.8184     3944.732    2363.2642    2273.6267    487.29007    313.38064   -28.643702   -4454.5374 
 6001000    115.32336   -5036.4668    -4814.056   -5036.4668            0    3174.2754     19.80796    19.935207    20.779063    8205.1487    3362.4295    3589.5732    2570.8235   -310.67992   -905.12838    339.14339   -4434.2105 
 6002000    114.21451   -5029.9787   -4809.7064   -5029.9787            0    2475.3174    19.909205    19.866573    20.735549    8201.4834    1621.8887    3331.5566    2472.5068    229.66396   -644.92112   -638.14432   -4513.6332 
 6003000    112.53319   -5029.5353   -4812.5056   -5029.5353            0    2607.1846    19.864464     20.01881    20.644487    8209.5472    2069.5792     3073.597    2678.3778    10.854246   -684.82231    518.81858    -4500.353 
 6004000     110.4708   -5036.3767   -4823.3245   -5036.3767            0    3582.9334    19.819503    19.769716    20.830869    8162.0748    3479.2705    4720.3272    2549.2026   -307.04788    84.584615   -20.470042   -4396.8283 
 6005000    111.63152   -5026.9268    -4811.636   -5026.9268            0      3711.35    19.952484    19.928463    20.666866     8217.608     4336.328    3555.4275    3242.2944   -387.77631    58.622403   -219.18824   -4366.8479 
 6006000     115.8266   -5024.4832   -4801.1019   -5024.4832            0    4926.1694    19.933431    19.850684    20.656959    8173.7986    5157.1883    4851.0671    4770.2528   -191.48962    665.52447   -76.577101   -4213.8706 
 6007000    112.80548   -5027.8172   -4810.2623   -5027.8172            0     4335.496    19.876994    19.941602    20.605885    8167.7424     4645.033    4272.4731    4088.9819   -130.16727     1374.329    190.29366   -4293.8261 
 6008000    116.93581    -5033.347   -4807.8264    -5033.347            0    3723.9894    19.873343     19.94689    20.775552    8235.6655    4424.6027    3675.1872    3072.1782   -249.24525    342.96633    90.769859   -4360.5428 
 6009000    117.53276   -5022.0706   -4795.3988   -5022.0706            0    3281.5064    19.982496    19.877027    20.744597    8239.6004    3472.9933     3630.398    2741.1278   -91.108009     158.1625    615.06868   -4401.0729 
 6010000    111.23861   -5020.4047   -4805.8717   -5020.4047            0    3741.0793    20.070674    19.655486    20.861104    8229.6815      3181.02    5548.1779    2494.0401    57.492569    536.94757     844.3661   -4356.8619 
 6011000    109.05624   -5023.0801   -4812.7559   -5023.0801            0    2873.3419    20.028488    19.832311    20.699111    8221.9189    2722.3076    2795.9895    3101.7287    66.118889   -40.762222    782.46563   -4468.2185 
 6012000    115.60332   -5010.1724   -4787.2217   -5010.1724            0    3253.4648    20.115011    19.811562    20.579438    8201.1076    3902.7732    2512.8074    3344.8138   -290.09834   -1153.0058    307.87001   -4398.0918 
 6013000     113.9071   -5011.0818   -4791.4023   -5011.0818            0     3858.747    19.938269    19.873149    20.668296    8189.5267    4017.5568    4430.5618    3128.1223   -274.53905    388.08073    874.48103   -4330.5296 
 6014000    112.72445   -5029.5765   -4812.1779   -5029.5765            0    3375.1537    19.837665    19.932271    20.676392    8175.6466    3283.9909    4095.7233    2745.7469   -130.64151   -129.62059    -640.0252   -4409.7468 
 6015000    111.75866   -5027.3705   -4811.8345   -5027.3705            0    4257.4687    19.884476    19.852189    20.722787     8180.328    4048.1185     4860.934    3863.3537    60.242386   -253.04248    393.78511   -4303.9113 
 6016000    116.63733   -5036.8791   -4811.9342   -5036.8791            0    3163.4277     19.89867    19.857363    20.837638    8233.6825    1794.9572    5280.8387    2414.4871   -281.28269    445.99603    526.76341   -4432.0703 
 6017000    114.46402   -5031.4745    -4810.721   -5031.4745            0     3306.106    19.964215    19.888722    20.713645    8224.6164    2989.3324    3812.0689    3116.9168      9.74055    606.97861    38.810315   -4414.1615 
 6018000    110.01157   -5034.7176   -4822.5511   -5034.7176            0    4234.2083    20.022448    19.792186    20.662553    8188.3223    3670.3191     4437.752    4594.5537   -106.59731    875.75287    286.64369   -4316.9092 
 6019000    113.54866   -5031.5861   -4812.5979   -5031.5861            0    4275.9715    19.931645    19.886881    20.623071    8174.5371    4249.4351    3884.7495    4693.7299   -512.86549    355.50506   -1082.5875   -4302.8284 
 6020000    106.41137   -5014.2616   -4809.0383   -5014.2616            0    3842.6328    19.905044    19.814939    20.669527    8152.4177    5199.4721    3116.9206    3211.5058   -64.420813    926.45415    29.038942   -4352.1698 
 6021000    109.63707   -5031.2047   -4819.7604   -5031.2047            0    5146.7479     19.83932    19.881656    20.668607    8152.4951     4827.451    5960.6182    4652.1746   -158.77026   -70.987187    249.90639   -4207.8338 
 6022000    115.58677   -5031.4495   -4808.5307   -5031.4495            0     2666.823    19.893788    19.913188     20.82471    8249.6826    2297.2632    3015.2172    2687.9885    930.26103    480.71052    152.06849   -4487.6768 
 6023000    111.95288   -5036.0486   -4820.1381   -5036.0486            0    3209.8716    19.960788    19.833664    20.703682    8196.4956    2550.9597    3570.3836    3508.2716    287.22152     411.4682    -616.1981   -4436.4381 
 6024000    111.88104   -5005.4637   -4789.6917   -5005.4637            0    2513.0698    19.935216    20.002748    20.664311    8240.0822      2758.75    1809.8664    2970.5929   -272.49955    192.08587   -736.51577   -4487.6882 
 6025000    118.79684    -5027.291   -4798.1813    -5027.291            0    3134.6025    19.982623    19.812775    20.710723    8199.6074    2701.4111    3819.3699    2883.0266    482.25749   -42.205694   -317.16926   -4423.3365 
 6026000    115.17549   -5017.1897   -4795.0641   -5017.1897            0    3298.9415    19.825486    19.868793    20.807259    8196.1555    3661.8433    3369.9539    2865.0272   -115.82235    786.20878    530.36244   -4400.7333 
 6027000    118.38209    -5026.042   -4797.7322    -5026.042            0    4006.8756    19.856761    20.025264    20.660296    8215.2961    4386.7441    3890.8184    3743.0642   -49.962759    601.66893    153.97244   -4317.6618 
 6028000     111.7638   -5031.3352   -4815.7893   -5031.3352            0    4529.2546    19.875863    19.842209    20.683576    8157.2099    5075.5265    4146.3117    4365.9255   -308.32064    190.44706   -405.21441   -4276.9686 
 6029000    115.43582   -5027.3378   -4804.7101   -5027.3378            0    2780.6989    20.150608     19.71915    20.566705    8172.2387    1850.3972    3689.6173     2802.082   -223.20503    1400.0046    -60.55013   -4473.2961 
 6030000    111.90773   -5013.1896   -4797.3661   -5013.1896            0    5057.2431    19.970173    19.750779    20.638877    8140.5192    4492.5083    5081.0055    5598.2156   -271.18044    1062.9467    32.280056   -4196.9646 
 6031000    114.60504   -5016.5066   -4795.4811   -5016.5066            0    3785.1013    20.093092    19.865648    20.535325    8196.9273    3239.1167    4152.6487    3963.5385   -742.12254    89.271957    386.57088   -4342.9958 
 6032000    117.49819   -5029.1258   -4802.5206   -5029.1258            0    2645.0432    19.873793    19.958713    20.753156    8231.8502    3612.7861    1885.4328    2436.9109     202.5182    78.824653     374.7491    -4484.975 
 6033000    116.36684   -5028.7104   -4804.2872   -5028.7104            0    4201.1668    20.049131    19.805102    20.517761    8147.0919    2681.1244    5680.8895    4241.4865   -22.082336    410.09889   -37.388056   -4305.1172 
 6034000    111.17027   -5031.6054   -4817.2041   -5031.6054            0    3330.7019    20.037701    19.889598    20.590209    8206.0596    1445.8511    4139.0939    4407.1606    188.66661   -188.98672   -423.48727   -4418.5959 
 6035000    106.62272   -5035.9325   -4830.3016   -5035.9325            0    4143.9642    19.919345    19.907888    20.647796    8187.9266    3063.4757    5149.0881    4219.3289   -317.93063    275.35808    522.56465   -4335.4605 
 6036000    103.71751    -5021.006   -4820.9781    -5021.006            0    2637.6848      20.0558    19.841936    20.603311    8199.0029     2041.708    3547.0056    2324.3409   -422.62989    173.47694    34.651142   -4505.5794 
 6037000    114.86353   -5032.4396   -4810.9156   -5032.4396            0    2815.5707    20.032525     19.86409    20.551493    8178.0123    1879.1322     2949.107     3618.473   -136.45988      711.898    -57.33805   -4475.1083 
 6038000    112.97473   -5019.4731   -4801.5918   -5019.4731            0    2687.8269    19.902798     20.03028    20.615646    8218.6051    2757.1894    2114.5885     3191.703    -226.2411    661.67118    573.27976    -4479.429 
 6039000    112.57165   -5030.4306   -4813.3267   -5030.4306            0    3378.5322    20.009393    19.823122    20.579518    8162.8376    2225.7579    4232.9128    3676.9259   -312.04919   -288.06878   -308.54084   -4411.1239 
 6040000    111.91707   -5027.9179   -4812.0764   -5027.9179            0    3729.9027    19.980593    19.878664    20.632523    8194.9802    3352.8434    4444.2611    3392.6036    265.20881   -437.04193   -484.86413   -4366.2957 
 6041000    110.67228   -5019.0705   -4805.6298   -5019.0705            0    3147.8185    19.884983    19.883015    20.661622    8169.0561    2939.2318    3066.5214    3437.7024    420.48464   -644.99561    392.50233   -4430.6071 
 6042000    112.88157   -5029.3262   -4811.6247   -5029.3262            0    4357.6319    19.836796    19.934285    20.633144    8159.0128    5585.3108     3447.242     4040.343   -594.90661    322.16748   -603.25331   -4293.1064 
 6043000    118.50247   -5029.9497   -4801.4078   -5029.9497            0    4196.1354    19.881793    19.904791    20.696538    8190.5086    5525.5563    3347.0743    3715.7756    114.10992    141.65281    150.57282   -4300.1787 
 6044000    109.24781   -5032.4483   -4821.7547   -5032.4483            0    2966.3179    19.823458    20.074508     20.62451    8207.4448    3335.4328    2339.8136    3223.7074   -620.23556    925.67812   -225.45761   -4466.6949 
 6045000    105.59603   -5026.9749   -4823.3241   -5026.9749            0     3659.513    19.958221    19.796839    20.611097    8143.6442    3695.3285     3625.054    3658.1565   -198.91044      438.036    260.46006   -4388.6958 
 6046000    107.90109   -5024.0332   -4815.9369   -5024.0332            0    4322.3178    19.931894     19.92134    20.570557    8167.9518    4619.2331    4023.4642     4324.256   -208.77567    853.15185    112.32593   -4301.0572 
 6047000    112.22676    -5023.811   -4807.3723    -5023.811            0    3656.3857    19.823724    19.882228    20.665574    8145.1252    3400.5469    4491.5816    3077.0287    22.996248    730.67615    1305.2447   -4373.0364 
 6048000    103.99926   -5025.0051   -4824.4338   -5025.0051            0    3043.2011    19.902999     19.98483     20.67059    8221.8933    3758.5431    2123.3648    3247.6955    161.96663    304.24012   -46.321391     -4459.53 
 6049000    113.68592   -5022.4519    -4803.199   -5022.4519            0    2768.6137    19.916078    19.878306    20.722598    8204.0329    2610.1581    2761.6976    2933.9854    203.46885    337.54391   -305.98626   -4471.9416 
 6050000    107.95688    -5024.443   -4816.2391    -5024.443            0    5073.0601    19.841739    19.911126    20.575358     8128.735    5154.9005    5309.0295    4755.2505    86.645866    326.17954    92.089333   -4214.8316 
 6051000    123.57734   -5016.4026   -4778.0734   -5016.4026            0    3444.3545    19.957664    19.909244    20.558723    8168.8444    2705.9433    3323.2632     4303.857    -110.0518    37.253181   -27.257026   -4367.7329 
 6052000    108.02066   -5024.8762   -4816.5492   -5024.8762            0    2779.2388    20.136037     19.91127    20.438087    8194.3252    908.94478    3595.4336    3833.3381   -55.934628    1006.6145   -536.62653    -4484.414 
 6053000    108.18251    -5033.136    -4824.497    -5033.136            0    3732.2096    19.955522    19.911963    20.625887    8195.7707    3413.7585    4115.6227    3667.2477   -102.69607     622.4824   -59.283101   -4378.3975 
 6054000    119.41789   -5026.7642   -4796.4568   -5026.7642            0    3697.4134    19.924647    20.057036    20.531442     8204.967    2980.4041    2909.5448    5202.2914   -158.88357    251.59864   -152.45359   -4354.0205 
 6055000    111.55989   -5017.6398   -4802.4871   -5017.6398            0    4705.6195    19.792938    19.902203    20.636734    8129.2855    4545.1152     4141.444    5430.2992    74.260049   -388.47249    293.80335   -4244.6016 
 6056000    120.69504   -5019.3756    -4786.605   -5019.3756            0    4330.5232     19.89027    20.078444    20.449048    8166.6473    4259.3685    3679.0643    5053.1369   -27.625692     607.0591    138.91042   -4270.8303 
 6057000    109.91101   -5035.1842   -4823.2116   -5035.1842            0    3585.7561    20.041036    19.832996     20.66458    8213.6292    3753.3593    2880.0497    4123.8592    165.69977    593.91054   -334.95153   -4393.6834 
 6058000    108.48002   -5014.8183   -4805.6055   -5014.8183            0    3426.7505    19.989636    19.732292     20.76781    8191.6828     2483.371     4980.129    2816.7514    65.314118    223.99875    1410.2762   -4396.2209 
 6059000    113.34528    -5032.088   -4813.4921    -5032.088            0    3675.4779    19.973726    19.870143    20.672268    8204.4263    2636.6148    4751.0988    3638.7203   -98.436731    41.731539   -807.45932   -4373.7096 
 6060000    112.57443   -5026.3041   -4809.1949   -5026.3041            0    3154.4661    19.936901    19.894112    20.591973    8167.3316    4025.2778    2195.8044    3242.3162    140.81404   -52.033779    684.36502   -4433.4596 
 6061000    116.36093   -5028.0313   -4803.6195   -5028.0313            0    3845.5384    19.972584    19.887381    20.607622    8185.3969    3941.0671     3527.827     4067.721   -340.80385    -259.8188    253.04095   -4344.5559 
 6062000      111.571   -5005.5048   -4790.3307   -5005.5048            0    4122.0788    19.889744    20.051531    20.583113    8208.9534    3481.7735    4615.2798    4269.1832     102.4484   -629.02239   -157.10673   -4296.8389 
 6063000     115.2728    -5018.252   -4795.9387    -5018.252            0    3339.5341     19.90492    19.849806    20.706419    8181.2884    3715.0409    2679.0225     3624.539   -147.56712    663.22796    197.06351   -4397.4799 
 6064000     108.2159   -5017.8287   -4809.1252   -5017.8287            0    4006.6659    19.936063    19.764959    20.763146    8181.4162    3054.0874    5625.0173    3340.8929    35.492232    122.59666    -489.8728   -4331.0596 
 6065000    112.51846   -5030.2983    -4813.297   -5030.2983            0    3304.4278    19.848557    19.876674    20.738011    8181.6287    4005.5554    2921.3031     2986.425    734.97425    300.96613    104.72619   -4419.0104 
 6066000    112.68637   -5010.7767   -4793.4515   -5010.7767            0    3051.5709    20.064716    19.786799    20.720894    8226.5373     3576.964    2900.1125    2677.6361     -425.013    30.263029   -474.92831   -4427.3375 
 6067000    107.15878   -5021.9962   -4815.3315   -5021.9962            0    3254.9516    19.915234    19.879052    20.701001    8195.4431    2886.8444    3342.6647    3535.3458    -275.8998    1003.9597   -280.77071   -4426.2927 
 6068000    114.34471   -5028.8236   -4808.3003   -5028.8236            0    3957.4795    19.928344    19.864505    20.645521    8172.8741    3203.6313    4145.5652     4523.242    353.60938    441.84615    188.27233   -4336.5965 
 6069000    107.44986   -5031.5565   -4824.3304   -5031.5565            0    4438.1852    19.787407    19.848233    20.748822    8148.9979    5235.9851    3674.8346    4403.7359   -275.96683    1484.6726    113.78548   -4296.8753 
 6070000    110.14919   -5014.5859   -4802.1539   -5014.5859            0    4559.6658    19.967458    19.725471    20.823124    8201.5519    4083.4769    5935.2152    3660.3054   -98.476838    251.96928   -508.68452   -4256.7667 
 6071000    114.47082   -5025.2786    -4804.512   -5025.2786            0    3508.5918    19.928371     19.92571    20.702266    8220.5992    4316.0894    2744.9052     3464.781    162.68732    1083.7127   -76.213941   -4383.8704 
 6072000    123.09186    -5023.051    -4785.658    -5023.051            0    3813.0698    20.093571    19.741269     20.71605    8217.4891    3988.5276    3989.6423    3461.0396    29.033511   -312.34278    61.111434   -4328.6858 
 6073000    111.61631   -5039.8953   -4824.6338   -5039.8953            0    4089.1453    19.882651    19.969051    20.627261    8189.7997    3960.1129     4320.119     3987.204   -611.69707    404.66428    326.86645    -4336.227 
 6074000    112.25056   -5035.3589   -4818.8742   -5035.3589            0    2626.9756    20.012675    19.735826    20.802384    8216.2481    1822.9995      4206.63    1851.2974   -693.51802   -856.32599   -918.35083   -4504.0954 
 6075000    113.47109   -5033.1395   -4814.3009   -5033.1395            0    3308.5683    19.907923    19.782609      20.8361     8205.895    4820.1667    2478.8277    2626.7104   -227.93254    12.075086    367.84428   -4418.3495 
 6076000    115.11395   -5033.9473   -4811.9404   -5033.9473            0    3253.5633    19.892756    19.862814    20.774382    8208.5007    3104.5188    4153.3508    2502.8202    206.26077   -99.607609    -318.1327    -4422.448 
 6077000    108.93009   -5037.2508   -4827.1699   -5037.2508            0     4145.993    19.865802    19.911151    20.698314    8187.2383    4473.1647    4041.5643    3923.2499   -630.36112    819.78896   -177.78224   -4332.1281 
 6078000    121.03216   -5025.0216   -4791.6009   -5025.0216            0    4444.7266    19.923192    19.779611    20.720529    8165.4009    3749.1777    5901.4548    3683.5474    179.77226    383.95044   -851.17939   -4262.3051 
 6079000    111.36449   -5033.5953   -4818.8196   -5033.5953            0    4040.1245    19.951968    19.887808    20.641144    8190.4246    3319.6721     4799.958    4000.7434   -103.28413   -369.58458    988.30115    -4336.231 
 6080000    114.49814   -5017.7782   -4796.9589   -5017.7782            0     3533.519    19.852338    19.913443     20.72343    8192.5607    3343.1308    4286.5027    2970.9235    45.559213   -489.05286    565.17283   -4374.7737 
 6081000    115.03633    -5027.319   -4805.4618    -5027.319            0    3147.0706    19.952899    19.886082    20.785616    8247.4203    3012.3782    4338.0233    2090.8103    303.34609   -467.82769    1207.7321   -4426.9316 
 6082000    107.18181   -5028.3714   -4821.6623   -5028.3714            0    3788.0175    20.006172    19.889493    20.703117    8238.0316    3219.6835    3261.3407    4883.0282   -134.76735    80.786974     127.1745   -4366.5576 
 6083000    114.89699   -5027.0262   -4805.4377   -5027.0262            0    4206.4911    20.000457    19.836543    20.638098    8187.9572    3889.7669    4915.9527    3813.7536      65.0163    361.50219    324.39232   -4303.1281 
 6084000    117.43204   -5015.0953   -4788.6177   -5015.0953            0    3395.9181    19.960938    19.856144    20.629047    8176.2664    3932.5732    3533.9466    2721.2344    17.662858    737.15678    243.35162   -4383.6801 
 6085000    111.46767   -5031.0183   -4816.0435   -5031.0183            0    3686.6893    19.890404    19.916877    20.618145    8167.9759    3260.4797      3966.06    3833.5283   -490.06128   -61.079902   -260.21914   -4376.8794 
 6086000    114.22186   -5034.7636   -4814.4772   -5034.7636            0    3091.1461    19.930708    19.934694    20.638432     8199.908    3155.9744     2951.107    3166.3571    60.915279   -593.93868     149.3551   -4444.8155 
 6087000    111.22429   -5025.7425   -4811.2371   -5025.7425            0    3647.8009     19.97941    19.857128    20.668351     8199.831    2572.8386    4118.0004    4252.5638    -246.6071    490.21857    512.98387   -4375.0107 
 6088000    112.76161   -5027.3842   -4809.9139   -5027.3842            0    3711.1551    19.900206    19.901327    20.747203    8216.7323    3840.7643    4739.6564    2553.0445   -71.884553     754.6455   -206.74058   -4365.1965 
 6089000    105.98361   -5032.6502   -4828.2519   -5032.6502            0    3350.0188    19.950735    19.772415    20.725396    8175.6344    4878.8441    2763.5516    2407.6608    48.419449    -469.7584   -109.71835   -4428.8183 
 6090000    114.61725   -5036.8127   -4815.7637   -5036.8127            0    2564.7915    19.844201    19.898975    20.934395    8266.5585    3676.2137    2720.4064    1297.7544    436.02807   -747.39356   -27.300325   -4506.5543 
 6091000    109.18379   -5027.2733   -4816.7031   -5027.2733            0     3617.126    19.976843    19.927974    20.586853    8195.5849     3434.486    3434.6166    3982.2754   -274.55548    16.615844    387.80067   -4384.3691 
 6092000     113.8606   -5030.6259   -4811.0361   -5030.6259            0    4131.4455    19.965339    19.863892       20.604     8171.327    4678.0332    3732.5053    3983.7979    361.46705   -753.40317   -928.68794     -4318.69 
 6093000    113.59026   -5020.7243   -4801.6559   -5020.7243            0    3318.7152    19.944253    19.913878    20.666069    8207.8894     3824.785    2764.5936     3366.767    120.46009    516.38636   -340.74114   -4404.3936 
 6094000     108.1842   -5019.0333    -4810.391   -5019.0333            0    3639.8176    19.853151    19.992646    20.649488    8196.1334     4143.096    2761.3814    4014.9753    -568.9016   -870.32922   -538.65407   -4375.3156 
 6095000    105.85452   -5034.4773   -4830.3279   -5034.4773            0    3499.9729    19.939737    19.853918    20.698292    8194.0792     1996.592    4280.4509    4222.8759   -99.067925    871.68441     41.14507   -4412.0733 
 6096000    116.27448   -5027.9239   -4803.6788   -5027.9239            0    3126.3827    19.968344    19.847087    20.783599    8236.8201     3114.487    3299.0989    2965.5622    -411.2381    -127.1056    644.08353   -4428.1203 
 6097000    110.30622   -5019.1882   -4806.4534   -5019.1882            0    4197.0495    19.860448    19.897988    20.687736    8175.4409    5006.8192    3003.7095    4580.6197    -41.79391   -714.62167    739.63932   -4306.0374 
 6098000    114.99384   -5033.3655   -4811.5902   -5033.3655            0    4682.5507    19.894999    19.937303    20.705715     8212.976    4648.0767    3759.0194    5640.5559   -332.95524    531.36241   -323.74265   -4250.7244 
 6099000    115.71899   -5033.4317   -4810.2579   -5033.4317            0    3273.5899    19.822427    20.001455     20.61796    8174.5544    4315.3351    2022.7866     3482.648   -62.970762    934.59602   -454.94479   -4419.9888 
 6100000    112.56118   -5028.4601   -4811.3764   -5028.4601            0    3402.4599    19.947238    19.871466    20.638384    8180.6603     1434.184    4692.7614    4080.4343    455.62434   -33.500342   -66.607073   -4405.4407 
 6101000    111.02442   -5040.5102   -4826.3903   -5040.5102            0    5031.9737    19.881798    19.844154    20.655894    8149.5239    5460.8903    5085.6337    4549.3971    109.48674   -699.31555    675.98716   -4228.3279 
 6102000    114.10624   -5029.0155    -4808.952   -5029.0155            0    4025.2074    19.942685    19.913619    20.611759    8185.5691    2487.5651    5706.5934    3881.4636    224.72173   -418.06164    73.362192   -4328.4303 
 6103000    114.22936   -5020.5397   -4800.2388   -5020.5397            0    4726.5348    19.917487    19.911152     20.60472    8171.4223    5497.8477    3591.5335    5090.2232    479.52717    426.24818   -36.670665   -4236.9691 
 6104000    116.74401   -5030.9004   -4805.7498   -5030.9004            0    2640.2708    19.875669      19.8802    20.857609    8241.5142    4027.4746    2529.0386    1364.2992    25.350037     445.5413   -449.42353    -4488.405 
 6105000    122.46303   -5028.8722   -4792.6919   -5028.8722            0     2133.828    19.890816    19.902092    20.858267    8257.1381    3790.1678    1457.3139    1154.0021   -266.71709    415.47035   -865.41822   -4535.7323 
 6106000    109.11047    -5030.059   -4819.6303    -5030.059            0    4596.2519    20.000824    19.699077    20.680315    8147.9981    3422.9118    5616.0029    4749.8409    826.95604     75.14723   -1183.6336   -4273.4568 
 6107000    112.81997   -5025.9632   -4808.3804   -5025.9632            0    3691.0572    19.919359     19.94951    20.652375    8206.8707    4468.1966    2380.5973    4224.3778    -368.5172   -494.35018    65.690924   -4366.6022 
 6108000    117.45861   -5025.8994   -4799.3706   -5025.8994            0       3901.5    19.918836    19.829168    20.748875    8195.2654    4395.4288    3764.7192     3544.352   -599.59749    1103.5913   -277.43286   -4333.0651 
 6109000    112.40311   -5028.4776   -4811.6987   -5028.4776            0    3415.3269    19.890495    19.957573    20.724908    8227.0842    3988.4327    3336.8061     2920.742   -69.767879     -102.636    605.82437   -4401.9156 
 6110000    114.95972   -5019.1409   -4797.4314   -5019.1409            0    3185.7694    19.745269    20.071207    20.658816     8187.324    4064.5552     1548.424     3944.329    287.77537   -410.51378   -527.12202   -4417.0387 
 6111000    114.84008   -5013.8449   -4792.3662   -5013.8449            0    4426.7227    19.908764    19.866596    20.634699    8161.4233    4568.0907    4025.4038    4686.6737    -408.5069    290.51261   -870.65054   -4265.4711 
 6112000    111.95643   -5023.0592   -4807.1418   -5023.0592            0    2507.8015    19.894547    19.974676    20.737373    8240.7649    2577.5395    2072.7865    2873.0785   -605.14325    -367.7326   -256.03262   -4505.7465 
 6113000      109.016   -5031.3356    -4821.089   -5031.3356            0    2858.7037    19.961246    19.902957    20.692963    8221.0622    3110.4992    2972.5606    2493.0512    72.880067   -166.99622    -125.5729   -4478.3426 
 6114000    111.71904   -5019.4725   -4804.0129   -5019.4725            0     4571.989    19.975461    19.891603    20.646361    8203.7062    4224.3397    4842.2317    4649.3956   -36.225864    1023.4482   -717.23163   -4257.0081 
 6115000    113.76598   -5033.4289   -4814.0216   -5033.4289            0     3272.863    19.908743    19.958021    20.680717    8217.2581    2799.1045    3629.3345    3390.1499   -99.156536    349.12442   -24.310114   -4421.8008 
 6116000    107.11279   -5023.8555   -4817.2795   -5023.8555            0    4133.2307    19.830339    19.995902    20.549089    8148.2382    4887.2703    3177.4762    4334.9455   -358.63873   -605.84556   -921.54791   -4326.1124 
 6117000    109.67491    -5037.683   -4826.1657    -5037.683            0    2501.9403    19.961929    19.898037    20.668204     8209.477    2306.3608    3157.2854    2042.1749    193.95014   -576.19223    378.19432   -4526.6163 
 6118000     111.9071   -5034.3038   -4818.4815   -5034.3038            0    2179.2404    19.878633    19.894699    20.722562    8195.3469    2448.7863    2570.9191    1518.0157    309.52828   -82.345469   -204.23004   -4558.0171 
 6119000     104.9108   -5025.8449   -4823.5156   -5025.8449            0    2874.4173    19.936167     19.90547    20.776552    8244.9413    1806.3772    4429.5123    2387.3625   -70.551761    618.11951    -424.9655   -4477.8842 
 6120000    114.77207   -5031.9303   -4810.5828   -5031.9303            0    2923.8333     19.96895    19.784493    20.751249    8198.3112    2425.0262    3447.3859    2899.0877    38.380049    492.61805    902.05457   -4460.9977 
 6121000    110.63329   -5039.2298   -4825.8642   -5039.2298            0    3329.7528    19.844011    19.935861    20.771432     8217.333    4854.7489    2230.4644    2904.0451    285.38024   -146.79313    213.39314    -4426.822 
 6122000    112.42192   -5013.9572    -4797.142   -5013.9572            0    3197.6697     19.91624    19.936269    20.679912    8211.0732    4248.9484     2679.377    2664.6837   -418.82226    168.26742    53.762184   -4414.2208 
 6123000    112.80751   -5026.8034   -4809.2446   -5026.8034            0    2645.3939    19.918361    19.907824    20.731254    8220.5897    1831.1566     3289.618     2815.407   -360.50324   -399.54478    55.238055   -4492.0913 
 6124000    116.59834   -5031.4912   -4806.6215   -5031.4912            0    3813.0779     19.95084     19.94398    20.622234    8205.5692    2867.8722    4063.0135    4508.3481   -183.22756    143.18321    -169.3167   -4350.3111 
 6125000    113.01139     -5015.38   -4797.4281     -5015.38            0    3385.4052    19.967528    19.818771    20.689481    8187.4871    2738.4168    4205.8242    3211.9747   -202.34314    -170.7089   -270.15584     -4393.19 
 6126000    110.12313   -5040.7236   -4828.3419   -5040.7236            0    2523.2662    19.960811    19.921942    20.648119    8210.8923     1741.088    2864.5546    2964.1561   -260.73521   -147.51905   -231.17031   -4526.1872 
 6127000     113.8248   -5032.3399   -4812.8192   -5032.3399            0    3615.6834     19.89332    19.874969    20.715289    8190.3927    3235.7339    4782.1223     2829.194     323.6621   -621.63577   -62.110249   -4380.9313 
 6128000    110.70051   -5029.7247   -4816.2295   -5029.7247            0    3401.6043    19.910847    19.906403    20.684442     8198.348    4758.1517    1877.0224    3569.6386   -193.28515   -636.92982    866.70483   -4409.5184 
 6129000    117.38866   -5014.5851   -4788.1912   -5014.5851            0    4157.6392    19.941201    19.948944    20.519405      8162.74    4085.8268    3958.3615    4428.7292    99.898762   -299.68452   -150.10741   -4293.2443 
 6130000    104.07464   -5027.7183   -4827.0016   -5027.7183            0     4238.999    19.859612    19.947385     20.62628    8171.0457    4769.2453    4104.0574    3843.6944    291.95633    921.89061   -510.92336   -4321.8557 
 6131000    108.76539    -5037.044   -4827.2808    -5037.044            0    3170.4977    19.915533    19.942396    20.601337    8182.0981    2327.4652     3827.821     3356.207   -504.35627    168.27227   -661.41249   -4448.9532 
 6132000    112.63572   -5011.2236   -4793.9961   -5011.2236            0    3716.9117    19.942569    19.884562    20.697451    8207.5585    2987.5965    4821.0148    3342.1237   -248.50104   -849.41953   -729.84568   -4349.0862 
 6133000    115.33905   -5015.2607   -4792.8197   -5015.2607            0    3536.7076    19.875952     19.99865    20.590358    8184.5068    4066.9319    2948.2149    3594.9758   -244.38656   -702.91168   -684.97271   -4370.6689 
 6134000    109.26845    -5029.386   -4818.6526    -5029.386            0    2792.1119    19.900485    19.937231    20.651789    8193.8156     1856.182    3181.8891    3338.2648   -205.60837   -106.69204   -131.45067   -4484.9997 
 6135000    115.66535   -5034.5843   -4811.5139   -5034.5843            0    3303.9288    19.959851    19.980248    20.485036     8169.489    4346.2146    2097.4793    3468.0924   -170.86767   -29.308763   -74.346284   -4417.8719 
 6136000    110.65748    -5017.169   -4803.7567    -5017.169            0    3298.5806    20.042861    19.879534    20.491295    8164.6076    3779.8988    2795.9473    3319.8959   -27.705502    509.06421    55.127663   -4410.9867 
 6137000    114.83577   -5038.0261   -4816.5557   -5038.0261            0    3937.1343    20.015818    19.978914    20.509988    8201.8274    3693.0617    3576.1252    4542.2159   -265.19446     491.5401   -314.47607   -4345.6144 
 6138000    108.52619    -5023.974   -4814.6721    -5023.974            0     3725.286    19.984373    19.866214    20.549051    8158.2573    4382.4085    2777.9496       4015.5    -228.3313   -629.07931   -313.86095   -4371.4383 
 6139000    107.16275   -5037.5672   -4830.8948   -5037.5672            0    3970.4483    19.909557    19.996662    20.541299     8177.998      4133.08    4007.7408     3770.524   -145.22918    471.08825    399.36737   -4357.3485 
 6140000    115.05949   -5021.3636   -4799.4617   -5021.3636            0    4640.8293    19.874252    19.957811    20.528397    8142.5185     3314.122    5485.5081    5122.8577   -583.26915   -105.25149     470.9738   -4248.3619 
 6141000    114.00064   -5031.6672   -4811.8074   -5031.6672            0    2450.9762    19.993232    19.917873    20.579589    8195.2585    2490.1674    1751.0449    3111.7164    183.86916    351.96724    452.42798   -4518.8681 
 6142000    115.45568   -5035.1137   -4812.4477   -5035.1137            0    3028.7565    20.032678    19.846712    20.631284    8202.6433    1573.1429    4333.0211    3180.1056   -288.85449    553.52908    657.41107   -4450.1263 
 6143000    109.06007   -5026.9271   -4816.5956   -5026.9271            0    2945.8063    19.961554    19.975568     20.61241    8219.0622    2674.2874    3204.0902    2959.0412    -56.19462     1188.895    1001.2921   -4463.4919 
 6144000    113.41931   -5024.6762   -4805.9375   -5024.6762            0    4645.0384    19.854772    19.914246    20.617084     8151.847    4920.9444    5047.0607    3967.1099     252.1147   -1325.7513    509.95634   -4253.7059 
 6145000    110.35054   -5023.0732   -4810.2529   -5023.0732            0    3634.6509    19.903964    19.924166     20.66315    8194.3832    4278.5253    2238.5249    4386.9025   -386.36852   -3.5083606    214.24757   -4375.8879 
 6146000    106.00087   -5023.4539   -4819.0223   -5023.4539            0    3653.9481    19.840707    19.904964    20.860689     8238.482    3253.9275    4544.7472    3163.1697    99.189207    188.66712   -12.295755   -4380.0011 
 6147000    106.26823   -5028.6581   -4823.7109   -5028.6581            0    3618.3318    19.871534    19.835898    20.704855     8161.227    2657.8258    4789.8793    3407.2903   -149.32443   -598.09279    628.77882   -4393.0457 
 6148000    110.28319   -5031.2325   -4818.5421   -5031.2325            0    3168.4763    19.799442    19.912487    20.749134    8180.4732    3445.1415     3089.347    2970.9403   -286.50434     794.3933   -170.63524   -4440.5308 
 6149000    114.95969   -5021.9429   -4800.2335   -5021.9429            0    4520.4147    19.902744    19.862047    20.636765    8157.9038     5170.909    4356.2727    4034.0624    64.326725    301.59214   -21.010563   -4262.4187 
 6150000    110.48836   -5025.9316   -4812.8455   -5025.9316            0    4096.0992    19.934523    19.937219     20.55918     8171.019    4672.5012    4300.3181    3315.4782   -292.05687    349.53926   -91.294561     -4324.73 
 6151000    115.71427   -5014.9318   -4791.7671   -5014.9318            0    4727.3375    20.059672    19.863396    20.484936    8162.2885    3909.3852    5382.0954    4890.5319   -189.27668    1653.1403    130.51273   -4229.0314 
 6152000    111.71825   -5016.9151   -4801.4571   -5016.9151            0    4156.5843    19.953211    19.907168    20.576486    8173.2258    3692.6389    4099.5913    4677.5228   -662.28757    385.06227   -125.55126   -4306.0001 
 6153000    109.27279   -5023.8259   -4813.0841   -5023.8259            0     3329.994    19.817866    20.012369    20.637784    8184.9957    3455.0828    3339.6067    3195.2925    485.85997    233.41012   -1093.3275   -4415.5835 
 6154000    109.42843   -5020.3127   -4809.2707   -5020.3127            0     4171.085    19.982772     19.89843     20.56676     8177.874    4153.7609    3419.9016    4939.5926    13.604388    101.87716   -420.09438   -4311.8025 
 6155000     113.2239   -5028.8094   -4810.4476   -5028.8094            0    3213.6442    20.087404    19.903925    20.477259    8187.1805    3198.8303     2830.096    3612.0063   -451.13903   -445.43531    81.265569   -4426.7333 
 6156000    110.35868   -5032.7633   -4819.9273   -5032.7633            0    3299.1036    19.843895    20.058903    20.598621    8199.2141    4050.4786     2483.291    3363.5412   -203.90403   -122.02258    -80.26399     -4425.43 
 6157000    112.53145   -5022.1856   -4805.1592   -5022.1856            0    4525.2443    20.105687    19.812134    20.515006    8171.8771    2717.1931    5102.1349     5756.405   -301.57041    331.71147    245.26399   -4265.8476 
 6158000    106.58484   -5025.3961   -4819.8382   -5025.3961            0    4989.2559    19.614415    20.013256    20.697606    8124.8104    6864.1899    4113.9906    3989.5871   -12.266832    576.02855     1375.965   -4228.6512 
 6159000    109.30224   -5031.0619   -4820.2633   -5031.0619            0    3056.1096    19.991406    19.855766    20.729388    8228.4207    2521.2938    3645.1522    3001.8828   -425.96743    707.63511   -215.69704   -4453.5208 
 6160000    108.50314    -5021.757   -4812.4995    -5021.757            0     2706.912    19.883728      19.8888    20.953829    8286.4742    3441.1947    2258.1152    2421.4261   -100.62273   -535.54552    1088.8326     -4485.37 
 6161000    107.63142   -5025.6205   -4818.0443   -5025.6205            0    4110.1066    19.985688    19.826889    20.666623    8189.2325    3814.5408     4688.633    3827.1458   -216.54341    1189.0488   -850.54394   -4327.1679 
 6162000    114.44431   -5026.8278   -4806.1123   -5026.8278            0    3437.9863    19.933686    19.883831    20.621258    8173.4015    2735.8471    4021.9681    3556.1439   -5.6155184    422.38401    843.87325    -4396.302 
 6163000    114.11082   -5026.3162   -4806.2439   -5026.3162            0    3403.0219    19.871164    19.905794    20.767179    8214.4845    2940.2714      4400.85    2867.9441   -242.96558    302.35195    834.05861   -4398.5624 
 6164000    112.31599   -5034.8601   -4818.2493   -5034.8601            0    4104.6749    19.941714    19.883226    20.671756    8196.4671    4213.4311    4195.3332    3905.2603    48.662028   -43.291662    412.75116   -4327.5885 
 6165000    112.69164    -5024.575   -4807.2396    -5024.575            0    4131.4732    19.894074    19.885095    20.716583    8195.3879    3797.4404    5097.6138    3499.3655   -305.86026    241.38636   -16.155462   -4313.4405 
 6166000    113.83458   -5023.2124   -4803.6728   -5023.2124            0    3247.0162    19.956052    19.796162    20.802479    8218.0865    2191.1209     4090.323    3459.6047    213.56926    823.31065   -217.09356   -4414.5103 
 6167000    111.95408   -5026.7746   -4810.8617   -5026.7746            0     2548.534    19.913764    19.889688    20.706099     8201.242    2440.9511    3164.1667    2040.4842   -36.423382    159.65374   -197.96162     -4506.04 
 6168000    115.89388   -5020.1258   -4796.6147   -5020.1258            0    2996.3673    20.045506    19.760978    20.779482    8231.1439    1349.6131    4540.2817     3099.207    173.72789   -445.58807   -53.031601   -4436.9224 
 6169000    116.22574   -5020.4581    -4796.307   -5020.4581            0    4119.8926    19.917329    19.828673    20.712964     8180.258     3848.188    3950.3784    4561.1114   -9.8607401    580.79547    377.60771    -4304.801 
 6170000    115.06237   -5031.5569   -4809.6495   -5031.5569            0      3027.19    19.835263    19.815579    20.833462    8188.5342    4178.3731    2084.9961    2818.2006    227.52513    416.48795   -835.58633   -4448.1383 
 6171000      115.676   -5027.5225   -4804.4316   -5027.5225            0    3549.8319    19.899909    19.852621    20.716929    8184.5405    3309.2006    4154.4303    3185.8648   -387.88514    22.346235    202.10062   -4380.7126 
 6172000    109.48376   -5029.1291   -4817.9805   -5029.1291            0     3463.227      19.8877     19.89802    20.734272    8205.0875    4070.1156     3408.892    2910.6733    29.497975     222.4712    932.77787   -4403.5611 
 6173000     110.7585   -5037.1811    -4823.574   -5037.1811            0    1869.7453    19.983304     19.85434    20.798624    8251.9643    379.62648    2922.0282    2307.5813    294.27094    201.15567   -286.47086   -4598.5568 
 6174000      113.939   -5028.8006   -4809.0597   -5028.8006            0    4842.4538    19.891901    19.808823    20.723779    8165.8974    5147.8495    5681.5154    3697.9965   -256.02685    735.96653    323.48803   -4232.3659 
 6175000    112.31733   -5028.4201   -4811.8066   -5028.4201            0    3958.3718    19.765769    19.936675    20.654564    8139.2141    5162.7183     2512.463     4199.934    133.07274    601.74494    54.423431   -4341.9396 
 6176000    110.04332    -5030.795   -4818.5672    -5030.795            0    4191.4764    19.770588    19.826911    20.729511    8125.7549    3971.4856    4215.1312    4387.8124   -276.18013    415.53676    943.87553   -4321.8529 
 6177000    113.42497   -5025.2441   -4806.4945   -5025.2441            0     4202.744    19.850476    19.873485    20.662434    8151.2921    4073.4294    4551.0205    3983.7821    -687.9696    984.09074    -294.6564   -4306.8797 
 6178000    111.47055   -5024.4944   -4809.5141   -5024.4944            0    5128.7582    19.815513    19.929482     20.63306    8148.2618    4309.4757    5599.5075    5477.2913   -407.82766    -85.44302    540.12616    -4200.043 
 6179000    112.57146   -5015.3434   -4798.2399   -5015.3434            0    3106.4467    20.015557    19.858278    20.646612    8206.5014    619.32158    5155.9705    3544.0481   -459.87625   -263.17922   -129.91615   -4426.4498 
 6180000    113.76353   -5021.3682   -4801.9657   -5021.3682            0    3784.8492    19.887554    19.838797    20.718105    8174.2275    2031.2156     5395.829    3927.5028   -305.60311    804.37843    109.70726   -4350.7635 
 6181000    110.01177   -5027.2279   -4815.0609   -5027.2279            0    3161.2643      20.0549    19.811337    20.584902    8178.6775    2076.6909     4464.637     2942.465    -139.1151   -420.90099    27.269765   -4437.9928 
 6182000    114.48967   -5034.3517   -4813.5488   -5034.3517            0    3354.2133     19.91941    19.939339    20.690846    8217.9876    2564.1496    3493.6338    4004.8564   -75.775291     72.15556   -256.66049   -4411.5432 
 6183000    110.26798   -5034.5287   -4821.8676   -5034.5287            0    4088.9923    19.945695    19.858866    20.620225    8167.6479    4864.5592    3408.9162    3993.5015   -224.70202    1033.6039   -342.98881   -4334.8001 
 6184000    107.40915   -5027.8397   -4820.6921   -5027.8397            0    4118.9838    19.873574    19.862601    20.683823    8164.7499    5430.2416    2885.8533    4040.8564   -311.28886    1244.4374   -715.61389   -4330.2262 
 6185000    114.93928   -5022.1509   -4800.4808   -5022.1509            0    3958.7278    19.960627    19.872615    20.641934    8188.0327    3242.3286    4787.2676    3846.5872    173.77801   -644.90915   -486.24342   -4327.7531 
 6186000    117.65391   -5026.8996   -4799.9941   -5026.8996            0    2852.8455    19.995858    19.795111    20.779413    8224.9119    3452.2663    2927.3622    2178.9079   -488.28467    -26.08859   -586.54435   -4457.7899 
 6187000     111.5481   -5030.4526   -4815.3227   -5030.4526            0    2877.0526    20.039454    19.979386    20.478957    8199.2829    4427.2827    666.00489      3537.87   -161.90979   -44.997992   -168.18236   -4471.2901 
 6188000    112.26742   -5021.7193   -4805.2022   -5021.7193            0    4461.7994    19.908028    19.910332    20.632397    8178.1758    4793.0535    4373.4853    4218.8593     54.74085   -74.526978   -600.28614    -4273.042 
 6189000    106.18482   -5027.6262   -4822.8398   -5027.6262            0    3326.6984     19.91809    19.830481     20.73205    8188.8549    3959.0845    3578.3779    2442.6327   -240.00665    932.33083   -763.41108   -4425.5453 
 6190000     118.9064   -5021.0056   -4791.6846   -5021.0056            0    3297.7765    19.918889    19.935427     20.68079    8212.1673    3603.4712    1803.5606    4486.2977   -147.89992   -202.35167   -899.22349   -4396.7229 
 6191000    110.78645    -5021.478    -4807.817    -5021.478            0    3961.0605    19.865545    19.881293    20.694352    8173.2906    3992.4698    3869.2076    4021.5042   -94.370941     269.7636   -28.018793   -4335.6623 
 6192000    115.02578   -5027.9885   -4806.1516   -5027.9885            0    3200.8967    19.762078    20.003579    20.749734    8202.6248    4543.1179    1898.6386    3160.9337   -138.05024   -136.61369   -674.37959   -4423.2383 
 6193000     111.0966   -5027.2139   -4812.9547   -5027.2139            0    3511.9264    19.857664    19.894303    20.722604    8186.5559    4593.4555    2745.4579    3196.8656   -405.43452    263.95851   -464.46454    -4393.657 
 6194000    114.21631   -5016.9898    -4796.714   -5016.9898            0    4069.1317    19.964869    19.863005    20.627049    8179.9097    3985.2114    4985.8407    3236.3431   -369.69439   -676.78631    507.84334   -4311.2846 
 6195000    112.65904   -5024.2795   -4807.0071   -5024.2795            0    3415.7408    19.924495     19.92238    20.576271    8167.6141    1239.4292    4860.0002     4147.793   -411.42844    -269.7673    758.40887   -4400.1368 
 6196000    108.10961   -5020.5686   -4812.0701   -5020.5686            0    3617.7672    19.968743    19.877246    20.611825      8181.32    3208.4118    4125.1511    3519.7389     393.1344   -17.759544    112.09692    -4380.412 
 6197000    114.80002   -5031.4285    -4810.027   -5031.4285            0    3228.5167    20.101844    19.934468    20.480917    8207.1041    2981.1425    2995.4197    3708.9878      23.5102    1498.7109    165.36707   -4423.5987 
 6198000    112.96907   -5028.9308   -4811.0605   -5028.9308            0    2747.9091    19.960025    20.004492    20.571746    8214.0955    4010.6732    1278.3226    2954.7316   -347.75568    624.52282   -698.16345    -4481.877 
 6199000     116.0793   -5021.0556   -4797.1869   -5021.0556            0    3210.3656    20.072356    19.946911    20.396292    8166.2978    1529.0507     3771.026    4331.0199   -246.78627    1558.4488   -512.12011   -4414.8417 
 6200000    108.44379   -5028.2482   -4819.1053   -5028.2482            0    2954.8389    19.961484     19.95221    20.599386     8204.235    3236.5852    3518.6419    2109.2897    442.95189    1365.9933    34.226904   -4465.5577 
 6201000    107.44959   -5023.0364   -4815.8109   -5023.0364            0    3130.6718    19.894976    20.058267    20.604916    8222.5718    3366.7322    3119.9151    2905.3682   -50.248106   -590.49126   -350.90979   -4440.3877 
 6202000    113.32639   -5027.9983   -4809.4389   -5027.9983            0    4327.0011    19.968704    19.918784    20.565552    8179.9957    4043.8286    4217.3633    4719.8115   -49.965241    738.22412    151.00433   -4293.2413 
 6203000    108.49941    -5031.277   -4822.0268    -5031.277            0    2743.6889    19.936624    19.978371    20.524167    8174.8019    2231.6278    3345.9848    2653.4541    306.11822    397.28078   -7.6795953   -4494.9212 
 6204000    110.16055   -5034.6261   -4822.1723   -5034.6261            0    3716.6836    19.973548    19.930188    20.483913    8154.1653    4071.2334    3253.7305    3825.0867   -51.089676    368.18269    583.64597   -4380.1838 
 6205000    104.53676   -5025.4343   -4823.8263   -5025.4343            0    2774.8948    19.877718    19.889821    20.722484    8192.9297    3334.0922    2675.3098    2315.2822    315.93071    1209.4329    367.70563   -4492.2667 
 6206000    111.00292    -5039.394   -4825.3155    -5039.394            0    2957.0469    19.859643    19.948561    20.716053    8207.1055    3158.8641    3013.8923    2698.3841    454.96431   -154.65658    176.45724     -4471.38 
 6207000    112.42786   -5027.5764   -4810.7498   -5027.5764            0    3967.8691     19.87886    19.995468    20.580156    8180.3462    4280.1763    2900.8277    4722.6033   -261.38334   -534.75094   -122.52531   -4337.3752 
 6208000     115.8645   -5027.0255    -4803.571   -5027.0255            0    3380.8268    20.002233    19.831978     20.63602    8185.9762    2616.5357    4242.2388    3283.7059   -281.23789    1183.1794    205.44177   -4399.9542 
 6209000    110.83457   -5023.8546   -4810.1009   -5023.8546            0    3228.1562    19.839113    19.882643    20.824753    8214.4072    4639.8261    2637.6608    2406.9815   -391.81971   -329.75333    484.14153   -4423.3719 
 6210000    110.82302   -5009.7478   -4796.0162   -5009.7478            0    3010.1728    19.925026     19.82639    20.746315    8195.6522    2632.1303     3824.063    2574.3251    166.93449    781.10586   -1216.2881   -4436.2248 
 6211000    112.48799   -5025.5791   -4808.6365   -5025.5791            0    4067.4325    19.843074    19.819549    20.858936    8203.4184    4421.7729      4194.81    3585.7145   -65.984695    1175.5493    63.121605   -4322.0152 
 6212000    114.07839   -5030.8039   -4810.7941   -5030.8039            0    4230.8649    19.892034    19.777467    20.747139    8162.2157    4788.8553    4339.5019    3564.2374    -178.8354    1709.9682   -63.428427   -4307.1623 
 6213000    110.94722   -5012.4739   -4798.5029   -5012.4739            0    4019.4635     19.88761    19.794925     20.80594    8190.7522    4964.6798    3603.3694    3490.3414    227.32144    619.38048   -440.97966    -4318.363 
 6214000    118.68244   -5039.3995   -4810.5105   -5039.3995            0    2877.0869    19.874741     19.87012    20.916832     8260.339    3472.8972    2854.9996    2303.3639   -164.45199    538.99165   -556.91115   -4463.9119 
 6215000    108.47502   -5042.4475   -4833.2443   -5042.4475            0    4036.3656    19.928897    19.864333    20.717699    8201.6033    4844.9226    4118.2044    3145.9699     163.6936   -139.77954   -365.00412   -4350.4466 
 6216000    108.60635   -5026.9707   -4817.5143   -5026.9707            0    2766.2803     19.94717    19.936114    20.639869    8207.8374    3363.0644    1601.3278    3334.4485    77.648941   -424.71708   -151.41139   -4486.3825 
 6217000    107.07957   -5032.4085   -4825.8965   -5032.4085            0    3742.3722     19.94419    19.748909    20.770857    8181.1424    3940.8413    3359.9374    3926.3378    128.11408    398.54166   -1392.8378   -4379.3808 
 6218000    114.26233   -5023.2507   -4802.8862   -5023.2507            0    2878.9508    19.918282    19.819657    20.787743    8206.4507    2125.1992    4127.4783    2384.1748   -291.99712     1436.148   -336.19279   -4458.3257 
 6219000    107.44527   -5010.4706   -4803.2534   -5010.4706            0    5088.7136    19.897342    19.847223    20.725693    8184.7208    4858.8697    5496.2921    4910.9791   -460.09454    154.65926    932.74446   -4195.8352 
 6220000    109.50687   -5031.7901   -4820.5969   -5031.7901            0    3808.9636    19.975514     19.87746    20.626849    8190.1478     2441.765    5331.2341    3653.8918   -159.44793   -663.96463    1090.4213   -4365.6356 
 6221000    109.83885     -5023.63   -4811.7965     -5023.63            0     4036.496    19.603086    20.078203    20.715677    8153.5816    5513.7288    2419.8374    4175.9219   -46.844528   -627.23399   -705.40026   -4331.8102 
 6222000    111.14186   -5031.7493   -4817.4029   -5031.7493            0    4207.6067    19.890044    19.869829    20.531085    8114.1268    3791.0466    4742.1401    4089.6333    -343.1231    476.48974   -679.22337   -4319.4906 
 6223000    108.15952   -5024.6887    -4816.094   -5024.6887            0    3388.7297    19.820201    20.063563    20.560716    8176.2538    3912.6377    2557.2327    3696.3185   -534.04244   -184.22128    912.37536   -4412.0141 
 6224000    115.25655   -5032.5131   -4810.2311   -5032.5131            0    4205.2587    19.966117    19.818443    20.650113    8171.1952    4110.8727    3861.7006    4643.2028   -309.14777    1479.2485    -398.0841   -4309.0967 
 6225000    108.60307   -5029.7088   -4820.2587   -5029.7088            0    2898.4436    19.919797    19.839361    20.709957    8184.4931    2836.4845    3075.1774    2783.6691    345.99111   -326.21119   -520.17364   -4474.2934 
 6226000    110.47512   -5023.0382   -4809.9777   -5023.0382            0    3864.8267    19.930109    19.926044    20.599405    8180.6056    3821.1688    4521.4946    3251.8168    157.14316    571.69802    350.09927   -4348.8816 
 6227000    113.91836   -5003.5311     -4783.83   -5003.5311            0    3802.3336    19.851868    20.071753     20.62378    8217.7884    4747.8479    2667.8107    3991.3423    447.58588    947.29212     659.3977   -4328.1278 
 6228000    116.20738    -5024.864   -4800.7483    -5024.864            0    3531.5625    19.926892    19.944908    20.620013    8195.2186    3400.7873    4311.1372     2882.763   -110.73916   -592.92903   -361.58147   -4378.6599 
 6229000    117.92728   -5030.9898   -4803.5571   -5030.9898            0    4402.0162    20.028836    19.804004    20.626106    8181.3685    3325.3987    5416.2471    4464.4028   -228.66141    44.201219    285.34237   -4278.3223 
 6230000    115.96763   -5016.7933     -4793.14   -5016.7933            0    3144.7579    19.817339    20.039619    20.628419    8192.2034     5398.774    1176.7422    2858.7575   -580.83656    859.59677   -302.98612   -4417.4204 
 6231000    116.68313   -5025.1398   -4800.1065   -5025.1398            0    3185.4738    20.003473    19.876822    20.581833    8183.4494    2833.2611    3568.6548    3154.5055   -166.02491    703.82581    -400.2379   -4419.9291 
 6232000    112.53072    -5024.692    -4807.667    -5024.692            0    3568.6603    19.899411    19.989542    20.640663     8210.445    5180.6848    2070.0384    3455.2576    237.83907    778.18412   -496.39229   -4380.3523 
 6233000    109.43749   -5024.9899   -4813.9305   -5024.9899            0    3441.3627    19.901366    19.892913    20.679509    8186.9377    3810.4485    3114.9534    3398.6862    11.077734    553.33647   -138.78523   -4403.0384 
 6234000    116.78518   -5030.7722   -4805.5422   -5030.7722            0    3531.2093    19.920542    19.801818    20.796134    8203.3044    3821.6534    3746.2882    3025.6862   -25.611954    1608.8927   -215.06817   -4383.0797 
 6235000    110.31067   -5032.2381   -4819.4947   -5032.2381            0    3589.9813    19.901695    19.870898    20.630857    8158.7728    4314.6581    3012.6425    3442.6432   -524.07232   -124.45024    1130.0263   -4392.3324 
 6236000    110.82538   -5034.8951    -4821.159   -5034.8951            0    2404.2241    20.044598      19.8599    20.651432    8220.9985    1163.3994     4026.195    2023.0778   -88.140519    966.78802    503.31105    -4532.905 
 6237000    113.61355   -5029.6563    -4810.543   -5029.6563            0    3825.3942    19.841986    19.871136    20.721604    8170.1719    4220.4837    3846.2302    3409.4687   -242.57704    276.11653   -181.60763   -4354.7336 
 6238000    113.41089   -5023.5736   -4804.8512   -5023.5736            0    3434.8162    19.790886    19.961712    20.767653    8204.4683    5037.8683    2713.6779    2552.9023   -513.36908    299.30046    468.40451   -4393.8625 
 6239000    109.52043   -5021.1219   -4809.9025   -5021.1219            0    3970.4312    19.911263    19.789763     20.70538    8158.7308    3557.4196    4906.4102    3447.4639   -20.117691    433.67233    422.88218   -4337.4739 
 6240000    113.50437   -5024.5962   -4805.6935   -5024.5962            0    2775.3764    19.923308    19.988205    20.623122    8212.7701    2279.1736    3263.8972    2783.0585    155.30311     564.2195   -642.69062   -4473.2732 
 6241000    106.24557   -5024.6022   -4819.6987   -5024.6022            0    3506.1423    19.986644    19.721933    20.759563    8182.9062    3624.0829    4173.0507    2721.2933    -207.6248    1484.2766    273.23697   -4401.2781 
 6242000    107.83808   -5017.8219   -4809.8471   -5017.8219            0    3515.8611    19.919331    19.854666    20.747604    8205.5044    4462.3315    2959.3124    3125.9395    114.30007   -1146.4586    48.306391    -4389.108 
 6243000      112.014   -5020.8141   -4804.7857   -5020.8141            0    3516.7278     19.82904    19.979408    20.673103    8190.1149     2296.023    5266.2137    2987.9466   -196.83669   -467.28755   -928.27857   -4384.7321 
 6244000    110.12292   -5015.5634   -4803.1821   -5015.5634            0    3060.8254    19.953495    20.003483    20.531359    8194.8743    1467.7847    4438.1108    3276.5806   -643.81875     55.32826   -836.74383   -4437.3711 
 6245000    120.76697   -5025.1676   -4792.2583   -5025.1676            0    3710.4119    19.838131    20.004178    20.638572    8190.3244     3975.356    3198.0425    3957.8372   -698.90822    87.564828   -423.76531   -4349.0589 
 6246000    114.04518   -5021.4685   -4801.5228   -5021.4685            0    3987.1035    19.932407    19.893393    20.594718    8166.2837    3880.3919    3638.1321    4442.7864    -486.7961    458.25186    357.23656   -4326.6712 
 6247000    116.39308   -5038.1836   -4813.7097   -5038.1836            0    3523.1244    19.910844    20.028867     20.58872    8210.6097    2743.9486    3085.5601    4739.8645    486.58106    640.92157    271.87824   -4391.8391 
 6248000    116.25322   -5025.3336   -4801.1295   -5025.3336            0      2693.98    19.936064    19.938358    20.657985    8211.3914    3171.4955     2348.277    2562.1675   -197.32242     578.0416   -170.04034   -4478.5126 
 6249000     111.9593   -5034.0203   -4818.0973   -5034.0203            0    4106.6934    19.867076    19.948672    20.595252     8162.347    3520.8908    4689.5689    4109.6205    -189.1706   -337.89096   -361.47886   -4329.2388 
 6250000    116.61946   -5016.8388   -4791.9284   -5016.8388            0    2771.6543    19.954728    19.889145    20.647593    8194.6678    1731.1781    3461.3327    3122.4522    -8.137592   -70.867185    761.35032   -4460.6857 
Loop time of 350.853 on 64 procs for 250000 steps with 972 atoms

Performance: 123.129 ns/day, 0.195 hours/ns, 712.549 timesteps/s
99.1% CPU use with 64 MPI tasks x 1 OpenMP threads

MPI task timing breakdown:
Section |  min time  |  avg time  |  max time  |%varavg| %total
---------------------------------------------------------------
Pair    | 18.815     | 27.933     | 37.937     |  87.2 |  7.96
Bond    | 0.26277    | 0.27618    | 0.28948    |   1.1 |  0.08
Kspace  | 138.5      | 148.39     | 157.79     |  37.9 | 42.29
Neigh   | 0.75471    | 0.76068    | 0.76932    |   0.4 |  0.22
Comm    | 82.426     | 83.06      | 83.844     |   3.8 | 23.67
Output  | 0.56114    | 0.56188    | 0.56364    |   0.0 |  0.16
Modify  | 81.185     | 82.633     | 85.788     |  11.7 | 23.55
Other   |            | 7.237      |            |       |  2.06

Nlocal:        15.1875 ave          19 max          11 min
Histogram: 1 8 10 7 0 7 9 11 8 3
Nghost:        2263.66 ave        2295 max        2240 min
Histogram: 5 6 8 9 12 9 7 5 2 1
Neighs:        4806.39 ave        6682 max        3121 min
Histogram: 3 7 4 11 12 10 6 3 6 2

Total # of neighbors = 307609
Ave neighs/atom = 316.47016
Ave special neighs/atom = 2.0000000
Neighbor list builds = 2273
Dangerous builds = 0

unfix		3
unfix		2
unfix		1

write_data	data.final.${pid}
write_data	data.final.1
System init for write_data ...
PPPM initialization ...
  extracting TIP4P info from pair style
  using 12-bit tables for long-range coulomb (../kspace.cpp:340)
  G vector (1/distance) = 0.37161707
  grid = 24 24 24
  stencil order = 5
  estimated absolute RMS force accuracy = 0.0035822364
  estimated relative force accuracy = 1.0787799e-05
  using double precision FFTW3
  3d grid and FFT values/proc = 2197 216
Last active /omp style is kspace_style pppm/tip4p/omp
WARNING: Not all mixed pair coeffs generated from mixing. Use write_data with 'pair ij' option to store all pair coeffs. (../write_data.cpp:312)

write_restart   restart.lmp.${pid}
write_restart   restart.lmp.1
System init for write_restart ...
PPPM initialization ...
  extracting TIP4P info from pair style
  using 12-bit tables for long-range coulomb (../kspace.cpp:340)
  G vector (1/distance) = 0.37161707
  grid = 24 24 24
  stencil order = 5
  estimated absolute RMS force accuracy = 0.0035822364
  estimated relative force accuracy = 1.0787799e-05
  using double precision FFTW3
  3d grid and FFT values/proc = 2197 216
Last active /omp style is kspace_style pppm/tip4p/omp
Total wall time: 0:05:51
