#include		in.partitions
include		in.temp
variable        temperature equal 107.60
variable	tempDamp equal 100.0
include		in.pressure
variable        pressure equal 2054.2
variable        pressureDamp equal 1000.0 # This is 1 ps
include		in.seed
variable        seed equal 745823

units		real
atom_style	full
#include		in.box
read_restart	restart.lmp.${pid}
read_restart	restart.lmp.1
Reading restart file ...
  restart file = 30 Jul 2021, LAMMPS = 30 Jul 2021
  restoring atom style full from restart
  orthogonal box = (0.080115965 0.14005774 0.12217849) to (18.127456 23.489120 22.091017)
  2 by 4 by 2 MPI processor grid
  restoring pair style lj/cut/tip4p/long/omp from restart
  restoring bond style harmonic/omp from restart
  restoring angle style harmonic/omp from restart
  864 atoms
  576 bonds
  288 angles
Finding 1-2 1-3 1-4 neighbors ...
  special bond factors lj:    0        0        0       
  special bond factors coul:  0        0        0       
     2 = max # of 1-2 neighbors
     1 = max # of 1-3 neighbors
     1 = max # of 1-4 neighbors
     2 = max # of special neighbors
  special bonds CPU = 0.001 seconds
  read_restart CPU = 0.006 seconds
include 	in.setup
variable	out_freq equal 1000
variable	out_freq2 equal 10000
variable	out_freq3 equal 1000

timestep	2.0

neigh_modify    delay 7 every 1

include		in.tip4p
# This is TIP4P/Ice

# create groups ###
group ox type 2
288 atoms in group ox
group hy type 1
576 atoms in group hy

# set charges - beside manually ###
set group ox charge -1.1794
Setting atom values ...
  288 settings made for charge
set group hy charge 0.5897
Setting atom values ...
  576 settings made for charge

# ### TIP3P Potential Parameters ###
pair_style lj/cut/tip4p/long/omp 2 1 1 1 0.1577 8.5
pair_coeff 1 1*2 0.000 0.000
pair_coeff 2 2 0.21084 3.1668
bond_style  harmonic
bond_coeff  1 450 0.9572
angle_style harmonic
angle_coeff 1 55 104.52
kspace_style pppm/tip4p/omp 1.0e-5
pair_modify tail yes

thermo          ${out_freq}
thermo          1000
thermo_style    custom step temp pe etotal epair emol press lx ly lz vol pxx pyy pzz pxy pxz pyz enthalpy

restart 	${out_freq3} restart.lmp.${pid} restart2.lmp.${pid}
restart 	1000 restart.lmp.${pid} restart2.lmp.${pid}
restart 	1000 restart.lmp.1 restart2.lmp.${pid}
restart 	1000 restart.lmp.1 restart2.lmp.1


include         in.dump
dump            myDump all atom ${out_freq2} dump.water.${pid}
dump            myDump all atom 10000 dump.water.${pid}
dump            myDump all atom 10000 dump.water.1
dump            myDump2 all dcd ${out_freq2} dump.dcd
dump            myDump2 all dcd 10000 dump.dcd
dump_modify     myDump append yes
dump_modify     myDump2 append yes


variable natoms 	equal  "count(all)"                        # NUMBER ATOMS
variable H      	equal  "enthalpy/v_natoms"                 # ENTHALPY-per-atom
variable Vol      	equal  "vol/v_natoms"                 # volume-per-atom
fix AVG all 		ave/time ${out_freq} 1 ${out_freq} v_Vol v_H file vol_enthalpy.dat
fix AVG all 		ave/time 1000 1 ${out_freq} v_Vol v_H file vol_enthalpy.dat
fix AVG all 		ave/time 1000 1 1000 v_Vol v_H file vol_enthalpy.dat


timer           timeout 23:50:00 every 1000
New timer settings: style=normal  mode=nosync  timeout=23:50:00

fix 		1 all shake 1e-6 200 0 b 1 a 1
       0 = # of size 2 clusters
       0 = # of size 3 clusters
       0 = # of size 4 clusters
     288 = # of frozen angles
  find clusters CPU = 0.000 seconds
fix             2 all nph aniso ${pressure} ${pressure} ${pressureDamp}
fix             2 all nph aniso 2054.2 ${pressure} ${pressureDamp}
fix             2 all nph aniso 2054.2 2054.2 ${pressureDamp}
fix             2 all nph aniso 2054.2 2054.2 1000
fix             3 all temp/csvr ${temperature} ${temperature} ${tempDamp} ${seed}
fix             3 all temp/csvr 107.6 ${temperature} ${tempDamp} ${seed}
fix             3 all temp/csvr 107.6 107.6 ${tempDamp} ${seed}
fix             3 all temp/csvr 107.6 107.6 100 ${seed}
fix             3 all temp/csvr 107.6 107.6 100 745823


run             250000
PPPM initialization ...
  extracting TIP4P info from pair style
  using 12-bit tables for long-range coulomb (../kspace.cpp:340)
  G vector (1/distance) = 0.37180713
  grid = 24 27 25
  stencil order = 5
  estimated absolute RMS force accuracy = 0.0031438289
  estimated relative force accuracy = 9.4675474e-06
  using double precision FFTW3
  3d grid and FFT values/proc = 6300 1296
Last active /omp style is kspace_style pppm/tip4p/omp
Neighbor list info ...
  update every 1 steps, delay 7 steps, check yes
  max neighbors/atom: 2000, page size: 100000
  master list distance cutoff = 10.8154
  ghost atom cutoff = 10.8154
  binsize = 5.4077, bins = 4 5 5
  1 neighbor lists, perpetual/occasional/extra = 1 0 0
  (1) pair lj/cut/tip4p/long/omp, perpetual
      attributes: half, newton on, omp
      pair build: half/bin/newton/omp
      stencil: half/bin/3d
      bin: standard
Per MPI rank memory allocation (min/avg/max) = 12.25 | 12.29 | 12.31 Mbytes
Step Temp PotEng TotEng E_pair E_mol Press Lx Ly Lz Volume Pxx Pyy Pzz Pxy Pxz Pyz Enthalpy 
26750000    111.36527   -4539.8801   -4349.0038   -4539.8801            0    599.16033     18.04734    23.349062    21.968839    9257.4155     954.8176    1112.3239   -269.66052   -189.80262   -311.36777    357.30025   -4268.1112 
26751000    105.99116    -4541.109   -4359.4438    -4541.109            0    2431.9801    18.002374    23.192598    21.958067    9167.9725    1772.1146    3559.0488    1964.7769    481.77424   -64.065633    91.980582   -4034.2747 
26752000    108.62986   -4549.2471   -4363.0593   -4549.2471            0     1912.214    18.038606    23.279398    21.885132    9190.1768    1069.0517    2726.4978    1941.0924    182.30203    174.23766    162.50741   -4106.7666 
26753000     105.2198   -4547.8334   -4367.4902   -4547.8334            0    1805.6347    18.026435    23.445917    21.767964    9200.1494    1546.3098     1765.057    2105.5373   -420.33563   -237.16048    84.563295   -4125.2197 
26754000    97.126407   -4545.2017   -4378.7303   -4545.2017            0    2650.0456    17.845865    23.459159    21.842647    9144.4021    3683.2651    1757.7817    2509.0899    351.97841   -265.08204    155.87517   -4025.3157 
26755000    111.11264   -4547.6402   -4357.1969   -4547.6402            0    1558.0372    17.976726    23.288491    21.968076    9196.9531    2946.2818    1491.7292    236.10048    118.35284     52.44295   -172.79222   -4148.2203 
26756000    108.84482   -4542.5821   -4356.0258   -4542.5821            0    688.85026    18.103286    23.238137    21.946007    9232.3921    435.84103    1013.9962    616.71358   -562.86073    37.495729    61.025609   -4263.2756 
26757000     108.4248    -4544.583   -4358.7466    -4544.583            0     2680.566    18.026197    23.100037    21.953912    9141.7369    2114.0907    3375.9141    2551.6933   -155.16119   -636.48712   -189.02094   -4001.3658 
26758000    109.46747    -4544.643   -4357.0195    -4544.643            0    2354.8559    17.937221    23.352229    21.866178    9159.1757    2221.6015    1713.7531    3129.2132   -552.32053    779.29226   -73.349286   -4042.4645 
26759000    112.83433    -4542.126   -4348.7318    -4542.126            0    2152.5259    17.967546    23.292668    21.910828    9169.9461     1740.152     1770.319    2947.1067   -81.998462   -140.86038   -86.401223   -4060.8654 
26760000    111.73527   -4551.2796   -4359.7692   -4551.2796            0    2508.0597    17.947017    23.308864    21.904084    9163.0168    3620.6272    2875.6262    1027.9256    35.590122    18.962132    194.24922   -4024.6091 
26761000    106.39576   -4547.2464   -4364.8877   -4547.2464            0    1499.2078    17.973175    23.330055    21.981306    9217.0948     1863.586    980.77237    1653.2649   -175.98289   -129.77195   -195.34921   -4163.3614 
26762000    112.45832    -4535.027   -4342.2773    -4535.027            0    1969.9682    17.958384    23.254638    22.019787    9195.8094    2111.7477    1841.8588     1956.298   -707.33483    553.40199    399.36233    -4078.082 
26763000    106.99851   -4534.0481   -4350.6563   -4534.0481            0     2506.288    17.853419    23.566933    21.760884    9155.8992    1284.0368    3077.2649    3157.5622    119.22482   -456.05734   -13.237487   -4015.9932 
26764000    106.58913   -4554.9848   -4372.2947   -4554.9848            0    1751.8669     17.97531    23.403978    21.872082    9201.4485    1285.5121    1242.1371    2727.9516   -471.03672   -103.06558    305.88654   -4137.2052 
26765000    108.90398   -4548.6858   -4362.0281   -4548.6858            0    2213.4662     18.01387     23.37207    21.832247     9191.844    2120.5534    1777.2687    2742.5765     640.9291   -291.85104   -244.75886    -4065.305 
26766000    111.24758   -4550.5124   -4359.8378   -4550.5124            0    1428.5552    17.870895    23.531018    21.873562    9198.2782    2429.2591    695.17978    1161.2266   -609.17531    725.47863   -185.14472   -4168.2008 
26767000    102.98432   -4534.6993   -4358.1877   -4534.6993            0     2600.069    17.966896    23.437606    21.755921    9161.4407    3146.7403    1624.4845     3028.982    6.0637481   -525.28563     344.6173   -4010.7919 
26768000    101.17231   -4547.7929   -4374.3871   -4547.7929            0    1565.5624    18.075907    23.309807     21.82092    9194.1552    849.91183    1626.2692    2220.5061   -65.868322    436.33512   -347.42039    -4164.465 
26769000     112.8062   -4555.1724   -4361.8264   -4555.1724            0    1396.8602    17.997239    23.338781     21.93139    9211.9207    1339.3017    1826.3475    1024.9316   -215.24228   -332.62925    717.38467   -4174.1632 
26770000      102.307    -4545.387   -4370.0363    -4545.387            0    1268.8197    17.917973    23.366468    21.951011    9190.4435    1879.1534    855.97866     1071.327   -228.34953   -318.48539    78.819036   -4199.9724 
26771000    107.27617   -4554.7851   -4370.9174   -4554.7851            0    2049.3768    17.973085    23.251761    21.974763    9183.3829    1051.8461    2549.5791    2546.7054    167.91589    165.35573    344.65721   -4096.4439 
26772000    111.15942   -4540.6651   -4350.1416   -4540.6651            0    3034.6392    18.088049    23.266436    21.680995     9124.326    1624.8353      3573.06    3906.0223    622.65182   -3.8968224   -264.54941   -3946.3254 
26773000    101.28732   -4545.2356   -4371.6326   -4545.2356            0    1971.8523    17.998472    23.347703    21.836986    9176.4032     1783.568    1842.0233    2289.9657   -278.23044    151.83168    678.82228   -4107.7427 
26774000    113.28699   -4531.8758   -4337.7057   -4531.8758            0    2498.7974    17.885841    23.340506    21.939712    9159.0528    2793.3383    2289.9897    2413.0641   -15.273174   -278.22067    653.11189   -4003.9279 
26775000    102.16029   -4536.0291   -4360.9299   -4536.0291            0     1655.344    18.033107    23.300072     21.90463    9203.7271    1351.7184    1802.0629    1812.2506    528.50033     413.8738   -171.18924   -4138.7382 
26776000    117.97259   -4552.7951   -4350.5941   -4552.7951            0    1955.6244    18.020186     23.29562    21.907616    9196.6286    1859.1213    2202.6108    1805.1411   -719.20583   -160.35669    70.865355   -4088.2991 
26777000    111.45293   -4543.6815    -4352.655   -4543.6815            0     2265.452    18.007736    23.247269    21.884696    9161.6053    1660.9306    2176.4138    2959.0115   -583.23348   -5.8183841   -38.819736    -4049.962 
26778000    102.49795   -4541.6628   -4365.9848   -4541.6628            0    1740.8806    17.932649    23.340516    21.955274    9189.5397    2228.8391    1412.9219    1580.8809    488.72102    45.737124    -463.5994    -4132.672 
26779000    101.65002    -4550.775   -4376.5503    -4550.775            0    1974.2232    17.915788    23.331896    21.977339    9186.7321      1224.77    3180.1848    1517.7147   -257.29658    243.59931    414.84923   -4112.0458 
26780000    110.72459   -4540.1898   -4350.4117   -4540.1898            0    2980.8699    17.904283    23.394876    21.816231    9138.1314    4172.3338    2843.5532    1926.7227   -118.87918    105.30001    -17.89397   -3953.1503 
26781000    110.62212   -4537.0846   -4347.4821   -4537.0846            0    2078.9499    18.016506    23.443244    21.761043    9191.1102    1748.7999     2760.544    1727.5058    58.234905    132.77453   -483.82543   -4068.8136 
26782000    108.17637   -4541.8704   -4356.4598   -4541.8704            0    2090.6914     17.95158    23.384215    21.845234    9170.2712    2326.0393    1900.8313    2045.2036   -262.08281    130.16202    496.58719   -4076.8528 
26783000    112.06468   -4553.0524   -4360.9773   -4553.0524            0    1787.9752    17.802641    23.362825    22.064092    9176.8969    2582.1081    1790.0864    991.73094     489.9177   -282.96145   -727.67246   -4121.6826 
26784000    107.79913   -4556.5722   -4371.8082   -4556.5722            0     2104.674    17.849053    23.350865    21.978983    9160.6384    1959.0965    1456.0459    2898.8797    287.01946    162.93632    89.548479   -4090.6269 
26785000    101.29619    -4552.613   -4378.9948    -4552.613            0    1096.0778    18.034715    23.219447    21.991594    9209.1142    903.31355    999.51236    1385.4074    369.15226   -261.64892   -386.30201   -4231.7856 
26786000    104.93734   -4550.9305   -4371.0715   -4550.9305            0    788.27266    18.070646    23.215716    21.959519    9212.5231    -430.8646    919.32055     1876.362    23.173439     -365.643   -19.055624    -4265.163 
26787000      110.037   -4544.8074   -4356.2077   -4544.8074            0    938.97281    17.963602    23.392703    21.938689    9219.0146    1174.5719    228.63781    1413.7087   -584.71793    146.88109   -193.54988    -4229.963 
26788000     110.4916   -4550.7345   -4361.3557   -4550.7345            0    2789.5633     17.85094    23.452839     21.81494    9132.9387     2576.553    2706.9227    3085.2142   -172.66114    398.82647    417.12485    -3989.801 
26789000    114.59919   -4555.9684   -4359.5493   -4555.9684            0    2052.8035    17.981476    23.252522    21.917685    9164.1058    875.55818    2997.3881    2285.4643    483.65841   -208.51449    304.09573    -4085.194 
26790000    108.60148   -4554.4848   -4368.3455   -4554.4848            0    1101.0095    17.918222    23.380749    22.007091    9219.6825    1421.9092     834.1895    1046.9297   -5.9562732   -179.17394     4.981465   -4220.3042 
26791000    101.15623   -4538.9138   -4365.5355   -4538.9138            0    1904.1514    17.922662    23.375094    21.912217    9179.9896    1113.4418    1573.3538    3025.6585   -680.78012    407.13332    43.516994   -4110.6063 
26792000    102.31269   -4539.5686   -4364.2082   -4539.5686            0    2654.5036    18.022512    23.120607    21.947894    9145.4993    2316.7651    3313.0066    2333.7391   -422.16206   -17.470762   -363.93648   -4010.1565 
26793000    106.23367   -4540.3043   -4358.2234   -4540.3043            0     1186.785    18.106648    23.293322    21.865497    9222.0792    884.64089    1161.7934    1513.9207   -313.87257   -283.80912    434.93534   -4198.6073 
26794000    107.13965   -4543.2407    -4359.607   -4543.2407            0    1684.1278    17.962423    23.376208      21.9376    9211.4516    1919.4545    957.15743    2175.7715   -184.43956   -106.05057    34.064193    -4133.362 
26795000    103.75468   -4558.2167   -4380.3848   -4558.2167            0    2096.8338    17.814584     23.14175    22.210527    9156.5263    2242.2651    2916.4947    1131.7417    556.67068   -63.152501    176.69827   -4100.3766 
26796000     112.3292   -4549.6999   -4357.1715   -4549.6999            0    1624.6207    17.899001    23.289919    22.071869    9201.0177    1680.2139    1616.2061    1577.4422    397.38072   -346.86585   -156.45178   -4139.1678 
26797000    110.47266   -4555.8392   -4366.4928   -4555.8392            0    2736.5355    17.958655    23.212607    21.933978    9143.5564    2239.9448    3692.7127     2276.949    526.67948   -88.148266    201.18301   -4001.5775 
26798000    108.36963   -4543.8585   -4358.1167   -4543.8585            0    1846.8801    18.081747    23.282915    21.839239    9194.2278    1314.5833    888.78517    3337.2719    9.9288291   -181.80386    -164.9758   -4110.4715 
26799000    116.03438   -4554.8429   -4355.9639   -4554.8429            0    2036.2576    17.915061    23.421132    21.919319    9197.1492    1869.9418    1979.6234    2259.2076    27.169766    312.68707   -64.281854   -4082.8387 
26800000    103.18808   -4544.5728    -4367.712   -4544.5728            0    2265.8441    17.884979    23.339623    21.965057    9168.8443    2334.7527    2201.1032    2261.6763   -114.23821    249.66248    156.98015   -4064.7274 
26801000    112.88156    -4548.383   -4354.9079    -4548.383            0    2276.6509      17.9481      23.2569    22.003909    9184.8095    2512.7587    2515.7843    1801.4097   -227.23874   -90.997616   -116.09248   -4049.9481 
26802000    113.89863   -4557.2013    -4361.983   -4557.2013            0     1823.386    18.003114    23.230068    21.970877    9188.5187    860.56792    2658.1989    1951.3912    635.44138   -538.48228    58.961692   -4117.6399 
26803000    107.34796   -4552.9214   -4368.9307   -4552.9214            0    2001.0324    18.007929    23.125461    22.026146    9172.6047    2468.0831    1572.2956    1962.7186   -36.368799    81.716321    238.13088   -4101.2465 
26804000    111.87364    -4546.852   -4355.1044    -4546.852            0    2363.3373    17.895887     23.32581    21.951919    9163.5228    1780.5108    2506.0708    2803.4303    422.79123   -183.68319   -485.78552   -4039.2666 
26805000    110.35068   -4552.5185   -4363.3812   -4552.5185            0    1278.9146    17.834619     23.44084    22.025396    9207.9031     1287.334    1163.0682    1386.3416    190.78018   -224.90517    76.436099   -4191.6385 
26806000    110.82103   -4536.1241   -4346.1806   -4536.1241            0    1870.2962    17.980552    23.272961    21.954926    9187.2735    2368.8343    1860.8689    1381.1854   -808.49057    576.17077    13.666415   -4095.5853 
26807000    107.50945   -4546.2568   -4361.9893   -4546.2568            0    1988.3631    18.112892    23.096805    21.986761    9198.1599    1678.8792    2505.4073    1780.8029    445.87742   -55.197303    640.41679   -4095.2589 
26808000    99.331731   -4531.1103   -4360.8591   -4531.1103            0      1861.56     17.98967    23.300554    21.960407    9205.1276    1450.5065    2109.6716     2024.502   -5.5366898    336.05706   -130.41451   -4110.9496 
26809000    112.97282   -4551.5568   -4357.9252   -4551.5568            0    3457.9053    17.893172    23.276481    21.874887    9110.6735    2175.3129    3779.0482    4419.3549    803.34965   -1.4394021    149.40816   -3898.4739 
26810000    98.911354   -4547.3911   -4377.8604   -4547.3911            0    1438.4911    17.859528    23.605709    21.843652    9208.9958    2112.3541    995.24958    1207.8695   -933.98846    123.63563    174.50891   -4184.6657 
26811000    103.75484   -4540.2209   -4362.3886   -4540.2209            0    1287.7896    17.922333    23.475575    21.934441    9228.6325    1683.0653    751.66962     1428.634   -632.42966    197.95202   -177.27694   -4189.0648 
26812000    105.30495   -4533.3224   -4352.8333   -4533.3224            0    2010.2982    17.966579    23.273828    21.947988    9177.5746    1419.0819    2446.0105    2165.8022    34.599161   -154.07533    64.720192   -4083.7639 
26813000    115.06344   -4541.2432   -4344.0284   -4541.2432            0    2472.3613    17.982503    23.392655    21.754577    9151.2476    3006.0676    1189.9535    3221.0629    176.98243   -805.09401     476.9875   -4014.0632 
26814000    108.33534   -4547.7697   -4362.0866   -4547.7697            0    2382.5628    17.935058    23.394461    21.784233    9140.2504    1802.5961    2295.6415    3049.4508     181.3639    162.60585    167.01843   -4044.4882 
26815000    101.41977   -4549.1899   -4375.3599   -4549.1899            0    1785.4265    17.961302    23.488749     21.77855    9188.1204      2163.02    849.21025    2344.0491   -269.00545    56.559805   -34.424495    -4136.114 
26816000    112.54858    -4543.726   -4350.8216    -4543.726            0    2609.1648    17.954111      23.3144    21.841232    9142.5065    2237.1651    2009.5451    3580.7843    634.56231   -790.15721   -110.36008    -4002.931 
26817000    102.57053   -4552.0483   -4376.2459   -4552.0483            0     1439.529    17.890803     23.48449    21.853409    9181.8493    1278.7354    699.45433    2340.3974    -448.2723    831.42734    494.82277   -4183.4816 
26818000     105.5355   -4547.8149   -4366.9306   -4547.8149            0    1562.0286    17.951891    23.468399    21.841931    9202.0524    1257.7157    1035.5416    2392.8286    37.936811   -279.48179   -618.79227   -4157.3025 
26819000     102.6434   -4555.3217   -4379.3944   -4555.3217            0    2967.2314    18.078825    23.293079    21.673256    9126.8572    2809.8768    2258.5012    3833.3162    252.14195   -302.61038   -174.43662   -3984.4385 
26820000    110.73574   -4553.4107   -4363.6134   -4553.4107            0    2416.6295    18.061926    23.255892    21.777946    9147.7434    1682.8933     2310.529    3256.4661   -171.74473    -191.1542    52.594016   -4041.2098 
26821000    102.94852   -4540.7726   -4364.3223   -4540.7726            0    1678.4502    18.027883    23.314259    21.842802    9180.6769    2341.3921    1421.2403    1272.7181   -270.33354   -215.24187   -36.116347   -4139.5934 
26822000    108.58852   -4526.1371   -4340.0201   -4526.1371            0    2229.2571    17.949458    23.324757    21.908147    9172.2128    2212.6383    2508.9669    1966.1661   -625.61853    176.95428    70.844758   -4041.8183 
26823000    102.75381   -4551.6549   -4375.5384   -4551.6549            0    2449.2179    17.872099    23.464894    21.834036    9156.4726    3330.3499    1231.0653    2786.2385    127.96148    77.963069   -230.61012   -4048.4754 
26824000    109.06535     -4553.56   -4366.6257     -4553.56            0    1533.4768    17.880353    23.598884    21.781338    9190.7746    1753.3883    1495.3475    1351.6947    740.86758    869.07421    97.393012   -4161.0815 
26825000    103.14498   -4541.9539   -4365.1669   -4541.9539            0    1525.9018    17.878861    23.402812    22.029308    9217.4063    1406.2505    1463.3461    1708.1089    528.06455    -449.6941   -375.85523   -4160.0454 
26826000    106.00799   -4547.0302   -4365.3362   -4547.0302            0    2591.0462    17.910954    23.275707    21.962092    9155.7792    3027.6017    2090.8943    2654.6424    372.44291   -22.498053    926.43815   -4019.3598 
26827000    110.81186    -4562.745   -4372.8173    -4562.745            0    1474.9577    17.972436    23.377096    21.947166     9220.956    613.91278    2468.7698    1342.1904   -442.93657   -236.18472    428.03124   -4174.4677 
26828000    112.13664   -4538.4199   -4346.2215   -4538.4199            0    1248.6929    17.882486    23.575824    21.846813    9210.4927    1962.0873    815.64967    968.34156   -114.49619   -51.743974    88.500721   -4178.4901 
26829000    111.61817   -4556.2192   -4364.9095   -4556.2192            0     1947.672     17.90683    23.349344    21.927978    9168.3668    2393.1136    1825.2256    1624.6768     44.28709    -207.0665     464.8732   -4104.4839 
26830000    112.64664   -4540.2259   -4347.1534   -4540.2259            0    1323.5911    17.924426    23.240178    22.094668    9203.9064    1108.5874     1005.381     1856.805    372.99312   -208.69696    463.53885   -4169.4884 
26831000       101.56   -4535.2735   -4361.2031   -4535.2735            0    2169.6999    17.895433     23.33689    21.980347    9179.5151     2528.542    2264.3513    1716.2064   -706.16716    103.64153   -526.58455   -4070.7371 
26832000    108.91761   -4556.9213   -4370.2402   -4556.9213            0    2655.2416    17.838546     23.48437    21.852011    9154.3979    3430.3006    1695.4267    2839.9976   -443.63931   -52.554248   -196.06457   -4015.7456 
26833000    99.630509   -4544.5552   -4373.7919   -4544.5552            0    2133.2175    17.957107    23.302456    21.909592    9167.9526    1479.6642    1701.8387    3218.1496   -243.79274   -599.35512    -323.4028   -4088.5697 
26834000    112.92024   -4538.0228   -4344.4814   -4538.0228            0    2368.7965    17.990298    23.217357    21.943889     9165.681    2553.2725    2283.5893    2269.5277   -107.12053    236.06302    3.1476718   -4027.8395 
26835000    108.67194   -4548.1389   -4361.8789   -4548.1389            0    2253.2868    17.936882    23.181573    22.080697    9181.2673     2774.237    1855.0022    2130.6213    9.7931916    509.57585   -534.86452   -4060.1652 
26836000    112.08865   -4553.4346   -4361.3185   -4553.4346            0    2818.2356    17.861174    23.393048    21.908717    9154.0599    2957.8383    1887.9976    3608.8708   -566.09609    52.959304    24.104246   -3985.0768 
26837000    103.68972   -4545.3595   -4367.6389   -4545.3595            0    1775.5553    17.767148    23.535473    21.949971    9178.5614    2419.4658    806.87287    2100.3273   -691.23206   -93.067767    28.931829   -4129.9632 
26838000    109.05746   -4538.5344   -4351.6136   -4538.5344            0    1493.2022    17.959799    23.369053    21.978546    9224.4727    2248.5866    974.12859    1256.8914   -760.51221   -208.70152    113.03657   -4150.7339 
26839000    104.99658   -4554.0575   -4374.0969   -4554.0575            0    1749.3177    18.043722    23.346062    21.841101    9200.5602    2461.7157    419.07583    2367.1615    455.13671     238.6149    -339.3598   -4139.3722 
26840000    109.07692   -4547.0655   -4360.1114   -4547.0655            0    2096.4059    17.843567    23.420876    21.954478    9175.0388    1975.7656    1555.0896    2758.3623   -9.6466464     184.5197   -6.0481263   -4079.5944 
26841000    105.20013    -4556.028   -4375.7186    -4556.028            0    2593.3604    17.860842    23.410081    21.903276    9158.2801    3923.9513     1933.243    1922.8869    573.73976    105.26712   -116.99035   -4029.3387 
26842000     113.2215   -4547.5324   -4353.4747   -4547.5324            0    1639.5765    18.041523    23.324937    21.851486    9195.4857     1590.598    1698.8405    1629.2909    149.24005    134.38038    195.81417   -4133.5964 
26843000    105.88953   -4552.3059   -4370.8148   -4552.3059            0    2240.3656    17.992685    23.329413    21.837698    9166.5653    1502.8571    3677.1995    1541.0402      833.046    50.767684    491.89314   -4071.3117 
26844000    109.17106   -4552.0441   -4364.9286   -4552.0441            0    1625.7121    18.056131    23.263272      21.8651     9184.319    1200.6131    2783.7284    892.79479   -217.25977   -101.03714    600.41337   -4147.1744 
26845000    103.15745   -4544.5805   -4367.7722   -4544.5805            0    1507.6596    17.935658     23.50319    21.790023    9185.4793    1805.2198     953.2422    1764.5168   -988.94728    376.09807     141.2489   -4165.8049 
26846000    110.32865   -4542.2766    -4353.177   -4542.2766            0     2859.829    17.921901    23.360844    21.882101    9161.3954    2963.9427    3013.0288    2602.5156    834.98164   -121.93536   -116.74721   -3971.0766 
26847000    108.56176   -4546.5354   -4360.4643   -4546.5354            0    1940.9895    18.031843    23.304072    21.881799    9195.0685    1665.4818    2682.9667    1474.5199   -311.63264    -214.3469   -234.67809   -4100.1764 
26848000    102.67287   -4550.3217    -4374.344   -4550.3217            0     1876.824    17.979082    23.244201    21.961981    9178.1181    2143.1729    1798.7785    1688.5207    419.43434    670.22227    618.03614   -4123.1246 
26849000    111.94484   -4550.9635   -4359.0938   -4550.9635            0    1628.9749    17.953392    23.311543    21.947306    9185.4148    1819.1418    1572.5357     1495.247    73.161237   -308.14024   -345.62238   -4140.8766 
26850000    103.92046   -4549.5719   -4371.4558   -4549.5719            0    2733.4871    17.971033    23.292133    21.771916    9113.3692    1795.3796    2717.3159    3687.7657    10.629882   -203.72134    480.95077   -4008.1504 
26851000    107.23932   -4561.1319   -4377.3274   -4561.1319            0    2050.0101    18.064406    23.322076    21.748066    9162.4481    908.06468    1726.5301    3515.4355    95.018995    366.95508   -368.51313   -4103.3949 
26852000    114.54582   -4552.3443   -4356.0166   -4552.3443            0    2206.0948    17.977951    23.301622    21.951259    9195.7209    2695.5731     2349.027    1573.6842    188.03689     114.8388    40.867095   -4060.1569 
26853000     106.8738   -4539.5693   -4356.3913   -4539.5693            0    2169.4924    17.840815    23.352812    21.989529    9161.5677    2670.7077    2501.5605    1336.2091   -89.455469     228.1957   -471.22521   -4066.5209 
26854000    109.09142   -4552.0753   -4365.0964   -4552.0753            0    1976.8784    17.929611    23.315399    22.011119    9201.4409    1740.2529     2636.365    1554.0174   -362.03686   -494.17262    186.52193    -4099.812 
26855000    112.30181   -4545.7005   -4353.2191   -4545.7005            0    2717.5779    18.014866    23.158327     21.94826    9156.6859    3387.1692    2947.9525    1817.6118   -451.50961   -408.95679    237.89904   -3990.3113 
26856000    103.54569   -4551.3022   -4373.8285   -4551.3022            0    1931.3495    17.965306    23.306408    21.908102    9173.0701    2163.3262    1575.9625    2054.7599    79.214362    31.060276    502.26792   -4115.4529 
26857000    107.98115   -4555.8637   -4370.7877   -4555.8637            0    1473.9467     17.82536    23.434612    22.037102    9205.5671    1537.1255    752.04143    2132.6731    615.39765   -739.41565   -133.20179   -4172.9048 
26858000    106.36521    -4546.347   -4364.0407    -4546.347            0    1532.6144    17.780264    23.372707     22.12696    9195.3651    2387.2591    1137.2841    1073.3001    578.70818    96.329253    422.34297   -4158.5095 
26859000    111.99996   -4558.1369   -4366.1728   -4558.1369            0    2132.9289    17.957369    23.244042    21.942285    9158.7502    2394.4164    1939.3579    2065.0125    107.86253   -96.844162     492.1371   -4081.2754 
26860000    103.68732   -4543.9997   -4366.2832   -4543.9997            0    2006.6816    18.065735    23.318315     21.80635    9186.1976    1908.1961    1136.1165    2975.7322    311.55947   -70.156595   -116.50009   -4097.4455 
26861000    109.56284   -4546.4486   -4358.6617   -4546.4486            0    1673.9835    17.944944    23.439123    21.876143     9201.406    2124.9181    1215.6237    1681.4087   -1015.7386   -654.57076   -148.87058   -4134.0247 
26862000    112.20234   -4557.3966   -4365.0857   -4557.3966            0    1287.4486    17.827948    23.321321    22.154732    9211.3016    3312.5513    637.86077   -88.066185   -789.66172   -134.13642    348.15385   -4192.1332 
26863000    106.43263   -4550.6446   -4368.2227   -4550.6446            0    942.82007    17.863806    23.427057    22.060283     9232.149    1532.1278    891.50717    404.82522   -346.18867   -353.05258   -241.99708   -4241.2801 
26864000    111.46845    -4540.839   -4349.7859    -4540.839            0    1327.8879    17.922636    23.355214    22.063104    9235.3282    2777.3193    1647.4356    -441.0913   -412.15248     161.4384    58.362848   -4170.9356 
26865000    104.58443   -4529.2931    -4350.039   -4529.2931            0    2128.5263    17.941637    23.241841    22.028494    9185.8083    2122.7558    1004.1144    3258.7088   -91.348905    97.611755    723.56204   -4064.8897 
26866000     102.0248   -4544.0846   -4369.2176   -4544.0846            0    2627.7187    18.043503    23.216825    21.890586    9170.2479    1913.9363    2445.0227    3524.1971    335.89167   -181.34612   -58.948154     -4017.79 
26867000    104.28611   -4554.0717   -4375.3289   -4554.0717            0    2576.6633    18.086344    23.196407    21.818158    9153.5509    2808.9843    2573.9074    2347.0982   -583.33979   -193.33467    480.06014   -4031.3568 
26868000    105.20231   -4553.1349   -4372.8218   -4553.1349            0    2347.6949    17.927228    23.300206    21.920784    9156.4887    1604.0938     2954.225    2484.7658    374.29678    152.51423   -186.23439   -4059.3153 
26869000    107.39092   -4539.9399   -4355.8755   -4539.9399            0    1644.5555    17.907895    23.399175    21.956782    9200.5499    1507.7048    1609.7867    1816.1751    306.00751   -608.24936    391.86373   -4135.2081 
26870000     106.6897   -4554.2672   -4371.4047   -4554.2672            0    1408.2978    17.905708    23.537226    21.907219    9232.8128    1974.4881    494.30496    1756.1004   -630.05494    242.74247   -579.20365   -4181.7759 
26871000    106.52872   -4550.0079   -4367.4214   -4550.0079            0    2189.1559    17.858582    23.376651    22.015061    9190.7121    2397.2263    2193.0501    1977.1912    865.17688    250.31981    94.829111   -4073.9932 
26872000    113.14566     -4544.21   -4350.2822     -4544.21            0    2326.2661    17.975608     23.27135      21.9137     9166.866    1605.5722    2496.2111    2877.0149    383.67623     207.5033    389.81402   -4039.2852 
26873000    105.14518   -4557.6853     -4377.47   -4557.6853            0    1510.6718    17.967314    23.408983    21.873775    9200.0344    353.14504    1806.7491    2372.1212   -442.54598   -50.795678   -107.71165   -4174.7786 
26874000    105.84638    -4533.823    -4352.406    -4533.823            0    2775.7854    17.899139    23.420862     21.78407    9132.1713    2128.8386    3474.0976    2724.4202    693.24524    49.520708   -698.56525   -3982.7176 
26875000    110.55883   -4538.4371    -4348.943   -4538.4371            0    2746.3582    18.044515    23.377297    21.764948    9181.1511    2062.2857    3270.9823    2905.8068    579.87888   -182.73212     910.4629   -3981.2121 
26876000    108.69178   -4548.7299   -4362.4359   -4548.7299            0    2507.1278     18.02556    23.178849    21.964542    9177.0435    2089.0916    3280.7257     2151.566    -204.4833    339.87991    175.71039   -4026.8875 
26877000    114.41177    -4556.826   -4360.7282    -4556.826            0     2791.429    17.831058    23.485986    21.836265    9144.5906    2742.7177    3091.6929    2539.8763   -494.09632    76.722159    524.01802   -3988.4507 
26878000    107.03796   -4546.4117   -4362.9523   -4546.4117            0    1631.8267    17.901684    23.484562    21.885632    9201.0084    2205.5889    1480.0445    1209.8467    242.77473   -649.69232   -454.99273   -4143.9819 
26879000    110.40872   -4540.9026   -4351.6658   -4540.9026            0    1419.6373    17.952062    23.416665    21.904149    9208.0101    1774.9738    879.39733    1604.5408    -1172.534   -75.190942    957.44775   -4161.0236 
26880000    106.59913    -4555.698   -4372.9908    -4555.698            0     1825.782    17.942858     23.35289    21.932849    9190.2494    1649.7453    1704.5309    2123.0697   -236.72665    430.10897   -718.05263   -4128.2805 
26881000    107.57967   -4558.0529   -4373.6651   -4558.0529            0    1833.9824    17.863222    23.366983    21.946931    9160.8596     2218.848    1799.3344    1483.7647    469.45821    35.470573    615.73902   -4128.6418 
26882000    111.13613   -4541.4013   -4350.9177   -4541.4013            0    2176.1535    17.936761    23.441898    21.801649    9166.9773    1623.3737    1829.0272    3076.0597   -246.42154   -69.979447    290.44722   -4059.9857 
26883000    101.80685   -4542.0512   -4367.5577   -4542.0512            0    2208.6548    18.042975    23.252504    21.798533    9145.4517    1453.6691    3330.5722    1841.7232   -340.26407    776.25214   -61.624921   -4072.9739 
26884000    105.64386   -4554.8388   -4373.7688   -4554.8388            0     2042.874     17.98159    23.301185    21.939737    9192.5823    1446.3052    2298.4395    2383.8772   -304.13582   -328.44833    520.49575   -4099.8922 
26885000    101.28755   -4552.0441   -4378.4407   -4552.0441            0    1800.6935    17.945327    23.274603    21.957778    9171.1128    1700.6087    1891.3642    1810.1076   -724.15865   -3.8057562     261.6933   -4137.5957 
26886000    113.35086    -4558.968   -4364.6885    -4558.968            0    1884.6601    17.880587     23.35308    21.944716    9163.3842    2731.0666    1484.8497    1438.0641    464.15797    27.762443   -68.253543   -4112.8253 
26887000     100.3082   -4544.5953   -4372.6705   -4544.5953            0    1147.4994    18.088711    23.290431    21.885917    9220.4027    1376.5848    1982.4915    83.422079   -669.95837   -13.377358   -42.507832   -4218.3661 
26888000    103.53037   -4537.7761   -4360.3286   -4537.7761            0    2608.9877    18.019672    23.164221    21.948406    9161.5209     1979.039    3135.4917    2712.4323     556.3684   -1052.5335    78.919783   -4011.7382 
26889000    102.79673   -4557.9583   -4381.7682   -4557.9583            0    2783.5471     17.90614    23.215774    21.992146     9142.243    3232.3311    2937.2328    2181.0775   -90.501648   -290.45554   -73.729466   -4010.6372 
26890000    109.86394   -4552.6482   -4364.3451   -4552.6482            0    2482.8479    17.820664    23.375948    21.961487    9148.6044    3412.6441    2285.7067    1750.1927   -164.98619   -406.13619    62.642125   -4033.0761 
26891000    108.07659   -4562.2622   -4377.0226   -4562.2622            0    1587.5464      17.8492    23.401036    21.989516    9184.7958    1740.7787    896.73931    2125.1211   -424.11617    46.014073   -250.35524   -4164.3695 
26892000    108.33347    -4556.722   -4371.0422    -4556.722            0    1990.7785    17.989984    23.242772    21.882831    9150.0236    2535.1996    654.42326    2782.7128     52.99865    165.25912    -103.3338   -4105.3853 
26893000      106.402   -4554.1762   -4371.8068   -4554.1762            0    1904.1118     17.98372    23.317559    21.907202    9186.4883    1266.1029    2358.9127    2087.3199    119.36988     182.9493   -151.64144   -4116.7025 
26894000     103.2321   -4542.7259   -4365.7896   -4542.7259            0    2238.2589    17.958217    23.292574    21.960223    9185.8095    1440.9954    3000.6554    2273.1259   -407.70098   -274.91447    263.99243   -4065.9399 
26895000     112.5747   -4544.9131   -4351.9639   -4544.9131            0    1378.7361    18.201338    23.077032    21.939877    9215.4697    412.87447     1791.728    1931.6058   -944.14449    140.47304   -305.81818   -4166.6643 
26896000    107.54709   -4553.4633   -4369.1313   -4553.4633            0    1848.0127    18.048345    23.263037    21.856413    9176.6187    2227.7741    1598.3033    1717.9607    321.32934   -349.12254    128.19804   -4121.8088 
26897000    99.647486   -4546.8559   -4376.0635   -4546.8559            0    2245.0524    17.977542    23.354014    21.799567    9152.4996    1702.9664    3651.3799    1380.8108    377.74795    115.70805   -473.67433   -4076.3943 
26898000    104.67957    -4559.686   -4380.2688    -4559.686            0    675.70406    18.054612    23.366473     21.86888    9225.8814    406.91764    891.44174    728.75279    151.76003    483.46909    179.65212   -4289.3528 
26899000    112.57734   -4542.3424   -4349.3887   -4542.3424            0     2154.332    17.940169    23.330494    21.903107    9167.6112    2758.4007    1615.9609    2088.6343    607.48138   -348.38167    33.676922    -4061.354 
26900000    104.85146   -4550.2636   -4370.5518   -4550.2636            0    1911.6136    17.971959    23.304628    21.959411    9197.2563    1877.3418    1576.0715    2281.4275   -421.32968   -78.260082    -521.7087   -4114.1422 
26901000    105.79542   -4533.6439   -4352.3142   -4533.6439            0    1889.2124    18.163818    23.115342    21.864901    9180.2599    1644.8874    2770.8682    1251.8817   -197.16503    62.139696    519.49355   -4099.3776 
26902000    101.92869   -4552.3431   -4377.6408   -4552.3431            0    1280.6685    18.070648    23.286757    21.858694    9198.2866    398.07369     2592.164    851.76776   -577.53137    175.10784   -89.169038   -4205.8423 
26903000    106.08093   -4543.4805   -4361.6614   -4543.4805            0    2291.6009    17.955525    23.456182    21.774315    9170.6459    1559.3029    2226.0134    3089.4864    193.07098   -81.591822   -140.05922   -4055.1725 
26904000    98.337108   -4542.5226   -4373.9761   -4542.5226            0    2102.8651     18.00374    23.314501     21.89681     9191.147    2529.6901    1781.6498    1997.2555   -35.794921    112.33427   -93.650854   -4092.1008 
26905000    106.76711   -4546.3421    -4363.347   -4546.3421            0    2360.3922     18.12859    23.164592    21.802444    9155.7489    1697.7836    1826.1584    3557.2345  -0.61494657   -159.03396     106.1995   -4048.1704 
26906000    103.28066   -4561.4366   -4384.4171   -4561.4366            0    2042.5454    18.010295    23.294978    21.892737    9185.0858    1597.4503    2910.9494    1619.2364   -203.76852   -412.99826    243.74286   -4110.8078 
26907000    104.63014   -4548.4962   -4369.1637   -4548.4962            0    2680.0784    17.900012    23.414463    21.804782    9138.8022    2555.5969    2864.5042    2620.1342     254.8493   -107.92477    -306.6931   -4011.9627 
26908000    104.99594   -4550.2137   -4370.2542   -4550.2137            0    2303.0442    17.851338    23.599907    21.766056      9169.82    3364.5791    756.70914    2787.8443    213.34909   -118.00998    99.012477   -4062.2626 
26909000     110.3212   -4554.7181   -4365.6314   -4554.7181            0     2331.319    17.936064    23.467943    21.762493    9160.3234    2155.6594    2193.7385    2644.5591   -146.70265    140.30615    -376.5081   -4054.1813 
26910000    113.19915   -4546.9838   -4352.9644   -4546.9838            0     1979.333    18.141828    23.177891    21.883217     9201.659    1810.0527    2109.3851    2018.5613    213.78894     399.4898    92.045093   -4087.3443 
26911000    104.93288   -4558.8903    -4379.039   -4558.8903            0    1448.4703    18.078101    23.257764    21.908442    9211.5401    914.64988    2150.4096    1280.3515   -226.54786   -164.11932   -273.43491   -4184.4502 
26912000    105.32606    -4548.923   -4368.3977    -4548.923            0    2311.4939    17.941082     23.35226    21.889295    9170.8443    2497.1504    2351.7754     2085.556   -56.048855    297.88253    455.12098   -4059.2415 
26913000    108.25811   -4546.7499   -4361.1992   -4546.7499            0    2031.7308    17.993224     23.34109    21.845084    9174.5305    1567.7148    1935.0842    2592.3935   -48.252851   -129.91121   -138.64236   -4089.3513 
26914000    109.53593   -4558.0013   -4370.2605   -4558.0013            0    1309.9491      18.0664    23.298025    21.876903    9208.2391    10.756184    1840.3872     2078.704   -46.744987    335.23895    310.69801   -4194.3438 
26915000    103.03644   -4541.8845   -4365.2835   -4541.8845            0    1967.0266    18.043909    23.309611    21.894967    9208.9466    1677.2999    2473.9244    1749.8554   -81.937441    29.228603    110.36308   -4101.1059 
26916000    112.58224   -4551.0846   -4358.1225   -4551.0846            0    2658.4807    17.992491    23.273612    21.863071    9155.1666    2473.3906    2827.4965    2674.5551   -440.17113   -152.11816   -343.47566   -4003.1656 
26917000    102.78713   -4552.8186    -4376.645   -4552.8186            0    2113.0167    18.080689     23.33107    21.743458       9172.3    1584.1535    1766.4532    2988.4434    40.110736    86.331634    181.14132   -4093.9897 
26918000     112.4161   -4539.8071   -4347.1297   -4539.8071            0    1641.2675    17.951209    23.437882    21.897227    9213.0024    1766.1643    420.83754    2736.8007   -135.88042   -163.77567    172.32167   -4126.6054 
26919000    109.71149   -4538.5883   -4350.5466   -4538.5883            0    2022.0441    17.815011    23.502865    21.921588    9178.6524    1060.2651    1945.9286    3059.9386   -129.00296    137.52268    98.687409   -4079.8732 
26920000    103.76814   -4539.9733   -4362.1183   -4539.9733            0    2895.4128    17.985518    23.272796    21.783173    9117.8547    2981.7004    2196.8652    3507.6726    737.19092   -636.30656    411.30969    -3977.102 
26921000    102.81443   -4541.8177   -4365.5973   -4541.8177            0    2088.0852    18.108117    23.252684    21.808462    9182.7219    1758.8953    2766.5511    1738.8091   -1090.6189    463.14094    -336.6085   -4085.9597 
26922000    105.63612   -4550.7645   -4369.7078   -4550.7645            0     1870.317    17.879952    23.594189    21.825508    9207.3736     1439.482    1589.5048    2581.9642    268.99058   -19.710954   -545.02038   -4118.5614 
26923000    100.43891   -4542.8888   -4370.7399   -4542.8888            0    2062.3268    17.833346    23.583067     21.87902    9201.5499    2111.2689    858.79083    3216.9207   -998.16502    163.35553   -294.85507   -4093.9856 
26924000    106.43819   -4555.0198   -4372.5883   -4555.0198            0    1590.4807    17.939424    23.461909    21.834489    9189.9869    1245.4855    1130.3082    2395.6485   -161.21434   -114.35121   -306.92818   -4159.4217 
26925000    112.51756   -4550.8605   -4358.0092   -4550.8605            0    2333.6955     17.96686    23.268925    21.931938    9169.0748    3074.3717    2297.6507     1629.064   -319.92731    -730.3601   -218.45884   -4045.9438 
26926000    105.18171   -4551.1422   -4370.8644   -4551.1422            0    1243.2679    17.977855    23.245639    22.104212    9237.4989    1541.8359    1921.7682    266.19957   -302.43277   -493.18125    489.96774    -4203.372 
26927000        114.9   -4549.1553   -4352.2206   -4549.1553            0    1867.4736    18.028904    23.208053    21.950977    9184.6347     1502.937    2138.6083    1960.8754    361.05617   -495.48727    22.577641   -4102.0754 
26928000    103.38592   -4529.0678   -4351.8679   -4529.0678            0    1971.1178    18.042804    23.077937    22.068614    9189.1658    1569.2107    2988.7114    1355.4313    484.39537    400.51693   -178.27063   -4087.7094 
26929000    108.33173   -4551.8093   -4366.1324   -4551.8093            0    2220.0687    17.945963    23.259881    21.991797    9179.8373    2130.7303    2681.1535    1848.3222   -55.424362   -512.09459    472.80427   -4068.9129 
26930000    107.72302   -4551.4839   -4366.8504   -4551.4839            0    2714.9711    17.761848    23.498577     21.90046    9140.7733    3850.2168    2245.1413    2049.5552   -878.51558    485.22973   -66.677921   -4004.9208 
26931000     102.2912    -4537.546   -4362.2224    -4537.546            0    1785.4819      17.8872     23.47444    21.957933    9219.9604    2359.3681    1671.3449    1325.7326    210.33381    -204.6166     164.5345     -4122.14 
26932000    112.35148   -4539.5315    -4346.965   -4539.5315            0    2312.6547    18.030857    23.185519    21.950785    9176.6304    2044.4514     2278.086    2615.4267    27.298108   -102.96534   -11.520744   -4037.4583 
26933000    107.83116   -4556.5039    -4371.685   -4556.5039            0    1948.5374     18.02076    23.163381    21.956991    9165.3247    2058.0332    2397.6311    1389.9478   -1185.9552    329.67624   -802.08647   -4111.2301 
26934000    107.70297   -4559.2845   -4374.6853   -4559.2845            0    1975.0233    18.064803    23.214206    21.897682    9183.0132    1555.2353     2178.631    2191.2036    327.72848   -337.05226     670.2212   -4110.1806 
26935000     109.3747   -4541.7776   -4354.3131   -4541.7776            0    2084.6183    17.839639    23.336518    21.973564    9147.9255    2443.9467    2295.3659    1514.5424   -389.91327    259.91037    31.013019   -4076.1977 
26936000    107.91211   -4538.9944   -4354.0368   -4538.9944            0     1443.005    17.963584    23.426498    21.852123    9195.8952    1424.1439    966.94738    1937.9237    693.82238    73.320424    663.42158   -4160.5115 
26937000    105.24828   -4551.7706   -4371.3787   -4551.7706            0    1988.8918    17.870167    23.442792    21.862154    9158.6379    1995.8505    1170.9859    2799.8391    415.46372   -41.384128   -800.50725   -4105.7237 
26938000    106.31544   -4533.3055   -4351.0844   -4533.3055            0    1607.4167    17.957007    23.470995    21.821387    9197.0341     1121.204    1634.5396    2066.5065   -181.13884   -140.17746   -145.58145   -4135.4828 
26939000    104.82722   -4556.5048   -4376.8345   -4556.5048            0    1227.1036    18.046741    23.429254    21.739418    9191.8973    1066.2492    333.96449    2281.0971    114.82022   -34.148526   -331.97468   -4212.3359 
26940000    112.37317   -4537.3348    -4344.731   -4537.3348            0    3180.4047    17.938398    23.288437    21.777951    9097.8971    3619.9199    3435.2339    2486.0602    748.44968    346.72607    76.327092   -3922.7438 
26941000    105.39997   -4539.9211   -4359.2692   -4539.9211            0    1991.3757    17.896481    23.155558    22.097976    9157.4675    1593.8795    3159.6372    1220.6103    806.10664    39.710652      304.508   -4093.3164 
26942000    107.75372   -4542.1384   -4357.4522   -4542.1384            0    2521.4995     17.86592    23.286184    21.997844    9151.7432    3040.0203     2341.105    2183.3733   -328.98379   -317.28856    -490.8639   -4020.9108 
26943000    108.03301   -4546.2258   -4361.0609   -4546.2258            0    1986.7987    17.932674    23.272495       21.996    9179.7683    3862.2305     1238.706    859.45967    67.031649    43.643593    270.49302   -4095.0733 
26944000     106.4817    -4534.844    -4352.338    -4534.844            0    1624.5969    17.936986    23.231806    22.052017    9189.2649    1691.8277    2163.1347    1018.8284    -876.5836   -270.71386   -382.07529    -4134.616 
26945000    105.18219   -4547.3235   -4367.0448   -4547.3235            0    1357.7731    17.904119     23.30638    22.032684    9193.8029    566.31226    919.69987    2587.3071    211.74839    1045.1236   -1.2823328   -4184.9916 
26946000     107.5308   -4547.1575   -4362.8534   -4547.1575            0    2159.2329    17.922919    23.289755    21.894245    9139.1042    1739.7955    2818.3217    1919.5814   -598.26709    447.65739    -509.0758   -4075.0612 
26947000    102.29399   -4537.3492   -4362.0208   -4537.3492            0    2222.6379    18.046635    23.217209    21.884666    9169.5108    3170.3206    2188.5333    1309.0599    201.38846   -37.597294   -393.64088   -4064.7921 
26948000    110.08016   -4548.9405   -4360.2668   -4548.9405            0    2062.8461    17.957505    23.255651     21.94464    9164.3772    2672.0931    1581.1031    1935.3421   -1035.0077   -315.23876   -284.22696   -4084.5612 
26949000    113.20044   -4545.1625   -4351.1408   -4545.1625            0     2552.128    18.089241    23.087893    21.914266    9152.3277    1607.4562    2761.2147    3287.7129    577.34248    506.80745    349.70455   -4010.4896 
26950000     106.4745    -4546.163   -4363.6694    -4546.163            0    2210.1838    17.954921    23.240739    21.955396    9161.6711    1092.1408     2982.924    2555.4865   -1.3584833   -122.18866   -729.57216   -4068.3588 
26951000    102.57352   -4538.7927   -4362.9852   -4538.7927            0    1779.1176    17.991535    23.285582    21.901886    9175.6497     1341.385    2004.1643    1991.8034   -1330.2139   -190.46308    144.10928   -4124.9082 
26952000    107.77647   -4544.9349   -4360.2097   -4544.9349            0    2863.6333     17.92721    23.421077    21.755284    9134.4906    3147.6472    2026.8035    3416.4493   -224.43311    24.286406   -61.623042   -3978.7246 
26953000    103.12869   -4547.2335   -4370.4745   -4547.2335            0    2939.0055    17.920462    23.345413    21.840183    9137.0721    3160.2145    2160.6936    3496.1083   -373.33431   -105.68122     234.5887   -3978.8378 
26954000    103.76423   -4551.7741   -4373.9258   -4551.7741            0    2532.5949    18.031637    23.321787    21.772435    9155.9622    2028.5271    2606.8409    2962.4166   -272.08742   -310.82034   -140.97024   -4035.7476 
26955000    102.68624   -4552.9179   -4376.9172   -4552.9179            0    1301.9035    17.999778    23.326626    21.922536    9204.7045    1504.5663    563.23803    1837.9061   -425.98171   -165.54334    224.80408   -4202.1482 
26956000     105.7774   -4554.1391   -4372.8403   -4554.1391            0     673.3408     18.02308    23.305695    21.938964    9215.2512    528.12911    1042.8267    449.06662   -153.52081    284.90514    337.46805   -4282.3467 
26957000     103.0029   -4541.2263   -4364.6828   -4541.2263            0    2684.8273    17.888988    23.309824    21.911977    9137.0569    2110.2516    1728.4828    4215.7473   -603.35453    -522.5935   -43.778282   -4006.9172 
26958000    105.97666   -4536.7552   -4355.1149   -4536.7552            0    2973.9222    17.842618    23.393088    21.876224     9131.003    3856.5116    2138.8424    2926.4126    451.54205    81.081663   -264.53065   -3959.0886 
26959000    105.45517   -4543.3911   -4362.6446   -4543.3911            0     2103.258    17.903393    23.367563    21.914557    9168.1448     1501.338    2171.4246    2637.0115   -691.90128   -239.88078    155.37603   -4081.4222 
26960000    111.47748   -4543.7898   -4352.7212   -4543.7898            0    2059.9709    17.806972    23.408868    22.004544    9172.3973    2770.9303    2070.2512    1338.7312    380.38502   -77.587009   -230.02265   -4077.1589 
26961000    109.93939   -4555.3452   -4366.9128   -4555.3452            0    2904.9154    17.913062    23.252236    21.913366    9127.3276    2475.8051    2912.6416    3326.2994   -194.75877    126.40351   -214.05601   -3980.2317 
26962000    107.59296   -4546.4042   -4361.9936   -4546.4042            0    1686.8041    18.092459    23.246914    21.876728    9201.2172    1094.8835    986.11564    2979.4132   -841.16624    196.51048   -197.53081   -4135.6408 
26963000    109.30585   -4545.5447   -4358.1982   -4545.5447            0    2113.3262    18.012399    23.101824    22.059137     9179.232    1408.7129    2817.9379    2113.3278     586.9495    -140.8077    207.35152   -4075.2879 
26964000     109.1311   -4552.8793   -4365.8324   -4552.8793            0    2505.8503    17.974401    23.232537    21.932767    9158.9246    1623.4155    2247.1301    3647.0052   -708.36504   -33.809186    64.703162   -4031.1171 
26965000    100.31846    -4558.726   -4386.7836    -4558.726            0    1538.2539    17.949647    23.196008    22.088051    9196.5842    1154.6592    1958.7722    1501.3304    284.63344   -187.99553    4.2372282   -4180.4687 
26966000    103.38565   -4544.4571   -4367.2577   -4544.4571            0    2582.8963    17.806546    23.130809    22.214901    9149.8691    2582.4304    3262.6073    1903.6512   -758.31557     -15.2292    724.07105   -4022.5922 
26967000    106.78869   -4557.4913   -4374.4591   -4557.4913            0    2428.3642    17.877765    23.296705    21.963885    9147.8047    2183.9246     3080.423     2020.745    93.990397   -310.27383    50.964141   -4050.4878 
26968000    111.04725    -4551.233   -4360.9018    -4551.233            0    1920.4647    17.908845    23.349143    22.014356    9205.4392    1147.5648     2455.916    2157.9134     129.9406   -100.95367   -96.724226   -4103.0758 
26969000    104.91677   -4538.3988   -4358.5751   -4538.3988            0    1974.6011     17.73365    23.463449    22.112221    9200.7312    3181.6327    1439.6454    1302.5253    331.00826    505.50013    42.024206   -4093.6167 
26970000    104.69459   -4554.3432   -4374.9003   -4554.3432            0     2083.163    17.860638    23.293522    22.072635    9183.0365    2099.6008    2126.4141    2023.4742    324.06433   -78.699615   -423.10292   -4095.9123 
26971000    106.25656   -4548.1069   -4365.9868   -4548.1069            0    1463.7812    17.960727    23.380665    21.959018    9221.3325    1590.9277    1298.9731    1501.4427   -63.012874   -260.83553    215.34118   -4169.1321 
26972000    104.81341   -4553.1389   -4373.4923   -4553.1389            0    2053.4536    17.980699     23.34521    21.894382    9190.4555    3004.0537    1483.0269    1673.2801    537.15648   -215.57504   -454.43581    -4098.261 
26973000    106.80745   -4552.5754   -4369.5111   -4552.5754            0    2711.1489    17.908375    23.314464    21.932867    9157.5017    2584.0567    1785.7942    3763.5958    222.53219   -377.76702    146.24442   -4007.4297 
26974000    105.24039   -4543.8507   -4363.4723   -4543.8507            0    2426.1745    17.901197    23.266959    22.026391     9174.133    2639.6499    2544.6881    2094.1855    31.749115   -188.08573     94.63914   -4038.8615 
26975000    106.94536   -4555.5987    -4372.298   -4555.5987            0     984.3514     17.94964    23.354283    22.035491    9237.2996    924.33787    1280.2117    748.50461   -396.73351   -180.53174    176.20761   -4239.6896 
26976000    112.30667   -4556.4516   -4363.9618   -4556.4516            0    2594.1033    17.877834     23.34655    21.934097    9154.9792    2225.3667    2625.8507    2931.0924    422.98892    423.72749   -352.79335   -4017.6076 
26977000     120.4665   -4547.8765    -4341.401   -4547.8765            0    1850.5555    18.039867    23.167476     21.96393    9179.5655    997.46095    2375.9053    2178.3001   -40.790482    133.42335   -90.273863   -4093.6588 
26978000    112.80296   -4547.4055   -4354.0651   -4547.4055            0    2073.9173    17.939822    23.360083     21.89371    9175.1227    3030.0269    1413.3629    1778.3622   -273.11032    229.56595    442.74955   -4076.5547 
26979000    110.51319    -4548.265   -4358.8492    -4548.265            0    1866.0227    17.914039    23.438067    21.870265     9182.678     1549.017    2292.6879    1756.3631     262.0377    84.998712    409.31622   -4108.9515 
26980000    109.73515   -4539.0058   -4350.9235   -4539.0058            0     1551.436    17.907959     23.46161    21.947962    9221.4261    1713.5918    1394.5849    1546.1313   -351.23666    68.340477    43.890248   -4142.2786 
26981000    104.15978   -4534.5017   -4355.9754   -4534.5017            0    1958.0115    17.998234    23.206189     21.99423    9186.3393    1803.1993    2179.1225    1891.7128   -641.54248    131.25316   -286.73895   -4093.6541 
26982000    113.15637   -4555.1451   -4361.1989   -4555.1451            0    1855.4767    18.024772    23.252504    21.902454    9179.7803    2128.8438      1571.61    1865.9764    4.5115891     52.51067    220.39716    -4112.792 
26983000    110.62876   -4559.5966   -4369.9827   -4559.5966            0    2498.2605    17.912914    23.321263    21.905864    9151.2132    2981.6336     2069.053     2444.095    52.305262    534.43294    88.654436   -4036.5622 
26984000    106.73502   -4537.2605   -4354.3204   -4537.2605            0    1948.9928    17.876395    23.401997    21.910558    9166.1362     2210.001    1746.4721    1890.5053    -206.1835   -352.21593    191.58958   -4093.7816 
26985000     106.0799   -4552.2951   -4370.4778   -4552.2951            0    2655.4835    17.797993    23.384071     21.97038    9143.8425    3523.5646    2363.4059    2079.4799    56.643119   -57.802009    240.89513   -4016.3596 
26986000    109.64027   -4556.2717    -4368.352   -4556.2717            0    1832.8322    18.007092    23.272689     21.93801    9193.6377    1093.6506    2713.0366    1691.8095   -470.82115    671.27778   -165.72344   -4122.6063 
26987000    106.30227   -4552.0685   -4369.8701   -4552.0685            0    1283.2433    18.094902    23.289598    21.883971    9222.4089    423.41837     1127.319    2298.9926    361.45346   -272.84277   -199.30377   -4197.2746 
26988000    110.96021   -4547.7383   -4357.5563   -4547.7383            0    2233.4158    17.904962    23.392339    21.841668    9148.1414    1826.8907    1737.9706    3135.3862    280.92079    231.32303    9.4856725   -4059.5823 
26989000    107.09183   -4544.9605   -4361.4088   -4544.9605            0    2279.7216    17.787297    23.530755    21.874115    9155.3783    2006.1793    1693.2416    3139.7439      157.145   -244.75264   -51.249756   -4057.0162 
26990000     107.8377    -4548.464   -4363.6339    -4548.464            0    1477.4156    17.960142    23.357544    21.964638    9214.2709    2566.6536    1209.0337    656.55932    570.51863    330.54649    545.56847   -4165.0977 
26991000    107.11223   -4555.4892   -4371.9025   -4555.4892            0    2606.8535    18.024185    23.184247    21.904137    9153.2385     1876.579    2793.0984    3150.8832     60.86304     133.9119   -87.162825    -4023.912 
26992000    107.77384   -4547.7718   -4363.0511   -4547.7718            0    2734.6445    17.892155    23.290609    21.945814    9145.2421    2828.6112    2027.0501    3348.2722    -235.5916   -117.04586   -321.77857   -3998.3207 
26993000     109.9667   -4540.0441   -4351.5649   -4540.0441            0    2200.0588    17.831717    23.573483    21.813912    9169.6019    2462.2414    705.67823    3432.2568     1.019719    66.448761    564.44459   -4057.3527 
26994000    110.44788    -4546.152   -4356.8481    -4546.152            0    2237.4146    17.934116    23.330803    21.925614    9174.0571    1665.5552    2104.9545     2941.734   -875.58595   -119.55231     123.2961    -4057.495 
26995000    107.98379   -4536.2821   -4351.2016   -4536.2821            0    2630.5292    17.874695      23.2698    22.013784    9156.4261    2533.4221    2273.3774     3084.788    654.12417    105.03339    320.40132   -3999.9284 
26996000    110.60949   -4555.9666   -4366.3857   -4555.9666            0    1813.1922    17.839994    23.355025     22.01213     9171.431    2874.4263    1097.7361    1467.4143   -82.898399   -397.59676    341.23909   -4123.8605 
26997000    104.51909    -4543.005   -4363.8629    -4543.005            0    2042.6209    17.937097    23.462774    21.826756     9185.879    2385.7078    1717.6241    2024.5309   -289.23549   -55.102341    3.6076841   -4090.2199 
26998000    113.97024   -4546.6829   -4351.3418   -4546.6829            0    1466.3823    17.964122    23.399796    21.901233    9206.3317    1761.9634    818.88729    1818.2962   -157.97167    413.65341    151.17329   -4154.4582 
26999000    99.751752   -4546.6789   -4375.7078   -4546.6789            0    2186.6007    18.020766    23.151646    21.990038    9174.4725     1593.238    2928.2942      2038.27    360.25513    12.865975    182.84507   -4083.1401 
27000000    111.57294   -4538.6193   -4347.3871   -4538.6193            0    1490.1283    18.001924    23.304722    21.978373    9220.5832    1770.6142    1946.6717    753.09893    10.158881   -562.08206    -121.8778   -4147.0054 
Loop time of 396.925 on 64 procs for 250000 steps with 864 atoms

Performance: 108.837 ns/day, 0.221 hours/ns, 629.841 timesteps/s
375.7% CPU use with 16 MPI tasks x 4 OpenMP threads

MPI task timing breakdown:
Section |  min time  |  avg time  |  max time  |%varavg| %total
---------------------------------------------------------------
Pair    | 24.794     | 27.925     | 31.688     |  32.9 |  7.04
Bond    | 1.6011     | 1.8358     | 2.8729     |  23.4 |  0.46
Kspace  | 204.62     | 210.47     | 216.16     |  23.8 | 53.02
Neigh   | 0.58125    | 0.61713    | 0.69493    |   4.2 |  0.16
Comm    | 50.045     | 57.193     | 62.324     |  47.8 | 14.41
Output  | 0.49804    | 0.49833    | 0.50003    |   0.1 |  0.13
Modify  | 63.912     | 71.978     | 79.167     |  53.1 | 18.13
Other   |            | 26.41      |            |       |  6.65

Nlocal:        54.0000 ave          62 max          45 min
Histogram: 1 1 4 2 0 1 0 2 3 2
Nghost:        2559.62 ave        2584 max        2538 min
Histogram: 4 2 2 0 0 0 1 2 2 3
Neighs:        13172.4 ave       14967 max       11152 min
Histogram: 1 1 3 3 0 1 1 2 1 3

Total # of neighbors = 210759
Ave neighs/atom = 243.93403
Ave special neighs/atom = 2.0000000
Neighbor list builds = 2237
Dangerous builds = 0

unfix		3
unfix		2
unfix		1

write_data	data.final.${pid} nocoeff
write_data	data.final.1 nocoeff
System init for write_data ...
PPPM initialization ...
  extracting TIP4P info from pair style
  using 12-bit tables for long-range coulomb (../kspace.cpp:340)
  G vector (1/distance) = 0.37188411
  grid = 24 27 25
  stencil order = 5
  estimated absolute RMS force accuracy = 0.0031370587
  estimated relative force accuracy = 9.4471591e-06
  using double precision FFTW3
  3d grid and FFT values/proc = 6300 1296
Last active /omp style is kspace_style pppm/tip4p/omp

write_restart   restart.lmp.${pid}
write_restart   restart.lmp.1
System init for write_restart ...
PPPM initialization ...
  extracting TIP4P info from pair style
  using 12-bit tables for long-range coulomb (../kspace.cpp:340)
  G vector (1/distance) = 0.37188411
  grid = 24 27 25
  stencil order = 5
  estimated absolute RMS force accuracy = 0.0031370587
  estimated relative force accuracy = 9.4471591e-06
  using double precision FFTW3
  3d grid and FFT values/proc = 6300 1296
Last active /omp style is kspace_style pppm/tip4p/omp
Total wall time: 0:06:37
