LAMMPS (30 Jul 2021)
  using 1 OpenMP thread(s) per MPI task
package omp 0
using multi-threaded neighbor list subroutines
echo both

include		in.partitions
variable        pid world 0
include		in.temp
variable        temperature equal 263.83
variable	tempDamp equal 100.0
include		in.pressure
variable        pressure equal 5375.0
variable        pressureDamp equal 1000.0 # This is 1 ps
include		in.seed
variable        seed world 745823

units		real
atom_style	full

read_restart	restart.lmp.${pid}
read_restart	restart.lmp.0
Reading restart file ...
  restart file = 30 Jul 2021, LAMMPS = 30 Jul 2021
  restoring atom style full from restart
  orthogonal box = (0.090198464 -0.030328340 -0.020792411) to (19.909803 20.030329 20.720790)
  4 by 4 by 4 MPI processor grid
  restoring pair style lj/cut/tip4p/long/omp from restart
  restoring bond style harmonic/omp from restart
  restoring angle style harmonic/omp from restart
  972 atoms
  648 bonds
  324 angles
Finding 1-2 1-3 1-4 neighbors ...
  special bond factors lj:    0        0        0       
  special bond factors coul:  0        0        0       
     2 = max # of 1-2 neighbors
     1 = max # of 1-3 neighbors
     1 = max # of 1-4 neighbors
     2 = max # of special neighbors
  special bonds CPU = 1.755 seconds
  read_restart CPU = 2.255 seconds
include 	in.setup
variable	out_freq equal 1000
variable	out_freq2 equal 10000
variable	out_freq3 equal 1000

timestep	2.0

neigh_modify    delay 7 every 1

include		in.tip4p
# This is TIP4P/Ice

# create groups ###
group ox type 2
324 atoms in group ox
group hy type 1
648 atoms in group hy

# set charges - beside manually ###
set group ox charge -1.1794
Setting atom values ...
  324 settings made for charge
set group hy charge 0.5897
Setting atom values ...
  648 settings made for charge

# ### TIP3P Potential Parameters ###
pair_style lj/cut/tip4p/long/omp 2 1 1 1 0.1577 8.5
pair_coeff 1 1*2 0.000 0.000
pair_coeff 2 2 0.21084 3.1668
bond_style  harmonic
bond_coeff  1 450 0.9572
angle_style harmonic
angle_coeff 1 55 104.52
kspace_style pppm/tip4p/omp 1.0e-5
pair_modify tail yes

thermo          ${out_freq}
thermo          1000
thermo_style    custom step temp pe etotal epair emol press lx ly lz vol pxx pyy pzz pxy pxz pyz enthalpy

restart 	${out_freq3} restart.lmp.${pid} restart2.lmp.${pid}
restart 	1000 restart.lmp.${pid} restart2.lmp.${pid}
restart 	1000 restart.lmp.0 restart2.lmp.${pid}
restart 	1000 restart.lmp.0 restart2.lmp.0


include         in.dump
dump            myDump all atom ${out_freq2} dump.water.${pid}
dump            myDump all atom 10000 dump.water.${pid}
dump            myDump all atom 10000 dump.water.0
dump            myDump2 all dcd ${out_freq2} dump.dcd
dump            myDump2 all dcd 10000 dump.dcd
dump_modify     myDump append yes
dump_modify     myDump2 append yes


variable natoms 	equal  "count(all)"                        # NUMBER ATOMS
variable H      	equal  "enthalpy/v_natoms"                 # ENTHALPY-per-atom
variable Vol      	equal  "vol/v_natoms"                 # volume-per-atom
fix AVG all 		ave/time ${out_freq} 1 ${out_freq} v_Vol v_H file vol_enthalpy.dat
fix AVG all 		ave/time 1000 1 ${out_freq} v_Vol v_H file vol_enthalpy.dat
fix AVG all 		ave/time 1000 1 1000 v_Vol v_H file vol_enthalpy.dat


timer           timeout 02:55:00 every 1000
New timer settings: style=normal  mode=nosync  timeout=02:55:00

fix 		1 all shake 1e-6 200 0 b 1 a 1
       0 = # of size 2 clusters
       0 = # of size 3 clusters
       0 = # of size 4 clusters
     324 = # of frozen angles
  find clusters CPU = 0.469 seconds
fix             2 all nph aniso ${pressure} ${pressure} ${pressureDamp}
fix             2 all nph aniso 5375 ${pressure} ${pressureDamp}
fix             2 all nph aniso 5375 5375 ${pressureDamp}
fix             2 all nph aniso 5375 5375 1000
fix             3 all temp/csvr ${temperature} ${temperature} ${tempDamp} ${seed}
fix             3 all temp/csvr 263.83 ${temperature} ${tempDamp} ${seed}
fix             3 all temp/csvr 263.83 263.83 ${tempDamp} ${seed}
fix             3 all temp/csvr 263.83 263.83 100 ${seed}
fix             3 all temp/csvr 263.83 263.83 100 745823


run             250000
PPPM initialization ...
  extracting TIP4P info from pair style
  using 12-bit tables for long-range coulomb (../kspace.cpp:340)
  G vector (1/distance) = 0.37263076
  grid = 24 24 25
  stencil order = 5
  estimated absolute RMS force accuracy = 0.00338101
  estimated relative force accuracy = 1.0181811e-05
  using double precision FFTW3
  3d grid and FFT values/proc = 2366 288
Last active /omp style is kspace_style pppm/tip4p/omp
Neighbor list info ...
  update every 1 steps, delay 7 steps, check yes
  max neighbors/atom: 2000, page size: 100000
  master list distance cutoff = 10.8154
  ghost atom cutoff = 10.8154
  binsize = 5.4077, bins = 4 4 4
  1 neighbor lists, perpetual/occasional/extra = 1 0 0
  (1) pair lj/cut/tip4p/long/omp, perpetual
      attributes: half, newton on, omp
      pair build: half/bin/newton/omp
      stencil: half/bin/3d
      bin: standard
Per MPI rank memory allocation (min/avg/max) = 9.228 | 9.232 | 9.238 Mbytes
Step Temp PotEng TotEng E_pair E_mol Press Lx Ly Lz Volume Pxx Pyy Pzz Pxy Pxz Pyz Enthalpy 
 5750000    275.50483   -4661.2484   -4129.9142   -4661.2484            0    5453.8882    19.819604    20.060658    20.741583     8246.735    4463.4877    6781.3412    5116.8356     195.6178    1374.3388    405.43612   -3473.9741 
 5751000    259.24085   -4676.4674   -4176.4996   -4676.4674            0    5421.3204    19.984073     19.93128    20.737048    8259.7354    2959.5184    7608.2311    5696.2116    451.62411   -950.08771    -717.3293   -3523.4486 
 5752000    271.83583    -4697.766   -4173.5077    -4697.766            0    5454.5677    19.735413    19.985129    20.926697    8253.7983    6330.5697    5594.6105    4438.5231    394.61332   -456.77313    886.88336   -3516.9241 
 5753000    275.93843   -4717.7464   -4185.5759   -4717.7464            0    6224.3328    19.831169    20.013054    20.818648    8262.5521    6877.4039    5268.7701    6526.8243     -460.597    104.86791      226.619   -3435.5385 
 5754000    261.60541   -4716.1109   -4211.5829   -4716.1109            0    4846.7173    20.239335    19.715445     20.73154    8272.4544    2750.9879    7445.1461    4344.0178   -1205.7726   -548.09589    696.73762   -3626.8494 
 5755000     270.4026    -4691.848   -4170.3538    -4691.848            0    6587.1868    19.985728    20.050004    20.529149    8226.3158    7343.0275    6273.4334    6145.0995   -127.63362     31.77818   -778.69903   -3380.0734 
 5756000    261.41997   -4659.9733   -4155.8029   -4659.9733            0    4743.6031    19.992001    19.955747    20.812379     8303.209    4010.8342    4428.6776    5791.2975    -944.5021   -1147.4925    440.39898   -3581.3821 
 5757000    271.20385   -4695.6668   -4172.6274   -4695.6668            0    5720.8219    19.936983    19.942153    20.884678    8303.4633    5122.4678    6501.9856    5538.0123   -508.90856   -1.4321932    280.30663   -3479.8502 
 5758000    258.92586   -4673.3126   -4173.9523   -4673.3126            0    4340.7195    20.254864    19.913216    20.749928    8369.2647    4060.9214    4752.5244    4208.7127    162.33409    217.74946   -372.24823   -3644.1365 
 5759000    281.00229   -4682.3375   -4140.4009   -4682.3375            0    6385.3454    20.016766    20.017674    20.575709    8244.4625    6087.9557    6900.4493    6167.6311    94.447003   -377.51722    802.49555    -3372.646 
 5760000    271.40887   -4688.2698    -4164.835   -4688.2698            0     4405.195    20.287229     19.90866    20.682122    8353.3344      3826.62     5578.569    3810.3961     784.7697   -342.55018    -1294.446   -3628.1729 
 5761000    268.26223   -4691.5999   -4174.2336   -4691.5999            0    6512.5551     19.90479    20.073861    20.483203    8184.3907    6471.1598    5726.5218    7339.9836   -78.510086    508.89018    958.29985   -3396.8889 
 5762000    277.06575   -4665.6918   -4131.3472   -4665.6918            0    5236.6759    20.026256    20.075926    20.672832    8311.4224    4096.2986    6053.4548    5560.2744    483.15433    232.96014   -250.01465    -3496.591 
 5763000    268.07879   -4644.9927   -4127.9802   -4644.9927            0    8259.5414    20.005195    19.755556    20.791532    8217.0995     7097.754     10163.66    7517.2105    500.11247   -838.17439   -518.40507   -3138.1736 
 5764000    261.06781   -4694.9609   -4191.4697   -4694.9609            0    5180.0214    19.887422    20.010376    20.831532    8290.0079    4994.9936    5401.9306    5143.1399   -332.65903    -650.7791    208.95832   -3565.1985 
 5765000    260.33874   -4686.8728   -4184.7876   -4686.8728            0    5494.1078    20.034441    20.212337    20.518739    8308.9172      4868.01    4701.3741    6912.9392   -266.87542   -388.82764    562.12398   -3519.0279 
 5766000    267.06868    -4689.305   -4174.2406    -4689.305            0     6417.622    20.033282    20.042132    20.556916     8253.801    6097.0506    7023.6299    6132.1854     584.6833    508.29496    600.59146   -3401.7307 
 5767000    274.85615   -4714.2755   -4184.1923   -4714.2755            0    5047.5521     19.90628      20.0887    20.906627    8360.3781    5893.0773    3852.7925    5396.7866    224.73922    1099.5288   -468.50205   -3568.7567 
 5768000    245.18071   -4683.9268   -4211.0752   -4683.9268            0    4547.7486    20.043389    19.927608    20.821584    8316.4907     4368.693    4603.4502    4671.1025    249.14427   -72.427637    1472.1837   -3659.4902 
 5769000    251.62824   -4663.4458   -4178.1596   -4663.4458            0    4868.0621    19.762138    19.930027    21.034768    8284.7526    4675.4296    5967.2456    3961.5112   -165.52349   -568.43033    429.07754   -3589.9778 
 5770000    265.09512   -4699.5857   -4188.3274   -4699.5857            0     5830.442    20.096697    19.950878     20.74117    8316.1043    4771.3752    7889.0401    4830.9106   -649.54424    1114.2832   -430.04339   -3481.2006 
 5771000    267.70319   -4721.9999   -4205.7117   -4721.9999            0    5952.6606    20.065399    20.161737    20.460099    8277.2003    4770.9352    7001.2092    6085.8375   -96.878786    677.08558   -631.29924   -3487.1394 
 5772000    255.22402   -4666.9808   -4174.7598   -4666.9808            0    6142.3188    19.872513    20.178243    20.678428    8291.8925    7762.9834    5439.9633    5224.0098    233.80773     1326.665   -883.41286   -3431.9769 
 5773000    250.60321   -4685.4418   -4202.1324   -4685.4418            0    4318.6799    19.981665     19.90048    20.833227    8284.2227    4673.2437    4195.6438    4087.1521    406.65237    1450.6123   -1216.1855    -3680.363 
 5774000    274.43968   -4663.0998   -4133.8198   -4663.0998            0    3865.1439    19.887039    19.988451    20.948781    8327.3733    4580.4139     4698.518    2316.4997   -767.49992   -445.82452    932.75214   -3664.4128 
 5775000    272.69269   -4679.1275   -4153.2167   -4679.1275            0    5797.8253    20.002574    20.053072    20.808096    8346.3989     6744.976    4764.1406    5884.3594   -402.70322    673.67717   -5.7349878   -3447.4842 
 5776000    274.59789    -4677.027   -4147.4419    -4677.027            0    4464.3698    20.047167    19.828177    20.908886    8311.2567    6469.2607    3404.4591    3519.3897    939.57673    1369.4353   -755.68139   -3606.3105 
 5777000    278.42405   -4676.6487   -4139.6845   -4676.6487            0    4288.4929    19.926449    20.211535    20.544754     8274.279     4008.661    4213.8647    4642.9529    325.94799    237.72157   -974.44133    -3622.184 
 5778000    256.39955   -4682.9904   -4188.5023   -4682.9904            0    5084.8354    20.143606    20.092896    20.471171    8285.5711    2628.1817    6015.8316     6610.493    577.78495    -1553.348   -520.15546   -3574.0683 
 5779000    262.93442   -4679.6612   -4172.5701   -4679.6612            0    6444.5794    19.917494    19.907582    20.844929    8265.2053    4717.0458    7979.7317    6636.9608   -196.91811    1439.9209    203.57125   -3395.7434 
 5780000    259.41746   -4651.8955   -4151.5871   -4651.8955            0    5960.4042    19.928569    20.055273     20.76252    8298.2165     8783.922    2901.7618    6195.5288   -595.56997    391.95529   -467.19891   -3430.2532 
 5781000    270.53017   -4658.3869   -4136.6467   -4658.3869            0    7041.2856    20.108908    19.878286    20.531325    8206.9991    5705.7297     8090.876    7327.2511    70.445847    281.18927     1097.999   -3293.8706 
 5782000    264.23925   -4674.1775   -4164.5699   -4674.1775            0    4482.4487    19.792852    20.128149    20.903508     8327.821     5050.787    4746.8512     3649.708    562.94738    1219.9122    138.87232   -3620.1643 
 5783000     270.7884   -4686.8295   -4164.5913   -4686.8295            0    6174.7146     20.08486    19.789733    20.841758    8284.0575    5777.7674    5795.9931    6950.3831    57.150388    255.93242    642.45509   -3418.5964 
 5784000    260.12331   -4699.9955   -4198.3258   -4699.9955            0    5603.8903    19.822438    20.221504    20.642848    8274.4689    5966.8535    4375.4909    6469.3265    384.68746   -1104.3966    907.41431   -3522.0784 
 5785000    253.50005   -4720.9373   -4232.0412   -4720.9373            0    5314.7436    19.928807    20.098454    20.696556    8289.7614    6435.4699    4236.4474    5272.3136   -34.882245   -740.50743    882.81428   -3589.5011 
 5786000     259.6469    -4710.966   -4210.2151    -4710.966            0    4622.9056    20.133654      19.8859    20.705036    8289.7957    2469.5277      6465.15    4934.0391     221.4668   -396.26283   -240.89019   -3651.3143 
 5787000    275.69519    -4710.118   -4178.4166    -4710.118            0    6070.7305    20.044958    19.952514    20.667569    8265.9389     6358.271    5646.6121    6207.3083   -341.45317    1611.4725    1769.2928   -3446.5886 
 5788000    265.61991   -4687.4846   -4175.2143   -4687.4846            0    5552.6578    19.813501     20.02074    20.897094    8289.4792    6166.7951    5033.7946    5457.3836    846.71651   -174.60868   -794.28976   -3503.9338 
 5789000    258.03749   -4687.9328   -4190.2858   -4687.9328            0    4955.6518    20.006984    19.816409    20.735783     8221.045    3870.1398    5555.4764    5441.3392   0.36340526   -898.65646   -134.75073   -3596.1255 
 5790000    266.69213   -4697.0323   -4182.6941   -4697.0323            0    5109.7136    20.324512    19.939944    20.517471    8315.1082    4865.5965    3743.8571    6719.6871    222.39938    719.59841    771.90276   -3563.0528 
 5791000    270.31281   -4695.5249   -4174.2039   -4695.5249            0    4545.3003    20.213768    20.005767    20.683136    8364.0935    4164.7818    5023.5314    4447.5877   -599.60339   -535.55794    147.70067   -3619.7603 
 5792000    265.64948   -4691.7038   -4179.3764   -4691.7038            0    7302.7632    19.974933    19.735785    20.926246    8249.5651    7457.5087    6554.7898    7895.9911   -91.803596   -37.292466    473.19913   -3300.7704 
 5793000    258.22321   -4656.7296   -4158.7244   -4656.7296            0     4704.675    19.971888     19.94994    20.906446     8329.922     5647.907    4137.8982    4328.2199   -325.56224   -675.20029   -803.71805   -3587.1847 
 5794000    254.71146   -4701.4928   -4210.2604   -4701.4928            0    5290.5226    19.759569    20.263575    20.749736    8308.1843    5746.9352    5011.0915    5113.5412   -318.22228    174.09017    1137.0869   -3569.2271 
 5795000    256.73646    -4705.897   -4210.7592    -4705.897            0     7401.656    19.900374    19.913418    20.728511     8214.387    8074.3511    6204.9637    7925.6531    506.70682    769.71145    457.95061   -3324.0526 
 5796000    275.25517   -4728.8932   -4198.0404   -4728.8932            0    4216.6986    19.669181    20.112947    21.000819    8308.0328    5679.5891    3606.4851    3364.0217   -491.98458    205.24759    321.32809   -3687.1278 
 5797000    267.60332   -4696.7809   -4180.6854   -4696.7809            0    5050.3561    19.984677    20.103489    20.582217    8269.1472     6996.488    4141.8523    4012.7278   -754.48761    569.29732    610.85039   -3571.6274 
 5798000    257.45571   -4707.1869   -4210.6619   -4707.1869            0    5436.0239    19.973419    20.030711    20.785165    8315.7661    6181.0531    5549.4083    4577.6103    -3.612497   -1114.9225    839.04683   -3551.3977 
 5799000    259.63937   -4669.3343   -4168.5979   -4669.3343            0    4863.8077    20.148998    19.861373    20.834717    8337.7778    4164.8005    5835.5197    4591.1028    593.68002    47.527821    415.03771    -3577.169 
 5800000    261.92438    -4711.106   -4205.9628    -4711.106            0    5200.1079    20.038681    19.985632    20.697965    8289.2391    6524.2381    3202.4246     5873.661    78.561916   -1121.2682    12.797743   -3577.3215 
 5801000    287.98679   -4669.3789   -4113.9722   -4669.3789            0     4249.427    20.135788    20.199445    20.598395    8378.0213    3451.5268    5032.2474    4264.5069    208.84909    767.09323   -127.19474   -3594.7566 
 5802000    256.00129   -4696.8044   -4203.0844   -4696.8044            0    6327.4375    20.011155    19.937196    20.675716    8248.9145    5947.9947    6799.9628    6234.3551   -341.65922    808.13577   -559.77988   -3441.8813 
 5803000    263.60529    -4721.635     -4213.25    -4721.635            0    5438.0988    20.087407    19.865585    20.795969    8298.5918    5465.4592    6315.9456    4532.8917    47.105735   -21.972044    434.26764   -3555.0962 
 5804000    268.65483   -4670.2295    -4152.106   -4670.2295            0    3941.1798     20.19204    20.171817    20.501098    8350.3048    3727.3039     2922.752    5173.4834    271.05627   -512.01033    -919.3047   -3672.1467 
 5805000    256.04092   -4667.8051   -4174.0087   -4667.8051            0    5725.9591     19.96407    20.030371    20.753905    8299.2321    5910.9681    6304.3403     4962.569   -76.414394   -1746.5981   -1.6092621   -3480.9627 
 5806000    266.66928   -4638.8762   -4124.5821   -4638.8762            0    5563.4067    19.795543    19.957975    20.963212    8282.1237     5217.651    5942.1238    5530.4452   -268.62067   -978.95104   -183.02659   -3452.5989 
 5807000    251.78601   -4695.9373   -4210.3468   -4695.9373            0    4165.2401    20.058611    20.006626    20.656959    8289.7436    3815.1416    4470.6024    4209.9762    82.703153     744.7829   -347.70608   -3706.7801 
 5808000    268.08463    -4690.584   -4173.5602    -4690.584            0    4375.1832    19.993214    20.267816    20.456747    8289.4583    3567.8123    3659.2715    5898.4659   -392.05498    204.63467   -1265.7875   -3644.6301 
 5809000     271.7783   -4698.6016   -4174.4543   -4698.6016            0    6430.9566    19.947638    19.891608    20.720591    8221.7356    5632.1018    7226.2032    6434.5647   -67.740114    543.81098      1495.28   -3403.3467 
 5810000    277.10353   -4704.1708   -4169.7533   -4704.1708            0    5102.1642    19.785792    20.044391    20.777533    8240.2483    4370.4031    5696.2698    5239.8197    294.30955    520.34926    1075.9102   -3556.5978 
 5811000    259.74201   -4668.7361   -4167.8018   -4668.7361            0    3900.5441    20.009585    19.918953    21.004617    8371.8101    5862.1345    2494.7225    3344.7751    735.41661   -1081.6754   -1034.2926   -3691.5677 
 5812000    267.43504   -4649.7615   -4133.9905   -4649.7615            0    5169.8569    20.172299    20.173987    20.568675    8370.5394     4490.413    5372.8931    5646.2646    968.00824    10.699558    205.27515   -3502.8765 
 5813000    280.12245     -4705.14   -4164.9003     -4705.14            0    4124.1881    20.121878    20.026929    20.665088     8327.605    3335.0084    5174.3837    3863.1722    162.07205     1451.289   -286.64166   -3664.0194 
 5814000    263.89973    -4681.979   -4173.0262    -4681.979            0    5760.8327    20.036503    19.891198    20.772818    8279.0081     2915.539    8956.4136    5410.5457    344.43493    33.794321     893.4642   -3477.4584 
 5815000    271.85036   -4712.4763     -4188.19   -4712.4763            0    6057.0144    19.969657    19.984822    20.656442      8243.78    6119.2373    5601.8026    6450.0033    303.91683    1122.6703   -82.736685   -3459.9729 
 5816000    269.04521   -4652.2377   -4133.3614   -4652.2377            0    3529.9317    19.987114    19.952485     20.98819    8369.9348     3185.492    4520.5186    2883.7844    212.96032   -831.43573    1063.4064   -3702.4735 
 5817000    258.24143   -4694.4103     -4196.37   -4694.4103            0    2967.6903    19.996071    20.042397    20.937004    8390.9061    2652.8092    3677.8574    2572.4042    14.051588    1102.0885    642.35149   -3833.2056 
 5818000      257.364   -4679.4092   -4183.0611   -4679.4092            0    5235.5905    19.850478    19.917271    20.986973    8297.5641    3811.7473    6404.5178    5490.5063   -262.01894   -18.443518     869.4191   -3549.4946 
 5819000    258.64979   -4721.0609    -4222.233   -4721.0609            0    4759.7919    19.937086    20.032907    20.755491    8289.6972    4949.2828    5030.5684    4299.5245   -304.89616   -173.48515     1572.907   -3646.7897 
 5820000    259.13076   -4666.4643   -4166.7088   -4666.4643            0    5715.2417    19.978696    19.927766     20.83559    8295.2899    4130.2673    7219.8695    5795.5885    892.13486    143.50763    508.50477   -3475.2886 
 5821000    257.39309   -4664.1821   -4167.7779   -4664.1821            0    4971.9072    20.004546    20.153446     20.59513    8303.1437    5338.2941    3116.8364    6460.5912   -202.55218    257.02918   -708.15683   -3565.7155 
 5822000    271.59572   -4633.6656   -4109.8704   -4633.6656            0    6450.4392    19.956423    20.261947     20.56735     8316.531    7089.4989     6006.567    6255.2516    116.35045   -1990.4724    1108.9558    -3327.509 
 5823000    249.78246   -4698.6562   -4216.9297   -4698.6562            0    5594.8807    20.120187      19.7855    20.845802    8298.4624    5229.6463    6787.2546    4767.7413   -131.32413    79.723179    437.94517   -3539.8117 
 5824000    270.47237   -4727.2374   -4205.6087   -4727.2374            0    4602.0003    19.980464     20.12671    20.633189    8297.4515    2658.6922    7152.3247    3994.9841    531.42791    490.24959   -600.67095   -3648.7215 
 5825000    268.36099   -4709.4324   -4191.8757   -4709.4324            0    5954.6781    20.135151     20.07242    20.426755     8255.702    6984.4433       3730.8    7148.7909    227.77622    1483.0029    1611.4138   -3474.9268 
 5826000    263.78875   -4688.4673   -4179.7285   -4688.4673            0    5271.5944     19.93606    20.174185    20.630874    8297.6087    5242.3658    5423.8255     5148.592    293.97598   -1063.6336    478.51216   -3541.8017 
 5827000    250.18342   -4705.2805   -4222.7807   -4705.2805            0    4493.8171    20.013236      19.7922    20.823594    8248.3502    2702.1843    5549.3411    5229.9259   -360.82318    70.010954   -316.99357   -3682.2027 
 5828000    274.80873   -4663.0903   -4133.0985   -4663.0903            0    6301.6734    20.003117     19.96225    20.686843    8260.4056    7983.0985    5144.3131    5777.6087   -58.801513    599.67316   -179.80374   -3373.9388 
 5829000    260.72071   -4706.9551   -4204.1333   -4706.9551            0    5533.2516    20.025101     20.25222    20.482781    8306.8483    5093.5062    5200.8727     6305.376   -401.34197    1949.7563    -499.9048   -3533.7972 
 5830000    263.68169   -4669.2465   -4160.7142   -4669.2465            0    5101.4316    20.123405    20.009057    20.738965    8350.5518    4306.9487    6052.3319    4945.0141    814.96034   -219.19422   -365.47774   -3539.4403 
 5831000    264.44145   -4684.1977   -4174.2002   -4684.1977            0    4046.5882    20.161565    19.786851    20.951888    8358.4181    6224.1825    3164.1132    2751.4689   -24.904275   -160.78614   -680.28021   -3680.9253 
 5832000    272.21037    -4722.214   -4197.2335    -4722.214            0    5228.8628    19.820061    20.185909    20.751999    8302.5831    5447.6636    4788.5644    5450.3604    -175.2142    1214.3518   -326.79284   -3564.0984 
 5833000    266.29681   -4671.5096   -4157.9338   -4671.5096            0    5090.7278    20.112482    19.916178    20.752991    8312.8963    5031.9208    5386.7019    4853.5606    121.05459    1068.4752    529.85463    -3540.759 
 5834000    283.14084   -4682.3177   -4136.2568   -4682.3177            0    4538.6674    20.073799    20.135256    20.472223    8274.6898    5480.8239    2553.0559    5582.1223    174.28525   -238.19689    699.32189   -3588.5401 
 5835000    275.19915   -4723.1229   -4192.3782   -4723.1229            0    4616.8584    20.046627    20.001152    20.551764    8240.3458     3810.122    4916.5655    5123.8876   -692.77734   -632.41708    162.40357    -3637.538 
 5836000    245.18767   -4670.7427   -4197.8776   -4670.7427            0    2321.7234    20.105434    19.917673    20.978606    8400.9555    3501.7075    2241.9922    1221.4704   -793.46853    253.26995   -206.18072   -3913.4216 
 5837000    263.54911   -4701.8215   -4193.5449   -4701.8215            0    5229.5642    19.991962     20.08651    20.744324     8330.272    5196.0046    3524.3854    6968.3027   -572.02184    506.33657   -136.56072   -3558.2131 
 5838000    270.12152   -4696.9291    -4175.977   -4696.9291            0    5234.4095    20.045041    20.236184    20.476292    8305.9037    3964.5394    5273.1556    6465.5335    37.258067     923.9996   -783.94524   -3541.9168 
 5839000    259.34873   -4738.8313   -4238.6554   -4738.8313            0    4951.4231     20.11069    19.866276    20.823756    8319.6012    5265.6202    6072.0154    3516.6338   -220.17144    634.49012    -528.6996   -3637.8852 
 5840000    260.00137   -4690.0749   -4188.6404   -4690.0749            0    5799.7684    20.050648    19.827383    20.845085    8287.0026    6173.6546    5372.8011    5852.8494     793.5776    198.33365    694.42591   -3487.6953 
 5841000    252.73907   -4677.9529   -4190.5243   -4677.9529            0    4781.7917    19.892319    19.993315    20.877074    8303.0924    5712.1565    3407.7622    5225.4565   -587.82112    976.50145   -330.82186   -3611.4872 
 5842000     262.7581   -4695.6078   -4188.8567   -4695.6078            0    5012.2443    19.976478    20.124849    20.709997    8325.9075    4687.5853    5848.7804    4500.3672   -474.95042   -45.876267    1370.6937   -3580.2458 
 5843000    269.86228   -4671.9007   -4151.4486   -4671.9007            0    3598.3188    20.173779    19.861101    20.860877    8358.3997    4310.7589    3211.7299    3272.4675    649.65164   -821.42677   -611.86542   -3712.8183 
 5844000    266.15823    -4704.465   -4191.1564    -4704.465            0    5192.3929     19.92096    20.177911    20.744848    8338.6689    4786.2767     4745.159    6045.7431    60.369052   -693.92418   -1677.1305   -3559.7047 
 5845000    244.26844   -4690.8108   -4219.7186   -4690.8108            0    6087.8018    19.991574    19.886041    20.781861    8261.8967    6334.5188    5580.2929    6348.5936    813.99763   -1870.0301     1000.845   -3486.1915 
 5846000    276.51016   -4695.8823   -4162.6092   -4695.8823            0    7117.7586    19.898742    20.111324    20.673611    8273.3734    7943.9557    5853.2311    7556.0891    360.02662   -176.51797    82.734894     -3303.79 
 5847000    261.01194   -4685.9331   -4182.5497   -4685.9331            0    6201.9247    20.246949    19.958874    20.371645    8232.3104    6389.6189     5459.686    6756.4691   -739.67696    2435.6226   -288.08183   -3437.9478 
 5848000    268.54521    -4697.363    -4179.451    -4697.363            0    5019.4687    19.924235    20.114162    20.650235    8275.7733    4121.1494    5179.3784    5757.8784   -976.44684   -13.008312    1511.1015   -3573.6329 
 5849000    263.73445   -4690.6734   -4182.0393   -4690.6734            0    5567.6714    20.167666    19.691984    20.765613    8246.8838    5990.0103    6279.0053    4433.9986   -625.27406   -696.08423   -400.28292   -3512.4025 
 5850000     259.3271   -4677.1828   -4177.0486   -4677.1828            0    6104.8638    19.941494    20.076525    20.612939    8252.5122    5093.7753    7322.5951    5898.2211    1170.6039   -386.39975     142.1193   -3442.3013 
 5851000    248.07689   -4704.9802    -4226.543   -4704.9802            0    4957.0501    19.946744    20.212585     20.56967    8293.1818    4838.8027    5272.5468    4759.8008    437.01755    373.33858    1009.5489   -3626.9999 
 5852000    264.16474    -4684.474     -4175.01    -4684.474            0    5041.1088    19.775745    20.095523    20.818201    8273.2354    4565.0006    6249.1447    4309.1812    232.03348   -973.16637   -148.25582   -3566.7667 
 5853000    255.42203   -4653.1964   -4160.5935   -4653.1964            0    2881.7453    20.084248    19.960067    20.934758    8392.3873    4422.9285    1095.3978    3126.9095    179.65416      665.265   -154.70223   -3807.8841 
 5854000    274.15155   -4692.2632   -4163.5389   -4692.2632            0     5472.412    19.919334     19.96126    20.889655    8306.0406    4890.5989    6769.2255    4757.4115   -547.78166   -167.57005    865.68048   -3500.6378 
 5855000    265.36868   -4643.6601   -4131.8742   -4643.6601            0    6405.3816     20.01536    20.102431    20.485941    8242.6701    5368.9025    6596.0815    7251.1607   -28.803836   -445.61415    237.23578   -3361.8776 
 5856000    252.88605   -4687.0345   -4199.3225   -4687.0345            0    6394.9247    19.950701    19.945028    20.622083    8205.8831    6955.2315    7196.2474    5033.2952   -98.089703    1411.6435   -804.12891   -3434.0138 
 5857000    278.63613   -4711.2746   -4173.9014   -4711.2746            0    4989.4208    19.942483    19.907514    20.912454    8302.3541    4797.6064    6150.6647    4019.9912   -404.98049   -1043.0236    503.65825   -3569.7758 
 5858000    268.69557   -4678.5614   -4160.3594   -4678.5614            0    5654.7166    19.958795    20.120861    20.691014    8309.2656    6211.8432    6028.7965      4723.51    1388.9628   -475.70436   -1195.0952   -3475.1089 
 5859000    270.59347   -4698.6443    -4176.782   -4698.6443            0    5380.5318    20.168455    20.125307    20.465467    8306.8581    5228.6966    6292.9145    4619.9845   -619.89881    825.72469   -579.19135   -3524.9467 
 5860000    276.54288    -4682.458   -4149.1218    -4682.458            0    5943.2177    20.001386    20.037477    20.661193    8280.5376    4885.4534     7462.231    5481.9688    459.59668   -487.98319    89.695328   -3431.4001 
 5861000    261.38219   -4650.2175   -4146.1199   -4650.2175            0    5101.0839    20.017347    19.849222    21.032936    8356.9905    5072.5734    6497.4689    3733.2093   -438.86641    1663.1292   -827.24919   -3524.4094 
 5862000     256.9923   -4666.7654   -4171.1341   -4666.7654            0    3827.2405    19.785598    20.172071    20.887122    8336.3946    4395.5275    2908.9949     4177.199   -279.21307    613.50227    768.67435   -3705.8268 
 5863000    265.96099   -4719.5193   -4206.5912   -4719.5193            0     5912.314    19.825776    19.964389    20.691027    8189.7051    4671.8441    6576.6903    6488.4075    484.49441   -304.52206     1200.683   -3500.4336 
 5864000    261.36872   -4676.5275    -4172.456   -4676.5275            0    5538.7698    19.974236    20.202688     20.50987    8276.4147    7878.8949    2408.6499    6328.7645   -272.72768    1112.5614    1447.2449   -3503.9097 
 5865000    268.96317   -4696.0899   -4177.3718   -4696.0899            0    4777.9982    19.815556     20.04981    20.857244    8286.5441    5868.0372    4335.2184     4130.739    189.48185    136.68721   -1840.2267   -3599.9471 
 5866000     260.1038   -4704.5291   -4202.8971   -4704.5291            0    6164.5361    19.896668    19.815041    20.948004    8258.8195    4162.6962    8111.3395    6219.5727   -570.09539    1224.6104   -380.22869   -3460.4008 
 5867000     247.6161   -4681.7496   -4204.2011   -4681.7496            0    4204.4877    20.009642    20.016511    20.761285    8315.3767    6072.9063    3991.1473    2549.4094   -430.55381    11.060643   -421.77796   -3694.3177 
 5868000    263.76571   -4706.9925   -4198.2981   -4706.9925            0    4463.8553    20.117464    19.876915    20.595053    8235.4082    4221.6457    4085.0794    5084.8409   -549.10384    695.42326   -99.213281   -3662.1668 
 5869000    253.61636   -4695.9556   -4206.8351   -4695.9556            0    5092.3978    20.085644    20.012622     20.58595    8274.8606    3937.4185    6513.7754    4825.9995   -393.05688     2134.127   -133.25634   -3592.2827 
 5870000    269.68222     -4684.22   -4164.1151     -4684.22            0    4604.6237    19.881224    20.052797    20.675675     8242.857    4314.5959    3975.8389    5523.4363    949.02533   -898.12532    899.03562   -3610.5767 
 5871000    261.39988   -4715.4255   -4211.2938   -4715.4255            0    2964.9291    19.964321    19.941396    21.049237    8380.0472    2148.4411    4872.7756    1873.5705   -260.60376    448.27524   -570.11623   -3848.9368 
 5872000    272.74826   -4670.5866   -4144.5687   -4670.5866            0    5161.3513     19.77422    20.109928    20.815522     8277.462    5453.7768    5954.9224    4075.3546    12.982682   -207.74837    -355.4714   -3521.4992 
 5873000    264.85993   -4684.8038   -4173.9991   -4684.8038            0    3851.5957    19.735962    20.097978    21.156446    8391.7666     3980.836    5260.6549     2313.296     77.12953    444.21009    316.16148   -3702.6204 
 5874000    273.05967   -4693.4158   -4166.7973   -4693.4158            0    4890.3719    19.851483    19.921918    20.877623    8256.6745    4380.3049    5317.9643    4972.8465   -86.135108   -611.16756    481.52659   -3577.9225 
 5875000    272.53482    -4661.289   -4135.6826    -4661.289            0    5691.7897    19.750986    20.278369    20.782639    8323.8164    7277.0098    3833.9781    5964.3813   -572.37457   -631.42322    772.90054   -3444.7317 
 5876000    255.42572   -4683.2565   -4190.6465   -4683.2565            0    6504.5486    19.834748    19.846434    20.824167    8197.4128    7079.9405    5708.4297    6725.2755   -509.92259    603.24124    555.53798   -3413.0222 
 5877000    260.99295    -4677.127   -4173.7802    -4677.127            0    3693.6662    19.780025    20.127644    21.014116    8366.2513    4779.2001    3932.6775     2369.121    311.10772   -668.24119    347.29098   -3723.1042 
 5878000    269.15871   -4713.9242   -4194.8289   -4713.9242            0    3696.8971    19.822214    20.026743    20.829174    8268.6486     5285.002    2435.0356    3370.6538    172.06525    1323.6732   -320.15723    -3749.021 
 5879000     275.6545   -4663.3572   -4131.7343   -4663.3572            0    3850.8466    19.732723    20.182366    20.989069    8358.9604    4545.2865    3175.2879    3831.9653   -172.89797   -1184.5903    -316.0956   -3662.2897 
 5880000    253.39751   -4710.0144    -4221.316   -4710.0144            0    5187.1387    20.016523    20.033459    20.573844    8250.1152    5858.4945    5470.0219    4232.8996   -320.85898   -787.74043   -77.300606   -3597.2022 
 5881000    250.13176   -4703.2648   -4220.8647   -4703.2648            0    3814.2522    19.934466    20.248285    20.569647    8302.7063    3813.0344    2711.5226    4918.1996    229.96586   -654.75571   -244.41791   -3759.0104 
 5882000    269.28324   -4659.1678   -4139.8324   -4659.1678            0    4352.3449    19.873072    20.018673    20.859877    8298.7377    4438.4471    4702.9713    3915.6164   -1398.3663   -691.43546    949.69911   -3613.0743 
 5883000    270.99094   -4666.3977   -4143.7689   -4666.3977            0    7172.1645    20.036942    20.011701    20.621021    8268.4789    5924.3907    9380.1114    6211.9913    -116.9504   -378.08716   -218.72309    -3278.897 
 5884000    258.56881   -4703.1415   -4204.4698   -4703.1415            0    6045.0278    19.916023    20.151113    20.531406    8239.8695    5611.2203    5872.3237    6651.5393   -1653.3757   -1223.0004    732.57706   -3478.0385 
 5885000    261.50795   -4676.6237   -4172.2837   -4676.6237            0    6330.0742    19.945795    19.894187    20.568912     8161.855    7967.4145    3908.3916    7114.4164     360.8221    1717.1584   -341.21886   -3418.8005 
 5886000    258.64818   -4681.2359   -4182.4112   -4681.2359            0    3309.0781    20.007902    20.046163    20.847064     8361.375    2672.2679    3428.2143    3826.7522    958.88505   -763.86261    448.54669   -3778.8953 
 5887000    267.35073   -4716.4884     -4200.88   -4716.4884            0    4916.9589    19.784804    19.901211    20.955823    8251.1781    6329.7578    4442.0003    3979.1187   -36.145564   -292.93268    398.30423   -3609.1979 
 5888000    265.45256    -4710.379   -4198.4314    -4710.379            0    4384.3376    19.647479     20.14569    20.962065    8297.0376    6193.5327    2853.4996    4105.9806   -249.42005    540.29516    94.591053     -3667.91 
 5889000    252.94693   -4711.3515   -4223.5221   -4711.3515            0    6256.9632    20.069394    19.874196    20.722147    8265.2993    5541.9751    7242.0948    5986.8199   -43.935095   -495.78547   -368.40846   -3469.3021 
 5890000    273.13191   -4699.5443   -4172.7864   -4699.5443            0    5413.2905    20.044559    20.132557    20.638966    8328.8182    4918.9589    4502.2356     6818.677    108.20677   -995.34195    338.63133   -3515.2488 
 5891000    262.29711   -4692.9537   -4187.0917   -4692.9537            0    5620.5974     20.12932    19.789006    20.739165    8261.2228    4131.5723    8019.5365    4710.6835    1106.2253   -950.35684   -288.20834   -3509.9139 
 5892000    264.96631   -4696.6301   -4185.6203   -4696.6301            0     4620.054    19.733332    20.159801    20.817854    8281.7596     6435.515    3708.8753    3715.7718    374.66065    361.20223    742.58541   -3627.6057 
 5893000    260.90431   -4693.0131   -4189.8372   -4693.0131            0    5339.4499    20.136803    19.808947    20.742362    8273.8973    4191.7694    6575.9565    5250.6239    521.07284   -404.17835    679.05056   -3545.5455 
 5894000    260.85611    -4680.053     -4176.97    -4680.053            0    3902.7785    20.345357    20.033458    20.452619     8336.239    1722.4211    4566.5935     5419.321    158.15204   -800.51799    162.04133   -3702.4878 
 5895000    258.26429   -4681.4878   -4183.4034   -4681.4878            0    4998.0418    19.993467     20.18992    20.661232    8340.2472    5374.4201     4286.034    5333.6712   -465.15808     399.3247   -75.008128   -3575.4718 
 5896000    253.97887   -4689.4743   -4199.6547   -4689.4743            0    4920.8303    20.078709    19.868125    20.879132    8329.2348    4212.5963    4963.6965    5586.1981    450.50585     1431.888   -389.70013    -3601.905 
 5897000    252.35553   -4699.8552   -4213.1663   -4699.8552            0    3070.5003    19.871073    20.042541    21.061289    8388.0119    2741.8804     5229.681    1239.9394    302.47615   -161.10319   -613.62176   -3837.5503 
 5898000    248.61678    -4677.923   -4198.4446    -4677.923            0    5595.3493    20.051628    20.029817    20.648904    8293.2283    5251.9972    6920.3162    4613.7346   -398.34776    575.44908   -660.42684    -3521.697 
 5899000     276.9879   -4694.5881   -4160.3936   -4694.5881            0    4733.3594    20.021933    20.190863    20.520967    8295.8083    6066.0836    3871.1229    4262.8719    567.04366   -924.75734   -189.00842   -3587.7241 
 5900000    259.39009   -4683.9839   -4183.7283   -4683.9839            0    6488.1574    19.866503    19.927922    20.911428    8278.7954    5767.2976    6779.4363    6917.7382    500.92668   -279.31948    674.20906   -3400.3629 
 5901000     271.4047   -4660.2596   -4136.8328   -4660.2596            0    5047.1882    19.783217    20.027344    20.934026    8294.1718     4903.561    4679.7094    5558.2942    617.59776   -590.13656   -34.796203   -3526.3149 
 5902000    264.92232   -4670.6907   -4159.7657   -4670.6907            0     5287.886    19.972733    20.143771    20.673629    8317.5416    5885.1248    5177.2501     4801.283   -858.42624   -135.18781   -1051.6768   -3518.3303 
 5903000    259.70548   -4685.9006   -4185.0367   -4685.9006            0    4968.2468    20.129852    19.980301    20.435767    8219.2757    5756.4312    4017.0551    5131.2541   -940.79868    128.65136    1748.7372   -3589.4944 
 5904000    268.06889   -4697.6166   -4180.6232   -4697.6166            0    6160.5338    19.731572    20.127649    20.902038    8301.2474    6923.6746    5780.2243    5777.7025    668.69132    860.74296    -889.3762    -3434.797 
 5905000    261.75023   -4701.2145   -4196.4072   -4701.2145            0    4638.7263    19.981362     19.97119    21.079393    8411.7652    4846.0507     5731.756    3338.3722   -624.36443   -426.60958   -151.13668   -3627.3423 
 5906000    248.36822   -4687.2423   -4208.2433   -4687.2423            0    3703.3891    20.057995    19.982617    20.679105    8288.4174    1692.0291    5439.5852    3978.5531   -42.716414   -284.42513    942.22304   -3760.5847 
 5907000    261.87769    -4677.165   -4172.1118    -4677.165            0    4561.1671    19.966961    20.186653     20.60394    8304.7504    5802.1022    2582.1533    5299.2458   -420.78211    1145.8823    -464.1185   -3619.6803 
 5908000    262.99114   -4725.1361   -4217.9356   -4725.1361            0    5539.1772    20.178117    19.980582    20.582541    8298.2742     5726.243    5745.2634    5146.0251   -380.79939    293.95879   -1546.8772   -3547.5743 
 5909000    260.56218   -4704.3645   -4201.8484   -4704.3645            0    6425.4911    19.849861    19.945998    20.912569     8279.815    7572.7819    5817.5345    5886.1568   -116.83345    687.61747   -1831.7917   -3425.9536 
 5910000    267.78728    -4693.789   -4177.3387    -4693.789            0    4281.8389    20.167391    20.059694    20.577512    8324.6675    3109.2217    4704.8989    5031.3961   -270.82134   -213.52127   -1331.7375   -3657.4946 
 5911000    261.50544    -4708.616   -4204.2808    -4708.616            0    4419.7913    20.041993    19.977408    20.735685    8302.3005    2784.5676    6878.1149    3596.6913    423.99318    343.23972   -1414.3977   -3669.1301 
 5912000    272.92792   -4700.4642   -4174.0998   -4700.4642            0    3797.6195     20.01729    19.863645    21.057495    8372.8044    5782.0008    3039.8588    2570.9988    1107.8283   -490.63693   -171.20285   -3710.3772 
 5913000     259.4393   -4675.2786   -4174.9281   -4675.2786            0    5267.7414    20.109623    19.988649    20.633783     8294.042    3488.2427    6495.9797    5819.0019   -596.43046    484.47826    456.85292   -3537.7416 
 5914000    267.54157   -4703.3187   -4187.3422   -4703.3187            0    6678.0532    19.853042    20.149578    20.478604    8192.0645      5458.24    6890.7494    7685.1702   -223.27256   -232.73949   -494.85495   -3389.4961 
 5915000    257.21747   -4681.0759   -4185.0104   -4681.0759            0    4629.5064    19.870573    19.982121    20.809377    8262.4921    5832.3126    3548.2117    4507.9949   -35.011488     10.66552    650.82559    -3627.155 
 5916000    264.73282   -4659.5276   -4148.9681   -4659.5276            0     5808.223    19.950199    19.903308    20.827115     8269.926    5442.0911    6090.5062    5892.0718   -39.845733      1825.67    241.79646   -3448.4477 
 5917000     262.1437   -4694.4418   -4188.8757   -4694.4418            0    6138.8507    19.921664    19.967422    20.818743    8281.3684    5807.5257     5859.106    6749.9204   -379.69351   -430.71971   -339.28368   -3447.4543 
 5918000    276.15704    -4671.647    -4139.055    -4671.647            0      7014.87    20.197862    19.964792    20.539101    8282.3125    7102.1018    6728.7408    7213.7674   -188.48563    374.36057   -741.76679   -3291.7356 
 5919000    273.26715   -4680.3522   -4153.3336   -4680.3522            0    6408.1262    19.994708    20.075333    20.553479    8250.1749    4889.2926    7126.3497    7208.7361    324.44417    721.24128    605.07996   -3382.3057 
 5920000    258.65813   -4659.8662   -4161.0222   -4659.8662            0    6610.1812    19.833101    20.109744    20.732181    8268.7937    6979.2182    5019.6177    7831.7076   -768.27334   -534.35175    891.62121   -3363.8881 
 5921000    272.27421   -4688.5003   -4163.3966   -4688.5003            0    4675.1573    20.153764    19.860196    20.769156    8313.0147    4055.6153    5223.2408    4746.6157   -17.409451   -138.27495   -541.39315   -3596.5956 
 5922000    255.08491   -4683.7507    -4191.798   -4683.7507            0    5193.5231    19.665617    20.099613    21.063085    8325.6328    6384.8997    5303.4663    3892.2032    87.283718   -1764.4031   -627.93859   -3561.1962 
 5923000    267.79916    -4725.643   -4209.1698    -4725.643            0    5554.7203    20.090905    19.872841    20.731412    8277.2933    5234.3859    4791.9767    6637.7984   -42.171908    488.04458   -763.70936   -3538.6271 
 5924000    268.35571   -4683.9133   -4166.3668   -4683.9133            0    7098.7413    20.240024     20.02093    20.333923    8239.7959    6852.8559    7007.5425    7435.8257   -397.80311     674.0438    197.91226   -3313.3183 
 5925000     263.4229   -4696.2359   -4188.2027   -4696.2359            0    4235.4014    20.115925    19.958391    20.786148    8345.2536    1763.7104    6392.1688     4550.325   -447.47815    446.35825   -678.55114   -3672.7248 
 5926000    252.82447   -4690.6561   -4203.0629   -4690.6561            0    8142.6838    19.823167    20.002608    20.696688    8206.5477    8231.8526    6951.4282    9244.7706   -176.45371   -910.68512    1155.1828   -3228.5133 
 5927000    259.31726   -4670.9189   -4170.8037   -4670.9189            0    5880.2228    20.121221    19.996336    20.530671    8260.5298    5518.9955    6549.8988    5571.7741      360.062   -250.27389   -65.262435   -3462.4053 
 5928000    275.06239   -4702.5575   -4172.0765   -4702.5575            0    6000.9651    19.861473    20.133796     20.61269    8242.7436    5763.1418    5287.9438    6951.8096   -148.57249   -512.57383    1773.0969   -3450.6887 
 5929000    267.50172    -4678.852   -4162.9525    -4678.852            0    4817.2556    20.064674    19.883259    20.854926    8320.0958    4224.3836    5724.7179    4502.6654   -939.02366   -194.60822   -916.96136   -3578.4264 
 5930000    269.50056   -4673.0246   -4153.2701   -4673.0246            0    6067.6335    20.002223    20.132431    20.476305    8245.6723    5303.2693    6650.7602    6248.8712   -17.451615   -625.77668    275.86479   -3423.6089 
 5931000    258.18757   -4680.6498   -4182.7134   -4680.6498            0    6339.8103    19.955679    20.031766    20.601312    8235.3229    4599.3997     7687.883    6732.1482     44.82788    88.934567    1980.6697   -3421.2785 
 5932000    261.36601   -4676.8025   -4172.7361   -4676.8025            0    5698.0294    19.877882    19.821245    20.927081    8245.3616    6123.5101    6004.0193    4966.5589   -806.25708    1060.6887    -452.3098   -3487.5473 
 5933000    255.94699   -4701.1425   -4207.5272   -4701.1425            0    5283.3504    20.031808    20.090245    20.667391    8317.4661    4883.1963    5745.5736    5221.2813    570.73601   -282.92323   -866.09962   -3566.6478 
 5934000    241.81643    -4680.698   -4214.3347    -4680.698            0    4754.6649    20.022645    20.173038    20.619569    8328.6066    6537.0434    2107.6941    5619.2573   -769.60049    1502.5663    198.72477   -3636.8132 
 5935000     270.9298   -4676.8556   -4154.3447   -4676.8556            0    7369.1449    20.196295    19.771991    20.622765    8235.1023    6753.2177    7606.2558    7747.9612    348.93262   -677.43159    509.10244   -3269.3065 
 5936000    269.85244   -4664.7021    -4144.269   -4664.7021            0    5400.8714    19.604051    20.065724    20.947765    8240.2111    4720.1589    5867.1274    5615.3278    85.727805    523.94666    115.76706   -3495.2191 
 5937000    254.21515   -4680.3332   -4190.0579   -4680.3332            0    5113.8616    19.732972    19.978293    21.125421    8328.2977    6346.3486     5196.891    3798.3452   -370.56315   -242.91468   -1335.6259   -3568.9299 
 5938000    259.58685   -4657.8938   -4157.2587   -4657.8938            0    7181.8536    19.780883    20.005645    20.662549    8176.7765    5301.5118    9766.4945    6477.5545    100.42396    150.76514    496.30581   -3300.8234 
 5939000    240.43776   -4677.1933   -4213.4888   -4677.1933            0    4491.2157    20.071156    20.115137     20.55141    8297.3042    4315.8524    4315.6326     4842.162   -351.75401    914.45815   -894.80925   -3670.0173 
 5940000    277.21808   -4671.9506   -4137.3123   -4671.9506            0    6248.7022    19.835542    20.111784    20.773178    8287.0051    8089.3975     4336.297    6320.4122    52.734205    684.73305    246.92983   -3382.1099 
 5941000    262.16128   -4671.8632   -4166.2631   -4671.8632            0    6840.0081    19.955539    19.844304    20.708387    8200.5995    7854.7003    6021.0735    6644.2505    454.39097    742.57523   -333.25901   -3348.2164 
 5942000    261.43875   -4661.7517   -4157.5451   -4661.7517            0    7245.6126    19.985443    19.736483    20.785871    8198.8281    7681.7674    7920.5031    6134.5672      67.3269     -189.936    1829.7537   -3291.1764 
 5943000    270.59105   -4695.9097   -4174.0521   -4695.9097            0    5915.6533    19.908771    20.086383    20.806766    8320.5262     6856.971    4841.2682    6048.7206    241.11601    374.35742     431.2319   -3456.2092 
 5944000    257.65864   -4648.5156   -4151.5993   -4648.5156            0    6382.2905    20.036607    20.208855    20.525561    8311.1464    8545.4985    3843.7642    6757.6087    400.88966   -476.16478    104.35971   -3378.0047 
 5945000    264.90124   -4694.6011   -4183.7168   -4694.6011            0    5095.1153    19.985897    20.021329    20.788617    8318.4448    4991.4523    4991.4704    5302.4233   -559.92515    649.41945   -354.98849   -3565.5978 
 5946000    272.82202   -4708.8998   -4182.7396   -4708.8998            0    6301.3098    19.955146    20.032598    20.583232    8228.2174    5113.4543    7047.5465    6742.9286      267.322    27.982647    973.25814   -3426.5817 
 5947000    259.82474   -4684.9464   -4183.8526   -4684.9464            0    5641.7679     20.14702    20.034264    20.580089    8306.7557    4216.5717     6715.502      5993.23    1433.0927    1060.7048   -210.34857   -3500.3777 
 5948000    261.13103   -4678.2233   -4174.6102   -4678.2233            0    5683.7205    19.990426    20.103007    20.700394    8318.8192    6681.1586    4188.3385    6181.6646   -308.95077   -2159.7009   -1130.4403    -3485.053 
 5949000    269.16787   -4663.5653   -4144.4525   -4663.5653            0    7175.5317    19.806052    20.076886    20.664984    8217.3035    9930.6742    6047.2534    5548.6676    74.543146    30.065745    271.06674     -3284.53 
 5950000    254.68629   -4684.3359    -4193.152   -4684.3359            0    4814.5996    20.137212    20.072906    20.604734    8328.6884     6887.434    2855.5652    4700.7996    53.557122   -772.82916    36.200247   -3608.3449 
 5951000    253.81817   -4675.0268   -4185.5171   -4675.0268            0    5939.8955    19.831279     19.95827    20.844541    8250.2278    6558.6895     5490.412    5770.5851    279.66069     325.0682   -964.78588   -3470.8222 
 5952000    262.59108   -4677.0078   -4170.5788   -4677.0078            0    7188.6491    19.792443    19.986295    20.779518    8219.9119     8355.748    6617.5008    6592.6985    371.94114    224.52935    869.62411   -3308.8109 
 5953000    255.26286   -4706.2147   -4213.9189   -4706.2147            0    5628.8082    19.898114    19.884381    20.810387    8233.8729    5437.7768    5166.6887    6281.9591    184.10374   -847.03648    588.88024    -3537.997 
 5954000    255.00812   -4704.8345   -4213.0299   -4704.8345            0    4274.7705    20.126923    20.309663    20.519466    8387.7632     3857.341    3930.1574    5036.8131    515.22614    213.71839    550.80386   -3690.1104 
 5955000    249.77388    -4702.932   -4221.2221    -4702.932            0    5646.1093    19.981793    19.848079    20.853719    8270.5892    5476.5148    5799.3286    5662.4845    371.46603    246.19209    464.00127   -3540.1993 
 5956000    255.83659   -4697.0392   -4203.6368   -4697.0392            0    8733.1069    19.903054    19.728011    20.743662    8144.9506    7450.5966    10753.386     7995.338   -450.71008   -560.65388   -160.20937   -3166.2681 
 5957000     257.8762   -4683.2844   -4185.9484   -4683.2844            0    4441.3998    20.009773    20.123523    20.737463    8350.2947    3612.4909    4918.0387    4793.6696   -370.08375    1433.3994   -142.43812   -3645.0726 
 5958000    252.55152   -4655.5535   -4168.4866   -4655.5535            0    4024.6426    20.233576    20.110028    20.452553    8322.0984    5146.6115    2933.4948    3993.8216    240.58442    -830.7055    1184.6659   -3680.0187 
 5959000    250.52063   -4672.3753   -4189.2252   -4672.3753            0    5210.1834    20.171677    19.912362    20.627664    8285.4257    3990.9379    5924.8588    5714.7535    654.14192   -1441.6799   -53.243391   -3559.6556 
 5960000    262.76189    -4657.074   -4150.3155    -4657.074            0    5089.1102    19.779701    20.067505    20.842845    8273.1347    7633.1398    4031.0043    3603.1865      44.7085    465.69741    -1304.041    -3536.288 
 5961000    263.65578   -4681.7427   -4173.2603   -4681.7427            0    6823.1204    19.724325    19.899643    20.884887     8197.465    6989.2424    6769.5604    6710.5583   -2.7301145   -1349.0946   -405.79921   -3357.5452 
 5962000    257.19416   -4678.0127   -4181.9921   -4678.0127            0    6249.3054    19.972147    19.886906    20.936613    8315.6922    6568.5179    6250.4713     5928.927   -834.53072    627.20806   -410.91444   -3424.1024 
 5963000    278.66168   -4687.1404   -4149.7179   -4687.1404            0    6393.8109    19.899067     19.99433    20.718183    8243.1126    5009.8396    7154.0968    7017.4962    744.27678    96.244121   -589.16413    -3381.071 
 5964000    270.33355    -4690.473    -4169.112    -4690.473            0    6822.3895    20.051109     19.97741    20.597342    8250.6612    6310.5175    8013.6965    6142.9545    522.78464    1041.8272     929.0751   -3348.1914 
 5965000    252.74337   -4720.1467   -4232.7098   -4720.1467            0    5688.5683    20.130002    19.965009    20.577173    8269.8772    4160.6314     6411.865    6493.2085   -13.840358   -43.020891   -1520.9707   -3546.6248 
 5966000    259.60219   -4704.6506    -4203.986   -4704.6506            0    4546.3847    20.094374    20.127156    20.577626    8322.4686    3951.2402    5158.1887    4529.7253   -742.15027    458.73015    214.36786     -3652.17 
 5967000    249.24938   -4694.8624    -4214.164   -4694.8624            0    6138.7203    19.937714    20.080416    20.452142      8188.17    6885.8704    4857.1865    6673.1041   -183.52158   -347.32433   -393.81943   -3481.1022 
 5968000    264.86256   -4670.0103   -4159.2005   -4670.0103            0    5560.6173    20.061738    19.817338    20.838563    8284.7923    5229.1105    7318.9073    4133.8341   -912.22453   -1921.8625    528.97849   -3487.3379 
 5969000     269.4304   -4684.1533   -4164.5341   -4684.1533            0    5354.6074     19.67291     20.05832    21.025539     8296.794    7318.0555    4145.5008     4600.266   -522.01842   -1341.7634   -138.26505   -3516.6254 
 5970000    250.69523   -4689.1677   -4205.6808   -4689.1677            0    6807.8906    19.948686     19.85776    20.709495    8203.7811    8878.0824    5762.3199    5783.2697   -311.20793    989.97176    94.535126   -3391.1594 
 5971000    263.43609   -4698.7786     -4190.72   -4698.7786            0     6217.646    19.893612    20.025812    20.813506     8291.804    6626.0304    6603.8662    5423.0415   -666.31415    636.46857   -1181.2685   -3438.8358 
 5972000    262.63039   -4714.9173   -4208.4125   -4714.9173            0    3846.5042    19.942786    20.059585    20.708685    8284.3854    3573.6397    5501.4705    2464.4023    290.35688    -654.2288    815.88189   -3743.6807 
 5973000    255.55715   -4692.4445    -4199.581   -4692.4445            0    3640.8418    20.039218    20.199175    20.507796    8301.0567    3077.1354    2696.0253    5149.3648   -438.25055    685.68165    412.61791    -3758.812 
 5974000    252.31835   -4672.6855   -4186.0683   -4672.6855            0    6890.7458    19.991318    20.081356    20.655948    8292.3875    7482.7736     5928.143    7261.3208   -209.96173    1079.4602   -129.31685   -3352.7293 
 5975000    260.86286   -4708.8502   -4205.7542   -4708.8502            0    5389.9579    19.936817    20.083787    20.681945    8281.1913    3361.0817    6431.6411     6377.151   -176.04871    1399.0762    142.46002   -3554.7945 
 5976000    271.68065    -4702.555    -4178.596    -4702.555            0    6318.8645    20.030143    19.827874    20.873323    8289.9476    5037.4512    8213.6583    5705.4838    447.18273    464.38808   -1122.1443   -3414.6429 
 5977000    283.32286   -4659.1569    -4112.745   -4659.1569            0    4461.2928     19.80262    20.228215     20.81248    8336.8894     5339.648    3718.6555     4325.575   -434.98461    131.60975   -1200.3336   -3570.3188 
 5978000    273.02332    -4675.668   -4149.1195    -4675.668            0    5765.4533    20.215013    19.556961    21.000588    8302.4609    4500.1527    7244.6759    5551.5312    44.561147    27.946811    245.12548   -3451.0219 
 5979000    265.55076   -4679.3297   -4167.1927   -4679.3297            0    6187.8224    19.914665    20.147765    20.566361    8251.9643    6489.8165    6112.7608    5960.8899    177.71788   -675.26343   -841.01783   -3422.5103 
 5980000      271.961   -4666.8589   -4142.3593   -4666.8589            0     4679.497    20.160231    19.902396    20.693487    8302.9908    5921.6125    2681.3019    5435.5765   -3.3066522   -219.57083    45.791773   -3575.7161 
 5981000    269.10998   -4668.5839   -4149.5827   -4668.5839            0    7582.6841    19.905638    19.808819    20.813906    8207.0725    8936.4451    6941.3562    6870.2509   -250.95845    1956.5244    189.58984    -3241.998 
 5982000     266.1695   -4689.4616   -4176.1313   -4689.4616            0     6317.234    19.818676    19.858087    20.958144    8248.3078    8073.9477    5651.0333     5226.721   -383.60004    1912.0229    420.65775   -3416.2116 
 5983000    260.51924   -4699.3013   -4196.8681   -4699.3013            0    4332.1525    19.769187    20.099238    20.914785    8310.3977    4945.8863    4062.1971    3988.3741    835.11172    194.06421   -160.88761   -3671.8171 
 5984000    278.12604   -4703.8455    -4167.456   -4703.8455            0     3793.487    19.898949    20.120748    20.836532    8342.5668    5435.7002    2477.6592    3467.1014   -203.78421    1098.8726   -48.644998   -3705.9109 
 5985000    260.12438   -4705.8926   -4204.2208   -4705.8926            0    4787.1267    20.098367    20.143126    20.456079    8281.5195    4912.4813     3645.872    5803.0268    254.66134   -2208.0011    181.54638   -3626.0438 
 5986000    266.43266   -4716.3206   -4202.4828   -4716.3206            0    5398.6821    19.938028    20.017902    20.805309    8303.7626    3788.6818    7369.8761    5037.4885   -1283.8864    223.66577   -954.36318   -3548.6924 
 5987000    262.07265   -4683.8366   -4178.4075   -4683.8366            0    6757.2017    19.889798    19.789505    20.898356    8225.7867    7436.5047    7680.5539    5154.5466   -1211.1926    1153.6797   -402.35168   -3367.7821 
 5988000    263.67722   -4670.7579   -4162.2342   -4670.7579            0    5857.4297    19.630348    20.210234     20.73093    8224.6632    7115.9717    3993.0158    6463.3016   -17.021932   -1031.2398    532.11164   -3459.6456 
 5989000    260.17182   -4678.2638   -4176.5006   -4678.2638            0    6639.2663    19.918742    19.925949    20.677206    8206.7795    5773.0572    7566.4337    6578.3079   -850.78585    1102.2059    1559.5723   -3381.8637 
 5990000    269.88175   -4686.1944   -4165.7047   -4686.1944            0     6211.126    19.905832    19.889084    20.950653    8294.5472    5453.2785    6780.2532    6399.8464   -355.24614     140.1146    176.99713   -3414.3606 
 5991000    251.02088   -4689.4707   -4205.3558   -4689.4707            0    5698.6203    19.939481    19.882596    20.976895    8316.2615    6448.0423    5864.1582    4783.6604   -340.40692    656.25448    1340.4185   -3514.2035 
 5992000    258.57759   -4691.0022   -4192.3136   -4691.0022            0    5279.3159    20.143167    19.856178    20.823889     8328.854    5973.5161    5109.8257     4754.606   -1052.4388   -121.29581   -487.91567   -3551.0468 
 5993000    276.07309   -4679.0938   -4146.6636   -4679.0938            0    5423.6698    19.793901    20.037865    20.692098    8207.0557    5376.9361    5711.1573     5182.916   -192.61042   -1108.8505    -134.1503   -3497.4965 
 5994000    257.87549    -4665.942   -4168.6074    -4665.942            0    3472.9481    20.219126    19.987845    20.784538    8399.7959    2897.9049    5389.4279    2131.5117    504.58091    163.02673   -733.63225   -3743.1629 
 5995000    278.41039   -4676.5778     -4139.64   -4676.5778            0    4526.4676    19.892294    20.000451    20.859522     8299.062    5581.6146     3149.863    4847.9251    -630.6717    1997.9591   -794.22249   -3591.7866 
 5996000    276.20541   -4686.9033   -4154.2179   -4686.9033            0    5892.5603    19.807827    19.813615    21.053746    8262.8513    7479.6702     5637.536    4560.4748   -141.49314   -886.04262   -95.176803   -3444.1337 
 5997000    262.10382   -4693.7164   -4188.2271   -4693.7164            0    4718.0428    19.898006    20.122617    20.752227    8309.1908    3236.1064    6231.6146    4686.4074   -30.876197   -308.88452    598.16217   -3616.4898 
 5998000    282.78074   -4698.1092   -4152.7428   -4698.1092            0    5785.1119    20.133235    19.863373    20.585579    8232.4602    2536.3577    8239.2306    6579.7473     757.4502    857.24924   -253.17289   -3458.1708 
 5999000    251.83528   -4684.6059   -4198.9203   -4684.6059            0    5381.6864    19.905059    20.167125    20.615177    8275.5055     7841.931    5593.3821    2709.7462    933.03335    869.12913    198.48147   -3549.4059 
 6000000     276.6249   -4679.6228   -4146.1284   -4679.6228            0    5772.4917    19.985737    20.147244    20.755197    8357.2362    6292.3743     4806.414    6218.6867    75.333022   -148.86236   -433.61306   -3442.5672 
Loop time of 519.717 on 64 procs for 250000 steps with 972 atoms

Performance: 83.122 ns/day, 0.289 hours/ns, 481.031 timesteps/s
99.0% CPU use with 64 MPI tasks x 1 OpenMP threads

MPI task timing breakdown:
Section |  min time  |  avg time  |  max time  |%varavg| %total
---------------------------------------------------------------
Pair    | 20.158     | 28.214     | 35.799     |  76.4 |  5.43
Bond    | 0.26693    | 0.27915    | 0.29627    |   1.3 |  0.05
Kspace  | 220        | 235.44     | 255.21     |  53.5 | 45.30
Neigh   | 3.3588     | 4.034      | 5.1032     |  26.8 |  0.78
Comm    | 99.138     | 115.83     | 126.61     |  68.4 | 22.29
Output  | 1.281      | 1.2869     | 1.3083     |   0.8 |  0.25
Modify  | 123.46     | 126.3      | 131.34     |  16.1 | 24.30
Other   |            | 8.326      |            |       |  1.60

Nlocal:        15.1875 ave          20 max          11 min
Histogram: 1 4 6 16 9 12 7 7 1 1
Nghost:        2194.03 ave        2220 max        2174 min
Histogram: 5 9 8 11 4 9 7 4 5 2
Neighs:        4710.19 ave        6386 max        3103 min
Histogram: 1 4 7 14 8 11 7 6 3 3

Total # of neighbors = 301452
Ave neighs/atom = 310.13580
Ave special neighs/atom = 2.0000000
Neighbor list builds = 8311
Dangerous builds = 0

unfix		3
unfix		2
unfix		1

write_data	data.final.${pid}
write_data	data.final.0
System init for write_data ...
PPPM initialization ...
  extracting TIP4P info from pair style
  using 12-bit tables for long-range coulomb (../kspace.cpp:340)
  G vector (1/distance) = 0.37225537
  grid = 24 24 25
  stencil order = 5
  estimated absolute RMS force accuracy = 0.0034272585
  estimated relative force accuracy = 1.0321087e-05
  using double precision FFTW3
  3d grid and FFT values/proc = 2366 288
Last active /omp style is kspace_style pppm/tip4p/omp
WARNING: Not all mixed pair coeffs generated from mixing. Use write_data with 'pair ij' option to store all pair coeffs. (../write_data.cpp:312)

write_restart   restart.lmp.${pid}
write_restart   restart.lmp.0
System init for write_restart ...
PPPM initialization ...
  extracting TIP4P info from pair style
  using 12-bit tables for long-range coulomb (../kspace.cpp:340)
  G vector (1/distance) = 0.37225537
  grid = 24 24 25
  stencil order = 5
  estimated absolute RMS force accuracy = 0.0034272585
  estimated relative force accuracy = 1.0321087e-05
  using double precision FFTW3
  3d grid and FFT values/proc = 2366 288
Last active /omp style is kspace_style pppm/tip4p/omp
Total wall time: 0:08:44
