LAMMPS (30 Jul 2021)
  using 1 OpenMP thread(s) per MPI task
package omp 0
using multi-threaded neighbor list subroutines
echo both

include		in.partitions
variable        pid world 0
include		in.temp
variable        temperature equal 227.74
variable	tempDamp equal 100.0
include		in.pressure
variable        pressure equal 2875.0
variable        pressureDamp equal 1000.0 # This is 1 ps
include		in.seed
variable        seed world 745823

units		real
atom_style	full
read_restart    restart.lmp.${pid}
read_restart    restart.lmp.0
Reading restart file ...
  restart file = 30 Jul 2021, LAMMPS = 30 Jul 2021
  restoring atom style full from restart
  triclinic box = (-3.1336341 -0.30577912 -0.078248105) to (14.743633 22.885778 19.308246) with tilt (-0.14642221 -6.3388373 -0.0064277621)
  4 by 4 by 4 MPI processor grid
  restoring pair style lj/cut/tip4p/long/omp from restart
  restoring bond style harmonic/omp from restart
  restoring angle style harmonic/omp from restart
  1008 atoms
  672 bonds
  336 angles
Finding 1-2 1-3 1-4 neighbors ...
  special bond factors lj:    0        0        0       
  special bond factors coul:  0        0        0       
     2 = max # of 1-2 neighbors
     1 = max # of 1-3 neighbors
     1 = max # of 1-4 neighbors
     2 = max # of special neighbors
  special bonds CPU = 0.448 seconds
  read_restart CPU = 0.638 seconds

include 	in.setup
variable	out_freq equal 1000
variable	out_freq2 equal 10000
variable	out_freq3 equal 1000

timestep	2.0

neigh_modify    delay 7 every 1

include		in.tip4p
# This is TIP4P/Ice

# create groups ###
group ox type 2
336 atoms in group ox
group hy type 1
672 atoms in group hy

# set charges - beside manually ###
set group ox charge -1.1794
Setting atom values ...
  336 settings made for charge
set group hy charge 0.5897
Setting atom values ...
  672 settings made for charge

# ### TIP3P Potential Parameters ###
pair_style lj/cut/tip4p/long/omp 2 1 1 1 0.1577 8.5
pair_coeff 1 1*2 0.000 0.000
pair_coeff 2 2 0.21084 3.1668
bond_style  harmonic
bond_coeff  1 450 0.9572
angle_style harmonic
angle_coeff 1 55 104.52
kspace_style pppm/tip4p/omp 1.0e-5
pair_modify tail yes

thermo          ${out_freq}
thermo          1000
thermo_style    custom step temp pe etotal epair emol press lx ly lz vol pxx pyy pzz pxy pxz pyz enthalpy

restart 	${out_freq3} restart.lmp.${pid} restart2.lmp.${pid}
restart 	1000 restart.lmp.${pid} restart2.lmp.${pid}
restart 	1000 restart.lmp.0 restart2.lmp.${pid}
restart 	1000 restart.lmp.0 restart2.lmp.0


include         in.dump
dump            myDump all atom ${out_freq2} dump.water.${pid}
dump            myDump all atom 10000 dump.water.${pid}
dump            myDump all atom 10000 dump.water.0
dump            myDump2 all dcd ${out_freq2} dump.dcd
dump            myDump2 all dcd 10000 dump.dcd
dump_modify     myDump append yes
dump_modify     myDump2 append yes


variable natoms 	equal  "count(all)"                        # NUMBER ATOMS
variable H      	equal  "enthalpy/v_natoms"                 # ENTHALPY-per-atom
variable Vol      	equal  "vol/v_natoms"                 # volume-per-atom
fix AVG all 		ave/time ${out_freq} 1 ${out_freq} v_Vol v_H file vol_enthalpy.dat
fix AVG all 		ave/time 1000 1 ${out_freq} v_Vol v_H file vol_enthalpy.dat
fix AVG all 		ave/time 1000 1 1000 v_Vol v_H file vol_enthalpy.dat



fix 		1 all shake 1e-6 200 0 b 1 a 1
       0 = # of size 2 clusters
       0 = # of size 3 clusters
       0 = # of size 4 clusters
     336 = # of frozen angles
  find clusters CPU = 0.377 seconds
fix             2 all nph tri ${pressure} ${pressure} ${pressureDamp}
fix             2 all nph tri 2875 ${pressure} ${pressureDamp}
fix             2 all nph tri 2875 2875 ${pressureDamp}
fix             2 all nph tri 2875 2875 1000
fix             3 all temp/csvr ${temperature} ${temperature} ${tempDamp} ${seed}
fix             3 all temp/csvr 227.74 ${temperature} ${tempDamp} ${seed}
fix             3 all temp/csvr 227.74 227.74 ${tempDamp} ${seed}
fix             3 all temp/csvr 227.74 227.74 100 ${seed}
fix             3 all temp/csvr 227.74 227.74 100 745823


run             250000
PPPM initialization ...
  extracting TIP4P info from pair style
  using 12-bit tables for long-range coulomb (../kspace.cpp:340)
  G vector (1/distance) = 0.38330409
  grid = 24 30 32
  stencil order = 5
  estimated absolute RMS force accuracy = 0.0019477144
  estimated relative force accuracy = 5.8654839e-06
  using double precision FFTW3
  3d grid and FFT values/proc = 3825 384
Last active /omp style is kspace_style pppm/tip4p/omp
Neighbor list info ...
  update every 1 steps, delay 7 steps, check yes
  max neighbors/atom: 2000, page size: 100000
  master list distance cutoff = 10.8154
  ghost atom cutoff = 10.8154
  binsize = 5.4077, bins = 5 5 4
  1 neighbor lists, perpetual/occasional/extra = 1 0 0
  (1) pair lj/cut/tip4p/long/omp, perpetual
      attributes: half, newton on, omp
      pair build: half/bin/newton/tri/omp
      stencil: half/bin/3d/tri
      bin: standard
Per MPI rank memory allocation (min/avg/max) = 9.329 | 9.334 | 9.337 Mbytes
Step Temp PotEng TotEng E_pair E_mol Press Lx Ly Lz Volume Pxx Pyy Pzz Pxy Pxz Pyz Enthalpy 
16500000    241.04346   -4876.5085   -4394.3918   -4876.5085            0    5093.5288    17.877267    23.191557    19.386494    8037.6728    4794.0362    4967.7981    5518.7521   -1028.0455   -412.88873    671.35293   -3797.3222 
16501000     222.7272   -4882.8307   -4437.3488   -4882.8307            0    2858.2239    18.099223    23.270372    19.317249    8135.9551    3080.6742    2280.8052    3213.1924    1095.5073    556.27853    1401.3298   -4098.2075 
16502000    233.21979   -4898.2641   -4431.7957   -4898.2641            0    2916.9255    18.193545    22.722742    19.678236    8135.1249    2200.7196    4487.2584    2062.7987    398.87872    71.592505    181.89151   -4085.7245 
16503000    221.53882   -4885.5505   -4442.4455   -4885.5505            0    3618.7606    18.198126    22.824692     19.49262    8096.5835    3534.7962     4328.067    2993.4187    964.06995   -284.63918    803.92645   -4015.1409 
16504000    217.51552   -4907.4589    -4472.401   -4907.4589            0    163.97216    18.241895    22.895878    19.634017    8200.4258   -275.60437   -521.36781    1288.8887    344.97222    420.70466   -1484.5405   -4452.7908 
16505000    229.42752    -4904.184   -4445.3006    -4904.184            0    1803.8315    18.156419    23.013796    19.523343     8157.792    828.65663    1977.3419    2605.4959    -746.9951    344.81552   -775.78101   -4230.6933 
16506000    242.94336   -4904.2616   -4418.3449   -4904.2616            0    2506.4207    18.131133    23.194051    19.247291    8094.1483    3391.1354    807.17692    3320.9498   -983.13938   -347.67502    637.51821   -4122.4748 
16507000    223.14356    -4888.494   -4442.1793    -4888.494            0    1421.4306    17.924881    23.449091    19.517781    8203.7559    2476.9072   -202.47307    1989.8575   -169.36801    340.07215   -937.18764   -4272.1146 
16508000    234.21292   -4894.9736   -4426.5189   -4894.9736            0     3288.618    18.127122    23.023795    19.375883    8086.6243    2722.5783    3131.7124    4011.5633   -427.33584    289.65144    377.73435   -4038.6753 
16509000    240.20484    -4886.971   -4406.5316    -4886.971            0    4122.7798    18.225773    22.852451    19.465661    8107.5175     4072.072    3952.0996    4344.1679   -577.52918   -102.95323   -481.01413   -3919.0548 
16510000    223.79951   -4869.4826   -4421.8559   -4869.4826            0    2342.2153    18.009612    22.859642    19.718285    8117.8854    4730.8542    2515.4159   -219.62415   -693.99028   -284.33857    873.53145   -4144.5586 
16511000    225.51785   -4887.3289   -4436.2653   -4887.3289            0    3834.9361      18.2061    23.071178    19.254121    8087.4271    3920.2596    3468.5052    4116.0434    1490.4717    949.35534    2478.6345   -3983.9468 
16512000    239.24083   -4869.9871   -4391.4759   -4869.9871            0    2902.4446    18.122819       23.146     19.38469    8131.3106    3830.6789    2322.8602    2553.7947     448.7598    472.31265   -607.59733   -4047.2842 
16513000    230.24063   -4856.0248    -4395.515   -4856.0248            0    2498.5004    17.943394    23.210289    19.495042    8119.1269    3528.6797    1784.8014    2182.0201   -2315.4954    433.55274   -1694.0434   -4099.6698 
16514000    236.47095   -4908.8184   -4435.8472   -4908.8184            0    2826.5754    18.290601    22.954902    19.279298    8094.5861    746.76812    3728.0325    4004.9255    352.45641    -529.9224    38.139989   -4102.1665 
16515000    228.02399   -4885.8438   -4429.7676   -4885.8438            0    3840.5199    18.138263    22.876036    19.435296    8064.3176    4060.1601    3252.3915    4209.0079    417.91786   -186.89998   -714.76306   -3978.0849 
16516000    230.70797   -4896.1825   -4434.7381   -4896.1825            0    2113.8445     18.18354    22.889767    19.551642    8137.7254    3381.9453    1343.4003    1616.1878   -359.60945      153.459   -1611.4966   -4183.8662 
16517000    229.87815   -4891.1344   -4431.3497   -4891.1344            0    2892.2857    18.253035    22.937732    19.420224    8130.9219     2340.889    3797.9149    2538.0532    859.59468   -50.343984     433.0558   -4088.3791 
16518000    226.10187   -4906.0545   -4453.8228   -4906.0545            0    1236.8251    18.144856    23.103356    19.467442    8160.8892    1229.4586    66.443021    2414.5737    535.39183   -585.81438    -6.930281   -4306.6181 
16519000    230.56088   -4883.7181   -4422.5678   -4883.7181            0    5427.8596    18.085245    23.090849    19.223006    8027.5975    4172.0584    4823.4139    7288.1066   -388.37425   -1236.9498   -693.70562   -3787.1051 
16520000    237.33372   -4914.8165   -4440.1198   -4914.8165            0     3999.783    18.216326     23.07975    19.251858    8094.0252    3575.4967    3092.0123    5331.8398   -1133.2736   -282.48186    -1265.778   -3967.9732 
16521000    237.14218   -4926.8696   -4452.5559   -4926.8696            0    3483.6576     18.00432    22.900166    19.587566    8075.9913    3670.4222    3966.3613    2814.1893   -53.594284    536.15099    679.34838   -4042.2506 
16522000    228.09552   -4884.9931   -4428.7739   -4884.9931            0    968.88575    18.314786    22.910547    19.475409     8171.916    2448.1324    221.20133    237.32351   -112.69344   -765.17413    938.21421    -4313.303 
16523000    216.07555   -4899.7859   -4467.6081   -4899.7859            0    2659.9413    18.267305     22.74399     19.49683    8100.3752    1980.0186    4044.1338    1955.6714    687.06577     312.1042    1116.1891   -4153.3742 
16524000    241.94095   -4874.8631   -4390.9513   -4874.8631            0    1611.6203    18.057375    23.030727    19.667132    8179.0581    3681.8192    1617.0669    -464.0253    427.39426    -530.6051   -1294.3694   -4198.7121 
16525000    230.57709   -4870.9871   -4409.8044   -4870.9871            0     2883.021    18.261444     22.98925    19.384151    8137.7945    2545.7291    2247.0141    3856.3197     1963.995    233.07228    1578.9505   -4067.6435 
16526000    233.30749   -4879.0585   -4412.4147   -4879.0585            0    1911.9161    18.128449    23.136316     19.41368    8142.5934    1903.5548    2798.1358    1034.0578    1197.6259    1973.2629   -920.07066    -4185.372 
16527000    235.82235   -4868.0272   -4396.3534   -4868.0272            0    3506.5268    18.133249    23.149914    19.383955    8137.0582    3946.3221    2660.4022    3912.8562    669.78116    1059.3045    141.49065   -3980.2315 
16528000    222.13668   -4888.5095   -4444.2087   -4888.5095            0    2597.0253    18.210332    23.047436    19.382205    8134.7397    4115.0754    1258.1284    2417.8721    201.19339     52.67837   -171.42262   -4136.1059 
16529000    233.29559   -4900.9274   -4434.3074   -4900.9274            0    1966.6227    18.040878     22.91101     19.72664    8153.7057    3307.6519    1425.1922    1167.0239   -911.63849   -1114.4001   -498.62929   -4200.4495 
16530000    244.28596   -4902.2412   -4413.6391   -4902.2412            0    4781.0216    18.169775    22.813175    19.434211    8055.6796    3541.9001    6426.1108    4375.0539   -486.63285    623.39404    810.24991   -3851.9464 
16531000    241.69503    -4890.271   -4406.8511    -4890.271            0    1287.1085    18.261678     22.97401    19.567686    8209.5049    1873.2768    303.48946    1684.5592     844.5279   -70.709386     780.5519   -4252.7492 
16532000    224.71041   -4871.8297   -4422.3811   -4871.8297            0    3751.5101    18.088317    22.831521    19.633891    8108.4786    3168.0931    3372.2635    4714.1738   -1409.6656     395.5963    24.822695   -3978.7506 
16533000    213.01918   -4857.4502   -4431.3856   -4857.4502            0    3628.9256    18.217587    22.853608     19.39954    8076.7577     4221.481    2792.0173    3873.2784    1152.2428   -692.68418     964.7121     -4003.93 
16534000    222.93228        -4913   -4467.1078        -4913            0    848.81298    18.221945    22.832425    19.627848    8166.1895    972.04301    1488.0021    86.393786   -1057.5845    -72.58163   -631.35495    -4366.018 
16535000    231.43627   -4923.8955   -4460.9943   -4923.8955            0    4158.1261    18.250655    22.947178    19.250712    8062.2176    3653.6687    4422.6288    4398.0807    1097.4328    307.30047    1626.0799   -3972.0853 
16536000    229.32531   -4917.6466   -4458.9676   -4917.6466            0    2948.3594    18.167295    23.063974    19.313991    8092.7558    2416.3961    2498.5481    3930.1338    268.74472    391.73347    66.718307   -4110.9889 
16537000    230.37235   -4887.6673   -4426.8941   -4887.6673            0    4473.5386    17.917252    23.068624    19.493994    8057.3816    4335.5957    4355.7878    4729.2324    1177.6876    422.23151   -944.93255   -3901.2146 
16538000    235.52416   -4907.0139   -4435.9364   -4907.0139            0    2410.7755    18.346037    22.881594    19.378728    8134.9298    1138.9427    2277.8245    3815.5594   -479.63299     333.7203    609.93731    -4149.923 
16539000    220.33685   -4877.5081   -4436.8072   -4877.5081            0    2527.5605    18.271429    22.596922    19.701695    8134.3975    720.20372    4016.9786    2845.4992    1350.3352   -402.43577   -244.78277    -4136.958 
16540000    234.51181   -4888.5363   -4419.4837   -4888.5363            0    3779.8372    18.168774    22.688527    19.629216    8091.6091    4362.2912    4590.3027    2386.9176    1488.3145    1276.0731    104.44047   -3973.4334 
16541000    217.43207   -4869.7709   -4434.8799   -4869.7709            0    2442.4631    18.146386    23.208757    19.433871    8184.6732    3901.1766    1441.4961    1984.7165    515.50347    448.01586    117.53993   -4143.3351 
16542000    227.57687   -4883.6508   -4428.4689   -4883.6508            0    4296.8888    18.018286      23.0692    19.387781    8058.8693    4780.0894    3634.6263    4475.9508   -870.51995    6.8804802   -1941.1053   -3923.4541 
16543000    231.47756   -4877.2514   -4414.2677   -4877.2514            0     1132.344    18.079516    23.461472    19.298804    8186.0134    1712.4275    670.47226    1014.1322     973.7641    1091.4791   -917.48605   -4279.0832 
16544000    227.75267   -4917.8646   -4462.3311   -4917.8646            0    3074.2123     18.06714    22.978074    19.456699    8077.4113    5457.5687    2391.9085    1373.1597   -564.95166   -539.93877   -2355.7455   -4100.1866 
16545000    213.28751   -4892.3642   -4465.7628   -4892.3642            0    2319.7751    18.243115     22.85873    19.554544     8154.527    2055.0734     3752.736     1151.516    1094.3069    584.20703    657.29963   -4189.8826 
16546000    224.84017   -4895.5188   -4445.8107   -4895.5188            0    2041.7545    18.339239    22.646315    19.570288    8127.8572    1227.8467    2978.4358     1918.981    224.68842   -910.41687   -31.517213   -4203.7884 
16547000    233.92776   -4899.1008   -4431.2164   -4899.1008            0    2962.7724    18.143279    22.861422    19.597719    8128.7645    3017.4391    2356.9655    3513.9127    -159.5892   -909.14375   -304.77043   -4079.9806 
16548000    225.40385   -4905.5262   -4454.6906   -4905.5262            0    2524.7606    18.204128    22.945674    19.428513    8115.4064    1601.1514    2376.1631    3596.9675   -559.26049     -688.045   -1186.9813   -4155.8729 
16549000    239.83505   -4887.7105   -4408.0108   -4887.7105            0    3660.2789    18.044228    23.167252    19.313915    8073.8957    2406.1962    3242.0461    5332.5944    1569.6621   -698.25319    647.23433   -3977.0148 
16550000    219.67481   -4897.2545   -4457.8777   -4897.2545            0    3966.2456    18.045963    23.018173    19.456375    8081.8883    2955.8812    4450.9918    4491.8638    175.49829    646.72974   -2148.3053    -3990.392 
16551000    240.00626   -4858.1235   -4378.0813   -4858.1235            0    2643.4758    18.180436    23.122219    19.475148    8186.8074    4126.0278    2580.3423    1224.0574    1710.7077    1346.8195     487.7489   -4062.4604 
16552000    229.91808   -4916.2806   -4456.4161   -4916.2806            0    4707.2543    18.121144    22.941779    19.371921    8053.5136    3586.1858    5681.0582     4854.519   -567.10797   -30.126646    487.95244   -3903.5385 
16553000    228.01695   -4920.2911    -4464.229   -4920.2911            0    2707.3984    18.235574    22.818415    19.459463     8097.217    591.29598    3851.9421    3678.9571    1370.3829     458.8236    326.58748   -4144.5134 
16554000    236.87457   -4873.4265   -4399.6481   -4873.4265            0    1689.7466    18.173052    22.987108    19.620394    8196.3394    2993.4511    1591.4835    484.30525    61.980337   -123.79881   -1098.5405   -4197.6639 
16555000    229.12247   -4877.3099   -4419.0366   -4877.3099            0    1912.6272    18.088505    23.077021    19.525303    8150.4242    1532.0897    2282.4645    1923.3273   -957.42741    220.41386    994.08614   -4191.6911 
16556000    237.65784   -4867.4479   -4392.1028   -4867.4479            0     1328.014    18.193868    23.099977    19.460417     8178.784    1236.4126    1551.7332    1195.8961   -116.71021    562.79706     1431.366   -4233.6984 
16557000    227.20163   -4911.7691   -4457.3378   -4911.7691            0    2914.1782    18.180821    22.875966     19.43854    8084.5631    2934.3068     3201.475    2606.7527   -555.32119   -873.83972   -570.05602   -4113.7414 
16558000    226.02503   -4884.8593   -4432.7813   -4884.8593            0    390.49999    18.266641    22.753385    19.787072    8224.0595      969.936    571.54089   -369.97694   -1183.0086   -811.83259   -1284.0485   -4385.9449 
16559000    227.70001   -4900.5819   -4445.1537   -4900.5819            0    2894.0876    18.295633    22.784761    19.486039    8122.9817    2976.9386    2814.1196    2891.2045    -107.4818   -1167.7856    2321.4067   -4102.3046 
16560000    230.16003   -4896.1685     -4435.82   -4896.1685            0    2235.3243    18.136146    23.185884    19.315042    8122.0251    2612.4754    903.45252     3190.045    1046.1295   -990.06849    505.98493   -4171.0427 
16561000    232.13375   -4877.6545   -4413.3583   -4877.6545            0    3105.6489    17.898915    23.347746    19.437275    8122.8238         4126    1687.4347    3503.5119   0.19648297   -881.96611     1094.159   -4045.4537 
16562000    235.18437   -4862.7124   -4392.3146   -4862.7124            0    2332.5356    18.146383    23.233464    19.342903    8155.0323    1553.8577    1578.2172    3865.5318    818.65914    168.61013   -359.32491   -4114.8997 
16563000    232.57079   -4872.8287   -4407.6584   -4872.8287            0    3423.5193    18.067303    22.918789    19.613442    8121.5474    2486.4856    3864.6144     3919.458    287.12287    1109.1787    1504.6148   -4002.1616 
16564000    228.55213    -4896.067   -4438.9345    -4896.067            0     3294.486    18.407396    22.609748    19.498649    8115.0763     1757.342    4152.4568    3973.6593    317.89767    19.388782   -162.61853   -4049.0318 
16565000    231.03847   -4915.7984   -4453.6929   -4915.7984            0    3581.3246    18.250878    22.619732    19.517811    8057.5371    2178.3827     5417.253     3148.338    11.097296    262.85034   -154.60067   -4032.8482 
16566000    228.49281   -4860.9437   -4403.9298   -4860.9437            0    685.65796    18.108817    23.282398    19.468972    8208.4435    1472.9722   -171.44294    755.44459    69.104862   -362.06166    106.12183   -4321.8485 
16567000    221.06934   -4891.2993   -4449.1333   -4891.2993            0    3453.1339    18.048195    23.284464    19.269196    8097.7358     2967.068    3066.6097    4325.7241   -773.25262   -546.43662     638.0422    -4041.328 
16568000    223.69966   -4880.3457   -4432.9187   -4880.3457            0    3228.7825    18.022745    23.120109    19.409133    8087.5494    3987.8118    2899.3133    2799.2224    288.56898    74.356792    47.004223   -4052.0883 
16569000    227.42058   -4918.6828   -4463.8136   -4918.6828            0    3582.9592    18.180292    22.985896      19.4408     8124.122    1814.1647    4067.7689     4866.944    320.70382   -259.25298    68.512264   -4039.2974 
16570000    232.89167   -4887.4822   -4421.6701   -4887.4822            0    2083.1891    18.232876    22.861429      19.5181    8135.7219    1324.9401    1968.4312    2956.1958    387.57912    1196.9623    509.84434   -4174.4973 
16571000    227.59044   -4888.5848   -4433.3758   -4888.5848            0    2347.8317    18.371643    22.822409    19.443224    8152.2547    1009.2769    3255.6078    2778.6102    961.15893    1461.3323   -676.21709   -4154.2367 
16572000    240.70182   -4870.1203   -4388.6869   -4870.1203            0    2075.6727    18.224123    23.001019    19.486164    8168.0816     1174.707    3208.8452    1843.4659   -188.93969    622.83009   -616.59126   -4141.4264 
16573000    222.21318   -4912.5802   -4468.1264   -4912.5802            0    1628.2023    18.154657    23.057264    19.503785    8164.2203     685.4989    1390.8737    2808.2345    -1001.217   -528.96759    527.22097   -4274.2615 
16574000    210.90018   -4886.1625   -4464.3361   -4886.1625            0    3456.1981    18.373593    22.847114    19.278273    8092.7025    2753.1031    4264.3353    3351.1559   -1372.6143   -295.44664   -224.84838   -4056.4226 
16575000    232.94007   -4914.2229    -4448.314   -4914.2229            0    3765.8869    18.055314    22.891373    19.501965    8060.3755    5369.4906    2165.6666    3762.5036    501.26511    -1332.422     1267.223   -4005.6253 
16576000    231.02205   -4894.0769   -4432.0043   -4894.0769            0     3287.025    18.113743    22.955533    19.546159    8127.5006    4257.5426    2448.3369    3155.1955    51.878096   -852.60348    357.58248   -4042.3891 
16577000    209.30124   -4895.9431   -4477.3147   -4895.9431            0    1278.1425    18.257536    22.833692    19.528279    8141.0849    2213.6729    1072.5759    548.17865   -84.658618   -701.25503    196.68368   -4325.5617 
16578000    237.44692   -4871.0318   -4396.1087   -4871.0318            0    2417.5479    18.263923    22.866621    19.459129    8126.7978    2014.2027    3065.2142    2173.2269   -346.98958    125.03619   -123.47062   -4109.5784 
16579000     224.3519    -4898.672   -4449.9405    -4898.672            0    3971.7038    18.051577    22.890231    19.547033    8076.9273    4620.0772     4556.978     2738.056   -686.30871    1081.7816    991.85569   -3982.0988 
16580000    247.48787   -4900.8848   -4405.8785   -4900.8848            0     1578.371    18.309458    23.081806    19.357528    8180.7886    2206.5263    403.12466    2125.4621   -548.22953    859.77075    1131.7034   -4217.5656 
16581000    225.37019    -4876.252   -4425.4837    -4876.252            0    3524.0282    18.121741    22.818226    19.572624    8093.3971    5864.0191     3311.283    1396.7826   -1186.6276    305.95483   -265.45323    -4009.529 
16582000    224.13825     -4909.12   -4460.8158     -4909.12            0    1858.5948    18.255764    22.896184    19.492339     8147.551    1686.7476    1345.4146    2543.6223    684.14611    -893.0648    374.88341   -4239.9707 
16583000    227.36351   -4864.7808   -4410.0257   -4864.7808            0     3185.813    18.180093    23.075723    19.358833    8121.3945    1461.5169    3705.5932     4390.329   -403.01105   -1081.7771   -1711.1114   -4032.6909 
16584000    235.63382   -4870.1008   -4398.8041   -4870.1008            0    1496.4253    18.076146    23.154245    19.514261     8167.489      2791.64    28.095346    1669.5405    1566.6648   -1818.6769    1455.4444   -4220.5582 
16585000    227.09512   -4902.6771   -4448.4588   -4902.6771            0    3751.5968    18.020909    23.076702    19.386533    8062.1445    3579.6175    2439.5088     5235.664     -504.839   -755.94144   -2014.1482   -4007.3532 
16586000    224.47369   -4893.7047   -4444.7296   -4893.7047            0    2285.7174      18.2774    22.822372    19.544896     8152.833    1526.2916     2831.337    2499.5237    464.02754    744.85685    156.16075   -4172.9562 
16587000    222.90522   -4893.9486   -4448.1106   -4893.9486            0     3650.421    18.277888    22.908679    19.402923     8124.436    3300.9484    2661.3354    4988.9793    157.43077    634.30858   -303.77632   -4015.5848 
16588000    227.95191   -4890.5188   -4434.5869   -4890.5188            0    2695.8285    18.089787    22.989751    19.533852    8123.7326    3521.1993    1777.7162    2788.5701   -834.95341    285.03046    65.574089    -4115.195 
16589000    223.86498   -4926.5881   -4478.8304   -4926.5881            0    2606.9148    18.110899    23.197803    19.270683    8096.2514    2561.6738    1830.4769    3428.5938    807.81471    755.79348    1776.6001   -4171.0176 
16590000    217.49524    -4879.029   -4444.0116    -4879.029            0     2881.994    18.021381    23.035859    19.535483    8109.9212    3600.4971    3051.1646    1994.3203    331.90605   -616.30433    366.02346   -4103.1441 
16591000    225.03421   -4895.9696   -4445.8733   -4895.9696            0    3252.7561    18.176394    22.982263    19.495364    8143.8891    4468.1331    2690.8113    2599.3239    552.22189    186.93016   -76.669181   -4059.5426 
16592000    230.07142   -4901.7599   -4441.5886   -4901.7599            0    3916.2991    18.042694    22.827776     19.63309    8086.3709    4547.2427    4820.3531    2381.3017     417.7886   -233.57796    -272.5015   -3979.7339 
16593000    233.92368   -4885.2641   -4417.3879   -4885.2641            0    1000.5061    18.241639    22.847172    19.565607    8154.3554    895.50933    789.21645    1316.7926    38.279646   -1393.4109   -267.94066   -4298.4048 
16594000    222.08973   -4884.3503   -4440.1434   -4884.3503            0    3643.5462    18.284323     22.90924    19.432653    8139.9489    4267.0087    3780.5929     2883.037    559.24909   -322.02786   -480.02321   -4007.6078 
16595000    215.55087   -4905.0767   -4473.9483   -4905.0767            0     3111.389    18.022146    22.900371    19.656705    8112.5937    5093.5472    2911.3184    1329.3014   -337.07448    591.28117   -719.51938   -4105.8279 
16596000     228.1852   -4883.9957   -4427.5971   -4883.9957            0    3432.0518     18.09823    23.054089    19.404134     8096.146    4365.5763    3244.4511    2686.1278    272.48997    611.65527    694.67372   -4022.3611 
16597000    223.45591   -4883.9071   -4436.9677   -4883.9071            0    3669.8913    18.067488    23.119548      19.3781    8094.4681    2627.7774    2566.9862    5814.9103   -282.83593    675.04506   -326.38474   -4003.7388 
16598000    227.23803   -4892.9761    -4438.472   -4892.9761            0    2026.0047    18.009669    23.267173    19.429227    8141.5081    3454.2853    795.03613    1828.6926   -1049.0013    60.497903    364.52086   -4197.9132 
16599000    224.12523   -4885.9211   -4437.6429   -4885.9211            0    3039.5682    18.103128    23.038204    19.417591    8098.3694    3843.8202    2960.3731    2314.5112   -1463.5284    308.28533    1235.5485   -4078.6504 
16600000    221.72111   -4878.5699   -4435.1003   -4878.5699            0     3623.311    18.181705    22.826348    19.509947    8097.0556    4715.6328    3213.2404    2941.0599   -1462.8193    510.76208    1790.6271   -4007.2334 
16601000    220.94947   -4911.4888   -4469.5626   -4911.4888            0    1032.5392    18.344008     22.88264    19.474693    8174.6838    626.76922    1105.8778    1364.9705   -1079.6188    720.02145   -911.70074   -4346.4639 
16602000     223.2525   -4885.0331   -4438.5005   -4885.0331            0     3427.736    18.235082    23.057246    19.340944    8131.9147    3126.4608    2922.7257    4234.0214    190.77836    501.04324    1447.1994    -4031.986 
16603000    225.83761    -4877.083   -4425.3799    -4877.083            0    1515.0955    18.176079    23.020679    19.563235    8185.7599    1610.4913    714.87957    2219.9156    822.54677   -148.16671    -217.7287   -4244.5064 
16604000    230.81574   -4880.7185   -4419.0585   -4880.7185            0    3635.7226    18.212693    22.832451    19.441354    8084.5004     2303.485    3926.0349    4677.6477   -203.79118   -492.57775   -873.41339   -3990.3917 
16605000    230.67984   -4853.8143   -4392.4261   -4853.8143            0    3523.4921    18.325889    22.858473     19.41393    8132.5311    2876.3986     4354.846    3339.2318    2532.4805   -249.38128    1287.7855   -3974.5236 
16606000    224.08153   -4910.4536   -4462.2628   -4910.4536            0     2056.892    18.102956    22.965842    19.565516    8134.3561    2174.1545    2969.9018    1026.6197    -360.3174    818.11918   -432.53296   -4218.2512 
16607000    218.74298     -4865.07    -4427.557     -4865.07            0    2756.2535    18.146569    23.332941    19.173246    8118.1982    1115.5147    2669.4606    4483.7853    -371.2582    509.46704    194.46403   -4101.2287 
16608000    231.62582   -4881.0918   -4417.8115   -4881.0918            0    1743.5735    18.210398    23.185239    19.332837    8162.5639    562.04819    1142.9575    3525.7149    992.65325   -400.27627     123.0074   -4210.2519 
16609000    223.64162   -4889.3999    -4442.089   -4889.3999            0     4125.697    18.149105    22.721609    19.547921    8061.1104    2738.8976    4944.1433    4694.0501   -639.76276   -73.475573    2042.9961   -3957.0596 
16610000    236.69919   -4891.9642   -4418.5365   -4891.9642            0    3166.3085    18.296676    22.745333    19.541313    8132.3905    1464.3198    3485.2977     4549.308    363.76694     641.7528   -1568.9774   -4043.0042 
16611000    250.70607   -4904.4659   -4403.0228   -4904.4659            0    3103.4117    18.160939    23.030725    19.434989    8128.8707    2634.3246     3360.595    3315.3154   -336.87248    1258.5339    537.93979   -4035.1095 
16612000    230.76954   -4886.0819   -4424.5143   -4886.0819            0    2135.7376    18.038046    23.286098    19.402183    8149.6096    2013.4637    1175.9867    3217.7625   -463.42463    588.00604   -656.54829    -4170.674 
16613000     232.3725   -4903.9024   -4439.1287   -4903.9024            0    4198.6851    17.972325    23.210459    19.309955    8055.0688    5842.8537    2845.4371    3907.7645    1414.2572   -1863.8503    827.41607   -3945.8885 
16614000    230.47506   -4876.1832   -4415.2046   -4876.1832            0    2825.9552    18.229775    22.828977    19.545307    8134.1144    3665.4291    2350.4507    2461.9858   -105.83549    -68.28168   -282.11968    -4079.968 
16615000    225.29293   -4894.5045   -4443.8908   -4894.5045            0    2585.4396    18.255441    22.776666    19.612061    8154.6576    1872.7148    3084.1367    2799.4671    1305.1816    35.058111    2041.0196   -4136.4114 
16616000    221.09558   -4906.8429   -4464.6244   -4906.8429            0    3640.5694    18.299574    22.679544    19.544263     8111.377    2298.4035    5320.7075    3302.5972   -1336.7157    690.75648   -707.89425   -4033.9592 
16617000    225.43275   -4918.5552   -4467.6618   -4918.5552            0    3133.6044    18.209122    22.939268    19.381434    8095.7011    2076.6663    3424.8549    3899.2922   -175.13783    676.83387    868.33846    -4097.685 
16618000    223.72138   -4900.8601   -4453.3897   -4900.8601            0    4321.4198    18.007762     23.14055     19.36724    8070.5136    7458.0435    3341.9287    2164.2873   -909.51988    371.04854   -1748.1653   -3944.7579 
16619000    218.31146   -4894.3067   -4457.6568   -4894.3067            0    1883.8294    18.065063      23.2514    19.404465    8150.6128    3065.8794    1578.1534    1007.4554    860.27082   -504.80198     1549.227   -4233.7292 
16620000    228.67783   -4897.6946   -4440.3106   -4897.6946            0    3802.5649    18.059746    23.227871    19.269181    8083.2181    4741.2708    2401.2505    4265.1734   -2223.1416   -1077.4288   -1494.2073   -3992.0436 
16621000    235.37901   -4927.2576   -4456.4706   -4927.2576            0    3743.4806    18.099659    22.914343    19.468285    8074.3115    1715.6748    4038.2946    5476.4725     786.7326   -519.80876   -342.47185   -4015.6549 
16622000    238.00357   -4887.6236   -4411.5871   -4887.6236            0    2033.2604    18.238684     22.91476    19.496836    8148.4116     1047.319    1904.9206    3147.5417    132.27821   -123.39381   -381.90315   -4169.9621 
16623000    233.55361   -4903.8628   -4436.7267   -4903.8628            0    2141.8541     18.29106    22.733385    19.512046    8113.4543    -57.09618     3840.057    2642.6015    -506.4768   -860.75543   -1164.8238   -4183.2888 
16624000     228.7423   -4883.8916   -4426.3787   -4883.8916            0     1249.386    18.285987    22.803055    19.603534    8174.2108     1610.514     2177.411   -39.766984    1114.9019    942.00015    238.98394   -4277.4363 
16625000    236.98363   -4892.7997   -4418.8032   -4892.7997            0    1904.0545    18.231119    22.983858    19.418082    8136.5931    668.83333    2953.9144    2089.4157   -420.51267     1619.054   -205.85011   -4192.8607 
16626000    223.86967   -4899.3966   -4451.6296   -4899.3966            0    2504.9929    18.050262    22.990959    19.526573    8103.3877    4171.9763    2069.2122    1273.7903    1171.1606    1017.3821    1559.4154   -4155.5906 
16627000    215.29939   -4881.9825   -4451.3572   -4881.9825            0    1988.2071     18.19668    23.351238    19.246104    8177.9585    286.63933    1667.3159    4010.6661   -1784.4158    478.40445   -2011.5841   -4214.2294 
16628000    228.69949   -4908.6457   -4451.2185   -4908.6457            0    3946.1804    18.087212    23.094133    19.265783    8047.4809    3253.1686    3494.5852    5090.7874    980.94667   -937.95401    1098.2837    -3988.078 
16629000    238.22259   -4868.3102   -4391.8356   -4868.3102            0    3230.5959    18.088882    22.956246    19.585512     8132.939    3044.1873    3664.1004    2983.5001   -267.95719    1263.5995     461.6954   -4008.6527 
16630000    225.82558   -4921.6663   -4469.9872   -4921.6663            0    1930.4968    18.288192    22.893443    19.423263    8132.1256    1256.0898    2347.2434    2188.1573    369.34225    213.36988    251.84407   -4241.0328 
16631000    221.83844   -4913.3962   -4469.6919   -4913.3962            0    3343.4944    18.332758    22.762753    19.450106    8116.6077    2529.7125    3835.6564    3665.1144   -655.65863    -96.20178    1308.8358   -4073.9145 
16632000    239.88291   -4891.5324   -4411.7369   -4891.5324            0    1408.4327    18.214901    23.052072    19.498612    8187.2956    1411.0058    834.39903    1979.8932   -944.12535    526.44313   -831.93922   -4243.5654 
16633000    226.89187   -4866.8571   -4413.0453   -4866.8571            0    3224.3861    18.207346    22.987474    19.359589    8102.7797    2598.2722    3088.6563    3986.2297    498.49386    -1094.356    905.27378   -4032.0173 
16634000     217.6038   -4897.4529   -4462.2184   -4897.4529            0    1554.5486    18.100274    23.088897    19.469668    8136.6732    749.03405    2263.6966    1650.9152     -216.845     587.4607    -1676.671   -4277.7478 
16635000    227.50013   -4897.2301   -4442.2017   -4897.2301            0    4795.0722    18.098326    22.952249    19.337719    8032.8359    4108.5063    5590.6833    4686.0269    581.16675   -647.23458   -53.255576   -3880.4558 
16636000    235.45887   -4887.7434   -4416.7966   -4887.7434            0    3521.3308    17.992699    23.027956    19.526566    8090.5413    3784.3341    2357.3177    4422.3406     705.8272   -714.96568    2705.2791   -4001.3068 
16637000     225.9833   -4899.3131   -4447.3185   -4899.3131            0    2878.6254    18.150157     22.95173    19.420518    8090.1511    3713.8156    2420.0321    2502.0285   -414.16545   -418.18945   -983.29802   -4107.6794 
16638000    225.75509   -4890.6663   -4439.1282   -4890.6663            0    2813.3661    18.253934    22.844622    19.449045    8110.3339    1253.6588    3238.1825    3948.2571    467.89357   -220.79802    918.66705   -4106.3607 
16639000    213.06428    -4892.213   -4466.0582    -4892.213            0    1973.7883    18.271487     22.82623    19.494987    8130.7578    1161.9554    3346.7291    1412.6803   -1077.2344    593.28447   -1018.6075   -4232.0088 
16640000    239.01044   -4902.6388   -4424.5884   -4902.6388            0    2605.6028     18.18087    22.953231    19.498821    8137.0475    2539.2995    2848.2116    2429.2972    948.12721   -190.67671    1055.1131   -4115.3802 
16641000    229.47338   -4900.3555   -4441.3803   -4900.3555            0    2340.4732    18.019268    23.261959    19.386992    8126.3191    3910.0817    609.79848    2501.5394   -89.768473   -525.10406   -1490.4325   -4164.0014 
16642000    222.85113   -4880.6591   -4434.9293   -4880.6591            0    3348.6937    18.049442     23.24772    19.355434    8121.7023    2092.0769    3638.5372    4315.4668   -157.10534    491.42059     -396.373   -4038.2876 
16643000    230.06913   -4908.4009   -4448.2342   -4908.4009            0    2842.1381    18.183076    22.931128    19.510277    8134.9749    3496.1925    2740.4589    2289.7628     1474.843    243.14149   -1207.2312   -4111.0422 
16644000    224.67222   -4881.5455   -4432.1733   -4881.5455            0    2990.2477    18.217342    22.814252    19.526905    8115.6756    4305.1419    2213.3352     2452.266    33.880611   -792.28629    232.48751   -4078.2511 
16645000    225.21488   -4888.7249   -4438.2673   -4888.7249            0    2595.6085     18.37418    22.689203    19.538202    8145.3888     2188.288    2820.6212    2777.9163   -1400.7858   -602.55314    101.85717   -4129.9295 
16646000    225.73328   -4901.2258   -4449.7314   -4901.2258            0    2658.0998    18.079278    23.151881    19.349579    8099.1397    4062.6093    1467.3878    2444.3021    116.35307   -358.76017    2059.9791   -4135.7629 
16647000    215.83265   -4904.8942   -4473.2023   -4904.8942            0    3318.9635    18.032592    23.215376    19.294525    8077.3327    3344.4506    1895.7166    4716.7233   -1082.4954   -1016.1419   -1720.2935   -4082.2296 
16648000    231.83061   -4902.5468   -4438.8569   -4902.5468            0    3332.3342    17.979904    23.130167    19.439935    8084.6449    4399.8775    1152.9889    4444.1362   -197.26766   -1076.2826   -9.3442643   -4045.9538 
16649000    244.92191   -4902.2578   -4412.3838   -4902.2578            0     1459.214    18.246027    22.866754    19.619665     8185.862    1207.0745    2564.3841     606.1834    -1128.753    1303.7343   -1270.7941   -4238.1793 
16650000    225.93881   -4904.4714   -4452.5659   -4904.4714            0     3467.863     18.37881     22.51371    19.566619    8096.1816    1030.5941    5309.0042    4063.9907   -538.32251    21.326337    634.48876   -4043.0997 
16651000    233.96555   -4866.5274   -4398.5674   -4866.5274            0    1259.5458    18.275833    22.947003    19.558816    8202.4901    999.68071    1640.3949    1138.5617    1205.4298   -523.29241   -139.32619   -4247.8944 
16652000    229.49392   -4888.0297   -4429.0135   -4888.0297            0    2884.2215    18.135058    23.237713    19.263151    8117.8245    1806.7898    2261.7382    4584.1366   -1169.8771    191.74715   -1750.1458   -4087.5501 
16653000    230.11602   -4883.7707   -4423.5102   -4883.7707            0    2537.5354    17.958763    23.186316    19.521496    8128.7031    3113.3631    2165.2835    2333.9596    1828.3623      259.785    1528.9861   -4122.6885 
16654000    225.32901   -4891.9702   -4441.2844   -4891.9702            0    4429.3344     18.21559    22.825241    19.409356    8069.9292    4470.0471    4000.4643    4817.4918   -587.27148   -313.70164   -2234.3196   -3919.9888 
16655000    222.51861   -4892.1268   -4447.0621   -4892.1268            0    3775.6466    18.291298    22.804695    19.418176    8099.8547    3373.6255    3044.5147    4908.7996    2527.1023   -270.06429    2416.6222   -4001.0523 
16656000    218.02549   -4900.5754   -4464.4975   -4900.5754            0    2060.8436    18.204261    22.851149    19.596316    8151.8381    2762.2323    2907.4108    512.88767   -239.22741     35.71766   -921.99164   -4219.4917 
16657000     225.5317   -4894.1277   -4443.0364   -4894.1277            0    3021.6836    18.310689    22.844658    19.426461    8126.1168    1625.7511    3685.5851    3753.7147   -584.48179    1143.2043   -669.95397   -4084.9334 
16658000    224.39536   -4916.2633   -4467.4448   -4916.2633            0    2715.6033     18.07489    22.777685    19.647287    8088.8695    3717.9072    3595.6913    833.21149   -1599.4566   -236.94649   -833.56159   -4147.0909 
16659000     224.7166   -4902.3343   -4452.8734   -4902.3343            0    1922.2265    18.226343    22.967249    19.397774    8120.0819    457.60009    2173.6126    3135.4668    420.92258   -661.33958    818.70173   -4225.2374 
16660000    228.02863   -4887.2787   -4431.1933   -4887.2787            0    3079.7042    18.097518     23.17093    19.404269    8136.9152    1845.3398    3830.4605    3563.3124    -769.0861    673.50433    275.38945   -4065.7292 
16661000    224.52827   -4913.4429   -4464.3586   -4913.4429            0    3692.6292    18.051074    23.186257     19.35678    8101.5254     3961.413    3702.3085    3414.1663   -416.75943     67.80978    362.97049   -4028.0654 
16662000     217.2604   -4875.5203   -4440.9727   -4875.5203            0    1695.3304    18.278019    23.101818    19.302642    8150.6457    2473.0065    942.77811    1670.2066   -25.082187   -148.87016    70.838609   -4239.4508 
16663000    225.39586   -4892.4627   -4441.6431   -4892.4627            0    1597.4543    18.216941    22.630592    19.782894    8155.6989    1133.1736    3226.4205    432.76875    971.87506    368.63575   -704.37853   -4251.6379 
16664000    228.16163   -4910.5344   -4454.1829   -4910.5344            0    2657.5556    18.293944    22.750571    19.550845    8137.0161    3011.6503    2611.1705    2349.8462   -282.79683   -919.61076     697.9479   -4138.8107 
16665000    233.91533   -4913.8218   -4445.9623   -4913.8218            0     3281.746    18.143904    22.907418    19.448929    8083.5583    3199.1422    3303.9168    3342.1791    672.71344   -1.3364022    1576.8939   -4059.0759 
16666000    231.13978   -4863.2255   -4400.9174   -4863.2255            0    4193.2964    17.963658    23.203668    19.413168    8091.8505     5808.194    3399.3441    3372.3511    1295.7964    285.85405   -1279.7982   -3906.0608 
16667000    222.84874   -4887.4107   -4441.6857   -4887.4107            0    3866.9482    17.891653    23.252116    19.439628    8087.2504    5506.7113    2684.1954     3409.938    894.80552     444.4057   -512.31938   -3985.6014 
16668000    233.56009   -4883.0969   -4415.9479   -4883.0969            0    3677.9205    18.185483    23.026746    19.369718    8111.1177    1841.6721    3914.3206    5277.7688   -611.92391   -237.09677    1167.8775   -3980.8781 
16669000    243.04378   -4884.9137   -4398.7961   -4884.9137            0    5372.2315    18.267004    22.708592    19.476371    8079.1483    5938.3636    5351.2819    4827.0491    918.97552   -705.52839   -646.27945   -3765.8071 
16670000     239.9806    -4910.128   -4430.1372    -4910.128            0      3382.73    18.148169    22.808692    19.622476    8122.4491    6535.5787    2467.4018    1145.2096   -439.90625    266.33114    1538.3384   -4029.4271 
16671000    222.55649   -4868.7835    -4423.643   -4868.7835            0    3316.8584    18.295008    22.860281    19.339263    8088.2408    3883.0307    2651.1269    3416.4176   -309.51537   -839.08958   -262.11995   -4032.3908 
16672000    214.86491   -4878.2963     -4448.54   -4878.2963            0     2531.918    18.006592     22.98373    19.658187    8135.7106    4188.8829    3133.4579    273.41332   -600.17408    725.07323     1651.467   -4148.1254 
16673000    217.54087   -4893.5079   -4458.3993   -4893.5079            0    2386.9001     18.20778    23.125148    19.319531    8134.6354    1294.1228    2564.5046     3302.073   -252.77026     125.3667    808.18965   -4175.2286 
16674000    218.14888   -4879.9816   -4443.6569   -4879.9816            0    2624.5815    18.210567     23.12868    19.378919    8162.1368    1554.5543    2433.5962    3885.5939   -1091.3663    983.53833   -1076.1134   -4131.2362 
16675000    230.42149   -4908.0916   -4447.2201   -4908.0916            0    3593.0077    18.011258    23.036738    19.431088    8062.3593    5428.3157    3688.0709    1662.6364    411.24749    88.403757    1279.8915   -4024.7498 
16676000    220.34646   -4887.7482    -4447.028   -4887.7482            0    3593.6527    18.048434    23.075696    19.559524    8146.1536    3824.2292    4236.2335    2720.4953   -325.56643   -55.098954   -459.57947   -4020.0902 
16677000    226.69107   -4870.7873   -4417.3771   -4870.7873            0    2896.4125    18.047294    23.131051    19.406792    8101.4211    2601.6649     3626.641    2460.9314    1261.6915   -946.40501    986.69364   -4075.1634 
16678000     233.8523   -4893.9837   -4426.2502   -4893.9837            0    3791.1603    18.194872    23.099387    19.240256    8086.4944    3187.6327    3179.4478    5006.4004    -964.5965   -808.33641    728.60547   -3979.1465 
16679000    244.28736   -4903.5225   -4414.9176   -4903.5225            0    1963.4902    18.113608    22.971653    19.558621     8138.333    2042.5217     2445.137    1402.8119    720.30135   -789.89223    304.98595   -4181.8725 
16680000    231.04844   -4896.4076   -4434.2822   -4896.4076            0    2569.4345    18.350493    22.779344    19.475098    8140.8282    1437.9984    2214.6973    4055.6078     542.0104   -861.98582    -1004.756   -4129.2244 
16681000    218.38558   -4890.6022   -4453.8041   -4890.6022            0    3551.4401    18.266798    22.651186     19.55365    8090.6087    2194.1891    5015.9151    3444.2162   -559.29708    316.54544   -1756.4731   -4034.7582 
16682000    235.77051   -4905.7015   -4434.1314   -4905.7015            0     2050.858    18.212837    22.889256    19.560188    8154.2175    1208.6777    3800.9567    1142.9396    468.18783    640.95307   -322.39461   -4190.2415 
16683000    225.57198   -4908.6581   -4457.4862   -4908.6581            0    4443.6538    18.067153    23.083898    19.289848      8045.03      6028.59    2553.5427    4748.8289    489.50874   -253.78872   -196.72281    -3936.119 
16684000    221.01005   -4906.4664    -4464.419   -4906.4664            0    1142.0396    18.002438    23.312481    19.500101    8183.8318    2202.5599   -422.46392    1646.0228   -13.694698   -949.20523     441.0629   -4328.1134 
16685000    231.32037   -4872.9568   -4410.2875   -4872.9568            0    3061.3221    18.117751    23.040504    19.446126     8117.632    3234.3087    2904.2939    3045.3637   -23.388342   -512.72475   -149.36541   -4047.8657 
16686000    227.87111   -4874.5474    -4418.777   -4874.5474            0    2567.5798    18.221016    22.924889    19.435546    8118.5145    2812.8947    2886.9917    2002.8531    62.633443    608.92703    1228.9383    -4114.775 
16687000    219.38809   -4890.7568   -4451.9535   -4890.7568            0    2011.0477    18.157592    23.022757    19.489856    8147.4967    2283.2783     1321.175    2428.6896   -1681.2309    478.42313   -657.36346    -4212.995 
16688000    240.97653   -4894.5086   -4412.5258   -4894.5086            0    4500.4938    18.151584    23.000258    19.269793    8044.9669    3613.9287    5166.5765    4720.9762   -18.893312    280.72777    1538.3294   -3884.4937 
16689000    220.82849   -4909.1854   -4467.5011   -4909.1854            0    3125.9609    18.109572    22.984746    19.449885    8095.8961    4520.2352    2253.2217    2604.4258    293.96291    214.50854    394.81669   -4098.4179 
16690000    250.11389   -4895.3049   -4395.0462   -4895.3049            0    3684.1317    18.020318    22.911839    19.578565    8083.5708    3406.3335     4947.844    2698.2174    305.76815    859.25115   -238.28508   -3960.7218 
16691000    226.33129   -4877.4269   -4424.7363   -4877.4269            0    2450.7284    18.320989     22.97568    19.331284    8137.2566    2820.8002    1641.1342    2890.2507    1030.2348    -848.5159    1705.4538   -4133.8997 
16692000    231.61683   -4892.4984   -4429.2361   -4892.4984            0    2082.1685    18.146516    22.946172    19.537629    8135.3335    2290.5931    1612.4969    2343.4157    825.61578   -659.15882    -1471.035   -4182.1962 
16693000    231.21509   -4903.4223   -4440.9636   -4903.4223            0    4615.5814    18.109386     22.89233    19.483074    8077.0211     4886.602    4599.1302    4361.0119   -822.23511   -319.60423   -1472.0476   -3897.2708 
16694000    238.62029   -4906.2496   -4428.9795   -4906.2496            0    1635.5851    18.315472     22.97416    19.380976    8155.1772    2238.7799    1521.6862    1146.2892    625.88126   -116.22536   -728.88155   -4234.4514 
16695000    227.41159   -4889.5538   -4434.7026   -4889.5538            0    4761.1656    17.900475    23.022986    19.554571    8058.8761    4078.7373    5544.8514     4659.908   -347.63382    1691.2766    -1095.856   -3875.1207 
16696000    224.92851   -4895.4676   -4445.5828   -4895.4676            0    2077.0671    18.207045    23.207702    19.290822    8151.2149    2042.2979    649.51149     3539.392    738.96441   -544.10471    1386.8462   -4198.6671 
16697000    221.58332   -4876.7387   -4433.5447   -4876.7387            0    3730.0346    17.971795    23.017117     19.51894    8074.1829    5383.3128    2673.6356    3133.1553   -236.76003   -901.28535   -540.40203   -3994.3194 
16698000     225.8777   -4889.5631   -4437.7798   -4889.5631            0    592.56419    18.331322    23.019851    19.512852    8234.1175   -160.23133   -9.9972265    1947.9211    -284.7236     48.70847    -71.13535    -4366.621 
16699000    237.68067   -4894.2567    -4418.866   -4894.2567            0    2613.5343    18.243581    22.764891    19.502646    8099.7049    1666.3673    3752.6579    2421.5776   -925.91148    357.46439    1094.6149     -4110.14 
16700000    232.00417    -4912.252    -4448.215    -4912.252            0    2431.4864    18.062805     22.94287    19.611584    8127.2872    4060.6011    2477.9155    755.94261    370.88296    890.89892   -467.93644   -4160.0154 
16701000    225.64812   -4892.1251    -4440.801   -4892.1251            0    1836.6611    18.271406    22.950024    19.394732    8132.7775     391.3812    1806.1971    3312.4049    12.642189   -766.76833   -139.47926   -4222.9579 
16702000    220.96567   -4882.0157    -4440.057   -4882.0157            0    1998.1905     18.23397    22.750624    19.629561    8143.0135    2582.2214    2854.1863    558.16371   -696.13316   -237.76388   -917.80843   -4202.7569 
16703000    215.86181   -4896.2148   -4464.4645   -4896.2148            0    2818.5923     18.04389    23.054888    19.531266    8125.0041    2278.2917    2858.5193     3318.966   -306.35762   -282.60468   -597.08938   -4130.4759 
16704000    225.55242   -4919.8373   -4468.7045   -4919.8373            0    3004.1393    18.154433    23.132555    19.287559    8099.9729    1858.9492    2414.5033    4738.9655    204.79045    532.05517   -476.77619   -4113.8262 
16705000    220.75136   -4907.2041   -4465.6741   -4907.2041            0    3282.7246     18.00277    23.064333    19.466687    8082.9943    2466.5712     4010.778    3370.8246   -509.29166     413.8755    921.95455   -4078.6994 
16706000     228.3081   -4912.4262   -4455.7818   -4912.4262            0    2061.7246    18.133289    22.811642    19.607281     8110.554     3144.887    1833.2902    1206.9966    590.31518   -1372.5282    1280.5346   -4211.9125 
16707000    227.91335   -4886.8047   -4430.9499   -4886.8047            0    4339.4558    18.284606    22.787819    19.424557    8093.5581    5415.7891    3276.2407    4326.3377    523.07513   -711.49807    1455.7751   -3918.7368 
16708000    230.07533   -4879.1972   -4419.0181   -4879.1972            0    2642.0299    18.132087    22.848383    19.633078    8133.7657    4493.4759    3364.0793    68.534586    1331.5329   -434.57531     577.4714   -4105.6135 
16709000    236.81928   -4911.5467   -4437.8789   -4911.5467            0    1612.2792    18.131131    23.114232    19.444102    8148.7735    686.39647       1408.1    2742.3411    136.62034   -108.95935   -79.199901   -4246.2732 
16710000    233.48717   -4881.5943   -4414.5911   -4881.5943            0    2259.2454    18.170667    23.259238     19.23863    8130.9353    2774.2603    1300.9507    2702.5252    469.98982   -287.61669   -317.73233   -4146.6868 
16711000    232.54033   -4897.4145   -4432.3051   -4897.4145            0    3661.2185    17.989657    23.128277    19.489363    8108.9346    4174.5467    3903.1658    2905.9431    1484.0024    1222.8632    1006.1567   -3999.3276 
16712000    232.23569   -4906.4306   -4441.9305   -4906.4306            0    2835.3662    18.125766    22.881516    19.482103    8080.1049    3379.3338    3282.2783    1844.4865   -677.15254   -382.87332   -1584.1123   -4107.8109 
16713000    228.90988   -4892.9818   -4435.1338   -4892.9818            0    2352.2732    18.334908    22.853307    19.395965    8127.1672    -149.7505    2911.0904    4295.4798   -1744.5509   -188.93847    1302.2338   -4156.3273 
16714000    217.76313   -4883.3054   -4447.7523   -4883.3054            0    3001.3362    18.170461    22.821368    19.660131    8152.5603    2198.8365    3653.2217    3151.9505   -1502.0478    140.70192   -1486.1183   -4090.9032 
16715000    212.55601   -4910.5214   -4485.3831   -4910.5214            0    2504.1505     18.11978    22.937126    19.423112    8072.5502    2347.6571    2705.2999    2459.4946   -855.63917   -813.16053    397.16274   -4190.5698 
16716000     226.4758   -4895.6146    -4442.635   -4895.6146            0    2843.8498    18.107872    23.037379    19.416763    8099.8561    2847.9756    2754.9374    2928.6366    1399.2083    60.397295    1045.0885   -4106.6965 
16717000    219.76106   -4908.3271   -4468.7778   -4908.3271            0    3415.0229    18.134527    23.068656    19.306405    8076.6253    3733.2478    3274.0546    3237.7663   -161.44513   -93.823683   -152.45875   -4066.5246 
16718000    225.39516   -4872.1201   -4421.3019   -4872.1201            0    1561.5605    18.158464    23.260111    19.381204    8185.9984    1654.6843    338.66655    2691.3306    208.37278    29.486277    2256.8165    -4234.876 
16719000    223.52164   -4886.2969    -4439.226   -4886.2969            0    4950.8107    18.182743    22.930385    19.290559    8042.9536    4514.2605     4272.262    6065.9096    -123.3695   -311.85444   -1151.9492   -3858.5047 
16720000     214.0922   -4898.0572   -4469.8463   -4898.0572            0    2342.4601     18.23879    22.833801     19.51082    8125.4937    2869.9044    2307.1577    1850.3183    105.33627    -1538.666    533.81394   -4192.2601 
16721000    232.08649   -4915.9496   -4451.7479   -4915.9496            0    3257.5214    18.291458     22.81699    19.388784    8092.0257    1628.0556    5050.3501    3094.1585   -362.43787    779.25598    743.68971   -4067.3151 
16722000    216.61386   -4902.1859   -4468.9314   -4902.1859            0    3459.7027    17.982054    23.053463    19.504046    8085.3753    3698.4905    3369.0485    3311.5692     340.6366   -167.89795    423.02973    -4060.974 
16723000    225.25475    -4919.389   -4468.8517    -4919.389            0    2962.6505    17.886195    23.428089    19.301134    8087.9348    4149.1341    1316.3639    3422.4534    339.42539    270.10552    958.69903   -4119.3945 
16724000     226.9377   -4888.8221   -4434.9187   -4888.8221            0      2596.39    18.219441    23.023898    19.342506    8113.8438    2693.4595    2344.8283    2750.8821   -607.06066   -197.48053    511.37477   -4127.6824 
16725000    224.77213   -4913.1664   -4463.5944   -4913.1664            0    1281.7193       18.185    22.799847    19.642457    8144.0616    1056.6826    1611.2462    1177.2293    384.29359    626.72927   -60.797163    -4311.361 
16726000    221.34275   -4886.7865   -4444.0736   -4886.7865            0    3898.1078    18.429219    22.558109    19.435264    8079.7899    1835.1256    5107.9098     4751.288    -471.3719    652.67226    -620.5058   -3984.7384 
16727000    234.57648   -4851.5585   -4382.3766   -4851.5585            0    3238.6905    18.092106    22.955065    19.526638    8109.5195    4209.1332    2986.1859    2520.7525   -2023.6604   -748.14799    551.29811   -3999.3398 
16728000     231.0032   -4877.8924   -4415.8575   -4877.8924            0    2723.2095    18.106753    23.253854    19.251774    8105.9941    2405.9663    2588.2645    3175.3978   -1032.5719    114.09204    289.23251   -4093.9262 
16729000    232.41706   -4890.0357   -4425.1728   -4890.0357            0    1826.7471    18.165801    23.214601    19.381467    8173.3936    1334.2898    2036.3394    2109.6121   -1018.2459     182.0855    989.00553   -4207.4235 
16730000    231.01096   -4863.9448   -4401.8943   -4863.9448            0    3464.4002    18.264692    22.642497    19.683062    8140.0926    3324.2359     4748.115    2320.8498    369.44839    271.35532   -61.205283   -3990.6184 
16731000    228.66619   -4867.3707     -4410.01   -4867.3707            0    3017.2862    18.347753    22.730402    19.490451    8128.5282    2007.7858    3670.6225    3373.4503    1179.4752   -314.87892    584.05942   -4052.3221 
16732000    233.66879   -4903.8808   -4436.5144   -4903.8808            0    1684.1358    18.087476    23.230285    19.460666    8176.9285    838.46014    1642.7413    2571.2059    -48.48868    662.67761    669.92065   -4235.6776 
16733000    223.74706   -4898.1099   -4450.5882   -4898.1099            0    3468.9815    17.933404     23.25328    19.366173    8075.8969    2854.5363    3738.4133     3813.995    806.09872    476.04308    1049.6709   -4042.0161 
16734000    230.98795   -4878.8681   -4416.8637   -4878.8681            0    1632.5319    18.051102    22.964483    19.660236    8149.8404    1186.4057    2232.4385    1478.7514   -57.608521    477.36164    331.02463   -4222.8257 
16735000    216.72279   -4893.0144   -4459.5421   -4893.0144            0    2559.6606    18.492433    22.685386    19.470024    8167.8306      980.975    3283.4994    3414.5075   -59.704409   -700.67228   -42.440417   -4154.6368 
16736000    217.02321   -4885.3964   -4451.3232   -4885.3964            0    1585.6227    18.203766    22.756086    19.656532    8142.6489      1057.34    3050.3839    649.14424   -186.16781    502.41558    99.588102    -4263.027 
16737000    221.76273   -4894.4614   -4450.9086   -4894.4614            0    3686.2906    18.199584     22.80249    19.504117    8094.1269    2825.9818    4098.1981     4134.692   -104.82189   -514.16974   -691.97108   -4015.7621 
16738000    232.69556   -4884.0302   -4418.6103   -4884.0302            0    4100.2781    18.128186    23.212492    19.231594    8092.6617    4131.3103    3827.1275    4342.3967   -767.20784    568.25143   -987.06855   -3934.6825 
16739000    228.38649   -4895.7311   -4438.9299   -4895.7311            0    2879.1443    18.003171    23.119838    19.482702    8109.2927    2666.1814    4138.9686    1832.2828   -946.17264    1.4792862   -326.79522   -4098.4259 
16740000    234.11384   -4886.0925   -4417.8359   -4886.0925            0     3813.129    18.201233     23.08963    19.275415    8100.6806    4262.4601    3082.6547    4094.2723    72.088859   -96.412158     500.5679   -3967.3524 
16741000    224.92867    -4903.817   -4453.9319    -4903.817            0    5211.1781    17.914231    23.080759    19.488679     8058.063    7510.9811    4007.0426    4115.5105    356.64539    470.02466    1178.6408   -3841.5216 
16742000    226.18542   -4895.7883   -4443.3895   -4895.7883            0    3987.3327    18.119912    22.909213    19.491253    8091.0708    4127.3826    3723.5339    4111.0817   -282.14553    -117.0263   -359.18211   -3972.8844 
16743000    233.50114   -4875.5191    -4408.488   -4875.5191            0    2576.6592    18.336118    22.637005    19.645121    8154.1949    2984.2533    3658.3771    1087.3472    367.41388   -1129.2402     649.3024   -4102.0702 
16744000    230.90566   -4882.0154   -4420.1755   -4882.0154            0    2827.3303    18.146751    22.892764    19.529492    8113.1231    3393.2211    2724.2957    2364.4743   -1060.0134   -633.61994   -2.6690542   -4085.6413 
16745000    227.64395   -4855.3024   -4399.9864   -4855.3024            0     1884.597    18.160234    22.951157    19.615464    8175.6939     2318.995    2608.1613    726.63485    689.29391    232.21006    373.65266   -4175.2782 
16746000    220.80321   -4883.8101   -4442.1764   -4883.8101            0    4198.1748    17.973446    23.082216    19.460254    8073.4162     4469.769    3316.9645     4807.791    333.64089    657.02756   -388.18831   -3947.8728 
16747000    227.36463   -4892.4859   -4437.7285   -4892.4859            0    2178.6975    18.171249    23.074618    19.347622    8112.3543    2849.4763    1327.1351    2359.4813    461.93472   -205.09505    180.02956    -4179.966 
16748000    222.80575   -4866.7864   -4421.1473   -4866.7864            0    3164.2604    18.025774     23.08295    19.576053    8145.3616    2986.3757    3228.1549    3278.2507     464.1967   -541.01288    351.12558   -4045.2593 
16749000    221.92013   -4898.4151   -4454.5474   -4898.4151            0    3653.2576    18.231072    22.837863    19.375609    8067.2038    2490.6648    4830.7048    3638.4032    33.249026     667.5851   -1077.0119   -4024.7348 
16750000    233.62861   -4868.4956   -4401.2095   -4868.4956            0    1729.4216    18.259278    22.815732    19.592076    8162.0351    686.71261    2285.3263    2216.2259    -482.3081   -432.29684     50.88955    -4195.348 
Loop time of 566.421 on 64 procs for 250000 steps with 1008 atoms

Performance: 76.268 ns/day, 0.315 hours/ns, 441.368 timesteps/s
99.0% CPU use with 64 MPI tasks x 1 OpenMP threads

MPI task timing breakdown:
Section |  min time  |  avg time  |  max time  |%varavg| %total
---------------------------------------------------------------
Pair    | 28.229     | 32.014     | 35.395     |  30.6 |  5.65
Bond    | 0.29136    | 0.30152    | 0.31621    |   1.0 |  0.05
Kspace  | 267.54     | 276.39     | 284.38     |  20.7 | 48.80
Neigh   | 3.9106     | 4.3556     | 4.7295     |   9.1 |  0.77
Comm    | 101.88     | 110.13     | 121.54     |  39.7 | 19.44
Output  | 1.4066     | 1.4083     | 1.4212     |   0.2 |  0.25
Modify  | 125.55     | 132.27     | 136.45     |  30.8 | 23.35
Other   |            | 9.558      |            |       |  1.69

Nlocal:        15.7500 ave          20 max          11 min
Histogram: 1 0 4 9 16 13 12 5 3 1
Nghost:        2464.88 ave        2478 max        2451 min
Histogram: 5 3 6 5 11 10 5 14 1 4
Neighs:        5128.45 ave        6549 max        3631 min
Histogram: 1 1 4 8 16 13 12 5 3 1

Total # of neighbors = 328221
Ave neighs/atom = 325.61607
Ave special neighs/atom = 2.0000000
Neighbor list builds = 7495
Dangerous builds = 0

unfix		3
unfix		2
unfix		1

write_data	data.final.${pid}
write_data	data.final.0
System init for write_data ...
PPPM initialization ...
  extracting TIP4P info from pair style
  using 12-bit tables for long-range coulomb (../kspace.cpp:340)
  G vector (1/distance) = 0.37971852
  grid = 24 27 36
  stencil order = 5
  estimated absolute RMS force accuracy = 0.0023551967
  estimated relative force accuracy = 7.0926048e-06
  using double precision FFTW3
  3d grid and FFT values/proc = 4050 480
Last active /omp style is kspace_style pppm/tip4p/omp
WARNING: Not all mixed pair coeffs generated from mixing. Use write_data with 'pair ij' option to store all pair coeffs. (../write_data.cpp:312)

write_restart   restart.lmp.${pid}
write_restart   restart.lmp.0
System init for write_restart ...
PPPM initialization ...
  extracting TIP4P info from pair style
  using 12-bit tables for long-range coulomb (../kspace.cpp:340)
  G vector (1/distance) = 0.37971852
  grid = 24 27 36
  stencil order = 5
  estimated absolute RMS force accuracy = 0.0023551967
  estimated relative force accuracy = 7.0926048e-06
  using double precision FFTW3
  3d grid and FFT values/proc = 4050 480
Last active /omp style is kspace_style pppm/tip4p/omp
Total wall time: 0:09:28
