LAMMPS (30 Jul 2021)
Processor partition = 0
  using 1 OpenMP thread(s) per MPI task
using multi-threaded neighbor list subroutines
variable        pid world 0 1
variable        phase world IceII IceIII

shell cd ${phase}
shell cd IceII
include Restart.lmp
echo both
log log.lammps
#include		in.partitions
include		in.temp
variable        temperature equal 136.18
variable	tempDamp equal 100.0
include		in.pressure
variable        pressure equal 11793.8
variable        pressureDamp equal 1000.0 # This is 1 ps
include		in.seed
variable        seed equal 745823

units		real
atom_style	full
box tilt large
read_restart	restart.lmp.${pid}
read_restart	restart.lmp.0
Reading restart file ...
  restart file = 30 Jul 2021, LAMMPS = 30 Jul 2021
  restoring atom style full from restart
  triclinic box = (-10.598597 -9.0518710 0.29771502) to (12.578597 12.041869 21.562284) with tilt (-9.1531737 1.9319257 2.6632071)
  4 by 4 by 4 MPI processor grid
  restoring pair style lj/cut/tip4p/long/omp from restart
  restoring bond style harmonic/omp from restart
  restoring angle style harmonic/omp from restart
  1296 atoms
  864 bonds
  432 angles
Finding 1-2 1-3 1-4 neighbors ...
  special bond factors lj:    0        0        0       
  special bond factors coul:  0        0        0       
     2 = max # of 1-2 neighbors
     1 = max # of 1-3 neighbors
     1 = max # of 1-4 neighbors
     2 = max # of special neighbors
  special bonds CPU = 0.009 seconds
  read_restart CPU = 0.018 seconds
include 	in.setup
variable	out_freq equal 1000
variable	out_freq2 equal 10000
variable	out_freq3 equal 1000

timestep	2.0

neigh_modify    delay 7 every 1

include		in.tip4p
# This is TIP4P/Ice

# create groups ###
group ox type 2
432 atoms in group ox
group hy type 1
864 atoms in group hy

# set charges - beside manually ###
set group ox charge -1.1794
Setting atom values ...
  432 settings made for charge
set group hy charge 0.5897
Setting atom values ...
  864 settings made for charge

# ### TIP3P Potential Parameters ###
pair_style lj/cut/tip4p/long/omp 2 1 1 1 0.1577 8.5
pair_coeff 1 1*2 0.000 0.000
pair_coeff 2 2 0.21084 3.1668
bond_style  harmonic
bond_coeff  1 450 0.9572
angle_style harmonic
angle_coeff 1 55 104.52
kspace_style pppm/tip4p/omp 1.0e-5
pair_modify tail yes

thermo          ${out_freq}
thermo          1000
thermo_style    custom step temp pe etotal epair emol press lx ly lz vol pxx pyy pzz pxy pxz pyz enthalpy

restart 	${out_freq3} restart.lmp.${pid} restart2.lmp.${pid}
restart 	1000 restart.lmp.${pid} restart2.lmp.${pid}
restart 	1000 restart.lmp.0 restart2.lmp.${pid}
restart 	1000 restart.lmp.0 restart2.lmp.0


include         in.dump
dump            myDump all atom ${out_freq2} dump.water.${pid}
dump            myDump all atom 10000 dump.water.${pid}
dump            myDump all atom 10000 dump.water.0
dump            myDump2 all dcd ${out_freq2} dump.dcd
dump            myDump2 all dcd 10000 dump.dcd
dump_modify     myDump append yes
dump_modify     myDump2 append yes


variable natoms 	equal  "count(all)"                        # NUMBER ATOMS
variable H      	equal  "enthalpy/v_natoms"                 # ENTHALPY-per-atom
variable Vol      	equal  "vol/v_natoms"                 # volume-per-atom
fix AVG all 		ave/time ${out_freq} 1 ${out_freq} v_Vol v_H file vol_enthalpy.dat
fix AVG all 		ave/time 1000 1 ${out_freq} v_Vol v_H file vol_enthalpy.dat
fix AVG all 		ave/time 1000 1 1000 v_Vol v_H file vol_enthalpy.dat


timer           timeout 10:00:00 every 1000
New timer settings: style=normal  mode=nosync  timeout=10:00:00

fix 		1 all shake 1e-6 200 0 b 1 a 1
Finding SHAKE clusters ...
       0 = # of size 2 clusters
       0 = # of size 3 clusters
       0 = # of size 4 clusters
     432 = # of frozen angles
  find clusters CPU = 0.001 seconds
fix             2 all nph tri ${pressure} ${pressure} ${pressureDamp}
fix             2 all nph tri 11793.8 ${pressure} ${pressureDamp}
fix             2 all nph tri 11793.8 11793.8 ${pressureDamp}
fix             2 all nph tri 11793.8 11793.8 1000
fix             3 all temp/csvr ${temperature} ${temperature} ${tempDamp} ${seed}
fix             3 all temp/csvr 136.18 ${temperature} ${tempDamp} ${seed}
fix             3 all temp/csvr 136.18 136.18 ${tempDamp} ${seed}
fix             3 all temp/csvr 136.18 136.18 100 ${seed}
fix             3 all temp/csvr 136.18 136.18 100 745823


run             250000
PPPM initialization ...
  extracting TIP4P info from pair style
  using 12-bit tables for long-range coulomb (../kspace.cpp:340)
  G vector (1/distance) = 0.37110404
  grid = 27 36 32
  stencil order = 5
  estimated absolute RMS force accuracy = 0.0037751956
  estimated relative force accuracy = 1.1368889e-05
  using double precision FFTW3
  3d grid and FFT values/proc = 4590 540
Last active /omp style is kspace_style pppm/tip4p/omp
Neighbor list info ...
  update every 1 steps, delay 7 steps, check yes
  max neighbors/atom: 2000, page size: 100000
  master list distance cutoff = 10.8154
  ghost atom cutoff = 10.8154
  binsize = 5.4077, bins = 7 5 4
  1 neighbor lists, perpetual/occasional/extra = 1 0 0
  (1) pair lj/cut/tip4p/long/omp, perpetual
      attributes: half, newton on, omp
      pair build: half/bin/newton/tri/omp
      stencil: half/bin/3d/tri
      bin: standard
Setting up Verlet run ...
  Unit style    : real
  Current step  : 39500000
  Time step     : 2
  Walltime left : 9:59:59.90
Per MPI rank memory allocation (min/avg/max) = 9.391 | 9.407 | 9.420 Mbytes
Step Temp PotEng TotEng E_pair E_mol Press Lx Ly Lz Volume Pxx Pyy Pzz Pxy Pxz Pyz Enthalpy 
39500000    142.36687   -6639.8531    -6273.623   -6639.8531            0     11970.89    23.177194     21.09374    21.264569    10396.114    11785.753    12014.287    12112.631   -338.43327   -281.04187    897.50784   -4458.6366 
39501000    138.70109   -6648.6514   -6291.8513   -6648.6514            0    12658.593    23.102039    20.987353    21.338762    10346.113    12011.984    13368.781    12595.013    720.67394    1224.4493    520.30244   -4381.8286 
39502000    139.22152   -6646.3832   -6288.2443   -6646.3832            0    13360.905    22.909255    21.189214     21.31897    10348.849    13675.153    13161.126    13246.435   -1027.2073   -369.44895   -1148.2304   -4271.7184 
39503000    133.20762   -6643.8785     -6301.21   -6643.8785            0    11220.128    22.954041    21.314205    21.256129      10399.5    11466.087    10938.727    11255.569    69.042121   -262.28128    641.68212   -4599.4976 
39504000    132.14446   -6658.1036     -6318.17   -6658.1036            0    11414.158    23.078775    21.173027    21.284276    10400.509    10407.131    12394.579    11440.765      633.229    1103.9221   -310.92034   -4586.8619 
39505000    133.23835   -6651.9919   -6309.2444   -6651.9919            0    10789.133    23.091913    21.151734    21.370433    10438.046    9881.6495    11061.229    11424.522    87.901353   -158.77393    313.28025   -4666.8341 
39506000    137.89836   -6642.7346   -6287.9994   -6642.7346            0    12180.135    23.101988    21.027337     21.35963    10375.938     11184.77    12723.001    12632.635   -635.42514    1486.5657    385.91475   -4444.8721 
39507000    138.79178   -6657.6025   -6300.5691   -6657.6025            0    12805.084    23.036505    21.115589     21.28478    10353.542    13176.914    12178.475    13059.864    887.92156   -751.32296    579.96391   -4367.0553 
39508000    133.80301   -6636.6492   -6292.4491   -6636.6492            0    12004.244    22.961469    21.232346    21.320934    10394.507    13636.531    11664.613    10711.588   -99.324224   -577.64885   -1550.7077   -4472.6872 
39509000     140.1936   -6634.1104   -6273.4709   -6634.1104            0    11809.025    22.966514    21.260426    21.276333    10388.763    12567.415    12226.332    10633.328    121.59686    113.89235   -588.92289    -4484.292 
39510000    134.27118   -6639.3291   -6293.9247   -6639.3291            0    11127.747    22.943794    21.291734    21.302612    10406.606     11220.04    10976.637    11186.564   -386.54909   -83.953305   -34.940026   -4605.0701 
39511000    137.24456   -6650.5876   -6297.5344   -6650.5876            0    11873.241    23.072533    21.065627    21.381803    10392.355    11916.786    12072.149    11630.789    57.149984    259.96294   -255.54396   -4498.0041 
39512000    136.30159   -6620.5424   -6269.9149   -6620.5424            0    11980.482    23.155816    21.002973    21.338125    10377.605    11785.976     12066.97      12088.5   -951.04214    224.52024   -43.842455   -4456.7083 
39513000    140.58894    -6649.958   -6288.3015    -6649.958            0    11048.111    23.090586    21.100232    21.361313    10407.589    10522.733    11588.383    11033.219    529.14048    104.28169    187.25376   -4611.3749 
39514000    128.34305   -6650.9898   -6320.8351   -6650.9898            0    10876.534    23.136176    21.248107     21.20536    10424.554    10048.865    10887.792    11692.945    1157.8979    17.586473    60.932942   -4667.2602 
39515000    135.48945    -6643.777   -6295.2386    -6643.777            0    11576.983    22.851462    21.292845     21.38206    10403.925    11175.168    11485.805    12069.977     391.5875    252.20697    69.515569   -4538.6563 
39516000    137.91065   -6646.8381   -6292.0714   -6646.8381            0    12242.243    22.937354    21.212585    21.285783    10356.822    12485.333    12993.074    11248.322   -958.66413    871.44238   -1072.1133   -4442.9585 
39517000    136.02973   -6649.0709   -6299.1427   -6649.0709            0    11546.178    23.032084    21.136228    21.342588    10389.815    10651.627    12516.726    11470.179   -212.01455   -353.41205   -69.435056   -4549.6106 
39518000    133.02391   -6657.0173   -6314.8214   -6657.0173            0    11914.831     23.12653    21.042753    21.347087    10388.471    12011.153     10864.65     12868.69    767.47526   -438.02427    263.33874   -4509.6625 
39519000    135.20651   -6652.1289   -6304.3184   -6652.1289            0    11308.395    23.132071    21.176615    21.219089    10394.361    9893.2023    10916.613    13115.371    260.34213    148.45544    638.58529   -4590.0663 
39520000     135.9077   -6655.3094   -6305.6951   -6655.3094            0     11972.95    22.883075    21.179484    21.451239     10396.38    10951.065    13077.782    11890.003    1973.5241   -969.21305    509.60016     -4490.35 
39521000    136.96896   -6667.1746   -6314.8303   -6667.1746            0    11237.531    23.065833    21.193056    21.282038    10403.415    10936.553    11489.365    11286.674    163.89079    504.33019   -446.50755   -4609.8369 
39522000    137.02903   -6650.9089     -6298.41   -6650.9089            0     11055.52     23.06119      21.1482    21.347092    10411.033     10484.41    12578.677    10103.474    160.56445    90.769454   -726.00596   -4619.8035 
39523000    138.71392   -6664.3323   -6307.4992   -6664.3323            0    11355.543     23.08107    21.113012    21.329228    10393.966    10214.078    12290.068    11562.483    726.18137   -191.32312    870.66046   -4586.1655 
39524000    145.68903     -6633.18   -6258.4039     -6633.18            0    11500.864    23.151928    21.131182    21.253661    10397.878     12019.36     10944.87    11538.362   -72.595134   -16.056603    -460.5715   -4514.3855 
39525000    143.72792   -6642.1762   -6272.4449   -6642.1762            0    11802.491    22.932995    21.230769    21.314032    10377.485    11694.597    12845.875    10867.003   -268.90827   -215.58096   -857.40245   -4486.1971 
39526000    140.07582   -6633.2696   -6272.9331   -6633.2696            0    13082.793    23.028333    21.074315    21.322034    10347.718    12768.518    12481.228    13998.634    907.84156    722.84545    616.39603   -4298.5976 
39527000    133.50006   -6636.7218    -6293.301   -6636.7218            0    11597.719    23.103521    21.165959    21.312602    10422.036    12269.176    11516.029    11007.951   -1570.6498    842.52876   -714.81884   -4530.5091 
39528000    135.28442   -6658.1842   -6310.1733   -6658.1842            0     11904.15     22.94951    21.190378    21.361149    10388.114     12434.14    11821.628    11456.682    557.31807   -8.3344227   -375.61941   -4506.6947 
39529000    135.07774   -6645.4578   -6297.9785   -6645.4578            0      14057.9    22.939622      21.1986    21.189628    10304.259    15204.835    12952.962    14015.903     269.9178   -396.02636    699.71625   -4185.3989 
39530000    144.37544   -6651.3661    -6279.969   -6651.3661            0    11207.084    22.956681     21.16812    21.430419    10414.107     12431.76    10231.423    10958.069    -1120.306    423.01675    560.79859   -4577.8476 
39531000    140.94349   -6642.5332   -6279.9647   -6642.5332            0    11802.772    23.007703    21.239252    21.264883    10391.434    12786.517    10993.891    11627.907   -472.13014    -553.7773   -447.32064   -4491.2735 
39532000    138.47034   -6643.2869   -6287.0804   -6643.2869            0    11329.949    23.216935    21.091765    21.248831    10405.258    10630.446    12822.452    10536.949   -134.90329    553.75696   -48.010892   -4567.7605 
39533000    138.41499   -6660.5056   -6304.4414   -6660.5056            0    10965.252    22.990246    21.158827    21.432468    10425.752    11054.225    12167.415    9674.1148    30.687851    1.3319105    522.14658   -4637.1869 
39534000    135.21619    -6643.665   -6295.8296    -6643.665            0     12378.77    22.996299     21.27554    21.170908    10358.051     11942.95    11779.243    13414.117     702.9886    310.22913   -250.09193   -4425.8735 
39535000    133.87176   -6653.1364   -6308.7595   -6653.1364            0    11261.525    22.972766    21.110566    21.418749     10387.41    11478.912    11815.116    10490.548    98.998392    782.48686   -331.96351   -4602.7542 
39536000     137.7757   -6656.3636    -6301.944   -6656.3636            0    12390.891    22.915042    21.220339    21.307168     10360.93    12956.983      12268.5     11947.19   -270.12478    411.31919    107.99667   -4429.6367 
39537000    144.17305   -6658.4945   -6287.6181   -6658.4945            0    12332.627     23.05432     21.16333    21.221203    10353.956    12357.047    11937.227    12703.607    394.73344    -80.13487   -681.86153   -4425.3689 
39538000    133.27612     -6635.19   -6292.3453     -6635.19            0    12465.286    23.030954     21.06188    21.346979     10354.89    12344.139    12921.163    12130.557    327.41707    138.38789    326.46149   -4409.8945 
39539000    132.31176    -6635.441    -6295.077    -6635.441            0    12118.373    23.096677    21.103642    21.327068    10395.325    11297.277    12272.341    12785.502   -740.19935   -657.64598   -314.02267   -4457.8693 
39540000    135.86101   -6651.5371   -6302.0429   -6651.5371            0    12167.411    23.002866    21.180721    21.273897    10365.011    12017.632    12074.779    12409.821   -962.15671    644.12716   -255.54271   -4462.7801 
39541000    135.71746   -6657.3875   -6308.2626   -6657.3875            0    11622.766    22.944537    21.249676    21.304707    10387.408    12632.552    10828.977     11406.77   -515.37919      -342.97    192.68089   -4547.5333 
39542000    135.09521   -6645.8644   -6298.3402   -6645.8644            0    11918.834    23.074638    21.204148    21.231866    10388.286    12197.571    11755.259    11803.673   -107.30951   -526.60623    -1074.509   -4492.6071 
39543000    136.72762   -6639.2488   -6287.5254   -6639.2488            0    12609.438    23.134598    21.081329    21.261398    10369.356    11994.246    12637.158     13196.91    187.32868   -46.391633    -73.96538   -4380.6452 
39544000    133.83754   -6639.0471   -6294.7582   -6639.0471            0    11467.622    23.084148     21.01557    21.456327    10409.034    12382.314    11793.561    10226.991   -1458.2691    122.85214    179.93467    -4553.915 
39545000    129.05036   -6665.4277   -6333.4535   -6665.4277            0    11872.527    23.046501    21.200256    21.239356    10377.374    12100.171    11155.882    12361.529   -652.15768   -477.29562   -206.09486   -4536.6254 
39546000    141.08459   -6647.2034   -6284.2719   -6647.2034            0    13200.157    22.878248    21.141035     21.36368    10332.968    14000.222    12565.985    13034.264    174.45774    -166.1701   -312.37912   -4295.0645 
39547000     129.8249   -6653.6534   -6319.6868   -6653.6534            0    10179.608    23.049375    21.362744    21.194077    10435.919    10640.737    8893.8936    11004.193    710.73448     26.92241    438.71235   -4770.3792 
39548000    137.18831   -6639.0305    -6286.122   -6639.0305            0    12333.693    23.024014    21.153425    21.331294    10389.124    12529.903    12694.264    11776.912    1022.7848    52.441924   -488.02467    -4417.386 
39549000    142.84308   -6654.1376   -6286.6825   -6654.1376            0    10948.055    23.150466     21.09269    21.307987    10404.809    10634.788    11074.198    11135.179    24.733563   -50.507109    789.90861   -4625.3866 
39550000    138.64481   -6653.6753     -6297.02   -6653.6753            0    11476.315    23.060433    21.068759    21.370792      10383.1    11815.895    11345.085    11267.964   -334.93503   -329.93711   -44.779792   -4559.1977 
39551000    138.77375   -6637.2768   -6280.2898   -6637.2768            0    12712.241     22.95482    21.224692    21.281514    10368.545    14305.452    10800.007    13031.263   -149.98045    628.10401   -718.79974   -4358.0135 
39552000    133.98009   -6650.2823   -6305.6267   -6650.2823            0    12661.139    22.941819    21.244621    21.256195    10360.062     13205.29    13351.058    11427.069    32.963169    324.67981   -123.47755   -4392.6441 
39553000    139.67975   -6660.3733   -6301.0556   -6660.3733            0     12886.86    22.975204    21.185246    21.260361    10348.169    13317.143    12525.394    12818.045   -545.09712   -456.28932    102.66315   -4356.2037 
39554000    135.13071   -6631.2679   -6283.6523   -6631.2679            0    12261.353    23.231548    21.003016    21.247516    10367.355    11408.544    12804.867    12570.647   -294.11356   -333.71439   -8.8360855   -4429.7697 
39555000    137.82788   -6650.4267   -6295.8729   -6650.4267            0    10978.515    23.160258     21.05292    21.350251    10410.191     10886.85    10434.263    11614.431    419.81958    162.16235    914.73927   -4629.0932 
39556000    140.62913   -6641.0735   -6279.3136   -6641.0735            0    11340.621    22.940857    21.244105     21.33482    10397.695    11221.093    11668.975    11131.795    747.71423    225.60796   -66.597806   -4559.6251 
39557000    138.15838   -6650.5342   -6295.1302   -6650.5342            0    11639.919    23.021194    21.324454    21.127142    10371.619    11776.544     10025.79    13117.423    649.49776   -534.04365    249.75823   -4534.4828 
39558000     133.3237   -6644.7505   -6301.7834   -6644.7505            0    11687.152    23.010459     21.18315    21.314255    10389.293    12775.581    11124.696     11161.18     141.1776    659.66731    995.37696   -4530.9791 
39559000    135.71648    -6642.948   -6293.8256    -6642.948            0    11926.818    23.061445    21.126533     21.32517    10389.802    11188.455    12887.039     11704.96     61.70795   -1259.7585    251.34532   -4486.6192 
39560000    131.44926   -6652.9691   -6314.8238   -6652.9691            0     12379.22    23.093814    21.043316    21.331813    10366.631    11796.577    12335.069    13006.012    110.83815    168.85995    722.98026   -4443.2508 
39561000    133.05643    -6644.651   -6302.3715    -6644.651            0    10764.413    23.140452    21.173526    21.259195    10416.261      10965.9    11152.362    10174.976    145.26439    426.89562      230.389   -4667.1444 
39562000    140.45147    -6656.142   -6294.8392    -6656.142            0    11347.567    23.031525    21.253358    21.295006    10423.846    11950.245     10522.73    11569.725    767.43801    29.368127    479.98352   -4569.7695 
39563000    143.47697   -6635.8683   -6266.7826   -6635.8683            0    12273.882    22.947605    21.187348    21.299098    10355.598    12595.061     12154.62    12071.965    590.72345    17.079147    980.08923   -4413.1101 
39564000    134.19565   -6652.3158   -6307.1056   -6652.3158            0    11874.504    23.031268    21.062305    21.420751    10391.026    11582.162    12748.566    11292.784    25.008902   -37.613722   -703.28804   -4507.6142 
39565000    130.56332   -6656.7914   -6320.9252   -6656.7914            0     11884.57    23.086937    21.154612    21.239303    10373.173    11777.601     12165.67     11710.44     210.4629    -487.4532     31.63635   -4523.0026 
39566000    141.40822    -6644.194     -6280.43    -6644.194            0    12339.723    22.969611    21.158863    21.364827    10383.538    12003.709    12906.329    12109.131    46.853158    570.23247    508.75444   -4411.7856 
39567000    130.12275   -6652.2509    -6317.518   -6652.2509            0    12077.151    23.042002    21.136557    21.337057    10391.757    12947.658    11357.958    11925.837    1023.9376   -845.72907  -0.98704051   -4487.1881 
39568000    135.75016   -6660.3896   -6311.1806   -6660.3896            0    11261.573    22.951728    21.291205    21.255606    10386.976     12347.35    9937.8039    11499.565   -646.12468   -139.96858    158.54472   -4605.2393 
39569000    131.55369   -6668.4264   -6330.0126   -6668.4264            0    10928.431    23.117371    21.048553    21.370609    10398.665    9871.4065    10960.061    11953.826   -973.12243    1098.0398    1225.3602   -4672.6737 
39570000    137.43223    -6657.504    -6303.968    -6657.504            0    11857.596    23.021129     21.14886    21.353881    10396.578     12234.82     11471.39    11866.577    528.28909   -746.47345    718.14487   -4506.0788 
39571000     138.0161   -6648.4971   -6293.4591   -6648.4971            0    11747.844    23.008312    21.277381    21.199901    10378.552    11496.338    11470.529    12276.666   -289.92217   -144.85504    128.35708   -4515.2991 
39572000    139.77754   -6629.1277   -6269.5585   -6629.1277            0    11919.662    22.950438    21.151928    21.419788    10398.151    12217.697    13224.359    10316.929    22.989871    81.156403    260.84243   -4461.9851 
39573000    132.90751   -6658.1595    -6316.263   -6658.1595            0    11505.992    23.052177    21.142577    21.348948    10405.102    11242.898    11653.406    11621.671   -169.87365    622.78058   -675.50726   -4570.2548 
39574000    135.72219   -6649.7245   -6300.5874   -6649.7245            0    12089.964    23.094028    21.070607    21.339544    10383.933    11340.197      12444.3    12485.396    -880.4061    1263.4956    589.18177   -4469.6952 
39575000    137.39526   -6654.9048   -6301.4638   -6654.9048            0    11888.385    23.106008     20.97557    21.451311    10396.628    12400.403    11678.816    11585.936   -531.32654   -859.53668    493.68187   -4498.8975 
39576000    137.40828   -6651.2609   -6297.7864   -6651.2609            0    12263.385    23.083691    21.191762    21.221276    10381.111    13323.312    11836.507    11630.336   -1015.8688   -18.725857   -777.36734   -4441.1363 
39577000      136.498   -6656.3281   -6305.1953   -6656.3281            0     11958.36    22.839364     21.22157    21.397163     10370.93    12406.133    12115.425    11353.522    576.47433    12.930258   -738.28708   -4496.5007 
39578000    140.32329   -6638.0418   -6277.0687   -6638.0418            0     11917.55      23.0584    21.204435    21.267939    10398.753    11671.887    11511.295    12569.468    634.49521    792.19476    202.80487   -4469.7109 
39579000    130.29677   -6646.5861   -6311.4056   -6646.5861            0    11616.917    22.995012    21.210379    21.296596    10387.051      11261.8     11396.93    12192.021   -593.09217   -175.54157   -274.96043    -4551.623 
39580000    140.56417   -6634.5085   -6272.9157   -6634.5085            0    12529.759    23.149227    21.055644    21.262776    10363.942    12245.637    12486.903    12856.736     461.8995   -1484.6715    314.82057   -4379.0744 
39581000    132.89491   -6654.7693   -6312.9052   -6654.7693            0    12100.301    23.177184    21.011095      21.3255     10385.05    11373.065    13118.351    11809.486    304.27306    7.4568444    149.20827   -4480.2505 
39582000    138.04065   -6666.0817   -6310.9806   -6666.0817            0    10866.373    23.035231    21.184568    21.349006    10418.132     12214.69     9552.869    10831.558   -272.03218    -341.1473    867.10287   -4659.9682 
39583000    136.69504   -6653.1292   -6301.4896   -6653.1292            0    12167.374    22.972088    21.170613    21.339808    10378.257    11613.046    12904.533    11984.541    147.81455    943.93875   -194.28346   -4459.8818 
39584000    147.28889    -6652.535   -6273.6433    -6652.535            0    10380.667    22.980502      21.3443     21.25768     10426.95    10807.505    9211.7846    11122.712    179.33346   -360.52276    466.91103    -4695.093 
39585000    131.97957   -6650.1916   -6310.6822   -6650.1916            0    10835.192    23.044554    21.154263    21.359421    10412.516    10485.432     10550.77    11469.375    532.42949   -351.17794    316.52475   -4665.2946 
39586000    132.10211   -6651.1417   -6311.3171   -6651.1417            0    11262.762    23.083761    21.142725    21.308443    10399.663    11556.361    10841.838    11390.087   -183.58169   -997.29612   -191.73739   -4603.1118 
39587000    133.12377   -6655.6791   -6313.2263   -6655.6791            0    12235.754    23.187975    21.084842    21.180597    10355.507    11183.755    12342.305    13181.202   -321.43408    6.7905579   -499.13103   -4465.3284 
39588000    136.09278    -6649.011   -6298.9206    -6649.011            0    11137.087    23.009361    21.115707     21.43757    10415.635    12958.574    10623.452    9829.2342    383.36496   -210.42531   -180.19731    -4607.182 
39589000    128.06583   -6656.2788   -6326.8373   -6656.2788            0    11868.702    22.922111    21.311883    21.252881    10382.316    13724.668    10319.776    11561.663    35.710232   -1170.0432   -213.49112   -4529.7326 
39590000     137.0891    -6660.415   -6307.7616    -6660.415            0    11444.986    22.921601    21.336914    21.254013    10394.832    11561.614    10771.941    12001.404    31.287259    511.80371    205.53533    -4572.725 
39591000    133.94605   -6651.2602   -6306.6921   -6651.2602            0    13245.674    22.969145    21.056437    21.360394     10330.92    13248.226    14491.184    11997.613     229.7618   -264.69484   -352.20569   -4311.0211 
39592000    138.85777   -6656.7649   -6299.5618   -6656.7649            0    11715.434    23.165128    21.108241    21.248141    10389.812    10994.047    12589.633    11562.621   -389.43665   -40.008744   -70.228806   -4524.3836 
39593000    132.48007   -6654.8759    -6314.079   -6654.8759            0    9305.9578    23.222653    21.064293    21.399047    10467.745    8745.3097    10803.823    8368.7405    329.06012    668.21455   -59.995818   -4893.4191 
39594000     135.7952   -6643.6869    -6294.362   -6643.6869            0     11657.06    23.074516    21.127218    21.317417    10392.248    11143.734     11494.93    12332.516    229.58203    847.64273     578.4451   -4527.6148 
39595000    126.96451   -6656.0223   -6329.4138   -6656.0223            0     11077.43    23.077136    21.321348    21.178086    10420.373    10644.578    10353.115    12234.596    -633.9187    -929.4199    306.89519   -4645.9717 
39596000    139.54191    -6640.183     -6281.22    -6640.183            0    11933.407    22.991111    21.193542     21.30936    10383.264    12814.771    10919.377    12066.074    325.35771   -528.38309    182.54925   -4474.1529 
39597000    136.69248   -6643.6152   -6291.9821   -6643.6152            0    13230.222    22.909901    21.239162    21.236703    10333.506    13041.417    13337.918    13311.332   -28.089787   -242.31908    907.07758   -4298.1402 
39598000    132.85727   -6662.1647   -6320.3975   -6662.1647            0    11802.798    23.043719    21.120617    21.338031    10385.168    11759.233    12143.757    11505.404    158.77434   -1121.2108   -590.43605   -4532.7809 
39599000     140.5145   -6659.2576   -6297.7926   -6659.2576            0    11271.184    23.127861    21.013658    21.390393    10395.752    10748.383    11075.282    11989.885    476.94995    919.97886    546.36637   -4588.9529 
39600000    135.65903   -6654.5886    -6305.614   -6654.5886            0    12270.111     23.04535    21.128252    21.273175    10358.079    12105.489    11951.246    12753.599   -9.9009134     14.23128    1174.3011    -4452.067 
39601000    140.93877   -6673.6845   -6311.1281   -6673.6845            0    12700.363     23.02206    21.078821    21.301777    10337.281     12192.16    13649.336    12259.592    969.72949   -63.988658   -971.02728   -4396.4386 
39602000    137.92072   -6656.8127     -6302.02   -6656.8127            0    11449.005    23.044828    21.200391     21.27823    10395.679    12205.598     11260.38    10881.036    604.65597    394.98386     699.0131   -4566.2328 
39603000    138.02866   -6644.2886   -6289.2183   -6644.2886            0    10919.751    22.991576     21.23876    21.365906     10433.24    11100.657     10210.48    11448.115   -335.00225    699.14843    516.76402   -4627.6898 
39604000    141.68392   -6650.9488   -6286.4755   -6650.9488            0    12709.607    23.063429    21.186432    21.190298    10354.253    12681.917    12035.206    13411.697   -270.14906    130.04967    -912.9066   -4367.2466 
39605000    137.80365   -6638.9559   -6284.4644   -6638.9559            0    12320.659    22.942335    21.130422    21.379624     10364.44    12859.369    11485.101    12617.507   -913.38003    729.09554    817.67638   -4422.1385 
39606000    131.71767   -6648.5243   -6309.6886   -6648.5243            0    11925.394    22.985634    21.186328    21.321871     10383.35    12311.961    12202.602    11261.617    336.16201   -1028.7634   -393.75988   -4503.8202 
39607000    131.64689   -6641.6376    -6302.984   -6641.6376            0    12028.286    23.172286    21.157842    21.163031    10375.717    11716.664    12177.966    12190.227     541.0537   -245.41649   -74.474911   -4482.8736 
39608000     136.9079   -6656.8189   -6304.6317   -6656.8189            0     12082.06    22.988322    21.150628    21.366217    10388.628    11654.935    12549.068    12042.176    199.78529   -850.39064    773.60244   -4474.1093 
39609000    127.81944   -6638.3589   -6309.5511   -6638.3589            0    11612.679    23.073653     21.14606    21.306078    10395.594    10742.902    11641.414     12453.72    1303.6053   -24.595347    202.47451   -4548.9636 
39610000    135.31095   -6651.7415   -6303.6624   -6651.7415            0    11803.937    22.916196    21.236651    21.301844    10366.824    12456.874    10180.605    12774.332   -896.08378    1048.6471    658.13328    -4519.031 
39611000    133.63255   -6632.9049   -6289.1433   -6632.9049            0     13349.38    22.915656    21.177704    21.308336    10340.956    13543.386    13737.185    12767.567   -1078.6975    614.66137   -799.72037   -4275.8935 
39612000    137.82361   -6652.1938   -6297.6509   -6652.1938            0    11424.307    23.181628    21.057048    21.282932    10388.979    10834.696    12087.103    11351.123    585.83401   -910.29004    277.25628   -4566.7244 
39613000    136.35046   -6653.3934   -6302.6402   -6653.3934            0    10748.952    23.112557    21.148418    21.326194    10424.116    10897.251    9901.4326    11448.171   -171.27462   -353.67738    988.44696   -4668.5303 
39614000    140.66956   -6653.0903   -6291.2264   -6653.0903            0    11806.229    22.947113    21.158463    21.416794    10398.403    11852.245      12454.5    11111.944   -703.26931    842.44256   -37.796076   -4500.8113 
39615000     137.1696   -6640.3715   -6287.5111   -6640.3715            0    11630.709    23.045818    21.316215    21.112161    10371.341    10704.612     10994.63    13192.883    1333.0924    506.71724   -141.56738    -4528.304 
39616000    133.63228   -6667.4466   -6323.6857   -6667.4466            0    11996.493    22.889303    21.230316    21.377081    10388.131    11678.796    12734.265    11576.418    311.90876   -93.535738   -543.61235   -4506.2141 
39617000    127.80423   -6661.2033   -6332.4347   -6661.2033            0    12183.213     23.08698    21.089282    21.283549    10362.701    11938.734    12835.127    11775.776   -675.46882    1070.1575   -63.401485   -4491.1936 
39618000    132.23151   -6647.3369   -6307.1794   -6647.3369            0    12717.316    23.209771    21.029882    21.182058    10338.936    11981.614    13009.182    13161.152    296.57152   -59.185525   -120.39761   -4389.6272 
39619000    136.73474   -6658.3357   -6306.5939   -6658.3357            0    11605.564    22.980094     21.11177    21.454884    10408.847    12203.959    12315.832    10296.901   -730.43917   -253.89789    487.58564    -4544.842 
39620000    131.06052   -6640.6388   -6303.4936   -6640.6388            0    12176.365    23.050526    21.250787     21.24294     10405.68    12233.811    12341.997    11953.289   -95.353668   -644.79642   -1305.4369   -4455.6549 
39621000    131.83261   -6642.9964    -6303.865   -6642.9964            0    11441.543    22.971452     21.22964    21.314324    10394.477    11756.623    11585.198    10982.809   -29.168336    765.66254   -8.8155771   -4569.4096 
39622000    138.40857   -6632.9824   -6276.9348   -6632.9824            0    11919.248    22.864804    21.167638    21.487601    10399.868    12862.468    12105.019    10790.258   -19.757763   -80.342581     22.19713   -4469.1256 
39623000    135.51943   -6657.2217   -6308.6062   -6657.2217            0     11112.24    23.217013    21.143655    21.197345    10405.618    9686.5903    11453.401    12196.729   -67.507632    202.99886    308.56808   -4622.2652 
39624000    133.12755   -6644.9596   -6302.4971   -6644.9596            0    10434.626    23.133086    21.092177    21.376316    10430.085     11077.02    10127.989    10098.868    -545.9112   -447.50543    309.65641   -4715.2643 
39625000    141.53445   -6651.0616   -6286.9728   -6651.0616            0    11629.709     22.97061    21.151714      21.3993     10397.23    11659.677    12186.329    11043.122    9.6747648   -607.63826    695.79632   -4523.5258 
39626000    138.64516   -6646.4386   -6289.7824   -6646.4386            0    13824.809    23.028832    21.188462    21.122218    10306.492    13260.976    14131.692     14081.76     448.8643   -174.97462   -711.70012   -4211.7806 
39627000    130.39162   -6640.4943   -6305.0698   -6640.4943            0    11718.402    22.964332    21.169706    21.382596     10395.11    11888.936    11287.932    11978.337    304.82848    99.421676   -460.99945   -4528.5365 
39628000    132.72259    -6643.599   -6302.1783    -6643.599            0    12056.553    22.936766    21.195675    21.363268    10385.971    11993.224    11767.588    12408.845   -28.901345   -374.23088    306.66627   -4475.9874 
39629000    140.58524   -6629.6641   -6268.0171   -6629.6641            0    13674.416    23.244224    21.023691    21.154352    10337.696    12530.204    14394.892    14098.152    469.28483   -758.16679   -623.43178   -4206.3981 
39630000    132.00053   -6661.2422   -6321.6789   -6661.2422            0    12037.186    23.128881    21.019117    21.296367      10353.2    12132.491    11668.595    12310.472    1113.7826   -534.59284    448.19981   -4504.1745 
39631000    135.34318   -6675.9795   -6327.8175   -6675.9795            0    10533.376    22.967627    21.262612    21.340915    10421.873    10260.729    11245.235    10094.164   -111.10642    792.23003   -621.66362   -4726.8252 
39632000    142.01041   -6649.0013   -6283.6881   -6649.0013            0    11175.213    22.956088    21.432275    21.164443    10412.931     10705.51    10349.145    12470.984    263.55255     625.1398   -442.25715   -4586.5988 
39633000    139.42689   -6646.1537   -6287.4865   -6646.1537            0     12828.29    22.904434    21.105849    21.416102    10352.919    12914.959    12057.673    13512.237   -123.37546   -338.32506    712.14622   -4350.5853 
39634000    129.81611   -6659.1952   -6325.2511   -6659.1952            0    10954.064     23.11344    21.183161    21.261826    10410.124    9769.9276    10349.946    12742.317   -424.44627    880.30336   -43.988579   -4662.1944 
39635000    133.59853   -6669.2291   -6325.5551   -6669.2291            0    10944.127    23.183517    21.074169    21.319066    10415.928    10120.068    11269.614    11442.699   -186.78149    88.513027    889.13681   -4663.0807 
39636000     141.5298   -6649.4512   -6285.3745   -6649.4512            0    11688.612    23.126909    21.013654    21.370549    10385.678     12004.48    11887.355    11174.001    686.97497   -669.97461    246.61268   -4514.9652 
39637000    135.76626   -6651.0331   -6301.7826   -6651.0331            0    11784.717    23.028519    21.208594    21.212074     10360.03    11106.829    12458.435    11788.886    524.97582   -351.77064    278.26785   -4521.2249 
39638000    132.52624   -6655.2341   -6314.3184   -6655.2341            0    12028.966    22.868071    21.204342    21.403651    10378.682    12106.331    12950.325    11030.241   -528.67256   -127.17823   -1054.2954    -4493.585 
39639000    131.05913   -6640.6547   -6303.5131   -6640.6547            0    12196.227    22.965133    21.255532    21.209447    10353.097    12604.056    11811.275     12173.35    835.76525     -440.541    313.09522   -4462.0132 
39640000    139.38553   -6663.7699   -6305.2091   -6663.7699            0    11049.676    23.047953    21.156583    21.323401     10397.63    10363.013    10826.229    11959.787    185.43645    73.786259    790.67021   -4629.6498 
39641000    138.22644   -6664.4013   -6308.8222   -6664.4013            0    11956.479     23.18314    21.014666    21.283064     10368.81    10960.357    13308.033    11601.046    449.56272    387.36687   -532.09872   -4500.7819 
39642000    135.24031   -6639.9375     -6292.04   -6639.9375            0     12699.68    23.041135    21.134227     21.24529    10345.534    12433.248     13029.69    12636.103   -531.57907    652.77773    469.52398    -4375.925 
39643000    134.82425    -6650.763   -6303.9359    -6650.763            0    11024.557    22.908656    21.250793    21.433195     10434.26    11349.129    10042.535    11682.007    1098.0847   -170.96394    734.84284   -4626.2962 
39644000     135.3434   -6650.2977   -6302.1351   -6650.2977            0    11593.467    23.056762    21.252183    21.191438    10383.943    11881.498    10401.008    12497.896   -480.47814   -95.150042   -111.08068   -4546.4302 
39645000       141.48   -6646.5335   -6282.5849   -6646.5335            0    11677.384    22.973904    21.230396    21.318669    10398.076     12100.69    11465.903    11465.557    473.54724   -737.72937    171.27028   -4511.7649 
39646000    132.13398   -6647.4689   -6307.5623   -6647.4689            0    11265.556    23.271934    20.993861    21.305336      10409.1    10711.472    12607.183    10478.013    743.52951   -763.06821   -623.98807   -4597.3828 
39647000    135.00582   -6656.0501   -6308.7558   -6656.0501            0    12961.571     23.03234     21.12221    21.273066    10349.217    13295.003    13565.686    12024.025   -1681.5655   -357.84983   -207.74216   -4352.4307 
39648000     131.3273   -6651.0591   -6313.2276   -6651.0591            0    11587.539    22.867377    21.276865    21.340596    10383.184    11430.207    10947.771     12384.64    774.88838   -243.25695    860.76298   -4558.5488 
39649000    132.17644   -6624.1499   -6284.1341   -6624.1499            0    11396.887    22.990202    21.322726    21.241914    10413.079    11578.979    12385.906    10225.777    895.19103    434.91245   -87.596652   -4553.3563 
39650000     137.2141   -6665.9672   -6312.9922   -6665.9672            0    10940.848     23.06649    21.169762    21.316711    10409.208    10321.667    11428.397     11072.48   -142.71847   -764.83041   -1152.6015   -4652.0882 
39651000    137.23804   -6634.6077   -6281.5713   -6634.6077            0    12448.655    23.069822    21.078149    21.309463    10362.134    12056.573    12037.527    13251.864    1149.7432    138.77716     1359.337   -4400.3169 
39652000    130.13637   -6641.0095   -6306.2416   -6641.0095            0    13281.522    23.130844    20.968303    21.327032    10343.921    12642.715    14959.345    12242.505   -885.17593   -569.82004   -1452.6672   -4302.6513 
39653000    137.51871   -6642.5344   -6288.7759   -6642.5344            0    10903.856    23.007136    21.160976    21.394588    10416.029    11361.245    11433.717    9916.6058    409.72024   -1147.9427   -102.40864   -4632.4028 
39654000    135.29622    -6642.734   -6294.6927    -6642.734            0    12316.979    22.955146    21.244639    21.256575    10366.275    11658.972    11745.121    13546.845    148.84204    122.46037    680.65214   -4432.5935 
39655000    133.34319   -6663.3892   -6320.3719   -6663.3892            0    10974.022    23.040131    21.203913    21.313384    10412.461    11727.728    10396.138      10798.2   -275.67461   -338.62573   -757.77109   -4653.9112 
39656000    128.77839   -6659.0701   -6327.7956   -6659.0701            0    12163.462    22.921193    21.222582    21.303801    10363.168    12086.899    12375.184    12028.303   -124.27322    680.80683    301.70694   -4489.4564 
39657000    136.18501   -6663.2495   -6312.9219   -6663.2495            0    11540.454     23.12345    21.027115    21.359554    10385.431    11102.576    11570.845    11947.941    131.27052    729.65403    410.31186   -4564.9949 
39658000    132.30593   -6649.3254   -6308.9764   -6649.3254            0     12469.32    23.126377    21.110454    21.243664    10371.334     12372.17    12682.492    12353.299   -363.22952   -1073.3127    338.20781   -4422.9261 
39659000    139.50653   -6657.1831    -6298.311   -6657.1831            0    11311.234    23.021571    21.154132    21.341213    10393.199    11631.149    11711.219    10591.334   -2.1821622    178.87683   -641.75994   -4583.8203 
39660000     133.7435    -6648.106    -6304.059    -6648.106            0    12355.246    22.934712    21.221242    21.298863    10366.222    12709.623    12394.417    11961.696    377.62189     125.3346    581.14265   -4436.1841 
39661000    132.60861   -6661.1108   -6319.9832   -6661.1108            0    12067.755    22.964533    21.252962    21.270892    10381.564    12253.779     11879.74    12069.747    369.84391   -822.15387    8.3906926   -4492.8712 
39662000    140.02832   -6659.9702   -6299.7558   -6659.9702            0    11512.934    23.067794    21.091808    21.363314    10394.138    10671.813    12297.673    11569.316    1170.2305   -553.37811    29.628617   -4554.5349 
39663000    132.18377   -6633.9547     -6293.92   -6633.9547            0    12866.328    23.109016    21.086622    21.205169    10333.089    13059.044    12446.991     13092.95   -1014.8268   -30.578094    1094.8945   -4354.9964 
39664000    134.30491   -6659.9222    -6314.431   -6659.9222            0    12011.454    23.061779    21.096374    21.358765    10391.464    12250.164    12607.333    11176.865    245.98489   -327.99515   -561.00007    -4494.109 
39665000    137.95664    -6655.493   -6300.6079    -6655.493            0    11646.437    23.094105    21.234652    21.163453    10378.458    10753.046    11290.138    12896.126     1250.081    31.729988    120.00794    -4537.813 
39666000     137.5285   -6635.3063   -6281.5227   -6635.3063            0    12366.834    22.803815    21.251956    21.433448    10387.199    14262.826     12150.08    10687.595   -12.076747      151.372   -489.83189   -4408.1126 
39667000    137.62837   -6660.6009   -6306.5603   -6660.6009            0    11456.265    23.035251    21.225718    21.259567    10394.647    10949.438    11203.549    12215.807    -42.43448     487.1681   -551.71422   -4569.8449 
39668000    139.59642   -6649.2225   -6290.1192   -6649.2225            0    10764.828    23.121742    21.164699    21.306916    10426.853    9144.8192    12532.304    10617.362   -33.501203     780.5184    850.98058   -4653.1661 
39669000    140.33127     -6630.66   -6269.6663     -6630.66            0    12452.186    23.030441    20.975752    21.512044    10392.056    12493.182    13958.425    10904.952    380.46916   -698.86157   -27.213856   -4382.4444 
39670000    132.69129   -6650.6591   -6309.3189   -6650.6591            0    11240.786    23.231104    21.130412    21.194625    10404.077    9939.6372    11695.283    12087.436     865.9335   -104.91432    888.26698   -4603.7231 
39671000    135.52944   -6650.9961   -6302.3549   -6650.9961            0     11565.39    23.012027    21.236653    21.264414    10391.885    10685.767    11880.215    12130.189    37.283371   -518.97275    440.86019   -4549.5623 
39672000    135.74264   -6641.1855   -6291.9958   -6641.1855            0     12726.73    22.837175    21.237098    21.373937    10366.259    14764.112    11273.507     12142.57   -416.54263    -276.2168   -959.32693   -4367.9528 
39673000    130.96845   -6645.2966   -6308.3883   -6645.2966            0    12661.484    23.028358    21.183341    21.260229    10371.113    11845.657    14163.427    11975.367   -486.63947    1080.9601   -743.95834   -4393.3129 
39674000    133.72859   -6655.9863   -6311.9777   -6655.9863            0    12435.234    23.003574    21.158727     21.32148    10377.726     12668.97    13550.381    11086.352   -82.508454   -551.04683     326.5792   -4429.9238 
39675000     135.3748   -6639.2633   -6291.0198   -6639.2633            0    12791.715    23.115951    21.015909    21.332892    10363.577    12603.098    13163.069    12608.978    111.60099   -349.79272   -512.91819   -4357.6527 
39676000    130.35281   -6647.5858   -6312.2612   -6647.5858            0    11040.971    23.229273    21.085923     21.21509    10391.377    10047.455    11757.229    11318.229    495.11336    69.397888    563.75209   -4639.0288 
39677000    141.08857   -6649.4301   -6286.4884   -6649.4301            0    10863.795    22.990899    21.193056      21.4144    10434.111    10969.696    11836.491    9785.1962   -436.01431   -481.42752    581.27866   -4633.3361 
39678000    136.82088   -6644.6241   -6292.6607   -6644.6241            0    12100.143    23.033976    21.240043    21.229421    10386.338     11794.68    11437.764    13067.984    220.46801   -118.31199    -597.6616   -4459.8027 
39679000    135.35194   -6648.0831   -6299.8985   -6648.0831            0    12103.411    22.935072    21.172146    21.383058    10383.286    12038.012    12932.021    11340.199    681.83028    482.56423    -450.4967   -4467.0842 
39680000     140.7552   -6660.3576   -6298.2734   -6660.3576            0    11236.399    22.962323    21.260489    21.279884    10388.631    11240.229    11347.701    11121.267    316.68577    7.9081751    143.66871   -4595.8743 
39681000    141.17087   -6663.4678   -6300.3144   -6663.4678            0     12618.09    23.052375    21.123224    21.272658    10358.518    11840.279    12278.531    13735.459    656.45394    483.43838   -171.22668   -4394.1203 
39682000    136.73881   -6644.8772    -6293.125   -6644.8772            0    11733.926    23.013767    21.140267    21.363078    10393.504    11473.308    12385.404    11343.067    37.035099    2.4246383    -130.8955   -4514.5128 
39683000    133.85915    -6646.589   -6302.2445    -6646.589            0    12771.781    23.074975    21.109653    21.239662     10345.94    13205.746    11907.665    13201.933   -604.78102   -320.08262    649.01792   -4375.1754 
39684000    136.00985   -6660.3275   -6310.4504   -6660.3275            0    11707.875    23.014046    21.134928    21.332122    10375.949    10924.095    12438.344    11761.185    1139.4526   -1099.3942   -234.85737   -4538.7847 
39685000    135.10601   -6636.3654   -6288.8134   -6636.3654            0      11816.3    22.995352    21.234989    21.264128    10383.402    12521.899    10224.626    12702.375    -39.01668   -524.19211    564.14391   -4499.4561 
39686000     137.1098   -6625.1236    -6272.417   -6625.1236            0    13784.705    23.022427    21.117788     21.23558    10324.372    12528.034    14057.932    14768.147    1251.6413    -55.55117    555.98109   -4196.8488 
39687000    133.68109   -6667.3787   -6323.4922   -6667.3787            0    11616.805    23.038691    21.153081    21.327729    10393.841    11474.045    11652.978    11723.394     233.9932    339.03189   -108.60767   -4562.5762 
39688000    135.75182    -6629.573   -6280.3598    -6629.573            0    12629.521    23.056062    21.183314    21.200396    10354.354    12263.704    12803.583    12821.276    -704.1839    1070.1517   -582.15198   -4373.2056 
39689000    133.03849   -6670.1105   -6327.8771   -6670.1105            0    11345.567    22.972902    21.097697    21.458909    10400.604    11419.602    11851.162    10765.938    644.17809    261.80421    311.68774   -4606.9572 
39690000    149.20335    -6652.835   -6269.0185    -6652.835            0    11952.857    23.061247    21.149752    21.293985    10385.921    12520.897    11516.576    11821.098   -134.50681   -465.96906    234.06083    -4458.543 
39691000     139.4356    -6646.101   -6287.4115    -6646.101            0    11622.255    23.178336    21.098426    21.278707     10405.85    11254.658    11738.817     11873.29    459.22597    -784.6131   -107.39715   -4523.6338 
39692000     137.5848   -6648.0299   -6294.1014   -6648.0299            0    11436.927     23.05166    21.070658    21.393966    10391.341    11810.151    11120.961    11379.671    663.20775    146.12887    882.18528   -4560.8687 
39693000    136.88376   -6663.3231   -6311.1979   -6663.3231            0    11330.884    23.016911    21.185151    21.318464     10395.24    12036.676      10424.9    11531.075    341.42945   -124.34543    155.89511   -4593.3917 
39694000    138.67157   -6661.7307   -6305.0065   -6661.7307            0    11100.725    23.028108    21.145308    21.417235    10428.832    12313.943    10472.409    10515.823   -248.30292   -761.01636   -392.06176   -4616.6548 
39695000    131.17253   -6623.6131   -6286.1797   -6623.6131            0    11540.916    23.113396    21.190404    21.187884    10377.448    11212.501    11560.534    11849.712     39.95128   -364.39258     1068.954   -4539.5263 
39696000    136.21849   -6662.9865   -6312.5728   -6662.9865            0    11400.297    23.064876     21.15829    21.338772    10413.605    11768.601    11111.329    11320.961    183.91872    -1115.269   -185.38091   -4581.1897 
39697000    137.51377   -6657.3389   -6303.5931   -6657.3389            0    10802.705    23.092595    21.149249    21.327852    10416.332    10992.774    10646.911    10768.431    -284.4971   -25.620664   -23.013747   -4662.5378 
39698000    138.19998   -6646.2479   -6290.7368   -6646.2479            0    11885.269    23.031087    21.101888    21.359545    10380.727    11643.811      11772.8    12239.196    278.69335    555.46098    279.50225   -4491.3992 
39699000    138.98532   -6646.7451   -6289.2139   -6646.7451            0    12516.073    22.987964    21.185903    21.322941    10384.715    13078.455    11654.385    12815.378   -1222.2493   -171.50702   -395.17293   -4393.6494 
39700000    132.80628   -6649.6313   -6307.9952   -6649.6313            0    12252.503    23.135639    21.162182    21.182045    10370.742    12441.699    11669.821    12645.989    175.36841   -564.14797   -699.69935   -4454.8454 
39701000    138.56831   -6649.1237   -6292.6651   -6649.1237            0    12439.189     23.08909    20.857966    21.522604    10365.102    12244.018     13399.02    11674.529     1090.332       826.28    293.55804   -4412.3027 
39702000    139.70186   -6668.7816   -6309.4071   -6668.7816            0    11029.233    23.037755    21.216116    21.309091     10415.28    9950.4254    11978.282    11158.993   -561.27314     905.9613   -813.29491   -4634.1087 
39703000    131.51188   -6673.1989   -6334.8926   -6673.1989            0    10814.495    23.159375    21.125617     21.28906    10415.802    9671.8857    11620.376    11151.223    -43.05798    174.24002    326.59543   -4692.1299 
39704000    136.10465   -6654.9554   -6304.8345   -6654.9554            0     12365.33    22.953131    21.096014    21.418673    10371.341      13479.8    12689.435    10926.754    449.51356   -296.77539   -165.26053    -4434.512 
39705000    134.88271   -6652.3298   -6305.3523   -6652.3298            0    11941.292    22.939588    21.346873    21.152069    10357.925    12474.721    11221.083    12128.071    966.30619   -639.97318    530.63472   -4501.5043 
39706000    135.36973   -6659.5293   -6311.2989   -6659.5293            0    12572.534    22.951886     21.18871    21.237047    10328.019    12913.415    11465.961    13338.226   -563.45513    305.83395    501.87098   -4417.5791 
39707000    131.27479   -6651.7584    -6314.062   -6651.7584            0    11833.724    22.985345    21.116464    21.369081    10371.894    12227.908    12048.854    11224.411   -712.87219   -552.30268   -997.73779   -4524.0522 
39708000    137.95791   -6655.1314   -6300.2431   -6655.1314            0    11255.382    23.083226    21.145387    21.345983    10419.054    10049.768    12900.471    10815.907   -852.89454   -482.66557   -121.94523   -4589.9741 
39709000    140.05568   -6646.2588   -6285.9741   -6646.2588            0    12537.006    23.106381     21.03979      21.2961    10353.172    12654.971    11263.622    13692.423   -998.67804    99.215846     606.3811   -4393.0068 
39710000    132.10363   -6635.5669   -6295.7384   -6635.5669            0    13310.601    22.983183    21.171995    21.240302    10335.527    13272.888    13007.765    13651.151    757.45374    -920.7412   -201.06919   -4289.3907 
39711000     135.7572    -6649.788   -6300.5608    -6649.788            0    10828.684    23.012726    21.285728    21.304367    10435.787    11240.155    9708.7481    11537.148   -983.70621   -329.07913   -233.10507   -4652.4866 
39712000    130.61473   -6660.7636   -6324.7652   -6660.7636            0    9588.7661    23.082458    21.198881    21.404015    10473.462    9343.1737    9281.3257    10141.799    -470.9075     1040.331    174.20105    -4860.132 
39713000    135.01973   -6650.3706   -6303.0406   -6650.3706            0    12355.478    23.010898    21.147467    21.303431    10366.723    12726.459    12257.195    12082.779   -289.67713   -1259.0036   -209.62958   -4435.0403 
39714000    139.55702   -6660.5901   -6301.5882   -6660.5901            0    12340.477    22.980174    21.245563    21.232549    10366.298    12916.446    11383.187    12721.798   -1453.1921    192.14605   -272.63837   -4435.9324 
39715000    131.99466   -6655.6376   -6316.0894   -6655.6376            0     13029.53    22.958962    21.102397    21.365976    10351.583    12727.676     13360.07    13000.845    281.08743    841.49591   -451.07403   -4349.0574 
39716000     136.8359   -6655.4743   -6303.4723   -6655.4743            0    11113.364     23.04818     21.22539    21.246382     10393.87    10633.221      10715.2    11991.671     -99.0119     356.0421    178.27632   -4618.8648 
39717000    138.82945   -6656.2574   -6299.1271   -6656.2574            0    12627.383    22.999771    21.155843    21.276637    10352.777    13056.628    11774.837    13050.684   -44.836866    93.999429    323.56852   -4392.5864 
39718000    142.11961   -6647.0024   -6281.4084   -6647.0024            0    13339.962    23.037005    21.095337    21.271309     10337.29    13355.278    12131.089    14533.518   -657.21973     588.0522    299.26527   -4270.2921 
39719000    131.00131   -6645.0494   -6308.0565   -6645.0494            0    11006.277    23.020262    21.286604    21.241261    10408.711    11298.068    9543.8373    12176.924    723.13893   -1103.4445   -108.51287   -4637.2996 
39720000    129.71281   -6660.3526   -6326.6743   -6660.3526            0    11204.281    22.928695    21.235279    21.328463     10384.77     10595.84    11323.774     11693.23    1036.7947    460.28562     888.2764   -4629.7722 
39721000    131.39249   -6640.3326   -6302.3334   -6640.3326            0    12762.739    23.124376    21.138413    21.157407    10342.007    11509.626    13136.184    13642.408   -184.72455     436.5891    425.36185   -4377.3605 
39722000    133.76682   -6660.3019   -6316.1949   -6660.3019            0    11719.792    23.043885    21.101536    21.375192     10393.93    12478.764    12184.281    10496.329    704.97397   -268.50699     -233.924   -4539.6525 
39723000     132.6658   -6654.8893   -6313.6146   -6654.8893            0    11505.139    23.157695    21.047467    21.311496    10387.454     11575.28    11989.924    10950.212   -562.93844    510.68665   -1014.7881    -4570.697 
39724000    137.93244   -6644.7728     -6289.95   -6644.7728            0     11592.37    22.988187    21.247922    21.299909    10403.966    11544.969    11944.894    11287.247    50.830127    -235.3464   -811.73765   -4531.0262 
39725000    134.58028   -6657.7718   -6311.5723   -6657.7718            0    11757.933    22.925722    21.296271    21.270018    10384.712    12561.871    10768.598    11943.331    300.71496   -266.14032    -79.65256   -4530.8289 
39726000    133.61398   -6640.7081   -6296.9943   -6640.7081            0    12920.329    23.050608    21.157367    21.214561    10346.133     12552.99    13448.158    12759.839     379.5246    304.71312   -1404.5194   -4347.4751 
39727000    143.78874   -6638.8965   -6269.0087   -6638.8965            0    12257.022     22.82001    21.202647    21.441093    10374.157    13216.463    12240.383     11314.22    264.22234   -422.28294     790.1182   -4414.5649 
39728000     137.0086   -6628.3644   -6275.9181   -6628.3644            0    11894.582    23.143969    21.087989    21.277454    10384.669     10231.12     12605.99    12846.637    600.21206     480.5983   -52.857491   -4474.4867 
39729000    136.44743    -6642.887   -6291.8843    -6642.887            0    11956.419    23.155286    21.110837    21.259934    10392.439    11495.325    12346.093     12027.84    362.83721   -762.13436   -568.43217   -4479.7327 
39730000    137.00615    -6624.657    -6272.217    -6624.657            0    13151.384    23.012707    20.975586    21.399128    10329.466    13094.106    14150.117    12209.929   -897.40229   -640.71401    265.57868   -4291.0311 
39731000    139.35787   -6647.3608   -6288.8712   -6647.3608            0    11151.498    23.026533     21.19102    21.338823    10412.401    11557.605    11071.929     10824.96   -485.14411   -333.50967    135.22627   -4595.4695 
39732000    136.49127   -6648.0136   -6296.8981   -6648.0136            0    12237.079    23.039123    21.179296    21.282599    10384.896    11243.089    11699.813    13768.334    703.68212    1660.0384   -346.69031   -4443.5552 
39733000    136.32037   -6657.4126   -6306.7368   -6657.4126            0    12174.533    22.841193    21.254119    21.336756    10358.343     13484.73    11368.822    11670.048   -723.23194    708.72752    697.54766   -4467.5812 
39734000    131.13843   -6639.2564   -6301.9108   -6639.2564            0    11590.821    23.097759    21.217311    21.209235     10394.06    11858.001    10515.906    12398.555    262.95941   -279.38928    519.95113   -4544.8966 
39735000    134.31522   -6649.5307    -6304.013   -6649.5307            0    11804.803    23.102112    21.153032    21.273427    10395.892    11351.791     12026.09    12036.529      1086.47   -1398.8368    253.49347   -4514.2463 
39736000    133.81513   -6653.7358   -6309.5046   -6653.7358            0     10429.84    23.122805    21.120607    21.330094    10416.928    10782.503    10602.073    9904.9447    372.24082   -965.20928    625.46965   -4725.0011 
39737000     134.5711   -6653.9629   -6307.7869   -6653.9629            0    12414.712    23.023902    21.117968    21.297206    10355.085     12680.12    12314.752    12249.263    64.021753   -357.37724   -1204.0071   -4432.9383 
39738000     136.9234   -6641.8491    -6289.622   -6641.8491            0    11150.545    23.021592    21.196754    21.330773    10409.055    10418.123    11433.838    11599.675    1100.0215   -521.43185    792.22919   -4596.9091 
39739000    133.14875   -6654.9494   -6312.4324   -6654.9494            0    11853.206    23.077612    21.157158    21.305945     10402.77    11245.991    11768.293    12545.334    889.86626   -263.14299    1029.0937   -4514.1383 
39740000    134.48461   -6643.8968   -6297.9433   -6643.8968            0    11271.857    23.030825    21.196612    21.356135    10425.541    11537.419    11082.142    11196.009    686.06849    104.59165   -408.27312   -4584.1046 
39741000    134.15583   -6649.3562   -6304.2485   -6649.3562            0    12101.172    23.152477    21.024911    21.285013    10361.092    12350.012    12840.374     11113.13   -703.52618   -457.80701   -625.43127   -4475.6901 
39742000    134.66916   -6651.5495   -6305.1213   -6651.5495            0    12573.433    23.094426    21.060013    21.326161    10372.382    12024.743    13534.854    12160.703   -264.37548   -71.117319   -364.24606   -4403.1312 
39743000    139.66865   -6650.3213   -6291.0322   -6650.3213            0    11946.774    22.967391    21.305922    21.231477    10389.441    13294.844    11302.648    11242.832   -1399.5866   -83.038669   -625.00786   -4480.8648 
39744000    139.64059   -6658.0565   -6298.8396   -6658.0565            0    11640.815     22.98603    21.182783    21.318703    10380.249    12006.245    11186.276    11729.924    322.15188    85.625453     755.6147   -4536.5916 
39745000    140.17269   -6634.4805   -6273.8948   -6634.4805            0    12316.521     22.96466    21.216519    21.303988    10379.945    13338.766    12177.985    11432.813   -1638.6408   -1387.9776    93.947313   -4409.4093 
39746000    134.34082   -6647.1668   -6301.5832   -6647.1668            0    12696.312    23.165751     21.05552    21.223958    10352.345    11388.932     11857.91    14842.095   -613.39676    589.72726    1269.7993   -4384.7152 
39747000    136.85721   -6652.5342   -6300.4774   -6652.5342            0    11341.929    23.180827     21.01136    21.355983     10401.66    10102.872    12340.724     11582.19   -71.680215    545.54687    958.68456   -4579.9347 
39748000    137.99327   -6644.7541   -6289.7748   -6644.7541            0    12308.708    23.053414    21.159467    21.262892    10371.995     12751.21    11383.303    12791.612   -1344.9191    783.05115    592.22863   -4427.8991 
39749000    133.91354    -6646.893   -6302.4086    -6646.893            0    12858.508    22.911893     21.15151    21.358088    10350.581    14052.181    12662.409    11860.936    885.65765    100.60802   -191.47385   -4361.3833 
39750000    143.82077   -6640.7559   -6270.7857   -6640.7559            0     11806.23    22.944242    21.289069    21.254404    10381.959    12301.153    10576.135    12541.403     789.0253   -168.02634    1174.9627   -4483.2017 
Loop time of 489.938 on 64 procs for 250000 steps with 1296 atoms

Performance: 88.174 ns/day, 0.272 hours/ns, 510.269 timesteps/s
99.1% CPU use with 64 MPI tasks x 1 OpenMP threads

MPI task timing breakdown:
Section |  min time  |  avg time  |  max time  |%varavg| %total
---------------------------------------------------------------
Pair    | 30.942     | 42.129     | 53.488     | 109.8 |  8.60
Bond    | 0.27996    | 0.28589    | 0.29983    |   0.7 |  0.06
Kspace  | 230.18     | 242.26     | 254        |  46.2 | 49.45
Neigh   | 1.9501     | 1.9762     | 2.009      |   1.1 |  0.40
Comm    | 90.037     | 91.578     | 93.645     |  10.5 | 18.69
Output  | 0.66583    | 0.66754    | 0.66928    |   0.1 |  0.14
Modify  | 97.557     | 100.96     | 104.01     |  24.2 | 20.61
Other   |            | 10.08      |            |       |  2.06

Nlocal:        20.2500 ave          26 max          14 min
Histogram: 7 4 7 5 5 7 8 5 11 5
Nghost:        2699.39 ave        2723 max        2668 min
Histogram: 1 1 3 8 8 10 15 12 3 3
Neighs:        6729.80 ave        8614 max        4615 min
Histogram: 5 6 7 5 5 6 9 5 11 5

Total # of neighbors = 430707
Ave neighs/atom = 332.33565
Ave special neighs/atom = 2.0000000
Neighbor list builds = 3481
Dangerous builds = 0

unfix		3
unfix		2
unfix		1

write_data	data.final.${pid}
write_data	data.final.0
System init for write_data ...
PPPM initialization ...
  extracting TIP4P info from pair style
  using 12-bit tables for long-range coulomb (../kspace.cpp:340)
  G vector (1/distance) = 0.37136399
  grid = 30 40 32
  stencil order = 5
  estimated absolute RMS force accuracy = 0.0037254113
  estimated relative force accuracy = 1.1218965e-05
  using double precision FFTW3
  3d grid and FFT values/proc = 5168 640
Last active /omp style is kspace_style pppm/tip4p/omp
WARNING: Not all mixed pair coeffs generated from mixing. Use write_data with 'pair ij' option to store all pair coeffs. (../write_data.cpp:312)

write_restart   restart.lmp.${pid}
write_restart   restart.lmp.0
System init for write_restart ...
PPPM initialization ...
  extracting TIP4P info from pair style
  using 12-bit tables for long-range coulomb (../kspace.cpp:340)
  G vector (1/distance) = 0.37136399
  grid = 30 40 32
  stencil order = 5
  estimated absolute RMS force accuracy = 0.0037254113
  estimated relative force accuracy = 1.1218965e-05
  using double precision FFTW3
  3d grid and FFT values/proc = 5168 640
Last active /omp style is kspace_style pppm/tip4p/omp
Total wall time: 0:08:10
