LAMMPS (30 Jul 2021)
Processor partition = 1
  using 2 OpenMP thread(s) per MPI task
using multi-threaded neighbor list subroutines
variable        pid world 0 1
variable        phase world IceII IceIh

shell cd ${phase}
shell cd IceIh
include Restart.lmp
echo both
log log.lammps
#include		in.partitions
include		in.temp
variable        temperature equal 185.10
variable	tempDamp equal 100.0
include		in.pressure
variable        pressure equal 2087.5
variable        pressureDamp equal 1000.0 # This is 1 ps
include		in.seed
variable        seed equal 745823

units		real
atom_style	full
#include		in.box
read_restart	restart.lmp.${pid}
read_restart	restart.lmp.1
Reading restart file ...
  restart file = 30 Jul 2021, LAMMPS = 30 Jul 2021
  restoring atom style full from restart
  orthogonal box = (0.16149706 0.030741808 0.085010974) to (18.046075 23.598436 22.128185)
  2 by 4 by 4 MPI processor grid
  restoring pair style lj/cut/tip4p/long/omp from restart
  restoring bond style harmonic/omp from restart
  restoring angle style harmonic/omp from restart
  864 atoms
  576 bonds
  288 angles
Finding 1-2 1-3 1-4 neighbors ...
  special bond factors lj:    0        0        0       
  special bond factors coul:  0        0        0       
     2 = max # of 1-2 neighbors
     1 = max # of 1-3 neighbors
     1 = max # of 1-4 neighbors
     2 = max # of special neighbors
  special bonds CPU = 0.002 seconds
  read_restart CPU = 0.007 seconds
include 	in.setup
variable	out_freq equal 1000
variable	out_freq2 equal 10000
variable	out_freq3 equal 1000

timestep	2.0

neigh_modify    delay 7 every 1

include		in.tip4p
# This is TIP4P/Ice

# create groups ###
group ox type 2
288 atoms in group ox
group hy type 1
576 atoms in group hy

# set charges - beside manually ###
set group ox charge -1.1794
Setting atom values ...
  288 settings made for charge
set group hy charge 0.5897
Setting atom values ...
  576 settings made for charge

# ### TIP3P Potential Parameters ###
pair_style lj/cut/tip4p/long/omp 2 1 1 1 0.1577 8.5
pair_coeff 1 1*2 0.000 0.000
pair_coeff 2 2 0.21084 3.1668
bond_style  harmonic
bond_coeff  1 450 0.9572
angle_style harmonic
angle_coeff 1 55 104.52
kspace_style pppm/tip4p/omp 1.0e-5
pair_modify tail yes

thermo          ${out_freq}
thermo          1000
thermo_style    custom step temp pe etotal epair emol press lx ly lz vol pxx pyy pzz pxy pxz pyz enthalpy

restart 	${out_freq3} restart.lmp.${pid} restart2.lmp.${pid}
restart 	1000 restart.lmp.${pid} restart2.lmp.${pid}
restart 	1000 restart.lmp.1 restart2.lmp.${pid}
restart 	1000 restart.lmp.1 restart2.lmp.1


include         in.dump
dump            myDump all atom ${out_freq2} dump.water.${pid}
dump            myDump all atom 10000 dump.water.${pid}
dump            myDump all atom 10000 dump.water.1
dump            myDump2 all dcd ${out_freq2} dump.dcd
dump            myDump2 all dcd 10000 dump.dcd
dump_modify     myDump append yes
dump_modify     myDump2 append yes


variable natoms 	equal  "count(all)"                        # NUMBER ATOMS
variable H      	equal  "enthalpy/v_natoms"                 # ENTHALPY-per-atom
variable Vol      	equal  "vol/v_natoms"                 # volume-per-atom
fix AVG all 		ave/time ${out_freq} 1 ${out_freq} v_Vol v_H file vol_enthalpy.dat
fix AVG all 		ave/time 1000 1 ${out_freq} v_Vol v_H file vol_enthalpy.dat
fix AVG all 		ave/time 1000 1 1000 v_Vol v_H file vol_enthalpy.dat


timer           timeout 23:50:00 every 1000
New timer settings: style=normal  mode=nosync  timeout=23:50:00

fix 		1 all shake 1e-6 200 0 b 1 a 1
Finding SHAKE clusters ...
       0 = # of size 2 clusters
       0 = # of size 3 clusters
       0 = # of size 4 clusters
     288 = # of frozen angles
  find clusters CPU = 0.000 seconds
fix             2 all nph aniso ${pressure} ${pressure} ${pressureDamp}
fix             2 all nph aniso 2087.5 ${pressure} ${pressureDamp}
fix             2 all nph aniso 2087.5 2087.5 ${pressureDamp}
fix             2 all nph aniso 2087.5 2087.5 1000
fix             3 all temp/csvr ${temperature} ${temperature} ${tempDamp} ${seed}
fix             3 all temp/csvr 185.1 ${temperature} ${tempDamp} ${seed}
fix             3 all temp/csvr 185.1 185.1 ${tempDamp} ${seed}
fix             3 all temp/csvr 185.1 185.1 100 ${seed}
fix             3 all temp/csvr 185.1 185.1 100 745823


run             250000
PPPM initialization ...
  extracting TIP4P info from pair style
  using 12-bit tables for long-range coulomb (../kspace.cpp:340)
  G vector (1/distance) = 0.3715434
  grid = 24 27 25
  stencil order = 5
  estimated absolute RMS force accuracy = 0.0031831016
  estimated relative force accuracy = 9.5858161e-06
  using double precision FFTW3
  3d grid and FFT values/proc = 4410 672
Last active /omp style is kspace_style pppm/tip4p/omp
Neighbor list info ...
  update every 1 steps, delay 7 steps, check yes
  max neighbors/atom: 2000, page size: 100000
  master list distance cutoff = 10.8154
  ghost atom cutoff = 10.8154
  binsize = 5.4077, bins = 4 5 5
  1 neighbor lists, perpetual/occasional/extra = 1 0 0
  (1) pair lj/cut/tip4p/long/omp, perpetual
      attributes: half, newton on, omp
      pair build: half/bin/newton/omp
      stencil: half/bin/3d
      bin: standard
Setting up Verlet run ...
  Unit style    : real
  Current step  : 11000000
  Time step     : 2
  Walltime left : 23:49:59.94
Per MPI rank memory allocation (min/avg/max) = 10.21 | 10.22 | 10.23 Mbytes
Step Temp PotEng TotEng E_pair E_mol Press Lx Ly Lz Volume Pxx Pyy Pzz Pxy Pxz Pyz Enthalpy 
11000000    196.80203   -4378.1178   -4040.8058   -4378.1178            0    1770.7671    17.884578    23.567694    22.043174    9291.1597    2084.1292    1876.1405    1352.0316   -663.34624   -113.46613    842.41651   -3800.8633 
11001000    183.10173   -4390.2492   -4076.4191   -4390.2492            0      1425.81    18.304397    23.234258    21.929271    9326.2794   -145.85582    1362.1591    3061.1268   -1007.2196   -504.71006   -107.81113   -3882.4886 
11002000    186.33259   -4394.4315   -4075.0638   -4394.4315            0    2596.1054    17.965481    23.320066    22.099258    9258.6216     3587.123    3221.1127    980.08026   -216.82799   -230.43405    360.27257   -3724.5182 
11003000     191.4957   -4411.1688   -4082.9517   -4411.1688            0    1979.1542    17.906467    23.526557    21.988662    9263.3293    2065.7153    1891.7995    1979.9477    1532.6916   -1023.8578   -150.36582   -3815.5756 
11004000     166.0665   -4386.6511   -4102.0189   -4386.6511            0    2675.4824    18.210472    22.933642    22.034307    9202.2413     1981.523    3394.5305    2650.3938   -225.90498    140.00723    697.30296   -3742.9551 
11005000    188.82233   -4395.9161   -4072.2811   -4395.9161            0    1725.4031    17.951639    23.528177     21.99268     9289.034    1521.6764    2472.0354    1182.4976    538.53973   -650.49709    639.22131    -3838.539 
11006000    192.66821   -4390.5953   -4060.3686   -4390.5953            0    2678.6858    17.987453    23.156299    22.110629    9209.5816    2652.3869    3872.1624    1511.5081    510.73449   -490.34726   -14.633123   -3700.5882 
11007000    191.94517   -4405.4706   -4076.4831   -4405.4706            0    3214.5835    17.993564    23.316278     21.91475    9194.1785    3125.8008    2761.6056    3756.3439   -578.39292    492.92417    253.26229   -3645.4471 
11008000    185.04218   -4379.6457   -4062.4898   -4379.6457            0    3489.4707    17.839727    23.433276    21.980521    9188.8082    2563.5724    2753.9368     5150.903   -29.466541   -455.76691   -599.56832   -3594.8681 
11009000    192.23036   -4383.2837   -4053.8074   -4383.2837            0    2161.1491    18.008974    23.453709    21.893136    9247.1625    2442.2781    769.70812    3271.4609    925.98318   -277.98658    473.61501    -3762.354 
11010000    184.65303   -4388.3916   -4071.9026   -4388.3916            0    2264.5721     18.03296    23.319328    22.008065    9254.7549    1920.7412    2795.6808    2077.2944   -671.54297   -75.905572   -215.63712   -3766.2508 
11011000    193.57372   -4404.9099   -4073.1312   -4404.9099            0    3359.7987    17.698877     23.62986    21.959047    9183.7564    4349.0737    2479.6729    3250.6497    1192.9079     278.7171   -250.36488   -3623.1343 
11012000    190.74232   -4371.6431   -4044.7173   -4371.6431            0    930.04715    18.145415    23.205842    22.062948    9290.2578    676.64827    2365.2963   -251.80308   -376.52729   -582.18059    531.66324   -3918.7063 
11013000    191.94692   -4386.5143   -4057.5238   -4386.5143            0    1336.5484    17.986749    23.447519    21.941021    9253.5079    881.40531    1996.0065    1132.2333    682.84021   -452.98115    233.26994   -3877.1527 
11014000     183.1508   -4405.3959   -4091.4817   -4405.3959            0    1536.7228    17.940301     23.41475    22.094669    9281.2561     317.2408    2609.1861    1683.7415   -584.58629    447.48403    392.30046   -3883.4746 
11015000    180.43634   -4384.1619   -4074.9002   -4384.1619            0    1348.8434    18.141936    23.384235    21.886113    9284.8619    204.08788    1037.4886    2804.9538    290.09288   -430.06199   -58.586532    -3892.253 
11016000    178.87249   -4382.0815   -4075.5002   -4382.0815            0    1962.2548    17.733021    23.549733    22.229142    9283.0657    3239.6092    2515.6589    131.49628     25.93031   -188.85029    526.06153   -3809.8423 
11017000    182.05661   -4383.1856   -4071.1468   -4383.1856            0    3065.6066    18.111768    23.359797    21.833174    9237.3371    856.81572    2309.2297    6030.7743   -268.88335   -602.04509   -194.06859   -3658.1572 
11018000    171.05129    -4390.103    -4096.927    -4390.103            0    3723.5264    17.845805    23.424627     21.92718    9166.2478    2818.6925    4100.8448    4251.0419   -264.86025     -150.956    249.70609   -3599.1648 
11019000    196.82918   -4416.2213   -4078.8628   -4416.2213            0     1071.306    18.040994    23.398257    21.994589     9284.528    1092.6947     2638.657   -517.43362    264.78961   -110.98874   -474.58958   -3933.8023 
11020000    179.04274   -4400.3381   -4093.4649   -4400.3381            0    789.20153    18.109801    23.336569    22.090309    9335.8199    933.43567    192.45438    1241.7145    97.937334    255.33671   -234.65505   -3986.0125 
11021000     185.6193   -4410.6681    -4092.523   -4410.6681            0    1396.9723    17.836933    23.595963    22.092069    9298.1018    2778.2423    59.557722    1353.1169    1047.4207   -961.72254    194.22927    -3903.089 
11022000    189.97145   -4389.0518   -4063.4472   -4389.0518            0    3247.8837    18.117436    23.157498     21.88161    9180.5278    2539.9534    3460.6007    3743.0972   -740.38614       304.41   -580.25302   -3628.5927 
11023000    183.90302   -4411.1543   -4095.9508   -4411.1543            0    2177.0887    17.947322    23.454682    21.937033    9234.3663    1629.3067    1135.0166    3766.9427   -517.00025    746.52421    84.741992   -3802.7541 
11024000    199.91583   -4378.7278   -4036.0789   -4378.7278            0     2510.817    17.979648    23.482669    21.872046    9234.5996    1892.7871    2235.6679    3403.9959    237.75841    350.39956    381.19984   -3697.9292 
11025000     193.5037   -4403.6274   -4071.9686   -4403.6274            0     2025.166     18.13157    23.111965    22.073306    9249.9559    879.23762    3345.1087    1851.1515   -430.16371   -128.84375    64.603529   -3798.7715 
11026000    188.11615   -4372.6749   -4050.2503   -4372.6749            0    2623.5018    17.916726    23.460943    21.972612    9236.0402    2485.0683    1967.9941    3417.4432     383.8345   -939.16606    756.61263   -3696.8694 
11027000    190.92179   -4389.9081   -4062.6747   -4389.9081            0    2195.1702    18.051467    23.172267    22.113015    9249.7283    1965.8044    2381.9335    2237.7725    69.288395   -1228.9827   -169.82925    -3766.551 
11028000    176.93799   -4389.5661   -4086.3005   -4389.5661            0    1230.6508    18.073407    23.402007      21.9429    9280.8371    198.44585    1799.7556    1693.7511   -437.95233    67.914755   -95.345067     -3919.73 
11029000    175.64963    -4401.218   -4100.1605    -4401.218            0    1761.8136    17.976757    23.523014    21.918699    9268.7059    2033.7364    1566.7884    1684.9162    366.81906    667.28519    -610.4016   -3862.0081 
11030000    183.48043   -4375.2111   -4060.7319   -4375.2111            0    2638.8429    17.966108    23.226875    22.102717    9223.3878    2839.1003    2844.1662    2233.2623   -504.54828   -278.98185    -628.8756   -3705.7715 
11031000    194.93457   -4388.4563   -4054.3451   -4388.4563            0    3137.0377    17.887707    23.434241    21.881632    9172.4487    3709.7301    2758.1033    2943.2796    76.053668   -215.05718   -774.76669   -3634.7012 
11032000    183.85497   -4379.2798   -4064.1587   -4379.2798            0    1882.0901    18.050611    23.222023    22.120196    9272.1605    2619.2971    1090.4291    1936.5442   -361.69457   -72.198979   -1036.6171   -3809.6531 
11033000    186.30567   -4386.1352   -4066.8136   -4386.1352            0    2755.8187    18.055115    23.305826    21.857079    9197.2265    2072.6968    1995.2883     4199.471    755.00378   -371.50111    673.81065   -3697.1699 
11034000    179.14545   -4405.3536   -4098.3044   -4405.3536            0    1124.9584    17.851672    23.548033    22.124873     9300.672    1613.9283    733.00951    1027.9375   -180.12498   -152.54324     753.5994   -3945.7142 
11035000    177.15734   -4404.5003   -4100.8586   -4404.5003            0    2263.5352    18.103717    23.349235    21.891023    9253.5095    2509.0113    2569.1293    1712.4649   -214.61265    -783.4996   -59.083905   -3795.3879 
11036000    182.75003   -4401.1333    -4087.906   -4401.1333            0    3144.0108    17.761812      23.2954    22.176264    9175.8401    3629.9468    2168.2714    3633.8142   -262.10677   -263.88303   -280.53161   -3667.1738 
11037000    197.16263   -4408.7402   -4070.8102   -4408.7402            0    2328.9505     17.99703    23.328204    21.925121    9205.0073    1949.2195    3616.7887    1420.8434   -212.71349   -803.53046   -89.677176   -3758.1588 
11038000    193.32097   -4406.5088   -4075.1633   -4406.5088            0    1346.8389    18.004204    23.583472      21.8539     9279.202    1479.3053    1427.8651    1133.3462    122.92059    437.10828   -35.260016   -3892.8988 
11039000    183.57157    -4388.771   -4074.1356    -4388.771            0    1531.2022    17.902366    23.341766    22.147162    9254.6979    1269.7325    2427.1046    896.76931    -490.0495   -112.81741   -44.588075   -3867.4688 
11040000    184.64349   -4396.2637   -4079.7911   -4396.2637            0    2732.2766    18.193314    23.183045     21.71801    9160.1444    1453.0187    3744.6112    2999.1997    1224.6616    231.03756    132.79633   -3714.7827 
11041000    184.35382   -4394.7119   -4078.7358   -4394.7119            0    2352.2408    17.796361    23.416053    22.093849    9206.9606    3623.1977    2468.9903    964.53445    -277.4397    -261.4503    266.04565   -3762.8908 
11042000    187.47411   -4406.1497   -4084.8255   -4406.1497            0    1689.5363    18.050494    23.540653    21.771167    9251.0134     1772.304    759.95369    2536.3511   -368.22534    -820.6411    177.79189   -3856.8791 
11043000    187.06346   -4391.6379   -4071.0175   -4391.6379            0    1912.9951    18.023385    23.256771    21.986492    9215.9844    2452.2636    2438.7242    847.99744   -501.53137   -370.89373   -1039.4096   -3813.9001 
11044000    178.24659   -4375.7313   -4070.2227   -4375.7313            0    2578.8838    17.884286    23.646107     21.78859    9214.2584    2808.6486    1873.5008    3054.5021    451.30387    762.31307    658.29215    -3723.671 
11045000    175.15501    -4412.893   -4112.6833    -4412.893            0     2453.598    18.101174    23.099423    22.000039    9198.8029    1499.5324    2271.0219    3590.2397    -43.57177    218.50528    -547.5677   -3783.5206 
11046000    187.58992   -4391.0565   -4069.5338   -4391.0565            0    2423.8637    17.963288    23.342387    22.114272    9272.6476    2197.3905    3934.6742    1139.5262   -463.81366   -763.05747    738.76754   -3741.7497 
11047000    168.99287   -4379.8941   -4090.2462   -4379.8941            0    2625.8316    18.037823    23.561703    21.731946    9236.1166    3065.9697    2743.2036    2068.3216   -74.205595   -51.376141   -205.01591   -3736.5485 
11048000     181.2364   -4384.9019   -4074.2689   -4384.9019            0    1182.2895    18.036622    23.258849    22.176776    9303.4028    716.38912    2136.8597    693.61983    -993.0693    177.15675    288.77543   -3913.8552 
11049000    184.66388   -4379.1895   -4062.6819   -4379.1895            0    1167.9972    18.094835      23.4538    21.827602    9263.4737    171.37915    1833.5858    1499.0267    623.59094   -242.79733   -169.80876   -3904.8875 
11050000     183.3844   -4400.2927   -4085.9781   -4400.2927            0    2293.1204    17.865413    23.285012    22.188539     9230.351    2802.7778    2314.7636    1761.8197    53.236234    427.31026    570.79438   -3777.2893 
11051000    190.58959   -4389.5338   -4062.8697   -4389.5338            0    2771.9606     17.98541    23.398435    21.928904    9228.3503    2573.1704    2305.1486    3437.5627    37.288529    213.75734   -4.0865615   -3689.8026 
11052000    184.35489   -4398.6052   -4082.6273   -4398.6052            0    2245.8214    17.893804    23.407907    22.061389    9240.5566    2049.0264    1965.4609     2722.977   -1188.8589   -511.13191    591.00587   -3779.9713 
11053000    190.79045   -4421.1121   -4094.1038   -4421.1121            0    1663.8942    18.140907    23.233163    21.977791     9262.994    1362.4115    2260.2812    1368.9898   -606.94427    115.77821   -286.22648   -3869.3262 
11054000     189.8181   -4385.0207    -4059.679   -4385.0207            0    1622.9267     17.90113    23.560243     21.86449    9221.4572    2788.1702    1197.1428    883.46721    864.63251    195.84424    111.12238   -3841.4189 
11055000    186.07028   -4398.3834   -4079.4653   -4398.3834            0    2152.9609    17.878542    23.365625    22.021391    9199.2888    2255.5884    955.24303    3248.0513   -272.44776   -774.43344   -427.49841   -3790.6194 
11056000    201.11193   -4396.9348   -4052.2358   -4396.9348            0     2307.119    18.154679    23.348021    21.788398    9235.5751    1879.6902    2015.0767    3026.5901    589.04744    473.85334    687.55557   -3741.4868 
11057000    188.98282   -4399.0777   -4075.1676   -4399.0777            0    3063.3448    17.907673    23.298594    22.039443    9195.3758    4231.7781    3007.1376    1951.1187    167.10086    133.12519   -265.08655   -3664.3573 
11058000    186.22984   -4396.9469   -4077.7554   -4396.9469            0    1583.7916    18.116679    23.440527    21.847371    9277.8026    380.49715    1440.0021    2930.8756   -260.82357   -749.40782   -761.09852   -3863.4569 
11059000    182.24498   -4385.0732   -4072.7116   -4385.0732            0    1800.7356    17.919049    23.227969    22.321501    9290.7244    1827.8609    2170.7049     1403.641   -204.91918    5.4340865    628.12883   -3828.7197 
11060000    175.21219     -4407.76   -4107.4523     -4407.76            0    830.69115    18.074592    23.576186      21.9132    9337.8706      889.205    158.77691    1444.0915    58.788511     224.8724   -314.72249   -3994.3261 
11061000    191.41511   -4408.9186   -4080.8396   -4408.9186            0    987.52317    18.010318    23.367476    22.097129     9299.702    1092.5383     2668.849   -798.81782   -324.00232   -138.70739    379.19065   -3946.9052 
11062000     178.1789   -4368.2766    -4062.884   -4368.2766            0    2722.2395    17.878738     23.36902    22.021892    9200.9357    2517.0133    2297.7673    3351.9378   -59.536582   -637.05615   -101.04325    -3697.597 
11063000    191.36832   -4379.1189   -4051.1202   -4379.1189            0    3071.9328    18.071001    23.324445     21.83425    9203.0505    3231.0292    2134.4945    3850.2746    429.90492   -80.282693    162.76619   -3638.8144 
11064000    189.78119   -4397.2688   -4071.9903   -4397.2688            0    3614.0024    17.843997    23.161723    22.259815    9199.9308     4327.449    5286.0369    1228.5212   -141.04351   -414.18878   -117.77922    -3587.094 
11065000    174.51081   -4400.4624   -4101.3569   -4400.4624            0    1819.3006    18.100902    23.534243    21.764803    9271.6105    1373.9136    1731.1304    2352.8579   -1217.1731   -597.26231     665.3047   -3855.3566 
11066000    184.11436   -4376.5622   -4060.9965   -4376.5622            0    1254.7094    18.008063    23.372434    22.123407    9311.5709    1806.8157    1715.6243    241.68827    797.00163    783.39191     634.0064   -3890.6073 
11067000    183.94606   -4416.8247   -4101.5475   -4416.8247            0    1962.4538    18.035947      23.5984    21.716412    9242.9281    1358.2578    2538.3602    1990.7433    683.91742   -926.77691    509.89748   -3837.0114 
11068000    186.69645   -4403.9931   -4084.0018   -4403.9931            0    1223.7486     18.07262    23.219474    22.070458    9261.5746    1098.2109    507.94933    2065.0856    1460.4972   -308.62516   -374.11783   -3918.7094 
11069000    173.19207   -4401.5596   -4104.7143   -4401.5596            0    1909.2164    18.013679    23.393832    21.868932    9215.7645    1889.1266      916.995    2921.5275     653.1658   -585.80867   -716.54858   -3848.1109 
11070000    183.78524   -4391.4019   -4076.4003   -4391.4019            0    2198.4824    17.861892    23.497729      21.9485    9212.0907    2247.2484    1909.8729    2438.3259   -7.7914411    220.76711   -354.67375   -3781.0366 
11071000     184.6115   -4395.7391   -4079.3213   -4395.7391            0    1437.5153    18.075822    23.280322    21.978824    9248.9302    2986.8709    1084.9089    240.76605   -143.48646   -23.241756   -504.85149   -3885.4204 
11072000    194.12918   -4367.3014   -4034.5706   -4367.3014            0    3082.9979    17.964901    23.370857    21.938925      9211.17    3123.3411    4085.5599    2040.0927    361.63431    504.15108   -169.33436   -3620.4146 
11073000    172.62205   -4399.2647   -4103.3965   -4399.2647            0     1474.486    18.084171    23.254789    22.084544    9287.5132    1180.3624    2044.8851    1198.2106   -445.73375   -215.71781     -121.155    -3903.679 
11074000    192.04639   -4410.4067   -4081.2458   -4410.4067            0    2594.3852     17.99197    23.291568    21.944139    9195.9369    2799.7887     3314.336    1669.0309   -566.79052    309.73242    -33.32422   -3733.3042 
11075000     172.6542   -4379.1173   -4083.1939   -4379.1173            0    1755.8567    17.819985    23.617142    22.041531    9276.3353    4106.8889    690.65126    470.02986   -1093.4577   -129.19884    48.708195   -3845.6514 
11076000    189.41319   -4407.3473   -4082.6995   -4407.3473            0     2881.373    18.112136    23.212925    21.937929    9223.4876    3362.2783    2296.8157     2985.025   -447.35182     1049.007    269.05146   -3695.1113 
11077000    178.43573   -4397.7666   -4091.9339   -4397.7666            0    2701.3692     17.89627    23.404045    22.046634     9234.125    2875.4537    4015.1785    1213.4755    759.06975    31.523189   -55.854302   -3728.1398 
11078000     195.8502   -4378.3704   -4042.6899   -4378.3704            0    2009.3751    17.900798     23.61492    21.846977    9235.2834    2219.4978    1861.5795    1947.0481   -390.54262   -243.28673    275.46565   -3772.0529 
11079000    189.81295   -4413.0694   -4087.7365   -4413.0694            0    785.69837    18.070681    23.319942    22.091225    9309.4022    217.27615     1183.323    956.49598     1871.947   -244.15476   -833.27594   -3981.0638 
11080000    188.60778   -4370.3103    -4047.043   -4370.3103            0    1497.2542    17.939083    23.590599    21.965141    9295.5097    1483.5686    1208.4284    1799.7656   -47.249673   -48.774082   -25.367229    -3844.067 
11081000    182.24136   -4391.4465    -4079.091   -4391.4465            0    2832.9199    18.041475    23.202434    22.022956    9218.9446    2305.7673     3404.226    2788.7665   -89.428554    334.87659    88.645596   -3698.2082 
11082000    184.00212   -4406.3331   -4090.9598   -4406.3331            0    2271.4648     18.13409    23.274094    21.898462    9242.3444    1737.1622    2263.1014    2814.1308    748.01599   -75.627792    475.22208   -3784.7888 
11083000    174.02915   -4392.4405   -4094.1605   -4392.4405            0    1901.1421    17.915542    23.429728    22.042193    9252.3491    3417.0111    1231.7059    1054.7093    166.41328    811.87416    590.43635   -3837.6279 
11084000     182.4693   -4358.3575   -4045.6114   -4358.3575            0    2432.2729     18.03766    23.325154    21.989935    9251.8515    2114.1356    2634.7552    2547.9278    -322.3422   -336.71112   -600.98793   -3717.4278 
11085000    186.09334   -4402.6368   -4083.6792   -4402.6368            0    754.70276    17.924765    23.390284    22.264761     9334.843   -153.95292    1475.0645    942.99668   -296.34355    309.24777    -504.2113   -3980.9346 
11086000    189.96175   -4402.0919    -4076.504   -4402.0919            0     2041.084    18.032045    23.587389    21.790938    9268.3149    2266.1557    1218.6434    2638.4529   -371.37582     512.7208    373.14768    -3800.613 
11087000    183.25382   -4405.3159   -4091.2251   -4405.3159            0     2123.779    17.937996     23.27787    22.196445    9268.3108    782.47911    3294.9961    2293.8617   -823.90185    193.22298    238.05023   -3804.1564 
11088000    196.55374   -4395.3134    -4058.427   -4395.3134            0    2160.2672     18.11809    23.426534    21.841861    9270.6479     1964.619    684.96294    3831.2195   -989.92173     267.4153   -90.079493   -3766.3527 
11089000     173.4313   -4401.5953     -4104.34   -4401.5953            0    1825.5615    17.969799    23.372922    22.063344    9266.7527    1924.6859    2164.3597    1387.6389   0.94881809   -652.84853    469.39517   -3857.6225 
11090000    184.01741   -4390.5021   -4075.1026   -4390.5021            0    1241.7083    17.977677    23.478627    22.093129    9325.3147    1792.0042    300.16132    1632.9594    311.63297   -757.61213    425.89373     -3906.23 
11091000    177.63475   -4405.3758   -4100.9159   -4405.3758            0    1133.3506    18.122113    23.385636     21.94365    9299.6558    1711.5107    1702.7433   -14.202277    78.275061   -538.16047    439.76875   -3947.2042 
11092000    188.27423   -4386.9774   -4064.2818   -4386.9774            0    1994.6458    17.810102    23.430979    22.230949    9277.1556    4009.6713    850.78598      1123.48    256.93582   -235.63333    787.71231   -3794.4106 
11093000    178.22944   -4396.6941    -4091.215   -4396.6941            0    2516.0464    18.039026     23.35068    21.827729    9194.3528     2801.924    1950.4405    2795.7748   -227.15041   -117.36637    86.674162   -3753.8378 
11094000     181.7984    -4398.628   -4087.0318    -4398.628            0    1465.6725    18.026598     23.23817    22.177518    9290.2768     288.9978    2678.3316    1429.6883    559.41719    49.622234    191.49543    -3888.449 
11095000    184.85593   -4404.1443   -4087.3076   -4404.1443            0    2289.7453    17.907011    23.512322        21.94    9237.5167    2079.0517    2006.6588    2783.5254   -647.77835    805.01652    47.049285   -3778.8338 
11096000    189.55892   -4390.9807   -4066.0832   -4390.9807            0     2529.368    18.079908    23.248854    21.907172    9208.3981    2532.7372    2320.7957    2734.5709     551.9516   -180.33664   -431.04317   -3726.4016 
11097000    190.20042   -4402.1302   -4076.1332   -4402.1302            0    1799.4917    17.966214    23.327312    22.053027    9242.4999    2211.1699    741.56491    2445.7404    -251.3636   -241.01752    385.75883   -3833.5754 
11098000    181.68698    -4414.152   -4102.7468    -4414.152            0    3219.2037    17.866301    23.559904    21.845178     9195.254    2972.6244    4572.8586    2112.1282   -173.98913     -521.528    533.83304   -3671.0408 
11099000     177.7862   -4376.9452   -4072.2257   -4376.9452            0    1253.8005    18.160325    23.220158    22.080433    9311.0012     613.1558    1598.4599    1549.7857    133.18388     247.2357   -151.45104   -3901.9704 
11100000    177.69281    -4396.101   -4091.5416    -4396.101            0     3471.999    17.906756    23.453412     21.88272    9190.1848      3047.15    3054.9606    4313.8863    123.84966    704.38441   -103.26812   -3626.1916 
11101000    183.59439   -4420.9188   -4106.2443   -4420.9188            0    2563.8104    17.843183    23.303398    22.156796    9212.9465    3216.0641    2430.2023    2045.1648   -1339.0332    612.51393     230.2653   -3761.7672 
11102000    181.99704   -4375.5144   -4063.5777   -4375.5144            0    3324.2573    18.118051    23.210954    21.897937    9208.8984    2033.5778    3901.0845    4038.1096   -789.81625   -400.70994   -21.638695   -3617.1222 
11103000    188.65513   -4388.3436   -4064.9952   -4388.3436            0    481.87416    17.830576    23.572713    22.122805    9298.5478    1534.9418    538.04996   -627.36926    598.97632    -429.1124    564.94512   -3999.6483 
11104000    182.71294   -4393.2625   -4080.0988   -4393.2625            0    2014.4005    18.153878    23.222487    21.926259     9243.633    409.47491    2232.1371    3401.5894   -370.62044   -159.33581    835.98871   -3808.5396 
11105000    187.09007   -4382.0707   -4061.4047   -4382.0707            0    1836.2247    18.015263    23.507827    21.964965    9302.1555    342.61855    3122.7894    2043.2663    227.82873    374.79679    75.962817   -3812.2981 
11106000    178.61644   -4402.5982   -4096.4557   -4402.5982            0    2749.7306    17.907218    23.337708    22.029724    9206.5173    2661.4998    3651.5245    1936.1674   -205.87307     149.8157   -326.15221    -3727.256 
11107000     181.1359   -4404.5173   -4094.0565   -4404.5173            0    1083.9642    18.265277    23.231088    21.941068    9310.0836    1591.7007    1129.7479    530.44392   -274.91396     270.4747    430.57014    -3946.878 
11108000    180.20196   -4386.8429   -4077.9829   -4386.8429            0    3462.6627    17.890892    23.450483    21.967405     9216.426    3693.8581     3998.849    2695.2809    177.35237    566.57302    92.868178   -3612.5591 
11109000    190.21566   -4413.9262    -4087.903   -4413.9262            0    3104.3252    17.940028    23.437174    21.903169    9209.4847    2649.8576    3695.0964    2968.0215    591.05821    280.74236   -426.91446   -3670.9584 
11110000    186.75756     -4407.85    -4087.754     -4407.85            0    2504.5118    18.042655    23.315301    21.880323    9204.3941    1357.4518    2492.6268    3663.4569   -51.125803    193.84021   -33.389492   -3751.5567 
11111000    184.39138   -4386.3171   -4070.2766   -4386.3171            0    1003.9589    17.664286    23.566152     22.25431    9264.0072    2514.3832   -81.101788    578.59528    465.74699   -703.44876    853.76563   -3934.6357 
11112000    181.10452   -4388.3436   -4077.9367   -4388.3436            0    2101.6078    18.170697     23.29435    21.825458    9238.1611    1402.7164    967.02304     3935.084    -363.5947    213.51299   -661.20401   -3794.7889 
11113000    180.17399   -4393.7461    -4084.934   -4393.7461            0    2627.9545    17.867095    23.396371    22.067054    9224.5841    3218.0964    2141.5217    2524.2455   -795.24483   -197.55599    563.31003   -3731.3924 
11114000    199.46275   -4394.0968   -4052.2245   -4394.0968            0    2509.4839    18.087708    23.373632    21.833732    9230.7658    2147.1806    3557.7408    1823.5304    -918.8987    148.58947   -107.98487   -3714.3946 
11115000    189.21287   -4382.8989   -4058.5945   -4382.8989            0    3718.9482    17.944528    23.133705    22.076301    9164.3893    5147.9036    3766.5432    2242.3979    657.83194    387.73365    691.08455   -3561.5451 
11116000    176.04214   -4394.8684   -4093.1382   -4394.8684            0    2265.2397    17.976888    23.468308    21.968931    9268.4099    1833.7698    3370.3352    1591.6139    168.00859   -664.22533    25.525448   -3786.9452 
11117000    181.97347   -4416.7847   -4104.8884   -4416.7847            0    1942.6487    18.115145    23.340945    21.921414    9268.9133    1135.9506    2027.6429    2664.3526   -368.76204    259.96389    40.662098   -3842.2859 
11118000    185.93879    -4415.706   -4097.0133    -4415.706            0    1994.9382     17.98777    23.307214    22.078715    9256.3866    2188.4145      1671.63    2124.7701    144.63713   -350.99807   -166.22388   -3827.7068 
11119000    193.97719   -4406.0537   -4073.5835   -4406.0537            0    2292.8566    18.031203    23.460062    21.895574    9262.1156    2108.5583    2135.5348    2634.4768    44.184361   -485.88791    520.27173   -3763.8679 
11120000    185.81549   -4402.9062   -4084.4248   -4402.9062            0    2027.1692    17.886513    23.231064     22.20717     9227.584    2178.5948    2143.6513    1759.2614    227.18103   -249.66827   -294.60217   -3811.6189 
11121000    183.76526   -4404.7103   -4089.7429   -4404.7103            0    2588.9799    18.094443    23.306907    21.876101    9225.7102    1952.3753    3645.7745      2168.79   -270.09118   -95.767232    655.62525   -3741.4021 
11122000    188.31131   -4385.2586   -4062.4995   -4385.2586            0    2440.2184    17.949586    23.325033    22.098575    9252.1139    2841.1245    4560.9057   -81.374965    308.20514   -274.34962    449.40743   -3733.2345 
11123000    177.97104   -4412.0905   -4107.0543   -4412.0905            0    2445.0668    17.913018    23.580662    21.912477    9255.8482    2696.9115    1078.5464    3559.7426    -275.6599    147.18006   -222.15549   -3777.0019 
11124000    194.75927   -4398.1435   -4064.3328   -4398.1435            0    2661.8015    18.052723    23.316367    21.979048    9251.5065    2486.4114    4869.4467    629.54625   -657.66868    520.88665    308.10941   -3705.1926 
11125000    195.28893   -4384.9441   -4050.2256   -4384.9441            0    747.38776    17.976162    23.510432    22.130569    9352.9834    1679.5034      222.887    339.77284    675.65068    81.274642    220.52159   -3948.2791 
11126000    184.79902   -4400.3583   -4083.6191   -4400.3583            0    2335.3232    17.994585    23.518542     21.89021    9264.0771    1865.9352     2577.278    2562.7565    260.57179   -286.62536    17.364559   -3768.1004 
11127000    183.33101   -4387.5064   -4073.2833   -4387.5064            0    1777.5127    18.016708    23.333888    22.062611    9275.1185    1302.7807    2062.5947    1967.1627    1169.5289   -42.919587   -95.020256   -3832.8425 
11128000    182.29289   -4389.3356   -4076.8918   -4389.3356            0    1159.4008    18.062707    23.588479    21.874375    9320.0536   -97.089175    725.83508    2849.4565   -55.517977    3.9286427   -750.07085   -3919.3021 
11129000    189.60071   -4384.8034   -4059.8342   -4384.8034            0    1500.9839    18.040831    23.204567    22.147197    9271.4737    988.53996     1906.534    1607.8777    -191.5428    141.14523    766.81576   -3856.8788 
11130000    181.53813   -4407.5126   -4096.3624   -4407.5126            0    1785.5296    17.927663    23.793358    21.638935    9230.2894    2046.2901    420.61394    2889.6848   -551.75275    867.58759     -424.333   -3856.0046 
11131000    184.01496   -4420.0583    -4104.663   -4420.0583            0    1517.0618     18.02441    23.306559    22.077306    9274.3888    2564.9526    1555.9042    430.32847    585.19552    -193.4674    128.15194   -3899.4691 
11132000     192.0752   -4386.1676   -4056.9573   -4386.1676            0    2870.6454    17.925052    23.468914    21.841434    9188.2874    2340.5374     3351.524    2919.8747   -805.21916   -855.89575    164.79326   -3672.2858 
11133000    184.89617   -4405.8472   -4088.9415   -4405.8472            0    1680.3379    17.872726    23.517561    22.077967    9279.8754    1759.9484    1628.3439    1652.7215   -822.14258    368.03737    51.865206   -3861.5288 
11134000    184.49612   -4414.5587   -4098.3386   -4414.5587            0    2250.2513    18.018934    23.247631    21.940433    9190.7935    1769.9614    2879.8783     2100.914    -159.3113    745.06944    430.41639   -3796.7188 
11135000    179.21125   -4412.1792   -4105.0173   -4412.1792            0    1923.4881    17.929146    23.507055    21.901073    9230.4571    2793.8426    1467.8659    1508.7558   -363.43164   -338.70021   -117.91512   -3846.0836 
11136000     174.0711   -4377.0293   -4078.6774   -4377.0293            0    1691.1697    17.978758    23.421705    22.009416    9268.0144    1778.8959    1268.7817    2025.8314    247.30184    -17.02425    116.95177   -3850.0914 
11137000    183.15123   -4411.0982   -4097.1833   -4411.0982            0    1255.2465    18.075514    23.334284    21.951481     9258.678    1398.1915    1024.0312    1343.5167    492.29029   -697.03273     207.7787   -3927.6895 
11138000    190.06206   -4401.8743   -4076.1144   -4401.8743            0    2175.0475    17.817962    23.495819    22.104771    9254.1095    2233.2771     3750.383    541.48245    46.407704     212.9343      469.809   -3782.5663 
11139000    170.97173   -4409.4124   -4116.3728   -4409.4124            0    2254.7968    18.137937    23.363022    21.849807    9259.0091    1891.4168    1631.2361    3241.7374    151.07913    269.71418    139.17754   -3811.9004 
11140000     185.7404   -4401.3518   -4082.9991   -4401.3518            0    1654.4655    17.876081    23.490715    22.045032    9257.1919    2218.1969    1585.3728    1159.8267    295.51834    700.56003   -159.07471   -3859.6353 
11141000    183.55913   -4417.5914   -4102.9773   -4417.5914            0    1663.1586    18.015293    23.391479    21.968862    9257.7738    1472.3943    1424.8458    2092.2357    837.60269    512.30845   -177.65775   -3878.4258 
11142000    177.87454   -4399.7324   -4094.8615   -4399.7324            0    2459.1599    18.000315    23.467261    21.874598    9240.2261    3173.5514    1719.0067    2484.9216    32.178414    459.17136   -241.58809    -3763.467 
11143000    175.36556   -4394.0171   -4093.4466   -4394.0171            0    2177.3989     17.78855    23.416468    22.223276    9256.9947    2169.7035    2255.8709    2106.6221     641.3065    702.11176    511.85848   -3799.4895 
11144000    179.22959   -4390.2996   -4083.1062   -4390.2996            0     1893.056    18.111464    23.444783    21.823213    9266.5582    1351.6993    2191.2613    2136.2075   -246.23774   -848.37853    316.50145   -3827.2724 
11145000    198.34354    -4403.846   -4063.8919    -4403.846            0    2451.9826     17.91607    23.379489    22.088475    9252.1678    4331.7359    1170.7322    1853.4797   -251.66189   -280.44013   -532.19456   -3733.0376 
11146000    189.48343   -4415.1527   -4090.3846   -4415.1527            0     2034.899    18.097294    23.453075    21.847105    9272.7237    772.62661    713.12858    4618.9417    485.48488    104.47179    139.39126   -3815.1988 
11147000    184.14132   -4416.7354   -4101.1235   -4416.7354            0    2213.6071    17.957445    23.359616    22.055537    9251.8354    1466.2433    2717.9031    2456.6748    602.29004   -594.58358   -166.60826   -3802.4447 
11148000    175.58118   -4407.8839   -4106.9437   -4407.8839            0    1891.7237    17.979539    23.359355    22.044467    9258.4655    2288.2928    1759.3281    1627.5502   -1371.7176   -245.05105   -25.407112   -3851.5133 
11149000    182.76094   -4366.6175   -4053.3715   -4366.6175            0    2257.3818    18.096211    23.380699    21.917831    9273.4798    2349.2257    2026.3323    2396.5875   -683.17669   -104.76271   -486.13197   -3748.0737 
11150000    189.75641   -4410.6173   -4085.3813   -4410.6173            0    1774.5587     17.93084      23.4054    22.110651    9279.3648    1535.7444    1235.6176    2552.3141   -674.99865    541.82905    1026.9232   -3845.2303 
11151000    188.92953   -4383.0808    -4059.262   -4383.0808            0    3506.6106    17.988702     23.34414      21.8439    9172.9256    2518.4941    2597.1885    5404.1492    213.77245   -443.59238    929.90668   -3590.1557 
11152000    170.41463   -4393.4686   -4101.3838   -4393.4686            0    1620.5091    17.921223    23.179285    22.255475      9244.95    1815.9019    1650.4996    1395.1258    86.317992   -326.58507    69.945813   -3882.8936 
11153000    191.40333   -4402.6645   -4074.6058   -4402.6645            0    2119.0555    18.061467    23.498329    21.797332    9251.0991    2153.9191    1814.7382    2388.5091  -0.59135496    14.470433    290.52618   -3788.7075 
11154000    181.21489   -4408.4596   -4097.8635   -4408.4596            0    958.94105    17.921249     23.36411    22.156932    9277.4186    2330.0966    22.925896    523.80064   -413.82394   -1027.6043    87.434963   -3968.1172 
11155000    183.60872   -4398.3557   -4083.6566   -4398.3557            0    2106.4765    18.200526    23.331354    21.715441    9221.3083    2193.5871    755.81917    3370.0233    377.90021    762.40032   -214.60871   -3800.3707 
11156000    174.47075   -4417.5775   -4118.5406   -4417.5775            0    1142.0638    18.016793    23.349233    22.056164    9278.5496    504.04234      2260.09    662.05911   -420.40595    843.38553     270.3133   -3963.9987 
11157000    191.56061   -4417.0711   -4088.7427   -4417.0711            0     2527.654    17.854856     23.40539    21.975787    9183.6785    3164.9832    2056.8921    2361.0868    374.78719   -232.41687    456.52574   -3750.2026 
11158000    178.18559   -4398.3637   -4092.9597   -4398.3637            0    2142.4197    17.948993    23.417901    21.934626    9219.7321    2597.3187    2348.1685    1481.7718    969.06346    7.5990338   -426.76808   -3804.8892 
11159000     186.5298   -4404.7594   -4085.0537   -4404.7594            0    1210.4774    18.188446    23.260965    22.062056    9334.0325    1302.1056     1219.156    1110.1705     65.47493   -70.680152    71.239866   -3920.2747 
11160000    197.60407   -4395.4006    -4056.714   -4395.4006            0     1806.914    17.918297    23.492855    21.972059    9249.1816    1975.4028    2228.1592      1217.18    232.24418    52.243822    133.48244   -3812.9797 
11161000    173.69781   -4403.6475   -4105.9354   -4403.6475            0    2778.7397    18.015446    23.336992    21.917345    9214.6291    1839.1914    2421.1392    4075.8884    808.30274    224.56892   -342.18592   -3732.5119 
11162000    188.89699   -4409.4441   -4085.6812   -4409.4441            0    3377.9403    17.751296     23.47659    22.003269    9169.6398    4983.8338    1544.0922    3605.8948    193.92306   -410.68661    318.65493   -3633.9499 
11163000    182.49948   -4388.8276   -4076.0298   -4388.8276            0    1469.2429    18.134372    23.308714    21.977925    9289.8249    1437.9938    1745.1388     1224.596    491.84328    -336.6443   -347.14242    -3876.973 
11164000    193.01507   -4420.9243    -4090.103   -4420.9243            0    1475.6797    18.081868    23.346022    21.950978    9266.3789    482.85924    3022.6849      921.495    1062.1615   -888.58785    -83.80396   -3890.6788 
11165000    190.64369   -4409.5827   -4082.8259   -4409.5827            0    2788.9223    17.747044    23.679888    21.914527    9209.5363    3480.6122    1625.6824    3260.4724   -58.115323    620.54159   -9.5702488   -3708.2412 
11166000    181.50073   -4378.7395   -4067.6534   -4378.7395            0    2410.8053    18.077746     23.17914    21.990293     9214.518     3191.479    676.84892     3364.088   -1079.3435   -332.86755     450.9702   -3743.6791 
11167000    182.58635   -4410.2818    -4097.335   -4410.2818            0    2220.2195    17.974022    23.249759    22.030823    9206.4976     2088.215    3732.7838    839.65979    1048.2575   -104.18184    413.37855   -3799.2321 
11168000    188.04324   -4375.8539   -4053.5542   -4375.8539            0    1854.5297    17.837686    23.560026    21.902947    9204.8524    2243.6644    1193.4289    2126.4959    -363.4711   -202.72674   -264.52629    -3804.596 
11169000    192.34836   -4387.9128   -4058.2343   -4387.9128            0    2117.9344    18.073473    23.176123    22.041667    9232.6601    1170.7063    3241.8275    1941.2694    216.30425   -111.42586    230.48572   -3773.0568 
11170000    185.94664   -4397.3591   -4078.6529   -4397.3591            0    2998.9329    18.012264    23.406757    21.805289    9193.2988    3833.9592    3576.0836    1586.7558   -338.47671   -78.132822   -681.43456   -3676.5715 
11171000    183.87695   -4400.0387   -4084.8799   -4400.0387            0    1768.6796    17.762931    23.612585    22.111136    9274.0455    2994.8077    663.92997    1647.3012   -885.30356   -87.341881   -23.116456   -3845.6617 
11172000    182.96341   -4402.5742   -4088.9812   -4402.5742            0    2544.2594    18.046632    23.325238    21.880069    9210.2395    4161.6037    1606.5331    1864.6413   -570.25034   -200.16778    346.71808   -3747.2314 
11173000    182.61121   -4399.1753   -4086.1859   -4399.1753            0    2142.1551    17.792482    23.496815    22.067616     9225.735    3888.8746    2318.7751    218.81559    194.54766    796.43039    462.50529   -3797.9635 
11174000    182.11526    -4409.217   -4097.0776    -4409.217            0    1469.0126    18.066323    23.393377    21.917437    9263.0168    1392.5864    706.98409    2307.4672    81.069705   -10.713644    271.48035   -3898.6264 
11175000    190.16588   -4395.9332   -4069.9954   -4395.9332            0    838.00441    18.032396    23.274229    22.105647    9277.5213     278.3531   -176.70944    2412.3696    208.31561   -241.12571    94.894322   -3956.6108 
11176000    175.85273   -4392.6032   -4091.1976   -4392.6032            0    1261.9907    17.928347    23.460001    22.003736    9254.7503    1425.3168    951.79351    1408.8619   -1031.4348    23.600083   -224.33059   -3920.8654 
11177000    185.22137    -4372.838    -4055.375    -4372.838            0    3099.1378    18.016565    23.164254    22.037155    9196.9927    1826.9503    6053.6186    1416.8444   -260.14686   -229.43625    234.35994   -3639.6916 
11178000    193.81285   -4402.9868   -4070.7982   -4402.9868            0    1532.8311    18.057164    23.265923    22.119241    9292.6602    1132.8779    2631.8236    833.79174    -302.7537   -754.25266   -241.83954    -3863.063 
11179000    177.31548   -4381.5855   -4077.6728   -4381.5855            0    1825.3806    17.974574    23.663554    21.772023    9260.5624    3086.8936    -141.0689    2530.3172     815.4704   -202.19665   -570.18285   -3831.1445 
11180000    180.20452   -4398.0311   -4089.1667   -4398.0311            0    2286.1111    18.012824    23.283002    22.060572     9252.041    1495.5559    3468.3995    1894.3779    819.75464    290.95765   -716.35577   -3780.6982 
11181000    188.77611   -4402.0421   -4078.4863   -4402.0421            0    1735.2486    18.033074    23.501119    21.892102    9277.8162    1058.9537    3160.7505    986.04151    1209.2213    505.38254   -428.83864   -3843.6943 
11182000    186.22704   -4375.1296   -4055.9428   -4375.1296            0      2818.01     17.94983    23.300076    22.065758    9228.6147    2341.7802     2053.938    4058.3117    117.88868   -307.67113    160.67222   -3676.6672 
11183000    178.70019   -4397.0402   -4090.7542   -4397.0402            0    1910.0149    18.222389    23.227011    21.817553    9234.3153    490.40388    3293.9068    1945.7339   -181.15386   -9.4156665   -35.506648   -3833.5267 
11184000    182.77517   -4408.9262   -4095.6559   -4408.9262            0    2470.9726    17.865934    23.466708    21.898329    9180.9768     3187.663    1977.3363    2247.9185   -218.69026   -166.73128    137.84528   -3764.8047 
11185000    182.57274   -4380.0192   -4067.0958   -4380.0192            0    2010.1586    18.023648    23.176306    22.145508    9250.6566    2030.0483    1902.0415    2098.3859    202.14065   -405.12509   -39.214447   -3795.9026 
11186000    189.12033   -4390.4044   -4066.2587   -4390.4044            0    1403.3849    18.080527    23.535011    21.877603    9309.4763    423.72169    831.50913    2954.9239    53.498946    -400.9114   -397.20021   -3875.7223 
11187000    182.53813   -4402.2223   -4089.3582   -4402.2223            0    1428.4635    17.851247    23.220966    22.404634    9287.2411    1012.5247    3075.8261    197.03969   -640.38404    436.02715    581.49402   -3895.8801 
11188000    199.34399   -4395.3368    -4053.668   -4395.3368            0    2629.0117    17.965811    23.479146    21.835681    9210.7685    2305.6598    1947.8317    3633.5437    214.35087   -159.52044   -270.23573   -3700.5139 
11189000    182.45925   -4416.1179    -4103.389   -4416.1179            0    1136.7544    17.849331    23.343747    22.297519    9290.7132    3216.0046     261.4603    -67.20171     -42.2461   -841.96351   -338.41664   -3949.3639 
11190000    189.84117    -4375.282   -4049.9007    -4375.282            0    1213.2457    18.204561     23.25734     21.91871    9280.1551    664.07727    1124.2384    1851.4214    602.32726   -360.00242    834.78231   -3885.6982 
11191000    182.06201   -4385.1448   -4073.0968   -4385.1448            0    2710.5082    17.919346    23.403704    21.951443    9205.9757    2435.3732    2388.4361    3307.7154   -467.75839   -783.78674   -148.35888   -3709.1847 
11192000    185.24908   -4393.0509   -4075.5403   -4393.0509            0    2266.8138    17.901651    23.413678    22.107545    9266.2336     3088.811    2477.3886     1234.242    821.49158   -243.11371    236.89229   -3769.2064 
11193000    185.39183   -4390.4565   -4072.7012   -4390.4565            0    1405.1977    18.148868    23.196736    21.995273     9259.889    1119.3411    2904.0503    192.20155   -911.73361    364.81594    376.42852   -3882.9349 
11194000    187.48213    -4379.054   -4057.7161    -4379.054            0     1443.719    17.852354     23.53712    22.081176    9278.3559     1144.387    1834.9248    1351.8453   -511.68685   -677.56302    259.47656   -3862.3588 
11195000    185.49842   -4400.9831   -4083.0452   -4400.9831            0    2242.6371    18.051794    23.422233    21.912978    9265.0989    1855.4036    2521.3263    2351.1812    595.34659    -15.76879   -23.070171   -3780.0156 
11196000    184.82971    -4393.773   -4076.9812    -4393.773            0    2374.8372       18.047    23.181809    22.055194    9227.0575     2718.967    2594.5273    1811.0174   -219.94022   -404.53393     124.4112   -3757.4061 
11197000    177.55076   -4378.1415   -4073.8256   -4378.1415            0    2765.5842    17.819116    23.603951    21.882763    9203.9238    4754.9064    1969.2045    1572.6417    327.12765    589.43069    448.29551   -3702.6018 
11198000    182.28462   -4386.0825   -4073.6529   -4386.0825            0    1870.9016    17.997745     23.17641    22.141814    9235.8624    1017.4446    3267.7331    1327.5272   -738.44532    129.38434    646.81158   -3821.6507 
11199000    193.24973   -4395.8974    -4064.674   -4395.8974            0    1672.4062    18.080087    23.413926    21.875385    9260.4152    2139.1595    990.81314    1887.2459   -791.86501    157.27003    1121.8206   -3838.8094 
11200000    182.76874   -4393.7917   -4080.5323   -4393.7917            0    2445.3087    17.845193    23.441522    22.033886    9217.1817    3334.3347    2157.8281    1843.7632    162.31733   -143.85865    121.51702   -3751.8262 
11201000    183.71474     -4395.42   -4080.5392     -4395.42            0    792.47851    18.158133    23.274488     21.99434    9295.2758    -110.5269     933.3248    1554.6376   -352.65254    592.92532    117.15698   -3973.1092 
11202000    187.59863   -4396.8158   -4075.2782   -4396.8158            0    1737.3428    17.922126    23.459289     22.01037    9254.0475    2340.2293    291.24485    2580.5542   -823.79368   -923.91412    163.39166    -3840.805 
11203000     180.7718   -4406.0398   -4096.2031   -4406.0398            0    1942.7529    17.951795    23.393917    22.067485    9267.5228    1846.3496    1718.5449     2263.364   -514.03339    559.84621    133.62321   -3833.6258 
11204000    187.41527   -4415.6015   -4094.3782   -4415.6015            0     2466.207     18.10779    23.236518    21.951898    9236.5248    2989.0657    1858.9051    2550.6502   -501.00963    229.02944    79.239428   -3762.1672 
11205000     177.2906   -4403.4392   -4099.5692   -4403.4392            0    1511.9973    17.742837    23.596981    22.093092    9249.8782    3346.2793    1634.7699   -445.05726   -528.90884   -74.514552    256.18024   -3895.6008 
11206000    181.33046   -4406.3991   -4095.6049   -4406.3991            0    1838.5182    18.153798    23.263668    21.917198    9256.1572    1033.0615    3107.5257    1374.9673   -27.059014    -792.2002   -120.50401   -3847.4205 
11207000    183.13728   -4399.5668   -4085.6758   -4399.5668            0    1935.1375    17.806549    23.389577    22.203822    9247.6175    2461.5247     1616.407    1727.4808   -865.74976   -852.49296    671.48453   -3824.6896 
11208000    183.91863    -4380.428   -4065.1978    -4380.428            0    2981.4211    17.956459    23.445444    21.836597    9193.1453    3256.2012    3014.2808    2673.7814    89.647036   -1166.0071    205.54395   -3665.4709 
11209000    186.32233   -4395.7485   -4076.3984   -4395.7485            0    1701.1869    17.961327    23.292142    22.070745     9233.468     1960.771    2208.1161    934.67359   -177.91062     249.1456    642.98242   -3847.3155 
11210000    196.02727   -4395.8503   -4059.8662   -4395.8503            0    2617.3818    17.901173     23.58663    21.802048    9205.4427    2731.3592    1539.9426    3580.8437   -283.51217    18.809978    275.28114   -3708.4777 
11211000    186.64254   -4409.4499    -4089.551   -4409.4499            0    1703.2755    18.065691    23.278149     22.03431    9266.2175    2147.3925    1602.0576    1360.3763    503.76567    626.80263   -448.50502   -3859.3732 
11212000     185.5978   -4392.3405   -4074.2322   -4392.3405            0    2729.7821    17.935612     23.29122     22.05159    9211.8816    3227.9608    2868.3105    2093.0751   -227.62937    -74.42889    544.97387   -3707.4973 
11213000    182.20595    -4377.799   -4065.5042    -4377.799            0    1658.1785    17.983223    23.530266    21.865596    9252.4275    646.75562    718.99703    3608.7829   -458.25767    102.04558    189.49679   -3841.7543 
11214000    181.68886   -4397.4344   -4086.0259   -4397.4344            0    2307.7639    17.958979    23.273408    21.947014    9173.1197    2681.6701    2715.6179    1526.0039   -394.22456    377.40707    21.141291    -3777.292 
11215000    174.39971   -4417.0415   -4118.1263   -4417.0415            0     2632.549    17.952822    23.401273    21.847984    9178.7507    1834.2659     3132.984    2930.3969   -2.1371256    360.99488   -147.13139   -3765.7263 
11216000    180.97506   -4401.7608   -4091.5757   -4401.7608            0    1918.9892    17.972835    23.166695    22.160865     9227.146    2725.9866     1650.597    1380.3839    241.52817    545.50997    48.974215   -3833.3403 
11217000    175.29098   -4403.3967   -4102.9539   -4403.3967            0    2672.4447    18.156047    23.313572    21.773111    9216.1729    2438.4209     2372.202    3206.7112   -319.49491    213.85889   -44.169594   -3743.7548 
11218000    187.63462   -4399.5843    -4077.985   -4399.5843            0    950.04947    17.929922    23.531157    22.062267    9308.3306    2630.3107    471.74757   -251.90988   -823.61643   -313.20137   -629.74739   -3949.0134 
11219000    181.85415   -4383.3706   -4071.6788   -4383.3706            0    3044.2128    18.132066    23.164316    21.948108    9218.5765    2750.7999    3500.2274    2881.6112   -258.44171    372.16411   -409.96372   -3662.4042 
11220000    182.36771   -4413.8037   -4101.2317   -4413.8037            0    2845.8286    17.934923    23.360459     22.04687    9236.9341    3598.9694    2706.0303    2232.4861    -681.8267   -454.67167    623.68139   -3717.8666 
11221000    179.48259    -4384.766    -4077.139    -4384.766            0    3372.8557    17.869855    23.432392    21.906097    9172.8156    3553.7657    4131.4626    2433.3387   -362.14081    397.63439   -239.86967   -3625.9315 
11222000    179.66563   -4402.4044   -4094.4637   -4402.4044            0    1660.3645    18.301995    23.189453    21.845957    9271.7134      795.154    1875.7702    2310.1692   -133.71595   -210.60418   -24.470783   -3869.9518 
11223000    178.06468   -4393.6565   -4088.4597   -4393.6565            0    1451.8288    17.905137    23.543457    22.037882    9290.0432    2008.9179     1764.557    582.01143    194.72508   -130.91616    1.1605046   -3891.7576 
11224000    188.59492   -4406.2281   -4082.9829   -4406.2281            0     1125.766    18.019882    23.394336    22.090343     9312.475    1306.0849    284.33467    1786.8786    255.72698     136.2282    22.775535   -3930.0893 
11225000    177.36789   -4393.0057   -4089.0032   -4393.0057            0    1844.5625     18.09571    23.164453    22.042112    9239.5513    1276.1022    2122.7559    2134.8294    146.20325    394.84597   -407.25658   -3840.4496 
11226000    188.95203   -4403.6429   -4079.7856   -4403.6429            0    2381.8919    17.842488    23.522393    21.953584    9213.8757    2699.5332    1265.3167    3180.8258   -84.726992   -203.54011     1348.878    -3759.719 
11227000    187.35958   -4354.6881   -4033.5602   -4354.6881            0    1180.1889    18.283288    23.116812    22.018283    9306.0563   -1463.4521    2033.9799    2970.0387    1047.1285   -1177.6735   -250.17292   -3873.3858 
11228000    191.39194   -4388.0749   -4060.0357   -4388.0749            0    1091.0944    18.090448    23.459375    22.015946    9343.3606    895.27599    1097.9245    1280.0827   -495.14211    291.64538   -43.484774   -3911.3596 
11229000    198.61456   -4412.2691   -4071.8505   -4412.2691            0    2503.5127    17.813862     23.47886    22.093237     9240.478     3571.193    2760.4482     1178.897   -655.77606   0.93868323    456.26036   -3734.4699 
11230000    192.53875   -4385.7685   -4055.7637   -4385.7685            0    1781.3633    18.086374    23.371417    21.932396    9270.9156     1527.938    1981.2553    1834.8965    520.54049    1382.1997    439.46775   -3814.9112 
11231000    191.83892   -4392.9354   -4064.1301   -4392.9354            0     2275.218    18.095024    23.169912    22.154898     9288.665    1894.6237     2959.558    1971.4723   -1338.7846    950.77553     320.6923   -3755.9162 
11232000    179.78459   -4384.8761   -4076.7314   -4384.8761            0    2201.7102    17.867462    23.544097    21.920051    9221.1792    3109.0593    974.78515    2521.2863    641.43863    108.85633   -311.72803   -3780.6423 
11233000    186.20469   -4415.1012   -4095.9528   -4415.1012            0    2076.9589    18.091001    23.242359    21.980959    9242.4991    1219.1028    3252.1708    1759.6031    430.33056   -224.16202   -131.30711   -3815.9945 
11234000    194.97874   -4398.4723   -4064.2854   -4398.4723            0    2158.7392    17.972649     23.54152    21.848173    9244.0382    2875.0711    1797.4461    1803.7003    1277.6103   -310.81273     844.1932   -3773.2554 
11235000    183.62241   -4407.4573   -4092.7348   -4407.4573            0    1291.2965    17.869564     23.28455    22.244304    9255.5156    785.90751    1224.2265    1863.7555    -460.5507   -445.84897   -568.44859   -3918.4327 
11236000     192.0033   -4420.0391    -4090.952   -4420.0391            0     2212.949    17.999708    23.387326    21.948325    9239.4779     2544.144    2033.8563    2060.8467   -1203.8458   -136.51336    127.00047   -3792.7608 
11237000    185.69383   -4401.9785   -4083.7057   -4401.9785            0    920.30547    18.048541    23.440812    22.030961    9320.6932    1174.6223    1089.3694    496.92473    344.53552   -57.817141   -372.05153    -3958.606 
11238000    182.09991    -4384.172    -4072.059    -4384.172            0    734.82405    18.071274     23.28103    22.127477    9309.4249    955.55018     900.5083    348.41368   -89.847943    242.26719    181.52774   -3972.2931 
11239000    180.53022   -4387.6895   -4078.2669   -4387.6895            0    1556.7558    18.091206    23.473875     21.84204    9275.6747    2490.3499    820.24925    1359.6684   -1063.8152    5.3966469    141.34991   -3867.6749 
11240000    185.34866   -4395.8921   -4078.2108   -4395.8921            0    1760.3411    17.906612    23.303129    22.168906    9250.6429    2662.0582    1430.8127    1188.1524    183.61081    164.30462    311.39636   -3840.7212 
11241000    175.61134   -4399.7713   -4098.7795   -4399.7713            0    840.31063    18.042134     23.38281    22.048995    9301.9373    918.22621    1560.8238    41.881923   -987.65954   -235.79682    344.68894   -3984.7836 
11242000    186.05748   -4399.8778   -4080.9816   -4399.8778            0    1806.5301    18.101915     23.24828    21.987715    9253.2748    1251.4599    2135.8179    2032.3125   -587.76621   -57.722891   -266.86266   -3837.1912 
11243000    197.23025   -4397.3187   -4059.2729   -4397.3187            0    2744.6617    17.874399    23.505983    21.868152    9188.0203    2878.5384    3037.1547    2318.2921   -1550.3979    970.54412    85.089229   -3691.4941 
11244000    190.57817   -4399.2457   -4072.6012   -4399.2457            0    1116.0821     17.99196    23.474122    21.938339    9265.5582    1181.8037    584.80924    1581.6333   -358.14844   -66.922831    312.73517   -3921.7866 
11245000    189.75955   -4381.0832   -4055.8418   -4381.0832            0    1796.1826    18.014273    23.207565    22.135692    9254.2113    1766.3535    1184.3797    2437.8145    7.2718654    -371.8857   -336.39007   -3813.4233 
11246000     190.6794   -4408.8047   -4081.9867   -4408.8047            0    713.40774    18.028037    23.447844    21.972302    9288.1004    478.65809     585.8811     1075.684    595.99895   -319.54264    2.4210982   -3985.3504 
11247000    182.34522   -4395.6187   -4083.0852   -4395.6187            0    1825.5476    17.868264    23.482155     22.08815    9267.8639    2422.5711    1049.2314    2004.8402    223.27409    282.88727     538.1562     -3836.34 
11248000     194.6461   -4388.5922   -4054.9755   -4388.5922            0    2140.2365    18.227168    23.204708    21.770004    9207.7561    1090.3057    2775.8743    2554.5295    1050.5347    294.65785    118.71425   -3767.5724 
11249000    176.74122   -4400.5753   -4097.6469   -4400.5753            0    2124.4635    17.916353    23.344818     22.05447    9224.3705    1666.0296    2641.1739    2066.1869   -418.00388   -388.41536   -70.277135   -3811.8471 
11250000    186.12642   -4368.7301   -4049.7158   -4368.7301            0    1244.1428    17.945356     23.62482    21.898637     9284.054     988.3902    2262.9717    481.06635   -335.89996   -119.23006    416.15987   -3881.2609 
Loop time of 357.938 on 64 procs for 250000 steps with 864 atoms

Performance: 120.691 ns/day, 0.199 hours/ns, 698.445 timesteps/s
195.4% CPU use with 32 MPI tasks x 2 OpenMP threads

MPI task timing breakdown:
Section |  min time  |  avg time  |  max time  |%varavg| %total
---------------------------------------------------------------
Pair    | 17.7       | 24.8       | 33.974     | 103.1 |  6.93
Bond    | 0.89279    | 1.008      | 1.2003     |   7.2 |  0.28
Kspace  | 181.74     | 190.47     | 198.11     |  37.4 | 53.21
Neigh   | 1.033      | 1.1162     | 1.1993     |   3.7 |  0.31
Comm    | 53.501     | 56.943     | 60.547     |  19.2 | 15.91
Output  | 0.66648    | 0.6668     | 0.66831    |   0.0 |  0.19
Modify  | 65.105     | 66.957     | 70.751     |  17.5 | 18.71
Other   |            | 15.98      |            |       |  4.46

Nlocal:        27.0000 ave          39 max          17 min
Histogram: 5 3 4 4 0 5 3 3 3 2
Nghost:        2119.78 ave        2213 max        2025 min
Histogram: 10 6 0 0 0 0 0 0 6 10
Neighs:        6551.72 ave        9250 max        4142 min
Histogram: 5 2 6 2 1 3 3 4 4 2

Total # of neighbors = 209655
Ave neighs/atom = 242.65625
Ave special neighs/atom = 2.0000000
Neighbor list builds = 3943
Dangerous builds = 0

unfix		3
unfix		2
unfix		1

write_data	data.final.${pid} nocoeff
write_data	data.final.1 nocoeff
System init for write_data ...
PPPM initialization ...
  extracting TIP4P info from pair style
  using 12-bit tables for long-range coulomb (../kspace.cpp:340)
  G vector (1/distance) = 0.37166797
  grid = 24 27 25
  stencil order = 5
  estimated absolute RMS force accuracy = 0.00316298
  estimated relative force accuracy = 9.5252202e-06
  using double precision FFTW3
  3d grid and FFT values/proc = 4410 672
Last active /omp style is kspace_style pppm/tip4p/omp

write_restart   restart.lmp.${pid}
write_restart   restart.lmp.1
System init for write_restart ...
PPPM initialization ...
  extracting TIP4P info from pair style
  using 12-bit tables for long-range coulomb (../kspace.cpp:340)
  G vector (1/distance) = 0.37166797
  grid = 24 27 25
  stencil order = 5
  estimated absolute RMS force accuracy = 0.00316298
  estimated relative force accuracy = 9.5252202e-06
  using double precision FFTW3
  3d grid and FFT values/proc = 4410 672
Last active /omp style is kspace_style pppm/tip4p/omp
Total wall time: 0:05:58
