#include		in.partitions
include		in.temp
variable        temperature equal 132.72
variable	tempDamp equal 100.0
include		in.pressure
variable        pressure equal 1937.5
variable        pressureDamp equal 1000.0 # This is 1 ps
include		in.seed
variable        seed equal 745823

units		real
atom_style	full
#include		in.box
read_restart	restart.lmp.${pid}
read_restart	restart.lmp.0
Reading restart file ...
  restart file = 30 Jul 2021, LAMMPS = 30 Jul 2021
  restoring atom style full from restart
  orthogonal box = (0.10197650 0.096828886 0.16463184) to (18.105596 23.532349 22.048564)
  2 by 4 by 4 MPI processor grid
  restoring pair style lj/cut/tip4p/long/omp from restart
  restoring bond style harmonic/omp from restart
  restoring angle style harmonic/omp from restart
  864 atoms
  576 bonds
  288 angles
Finding 1-2 1-3 1-4 neighbors ...
  special bond factors lj:    0        0        0       
  special bond factors coul:  0        0        0       
     2 = max # of 1-2 neighbors
     1 = max # of 1-3 neighbors
     1 = max # of 1-4 neighbors
     2 = max # of special neighbors
  special bonds CPU = 0.002 seconds
  read_restart CPU = 0.007 seconds
include 	in.setup
variable	out_freq equal 1000
variable	out_freq2 equal 10000
variable	out_freq3 equal 1000

timestep	2.0

neigh_modify    delay 7 every 1

include		in.tip4p
# This is TIP4P/Ice

# create groups ###
group ox type 2
288 atoms in group ox
group hy type 1
576 atoms in group hy

# set charges - beside manually ###
set group ox charge -1.1794
Setting atom values ...
  288 settings made for charge
set group hy charge 0.5897
Setting atom values ...
  576 settings made for charge

# ### TIP3P Potential Parameters ###
pair_style lj/cut/tip4p/long/omp 2 1 1 1 0.1577 8.5
pair_coeff 1 1*2 0.000 0.000
pair_coeff 2 2 0.21084 3.1668
bond_style  harmonic
bond_coeff  1 450 0.9572
angle_style harmonic
angle_coeff 1 55 104.52
kspace_style pppm/tip4p/omp 1.0e-5
pair_modify tail yes

thermo          ${out_freq}
thermo          1000
thermo_style    custom step temp pe etotal epair emol press lx ly lz vol pxx pyy pzz pxy pxz pyz enthalpy

restart 	${out_freq3} restart.lmp.${pid} restart2.lmp.${pid}
restart 	1000 restart.lmp.${pid} restart2.lmp.${pid}
restart 	1000 restart.lmp.0 restart2.lmp.${pid}
restart 	1000 restart.lmp.0 restart2.lmp.0


include         in.dump
dump            myDump all atom ${out_freq2} dump.water.${pid}
dump            myDump all atom 10000 dump.water.${pid}
dump            myDump all atom 10000 dump.water.0
dump            myDump2 all dcd ${out_freq2} dump.dcd
dump            myDump2 all dcd 10000 dump.dcd
dump_modify     myDump append yes
dump_modify     myDump2 append yes


variable natoms 	equal  "count(all)"                        # NUMBER ATOMS
variable H      	equal  "enthalpy/v_natoms"                 # ENTHALPY-per-atom
variable Vol      	equal  "vol/v_natoms"                 # volume-per-atom
fix AVG all 		ave/time ${out_freq} 1 ${out_freq} v_Vol v_H file vol_enthalpy.dat
fix AVG all 		ave/time 1000 1 ${out_freq} v_Vol v_H file vol_enthalpy.dat
fix AVG all 		ave/time 1000 1 1000 v_Vol v_H file vol_enthalpy.dat


timer           timeout 23:50:00 every 1000
New timer settings: style=normal  mode=nosync  timeout=23:50:00

fix 		1 all shake 1e-6 200 0 b 1 a 1
       0 = # of size 2 clusters
       0 = # of size 3 clusters
       0 = # of size 4 clusters
     288 = # of frozen angles
  find clusters CPU = 0.000 seconds
fix             2 all nph aniso ${pressure} ${pressure} ${pressureDamp}
fix             2 all nph aniso 1937.5 ${pressure} ${pressureDamp}
fix             2 all nph aniso 1937.5 1937.5 ${pressureDamp}
fix             2 all nph aniso 1937.5 1937.5 1000
fix             3 all temp/csvr ${temperature} ${temperature} ${tempDamp} ${seed}
fix             3 all temp/csvr 132.72 ${temperature} ${tempDamp} ${seed}
fix             3 all temp/csvr 132.72 132.72 ${tempDamp} ${seed}
fix             3 all temp/csvr 132.72 132.72 100 ${seed}
fix             3 all temp/csvr 132.72 132.72 100 745823


run             250000
PPPM initialization ...
  extracting TIP4P info from pair style
  using 12-bit tables for long-range coulomb (../kspace.cpp:340)
  G vector (1/distance) = 0.37188545
  grid = 24 27 25
  stencil order = 5
  estimated absolute RMS force accuracy = 0.0031346478
  estimated relative force accuracy = 9.4398987e-06
  using double precision FFTW3
  3d grid and FFT values/proc = 4410 672
Last active /omp style is kspace_style pppm/tip4p/omp
Neighbor list info ...
  update every 1 steps, delay 7 steps, check yes
  max neighbors/atom: 2000, page size: 100000
  master list distance cutoff = 10.8154
  ghost atom cutoff = 10.8154
  binsize = 5.4077, bins = 4 5 5
  1 neighbor lists, perpetual/occasional/extra = 1 0 0
  (1) pair lj/cut/tip4p/long/omp, perpetual
      attributes: half, newton on, omp
      pair build: half/bin/newton/omp
      stencil: half/bin/3d
      bin: standard
Per MPI rank memory allocation (min/avg/max) = 10.19 | 10.22 | 10.23 Mbytes
Step Temp PotEng TotEng E_pair E_mol Press Lx Ly Lz Volume Pxx Pyy Pzz Pxy Pxz Pyz Enthalpy 
24250000    136.23655    -4486.661   -4253.1562    -4486.661            0    1149.6298    18.003619     23.43552    21.883932    9233.3602    1904.9539     617.9174     926.0182    998.19692    129.67522   -213.13457   -4098.3481 
24251000    129.09158   -4491.5765    -4270.318   -4491.5765            0    1618.1481    18.144471    23.403865    21.705777    9217.3742    548.13293    2066.6227    2239.6886    133.05999    -152.3016    225.56287   -4052.7969 
24252000    130.65508   -4498.4476   -4274.5093   -4498.4476            0    449.45431    18.017457    23.471414    21.940539    9278.5488    1342.2254   -489.97068    496.10819   -130.94276    -38.55627   -266.47181     -4213.69 
24253000    135.24284    -4503.081   -4271.2794    -4503.081            0    2675.5512    17.941502     23.28433    21.954177    9171.4858    2267.9468    2707.1654    3051.5413    729.92895     277.9462   -353.89006   -3913.4065 
24254000    120.95753   -4497.6519   -4290.3348   -4497.6519            0    1497.1569    17.868754    23.556203    21.835133    9190.8437    1479.3661     1708.256    1303.8487   -299.48045   -288.92712   -562.83548   -4089.6574 
24255000    137.09349   -4501.5122   -4266.5387   -4501.5122            0    1854.5422    18.055192    23.257977    21.902444    9197.4328    2189.4592    1676.7364    1697.4311    -276.4568    723.36602   -124.49435   -4017.7794 
24256000    137.39671   -4498.7774   -4263.2842   -4498.7774            0    1472.3253    17.827451    23.398497    22.089497    9214.3148    2031.0714    914.82553    1471.0789   -354.07239   -919.08767   -15.984129   -4065.4311 
24257000    133.33903    -4497.445   -4268.9065    -4497.445            0    1346.2285    17.821334    23.404257    22.112614    9223.0629    1620.6914    261.08801     2156.906   -195.57311   -667.97262    498.81564   -4087.8268 
24258000    136.62433   -4496.1343   -4261.9649   -4496.1343            0    2316.4144    18.038781    23.101667    22.045511    9186.9356    1607.4245    2904.4902    2437.3285   -347.49159    602.54736    22.605754    -3951.607 
24259000    137.94909   -4491.2789   -4254.8389   -4491.2789            0    2020.2837    17.847639    23.464016    21.999787    9213.0109    2966.6477    2516.3325    577.87101   -505.54464   -247.34551   -242.48403   -3983.3889 
24260000     134.7023   -4496.6022    -4265.727   -4496.6022            0    1769.5201    17.959332    23.376279    21.964647    9221.2501    2679.0683    835.58225    1793.9098    159.70457    85.706715    24.886197   -4027.7576 
24261000    136.42506   -4502.0883   -4268.2604   -4502.0883            0    1410.9911    18.105697     23.38829    21.723533    9199.0755    1454.4189     1968.688    809.86632      466.108    403.22285    122.28908   -4078.9631 
24262000    139.91233   -4486.0315   -4246.2265   -4486.0315            0    1004.2197     17.98028    23.422529    21.961215    9248.8261    30.072629     1307.606    1674.9805   -581.41025    652.92976   -432.54109   -4110.7727 
24263000    132.78598   -4485.9738   -4258.3832   -4485.9738            0    1278.2367    17.917377    23.379102    22.090446    9253.5152    1420.9487    917.97767    1495.7837   -204.68218    291.44232   -106.48582   -4085.8813 
24264000    128.90999    -4504.504   -4283.5567    -4504.504            0    1134.6129    17.890076    23.275748    22.202863    9245.3809    1033.9195    1388.1229    981.79621   -410.11261    1036.8085    495.35713   -4130.5719 
24265000    137.92667   -4506.4605   -4270.0589   -4506.4605            0    1306.9275    17.970168    23.333001    21.998984    9224.1286    202.31678    1619.6311    2098.8348   -550.94066   -484.88534    302.16636   -4094.2452 
24266000    140.17132   -4512.7702   -4272.5213   -4512.7702            0    1844.2794    18.027826    23.380805    21.851515    9210.5245    1887.3651    1638.9169    2006.5561    292.10865    625.78862    599.48441   -4024.7866 
24267000    129.10684   -4487.2992   -4266.0145   -4487.2992            0    3023.4537    17.928698    23.481697    21.761978    9161.7115    2866.9437    2400.9148    3802.5027    415.26024   -241.58332    296.75937   -3862.0383 
24268000    129.47533   -4509.1116   -4287.1953   -4509.1116            0    2609.3333    17.974644    23.258826    21.913441    9161.3328    2459.7552    1740.4936     3627.751    769.92108     288.2937    404.10139   -3938.5658 
24269000    134.04642   -4501.1763   -4271.4253   -4501.1763            0    1174.0812    18.111854    23.142405     22.07087    9251.0465    1747.6793    2416.0665   -641.50236   -535.08798    153.62043    35.608704   -4113.0218 
24270000    122.84327   -4492.6304   -4282.0812   -4492.6304            0     892.5468    17.902531     23.55931    21.972021     9267.167    1298.0132    619.48657    760.14062   -279.24842   -144.86981   -206.82082   -4161.4516 
24271000    131.01714   -4507.3826   -4282.8237   -4507.3826            0    1586.9209    18.096299    23.194896    21.986284    9228.5617    318.48683    2407.3515    2034.9245   -720.62165    407.39544    518.59564   -4069.2415 
24272000    140.77112   -4503.0294   -4261.7525   -4503.0294            0    1632.4569    17.987286    23.330087    21.994739    9229.9814    1639.1148    1524.3983    1733.8576    270.52717   -516.11479   -251.88172   -4042.0078 
24273000     130.9963   -4509.3425   -4284.8193   -4509.3425            0    1332.7416    17.908227    23.537763     21.87079    9218.9666    1823.1946    1197.6646    977.36548    744.29117    533.60678   -205.38904   -4105.6333 
24274000    139.17774    -4480.496   -4241.9501    -4480.496            0    2545.7878    18.003572    23.377662    21.796733    9173.8399    1376.5394    2900.9726    3359.8513    81.907735   -190.69067   -360.30465   -3901.3465 
24275000    131.15909   -4491.7738   -4266.9716   -4491.7738            0     2635.868    18.016867    23.295656    21.896148    9190.1357    3399.0115    2055.5966    2452.9959   -322.23326   -370.43115   -243.30838   -3913.6896 
24276000    141.64082    -4496.822   -4254.0545    -4496.822            0     1633.717    18.004137    23.289208     21.99209    9221.3294    1599.4881    851.86741    2449.7955   -67.501768    289.61131   -38.546944   -4034.3463 
24277000    138.27106   -4497.4547   -4260.4629   -4497.4547            0    1394.9362    17.868994    23.563387    21.887542    9215.8374    2101.3967    477.46049    1605.9515   -276.16413    115.94251    115.36014   -4072.9785 
24278000    129.82977    -4503.209   -4280.6852    -4503.209            0    963.16437    18.164442    23.265231    21.932087    9268.4986   -467.84728    2096.5892    1260.7512    524.82833   -259.86986   -439.75841   -4150.4928 
24279000    126.92884   -4504.8733   -4287.3216   -4504.8733            0      1839.66    18.049852    23.347419    21.878668    9220.0525    985.03242    3153.4403    1380.5073   -19.295909    127.99808   -660.39323   -4039.9517 
24280000    134.80004   -4492.9803   -4261.9376   -4492.9803            0    2468.1226    17.944817    23.496922    21.868027    9220.6087    2737.9095    2031.4262    2635.0321    73.448603    131.98262     453.0623   -3930.0415 
24281000    132.83475    -4481.081   -4253.4068    -4481.081            0    1407.7529    18.053351    23.335601    21.981538    9260.5095    367.40667    2184.4814    1671.3707    -764.8155    254.61895   -347.49168   -4063.2827 
24282000    130.37769   -4488.3838    -4264.921   -4488.3838            0    1056.9071    17.978534    23.425019    22.011521    9270.0971    1545.5556    760.12627    865.03951   -586.16378    96.513741    168.89146   -4122.0325 
24283000     129.0157    -4488.321   -4267.1925    -4488.321            0    2161.8365    17.799442    23.426184    22.078882    9206.2973     2730.689    1061.3297    2693.4907   -81.615811   -609.02931   -185.63965   -3976.9348 
24284000    129.78248   -4506.0305   -4283.5878   -4506.0305            0    2735.8163    17.956951    23.207378    22.021901     9177.269    1816.8287    3940.8343    2449.7859     177.2352    689.39503    577.10038   -3917.4232 
24285000     129.5224    -4512.937     -4290.94    -4512.937            0    3190.8639    17.950511    23.202844    21.986559    9157.4661    2948.3889    2702.6846    3921.5181    725.89872   -99.709357    235.08104   -3864.7929 
24286000    132.93312   -4509.7974   -4281.9546   -4509.7974            0    2317.5787    17.837867    23.457831    21.962509    9189.9412    2171.4361    2789.0198    1992.2803    107.97252    -16.95118   -15.430371   -3971.3391 
24287000    131.51918   -4492.0412   -4266.6218   -4492.0412            0    1835.4319     18.00423    23.359528      21.9463    9229.9625    1132.7343    2148.8048    2224.7567   -285.83169   -289.82584    71.242879   -4019.5552 
24288000    136.24168    -4506.526   -4273.0125    -4506.526            0    1087.9124    18.088634    23.404002    21.907038    9274.2663    738.61275    1654.5172     870.6074   -163.06033   -259.29397    89.067907   -4125.8661 
24289000    139.31928   -4507.5751   -4268.7867   -4507.5751            0    1454.4444    17.995865    23.424925    21.874514    9221.2405    1671.0197    1465.7758    1226.5378   -681.74964    347.59023    849.65619   -4073.1896 
24290000    132.35691   -4503.9287   -4277.0735   -4503.9287            0     1428.681    17.860699    23.581987    21.901449    9224.6879    1246.2778     1381.383    1658.3821    214.14918    257.48073   -206.69891   -4084.8693 
24291000    126.31109    -4487.066   -4270.5732    -4487.066            0    2390.1085    18.053245    23.167912    21.959576     9184.724    2713.5758    2092.0617     2364.688     228.7741   -101.17325   -38.203297   -3950.4187 
24292000    124.13632   -4488.3274    -4275.562   -4488.3274            0    528.97912    18.071387    23.298814    22.002314     9263.896   -1134.9831    1022.7861    1699.1344   -162.27131   -107.73281    391.37165   -4204.0946 
24293000    135.43277   -4498.2618   -4266.1347   -4498.2618            0    2425.9006    17.883696    23.424647    21.913761    9180.0963    2081.5802    2026.4353    3169.6864   -129.27419   -292.53576    443.47558   -3941.3495 
24294000    133.66244   -4493.9877   -4264.8949   -4493.9877            0    1587.1953     18.09032    23.273219    21.843685    9196.6277   -84.056333    2839.6693    2005.9729   -76.401149     73.76434   -77.128325   -4052.0149 
24295000    125.95745    -4508.728   -4292.8413    -4508.728            0    2338.0507    17.994308    23.286088     21.86074    9160.0222    2723.1967    2097.6172    2193.3382   -282.57944   -572.19831    623.55393   -3980.5022 
24296000     139.8066   -4501.3337     -4261.71   -4501.3337            0    1933.2596    17.779061    23.474045    22.081399    9215.5943    2043.2681    1521.6238    2234.8868   -288.17538    363.18752   -1.5399884   -4001.8799 
24297000    128.91004   -4503.4006   -4282.4532   -4503.4006            0    2503.3994    17.946615     23.21155    22.072036    9194.5205    2579.8033     3242.522    1687.8728   -312.30742   -421.02987   -185.21032   -3946.7657 
24298000     133.9924   -4496.4591   -4266.8008   -4496.4591            0         2019    17.998689    23.244934    22.020809    9213.0297    2630.7093    2235.2639    1191.0268    581.73445    430.58083    269.74473   -3995.5227 
24299000    136.67179   -4498.0023   -4263.7515   -4498.0023            0    2174.6324    17.948261    23.394066    21.914193    9201.3928    3087.0863    2558.1483    878.66248   -895.80485    478.07251   -171.12889   -3971.9313 
24300000    127.48678   -4496.5606   -4278.0526   -4496.5606            0    2691.9243    17.907392    23.411226    21.878743    9172.3134     2438.119    2107.0104    3530.6434    788.90541   -529.64519    58.847562   -3917.9572 
24301000    138.31617    -4495.893   -4258.8238    -4495.893            0    853.78232    18.068643    23.264982    21.987714    9242.9021    1304.5351    700.39739    556.41449   -384.90889   -307.56267    537.54687   -4143.7354 
24302000      137.539   -4509.4755   -4273.7383   -4509.4755            0    1425.9459    17.975332    23.389787    21.919329    9215.7448    2285.3029    1661.7261    330.80888   -265.85956    408.58883    219.38796   -4082.0881 
24303000    131.55781   -4504.2984   -4278.8128   -4504.2984            0    2226.8201     17.95957    23.422047    21.839123    9186.6246    1796.0503    2068.7335    2815.6765    170.27223    317.33304    91.956826    -3980.469 
24304000    134.35694   -4489.5484   -4259.2652   -4489.5484            0    1907.9863    18.021781    23.314659    21.882084    9194.2318    1683.3772    2061.1494    1979.4323   -243.67379   -195.59156   -408.55666   -4003.4263 
24305000    127.74763   -4491.3297   -4272.3746   -4491.3297            0    1752.4303    18.043051    23.375955    21.821827    9203.8693    1326.2153    995.89116    2935.1845   -167.16485    275.48899    81.430724   -4037.1477 
24306000    138.82854   -4492.0708   -4254.1235   -4492.0708            0    1068.5176    17.891347     23.56386    21.960738      9258.41    1794.2705    1088.8082    322.47411    811.23416   -86.565213   -409.17783   -4109.8475 
24307000    138.96266   -4508.0453    -4269.868   -4508.0453            0    1713.2695    17.960079    23.288252    22.039088    9218.0437    1334.7156    2534.2967    1270.7962   -157.55643   -128.34891    844.45564   -4039.5434 
24308000    133.17529   -4499.1373   -4270.8794   -4499.1373            0    2680.9819    18.056933    23.157365    22.002481    9200.3588    1621.8792    3537.1009    2883.9657    26.316694   -115.68526   -202.88969   -3911.1511 
24309000    140.71417   -4505.9828   -4264.8036   -4505.9828            0    3442.0832    17.834397    23.330216    21.991818    9150.3626    3678.6514    3566.2519    3081.3461   -1427.5046    17.796455    645.38157   -3805.4622 
24310000    127.66482   -4507.1602   -4288.3471   -4507.1602            0    1372.9922    17.945701    23.314106    22.031449    9217.6935    1528.8573    1392.0478    1198.0714    262.08482   -356.07309    395.97529   -4103.7749 
24311000    130.68108    -4494.499   -4270.5161    -4494.499            0    1479.8595     17.99732    23.343852    21.966644    9228.7751    3110.0673    1108.4195    221.09162    23.266815   -67.850116    269.04645   -4071.3385 
24312000    131.65621   -4488.7171   -4263.0629   -4488.7171            0    1701.9223    17.924907    23.445505    21.915165    9210.0343    1953.7805     2207.859    944.12751   -94.429854    427.22492   -133.66536   -4034.4626 
24313000     141.6342   -4494.6966   -4251.9405   -4494.6966            0    3221.6762    18.003762      23.3302     21.83186     9170.066    3526.7533    3754.6039    2383.6716   -671.48684     192.0149   -91.237943   -3821.0863 
24314000    128.38649   -4492.6658   -4272.6157   -4492.6658            0    2424.9376    18.037429    23.307057     21.90416    9208.4953    2174.8754    1361.2783    3738.6592   -388.33355     54.31335   -884.25738   -3946.9552 
24315000    129.80488   -4506.9315   -4284.4503   -4506.9315            0    1806.6233    17.775218    23.571346    21.918343    9183.4747    2196.7956    2034.5941    1188.4802    195.75136   -162.26318    95.689527   -4042.4865 
24316000     138.7212   -4494.4805   -4256.7171   -4494.4805            0    1781.2599    17.992264    23.364522    21.923774      9216.33    2021.0794    1597.9174    1724.7829    136.67625   -536.31066     423.2837   -4017.2967 
24317000    123.62944   -4503.7276    -4291.831   -4503.7276            0    1440.4444    18.054229    23.210009    21.986194    9213.0689    1300.2823    1131.3096    1889.7412    565.11016   -203.49495   -97.509762   -4098.2883 
24318000    135.16002   -4509.4773   -4277.8177   -4509.4773            0     1528.492    17.758028    23.567888      22.0236       9217.3    1524.7363    1860.7414    1199.9983   -125.47524    -181.0245    6.4373595   -4072.3503 
24319000    125.64871   -4506.8477   -4291.4902   -4506.8477            0    1672.5744    17.960978     23.29594    22.025694    9215.9438    2456.8687    1364.8821    1195.9724    366.58631    40.618653   -90.366569   -4066.6876 
24320000    135.49458   -4505.5851   -4273.3521   -4505.5851            0    2019.7892    18.062597    23.119726    22.076579    9219.2296    1516.0223    1922.7291    2620.6161   -492.93481    583.30301    384.38447   -4001.7853 
24321000    133.08177   -4502.6591   -4274.5614   -4502.6591            0    1476.2401    17.925147    23.487483    21.945135    9239.2654    988.66821    608.56279    2831.4894   -1093.0475    346.83093   -285.48818   -4075.6452 
24322000    135.62341   -4477.2666   -4244.8128   -4477.2666            0     1153.271    18.084425    23.358964    21.980067    9285.1148     1371.303    1421.3976    667.11235   -65.382136   -219.55577    774.03546   -4088.6439 
24323000    127.45096   -4506.3135   -4287.8669   -4506.3135            0    2343.9672    17.951014    23.345863     21.92089    9186.6486    3196.9806    2447.9636    1386.9576    586.44179    591.92256   -204.20677   -3973.8273 
24324000    131.78238   -4500.5244   -4274.6539   -4500.5244            0    1971.2627    17.858654    23.468005    21.953869    9201.0198     2876.319     1243.241     1794.228    361.10824    362.82967    540.80033   -4010.1352 
24325000    130.87313   -4501.0105   -4276.6985   -4501.0105            0    1594.4756    18.029175    23.248289    22.002398    9222.2494    1202.8186    2099.6753    1480.9331    652.05536   -475.50577    110.04686   -4062.2462 
24326000    136.04697   -4507.7661   -4274.5862   -4507.7661            0     3106.837    17.885905    23.398132    21.908278    9168.5433    3538.3499    3238.3295    2543.8317   -727.82188   -366.76654    512.40097   -3859.1593 
24327000    128.88956   -4501.6864   -4280.7741   -4501.6864            0     1579.916    17.987001    23.390614    21.927656    9225.5564    1760.1448    1504.0453    1475.5579   -1150.6387   -519.81461    203.27683   -4068.2038 
24328000    144.75682   -4498.6607   -4250.5525   -4498.6607            0    1897.4933    18.022878    23.163478    22.054931    9207.3281    1806.1315    2139.7125    1746.6359   -396.44005    80.709778   -8.6261009   -3995.7582 
24329000    133.68986   -4503.7175   -4274.5777   -4503.7175            0    2042.6296    17.779423    23.421792    22.108861    9206.7031    2392.9324    2256.8717    1478.0847    928.81506   -461.12903   -288.02873   -4000.3131 
24330000    139.55824   -4490.0679   -4250.8698   -4490.0679            0    2222.5383    17.933605    23.315426    22.012738    9204.1783    2590.3618    1865.7284    2211.5246   -497.38457    344.87099   -105.02298   -3952.5308 
24331000    128.57995   -4491.3609   -4270.9792   -4491.3609            0    2353.0249    18.043866    23.225131    21.934388    9192.0695     791.1088    3415.6909    2852.2749   -470.33947     382.0903   -157.69978     -3955.54 
24332000    131.41096   -4508.4795   -4283.2456   -4508.4795            0    2478.5483    17.934812    23.404438    21.910572    9197.0545    3040.4506    1837.5817    2557.6127   -71.353336   -81.152769    50.957591   -3950.7989 
24333000    128.21862   -4504.1709   -4284.4085   -4504.1709            0    2169.6933    17.944951    23.246521    22.099907    9219.1457    2092.5181    2605.7263    1810.8356    1024.4626    316.78943    -522.4327   -3992.6894 
24334000    138.21969   -4485.4242   -4248.5204   -4485.4242            0    2330.7229    17.957687    23.274868    22.056083    9218.6222    2108.3425    1599.6249    3284.2013    -161.7321    153.00799   -336.80826   -3935.1683 
24335000    131.61203   -4499.2622   -4273.6836   -4499.2622            0     2871.143     17.81635    23.542245    21.852556    9165.7677    3511.1608    1707.9456    3394.3227    1036.8283   -415.98788    206.43207   -3889.8884 
24336000    133.50936   -4501.7618   -4272.9313   -4501.7618            0    2084.7932    18.053304    23.258452    21.942452    9213.4577     1619.634    2531.1592    2103.5864   -359.95383   -83.269628    347.29822   -3992.8001 
24337000    132.28919   -4504.9956   -4278.2565   -4504.9956            0     1453.914    18.024878     23.19854    22.061566    9225.0622    927.72723    2164.1494    1269.8655   -839.32729   -304.71445   -208.01012   -4082.6497 
24338000    141.25897   -4499.5224   -4257.4094   -4499.5224            0    1792.8916    17.901205    23.326137    22.084281    9221.6439    2526.3686     2122.271    730.03515    335.33416    355.81481   -14.138121   -4016.2866 
24339000    125.11896   -4502.3808   -4287.9312   -4502.3808            0    2178.0328     17.93278    23.362756    21.964342    9202.1621    1771.3366    2674.4596    2088.3022   -593.20701     348.9353    219.59015   -3995.6303 
24340000    129.59396   -4489.1551   -4267.0355   -4489.1551            0    2311.3612    17.977972    23.417536    21.913351    9225.5167    3256.1225    2547.4906    1130.4706    965.40475    623.38222     386.8555   -3956.0541 
24341000    125.43745   -4501.9566   -4286.9611   -4501.9566            0    1833.9173    18.067755    23.196665    21.981376    9212.6511    1450.1186    2664.0912    1387.5422    -105.1831   -496.11424   -87.327644   -4040.5614 
24342000     139.8602   -4497.5308   -4257.8152   -4497.5308            0    1530.8481    17.738203    23.679168    21.973796    9229.5635    3250.1178    162.48856    1179.9381    407.71662   -866.02918     401.9645   -4051.7574 
24343000     133.7924   -4516.1925   -4286.8769   -4516.1925            0    1475.4176     17.95264    23.339011    22.016574    9224.8751    1501.5293    1359.3987    1565.3249   -212.13941    550.26988    111.47213   -4088.3811 
24344000    129.24176   -4492.3891   -4270.8731   -4492.3891            0    2363.0125    17.761353    23.260979    22.220134    9180.1696    3333.8219    3098.2691    656.94643   -674.46858    347.80503    725.64223   -3954.5051 
24345000    134.46736   -4511.0575    -4280.585   -4511.0575            0    2003.7684    17.873229    23.413999    22.008868     9210.354    2173.7756    1329.8253    2507.7042   -147.12197      108.497    321.44873   -4011.4317 
24346000    143.41816   -4507.3807   -4261.5669   -4507.3807            0    2335.2676    18.105679     23.19492    21.924005    9207.2001    1826.2059    2420.5665    2759.0305   -46.072167   -551.05241   -283.67746   -3947.9928 
24347000    139.00289   -4507.9579   -4269.7117   -4507.9579            0    2167.3729    17.944941    23.307787      21.9691    9188.7269    1693.7359    2595.2701    2213.1126    169.08812   -929.32312    400.70516    -3979.266 
24348000    127.95191    -4507.125   -4287.8198    -4507.125            0    2141.1908    17.896379    23.332869    22.012298      9191.76    2908.0181    1334.3662     2181.188   -138.32641   -499.31001   -151.91628    -4000.788 
24349000    141.73189   -4509.8996    -4266.976   -4509.8996            0    1222.2834    18.019729     23.22051    22.081802    9239.6283    966.91583    1356.3308    1343.6035    164.00628   -24.947256   -32.504756   -4102.2727 
24350000    132.50527   -4510.4522   -4283.3427   -4510.4522            0    2000.2981    17.902315    23.393227    21.961295    9197.2345    2285.6864    2816.4242    898.78377    35.752063    385.36756   -51.388813   -4015.0383 
24351000    128.32448   -4508.9461   -4289.0024   -4508.9461            0     2234.876    18.005109    23.264598    21.960488    9198.8453    1225.7644    2539.4687    2939.3948    31.942607    119.30506   -454.20021    -3989.181 
24352000    137.85385   -4497.5165   -4261.2397   -4497.5165            0    2444.6284    17.956218     23.37812    21.938696    9209.4832    2510.3535    2698.1636    2125.3681   -1048.2953   -251.97386    421.14355   -3932.8995 
24353000    133.80436   -4495.4093   -4266.0732   -4495.4093            0    2028.4631    17.793384    23.631285    21.902357     9209.515    1249.5764    841.14659    3994.6662    147.74667   -182.80216     441.1502   -3993.6276 
24354000    127.48158    -4490.655   -4272.1559    -4490.655            0    1932.9268    18.043084    23.282042    21.946909    9219.4543    1914.2884    2322.3601    1562.1319    -191.9992   -289.06114    25.897984   -4012.2618 
24355000    133.64515   -4491.1844   -4262.1212   -4491.1844            0    1955.1817    17.985937    23.358622    21.996981    9241.5193    1910.5793    2220.9026    1734.0631    713.79128    -28.39042    -170.6539   -3998.6055 
24356000    121.28958   -4493.8378   -4285.9517   -4493.8378            0    1791.4126    17.861457    23.580487    21.949792    9244.8537    1924.5911     1441.747    2007.8997    553.11089   -253.39316    343.65181   -4044.4214 
24357000    133.42426   -4511.0029   -4282.3183   -4511.0029            0    2457.0718      17.9451    23.242274    22.038569     9191.955    3324.5363    2701.9409    1344.7381    436.64053   -214.14978    166.69449    -3952.935 
24358000    133.15002   -4502.3417   -4274.1271   -4502.3417            0    1891.1616     17.99583    23.319791    21.923662    9200.4619     1583.928    2165.6536    1923.9032    286.91368   -98.282471   -275.25299   -4020.3724 
24359000    131.93894   -4501.5752   -4275.4364   -4501.5752            0    2188.9214    18.070145    23.270732    21.812723    9172.3701    2566.1339    2062.1403    1938.4901    78.416311   -403.65349    125.72892   -3982.6253 
24360000     131.7927   -4503.2617   -4277.3735   -4503.2617            0    2005.7968    17.974391    23.466508    21.848076    9215.4354    1954.6186    1569.3674    2493.4044   -941.21302    260.99803   -491.81801   -4007.7991 
24361000    127.16497   -4487.5035   -4269.5471   -4487.5035            0    949.35162    17.959487    23.414185    21.984793     9244.754    1450.4387    768.60569    629.01046    251.21998    538.82808    89.220292   -4141.5505 
24362000    137.52409   -4508.4428   -4272.7313   -4508.4428            0    1796.2937    17.954985    23.276643    22.033378    9208.4487      992.127    1992.0129    2404.7411    243.41347    203.07016    373.22822   -4031.4966 
24363000    127.94558   -4493.9764    -4274.682   -4493.9764            0    978.83254    17.798682     23.63811    22.030905    9269.0014    1784.4282    568.22418    583.84524   -518.54174   -276.90132    744.87922   -4142.3645 
24364000    133.29934   -4481.4247   -4252.9542   -4481.4247            0    1915.0159    18.083499    23.219227    22.006695    9240.2785    2393.9155    2362.2085    988.92364   -949.06403    40.504427    67.101122   -3994.8867 
24365000    128.84777   -4480.1138   -4259.2732   -4480.1138            0    2061.3464    17.975813    23.354455    21.952888    9216.1582    1043.6609    2142.4788    2997.8995    1154.9695    685.60318   -526.06116   -3982.2113 
24366000    131.49637   -4506.7544   -4281.3741   -4506.7544            0    2369.3023    17.911064    23.476683    21.843327    9184.9523    2373.8095    2327.5673      2406.53   -17.433987    612.91732    101.98179   -3963.9987 
24367000    132.36385   -4512.8175   -4285.9504   -4512.8175            0    3002.9803    18.032627    23.270759    21.795867     9146.263     2073.101    2767.0586    4168.7813     146.7802    294.44015    25.644299   -3885.3863 
24368000    127.39781   -4498.5239   -4280.1684   -4498.5239            0    1940.9938    18.028692    23.181671    21.978269    9185.4922      1294.81    3453.3444    1074.8271   -167.83401   -458.97524     982.2836    -4020.151 
24369000    136.48352   -4497.3642   -4263.4362   -4497.3642            0     2858.214    17.690108    23.477789      22.0597    9161.9369    3508.6126    2157.4779    2908.5516   -248.22394   -115.31037   -10.422473   -3881.5289 
24370000    132.86807   -4507.9285   -4280.1971   -4507.9285            0    943.71352      17.9879     23.24504    22.125503    9251.3244    1123.2937    1700.9607    6.8861523    323.59187    363.45073    472.20482   -4152.8703 
24371000    138.50908   -4520.3868    -4282.987   -4520.3868            0     2487.425    17.967142     23.28937    21.978546    9196.7777    2484.3663    2774.1974    2203.7113    228.88477   -369.87075   -223.04351   -3949.3597 
24372000    141.21337   -4499.3965   -4257.3616   -4499.3965            0    1718.3185    18.019375    23.372805    21.915911    9230.1781    1559.2685    1798.6707    1797.0162   -255.72848   -277.25004    677.60151   -4026.0541 
24373000    125.19404    -4504.918   -4290.3397    -4504.918            0    1560.7272    18.020951     23.49674    21.846098    9250.3721     2265.145    434.00611    1983.0306    1023.6952    639.82367   -178.05415   -4079.7864 
24374000    134.36355   -4492.7195    -4262.425   -4492.7195            0    1795.3966    17.948725    23.383525    21.943986    9209.9887    2630.9388    1364.8056    1390.4453    273.96256   -178.30026    246.81187   -4021.2705 
24375000    139.58636   -4492.8053   -4253.5591   -4492.8053            0    1689.6352    17.963819    23.343191     22.03333    9239.2994     2089.058    1577.8568    1401.9909    856.96058   -48.410768    712.81489    -4025.888 
24376000    133.92958   -4502.5782   -4273.0275   -4502.5782            0    1877.1002    18.081967    23.081016    22.081681    9215.7937    1709.2096    2208.0662    1714.0249    111.29903    37.762753    -134.9281   -4020.7398 
24377000    134.15998   -4497.4731   -4267.5275   -4497.4731            0    2214.1795     17.89957    23.453615    21.954485    9216.7039    1688.0175    2723.2381    2231.2828    347.53635    558.46604   -203.64295   -3969.9059 
24378000    130.81842   -4493.6455   -4269.4272   -4493.6455            0    1346.2307     18.11238    23.214328     22.03411    9264.6101    1181.4325     2253.854    603.40555   -387.33382    181.33737    758.59983   -4087.5314 
24379000     138.8427   -4498.5538   -4260.5821   -4498.5538            0     1755.886    17.989731    23.209101    22.019227    9193.5882    596.98961    3332.2909    1338.3773    209.18123    214.16894   -394.37472   -4025.1546 
24380000    135.00851   -4513.7614   -4282.3615   -4513.7614            0    2107.8749    17.731041    23.555814    22.030658    9201.5254    3058.9013    1275.2402    1989.4833    164.06627   -247.06464   -396.97916   -3999.4956 
24381000     132.1276   -4516.2608   -4289.7986   -4516.2608            0    1783.1913    18.060273    23.333257    21.865541    9214.2479    1112.5272    2441.8446    1795.2022    747.39057    497.41295    420.32663   -4050.1727 
24382000    132.93823    -4486.947   -4259.0954    -4486.947            0    1322.5338    18.100097    23.354182    21.815381    9221.6447    1126.4625    1084.7782    1756.3607   -111.76261   -501.91536    58.387513   -4081.2302 
24383000     129.4454   -4497.9548   -4276.0898   -4497.9548            0    1582.0071    17.930563     23.42207    21.910419    9201.7387     1774.319    1351.3626    1620.3398   -145.48371    101.57291   -579.15044   -4063.7878 
24384000    125.17546   -4498.1656   -4283.6192   -4498.1656            0    1854.0757    18.095081    23.161257    21.942131    9196.0526    1403.8101    2772.6199    1385.7972   -266.76927   -33.783153    230.43585   -4034.9598 
24385000     127.8936   -4513.2257   -4294.0204   -4513.2257            0    402.60533    17.929915    23.394218     22.05392    9250.6561    759.43111    229.58696    218.79792   -1007.6487   -538.40818    364.73389   -4239.7044 
24386000    133.59818   -4499.1161   -4270.1334   -4499.1161            0    1909.7866    17.874006    23.167642    22.134718    9165.9551    2703.9261    2405.3962    620.03735    168.88253    465.12345   -6.6578666   -4014.8407 
24387000    126.84272   -4497.8366   -4280.4325   -4497.8366            0    1733.2725    17.963002    23.213671    22.035399      9188.48    1461.5574    1645.7323     2092.528   -235.44997   -42.528498   -200.23902   -4048.1661 
24388000     130.7335   -4495.6899   -4271.6172   -4495.6899            0    2893.7497    17.845093    23.543038    21.790435    9154.7652    3690.8518     2118.735    2871.6623    576.12465     88.41988    19.062242   -3885.2644 
24389000    127.71665   -4515.8926   -4296.9907   -4515.8926            0    2744.1843    18.086261    23.175271    21.834572    9152.0485    3096.2993    1955.4955    3180.7581   -142.17229    148.99006    610.78405   -3930.7155 
24390000    130.70217    -4496.697    -4272.678    -4496.697            0    2759.8583    17.896246    23.333108     21.94098    9162.0054    2929.7597    2951.7117    2398.1036   -756.01915   -253.87547    83.101735     -3903.91 
24391000    132.64977    -4513.549   -4286.1918    -4513.549            0    2981.4372    17.727436    23.409197    22.035684    9144.4789    2867.4936    3084.5605    2992.2575   -1215.5348    771.50125     89.56733   -3888.5789 
24392000    131.32373   -4506.3998   -4281.3154   -4506.3998            0    1802.4977    17.963406     23.23479    22.007933    9185.5823    2835.8897    1167.5607    1404.0425    239.28202   -348.87322   -267.04271   -4039.8487 
24393000    131.30185   -4507.9052   -4282.8583   -4507.9052            0    1978.3415    17.839381    23.317817    22.117514    9200.3423    1603.0381    2105.9378    2226.0486   -620.44093   -183.56742    214.14511   -4017.4093 
24394000    128.99321   -4496.9799   -4275.8899   -4496.9799            0    1482.8272     17.94184     23.33974    22.018737    9220.5198    1423.4169    826.01413    2199.0504   -189.85089   -369.00175    226.92354   -4076.4915 
24395000     133.5043   -4493.1611   -4264.3393   -4493.1611            0    1259.1903    17.965735    23.404238    22.005995    9252.9562    2009.0249    1183.4944    585.05157    386.47969    175.00297   -302.94796    -4094.418 
24396000     127.9279   -4498.6891   -4279.4251   -4498.6891            0     2146.266    17.959802    23.376243    21.894431    9191.9978    2222.9136    1470.8138    2745.0706    168.87224    261.71782   -143.45346   -3991.7055 
24397000     126.6169   -4509.1903   -4292.1733   -4509.1903            0    1509.5067    18.139055    23.371286    21.755782     9222.995     889.0967    1402.1853    2237.2379   -170.66795   -84.293904   -255.71027   -4089.1327 
24398000    122.82299   -4501.6231   -4291.1087   -4501.6231            0    1649.1019    17.866782    23.464902    21.928337    9193.2864    1873.7043    924.94011    2148.6613    11.649929   -197.77476    175.54654   -4070.0059 
24399000    137.63613   -4489.8974   -4253.9938   -4489.8974            0    2344.3773    17.955874    23.239933    22.000608    9180.7064    2732.2123    3238.1562    1062.7634    11.844783    191.52586   -65.677047   -3940.1024 
24400000     128.2292   -4501.6017   -4281.8213   -4501.6017            0    494.61833    18.146398    23.432596    21.850835    9291.3509    443.37523     -216.327    1256.8067   -462.63812    37.501774    118.66782   -4214.7981 
24401000    131.84865    -4488.315   -4262.3309    -4488.315            0    1284.0558    17.928992    23.558071    21.861182    9233.5614    1250.0062    632.68275    1969.4785   -516.61233   -116.06773    184.00013   -4089.4173 
24402000     124.5246   -4501.2036   -4287.7727   -4501.2036            0    2365.3853    18.032403    23.104388    22.052468    9187.6676    2496.4245    2867.0952    1732.6363   -624.74956   -412.21376    -389.3492   -3970.8283 
24403000    139.12106   -4504.4946   -4266.0458   -4504.4946            0    2176.6724    17.882794    23.207157    22.120221    9180.0866    3907.0247    2830.8013   -207.80885   -825.27331     294.4207   -331.02902   -3974.6283 
24404000    127.63094   -4501.8866   -4283.1315   -4501.8866            0    2442.9741    17.853374    23.325698    22.011433    9166.4941    2240.0865    2265.5028    2823.3331   -396.27557    383.09467    63.891722   -3956.5452 
24405000    128.82361   -4498.2274   -4277.4282   -4498.2274            0     2548.387    17.992364    23.284093    21.876839    9164.9925    2244.7419    3262.9429    2137.4761    179.25814    142.78449    4.0844487   -3936.8056 
24406000    122.98585   -4510.9345   -4300.1409   -4510.9345            0    1313.0541    18.035463    23.418166    21.835178    9222.2503    1273.5617    470.88895    2194.7118   -192.09265    553.22457    252.94935    -4123.539 
24407000    130.85003   -4508.5397   -4284.2672   -4508.5397            0    1734.2628    17.908621    23.587874     21.77843    9199.7815    1006.1903    1178.5284    3018.0696    662.64624    -380.5279    172.01398   -4051.5823 
24408000    129.63272   -4503.5437   -4281.3577   -4503.5437            0    2161.6879    17.959599    23.120324     22.06722    9163.0101     1663.877    3219.9114    1601.2754   -277.29378    162.09532    379.07442   -3992.4846 
24409000    134.29447   -4508.6303   -4278.4542   -4508.6303            0    2377.8222    17.790338    23.335177    22.117408    9181.8358    1684.9934    2287.3192    3161.1541    42.700555    317.95205   -287.92157   -3960.0456 
24410000    137.40943   -4496.7319   -4261.2169   -4496.7319            0    1075.7414    17.983817    23.353197    22.018317    9247.2442    2318.2867    330.44864    578.48892   -117.12215    435.95795    366.42357   -4116.1407 
24411000    126.57842   -4509.3401    -4292.389   -4509.3401            0    973.10037    17.840928    23.432102    22.100826    9239.2603    861.33427     1764.648    293.31879   -705.76985   -87.265225    150.09345   -4161.2684 
24412000    131.83376   -4503.3209   -4277.3623   -4503.3209            0    2285.6962    17.954896    23.174745      22.0193    9162.2341    1379.4979    1765.1219    3712.4688   -360.50019    12.844316    570.10292   -3971.9435 
24413000    128.86896    -4494.625    -4273.748    -4494.625            0    1906.7825     17.91699     23.41094    21.934726    9200.5992    2376.1073    2886.2719     457.9683   -124.58202   -305.92894    -2.607603   -4017.8935 
24414000     133.1633   -4511.8818   -4283.6444   -4511.8818            0    1653.7777    17.973363    23.448417    21.926074    9240.6763     1656.104    1912.1299    1393.0993   -258.48855   -73.655591    246.79227   -4060.7718 
24415000    132.68296   -4500.9164   -4273.5024   -4500.9164            0    1981.7032    17.988385    23.256708    21.936363    9177.0908    1052.7898    2539.9495    2352.3703    197.53698   -345.06579    23.231292   -4008.2743 
24416000    133.39422   -4495.1996   -4266.5665   -4495.1996            0    2541.3987    17.932102    23.361742    21.887661    9169.2915    1985.6349    3412.6888    2225.8723    384.27644   -110.84418   -1199.8869   -3926.7187 
24417000    129.52655   -4509.5564   -4287.5523   -4509.5564            0    2998.0602    17.906491    23.351177    21.784346     9108.855     3100.881    2590.7389    3302.5606    621.56305    -324.1472    392.79666   -3889.2801 
24418000    141.94031   -4496.1663   -4252.8855   -4496.1663            0    1381.3278    18.204899    23.192491    21.819423    9212.5302    1149.8796    1514.2595    1479.8443   -711.75163   -211.63869    500.12656   -4067.2968 
24419000    131.41794   -4484.9852   -4259.7393   -4484.9852            0    1891.3115    17.971507    23.485492    21.861459    9227.0588    1765.3045    876.42736    3032.2026    20.954343    65.398769   -2.8553847   -4005.2309 
24420000    130.55809   -4499.0566   -4275.2845   -4499.0566            0    1648.9253    17.970412    23.515077    21.841721     9229.779    2278.0801    1503.9001    1164.7959   -401.44304     270.0393    333.00254   -4053.3278 
24421000    137.33627   -4511.6282   -4276.2385   -4511.6282            0    1228.3436     17.97668    23.406941    21.966479    9243.0347    2083.3294    1334.3966    267.30474    389.31435    131.46285    321.51472   -4110.6576 
24422000    130.74834   -4502.8939   -4278.7957   -4502.8939            0     2351.741    17.926713    23.347991     21.94234    9184.0263     3100.501    1207.1667    2747.5553    681.63551   -34.606065    27.560576   -3963.8044 
24423000    126.16781   -4497.2982   -4281.0509   -4497.2982            0    1231.3682    18.150683    23.277694    21.904396      9254.74    943.03582    1154.7879    1596.2809   -1474.6764   -297.65538   -33.463078    -4114.852 
24424000    132.02639   -4510.1813   -4283.8926   -4510.1813            0    1746.9042    17.856314    23.547331    21.905544    9210.5922    1691.1601    1147.5072    2402.0453    125.05502    97.450528    728.16131   -4049.2361 
24425000    138.98989   -4501.5614   -4263.3375   -4501.5614            0    1791.6674    17.883541    23.312176    22.054301     9194.532    2815.5139    427.49177    2131.9964   -392.95982    163.72304   -557.27313   -4023.0878 
24426000    133.37145   -4505.7267   -4277.1325   -4505.7267            0    2929.6988    18.027681    23.131347    21.944333    9150.8864     1704.692    3828.2372    3256.1672   -203.27208   -399.83076   -132.79231   -3886.1458 
24427000    128.57067   -4480.7347   -4260.3689   -4480.7347            0    1018.0523    17.937672    23.436187     22.01131    9253.3485    534.21435    2345.2928    174.64975    402.41749    217.38141    246.32385   -4122.9822 
24428000    137.10983   -4500.0383   -4265.0367   -4500.0383            0    2670.7002    17.999722    23.247682    21.914528    9170.1737    2187.6248    1814.6151    4009.8607    571.14476    63.914473    95.970537   -3907.8637 
24429000    133.37242   -4505.1018    -4276.506   -4505.1018            0    1980.3959    17.982331    23.299466    21.950715    9196.8823     1643.409    2632.9865    1664.7921    211.44247    178.65237    190.19974   -4010.8813 
24430000    131.48285   -4502.8049   -4277.4478   -4502.8049            0    2022.5289     17.89079    23.532684    21.874638    9209.6232    2898.6196    1288.9275    1880.0397    680.44527    291.36466   -173.31847   -4005.7961 
24431000    137.21657   -4502.7868   -4267.6023   -4502.7868            0    1513.9719    18.028426    23.637795    21.681546    9239.6393    1660.4947    1085.0888    1796.3323    1098.0996   -499.10014   -40.138567   -4063.5936 
24432000    133.67116    -4485.621   -4256.5132    -4485.621            0    1459.0949     18.09469    23.303361    21.927921    9246.2825     1119.567     1526.938    1730.7798    733.40914    -288.3425   -163.83439   -4059.7578 
24433000    129.56071   -4504.2549   -4282.1923   -4504.2549            0    1771.7199    17.889418    23.473777    21.968394    9225.2365    1947.3043    1941.1282    1426.7273   -250.18536    254.54154   -76.656617    -4043.824 
24434000    130.22598   -4509.4583   -4286.2555   -4509.4583            0    2166.5654    17.967412    23.228693     22.04239    9199.6009     535.2286    3328.3028    2636.1649   -797.43563   -506.22241    381.04391   -3995.5744 
24435000    134.09406   -4493.5453   -4263.7127   -4493.5453            0    1977.7387    18.120003    23.238031     21.91247    9226.7535    847.35688    2967.2541    2118.6052    302.86237   -42.449717   -499.94358   -3997.5828 
24436000    139.01756   -4500.7577   -4262.4864   -4500.7577            0    2074.9909    17.956144    23.413071    21.930111    9219.6045    2139.9608    794.72495    3290.2869    -215.3537   -1.0136094    862.81173   -3983.4863 
24437000    130.47774   -4503.7668   -4280.1324   -4503.7668            0    2488.5026    17.978072     23.17641    22.058718    9191.1435    2983.2082    2907.8296    1574.4701   -135.35405    -202.1027    167.95739   -3946.5651 
24438000    138.13091   -4494.7901   -4258.0384   -4494.7901            0    1522.3274    17.953747    23.296488    22.086201    9237.7578     1838.557    1473.3382     1255.087   -603.45756    84.495071     118.5118   -4052.9455 
24439000    125.44735   -4502.8495   -4287.8371   -4502.8495            0    1753.7626    17.817413    23.591834      21.8878    9200.4371    3133.9183    928.59737     1198.772   -30.397313    468.57291    182.88971   -4052.5191 
24440000     137.0523   -4485.1556   -4250.2527   -4485.1556            0    1962.0987    18.044211    23.273631     21.89035    9192.9468    1247.7003    2365.7498    2272.8459    439.82664    -402.1274    456.65287   -3987.1947 
24441000    131.68962   -4493.9684   -4268.2569   -4493.9684            0    2111.1003     17.92112    23.156921    22.177233    9203.5062    1080.8524    2419.2165    2833.2321    2.9263246    665.02795    285.05284   -3984.8972 
24442000    133.61418   -4497.1268   -4268.1167   -4497.1268            0    1661.5031    17.841722    23.472267    22.022293    9222.6205    1557.4848    2126.1043    1300.9201   -926.74492    27.350085   -346.17719   -4044.6404 
24443000    132.13653   -4498.0184   -4271.5409   -4498.0184            0    1108.8821    18.036702    23.345799    21.903629    9223.2069    1901.8678    177.85712    1246.9214     -232.412    478.74327    266.32519    -4122.384 
24444000    132.42177   -4483.3431   -4256.3767   -4483.3431            0     1414.469    17.956269    23.406785    21.993808    9243.9652    878.26875    1422.1903    1942.9479   -79.104941    246.20742   -581.66052   -4065.6868 
24445000    133.86617   -4504.7097   -4275.2676   -4504.7097            0    2272.5488    17.889825    23.541488    21.810455    9185.5408    2223.8045    1735.7167    2858.1251    495.19019   -546.91422    244.74686   -3970.8332 
24446000    131.52705   -4497.3587   -4271.9259   -4497.3587            0     1054.043    18.236865    23.127862    21.873367    9225.7418     919.1615     1577.226    665.74157    272.73968   -114.22614   -326.66167   -4130.1065 
24447000    126.12574   -4487.5527   -4271.3775   -4487.5527            0     1736.452    17.983852    23.353519    21.979616    9231.1364    1623.8525    2110.6618    1474.8417     216.2927    398.79096    622.76564   -4037.6048 
24448000    134.58696   -4498.9352   -4268.2577   -4498.9352            0    2488.4802    17.804958     23.43545    21.985888    9173.9899    3145.7666    2631.0102    1688.6639   -118.09975   -69.253902   -96.839736   -3935.3159 
24449000    138.87782   -4502.1764   -4264.1445   -4502.1764            0     1167.167    18.116822       23.288    21.946501    9259.3291   -272.73492    1333.4765    2440.7593    625.78004   -116.39318    526.34508   -4106.5328 
24450000    127.72803   -4494.8535    -4275.932   -4494.8535            0    1891.2794    17.969444    23.440213    21.865437     9209.888    1342.8988    2067.4329    2263.5066    703.33021    116.26512   -532.53051   -4021.9015 
24451000    133.45854   -4502.5672   -4273.8239   -4502.5672            0    1995.7365    17.856437     23.41397    22.059058    9222.6734    2776.7338     1047.929    2162.5468    -802.1434    46.786738    323.89473   -4005.3909 
24452000     137.5465   -4502.5237   -4266.7737   -4502.5237            0    2372.7448    18.134051    23.011536    22.021956    9189.5942    1790.5474    2598.4752    2729.2118    320.92067    559.53863   -166.06657   -3948.7766 
24453000    132.44239   -4511.3578    -4284.356   -4511.3578            0    2026.4735     17.84989    23.453367    21.980604    9201.9603    2339.4894     2006.706     1733.225    527.90602    20.849138   -50.718262    -4012.401 
24454000    127.87387   -4503.0923   -4283.9209   -4503.0923            0    2169.0672    17.974955    23.192395    22.069408    9200.3444    2478.5939    2546.1384    1482.4693     145.2185    244.41496   -411.14564   -3992.8807 
24455000    123.45246   -4500.0907   -4288.4974   -4500.0907            0    1532.8566     18.10191    23.181035    21.967777    9218.1407    415.94323    2044.8171    2137.8094   -41.672373    239.00633    525.11396   -4082.4246 
24456000    127.65306   -4504.0961   -4285.3031   -4504.0961            0      1813.89    17.876472    23.505782    21.916479    9209.3144    2404.7066    1621.5635    1415.3999     136.4791   -338.65104   -114.91276   -4041.6825 
24457000    129.00377   -4497.8422   -4276.7341   -4497.8422            0    2235.8223    17.981682    23.524528    21.713458    9185.0228    2838.4314     1136.156    2732.8796    1005.7074   -415.91667    960.17125   -3977.2365 
24458000    135.12011   -4497.3932    -4265.802   -4497.3932            0    1918.7981    17.983638    23.400226    21.905048    9218.1085    1525.7297    2758.0971    1472.5675    231.90689   -496.69313    235.00786   -4007.8452 
24459000    129.89275   -4497.5663   -4274.9345   -4497.5663            0     1342.112    17.908219    23.517983    21.970153    9253.0637     2060.384    1646.0701    319.88205    394.37078    55.484992    338.77235   -4093.8213 
24460000    140.13788   -4498.0476   -4257.8561   -4498.0476            0    1807.4895    18.062162    23.107556    22.043411    9200.3119    1416.7038    1989.0691    2016.6956   -586.40318    -826.6857     327.4806   -4015.3324 
24461000    130.41785   -4501.0384   -4277.5066   -4501.0384            0    1678.1769    17.876948    23.358719    22.093899    9226.0283    1595.4096    1904.0622    1535.0589   -1017.0957   -431.46668   -221.93283   -4051.7043 
24462000    133.66963   -4501.4944   -4272.3893   -4501.4944            0     1787.566    17.856603    23.395537    21.983036    9183.7391    1512.3336    2001.5524    1848.8121    1001.8541   -761.86233   -275.86663   -4032.9709 
24463000     138.1596   -4503.9337   -4267.1329   -4503.9337            0    1394.9369    18.137161    23.255238    21.888348    9232.1553     33.84739    2672.0706    1478.8926    794.38889    435.51989    288.85065   -4079.3165 
24464000    132.67954   -4504.2206   -4276.8124   -4504.2206            0    1124.6988    17.936175    23.495621    21.892607    9226.0167    1343.4273    1390.7935     639.8755   -122.85677    224.58769    650.20439    -4125.482 
24465000    129.71668   -4527.4577   -4305.1277   -4527.4577            0    1319.2378    18.050508    23.415139    21.838472    9230.1426    859.76491    933.53804    2164.4103   -1226.6901    607.22366     169.9933   -4127.5423 
24466000    132.39509   -4508.8286   -4281.9079   -4508.8286            0    2088.4794    17.981803    23.292576    21.967624    9200.9751    1892.8211    3378.3987    994.21836   -299.11486    136.76754    338.82693   -4001.6616 
24467000     123.0913   -4499.0824   -4288.1081   -4499.0824            0    2159.6485    17.811621    23.299004    22.147119    9190.8999    2931.3817    1209.4614    2338.1024     724.7608    166.67447    431.49331   -3998.6291 
24468000    129.58001   -4491.6648   -4269.5691   -4491.6648            0    2380.8844    17.900717    23.326719    22.084343    9221.6486    2201.1921     2171.777     2769.684   -276.08584   -875.37558    189.07824    -3949.368 
24469000    132.64713   -4491.6803   -4264.3277   -4491.6803            0     2724.754    18.096924    23.089841    22.006455    9195.5098    3346.1175    2745.2695    2082.8749   -475.98811    965.82024    661.43386   -3898.9189 
24470000    129.20877   -4506.6754    -4285.216   -4506.6754            0    2516.2676    17.864494    23.524174    21.822375    9170.7979    2650.8755    1723.7701    3174.1574    417.22691    76.019162    214.98853   -3948.6736 
24471000    131.65207   -4502.5823   -4276.9352   -4502.5823            0    1716.0194    17.979482     23.52336    21.823804    9230.1121    1228.3726    503.17427    3416.5112    468.36625    534.71961    625.24131   -4045.9389 
24472000    140.24564   -4523.3209   -4282.9447   -4523.3209            0    1460.9062    18.122632    23.159338    21.998656    9233.0156    1909.6614    2042.0758    430.98156   -661.82584    472.72874    137.34011   -4086.2277 
24473000    133.79044   -4509.8465   -4280.5343   -4509.8465            0    1695.4119    17.897481    23.446082    21.960399    9215.1503     2190.105    1285.4946     1610.636   -559.32997   -194.25446    412.77984   -4052.6819 
24474000    134.29005   -4501.9105   -4271.7419   -4501.9105            0    1164.8664    18.019401    23.297486    22.027089    9247.1207    2419.3539    424.14655    651.09875    178.73038   -131.06125    237.20154   -4114.6483 
24475000    131.35487   -4508.8048   -4283.6671   -4508.8048            0    1232.5938    18.091319    23.241882    22.001717    9251.2006    2319.7793      1515.12   -137.11779   -214.17224   -66.628626    158.93837   -4117.3664 
24476000    133.51602   -4501.0111   -4272.1692   -4501.0111            0    2452.6901    17.912299    23.534243    21.841392    9207.2913    2191.0392    2245.9312    2921.0999    174.74674   -185.05397   -163.09021   -3942.8247 
24477000    140.68223   -4483.5104   -4242.3858   -4483.5104            0    2347.9811    18.112749    23.350713    21.766534    9206.0597    2299.3127    1600.6262    3144.0042   -259.58287    482.39394   -385.96588   -3927.1437 
24478000    136.69616   -4495.7138   -4261.4212   -4495.7138            0    2770.6358    17.982264    23.384844    21.886267     9203.447    2596.7942    2688.9481    3026.1651   -30.152869    256.99114    23.742116   -3889.5386 
24479000     133.2642   -4494.0556   -4265.6453   -4494.0556            0    2731.2153    17.832073     23.40151    21.983203    9173.5342    3694.4698    2038.0729    2461.1034   -543.02224    -513.7068    309.14242   -3900.2453 
24480000    134.64547   -4487.1278     -4256.35   -4487.1278            0    1462.3639    17.979469    23.279002    22.062455    9234.1105    1430.5283    1863.3266    1093.2368    270.36453    366.98124   -32.859778   -4059.4134 
24481000    136.68887   -4502.8928   -4268.6127   -4502.8928            0    1970.4319    17.922596    23.425182    22.001452    9237.0913     2835.643    1040.3817     2035.271   -752.47309    683.11565    402.21897    -4003.169 
24482000    132.64221   -4496.0949   -4268.7507   -4496.0949            0    1505.9867    17.974247    23.355038    21.978775    9226.4532    811.74273    1905.4752    1800.7421    456.92825   -426.37739    72.635937   -4066.1076 
24483000    125.63503    -4497.592   -4282.2579    -4497.592            0    2328.5196     18.10174    23.157835    21.947067    9200.1469    1458.2083    2988.0487    2539.3018    9.0871135    673.30599     46.85549   -3969.8295 
24484000    132.70828    -4488.967   -4261.5095    -4488.967            0    2321.1717    18.006032      23.3156    21.888946    9189.4488    1233.4154    2979.8129    2750.2869    268.34798    363.02615   -282.00932   -3950.4292 
24485000    128.35412   -4501.5642   -4281.5697   -4501.5642            0    2784.1461     17.76035    23.566174    21.900172    9166.1746    3486.9956    2194.2741    2671.1685   -419.81022    140.30035    100.16387   -3909.3871 
24486000     131.6211   -4505.2197   -4279.6256   -4505.2197            0    2327.6639    18.041628    23.235498    21.912495    9185.8545    3012.7284    1575.1447    2395.1186    38.417662    -43.92543    96.756698   -3967.7972 
24487000    131.98252   -4502.2301   -4276.0166   -4502.2301            0    644.64854    17.938824    23.649218    21.839778    9265.2893     1710.201    105.34792    118.39673   -100.69924   -110.75177   -764.76472   -4188.9086 
24488000    139.51205   -4504.7782   -4265.6593   -4504.7782            0    2138.8261    17.963775    23.379833    21.930846    9210.7375    1958.1752    1328.9831    3129.3199    -177.5896    81.520671    221.68113   -3978.3526 
24489000    135.25289   -4503.8038    -4271.985   -4503.8038            0      613.012    18.114188    23.230095    22.048295     9277.797    763.10624    737.43857    338.49117     181.1221   -352.19882   -527.29287   -4189.0401 
24490000    136.61466   -4506.6664   -4272.5136   -4506.6664            0    1416.0301    17.918522    23.382428    22.030429    9230.2772    1542.0647    1482.4221    1223.6035     581.7209     556.0582    46.236548   -4081.8959 
24491000    131.71968   -4513.8407   -4288.0777   -4513.8407            0    1529.8613    17.942173    23.162403    22.154122    9206.8951    1245.4606      2802.53    541.59314   -554.34886    20.693791   -106.48088   -4082.6585 
24492000    131.13581   -4496.5581   -4271.7958   -4496.5581            0    2556.5521    17.849789    23.483117    21.896707    9178.4138    2829.9255    2877.4423    1962.2885   -1045.5625    665.80574   -463.35013   -3929.5815 
24493000    133.72114   -4486.5664   -4257.3729   -4486.5664            0    2312.5236    17.875853    23.466346    21.867126    9172.8428    2826.4025    593.50834    3517.6598    826.19397   -577.79916    249.35086   -3948.0116 
24494000    132.17553   -4493.6434   -4267.0991   -4493.6434            0    1949.2631    17.921317    23.336261     22.06405    9227.5503     2945.634    2189.8066    712.34853   -121.82128   -756.23641    452.56498   -4004.7782 
24495000    137.21442   -4493.9407   -4258.7599   -4493.9407            0    2005.5298    18.084013    23.303726    21.848734    9207.6003    1625.8204    1724.5071    2666.2618   -551.37908    476.55748   -80.548125   -3989.4505 
24496000     128.4559   -4494.5283   -4274.3593   -4494.5283            0    1272.4785    18.110551    23.360209    21.773074     9211.453    420.87309    784.18436    2612.3781   -482.98335    124.32295   -53.272774   -4103.4151 
24497000    130.53388   -4500.0732   -4276.3426   -4500.0732            0    1230.7531    18.008523    23.475969    21.856983    9240.4224    1290.6753   -294.15552    2695.7395    54.068475    191.13871    747.07175   -4110.4837 
24498000    136.83724   -4494.7458   -4260.2114   -4494.7458            0    1513.7171    18.002505    23.394494    21.863223    9207.9043    1396.1788    1814.9151    1330.0572   -234.87749   -96.086159   -72.250569   -4056.9376 
24499000    129.83834    -4509.557   -4287.0185    -4509.557            0    2388.8002    17.898467    23.459537    21.875759     9185.407    3632.9652    2373.3371    1160.0984   -360.25127   -842.03379   -52.300395   -3967.0155 
24500000    142.47721   -4496.6576   -4252.4565   -4496.6576            0    1816.8335    18.178877    23.349616    21.740786    9228.3072    661.85518    1113.2878    3675.3575    103.93748   -224.99199    166.21905   -4007.9373 
Loop time of 329.42 on 64 procs for 250000 steps with 864 atoms

Performance: 131.139 ns/day, 0.183 hours/ns, 758.909 timesteps/s
195.4% CPU use with 32 MPI tasks x 2 OpenMP threads

MPI task timing breakdown:
Section |  min time  |  avg time  |  max time  |%varavg| %total
---------------------------------------------------------------
Pair    | 17.5       | 24.854     | 33.549     | 105.6 |  7.54
Bond    | 0.86002    | 1.1887     | 1.7432     |  13.1 |  0.36
Kspace  | 163.84     | 173.63     | 180.75     |  40.8 | 52.71
Neigh   | 0.6973     | 0.7355     | 0.79677    |   3.2 |  0.22
Comm    | 49.09      | 51.914     | 54.081     |  18.4 | 15.76
Output  | 0.51691    | 0.5172     | 0.51871    |   0.0 |  0.16
Modify  | 60.624     | 62.41      | 66.704     |  17.4 | 18.95
Other   |            | 14.17      |            |       |  4.30

Nlocal:        27.0000 ave          39 max          16 min
Histogram: 3 3 5 5 1 2 5 2 2 4
Nghost:        2138.12 ave        2243 max        2034 min
Histogram: 11 5 0 0 0 0 0 0 5 11
Neighs:        6589.41 ave        9343 max        4045 min
Histogram: 4 4 3 4 2 2 4 2 4 3

Total # of neighbors = 210861
Ave neighs/atom = 244.05208
Ave special neighs/atom = 2.0000000
Neighbor list builds = 2839
Dangerous builds = 0

unfix		3
unfix		2
unfix		1

write_data	data.final.${pid} nocoeff
write_data	data.final.0 nocoeff
System init for write_data ...
PPPM initialization ...
  extracting TIP4P info from pair style
  using 12-bit tables for long-range coulomb (../kspace.cpp:340)
  G vector (1/distance) = 0.37208128
  grid = 24 27 25
  stencil order = 5
  estimated absolute RMS force accuracy = 0.0031024723
  estimated relative force accuracy = 9.3430033e-06
  using double precision FFTW3
  3d grid and FFT values/proc = 4410 672
Last active /omp style is kspace_style pppm/tip4p/omp

write_restart   restart.lmp.${pid}
write_restart   restart.lmp.0
System init for write_restart ...
PPPM initialization ...
  extracting TIP4P info from pair style
  using 12-bit tables for long-range coulomb (../kspace.cpp:340)
  G vector (1/distance) = 0.37208128
  grid = 24 27 25
  stencil order = 5
  estimated absolute RMS force accuracy = 0.0031024723
  estimated relative force accuracy = 9.3430033e-06
  using double precision FFTW3
  3d grid and FFT values/proc = 4410 672
Last active /omp style is kspace_style pppm/tip4p/omp
Total wall time: 0:05:29
