#include		in.partitions
include		in.temp
variable        temperature equal 136.47
variable	tempDamp equal 100.0
include		in.pressure
variable        pressure equal 7126.6
variable        pressureDamp equal 1000.0 # This is 1 ps
include		in.seed
variable        seed equal 745823

units		real
atom_style	full
read_restart    restart.lmp.${pid}
read_restart    restart.lmp.0
Reading restart file ...
  restart file = 30 Jul 2021, LAMMPS = 30 Jul 2021
  restoring atom style full from restart
  triclinic box = (-3.1467738 -0.047728869 0.0010420043) to (14.756773 22.627728 19.228956) with tilt (-0.15177286 -6.4277394 -0.026905183)
  2 by 4 by 4 MPI processor grid
  restoring pair style lj/cut/tip4p/long/omp from restart
  restoring bond style harmonic/omp from restart
  restoring angle style harmonic/omp from restart
  1008 atoms
  672 bonds
  336 angles
Finding 1-2 1-3 1-4 neighbors ...
  special bond factors lj:    0        0        0       
  special bond factors coul:  0        0        0       
     2 = max # of 1-2 neighbors
     1 = max # of 1-3 neighbors
     1 = max # of 1-4 neighbors
     2 = max # of special neighbors
  special bonds CPU = 0.002 seconds
  read_restart CPU = 0.007 seconds

include 	in.setup
variable	out_freq equal 1000
variable	out_freq2 equal 10000
variable	out_freq3 equal 1000

timestep	2.0

neigh_modify    delay 7 every 1

include		in.tip4p
# This is TIP4P/Ice

# create groups ###
group ox type 2
336 atoms in group ox
group hy type 1
672 atoms in group hy

# set charges - beside manually ###
set group ox charge -1.1794
Setting atom values ...
  336 settings made for charge
set group hy charge 0.5897
Setting atom values ...
  672 settings made for charge

# ### TIP3P Potential Parameters ###
pair_style lj/cut/tip4p/long/omp 2 1 1 1 0.1577 8.5
pair_coeff 1 1*2 0.000 0.000
pair_coeff 2 2 0.21084 3.1668
bond_style  harmonic
bond_coeff  1 450 0.9572
angle_style harmonic
angle_coeff 1 55 104.52
kspace_style pppm/tip4p/omp 1.0e-5
pair_modify tail yes

thermo          ${out_freq}
thermo          1000
thermo_style    custom step temp pe etotal epair emol press lx ly lz vol pxx pyy pzz pxy pxz pyz enthalpy

restart 	${out_freq3} restart.lmp.${pid} restart2.lmp.${pid}
restart 	1000 restart.lmp.${pid} restart2.lmp.${pid}
restart 	1000 restart.lmp.0 restart2.lmp.${pid}
restart 	1000 restart.lmp.0 restart2.lmp.0


include         in.dump
dump            myDump all atom ${out_freq2} dump.water.${pid}
dump            myDump all atom 10000 dump.water.${pid}
dump            myDump all atom 10000 dump.water.0
dump            myDump2 all dcd ${out_freq2} dump.dcd
dump            myDump2 all dcd 10000 dump.dcd
dump_modify     myDump append yes
dump_modify     myDump2 append yes


variable natoms 	equal  "count(all)"                        # NUMBER ATOMS
variable H      	equal  "enthalpy/v_natoms"                 # ENTHALPY-per-atom
variable Vol      	equal  "vol/v_natoms"                 # volume-per-atom
fix AVG all 		ave/time ${out_freq} 1 ${out_freq} v_Vol v_H file vol_enthalpy.dat
fix AVG all 		ave/time 1000 1 ${out_freq} v_Vol v_H file vol_enthalpy.dat
fix AVG all 		ave/time 1000 1 1000 v_Vol v_H file vol_enthalpy.dat



fix 		1 all shake 1e-6 200 0 b 1 a 1
       0 = # of size 2 clusters
       0 = # of size 3 clusters
       0 = # of size 4 clusters
     336 = # of frozen angles
  find clusters CPU = 0.000 seconds
fix             2 all nph tri ${pressure} ${pressure} ${pressureDamp}
fix             2 all nph tri 7126.6 ${pressure} ${pressureDamp}
fix             2 all nph tri 7126.6 7126.6 ${pressureDamp}
fix             2 all nph tri 7126.6 7126.6 1000
fix             3 all temp/csvr ${temperature} ${temperature} ${tempDamp} ${seed}
fix             3 all temp/csvr 136.47 ${temperature} ${tempDamp} ${seed}
fix             3 all temp/csvr 136.47 136.47 ${tempDamp} ${seed}
fix             3 all temp/csvr 136.47 136.47 100 ${seed}
fix             3 all temp/csvr 136.47 136.47 100 745823


run             250000
PPPM initialization ...
  extracting TIP4P info from pair style
  using 12-bit tables for long-range coulomb (../kspace.cpp:340)
  G vector (1/distance) = 0.37974931
  grid = 24 27 32
  stencil order = 5
  estimated absolute RMS force accuracy = 0.002404256
  estimated relative force accuracy = 7.2403457e-06
  using double precision FFTW3
  3d grid and FFT values/proc = 5355 672
Last active /omp style is kspace_style pppm/tip4p/omp
Neighbor list info ...
  update every 1 steps, delay 7 steps, check yes
  max neighbors/atom: 2000, page size: 100000
  master list distance cutoff = 10.8154
  ghost atom cutoff = 10.8154
  binsize = 5.4077, bins = 5 5 4
  1 neighbor lists, perpetual/occasional/extra = 1 0 0
  (1) pair lj/cut/tip4p/long/omp, perpetual
      attributes: half, newton on, omp
      pair build: half/bin/newton/tri/omp
      stencil: half/bin/3d/tri
      bin: standard
Per MPI rank memory allocation (min/avg/max) = 10.31 | 10.32 | 10.33 Mbytes
Step Temp PotEng TotEng E_pair E_mol Press Lx Ly Lz Volume Pxx Pyy Pzz Pxy Pxz Pyz Enthalpy 
25000000    146.10636   -5099.0522   -4806.8214   -5099.0522            0    8035.0326    17.903547    22.675457    19.227914    7805.9774     8007.192    8341.6738    7756.2321    229.33132    261.08646    680.08556   -3892.0958 
25001000    135.74381   -5106.2132   -4834.7088   -5106.2132            0    8496.3241    17.863115    22.764643    19.113197    7772.3327    8718.2074    8198.6769     8572.088    1559.1129    -691.2424    1693.2452   -3871.6378 
25002000    139.35616   -5107.7867   -4829.0572   -5107.7867            0    7714.3384    17.960904    22.662828    19.133629    7788.2458    6849.2612    8720.3313    7573.4229   -184.66817    893.87679   -232.04328    -3952.835 
25003000    133.51129   -5107.2454   -4840.2063   -5107.2454            0    6055.5804    17.829573    22.852364    19.241536    7839.9234    6923.3841    5787.1441    5456.2129   -389.62233   -6.4381491    1155.8834    -4147.828 
25004000    133.47724   -5120.2626   -4853.2916   -5120.2626            0    6136.5953    18.039991    22.735276    19.074456    7823.2772    5948.1865    6062.4724    6399.1271    23.169998    428.36951    -657.3076     -4153.14 
25005000    133.91845   -5104.4306   -4836.5771   -5104.4306            0    6394.3104    18.022812    22.590201    19.255455    7839.6456    6813.1736     5684.605    6685.1526   -142.28681   -81.889552   -734.03448   -4105.4952 
25006000    142.06744   -5111.5389   -4827.3865   -5111.5389            0    7314.0471    17.750215    22.996707    19.123911    7806.3134    9643.7814    5055.7446    7242.6154   -1241.7735   -598.11497   -755.62644   -3994.7036 
25007000    137.72497   -5112.1731   -4836.7062   -5112.1731            0     7281.761     17.81914    22.590039    19.408773     7812.712    7885.0768    7548.4503    6411.7558    446.11166   -647.78575    998.52373   -4007.0195 
25008000    138.17418   -5107.0745   -4830.7091   -5107.0745            0    7201.9176    17.834425    22.851631    19.129109     7795.986     7515.975    6325.8589    7763.9189   -743.41125   -508.68377    588.05251   -4011.8766 
25009000    137.06937   -5088.7462   -4814.5905   -5088.7462            0    7153.9777    17.933332    22.722147    19.151496    7803.9244    6037.5205    7251.9514    8172.4614    777.13956   -230.50721   -1141.8032   -4000.3804 
25010000    144.19506   -5110.6607   -4822.2527   -5110.6607            0    7667.0091    17.946212    22.708419    19.152616    7805.2674    6826.4526    7816.5725     8358.002    -310.2515   -223.91238   -1741.9107   -3949.5031 
25011000    137.21306   -5108.1651    -4833.722   -5108.1651            0    6979.7712     17.85301    22.766167    19.231676    7816.6109    7723.4266    7147.7493    6068.1376      -2657.8    614.52575   -901.16309   -4038.0473 
25012000    144.08837   -5093.4307   -4805.2362   -5093.4307            0    7662.9088    18.011279    22.711904    19.074833    7802.9502    3136.0637     9049.478    10803.185   -1229.1466    250.99205    623.63829   -3933.2123 
25013000    144.01037   -5099.2825   -4811.2439   -5099.2825            0    8334.4709    17.958304    22.665852    19.105529    7776.7198    6989.1847    8809.3917    9204.8363   -713.86474    486.85856   -583.31874   -3865.9859 
25014000    143.71178   -5118.3379   -4830.8966   -5118.3379            0     8352.497    17.902561    22.658145     19.15779    7771.1432    8544.9238    8335.8289    8176.7385   -422.16172    158.94165    1925.5496   -3884.2734 
25015000    137.15142   -5103.8571   -4829.5373   -5103.8571            0    7390.0734    17.857392     22.80074    19.144393    7794.8645    7443.9004    7626.6823    7099.6377    771.02449   -142.28463   -200.73719    -3989.433 
25016000    135.39828   -5098.7512   -4827.9379   -5098.7512            0    7420.6889    17.920486    22.588026    19.290213    7808.4544    6800.5972    7982.7563    7478.7132    578.31602   -248.48754    678.59577   -3982.8825 
25017000    140.05934   -5115.5125   -4835.3765   -5115.5125            0    6705.6395    17.886446    22.887288     19.08053    7811.0396    6318.9713    6510.6219    7287.3254    137.43196   -221.25153    -315.5398   -4071.4969 
25018000    138.44342   -5117.6328   -4840.7288   -5117.6328            0    7128.6994    17.981917    22.597287    19.161582    7786.1659    7550.7482    6923.8978    6911.4522   -293.01558   -430.96002   -698.16099   -4031.2419 
25019000    140.68478   -5109.3456   -4827.9586   -5109.3456            0    8672.1137    17.842724    22.768019    19.084274    7752.8619    9447.5159    7995.3082     8573.517   -1572.8519   -757.42478     1289.756   -3847.4241 
25020000    137.69092   -5109.8277   -4834.4289   -5109.8277            0    6815.7689    17.824139     22.73722     19.25233    7802.4182    7414.3593    6945.0801    6087.8674   -467.10412    261.77376   -520.26302   -4058.8607 
25021000    138.15219   -5123.5547   -4847.2332   -5123.5547            0    6658.3611    17.852768    22.710854    19.254213    7806.6516    7016.5221    5929.2689    7029.2923    641.38146   -1288.7026   -1824.8872   -4089.1655 
25022000    135.71007   -5101.4803   -4830.0434   -5101.4803            0    7383.4539    17.849317    22.645545    19.276721    7791.7955     6762.803    7749.3565    7638.2023   -714.40393   -472.46693    393.21856   -3991.0221 
25023000    133.58154   -5118.7969   -4851.6173   -5118.7969            0    6273.2673    17.856727    22.763306    19.239616    7820.4835    7614.5405    5758.0299    5447.2315   -470.26076    71.963195   -529.76409   -4136.1278 
25024000    144.20572   -5099.2989   -4810.8696   -5099.2989            0    6884.5857    17.902308    22.707059    19.251119    7825.7487    8736.9256    6548.1378    5368.6937   -98.657465    2.2428378    377.23517   -4025.1283 
25025000    138.92722   -5091.7186    -4813.847   -5091.7186            0    8345.1968     17.82962    22.654095    19.252629    7776.4048    8949.3452    8250.6172    7835.6281   -744.78417   -538.13754   -139.42799   -3867.4108 
25026000    137.37508   -5095.1557   -4820.3886   -5095.1557            0    7055.8885    17.897165     22.78768    19.118736    7797.2875    5782.3299    7565.6731    7819.6625     1884.654    659.46091    538.73545   -4018.0251 
25027000    140.55857   -5090.2371   -4809.1026   -5090.2371            0    8518.6599     17.83101    22.762103     19.11446    7758.0106    8660.7209     7682.909    9212.3498    310.39032   -807.57316    2107.6369    -3845.279 
25028000    136.66456   -5118.0681   -4844.7221   -5118.0681            0    5432.8099    17.853818    22.710463     19.36674    7852.6025     4272.548    5796.5111    6229.3706    170.44676   -557.89758     663.0504    -4222.545 
25029000    134.09128   -5098.2667   -4830.0676   -5098.2667            0    7207.6511    17.919598    22.776724    19.101818    7796.4022    5386.2663    7928.9104    8307.7764   -889.74697    287.50814    -256.4652   -4010.5394 
25030000     143.2315     -5105.01   -4818.5293     -5105.01            0    7137.2988    17.897586    22.864971    19.068018    7803.1625    7115.0956      6584.95    7711.8508    -228.5122    59.778025    -61.06732   -4006.2967 
25031000     138.8699   -5092.7495   -4814.9925   -5092.7495            0    7254.1874    17.868655     22.74608    19.212792    7808.8829     8657.744    6021.0135    7083.8047   -93.481234   -546.68854    105.20963   -3988.8527 
25032000    142.10019   -5105.4078   -4821.1898   -5105.4078            0    8024.8146    17.915606    22.660475    19.178317     7785.939    8478.3427    8576.5177    7019.5833    1360.6469    -304.2722    943.13539   -3909.9727 
25033000    141.99849      -5113.8   -4829.7855      -5113.8            0    7777.0999    17.992665    22.787356    19.032046    7803.2389    6481.9823    7231.9405     9617.377    1306.1569    -1337.956    433.38467   -3944.7341 
25034000    130.71246   -5112.0399   -4850.5988   -5112.0399            0    5987.0952    17.932783    22.808153    19.146235    7831.0717     6385.593    5481.7527    6093.9398   -133.30326    -434.1554    1503.8097   -4166.8238 
25035000    128.24162   -5104.9241    -4848.425   -5104.9241            0    7195.3921    17.831239    22.768669    19.211714    7799.8325    8442.1809    7042.9209    6101.0745     1099.902    74.979841   -188.40684   -4029.9307 
25036000    130.29577   -5103.8747    -4843.267   -5103.8747            0    7780.7309     18.01272    22.604711    19.097583    7776.0075    7286.7244    7794.3451    8261.1232    569.27843   -780.07843    -575.0494   -3960.8925 
25037000    136.47587   -5103.1206   -4830.1519   -5103.1206            0    6634.6225    17.944618    22.765569    19.104155    7804.4184    5275.9286    6992.0045    7635.9343   -379.32298   -337.46575    686.08832   -4075.0029 
25038000    136.13131   -5108.1399   -4835.8605   -5108.1399            0    6095.2772    17.840429    22.873971    19.163738    7820.3659     5727.708    5973.7294    6584.3943   -220.14219   -335.28261    -472.2475   -4140.6818 
25039000    138.39805   -5113.7126   -4836.8994   -5113.7126            0    6828.7498    17.982759    22.512664    19.330519    7825.7635    6108.2064    7729.5054    6648.5375    579.87168    -273.8856   -1081.1763   -4057.5291 
25040000    135.72033   -5106.4068   -4834.9494   -5106.4068            0    6091.8386     17.88432    22.802816    19.201223    7830.5056    7167.1705    5290.2443    5818.1009    285.86805    90.883575   -583.82606   -4139.2621 
25041000    140.60004   -5117.3704    -4836.153   -5117.3704            0     5912.252    17.931093    22.811269    19.187159    7848.1423    5804.7669    5293.8906    6638.0985   -555.80584     27.38732   -782.02703   -4159.4537 
25042000    135.09177   -5107.1387   -4836.9385   -5107.1387            0    6191.6187    17.960674    22.714007    19.244932    7851.1408    7569.1504    5925.8402    5079.8656    52.122709   -499.50962   -1985.5255    -4127.993 
25043000    139.55793    -5102.894   -4823.7609    -5102.894            0    6678.4838    17.842121     22.84269    19.245751    7843.8376    6381.2284     6672.393      6981.83    -1068.852    310.96598    896.46416   -4059.7803 
25044000    137.12298   -5123.2591   -4848.9962   -5123.2591            0    7954.2233    17.869607    22.722061    19.180053    7787.7593    7689.4237    8056.5147    8116.7315    140.15069    229.36186   -832.41001   -3945.5835 
25045000     132.3128   -5112.0466   -4847.4047   -5112.0466            0     7809.477    17.831786    22.782544    19.141347    7776.2386    7751.3277    7790.8236    7886.2797    1010.4599   -763.80763   -604.47699   -3961.7439 
25046000    132.88802    -5107.754   -4841.9616    -5107.754            0    7983.5175    18.017618    22.661122    19.113896     7804.193    7093.0281    8298.8146    8558.7099   -1094.8153   -233.66329    702.82651   -3933.3083 
25047000    135.63471   -5104.5432    -4833.257   -5104.5432            0    7130.1797    17.799694    22.823846    19.190315    7796.2085    7151.3933     6349.634    7889.5119   -37.862661   -989.08548   -589.95733   -4022.5577 
25048000    127.70765   -5093.0177   -4837.5867   -5093.0177            0    8200.8092    17.866704    22.603382    19.245563    7772.2809    8781.6933    8558.4842    7262.2502    127.59504    151.99687    317.25945   -3908.0188 
25049000     140.8088   -5100.4052   -4818.7702   -5100.4052            0    7304.7428     17.99585    22.704618    19.067994    7790.9707    4996.7214    8331.4044    8586.1025    1000.3926      433.998    1106.4894   -3988.7811 
25050000    136.10018   -5120.1814   -4847.9642   -5120.1814            0    5744.3561    17.877052     22.84695    19.198201    7841.2384    5526.7233    5496.3502    6209.9948    564.23239    808.28999   -338.61738   -4191.0602 
25051000    145.41902   -5087.6234   -4796.7674   -5087.6234            0    7954.1314    17.849355    22.735807    19.200253     7791.837     8230.696    7988.2369    7643.4613    838.08842    553.03021    655.37449   -3892.8921 
25052000    132.34489   -5106.3849   -4841.6787   -5106.3849            0     7989.422    17.985568    22.533839    19.209747    7785.4005    8287.8934    8497.9682    7182.4044   -302.09824    647.81736    2187.1391   -3934.5431 
25053000    131.94998   -5115.3914   -4851.4751   -5115.3914            0    7984.8821    17.860633    22.807793    19.122643     7789.831      7058.27    8516.0602    8380.3162    744.08656    908.10432   -177.71208    -3944.339 
25054000    145.15386   -5109.2555   -4818.9299   -5109.2555            0    4760.8099    17.858537    22.716621     19.39152    7866.8605     4036.472    5227.7626     5018.195   -631.71674   -865.72875    1009.4112   -4272.7217 
25055000    137.93751   -5098.5965   -4822.7044   -5098.5965            0    6939.4121     17.81143    22.897352    19.127539    7800.8721    6711.5262    6332.0939    7774.6162     -198.355   -84.833067    248.41095   -4033.2233 
25056000    144.78904   -5099.4409   -4809.8449   -5099.4409            0    6713.6386    17.911049    22.721408    19.237043    7828.7887    6961.4389    6472.9813    6706.4957    530.97875   -20.207077    272.12144   -4043.3162 
25057000    136.68917   -5122.1213   -4848.7261   -5122.1213            0    6766.7756    17.817564    22.845007    19.205219    7817.3379    6755.8959    6288.2034    7256.2276    771.84423   -335.99261    1668.4467   -4077.2605 
25058000     133.0385   -5097.3711   -4831.2777   -5097.3711            0    8024.6763    17.929333    22.592929     19.26009     7801.803    7606.9199    9172.4408     7294.668   -198.37623    876.27713   -135.93613   -3918.2197 
25059000     142.8459   -5118.5953   -4832.8858   -5118.5953            0    7228.5003    17.870062    22.857134    19.065086    7787.2947    7442.9565    6506.6992    7735.8452    1765.0317   -230.46734    575.71165   -4011.9472 
25060000    141.85228   -5117.3973   -4833.6752   -5117.3973            0    7322.2426    17.842328    22.603195     19.30592    7785.9545    8460.3877    7114.4124    6391.9278   -1085.8064    334.09601   -410.44554   -4002.2334 
25061000    134.44664   -5091.8421   -4822.9322   -5091.8421            0    6425.9522    17.850797    22.815913    19.224104    7829.6358    6539.1126     6195.243     6543.501    171.81902   -510.88652   -1162.1814   -4089.1706 
25062000    144.17173   -5093.5951   -4805.2339   -5093.5951            0     7250.568    17.901762    22.707274    19.185518    7798.9173      8473.72    7038.3274    6239.6568    37.586407    81.558724   -242.11422     -3980.56 
25063000    140.24613   -5097.0035   -4816.4939   -5097.0035            0     8093.609    17.898981    22.588526     19.30662    7805.8901    9556.1883    8224.4236    6500.2151    168.48705     84.27136    538.01634   -3895.1102 
25064000    133.37866   -5103.6697   -4836.8959   -5103.6697            0    7109.2726    17.750661    22.994881    19.113119     7801.485    8341.0784    5986.8099    6999.9296   -340.15861    236.24855   -1824.0861   -4028.0266 
25065000    134.09213   -5114.7203   -4846.5194   -5114.7203            0    6884.9489     18.00576    22.606621    19.174862    7805.1158    5692.1403     8259.013    6703.6934   -325.72709    258.40677   -1232.4138   -4062.8084 
25066000    137.71284   -5088.3061   -4812.8634   -5088.3061            0    6990.0101    17.812839    22.999703    19.058351    7808.0159     7190.441    6060.0208    7719.5684   -18.602864    248.46111    2071.1491   -4016.8977 
25067000    139.35666   -5112.0208   -4833.2903   -5112.0208            0     9433.529    17.813109    22.672436    19.192203    7751.0894    9165.6109     9347.953    9787.0232    358.42852    806.42855   -125.67134   -3766.9082 
25068000    138.35169   -5104.6861   -4827.9656   -5104.6861            0    7832.0891    17.772697    22.653487    19.350528    7790.7848    9906.6521    7377.2983     6212.317    282.04376   -680.80869   -187.66459   -3938.0789 
25069000    132.51311   -5112.9834   -4847.9408   -5112.9834            0    7880.6215    17.780053    22.877949    19.112615    7774.4603    7975.2116    8941.4474    6725.2055    413.12239    476.40401   -202.86953    -3954.416 
25070000    135.03667   -5101.3734   -4831.2834   -5101.3734            0    5652.4946    17.981744    22.571869    19.361361    7858.4196    6125.1833    6476.2998    4356.0007   -397.22227   -695.80534   -265.20773    -4183.468 
25071000    136.50729   -5105.6944    -4832.663   -5105.6944            0    5684.0941    17.849357    22.762714    19.372502    7871.0436    7839.3684    4909.8303    4303.0835    180.67333    173.14811   -277.38523   -4180.1796 
25072000    145.85404   -5095.4598   -4803.7337   -5095.4598            0    7025.2317    17.735797    22.963842    19.210609    7824.1357    6548.3116    6983.6866    7543.6969    695.98157    561.64774    447.87492   -4002.1057 
25073000    128.89574   -5111.2646   -4853.4571   -5111.2646            0    7401.0336    17.937184    22.480882    19.375843    7813.1869    7169.8115    8118.3727    6914.9166    1137.4438    409.41341     1843.733   -4010.1292 
25074000    131.93007   -5116.2457   -4852.3693   -5116.2457            0      6549.06    17.763572    23.036517    19.115946    7822.4521    6936.5674      6609.39    6101.2225   -62.735936    367.45962   -40.597826   -4105.2365 
25075000    137.78034   -5116.8627    -4841.285   -5116.8627            0     5876.209    17.983852    22.661837    19.195015    7822.8732     5047.964    6414.0476    6166.6152    44.246496   -273.73482    1118.4051   -4170.8767 
25076000    139.78626   -5109.2293   -4829.6395   -5109.2293            0    6380.8902    17.886838    22.844866    19.141555    7821.6685    7933.1602    5605.0984     5604.412   -1512.2207    -411.7095   -657.56396   -4101.7649 
25077000    129.62061   -5118.7415   -4859.4843   -5118.7415            0    6353.2335    17.890855     22.84627    19.109113    7810.6453    6336.8454     5561.935      7160.92   -544.37769    67.605393   -759.26617   -4135.7859 
25078000    145.99872    -5101.566   -4809.5505    -5101.566            0    7123.6774    18.014383    22.593895    19.180103     7806.591    6376.0983    7857.6832    7137.2508   -1123.8256    -240.8985   -1394.5823   -3998.5118 
25079000     129.9427   -5095.8462   -4835.9448   -5095.8462            0    8415.9783    17.863537    22.676736    19.096726      7735.83    8372.9453    8194.0214    8680.9681   -630.02504    37.502484   -808.70344   -3886.4613 
25080000    142.69985   -5101.0412   -4815.6239   -5101.0412            0    7581.1821    17.911575    22.831822    19.050546    7790.7947    7229.3498    7245.1735    8269.0229    20.784189    35.072391   -944.02035   -3954.2443 
25081000    134.30337   -5095.9756   -4827.3523   -5095.9756            0    7271.8985    17.988024    22.735438    19.085585     7805.348    6339.7472     7897.564    7578.3844   -900.58205   -462.17783   -398.28578   -3999.5703 
25082000    135.37915   -5116.7385   -4845.9635   -5116.7385            0    7617.7759    17.795154    22.917834    19.104498    7791.3186    7735.2167    8080.3057    7037.8051    55.363977    771.22771   -1078.6802   -3980.3679 
25083000    138.31666   -5101.1517   -4824.5013   -5101.1517            0    8300.2232    17.955028    22.605935    19.170289    7781.0326    7594.3458     8961.355    8344.9687    20.111825    26.933876   -120.59771   -3882.6054 
25084000    141.39335   -5093.2391   -4810.4349   -5093.2391            0    7066.8449    17.949056    22.799661    19.068386    7803.4012    6006.1632    7684.5616    7509.8098    508.90184    619.88696    812.78369   -4006.1955 
25085000    138.77781   -5115.5717   -4837.9989   -5115.5717            0    7704.4896    17.862378    22.777351    19.098728    7770.4636    7666.4645    7246.2923     8200.712   -791.23368    102.47473   -216.54277   -3964.8935 
25086000    134.93293   -5105.9757   -4836.0932   -5105.9757            0    7112.5562    17.996221    22.646503    19.166002    7811.1325    6459.8406    7017.2424    7860.5856    257.88181   -489.88391    577.49062   -4025.8496 
25087000    132.85494   -5106.6513    -4840.925   -5106.6513            0     7211.064    17.735075    22.925597    19.196231    7804.9413    9381.4637    6845.4496    5406.2786   -1110.7885    438.88333     799.6033   -4020.1108 
25088000    135.84139   -5108.8903   -4837.1907   -5108.8903            0    6046.4224    17.965802    22.686977    19.211972    7830.6026     5347.855    6183.2196    6608.1925    472.11588   -13.468353   -651.88928   -4146.6814 
25089000    131.07364   -5119.4281   -4857.2646   -5119.4281            0    6725.1426    17.770904     22.84356    19.225831    7804.7398    7562.9208    6396.3638    6216.1433    -203.9074    90.900044   -972.44739   -4091.7811 
25090000    139.48253   -5119.0495   -4840.0672   -5119.0495            0    6614.5178    17.778629    22.804631    19.280865     7817.139    6698.2235    6934.0858    6211.2441   -727.77171     285.8835   -51.491264   -4085.9794 
25091000    133.27215   -5110.2758   -4843.7151   -5110.2758            0    5324.8381    17.881577    22.609699    19.379312    7834.9992    5279.8284     5844.956    4849.7297    264.79893    51.803747    522.83539   -4235.2702 
25092000    135.68055   -5114.4178   -4843.0399   -5114.4178            0    5340.0816    17.788695    22.919355    19.262384     7853.378    6941.0189    4193.7087    4885.5171    218.89849   -308.11663    388.99735   -4231.4219 
25093000    142.43826   -5105.1026   -4820.2085   -5105.1026            0    7071.2002    17.833059    22.687635    19.268035    7795.6528    8293.8916    6822.7039     6097.005   -502.92118   -462.29706   -365.25019   -4016.2725 
25094000    141.66473   -5120.4124   -4837.0655   -5120.4124            0    6549.7691    17.955718    22.769127    19.141171    7825.6001    5572.6065    6616.5436    7460.1572    956.11159    378.12812    360.36999   -4089.5511 
25095000    132.78272    -5123.867   -4858.2852    -5123.867            0     6760.978    17.887089    22.908014    19.039674    7801.6527    6610.3745    6172.3472    7500.2124    569.94307   -836.42969    474.56926   -4089.0272 
25096000    141.05794   -5105.9677   -4823.8344   -5105.9677            0    7932.8981    17.898237    22.655519    19.156405    7767.8045    8641.2382    7408.2324    7749.2238    188.62697    301.07878   -605.82613   -3925.1524 
25097000    131.62975   -5096.1207   -4832.8449   -5096.1207            0    7835.8501    17.777175    22.906201    19.128078    7789.0977    9488.1699    6791.1456    7228.2348    1273.2661    389.68085   -399.02272   -3942.7237 
25098000    133.06721   -5100.8568   -4834.7059   -5100.8568            0    6882.0769    18.014594    22.718761    19.081744    7809.5711    7170.7073    6208.5573    7266.9662   -353.00951    400.46731    1250.8191   -4050.8746 
25099000    135.51171   -5112.0927   -4841.0526   -5112.0927            0    6040.6006     17.95823    22.667139    19.221184    7824.2073    5163.0178    7108.2162    5850.5679     220.3988    11.556807    14.270874   -4151.7715 
25100000    136.37545   -5106.1283   -4833.3606   -5106.1283            0    7405.6225    17.780524    22.928846    19.102692    7787.9174    7643.1732     7135.589    7438.1054    493.73344    212.04831   -114.69955   -3992.2389 
25101000    126.50714   -5102.0746   -4849.0447   -5102.0746            0    8941.5687    17.843756    22.621977    19.183086    7743.4645    8119.1531    9234.8453    9470.7077    292.01655   -96.928795    1405.1891    -3839.269 
25102000    133.68809   -5099.4362   -4832.0435   -5099.4362            0    7244.6944    17.929708    22.732838    19.152972    7806.6205    7370.0688    6575.2719    7788.7424    552.57441   -664.46145   -339.55678   -4007.2238 
25103000    138.22161   -5100.1829   -4823.7226   -5100.1829            0    7474.2297    17.928916    22.836238    19.076383    7810.4242    6991.7713    6845.9388     8584.979    1302.5555   -640.85046    112.86539   -3972.3553 
25104000    133.73605   -5097.8394   -4830.3508   -5097.8394            0    6003.1228    18.025459    22.820682    19.133776    7870.7414    4737.0322    5977.9132    7294.4229   -1434.8212    766.33737   -877.58197   -4141.2722 
25105000      142.047   -5087.8421   -4803.7305   -5087.8421            0    8813.9315    18.002002    22.656972    19.040418    7766.0314    6797.8591     9713.241    9930.6944    1555.6281    1007.6985   -1083.5111   -3805.4681 
25106000    133.07724   -5117.5112   -4851.3403   -5117.5112            0     6726.726    17.938736    22.748069    19.116286    7800.8138    6736.7868    6954.7007    6488.6903    -777.3772   -40.438153    81.999463   -4086.0618 
25107000    136.44321    -5096.868   -4823.9647    -5096.868            0    8210.8924    17.753343    22.808323    19.197823     7773.659    8956.7044    8022.7176    7653.2553   -1192.5152    296.65886   -552.86697    -3893.089 
25108000    139.36891   -5105.0064   -4826.2513   -5105.0064            0    7799.0176    17.902985    22.601407    19.315491    7815.6781    6500.8791    8306.0098     8590.164    439.06689   -82.156544    88.663731   -3937.2908 
25109000    137.65821   -5108.3981   -4833.0647   -5108.3981            0    8046.9459    17.782971    22.850864    19.118593    7768.9601    8124.2724    7923.3202     8093.245   -1348.4837    -1089.656    1436.4522   -3921.3271 
25110000    142.12569   -5100.9952   -4816.7262   -5100.9952            0     7877.061     17.78934     22.67488    19.279764    7776.9006    9568.5565    7992.0095     6070.617   -1197.8006    189.49131   -211.13314   -3923.3248 
25111000    144.17159   -5097.2003   -4808.8393   -5097.2003            0    7852.6127    17.808732    22.734911    19.202511    7774.7119     6792.478    8447.0312    8318.3289    475.34191   -272.22253    309.23684   -3918.4614 
25112000      143.957   -5118.7153   -4830.7835   -5118.7153            0    6294.9795    17.897759    22.892092    19.039557    7800.8326    5242.7187    6347.3924    7294.8273    745.06211   -562.20978    417.48744   -4114.6217 
25113000     138.8479   -5116.8136   -4839.1007   -5116.8136            0    8486.1935     17.91969     22.47241    19.309591    7775.9459    8847.4365    8816.3925    7794.7516    807.97484   -107.46959    1124.1468   -3876.7307 
25114000    135.78653   -5100.5092   -4828.9194   -5100.5092            0    6698.2228    17.920647    22.872745    19.071655    7817.3646    5600.0683    6638.6365    7855.9635   -205.94199   -256.32754   -716.21887   -4065.2668 
25115000    133.71105   -5105.4494   -4838.0108   -5105.4494            0    6165.2018     18.01764     22.78962    19.103525    7844.1971    4801.1756    6060.0869     7634.343    377.02625   -1.2909185    -449.9673   -4132.7144 
25116000    133.44688    -5115.794   -4848.8837    -5115.794            0    7224.5054    17.928853    22.825934    19.028717    7787.3655     8819.246    6256.0195    6598.2506   -823.28681   -1375.9111     1510.185   -4028.3913 
25117000    134.95536   -5120.5883   -4850.6609   -5120.5883            0    7180.6455    17.923047    22.779733    19.096423    7796.7302    6914.2992    7368.7428    7258.8944    296.92767   -513.77379    49.032481    -4034.169 
25118000    134.00458    -5110.634   -4842.6082    -5110.634            0    7212.3058    17.897235     22.77723    19.116194    7792.7057    6146.2957    7576.0346    7914.5871    945.85093   -498.61643    132.38607   -4022.9397 
25119000    135.74099    -5122.505   -4851.0063    -5122.505            0    6720.7728    17.919924    22.793909    19.189054    7838.0591    7404.0133    6240.5358    6517.7693    304.64154    31.465514    1809.6057   -4082.7544 
25120000    129.84087   -5099.9501   -4840.2524   -5099.9501            0    7371.7892    17.898488    22.858628    19.080636    7806.5539    7412.4051     7087.841    7615.1214    1081.8178     523.9005    834.71099   -4000.9699 
25121000    135.05796   -5116.5768   -4846.4441   -5116.5768            0    7585.8517    17.993453    22.567162    19.184545    7790.0987    8052.7117    7631.1198    7073.7235   -874.88263    254.54226   -61.174736    -3984.611 
25122000    142.36984   -5102.3948   -4817.6376   -5102.3948            0    7881.8102    17.827488    22.731719    19.214294    7786.5819    8135.0077    8559.6413    6950.7814    -535.2327     355.5849    852.98517   -3922.5846 
25123000    136.69843   -5107.9043   -4834.4905   -5107.9043            0    6575.8775    17.844387     22.76072    19.230149    7810.3463    8678.8528    6421.5451    4627.2348    610.54274    327.45703   -652.53725   -4085.4593 
25124000    138.03971   -5103.4176   -4827.3211   -5103.4176            0    6711.0701    17.881614    22.691974    19.226306    7801.4417    6448.2343    7264.4525    6420.5236    924.34374   -77.124565    1542.1092   -4063.7623 
25125000    140.55789   -5100.3336   -4819.2005   -5100.3336            0    7297.9963    17.848532    22.909796    19.102323    7811.0592    8662.1215    6931.3514     6300.516    543.42173   -309.69578    846.70608   -3987.8399 
25126000     138.3032   -5120.3328   -4843.7093   -5120.3328            0    7053.5782    18.042312    22.536181    19.234819    7820.9698    6098.2612    6858.8287    8203.6447    777.23212   -1924.1907    433.47351   -4039.1724 
25127000    130.59921   -5098.9159   -4837.7013   -5098.9159            0    9396.2819    17.761849    22.842559    19.083306    7742.5949    9777.2213    8630.7911    9780.8335   -214.22018    384.79381    325.14319   -3776.6938 
25128000    136.09835   -5116.5525    -4844.339   -5116.5525            0    6262.3826    18.039892      22.6511    19.164654    7831.1258    4353.2051    6865.2778    7568.6648    254.18971   -724.99357    -911.6127   -4129.1189 
25129000    143.60655   -5095.7923   -4808.5615   -5095.7923            0    7657.4942    17.900475    22.762073    19.143236    7799.9483    7686.2371    7632.6905     7653.555    597.22797    261.34952    607.46573    -3937.489 
25130000    129.54223   -5113.0537   -4853.9533   -5113.0537            0    6648.2506    17.859967    22.995106     19.04223    7820.4883    6962.9975    5704.5869    7277.1675   -428.09751   -45.771198    488.51455    -4095.695 
25131000    130.94541   -5109.3216   -4847.4146   -5109.3216            0     8424.387    17.985115    22.512085    19.191212     7770.185    7122.1108    8948.3725    9202.6778    1155.3872    39.400985   -688.83789   -3892.7616 
25132000    141.01425   -5096.9738   -4814.9279   -5096.9738            0    8013.4265    17.872888    22.841646    19.059626    7781.0196      6711.01    8072.2037    9257.0658   -552.51344    101.29244    45.782394   -3905.5788 
25133000    141.09067   -5105.6229   -4823.4241   -5105.6229            0    6401.4222    17.981508    22.784807    19.101794    7826.1044    7250.4332    5691.3749    6262.4586   -801.16809   -648.14906   -148.76198   -4092.7933 
25134000    130.24534   -5107.2108    -4846.704   -5107.2108            0    7410.6409    17.970289    22.765105    19.060993    7797.7669    6896.0308     7465.425     7870.467   -527.81291    413.32653    896.24465   -4003.9479 
25135000    130.57341   -5107.9034   -4846.7404   -5107.9034            0    5249.8035    17.866982    22.935985    19.162196     7852.607    5549.7725    5559.3241     4640.314    -719.3195    142.04188    316.38465   -4245.5213 
25136000     140.8619   -5102.9349   -4821.1937   -5102.9349            0    7080.0674     17.99329    22.659022    19.151176    7808.1331    6782.2372     7524.421     6933.544    460.71851    395.50453    1081.0757   -4014.9608 
25137000    133.00156   -5103.6624   -4837.6429   -5103.6624            0     7005.177     18.07043    22.778178    18.975945    7810.7165    5377.0123    6880.0982    8758.4206   -1454.0549    278.81552   -683.87386   -4039.6741 
25138000    137.36081   -5112.4235   -4837.6849   -5112.4235            0     7503.404    17.854787    22.800986    19.148013    7795.2851     7231.366    7532.5702    7746.2756    666.99168    605.17571    218.99824   -3984.6511 
25139000    129.78691    -5110.458   -4850.8681    -5110.458            0    8068.4498    17.838829    22.587692    19.317175    7783.6235    7938.3283    8658.5693    7608.4517    843.25026    466.08787    630.17065   -3934.9687 
25140000    138.54703   -5105.0614   -4827.9502   -5105.0614            0    7303.7129    17.899174    22.700562    19.200418    7801.5393    6466.0924    7985.4247    7459.6215    736.09621    452.41678    1167.7845   -3996.9524 
25141000    134.78517    -5104.367     -4834.78    -5104.367            0    8008.6818    17.731745    22.917023    19.124749    7771.5103    8098.9591    6863.1441    9063.9423    580.89428   -949.83468    335.56173   -3927.0799 
25142000    139.36096   -5110.2235   -4831.4844   -5110.2235            0    7351.1164    17.873836    22.588588    19.271506    7780.7687    8297.1125    7342.8508    6413.3858   -178.29827   -666.95822    146.72078   -3997.3199 
25143000    135.68853   -5113.1945   -4841.8007   -5113.1945            0    7386.5592    17.861991     22.92337     19.04547    7798.3017    7524.8047    6824.7234    7810.1493   -167.55438    391.33424   -871.76624   -4001.7256 
25144000    138.62757   -5104.7415   -4827.4692   -5104.7415            0    7921.6917    17.947717    22.493662    19.243307    7768.7132    7564.1079    9371.5453    6829.4217   -906.05685    1465.4302    6.6806819   -3929.9518 
25145000    143.06837    -5121.302   -4835.1475    -5121.302            0    8441.0369     17.86343      22.7509    19.136339    7777.1827    9961.9374    6565.4463     8795.727    1458.9509     125.3053    250.41721   -3877.7463 
25146000    140.81316   -5123.9772   -4842.3334   -5123.9772            0    6500.9658    17.840985    22.790881    19.190539     7803.099    7487.5836    6914.6128     5100.701   -716.31494    33.455625   -1242.2988   -4102.5223 
25147000    127.99922   -5109.9603    -4853.946   -5109.9603            0    7542.6523      17.9838    22.620548    19.197207    7809.4892    6917.1254    7920.1136    7790.7181   -1368.2932   -521.61171   -2009.5359   -3994.8878 
25148000    134.97116   -5112.4969   -4842.5379   -5112.4969            0    6462.7376    17.858898    22.959277    19.056094    7813.5204    5243.9745    6848.6501    7295.5882    313.36658   -161.85054    735.58784   -4106.0949 
25149000    147.40077   -5107.8573   -4813.0375   -5107.8573            0    7648.0124    17.981255    22.464749    19.239501    7771.6884    5943.0807     9170.572    7830.3846   -350.58677   -179.97281   -1063.9724   -3946.1957 
25150000    131.63137   -5107.3933   -4844.1143   -5107.3933            0    7755.4237    17.853919    22.856563    19.114125    7800.0774    7642.4058    7618.3933    8005.4721   -1172.1616    736.66351    334.57482   -3961.8873 
25151000    142.66673   -5096.1282   -4810.7771   -5096.1282            0    7550.5557    17.992652    22.718182    19.084777    7801.0997    6632.3861     8753.053     7266.228    1423.6654    773.65783    1385.0159   -3951.7426 
25152000    141.68914   -5115.8802   -4832.4844   -5115.8802            0    5961.9735    17.873349    22.781612     19.22416    7827.7648     5716.292    6338.1152    5831.5133    353.51044    418.13467   -456.44169    -4151.866 
25153000    138.13842   -5106.0049    -4829.711   -5106.0049            0    7052.2843    17.877499    22.768865    19.196347    7813.8802    6995.4691     6605.877    7555.5067   -356.83208   -68.321792    474.63867   -4026.0508 
25154000    134.15958   -5106.1104   -4837.7747   -5106.1104            0    6872.0515    18.004469    22.593305    19.215237    7816.3829    6326.6485     7072.088     7217.418    259.19173   -307.52707   -537.76614   -4054.4025 
25155000    135.90801   -5116.9527   -4845.1199   -5116.9527            0    6399.4449    17.777493    23.006926    19.183916    7846.3268    6471.1858    5481.7017    7245.4473   -731.97337    528.70944   -1197.9463   -4112.8274 
25156000    130.72378   -5120.4566   -4858.9929   -5120.4566            0    5266.3433    17.899656    22.808406    19.245232     7857.109    6774.8868    4654.8386    4369.3045    1278.1663   -251.46489     -14.5998   -4255.5338 
25157000    135.85559   -5109.3746   -4837.6466   -5109.3746            0    6828.2172    17.846906    22.579392    19.364159    7803.2197    6021.9234    7444.1228    7018.6054   -285.32381   -38.822084    54.750283   -4060.5821 
25158000    131.89318   -5111.5659   -4847.7633   -5111.5659            0    7671.9658    17.693137     22.95824    19.127474    7769.6429    8243.5087    7042.6807    7729.7079    -877.8651   -275.96283    1047.8415   -3978.4354 
25159000    133.56688   -5111.3269   -4844.1766   -5111.3269            0    7993.2323    17.896957    22.515525    19.287675    7772.1497    7766.4508    9142.0432     7071.203     76.77663    941.33478     -1194.03   -3938.1531 
25160000    130.61924   -5087.2293   -4825.9747   -5087.2293            0    7610.2221    17.788181     22.81395    19.180521    7783.8136    8194.7496    7018.9642    7616.9525   -466.67472   -1077.0668   -598.73543   -3962.0704 
25161000    129.25579   -5102.6749   -4844.1473   -5102.6749            0    8334.1954    17.853867    22.686103    19.232938    7790.0063    8117.4841    7281.4099     9603.692    354.65759   -1183.5955   -66.090613   -3897.3056 
25162000    135.07289   -5106.0337   -4835.8712   -5106.0337            0    6794.6218     17.89157    22.691848    19.250438    7815.5391    7034.6818    7159.0374     6190.146     865.0845    306.52608    205.36212   -4061.4092 
25163000    135.49241    -5105.732   -4834.7304    -5105.732            0    8399.5734    17.742524    22.840212    19.182256    7773.4753    8816.2456    8831.8437     7550.631   -490.14731    478.92269    1168.5523   -3882.4862 
25164000    139.15881   -5115.0353   -4836.7004   -5115.0353            0    7451.1528    17.814296    22.685527    19.237029    7774.1967    8782.7917    6374.8203    7195.8464    610.00709   -1361.4919   -916.13247   -3991.8986 
25165000    135.59476   -5111.6554   -4840.4491   -5111.6554            0    7294.0349    17.810068    22.869789    19.177364    7811.1799    7786.4032    7127.9137    6967.7877   -954.79155    173.76555    281.51407   -4009.5269 
25166000     142.8384   -5102.7459   -4817.0515   -5102.7459            0    6195.1595    17.908951    22.736928    19.243619    7835.8961    6880.3001    5602.6588    6102.5197    5.0603184   -591.27993   -522.12789   -4109.0779 
25167000    134.95758   -5109.9044   -4839.9725   -5109.9044            0    7694.9483    17.835206     22.81046    19.155177    7792.8865    9010.2036    8113.1277    5961.5137   -172.86347    -65.28383   -1758.1581    -3965.432 
25168000    135.82218   -5100.1614   -4828.5002   -5100.1614            0    5459.0579    17.947884    22.728727    19.223954    7842.0765    6208.5581    5489.6726    4678.9431    478.15253    472.65778    981.85747   -4204.1552 
25169000    141.94768   -5096.1778   -4812.2649   -5096.1778            0    6772.9767    17.968786    22.671376    19.169443    7809.1924    7584.9382    6177.2128    6556.7792     532.8816    277.51847   -456.69828   -4040.8969 
25170000    138.88327   -5107.0406   -4829.2569   -5107.0406            0    8723.3623    17.850117     22.68335    19.176531    7764.5862    8199.7807    9423.0048    8547.3014    11.371665    448.12053    181.80096   -3841.4362 
25171000    137.02398   -5104.5884   -4830.5235   -5104.5884            0    6373.9961    17.882478    22.754592    19.232527    7825.8784    7010.5997    6281.2263    5830.1624    571.22339    167.97773    1231.1531    -4103.044 
25172000    138.87471   -5126.7082   -4848.9416   -5126.7082            0    5228.3943    17.972242    22.662613    19.264094    7846.2265    4777.2822    5646.3024    5261.5984    399.23511   -162.25208   -1369.2491   -4250.6608 
25173000    135.86723   -5121.0692   -4849.3179   -5121.0692            0    7629.5489    17.874376    22.831305    19.132579    7807.9164    7667.4793    6928.8194    8292.3479   -216.46093   -1000.4013    647.53153   -3980.5377 
25174000    136.83429   -5114.4269   -4840.7415   -5114.4269            0    6555.3123    17.929723    22.687658    19.237947    7825.6782    6243.9839    7665.5213    5756.4318   -1039.8356    207.05864   -47.315186    -4092.587 
25175000    131.61299   -5105.7296   -4842.4873   -5105.7296            0    6646.9523    17.966911    22.726191    19.179232    7831.2537    5842.5788    7333.3776    6764.9007    1253.5587    287.38567    279.85763   -4083.3336 
25176000    135.71448   -5107.7163   -4836.2706   -5107.7163            0    7168.3829    17.875691    22.868092      19.0594    7791.1575    7760.0739    5656.7447    8088.3301   -1385.2317   -18.383853   -426.51175   -4021.7556 
25177000     142.5749   -5107.6582   -4822.4908   -5107.6582            0    6561.4944     17.94952     22.71982    19.181149    7822.2618    8262.0471    5782.0802    5640.3559   -1357.0505    180.91414    217.87724   -4073.9577 
25178000    139.80655   -5108.2247   -4828.5943   -5108.2247            0    6946.1768    17.965576    22.652549    19.196559    7812.3484     7771.056    7063.4096     6004.065    375.20415   -208.61923   -646.10914    -4037.181 
25179000    135.38422   -5098.4372    -4827.652   -5098.4372            0    6894.1923    17.835868     22.85014     19.17695    7815.6059    7564.4719     6550.325    6567.7799    656.23263    44.123943    945.77759   -4041.8341 
25180000    130.92616   -5094.3286   -4832.4601   -5094.3286            0    6794.6542    17.858764    22.767763    19.241047    7823.4887    7096.0893    6553.9904     6733.883    21.200494   -316.68517   -12.938753   -4057.2067 
25181000    128.82228   -5097.5431   -4839.8827   -5097.5431            0    8491.6674    17.798284    22.747314    19.218725    7780.9539    8520.1727    8617.1485    8337.6811    -819.1818   -522.84935   -435.30189   -3876.2718 
25182000    137.49161   -5105.8311   -4830.8309   -5105.8311            0    6516.7265    17.839394    22.958658     19.07674    7813.2327    7143.4138    5680.1335    6726.6321    347.16133   -96.786589    517.87077   -4088.2631 
25183000    131.16492   -5106.4234   -4844.0773   -5106.4234            0    7439.5495    18.027183    22.752414    19.010115    7797.2254     5259.368    8224.5491    8834.7314    290.23252   -817.25247    262.17437   -3998.0924 
25184000    135.63812   -5119.0754   -4847.7824   -5119.0754            0    7924.2206    17.981394    22.556742    19.153195    7768.5677    7412.2273     8721.666    7638.7684   -237.09038    385.14118   -56.174772   -3949.9952 
25185000     144.6907   -5107.1178   -4817.7185   -5107.1178            0    6953.7365    17.881157    22.783108    19.154066     7803.143     7348.529     6627.969    6884.7115    288.04797   -441.73187    32.646007   -4026.3775 
25186000    135.66811   -5101.1373   -4829.7843   -5101.1373            0      7306.82    17.984886    22.680356    19.190737    7827.9708    6368.1578    7940.9159    7611.3862    482.13551    710.46435     957.2023   -3995.6164 
25187000    133.98478   -5109.5741    -4841.588   -5109.5741            0    6444.3908    17.892667    22.740847    19.203193    7813.6716    6510.9215    6680.1902    6142.0608   -637.76769   -80.622065    901.45197   -4107.2214 
25188000    137.51587   -5099.0877    -4824.039   -5099.0877            0    7013.3779    17.775894      22.8509     19.23791    7814.3461    8116.7189     6810.532    6112.8826   -799.48026   -286.08677   -1872.3312   -4024.7648 
25189000    130.46718   -5118.4042   -4857.4537   -5118.4042            0     5534.889    17.957247    22.679174    19.291048    7856.3859    6163.6883    5759.5633    4681.4153   -974.48152    255.80365    786.90129   -4223.2809 
25190000    138.64462   -5086.7433   -4809.4369   -5086.7433            0    6762.1273    17.774474    22.911599    19.236256    7833.8041    7168.7238    6202.6924    6914.9658   -506.16358   -174.01828   -609.12229   -4036.8774 
25191000    136.55188   -5100.5587   -4827.4381   -5100.5587            0    7894.6484    17.868985    22.658093     19.24892    7793.4474    7537.6521    7411.0042     8735.289   -1138.4538   -440.70789    -351.3049   -3930.1368 
25192000    143.02994    -5115.904   -4829.8264    -5115.904            0    6705.5077    17.789184    22.862429    19.191648    7805.3189    7456.4712     6425.293    6234.7589   -580.83448   -50.442883   -56.327737   -4066.5212 
25193000    140.30274   -5121.9863   -4841.3635   -5121.9863            0    6851.2725    17.873134    22.733867    19.247897    7820.9104    6009.1573    7411.9024    7132.7577     27.12081    933.92262    848.06232   -4059.9077 
25194000    138.32371   -5106.2234   -4829.5589   -5106.2234            0    7918.2563    17.933719    22.568143    19.283703    7804.7075    5905.3918    8988.0518    8861.3252    1766.2876    1704.6843    641.70939   -3928.2741 
25195000    131.77471   -5100.4874   -4836.9217   -5100.4874            0    6977.0017    17.813191    22.861724    19.198114    7818.2448    6784.7531    7396.7584    6749.4937   -58.823504     1261.071    331.54918   -4041.3964 
25196000      131.597   -5105.8303   -4842.6201   -5105.8303            0     6795.428    17.949333    22.455493    19.430213    7831.5631    6917.6038    7631.9805    5836.6997   -19.509979    419.06659    585.19597   -4066.4781 
25197000     138.8783   -5112.5604   -4834.7866   -5112.5604            0    6336.1814    17.838527    22.871308    19.156036    7815.4797    6190.1869    5934.4997    6883.8576   -253.51805    379.33292   -566.75243   -4112.5839 
25198000    132.32509   -5100.1474   -4835.4809   -5100.1474            0    6748.6731    17.876128    22.663315    19.281214    7811.4428    6359.6709    7208.6343    6677.7139   -839.51726    45.791486   -951.65721   -4066.6594 
25199000    135.71713   -5094.3641   -4822.9131   -5094.3641            0    7749.6768    17.791329    22.768956    19.242492    7794.9409    8333.1042    7590.0727    7325.8536   -386.40566   -459.16675   -1693.6097   -3941.9204 
25200000    137.10759   -5113.5826   -4839.3505   -5113.5826            0    6832.6082    17.864248    22.804028    19.199757    7821.5359    6952.1655    6855.2874    6690.3717    -474.4276   -220.15992   -830.44918   -4059.9612 
25201000    130.34966   -5098.5203   -4837.8049   -5098.5203            0    6529.5485    17.913161    22.701634    19.258754     7831.727    5598.9909    7801.0912    6188.5633   -1581.6793    477.82958   -1444.8753   -4092.0148 
25202000    132.88499   -5101.4506   -4835.6642   -5101.4506            0     7728.421    17.870467    22.731588    19.144338    7776.8916    7293.7819    7241.2599    8650.2212   -835.00025    48.867952   -846.56225   -3959.1223 
25203000    132.81811   -5112.7121   -4847.0595   -5112.7121            0    7073.2612    17.846691    22.683622    19.266078    7799.4401    6450.6349    7712.9805    7056.1682   -48.076368    1122.1317    25.674561   -4042.4984 
25204000      130.671   -5117.1841    -4855.826   -5117.1841            0    6204.0152    17.877465    22.724085    19.272664    7829.5013    7248.6631    5510.7318    5852.6506    324.12867     451.1852   -145.72067    -4147.419 
25205000    133.57394   -5115.9246   -4848.7602   -5115.9246            0    7710.7256    17.893829    22.639187     19.21748    7785.0347    6847.5478    7634.4904    8650.1386   -33.458557    296.16093     789.3953   -3973.3095 
25206000    135.42668   -5115.1257   -4844.2556   -5115.1257            0    7040.4162    17.779974    22.944654    19.168138    7819.7445    5884.1674    6745.3099    8491.7713   -78.888649    80.317012    -3.071374   -4041.3457 
25207000    139.87557   -5116.5374    -4836.769   -5116.5374            0    6169.0517    17.872145    22.643198    19.306386    7812.9572    5548.6976     6655.404    6303.0535    138.78065   -1216.2229    640.71579   -4133.8428 
25208000    144.70628   -5112.0139   -4822.5835   -5112.0139            0    6800.0036    17.895656     22.65913    19.246713    7804.5422    4603.9475    7787.8352    8008.2281   -3.0898504    -690.3011     757.2117   -4048.5986 
25209000    139.59745   -5108.3079   -4829.0958   -5108.3079            0    7992.5737    17.757591    22.790176    19.222775    7779.4307    6973.1944    8218.6603    8785.8666   -776.30562    338.23519    1625.5928   -3922.2982 
25210000    138.76312   -5098.5874    -4821.044   -5098.5874            0    8426.6161    17.774452    22.705705     19.22663    7759.5117    8023.2103     8029.788      9226.85   -220.98725    646.45941   -1544.4244     -3867.45 
25211000    139.07016   -5111.0692   -4832.9117   -5111.0692            0    6943.4374    17.995745    22.586917    19.242454    7821.4498    7278.3057    7449.1659    6102.8406   -165.49149    747.62943    360.83101   -4040.8889 
25212000    138.81521   -5114.1632   -4836.5156   -5114.1632            0    7316.9599     17.89727    22.945933    18.986241    7797.0711    7758.7099       6224.3    7967.8697   -559.10243      699.935    542.79043   -4004.4874 
25213000    133.37217   -5103.7742   -4837.0134   -5103.7742            0    7525.2705    17.996323     22.65701    19.140628    7804.4549    7071.1075    7416.7832    8087.9208    884.07989   -92.000038   -701.18226   -3980.4873 
25214000     133.8606   -5106.1353   -4838.3975   -5106.1353            0    7793.9918    17.879299    22.768857    19.125577    7785.8542    7461.9927    8111.2664    7808.7164   -745.98902   -226.81538    56.322074   -3953.3999 
25215000    129.35432   -5115.5794   -4856.8548   -5115.5794            0    7857.0433    17.837873    22.630336    19.256713    7773.4929    8208.6507    7636.5504    7725.9286   -1084.9043   -365.44888   -116.30369   -3966.1142 
25216000     137.3227    -5111.114   -4836.4516    -5111.114            0    6837.8772     17.88526    22.643595    19.247276    7794.8883    6961.8161    7094.0717    6457.7437    596.46688   -624.53172   -779.35721   -4059.1187 
25217000     127.1664   -5111.8064   -4857.4579   -5111.8064            0     6607.647    17.872746    22.771386     19.21632    7820.7961    7032.6513    6033.5905    6756.6994  -0.27248249    60.759527    490.97473    -4103.801 
25218000    138.21157   -5101.4143   -4824.9741   -5101.4143            0    7368.1095    17.825886    22.660967    19.321412    7804.9194    9503.0353    7295.9221     5305.371    593.46071    370.56295    699.88145   -3986.2862 
25219000    132.82693   -5106.8194   -4841.1491   -5106.8194            0    7286.2454    17.865114    22.722023    19.219109    7801.6424    7199.0214    7502.5858    7157.1288   -1340.4217    461.19862   -311.77482   -4012.1278 
25220000    137.59087   -5119.3898    -4844.191   -5119.3898            0    8402.6055    17.874874    22.723086    19.046638    7736.2169    7313.2552    8644.1204    9250.4408    203.49928   -219.68358    362.54413   -3896.1689 
25221000    131.34201   -5097.7853    -4835.085   -5097.7853            0    8797.3356    17.864366    22.700904    19.106702    7748.4792    7933.5911    8896.6375    9561.7783   -72.600741   -275.68537   -889.59157   -3840.9542 
25222000    127.41895    -5109.322   -4854.4683    -5109.322            0    7254.4241    17.775821    22.784233    19.306027    7819.1039    8793.2054    6770.4133    6199.6536   -611.19955   -372.79382    872.73928   -4027.2202 
25223000    128.02014   -5109.2943   -4853.2382   -5109.2943            0    6187.9619    17.800108    22.823956    19.244217    7818.3265    6790.3769    5689.7312    6083.7776   -387.31516   -96.271837   -94.386213   -4147.6727 
25224000     139.6974   -5114.0219   -4834.6098   -5114.0219            0    6603.1662    17.913869    22.625059    19.273454    7811.5761    7452.2203    6475.3705    5881.9079    -652.8268   -956.40398    1382.2437   -4082.3519 
25225000    135.96882   -5116.3628   -4844.4084   -5116.3628            0    8294.0712    17.747353    22.846924    19.177461    7775.9316     7190.792     8098.811    9592.6106   -185.14237    339.13354   -454.92515   -3903.8276 
25226000    134.68703   -5104.7465   -4835.3558   -5104.7465            0    7506.9199    17.770522    22.783652    19.255409    7796.0797    8343.3301    6487.4495      7689.98   -931.38078    -287.4453   -345.98642   -3981.8353 
25227000    140.12827   -5086.2227   -4805.9488   -5086.2227            0    6513.0966    18.017381    22.486997     19.37495     7849.893    5372.3898    8160.5125    6006.3874   -1347.5943    323.69493   -876.35758   -4060.3123 
25228000    141.10242   -5106.0131   -4823.7908   -5106.0131            0    6157.3098    17.753008    23.117936    19.071946    7827.3726     7023.851    5201.3803    6246.6982    293.90722    331.02122    956.83788    -4120.908 
25229000    141.51557   -5111.4028   -4828.3542   -5111.4028            0    6489.6859    17.950254    22.564276     19.27191    7805.7877    5243.5747    7805.0062     6420.477   -756.88923    100.69102    13.216548   -4089.5722 
25230000     139.4088   -5096.2996   -4817.4648   -5096.2996            0    6572.7343    17.886773     22.81064    19.202571    7834.8164    5803.9185    6924.3688    6989.9155   -1073.1142    682.25127   -837.91846   -4066.4461 
25231000    135.41844   -5093.1844   -4822.3308   -5093.1844            0    7580.3962    17.891615    22.726514    19.181132    7799.3174    7737.5754    7215.3758    7788.2375   -790.32414   -559.34699   -501.86543   -3960.0983 
25232000    134.41698   -5100.8116    -4831.961   -5100.8116            0    7681.5205    18.001325    22.482929    19.241604    7787.5103    6689.6824    9167.1926    7187.6865   -54.365452    309.05288    218.71506   -3959.5489 
25233000     138.7359   -5121.5472   -4844.0583   -5121.5472            0    7898.2872    17.773249    22.921033    19.080381    7772.9889    9060.3542    6786.3464    7848.1611    107.69931    816.08162   -308.17225      -3948.7 
25234000    139.19887   -5104.6645   -4826.2496   -5104.6645            0    5751.9917    17.952484     22.62975    19.314464    7846.6989    5945.1356    5597.1084    5713.7313    1006.7107   -365.35598    -227.5411   -4168.0144 
25235000    128.93568     -5110.14   -4852.2527     -5110.14            0    6698.0794    17.842138    22.798955    19.244655    7828.3811    7135.4228    6164.1842    6794.6313   -1897.6774    20.739685   -787.78774   -4087.5403 
25236000    134.02215   -5116.2877   -4848.2269   -5116.2877            0    5057.5246    17.873762    22.735186    19.344258    7860.7968    4455.7924    6136.5605     4580.221   -208.69544    194.34477     625.9256   -4268.4239 
25237000     130.8359   -5103.6982   -4842.0102   -5103.6982            0    6118.8068    17.913811    22.707746    19.245888    7828.8856    6516.5295    6264.0244    5575.8665   -1003.5796     115.0507    611.38451   -4143.3877 
25238000    132.12118   -5090.4388   -4826.1801   -5090.4388            0    6754.9601    17.881283    22.925974    19.040846    7805.7154    5804.0926    6536.7559    7924.0318   -847.21337    198.63591    414.92918   -4057.2066 
25239000    138.80489   -5109.9225   -4832.2956   -5109.9225            0    7214.6056    17.955954    22.645891    19.184149    7800.8232    5999.0709    8092.0202    7552.7256   -537.98048    461.72525   -2105.1958   -4011.5115 
25240000    138.21233   -5098.1176   -4821.6759   -5098.1176            0    7804.1909    17.904597    22.707074    19.140923    7781.9527    7275.1454    7819.5274    8317.8999    -460.3966    67.083901    901.68915   -3935.9642 
25241000    133.08672   -5110.6528   -4844.4629   -5110.6528            0    6991.1474    17.887116    22.788864    19.145741    7804.3218     7392.581    6291.8236    7289.0376   -293.14082    134.16079   -1190.7118   -4048.7443 
25242000    131.02588   -5103.4628   -4841.3949   -5103.4628            0    6133.2556    17.931194    22.676044     19.25781    7830.3905    6046.8787    5704.1622    6648.7258   -399.96704    64.306308   -812.10503    -4140.988 
25243000    137.03161   -5091.2277   -4817.1475   -5091.2277            0    6560.8858    17.774582    22.676423    19.394157    7817.0853    8304.5174    6322.9003    5055.2395    910.78561   -871.96798    721.00009   -4069.1792 
25244000    141.81017   -5107.3688   -4823.7309   -5107.3688            0    7022.9918    17.819208    22.697438    19.294438    7803.6431    6077.6614     6925.478    8065.8359    371.16091    65.248457    1157.4079   -4024.4573 
25245000    138.21773   -5092.7745    -4816.322   -5092.7745            0    6225.5402    17.768825    22.940117    19.195821      7824.58    6640.8633    5411.2562     6624.501   -1627.0058   -27.985546   -1233.9777    -4105.904 
25246000    141.61686   -5120.5168   -4837.2656   -5120.5168            0    6615.0277     17.92593    22.606101    19.291917    7817.7672    6488.5972    6827.3144    6529.1714    -1682.188   -1005.7423   -170.53686   -4083.0591 
25247000    139.38792   -5109.2777   -4830.4847   -5109.2777            0    8384.6441    17.804648     22.74597    19.152952    7756.6388    8623.1517     7734.219    8796.5616    503.89505   -4.2944183   -722.99864   -3881.9918 
25248000    137.32054   -5099.0479   -4824.3899   -5099.0479            0    5695.4872    17.964646    22.802113     19.15229    7845.3889    6111.7714    4782.5276    6192.1626   -1851.2159   -952.15724   -1184.8158   -4172.7296 
25249000    135.79601      -5118.9   -4847.2912      -5118.9            0    5863.1569    17.870812    22.770363     19.29953    7853.4587    4895.6123    6658.0569    6035.8015   -515.56425   -341.58242    -492.0339   -4175.7567 
25250000     140.2246   -5102.5904   -4822.1239   -5102.5904            0    6518.0039    17.896957    22.906291    19.156696    7853.3431    7804.3819     5842.227    5907.4028    387.79831    55.566738   -694.48821   -4075.5976 
Loop time of 456.443 on 64 procs for 250000 steps with 1008 atoms

Performance: 94.645 ns/day, 0.254 hours/ns, 547.714 timesteps/s
194.9% CPU use with 32 MPI tasks x 2 OpenMP threads

MPI task timing breakdown:
Section |  min time  |  avg time  |  max time  |%varavg| %total
---------------------------------------------------------------
Pair    | 35.874     | 40.748     | 45.58      |  32.0 |  8.93
Bond    | 0.96002    | 1.2535     | 1.7687     |  12.2 |  0.27
Kspace  | 220.18     | 226.84     | 236.42     |  28.4 | 49.70
Neigh   | 1.4437     | 1.6241     | 1.8467     |   9.1 |  0.36
Comm    | 69.45      | 78.462     | 85.142     |  44.5 | 17.19
Output  | 0.54529    | 0.54605    | 0.54757    |   0.1 |  0.12
Modify  | 88.702     | 92.272     | 95.86      |  18.3 | 20.22
Other   |            | 14.7       |            |       |  3.22

Nlocal:        31.5000 ave          35 max          26 min
Histogram: 1 0 2 4 3 7 4 2 6 3
Nghost:        2931.66 ave        2953 max        2910 min
Histogram: 1 1 1 7 8 4 5 3 0 2
Neighs:        10639.7 ave       11850 max        8698 min
Histogram: 1 0 2 4 3 7 4 1 6 4

Total # of neighbors = 340471
Ave neighs/atom = 337.76885
Ave special neighs/atom = 2.0000000
Neighbor list builds = 3700
Dangerous builds = 0

unfix		3
unfix		2
unfix		1

write_data	data.final.${pid}
write_data	data.final.0
System init for write_data ...
PPPM initialization ...
  extracting TIP4P info from pair style
  using 12-bit tables for long-range coulomb (../kspace.cpp:340)
  G vector (1/distance) = 0.3795547
  grid = 24 27 32
  stencil order = 5
  estimated absolute RMS force accuracy = 0.0024227135
  estimated relative force accuracy = 7.2959297e-06
  using double precision FFTW3
  3d grid and FFT values/proc = 5355 672
Last active /omp style is kspace_style pppm/tip4p/omp
WARNING: Not all mixed pair coeffs generated from mixing. Use write_data with 'pair ij' option to store all pair coeffs. (../write_data.cpp:312)

write_restart   restart.lmp.${pid}
write_restart   restart.lmp.0
System init for write_restart ...
PPPM initialization ...
  extracting TIP4P info from pair style
  using 12-bit tables for long-range coulomb (../kspace.cpp:340)
  G vector (1/distance) = 0.3795547
  grid = 24 27 32
  stencil order = 5
  estimated absolute RMS force accuracy = 0.0024227135
  estimated relative force accuracy = 7.2959297e-06
  using double precision FFTW3
  3d grid and FFT values/proc = 5355 672
Last active /omp style is kspace_style pppm/tip4p/omp
Total wall time: 0:07:36
