LAMMPS (30 Jul 2021)
  using 1 OpenMP thread(s) per MPI task
package omp 0
using multi-threaded neighbor list subroutines
echo both

include		in.partitions
variable        pid world 0
include		in.temp
variable        temperature equal 257.99
variable	tempDamp equal 100.0
include		in.pressure
variable        pressure equal 9250.0
variable        pressureDamp equal 1000.0 # This is 1 ps
include		in.seed
variable        seed world 745823

units		real
atom_style	full
read_restart	restart.lmp.${pid}
read_restart	restart.lmp.0
Reading restart file ...
  restart file = 30 Jul 2021, LAMMPS = 30 Jul 2021
  restoring atom style full from restart
  orthogonal box = (0.59868318 1.7967010 0.73039208) to (17.608889 21.832477 21.482804)
  4 by 4 by 4 MPI processor grid
  restoring pair style lj/cut/tip4p/long/omp from restart
  restoring bond style harmonic/omp from restart
  restoring angle style harmonic/omp from restart
  864 atoms
  576 bonds
  288 angles
Finding 1-2 1-3 1-4 neighbors ...
  special bond factors lj:    0        0        0       
  special bond factors coul:  0        0        0       
     2 = max # of 1-2 neighbors
     1 = max # of 1-3 neighbors
     1 = max # of 1-4 neighbors
     2 = max # of special neighbors
  special bonds CPU = 0.191 seconds
  read_restart CPU = 0.362 seconds
include 	in.setup
variable	out_freq equal 1000
variable	out_freq2 equal 10000
variable	out_freq3 equal 1000

timestep	2.0

neigh_modify    delay 7 every 1

include		in.tip4p
# This is TIP4P/Ice

# create groups ###
group ox type 2
288 atoms in group ox
group hy type 1
576 atoms in group hy

# set charges - beside manually ###
set group ox charge -1.1794
Setting atom values ...
  288 settings made for charge
set group hy charge 0.5897
Setting atom values ...
  576 settings made for charge

# ### TIP3P Potential Parameters ###
pair_style lj/cut/tip4p/long/omp 2 1 1 1 0.1577 8.5
pair_coeff 1 1*2 0.000 0.000
pair_coeff 2 2 0.21084 3.1668
bond_style  harmonic
bond_coeff  1 450 0.9572
angle_style harmonic
angle_coeff 1 55 104.52
kspace_style pppm/tip4p/omp 1.0e-5
pair_modify tail yes

thermo          ${out_freq}
thermo          1000
thermo_style    custom step temp pe etotal epair emol press lx ly lz vol pxx pyy pzz pxy pxz pyz enthalpy

restart 	${out_freq3} restart.lmp.${pid} restart2.lmp.${pid}
restart 	1000 restart.lmp.${pid} restart2.lmp.${pid}
restart 	1000 restart.lmp.0 restart2.lmp.${pid}
restart 	1000 restart.lmp.0 restart2.lmp.0


include         in.dump
dump            myDump all atom ${out_freq2} dump.water.${pid}
dump            myDump all atom 10000 dump.water.${pid}
dump            myDump all atom 10000 dump.water.0
dump            myDump2 all dcd ${out_freq2} dump.dcd
dump            myDump2 all dcd 10000 dump.dcd
dump_modify     myDump append yes
dump_modify     myDump2 append yes


variable natoms 	equal  "count(all)"                        # NUMBER ATOMS
variable H      	equal  "enthalpy/v_natoms"                 # ENTHALPY-per-atom
variable Vol      	equal  "vol/v_natoms"                 # volume-per-atom
fix AVG all 		ave/time ${out_freq} 1 ${out_freq} v_Vol v_H file vol_enthalpy.dat
fix AVG all 		ave/time 1000 1 ${out_freq} v_Vol v_H file vol_enthalpy.dat
fix AVG all 		ave/time 1000 1 1000 v_Vol v_H file vol_enthalpy.dat


timer           timeout 23:50:00 every 1000
New timer settings: style=normal  mode=nosync  timeout=23:50:00

fix 		1 all shake 1e-6 200 0 b 1 a 1
       0 = # of size 2 clusters
       0 = # of size 3 clusters
       0 = # of size 4 clusters
     288 = # of frozen angles
  find clusters CPU = 0.308 seconds
fix             2 all nph iso ${pressure} ${pressure} ${pressureDamp}
fix             2 all nph iso 9250 ${pressure} ${pressureDamp}
fix             2 all nph iso 9250 9250 ${pressureDamp}
fix             2 all nph iso 9250 9250 1000
fix             3 all temp/csvr ${temperature} ${temperature} ${tempDamp} ${seed}
fix             3 all temp/csvr 257.99 ${temperature} ${tempDamp} ${seed}
fix             3 all temp/csvr 257.99 257.99 ${tempDamp} ${seed}
fix             3 all temp/csvr 257.99 257.99 100 ${seed}
fix             3 all temp/csvr 257.99 257.99 100 745823

run             250000
PPPM initialization ...
  extracting TIP4P info from pair style
  using 12-bit tables for long-range coulomb (../kspace.cpp:340)
  G vector (1/distance) = 0.37409057
  grid = 24 24 24
  stencil order = 5
  estimated absolute RMS force accuracy = 0.0031805712
  estimated relative force accuracy = 9.5781958e-06
  using double precision FFTW3
  3d grid and FFT values/proc = 2535 216
Last active /omp style is kspace_style pppm/tip4p/omp
Neighbor list info ...
  update every 1 steps, delay 7 steps, check yes
  max neighbors/atom: 2000, page size: 100000
  master list distance cutoff = 10.8154
  ghost atom cutoff = 10.8154
  binsize = 5.4077, bins = 4 4 4
  1 neighbor lists, perpetual/occasional/extra = 1 0 0
  (1) pair lj/cut/tip4p/long/omp, perpetual
      attributes: half, newton on, omp
      pair build: half/bin/newton/omp
      stencil: half/bin/3d
      bin: standard
Per MPI rank memory allocation (min/avg/max) = 9.236 | 9.239 | 9.241 Mbytes
Step Temp PotEng TotEng E_pair E_mol Press Lx Ly Lz Volume Pxx Pyy Pzz Pxy Pxz Pyz Enthalpy 
21000000    256.29442   -3862.0838    -3422.804   -3862.0838            0    6819.7173    17.010206    20.035776    20.752412    7072.6849    6886.5434     6363.751    7208.8574   -787.80358   -267.68221    846.53539   -2719.3648 
21001000    260.97863    -3869.018   -3421.7095    -3869.018            0    8927.5012    16.937752    19.950434    20.664017    6982.6918    7560.5168    9348.4763    9873.5105    98.504565    664.41996   -1163.4602   -2512.5739 
21002000    255.36563   -3871.5701   -3433.8822   -3871.5701            0     9194.283    16.942374    19.955879    20.669657    6988.4102    7481.0571    10401.213    9700.5789    1386.1242    1076.5817   -572.04971   -2496.8119 
21003000    260.67886   -3895.4959   -3448.7012   -3895.4959            0    9288.8492    16.933683    19.945642    20.659054    6977.6611     7164.811    10158.009    10543.727    191.09493    330.98129    956.97253   -2503.4491 
21004000    240.77924   -3905.1243   -3492.4369   -3905.1243            0    7156.8008    16.957078    19.973198    20.687596    7006.6214    6685.3326    7668.9417    7116.1281   -1318.4692   -573.80031   -164.65015   -2761.1236 
21005000    254.15268   -3892.0669   -3456.4579   -3892.0669            0    9908.9647    16.927018    19.937791    20.650922    6969.4245    9223.4048    10371.963    10131.527    1864.7056   -1428.3283   -971.60272   -2449.2918 
21006000    260.82554   -3876.4403   -3429.3943   -3876.4403            0    12978.017    16.862956    19.862334    20.572767    6890.5943    12401.593    13525.721    13006.736   -55.648526    1450.7793   -80.541352   -2125.2042 
21007000    264.51747   -3892.3214   -3438.9475   -3892.3214            0    10287.366    16.862402    19.861682    20.572091    6889.9156    10556.948    9489.5405    10815.609    310.22061    162.83444   -750.69422   -2405.2488 
21008000    263.03443   -3883.7245   -3432.8925   -3883.7245            0    8983.4237     16.88024    19.882693    20.593853    6911.8042    8841.4659     9496.201    8612.6041    2382.7211   -1166.0179     382.6893   -2527.3493 
21009000    262.60766   -3872.2841   -3422.1836   -3872.2841            0    8350.0744     16.95337     19.96883    20.683072    7002.0258    9426.2167    8128.0918    7495.9146    603.14485   -211.34579   -513.03494    -2569.496 
21010000    264.53456   -3892.1498   -3438.7466   -3892.1498            0    9227.7922    16.899041    19.904839    20.616791    6934.9256    8738.6581    7715.6555    11229.063   -389.39177   -651.57587   -841.09825    -2505.459 
21011000    248.98119   -3875.9614   -3449.2162   -3875.9614            0    9652.4047    16.900163     19.90616     20.61816     6936.307    10023.723     8595.955    10337.537    1117.0536    280.29512   -1744.5447   -2472.7893 
21012000    275.22971   -3880.2138   -3408.4795   -3880.2138            0    9783.9596     16.86329    19.862728    20.573174    6891.0038     7561.983    10451.052    11338.844    656.99575    1346.6339   -1098.6553   -2425.2089 
21013000    270.53145   -3895.6973   -3432.0157   -3895.6973            0    9018.9782    16.902524     19.90894    20.621039    6939.2136    8295.0268    8984.7197    9777.1882   -1595.3667   -170.99054   -303.56157   -2519.2832 
21014000    250.57286   -3887.5103    -3458.037   -3887.5103            0     9762.089    16.880042     19.88246    20.593612    6911.5611    9146.7958    9791.1529    10348.318    -747.2448   -930.30889    -158.0777   -2474.0377 
21015000    251.08352   -3884.4622   -3454.1137   -3884.4622            0    9065.0141    16.914572    19.923132    20.635739    6954.0637    8973.6607    10793.153    7428.2289   -515.35953    475.34784   -407.98517   -2534.7591 
21016000    262.99605   -3888.4658   -3437.6996   -3888.4658            0    10208.983     16.88379    19.886874    20.598184     6916.166    9869.0011    12305.231    8452.7177    113.95604   -80.327198    1333.0254   -2407.9686 
21017000    256.89279   -3866.4337   -3426.1283   -3866.4337            0    12361.119    16.821158    19.813102    20.521773    6839.4823    12208.315    13125.172    11749.869   -439.36336   -1738.8503    888.33088   -2193.1458 
21018000    253.84593   -3896.7238   -3461.6405   -3896.7238            0    10364.649    16.817228    19.808473    20.516979      6834.69    10949.861    10007.135    10136.952   -2122.3373   -1433.7634   -457.44201    -2428.524 
21019000    261.65959    -3890.229   -3441.7534    -3890.229            0    9196.3849    16.900711    19.906805    20.618828     6936.981    9207.4909    9200.1649    9181.4989   -230.29746   -361.74717   -1304.7786   -2511.3666 
21020000    267.01775    -3924.345   -3466.6857    -3924.345            0    8175.1231    16.954169    19.969772    20.684047    7003.0164    6607.6941    8038.0576    9879.6177   -1184.7865   -384.56633   -786.02494   -2631.7456 
21021000    261.79238    -3920.748   -3472.0448    -3920.748            0    9379.1194    16.940459    19.953624    20.667321    6986.0413    8576.8839    11002.686    8557.7878    6.5464776    136.40343   -1098.9773   -2516.4603 
21022000    266.33664   -3884.3987   -3427.9068   -3884.3987            0    9101.5351    16.912384    19.920554    20.633068    6951.3642    9068.0468     8395.401    9841.1576    74.907359    15.359598   -678.08834   -2505.2066 
21023000    249.96278   -3908.1921   -3479.7644   -3908.1921            0     9380.415    16.899472    19.905345    20.617316    6935.4553    8128.8162    9271.4111    10741.018   -712.12967    263.24222    -306.9887   -2530.9683 
21024000      268.567   -3852.7216   -3392.4069   -3852.7216            0    8983.1729     16.93411    19.946145    20.659575    6978.1893    9239.7517    9416.1663    8293.6008    1375.9759   -855.94531    307.86027   -2478.1918 
21025000    262.83587   -3885.6875   -3435.1958   -3885.6875            0    8069.1106    16.937462    19.950093    20.663665     6982.334    8882.7772    7330.3236    7994.2311    627.98876   -599.25476    516.21754   -2613.5168 
21026000    278.78213   -3892.1899   -3414.3669   -3892.1899            0    7585.1524    16.998391    20.021859    20.737997    7057.9569    8522.4628    7888.6063    6344.3881    1281.6732   -367.07714   -998.50264   -2633.6039 
21027000    260.49533   -3856.3308   -3409.8507   -3856.3308            0    9180.6068    16.982754    20.003441     20.71892    7038.4971    7656.2864     9571.412    10314.122    590.92788   -573.77196    994.38538   -2467.4683 
21028000    256.53474   -3869.7929   -3430.1011   -3869.7929            0    10256.668    16.934296    19.946364    20.659802     6978.419    8769.4125    10744.564    11256.027   -555.20977   -251.25998    -865.9331   -2386.2484 
21029000    251.08846   -3870.8796   -3440.5225   -3870.8796            0    9745.7195    16.960014    19.976656    20.691177     7010.261    12634.435    9631.5141    6971.2094    204.25367    95.309951   -248.06838   -2444.1449 
21030000    265.60618   -3860.8765   -3405.6366   -3860.8765            0    9109.4267     16.98824    20.009903    20.725613    7045.3203    9462.9031    9530.0426    8335.3344   -1087.7484    19.143212   -24.657307   -2469.6542 
21031000    261.33043   -3832.0763   -3384.1649   -3832.0763            0    7990.9988    16.974576    19.993808    20.708943    7028.3335     7870.921     9146.666    6955.4094    140.39688    539.29069   -65.674122   -2565.0793 
21032000    260.45991   -3890.8283   -3444.4089   -3890.8283            0     8129.867    16.970897    19.989475    20.704455    7023.7652    9233.2966    8229.6146    6926.6897    1207.7316   -249.07961    390.85789   -2611.6308 
21033000    257.60904   -3878.4266   -3436.8935   -3878.4266            0    10516.784    16.798637    19.786575    20.494298    6812.0482    8317.1249    11239.065    11994.161   -2104.6278    184.30093   -1639.0065   -2392.0854 
21034000    261.57642    -3908.963     -3460.63    -3908.963            0    9557.8216    16.782831    19.767958    20.475014    6792.8375    10056.317    9311.2276    9305.9202     340.0795   -1183.3273   -468.32684   -2513.7694 
21035000    250.97087   -3904.4987   -3474.3432   -3904.4987            0    10556.329    16.787889    19.773916    20.481185    6798.9815    11848.003    10234.576    9586.4091   -1216.8261    539.90957   -150.28006    -2427.618 
21036000    254.02969   -3875.5185   -3440.1203   -3875.5185            0    10308.267    16.796399    19.783939    20.491567    6809.3259    10452.637    10136.676    10335.489    565.46893   -127.26297    1958.2004   -2416.4368 
21037000    261.50111    -3858.913    -3410.709    -3858.913            0    9987.4621    16.864691    19.864378    20.574883    6892.7217    7905.3551    10013.744    12043.288    1655.5664   -468.13576   -1422.5601   -2406.7366 
21038000     273.3741   -3901.0215   -3432.4676   -3901.0215            0    8962.6019    16.879566    19.881899    20.593031    6910.9768     10503.24    8146.6192    8237.9464   -691.92483    -611.1277    85.156016   -2529.1314 
21039000      265.034   -3882.6443   -3428.3851   -3882.6443            0    7257.8931    16.973429    19.992458    20.707544    7026.9098    7547.6657    7844.2591    6381.7544    1841.0027    732.26612    -393.0415   -2684.5942 
21040000    259.31846   -3893.4332   -3448.9703   -3893.4332            0    9134.1204    16.961318    19.978192    20.692768    7011.8784    10989.496    8356.9066     8055.959    284.10826   -9.3567326   -744.47203   -2514.9055 
21041000    244.23053   -3838.5141   -3419.9113   -3838.5141            0    9719.7491    16.939117    19.952042    20.665683    6984.3801    11125.152    8345.3508     9688.744    171.87932     801.8347    427.53504   -2429.8575 
21042000    246.30145   -3857.7469   -3435.5946   -3857.7469            0    8706.1643    16.924959    19.935367    20.648411    6966.8828    7012.2007    8353.5494    10752.743    -7.302557   -368.18882   -1512.9612   -2551.0062 
21043000    263.98559   -3871.9567   -3419.4945   -3871.9567            0    10502.131     16.90524     19.91214    20.624354    6942.5598    9309.0837    9733.2756    12464.032      806.338   -734.48557    374.01835   -2356.1526 
21044000    265.04948     -3911.23   -3456.9443     -3911.23            0    8439.4899    16.985919    20.007169    20.722782    7042.4333    8629.1332    7728.4736    8960.8628    193.84675   -1009.4098   -754.33395   -2590.1524 
21045000    249.08075   -3945.5691   -3518.6532   -3945.5691            0    9724.9408    16.939774    19.952816    20.666485    6985.1933    8277.3999    9498.5114    11398.911    229.22446    241.00339    1194.0824   -2527.9552 
21046000    259.60919   -3887.2965   -3442.3352   -3887.2965            0    9780.2823    16.962915    19.980074    20.694717    7013.8597    7766.5603    11516.479    10057.807   -899.56117   -1277.9457   -405.25154   -2441.9107 
21047000    265.52427   -3912.7611   -3457.6616   -3912.7611            0    8697.4634    16.934494    19.946597    20.660043    6978.6639    9376.4297    7369.9465    9346.0138   -1022.2515    1199.9722    348.97469   -2572.4629 
21048000    254.57653   -3872.6182   -3436.2828   -3872.6182            0    9188.6859    16.953509    19.968995    20.683242    7002.1985    10585.001    8428.1855    8552.8711    1191.4161    355.23908   -381.02024   -2497.9352 
21049000    271.62029   -3907.7484   -3442.2005   -3907.7484            0    7865.6593    16.986638    20.008016    20.723659    7043.3279    7234.9031    7766.0522    8596.0226    -673.1822   -589.10691    777.61171   -2634.2422 
21050000    255.47566   -3899.4256    -3461.549   -3899.4256            0    10059.531    16.917487    19.926565    20.639295    6957.6592    9933.2597    9894.5954    10350.738   -498.07322    1843.0609   -447.24745   -2440.8052 
21051000     267.5948   -3842.3142   -3383.6659   -3842.3142            0    9046.8642    16.950298    19.965212    20.679324    6998.2199    9023.9673    8719.2095    9397.4157    417.20577    1108.2316   -1786.5116   -2460.3261 
21052000    254.48342   -3862.1728   -3425.9969   -3862.1728            0    11596.789    16.841192      19.8367    20.546215    6863.9497    11830.177    11359.571    11600.617   -1716.1625   -103.72684   -843.57584   -2265.1159 
21053000    256.22021   -3887.2742   -3448.1215   -3887.2742            0    9737.7378    16.883221    19.886205    20.597491    6915.4672    6893.4356    10733.296    11586.482    1031.1205   -511.17295     2094.238    -2466.022 
21054000    259.05719   -3858.0043   -3413.9891   -3858.0043            0    8035.3719    16.977007    19.996672    20.711909    7031.3545    7097.2509    8974.8016    8034.0633    1449.5863   -1026.4096    467.23448   -2590.0012 
21055000    253.23876   -3853.2221   -3419.1795   -3853.2221            0    8513.7559    16.897242    19.902719    20.614595    6932.7101    8932.8001    9570.5939    7037.8737   -269.87049   -907.07032   -1237.0426   -2558.3837 
21056000    273.44281   -3834.5654   -3365.8938   -3834.5654            0    9470.5729    16.867058    19.867166    20.577771    6895.6241    8455.4402    10064.368    9891.9105   -921.23312   -728.43853    91.094271   -2413.4799 
21057000    266.60959   -3878.0884   -3421.1287   -3878.0884            0    8902.6042    16.931668    19.943269    20.656596    6975.1708     9369.604    8392.0611    8946.1475    838.98588   -40.427186    366.26277   -2515.5049 
21058000    262.77297    -3875.498   -3425.1141    -3875.498            0    10574.404    16.960279    19.976968    20.691501    7010.5899    8898.8717    11344.913    11479.426   -453.12483    146.04493    321.78305   -2343.9631 
21059000    261.04504   -3862.7221   -3415.2998   -3862.7221            0     9231.436     16.89503    19.900114    20.611897    6929.9884    7985.3602    9768.5119    9940.4359   -1097.2129   -1342.6475   -1035.5369   -2482.3084 
21060000    252.27514   -3902.9406   -3470.5496   -3902.9406            0    7842.1423     16.92113    19.930856    20.643739    6962.1548     9462.991    7272.2164    6791.2195   -310.82699   -376.46544    351.34234   -2674.2907 
21061000    249.06977   -3873.4565   -3446.5595   -3873.4565            0    8845.7899    16.945893    19.960023     20.67395    6992.7653    8747.1357    8952.2824    8837.9516   -446.45522   -892.51332     1118.469   -2544.4454 
21062000    263.31894   -3842.0789   -3390.7593   -3842.0789            0    9972.1859    16.934045    19.946068    20.659495     6978.108    9489.4497     11211.87    9215.2375   -440.38506   -377.75884    764.27981   -2375.9044 
21063000    264.22751   -3834.6734   -3381.7965   -3834.6734            0    8160.8019    16.977667    19.997449    20.712714    7032.1737    9141.6891    4429.6483    10911.068    153.22567   -468.25881   -378.43913   -2544.8488 
21064000    256.01785   -3847.9472   -3409.1413   -3847.9472            0    8926.4668    16.944677    19.958591    20.672466    6991.2603    7798.0956    7913.2678    11068.037    376.44621   -778.72744    280.79101   -2498.9956 
21065000    245.00931   -3894.3621   -3474.4245   -3894.3621            0    10091.372    16.808752     19.79849    20.506639    6824.3615    11381.389    9954.1647    8938.5613    1342.6432     119.9397   -1548.2906   -2470.0675 
21066000    259.87687   -3874.9481    -3429.528   -3874.9481            0     9284.075    16.879154    19.881414    20.592528    6910.4703    8863.4986    9599.4752    9389.2511    1223.7657    564.63433   -343.96935   -2493.8593 
21067000    241.71701   -3915.2454   -3500.9507   -3915.2454            0    8511.9799    16.860854    19.859858    20.570202    6888.0178      8841.14    9629.6987    7065.1011   -285.82983   -779.61016    850.33193   -2645.8825 
21068000    255.59095   -3905.6077   -3467.5335   -3905.6077            0    10712.175    16.840768    19.836201    20.545698    6863.4315    12117.914     11461.51    8557.1015   -1156.5509   -583.56835   -1074.8607   -2395.2865 
21069000      242.179   -3925.8761   -3510.7896   -3925.8761            0    8863.4019    16.813369    19.803928    20.512271    6829.9861    10384.419    8107.4663    8098.3205    457.78408   -427.94993   -1464.5454   -2627.9208 
21070000    256.82132   -3893.5785   -3453.3955   -3893.5785            0    12326.651    16.789236    19.775502    20.482829    6800.6183    13425.288    13339.138    10215.527    729.88922   -334.23061    374.64257   -2230.8378 
21071000    251.04791   -3904.4983   -3474.2108   -3904.4983            0    6573.6337    16.897059    19.902503    20.614372     6932.485    8980.5398    5781.0931     4959.268   -976.75292   -417.64383    378.30801   -2809.5955 
21072000    283.46731   -3880.1461   -3394.2928   -3880.1461            0    10204.865    16.825978    19.818779    20.527653    6845.3634    10279.671    10252.514     10082.41   -1681.9724    26.653073    1652.8233   -2375.5146 
21073000    253.26428   -3922.6966   -3488.6103   -3922.6966            0    9252.4639    16.808142    19.797771    20.505894    6823.6183    10336.331    8317.4746    9103.5863   -1489.8773   -62.747302   -505.91135    -2567.847 
21074000    255.41146   -3903.5596   -3465.7931   -3903.5596            0     8898.052    16.878974    19.881202    20.592309    6910.2499    10075.722    6579.8685    10038.565   -1034.7223   -858.84272   -577.31806   -2569.0572 
21075000    249.75431   -3882.3099   -3454.2396   -3882.3099            0    9460.7971    16.871442    19.872331     20.58312    6901.0032    9858.6147    10233.568    8290.2081    -1058.113    89.141419   -1090.1517   -2502.0666 
21076000    250.73626   -3897.7457   -3467.9923   -3897.7457            0    9037.3806    16.851122    19.848396    20.558329    6876.0978    8958.5338    8814.7312    9338.8768   -592.50947    918.95279   -1473.3087   -2561.7163 
21077000    258.67088   -3936.2182   -3492.8651   -3936.2182            0    9018.7916    16.895013    19.900094    20.611877    6929.9675    10467.354    8185.4728    8403.5478    -466.1267    1231.7554     823.6336   -2581.3677 
21078000    279.66917    -3892.575   -3413.2316    -3892.575            0     9680.167    16.937151    19.949726    20.663284    6981.9485    10923.111    8500.9918     9616.398    676.16477   -456.04298    1296.3178   -2427.5529 
21079000     253.6048   -3906.4352   -3471.7652   -3906.4352            0      9317.72    16.939776    19.952819    20.666487     6985.196    7589.9823    8564.4524    11798.725    1091.9343   -1803.7294    667.34189   -2522.5512 
21080000    260.66086   -3861.2385   -3414.4747   -3861.2385            0    9395.3698    16.962367    19.979428    20.694048    7013.1793    9955.7617    11323.973    6906.3746   -280.30173   -475.20527   -1261.5041    -2453.516 
21081000    256.48404   -3893.8632   -3454.2583   -3893.8632            0    8256.1369    16.959316    19.975834    20.690325    7009.3953    9592.1924    6294.3105    8881.9079    378.58083    291.59996   -2399.0797    -2610.276 
21082000    253.53335   -3908.1346   -3473.5871   -3908.1346            0    8725.5555    16.911123    19.919069    20.631531      6949.81    7556.0594    9924.6048    8696.0022   -1839.2626   -436.05743   -75.342292    -2589.201 
21083000     242.0618   -3871.0061   -3456.1205   -3871.0061            0    8378.5197    16.892223    19.896808    20.608473    6926.5351    6939.6235    9377.8349    8818.1009   -1244.6449    -890.1315   -629.93813   -2609.7525 
21084000    275.03237   -3866.9348   -3395.5387   -3866.9348            0    9725.2384     16.84887    19.845744    20.555582    6873.3419    11068.004    8738.0297    9369.6814   -94.058486    -914.7522   -278.72757   -2420.6746 
21085000    246.61345   -3882.7019   -3460.0149   -3882.7019            0    10250.615    16.861986    19.861192    20.571583    6889.4052    10324.427     9820.681    10606.735    391.76922   -1627.3539   -242.96605   -2430.0854 
21086000     254.2674   -3888.8624   -3453.0568   -3888.8624            0    9139.6676    16.938535    19.951357    20.664973    6983.6604    11071.576    8605.3444    7742.0819    26.152738    772.98365    493.76546    -2522.186 
21087000     261.1103   -3929.0241   -3481.4899   -3929.0241            0    7253.4093    16.903087    19.909604    20.621727    6939.9077    8432.1419    6898.5365    6429.5495   -592.38825   -530.85783   -1896.0277    -2747.362 
21088000    269.50814   -3882.3891   -3420.4614   -3882.3891            0    10406.061    16.835073    19.829492     20.53875    6856.4705     10609.54     10743.08    9865.5642    1203.5874   -1842.2669   -1933.4297   -2379.9115 
21089000    248.87267    -3901.214   -3474.6548    -3901.214            0    10424.167    16.798292    19.786169    20.493877    6811.6285    10928.852    9034.0149    11309.635    440.87701   -1556.8058   -1126.7338   -2439.1116 
21090000    265.71383   -3906.9575    -3451.533   -3906.9575            0    11489.882    16.810029    19.799993    20.508196    6825.9161    11202.185    11800.951    11466.509    254.77652    251.86209    114.33881    -2307.727 
21091000    244.32481   -3908.9158   -3490.1515   -3908.9158            0    7959.0751    16.968684    19.986869    20.701755    7021.0181    7888.7007    8949.8989    7038.6258    1838.5989    1392.0638    98.247935   -2675.1872 
21092000    262.19091   -3883.2965   -3433.9103   -3883.2965            0     9362.061    16.866365     19.86635    20.576926    6894.7747    8344.7606    8987.3644    10754.058    380.99463    612.35155   -395.26605   -2492.5249 
21093000      251.461   -3913.1186    -3482.123   -3913.1186            0     9365.904    16.902291    19.908667    20.620756    6938.9274    9859.9476    10586.314    7651.4508   -719.40638   -630.16392   -2230.9486   -2534.3204 
21094000    253.11755    -3903.647   -3469.8122    -3903.647            0    8460.4973    16.903117    19.909639    20.621763    6939.9442    8554.6547     7585.235    9241.6023   -821.69314    1559.3779   -1305.9617   -2613.5086 
21095000    249.36271   -3902.1896   -3474.7905   -3902.1896            0    10550.252    16.846682    19.843166    20.552913    6870.6644    11485.426    10559.512    9605.8185   -393.29901    219.58793   -94.007224   -2417.6384 
21096000    265.62703   -3870.4367   -3415.1611   -3870.4367            0    8084.2506    16.921532     19.93133     20.64423    6962.6513    8492.7492    7768.6773    7991.3254   -897.87003   -203.31958   -904.72525    -2594.261 
21097000    268.17324   -3895.6293   -3435.9896   -3895.6293            0    7982.0238    16.941176    19.954468    20.668196    6986.9281    7129.4553     6884.531    9932.0852   -107.96908   -103.06364   -1356.2364   -2622.6438 
21098000    256.32661    -3906.033    -3466.698    -3906.033            0      7142.97    16.908814    19.916349    20.628713    6946.9635    5738.0563    8351.6013    7339.2523   -493.64534   -1102.9524    163.99098   -2743.0127 
21099000     258.6596   -3901.5739   -3458.2402   -3901.5739            0    10269.682    16.883853    19.886948    20.598261    6916.2431     10163.81    7905.6137    12739.621   -1414.8811    346.60295    576.67029   -2422.3753 
21100000    251.28565   -3866.5173   -3435.8223   -3866.5173            0    10486.945    16.863317     19.86276    20.573207    6891.0369    10829.983    8921.2429     11709.61   -204.47635   -8.5884081    1397.1924   -2381.8979 
21101000    255.37309   -3912.8855   -3475.1848   -3912.8855            0    10495.919    16.863262    19.862695     20.57314    6890.9696    10502.326    10715.411     10270.02   -180.85004   -1710.1472   -1829.4242   -2420.3688 
21102000    254.36842   -3890.4853   -3454.5065   -3890.4853            0    6160.9531    16.984362    20.005335    20.720882    7040.4965    6408.0965    7542.5122    4532.2507    1067.0976   -856.04701   -354.88251   -2821.9096 
21103000     254.6156   -3878.2847   -3441.8823   -3878.2847            0    8772.0098    16.908523    19.916007    20.628359    6946.6054    9710.6829    8301.1088    8304.2377    1269.0962    144.36845    725.60667   -2553.1977 
21104000     262.6037   -3886.9527   -3436.8589   -3886.9527            0    9682.9764    16.896093    19.901366    20.613194    6931.2967    10170.026    10382.533    8496.3703   -1135.6327   -747.45347    305.64402    -2458.047 
21105000    257.79915   -3874.9643   -3433.1054   -3874.9643            0    9257.2228    16.924701    19.935062    20.648095     6966.563    9152.1972    8574.7103    10044.761   -359.16713   -689.67686   -605.49357     -2492.57 
21106000    242.71893   -3891.4715   -3475.4596   -3891.4715            0    9732.0179    16.918265    19.927482    20.640244    6958.6195    10920.063    11093.076    7182.9143    641.85475    1371.2468    38.211193   -2487.8123 
21107000    247.65795   -3895.0915   -3470.6142   -3895.0915            0    7910.6446    16.908185    19.915608    20.627946    6946.1879    7743.1001    9514.5221    6474.3117    1045.3151    243.73856   -1181.1261    -2669.242 
21108000    260.94349   -3888.4304   -3441.1822   -3888.4304            0    10651.814    16.861307    19.860393    20.570756    6888.5741    12124.797    9963.2158    9867.4278    661.64593   -350.15062    1197.4638   -2371.0714 
21109000    259.60667   -3904.0634   -3459.1065   -3904.0634            0    10439.514      16.9129    19.921162    20.633698    6952.0006      12366.9     8707.171     10244.47    275.55776    3.7060177    535.08986   -2400.6672 
21110000     255.2706   -3889.8006   -3452.2755   -3889.8006            0    9101.3522     16.92293    19.932976    20.645935    6964.3771    7865.0811    10100.209    9338.7668    743.58163    16.976508    480.40146   -2527.8666 
21111000    257.17976   -3887.8877   -3447.0904   -3887.8877            0    7917.0005    16.952678    19.968015    20.682227    7001.1681    8944.3468    6845.2993    7961.3553   -1398.0253   -874.91864   -945.85672   -2638.7262 
21112000    256.70041   -3895.6114   -3455.6357   -3895.6114            0    6925.0634    17.002098    20.026226     20.74252    7062.5762    8274.3789     6445.226    6055.5853    14.454652    795.44418   -1348.9094   -2742.3512 
21113000    257.94445    -3893.672    -3451.564    -3893.672            0    8661.7342    16.918915    19.928247    20.641037    6959.4215    9457.9206    6674.0829    9853.1993   -223.98542   -393.64454    1132.8314   -2572.4324 
21114000    268.78823   -3858.5124   -3397.8186   -3858.5124            0     9258.791    16.894302    19.899256    20.611008    6929.0918    8922.6125    9913.2255    8940.5352   -547.94701   -1244.6649      1175.58   -2462.1835 
21115000    270.69914   -3881.1805   -3417.2114   -3881.1805            0    10427.214    16.891754    19.896255      20.6079    6925.9573    9639.5655     10213.08    11428.996    615.82061   -682.83036    656.22566   -2363.9795 
21116000    247.91136   -3895.6865   -3470.7749   -3895.6865            0    8974.3928    16.879855    19.882239    20.593383    6911.3313    5650.7045     10057.11    11215.363   -1475.5598   -621.57625   -303.75116   -2566.2038 
21117000    245.63307   -3940.1664   -3519.1597   -3940.1664            0    7718.6318    16.930719     19.94215    20.655438    6973.9975    8783.8432    7811.2231     6560.829   -226.13865   -782.40572    560.75515   -2734.1085 
21118000    266.14494    -3946.764   -3490.6007    -3946.764            0    9760.9182    16.920763    19.930424    20.643291    6961.7017    8421.3342     11522.15    9339.2704    1015.1646   -2510.8728   -26.501189   -2499.5817 
21119000    267.00968   -3931.5883   -3473.9428   -3931.5883            0    7608.5339    16.935119    19.947333    20.660805    6979.4358    5289.1331    8572.6572    8963.8114   -325.71462   -272.30115   -312.40151   -2699.4861 
21120000    256.45118   -3940.6197   -3501.0712   -3940.6197            0    9425.4114    16.879274    19.881555    20.592675    6910.6177    11314.445    7778.6778    9183.1111   -383.77958   -1796.9361    747.59222    -2551.138 
21121000    256.89739   -3933.5156   -3493.2023   -3933.5156            0    9450.8246    16.876574    19.878375    20.589381    6907.3018    11227.942    8999.9259     8124.606   -423.24437   -1452.0338   -34.906995   -2541.1649 
21122000    265.82872   -3886.6716   -3431.0503   -3886.6716            0    8330.8949    16.937751    19.950433    20.664016    6982.6906    9939.2598    9944.0668     5109.358    1206.3295    205.49396    1329.0489   -2582.6704 
21123000    236.54299   -3902.9332   -3497.5066   -3902.9332            0    6751.3725    16.960761    19.977536    20.692089    7011.1877      6567.33    7273.0998    6413.6879    585.61072   -466.06747    496.59676   -2807.1721 
21124000     267.4987   -3897.4015   -3438.9178   -3897.4015            0    9571.0112    16.900016    19.905986    20.617979    6936.1248    9344.3009    9134.1499    10234.583    1262.1955   -332.21727   -1364.4307   -2470.7501 
21125000    284.60695   -3917.5175    -3429.711   -3917.5175            0    7866.8537    16.925434    19.935925     20.64899    6967.4684    7220.9719    6508.4447    9871.1444    1290.1891    49.831945    1020.9568   -2630.3334 
21126000    269.85887   -3909.7416   -3447.2127   -3909.7416            0    9406.8342    16.845262    19.841494    20.551181    6868.9276    9797.8597    8415.5104    10007.133    1160.1006    118.90476    1030.7722   -2504.8712 
21127000    270.03511    -3898.982    -3436.151    -3898.982            0    10529.992    16.811941    19.802246    20.510529     6828.246    10506.449     11633.84     9449.687   -571.08849   -21.459721   -175.34295   -2387.5432 
21128000    257.04697   -3917.1487   -3476.5789   -3917.1487            0    9259.3142    16.887803    19.891601     20.60308    6921.0988    8469.4557    9713.2669      9595.22   -260.93927   -389.70514    607.92041   -2541.9704 
21129000    260.90632   -3889.9388   -3442.7543   -3889.9388            0    9525.6049     16.87141    19.872293    20.583081    6900.9639    8762.7075    10775.681    9038.4266    1574.1129   -299.06689    403.68568   -2484.0643 
21130000    247.40809   -3929.3678   -3505.3189   -3929.3678            0    10514.577     16.87186    19.872823     20.58363    6901.5157    9501.2416    10889.415    11153.075   -1453.0696    2291.4593      1065.81   -2447.0106 
21131000    252.18742   -3934.0533   -3501.8127   -3934.0533            0     9367.743    16.854535    19.852416    20.562493     6880.277    9252.2235    9315.2637    9535.7419    580.86311    218.30498   -174.55754   -2561.8367 
21132000    262.82838    -3882.334   -3431.8552    -3882.334            0    10736.422    16.869125      19.8696    20.580293    6898.1594    11498.438    9323.4066    11387.422   -1038.6606   -164.25496   -469.17987   -2351.7434 
21133000    258.52309   -3908.4056   -3465.3059   -3908.4056            0     7635.223    16.988616    20.010346    20.726072    7045.7882    6586.7356     8203.279    8115.6543   -1208.6113     729.5667   -291.68826    -2680.744 
21134000      245.252   -3893.6811   -3473.3276   -3893.6811            0    7569.6795    16.970132    19.988574    20.703521    7022.8152    6662.3764    8254.9223    7791.7398    820.93294   -357.74694   -1103.5972   -2698.0368 
21135000    247.29038   -3889.0037   -3465.1564   -3889.0037            0    9421.7214    16.870939    19.871738    20.582507    6900.3861    8851.9277    10303.829    9109.4072    853.95835     -1019.02   -738.35862    -2517.001 
21136000    254.06845   -3861.0687   -3425.6041   -3861.0687            0    8815.5063     16.91352    19.921892    20.634454    6952.7651     9319.494    7171.0687    9955.9562    -2286.711   -1128.9921    261.18121    -2531.721 
21137000    246.28213   -3857.7176   -3435.5984   -3857.7176            0    8914.9136     16.90748    19.914778    20.627086    6945.3195    10379.889    7564.2276    8800.6239    439.00926   -650.04915   -322.64361   -2532.6036 
21138000    266.71775    -3870.286   -3413.1409    -3870.286            0    8704.8784    16.903777    19.910417    20.622569    6940.7573    8246.1528    8181.5519    9686.9305    -680.8055    427.44012    462.23281   -2531.9998 
21139000    248.63682   -3901.4672   -3475.3122   -3901.4672            0    10263.829    16.864529    19.864187    20.574686     6892.523     9181.307    9119.9672    12490.213   -91.605138   -1336.3583    -675.1878   -2443.5882 
21140000    255.95506   -3877.3738   -3438.6756   -3877.3738            0    7778.9335    16.883655    19.886716     20.59802    6916.0006    7019.9531    8909.4567    7407.3907    506.77745    560.83221     1906.639   -2654.0708 
21141000    251.51737   -3885.7677   -3454.6755   -3885.7677            0    8780.7826    16.885245    19.888588    20.599959    6917.9543    7245.6811    9799.5621    9297.1046    1179.9328    282.92451   -390.83973   -2568.7713 
21142000    260.07963   -3878.6599   -3432.8923   -3878.6599            0    9754.4263    16.887246    19.890945      20.6024    6920.4138    9857.8022    10813.015    8592.4622   -1066.0612   -692.65961     671.0636   -2448.4059 
21143000    238.93705   -3845.0134   -3435.4835   -3845.0134            0    9303.0462    16.907873    19.915241    20.627566    6945.8041    8721.4159     9774.396    9413.3267    152.31343    1123.9271   -785.37345   -2493.1088 
21144000    254.76176   -3867.1264   -3430.4734   -3867.1264            0    9028.2596    16.907335    19.914608     20.62691    6945.1414    9012.9131    9460.9964    8610.8694     1117.943    226.80302    -15.23879   -2516.0212 
21145000    264.33658   -3861.6387   -3408.5748   -3861.6387            0    8174.7931    16.890411    19.894673    20.606262    6924.3056     9847.081    6752.7738    7924.5243   -1147.5092    689.71647    77.869292   -2583.0524 
21146000    251.87485    -3878.876   -3447.1711    -3878.876            0    8484.5361    16.924374    19.934677    20.647697      6966.16    7610.4334    7760.1671    10083.008   -215.51287    388.54067   -567.79519   -2585.1906 
21147000    248.58197   -3881.6182   -3455.5572   -3881.6182            0    11739.359    16.864898    19.864622    20.575136     6892.976    10731.848    12115.148    12371.081    656.37645    979.96213   -808.35891   -2275.4348 
21148000    246.72987   -3908.5879   -3485.7014   -3908.5879            0    9478.5299    16.885986    19.889461    20.600863    6918.8648    8676.4559    9935.1058     9824.028   -985.10072    715.13465   -1198.5762   -2529.2746 
21149000    269.94896   -3869.1639   -3406.4807   -3869.1639            0    9010.6456    16.921317    19.931076    20.643967    6962.3856    8215.3446    10210.687    8605.9055   -976.95407     670.9289   -1124.2733   -2491.5464 
21150000    253.79738   -3899.0882   -3464.0882   -3899.0882            0     8234.513     16.89192    19.896451    20.608103    6926.1621    6003.7981    10038.535    8661.2055   -294.66465   -137.10789   -1583.0707    -2632.312 
21151000    258.71598   -3872.4979   -3429.0676   -3872.4979            0    10697.718    16.870034    19.870672    20.581402    6899.2755        10724    11922.323     9446.831   -17.972276   -462.95315    1104.6461   -2352.6755 
21152000    243.38866   -3910.4049   -3493.2451   -3910.4049            0    10609.241    16.905963    19.912991    20.625235    6943.4504     10799.97    9821.9152    11205.838   -774.84434   -455.47395    939.09946   -2418.9204 
21153000    262.69261   -3900.4299   -3450.1837   -3900.4299            0    7859.1035    16.923066    19.933137    20.646101     6964.545    8567.6375    7072.2835    7937.3895    651.03379     799.9884   -811.51259   -2651.9287 
21154000    256.05094    -3901.807   -3462.9444    -3901.807            0    10201.664    16.910986    19.918907    20.631363    6949.6407    10365.768    10538.037    9701.1874    142.59117    987.92599    1361.2325   -2428.9713 
21155000    260.06422   -3886.6194   -3440.8782   -3886.6194            0    8513.3075    16.925634    19.936162    20.649234    6967.7162    9017.8225     8340.146    8181.9539   -109.95134    455.14385    286.46655   -2575.7815 
21156000    242.06897   -3900.9014   -3486.0035   -3900.9014            0    8674.6841    16.902383    19.908774    20.620868      6939.04    7476.0761    9121.9813     9425.995    -569.2625    1274.5823    179.26796    -2608.136 
21157000    250.17802   -3879.0214   -3450.2249   -3879.0214            0    10330.369    16.943462     19.95716    20.670984    6989.7565    9974.2955    8792.7067    12224.106   -1395.4462   -1277.5438    520.23386   -2397.1633 
21158000    253.77578   -3888.3806   -3453.4176   -3888.3806            0    8891.1473    16.919727    19.929204    20.642027    6960.4232    8370.4753    9780.5943    8522.3723    -1466.276   -603.22486    181.13627   -2550.8716 
21159000    270.20217   -3901.0333    -3437.916   -3901.0333            0    10155.395    16.934333    19.946407    20.659847    6978.4646    11118.373    11624.258    7723.5535    978.97947    368.09168    1596.9679   -2404.3634 
21160000    269.46646   -3876.7647   -3414.9084   -3876.7647            0    9868.0309    16.941148    19.954434    20.668161    6986.8926    11763.057    10167.692    7673.3437    638.28726    147.78195   -1086.1687    -2409.389 
21161000    251.23446   -3909.2073      -3478.6   -3909.2073            0    10229.372    16.912375    19.920544    20.633058    6951.3535    9138.4126    11019.501    10530.204     536.3207   -1899.6264   -1299.6231    -2441.563 
21162000    248.49238   -3877.8204    -3451.913   -3877.8204            0    8929.4077    17.010538    20.036167    20.752817    7073.0992    8054.9448    8943.1301    9790.1482   -49.779157   -874.30976   -247.39912   -2530.8098 
21163000    257.17987   -3865.9538   -3425.1563   -3865.9538            0    9102.2427    16.982424    20.003052    20.718517    7038.0864    11893.729    6802.8679    8610.1311   -1478.4551   -896.97419    637.30754   -2490.8724 
21164000    251.46276   -3868.4729   -3437.4744   -3868.4729            0    9454.4917    16.939389    19.952363    20.666015    6984.7171    8979.7845    9799.7398    9583.9509   -390.87614   -294.58397    742.05293   -2474.3932 
21165000    259.00961   -3875.3824   -3431.4488   -3875.3824            0    8486.1824    17.036551    20.066806    20.784552    7105.5974     8138.688    6015.2638    11304.595   -23.722702   -1757.1062    286.57644    -2552.044 
21166000    258.42117   -3861.3925   -3418.4675   -3861.3925            0    9575.7541    17.024649    20.052788    20.770032    7090.7161     8527.065    9402.4775     10797.72   -787.07481   -590.36629   -804.38321   -2428.2309 
21167000    243.01927   -3864.7278    -3448.201   -3864.7278            0    9399.6247    16.970243    19.988705    20.703657    7022.9537    10110.578    9426.6397    8661.6564    1597.8586    419.74112    760.15146   -2485.4673 
21168000    268.87558   -3850.5761   -3389.7325   -3850.5761            0    8414.4058    17.051822    20.084793    20.803183    7124.7221    8841.8739    7213.6594    9187.6842    2334.6918   -1.9301701    439.49805   -2515.4188 
21169000    265.75628   -3872.5163   -3417.0191   -3872.5163            0    9747.9456     17.02086    20.048324    20.765409    7085.9822    9274.8596    9860.7066    10108.271    184.76867   -502.21278     550.9591    -2409.649 
21170000    269.71821    -3906.273   -3443.9852    -3906.273            0    10023.334    17.017967    20.044917     20.76188    7082.3703    10706.399    10112.369    9251.2352   -1507.8036    670.64031   -157.84787    -2408.684 
21171000    248.98802   -3874.9615   -3448.2045   -3874.9615            0    7915.1954    17.023027    20.050878    20.768054      7088.69     7383.721    6903.9014     9457.964    593.38041    261.39498    1092.0267   -2629.9215 
21172000    254.28873   -3869.0986   -3433.2564   -3869.0986            0     8391.554    16.948847    19.963504    20.677554    6996.4237    9685.2568    8400.2724    7089.1328    1342.7243    262.16071    1069.2691   -2577.0187 
21173000    260.86358    -3880.836   -3433.7247    -3880.836            0    8796.2856    16.900248     19.90626    20.618264    6936.4115    9306.9038    7166.6937    9915.2593   -1811.8748     439.2326   -1796.0313   -2543.8885 
21174000    245.58646   -3882.5222   -3461.5955   -3882.5222            0    9196.3971    16.942234    19.955714    20.669486    6988.2373    10182.117    8444.3159    8962.7587    1555.0303    168.29632   -210.42299   -2524.3329 
21175000    257.29186   -3866.2539   -3425.2644   -3866.2539            0    11705.034     16.90064    19.906721    20.618741    6936.8936    10344.363    11450.711    13320.028   -1371.1528   -1371.4896    522.34027   -2241.0956 
21176000    253.93955   -3885.2298   -3449.9861   -3885.2298            0    10391.163    16.938893    19.951778     20.66541    6984.1032    9028.4199    12635.637    9509.4309    352.25627    1273.0547    121.62957    -2391.584 
21177000    257.92299   -3866.5571   -3424.4859   -3866.5571            0    9756.2162     16.95017    19.965061    20.679168    6998.0617    7643.4694    10488.468    11136.711    1988.5019   -1517.8044    1790.8741   -2428.7709 
21178000    252.05651   -3843.6792    -3411.663   -3843.6792            0    9525.4224     16.93866    19.951504    20.665125    6983.8147    9875.4925    10267.997    8432.7781     794.1342    989.81379    424.33715   -2441.4819 
21179000    248.23818   -3875.6158   -3450.1441   -3875.6158            0    5383.1112    17.042991    20.074392    20.792409    7113.6583    6442.4177    3481.8639    6225.0521    1048.7783    1120.6054    601.08281    -2891.671 
21180000     242.7764   -3857.7957   -3441.6852   -3857.7957            0    8395.6505    16.949527    19.964304    20.678384    6997.2658    8955.8748    7837.9438     8393.133   -93.759467   -754.25395   -1234.0103   -2584.9264 
21181000    268.13479    -3904.075   -3444.5011    -3904.075            0    10437.788    16.872307    19.873349    20.584175    6902.0638    11714.467    10408.927     9189.971   -1157.4708   -1384.4582   -53.092721   -2393.8384 
21182000    277.45612   -3910.8723    -3435.322   -3910.8723            0    7986.1272    16.926517    19.937201    20.650311    6968.8057    6879.5862    9882.5481    7196.2472     696.9782    -54.43448    205.74498   -2623.6689 
21183000    257.28049   -3936.9506   -3495.9806   -3936.9506            0    9555.4942    16.918865    19.928188    20.640976    6959.3596    9573.1027    10822.129    8271.2513   -1493.8533   -646.62376   -872.28029   -2526.1446 
21184000    253.17029   -3927.0715   -3493.1462   -3927.0715            0    7602.2302    16.939408    19.952385    20.666038      6984.74    5961.4413    7467.1778    9378.0716   -296.60479   -1594.5931   -821.22764    -2718.743 
21185000    258.97185   -3897.5188   -3453.6499   -3897.5188            0    10072.284    16.947339    19.961726    20.675714    6994.5555    11776.572     8409.352    10030.927    1129.1603   -128.84737    725.90414   -2426.1922 
21186000    276.30527   -3881.5569   -3407.9791   -3881.5569            0    10863.312    16.886384     19.88993    20.601349    6919.3545    10597.105    11156.745    10836.085    -882.3831   -305.06533   -1.5417719    -2311.744 
21187000    245.98849   -3863.6906   -3442.0748   -3863.6906            0    9183.0251    16.884555    19.887775    20.599117    6917.1057    8686.6668    8368.7138    10493.695   -948.47547      292.017    901.93434   -2515.7014 
21188000    261.55568   -3856.3175     -3408.02   -3856.3175            0    8450.4212    16.915758    19.924529    20.637186    6955.5265         9651    8621.8477    7078.4158   -1691.9711     713.4129     516.6481   -2550.8159 
21189000    259.89918   -3904.4933   -3459.0349   -3904.4933            0    9681.7334    16.904031    19.910715    20.622878    6941.0696    8971.9077    10593.356    9479.9364    97.240929   -994.07797    -363.8235   -2478.9688 
21190000    273.37216   -3857.2065    -3388.656   -3857.2065            0    9534.4292    16.868149    19.868451    20.579102    6896.9623    9695.6241    9974.3119    8933.3516    2562.8768   -899.57246   -932.59685   -2429.6343 
21191000    256.72085   -3870.6742   -3430.6635   -3870.6742            0    7912.1545    16.883401    19.886416     20.59771     6915.688    7368.3158    8584.8863    7783.2614    589.70409      354.447   -523.65456   -2632.6577 
21192000    261.15518   -3882.0326   -3434.4216   -3882.0326            0    7390.1229     16.89377     19.89863    20.610361    6928.4384    8690.5768    6700.7213    6779.0705   -139.72893    -84.20884   -501.73096   -2687.6927 
21193000    259.30483    -3890.691   -3446.2514    -3890.691            0    9743.5401     16.93257    19.944331    20.657696    6976.2854    12583.532    9823.1705    6823.9173   -309.93248   -787.32537    86.804746   -2454.9245 
21194000    272.68821   -3886.8269   -3419.4487   -3886.8269            0    10485.065    16.851508    19.848851    20.558801    6876.5709    9216.5224    11598.535    10640.137    144.55646    602.02319    367.04143   -2367.9253 
21195000    257.70223   -3896.5581   -3454.8653   -3896.5581            0    8261.1722    16.875604    19.877232    20.588197    6906.1112    8787.8696    9745.7235    6249.9237   -9.0846592    -1133.889   -314.94843    -2622.812 
21196000    261.56129   -3904.9036   -3456.5965   -3904.9036            0    9394.1236    16.852224    19.849694    20.559674    6877.4476    7678.0302    11859.332    8645.0085    44.230788   -1507.5726    1368.2813    -2514.361 
21197000    260.55907   -3886.0396   -3439.4503   -3886.0396            0    10373.379    16.859601    19.858383    20.568674    6886.4829    9142.1889    11451.928     10526.02   -1184.5088   -1661.8702   -651.41806   -2397.6281 
21198000    261.63151   -3898.0369   -3449.6094   -3898.0369            0    6903.5468    16.980212    20.000447    20.715819    7035.3373    7074.9337    7743.3996    5892.3072   -2070.9754   -105.21441    1665.8352   -2741.2836 
21199000    278.85592   -3881.7506   -3403.8011   -3881.7506            0    11919.992    16.838673    19.833733    20.543142    6860.8699    10211.296    10978.354    14570.325   -811.50146   -1007.7404    755.52284   -2211.1016 
21200000    257.74202   -3880.9963   -3439.2353   -3880.9963            0    9361.4548    16.913465    19.921827    20.634387    6952.6973    9995.0445    8759.6165    9329.7035    79.924756    359.82424    506.47614   -2490.0029 
21201000    249.84978   -3879.2209    -3450.987   -3879.2209            0    7829.2515    16.964258    19.981655    20.696355    7015.5251     7931.577    5430.6175     10125.56    546.08034   -989.36035    3143.3212   -2649.9431 
21202000    255.78035   -3860.7552   -3422.3565   -3860.7552            0    8967.4376    16.973748    19.992833    20.707933    7027.3055    8364.5529    9414.9527    9122.8073    70.958681   -607.48991    1121.6319   -2503.3193 
21203000    236.40758   -3879.4543   -3474.2598   -3879.4543            0    11278.674    16.919593    19.929045    20.641863    6960.2572     11597.34    12929.165    9309.5157    874.39977     698.1663    85.505531   -2329.3818 
21204000    252.41278   -3881.7178   -3449.0909   -3881.7178            0    7750.9553    16.935287    19.947531    20.661011    6979.6442    9156.3601     4118.785    9977.7209   -64.263701    1582.7977   -349.70446   -2660.1138 
21205000    248.33302   -3899.7327   -3474.0984   -3899.7327            0    9881.6113    16.928885    19.939991    20.653201    6971.7321    8242.8576    10853.322    10548.654    415.80058     308.3153   -452.02259   -2469.3801 
21206000    256.15494   -3893.0239   -3453.9831   -3893.0239            0     9805.788    16.905297    19.912206    20.624422    6942.6292    11937.374    10393.773    7086.2163    821.33461    386.84265   -438.06959    -2461.136 
21207000    254.21087   -3876.6853   -3440.9766   -3876.6853            0    8635.4968     16.95345    19.968925    20.683169    7002.1248     8942.424    7838.0557    9126.0106   -1645.2161   -1590.7048    814.17922   -2559.1299 
21208000    261.33851   -3847.4922   -3399.5669   -3847.4922            0    10466.048    16.875034    19.876561    20.587502    6905.4112    13019.658    10230.085    8148.4017    1854.5554   -749.65433    -610.5829   -2345.5486 
21209000    258.21893    -3884.763   -3442.1846    -3884.763            0     8238.841    16.899604    19.905502    20.617478    6935.6184    8668.4775    10749.772    5298.2734     672.2667   -952.10158   -355.43722    -2608.835 
21210000    272.80977   -3879.5608   -3411.9742   -3879.5608            0    8927.4688    16.921442    19.931223    20.644119    6962.5395    7265.4293    7220.8839    12296.093    1325.7093   -2496.7676    -31.89077   -2505.4657 
21211000    255.80255   -3904.4078    -3465.971   -3904.4078            0    9203.4148    16.954885    19.970615     20.68492    7003.9031    10167.287    9261.4284    8181.5291     -152.042    441.69532    41.386312   -2525.8905 
21212000     262.2739   -3892.4549   -3442.9264   -3892.4549            0    9935.8893    16.887842    19.891647    20.603128    6921.1467    10038.782    9164.2406    10604.645   -831.09593   -320.25479   -1549.7399   -2440.0193 
21213000    258.98734   -3871.9284    -3428.033   -3871.9284            0    9081.2573    16.938778    19.951643     20.66527    6983.9611     9395.139     9179.059    8669.5739     -250.949   -536.45405    -741.6311   -2503.0714 
21214000    247.27976   -3877.6737   -3453.8447   -3877.6737            0    8590.0028    16.994525    20.017306    20.733281    7053.1433    7528.1501    9315.8289    8926.0296   -19.442681   -762.55953    922.80938   -2570.2524 
21215000    247.00614   -3946.3224   -3522.9623   -3946.3224            0    9864.7054    16.915542    19.924274    20.636922    6955.2596    10085.086    9759.1998    9749.8308   -1326.9943    2015.1046    -31.63709   -2522.3327 
21216000     253.8656   -3890.6832   -3455.5662   -3890.6832            0    10103.112    16.935491    19.947771     20.66126    6979.8963    11113.807    8659.5984    10535.929    243.83029   -783.15532    980.07674   -2427.1237 
21217000    252.95189   -3940.4525   -3506.9016   -3940.4525            0    6823.7178    17.009873    20.035384    20.752006    7072.2699    3907.1366    9359.8508    7204.1659    1353.0852   -690.25128   -322.19437    -2803.091 
21218000    261.53033   -3886.6429   -3438.3888   -3886.6429            0    8442.0005    16.936334    19.948765    20.662288    6980.9391    8251.0135    8951.6539    8123.3342    768.06873    1550.5522    8.3841303   -2578.9102 
21219000    259.98957   -3875.2868   -3429.6736   -3875.2868            0    11205.578    16.885558    19.888957    20.600342    6918.3396    11367.668    10407.651    11841.414   -806.82096    7.6883886    1703.7784   -2299.0657 
21220000     249.1451   -3906.9877   -3479.9615   -3906.9877            0     9215.991    16.886493    19.890058    20.601482     6919.488    9328.7008    8360.2979    9958.9743    692.06278   -594.84045    159.59775   -2549.9424 
21221000    253.08174   -3883.7796   -3450.0061   -3883.7796            0     10931.32    16.910896    19.918802    20.631254    6949.5302     9535.299    13331.591     9927.069    811.90579    85.651379    480.09733   -2342.0975 
21222000    245.87113    -3875.114   -3453.6993    -3875.114            0    10384.247    16.899191    19.905015    20.616974    6935.1101    10648.722    12332.057    8171.9635    1191.7893   -893.26902    694.35161   -2403.4213 
21223000    254.18604   -3906.5522    -3470.886   -3906.5522            0    7569.8092    16.963882    19.981212    20.695896    7015.0587    7857.7462    6777.2984     8074.383   -1099.5714    507.56949   -422.70927   -2696.4383 
21224000    254.97365   -3873.0692   -3436.0531   -3873.0692            0    9396.5578    16.941601    19.954968    20.668713    6987.4534    8959.1971    9963.2553    9267.2211   -350.64117    1288.5418   -627.52145   -2478.4984 
21225000    241.52814   -3837.2458   -3423.2748   -3837.2458            0    10237.469    16.871048    19.871867     20.58264    6900.5198      11968.7    9532.3064    9211.4007    1361.0945     1959.541    1527.6303   -2393.0066 
21226000    258.51586   -3854.9902   -3411.9028   -3854.9902            0    10273.078    16.898306    19.903973    20.615894    6934.0206    8994.0954    11171.179     10653.96   -317.86255    130.78749   -537.41346   -2373.0319 
21227000    268.58638   -3825.9154   -3365.5675   -3825.9154            0    7626.3173    16.972482    19.991342    20.706388     7025.733    5622.2258     9594.535     7662.191    743.55203     -284.481   -1931.2215   -2584.1513 
21228000    261.59787   -3872.3657   -3423.9959   -3872.3657            0    7151.8917    17.001242    20.025218    20.741476    7061.5099    6676.3282    6715.2653    8064.0816   -1208.2446   -1136.7877    203.39003   -2687.4592 
21229000    270.76001   -3885.0717   -3420.9983   -3885.0717            0    9578.9657     16.93143    19.942988    20.656305    6974.8758    9828.6371    9543.5181    9364.7419   -1356.0093   -437.62457    321.98092   -2446.6124 
21230000    260.83435   -3854.6345   -3407.5734   -3854.6345            0     9260.433    16.951914    19.967116    20.681296    7000.2223    8409.6255    8546.4168    10825.257   -1186.3185   -928.94237    46.900982   -2462.1659 
21231000    259.89276   -3891.4577   -3446.0104   -3891.4577            0    9418.8213    16.964855    19.982359    20.697084    7016.2663    9009.5224    6878.7332    12368.208    966.78496   -1209.7331  -0.54818789   -2482.2291 
21232000    262.36093   -3901.0803   -3451.4026   -3901.0803            0    8602.0313    16.996629    20.019784    20.735848     7055.763    6835.9347    8964.1406    10006.019     763.6633    1867.4745   -373.19681   -2566.2444 
21233000    254.15843   -3896.1326   -3460.5138   -3896.1326            0    9131.4475     16.97459    19.993825     20.70896    7028.3513    9397.9642    9264.7763    8731.6019   -68.606737   -1525.6172    975.67617   -2524.5286 
21234000    254.48203   -3849.4446   -3413.2711   -3849.4446            0    8630.4473    16.947041    19.961376     20.67535    6994.1867    10507.494    8705.8971    6677.9513    615.36264   -1167.5936   -909.75548   -2532.9392 
21235000    255.18188   -3891.6271   -3454.2541   -3891.6271            0    8597.4466    16.937012    19.949563    20.663115    6981.7769    9081.4755    8609.6524    8101.2119    832.61637    708.71103    469.12123   -2578.8445 
21236000      267.395   -3895.4766   -3437.1707   -3895.4766            0    8927.9073    16.913167    19.921477    20.634024    6952.3306    8670.5298    7532.1621     10581.03   -808.62588    326.71814    26.241926   -2531.9469 
21237000    252.16544   -3865.9494   -3433.7465   -3865.9494            0    9267.3425    16.910093    19.917856    20.630274    6948.5403    9105.9188    8617.8344    10078.274    1007.0858   -420.39037   -2618.7625   -2494.6187 
21238000      242.347   -3835.1202   -3419.7457   -3835.1202            0    9166.5752    16.953611    19.969115    20.683366    7002.3247    9514.5269    9410.6929    8574.5058    1818.8166   -142.21136    479.14203   -2483.6393 
21239000    266.36195    -3878.983   -3422.4477    -3878.983            0    9277.7626    16.949818    19.964647    20.678738    6997.6256    9181.3415    8626.2227    10025.724    69.388501   -562.35256   -1035.9495   -2475.6224 
21240000     255.0037   -3845.4725   -3408.4049   -3845.4725            0    10666.146    16.901556      19.9078    20.619859    6938.0216    11035.356    11369.652    9593.4308    764.03858   -1171.0247     467.4995   -2329.1623 
21241000    252.76985   -3877.9043   -3444.6654   -3877.9043            0    7913.3019    16.932198    19.943893    20.657242    6975.8255    9070.8693    6789.4416    7879.5947    946.90816    125.22098    679.89267   -2639.6036 
21242000     264.3835   -3865.5316   -3412.3874   -3865.5316            0    8674.1183    16.912855    19.921109    20.633643    6951.9455     9096.563    9290.3971    7635.3949    1055.7228    396.65169   -354.59409   -2532.9446 
21243000    264.69608   -3858.3374   -3404.6574   -3858.3374            0    9458.0161    16.902279    19.908652     20.62074    6938.9117    9839.8198    11707.182    6827.0461   -1153.0117   -22.911308   -2510.6128   -2447.5354 
21244000    253.44335   -3855.9119   -3421.5186   -3855.9119            0    10945.178    16.834282     19.82856    20.537784    6855.5033    10713.785    11201.011    10920.736    241.03481    94.579437   -1423.3718   -2327.2145 
21245000    265.48244   -3861.0398    -3406.012   -3861.0398            0    10221.851    16.921204    19.930944     20.64383    6962.2467    11593.816    9800.3922     9271.345   -483.30603    793.53113   -576.98104   -2368.1136 
21246000    252.99942   -3880.7485   -3447.1162   -3880.7485            0     8663.844    16.930216    19.941558    20.654824    6973.3761    7986.3143    7700.3578     10304.86   -1119.8576    250.16368   -1533.1985   -2566.0072 
21247000    252.67965   -3874.6382   -3441.5539   -3874.6382            0    8991.7846    16.954056    19.969639    20.683909    7002.8762    10426.675    9717.6104    6831.0686    -490.0217    282.11053    363.10525   -2523.2251 
21248000    264.37924   -3861.4405   -3408.3035   -3861.4405            0    8498.5507    16.948999    19.963682    20.677739    6996.6115     9112.151     6766.455    9617.0463    1495.3442   -848.73553     517.9773    -2541.125 
21249000    247.55021   -3864.5094   -3440.2168   -3864.5094            0    9434.8996    16.889579    19.893693    20.605247    6923.2823    9629.8293    8858.2388    9816.6307    2106.3892    851.69934    2497.4222   -2487.5847 
21250000    266.76337   -3862.3554   -3405.1321   -3862.3554            0    7252.4743    17.013829    20.040043    20.756831    7077.2048    8177.6473    8074.8265    5504.9491   -452.28278    683.92384    733.83279   -2656.5768 
Loop time of 392.101 on 64 procs for 250000 steps with 864 atoms

Performance: 110.176 ns/day, 0.218 hours/ns, 637.591 timesteps/s
99.2% CPU use with 64 MPI tasks x 1 OpenMP threads

MPI task timing breakdown:
Section |  min time  |  avg time  |  max time  |%varavg| %total
---------------------------------------------------------------
Pair    | 21.756     | 26.975     | 31.88      |  47.6 |  6.88
Bond    | 0.2725     | 0.2787     | 0.28817    |   0.7 |  0.07
Kspace  | 156.8      | 168.99     | 179.19     |  35.6 | 43.10
Neigh   | 4.1365     | 5.4321     | 6.2846     |  21.2 |  1.39
Comm    | 83.784     | 93.16      | 107.28     |  48.0 | 23.76
Output  | 1.3738     | 1.3742     | 1.3753     |   0.0 |  0.35
Modify  | 88.504     | 92.124     | 95.712     |  21.7 | 23.49
Other   |            | 3.766      |            |       |  0.96

Nlocal:        13.5000 ave          18 max           8 min
Histogram: 1 1 3 3 12 15 12 5 5 7
Nghost:        2234.53 ave        2280 max        2194 min
Histogram: 3 3 7 11 14 8 5 10 0 3
Neighs:        4362.53 ave        6041 max        2592 min
Histogram: 1 5 5 9 9 12 10 8 2 3

Total # of neighbors = 279202
Ave neighs/atom = 323.15046
Ave special neighs/atom = 2.0000000
Neighbor list builds = 13568
Dangerous builds = 0

unfix		3
unfix		2
unfix		1

write_data	data.final.${pid}
write_data	data.final.0
System init for write_data ...
PPPM initialization ...
  extracting TIP4P info from pair style
  using 12-bit tables for long-range coulomb (../kspace.cpp:340)
  G vector (1/distance) = 0.374073
  grid = 24 24 24
  stencil order = 5
  estimated absolute RMS force accuracy = 0.0031825888
  estimated relative force accuracy = 9.5842716e-06
  using double precision FFTW3
  3d grid and FFT values/proc = 2535 216
Last active /omp style is kspace_style pppm/tip4p/omp
WARNING: Not all mixed pair coeffs generated from mixing. Use write_data with 'pair ij' option to store all pair coeffs. (../write_data.cpp:312)

write_restart   restart.lmp.${pid}
write_restart   restart.lmp.0
System init for write_restart ...
PPPM initialization ...
  extracting TIP4P info from pair style
  using 12-bit tables for long-range coulomb (../kspace.cpp:340)
  G vector (1/distance) = 0.374073
  grid = 24 24 24
  stencil order = 5
  estimated absolute RMS force accuracy = 0.0031825888
  estimated relative force accuracy = 9.5842716e-06
  using double precision FFTW3
  3d grid and FFT values/proc = 2535 216
Last active /omp style is kspace_style pppm/tip4p/omp
Total wall time: 0:06:33
