#include		in.partitions
include		in.temp
variable        temperature equal 210.10
variable	tempDamp equal 100.0
include		in.pressure
variable        pressure equal 2115.4
variable        pressureDamp equal 1000.0 # This is 1 ps
include		in.seed
variable        seed equal 745823

units		real
atom_style	full
#include		in.box
read_restart	restart.lmp.${pid}
read_restart	restart.lmp.1
Reading restart file ...
  restart file = 30 Jul 2021, LAMMPS = 30 Jul 2021
  restoring atom style full from restart
  orthogonal box = (0.14419774 0.14367524 0.057222735) to (18.063375 23.485503 22.155973)
  2 by 4 by 4 MPI processor grid
  restoring pair style lj/cut/tip4p/long/omp from restart
  restoring bond style harmonic/omp from restart
  restoring angle style harmonic/omp from restart
  864 atoms
  576 bonds
  288 angles
Finding 1-2 1-3 1-4 neighbors ...
  special bond factors lj:    0        0        0       
  special bond factors coul:  0        0        0       
     2 = max # of 1-2 neighbors
     1 = max # of 1-3 neighbors
     1 = max # of 1-4 neighbors
     2 = max # of special neighbors
  special bonds CPU = 0.002 seconds
  read_restart CPU = 0.007 seconds
include 	in.setup
variable	out_freq equal 1000
variable	out_freq2 equal 10000
variable	out_freq3 equal 1000

timestep	2.0

neigh_modify    delay 7 every 1

include		in.tip4p
# This is TIP4P/Ice

# create groups ###
group ox type 2
288 atoms in group ox
group hy type 1
576 atoms in group hy

# set charges - beside manually ###
set group ox charge -1.1794
Setting atom values ...
  288 settings made for charge
set group hy charge 0.5897
Setting atom values ...
  576 settings made for charge

# ### TIP3P Potential Parameters ###
pair_style lj/cut/tip4p/long/omp 2 1 1 1 0.1577 8.5
pair_coeff 1 1*2 0.000 0.000
pair_coeff 2 2 0.21084 3.1668
bond_style  harmonic
bond_coeff  1 450 0.9572
angle_style harmonic
angle_coeff 1 55 104.52
kspace_style pppm/tip4p/omp 1.0e-5
pair_modify tail yes

thermo          ${out_freq}
thermo          1000
thermo_style    custom step temp pe etotal epair emol press lx ly lz vol pxx pyy pzz pxy pxz pyz enthalpy

restart 	${out_freq3} restart.lmp.${pid} restart2.lmp.${pid}
restart 	1000 restart.lmp.${pid} restart2.lmp.${pid}
restart 	1000 restart.lmp.1 restart2.lmp.${pid}
restart 	1000 restart.lmp.1 restart2.lmp.1


include         in.dump
dump            myDump all atom ${out_freq2} dump.water.${pid}
dump            myDump all atom 10000 dump.water.${pid}
dump            myDump all atom 10000 dump.water.1
dump            myDump2 all dcd ${out_freq2} dump.dcd
dump            myDump2 all dcd 10000 dump.dcd
dump_modify     myDump append yes
dump_modify     myDump2 append yes


variable natoms 	equal  "count(all)"                        # NUMBER ATOMS
variable H      	equal  "enthalpy/v_natoms"                 # ENTHALPY-per-atom
variable Vol      	equal  "vol/v_natoms"                 # volume-per-atom
fix AVG all 		ave/time ${out_freq} 1 ${out_freq} v_Vol v_H file vol_enthalpy.dat
fix AVG all 		ave/time 1000 1 ${out_freq} v_Vol v_H file vol_enthalpy.dat
fix AVG all 		ave/time 1000 1 1000 v_Vol v_H file vol_enthalpy.dat


timer           timeout 23:50:00 every 1000
New timer settings: style=normal  mode=nosync  timeout=23:50:00

fix 		1 all shake 1e-6 200 0 b 1 a 1
       0 = # of size 2 clusters
       0 = # of size 3 clusters
       0 = # of size 4 clusters
     288 = # of frozen angles
  find clusters CPU = 0.000 seconds
fix             2 all nph aniso ${pressure} ${pressure} ${pressureDamp}
fix             2 all nph aniso 2115.4 ${pressure} ${pressureDamp}
fix             2 all nph aniso 2115.4 2115.4 ${pressureDamp}
fix             2 all nph aniso 2115.4 2115.4 1000
fix             3 all temp/csvr ${temperature} ${temperature} ${tempDamp} ${seed}
fix             3 all temp/csvr 210.1 ${temperature} ${tempDamp} ${seed}
fix             3 all temp/csvr 210.1 210.1 ${tempDamp} ${seed}
fix             3 all temp/csvr 210.1 210.1 100 ${seed}
fix             3 all temp/csvr 210.1 210.1 100 745823


run             250000
PPPM initialization ...
  extracting TIP4P info from pair style
  using 12-bit tables for long-range coulomb (../kspace.cpp:340)
  G vector (1/distance) = 0.37169504
  grid = 24 27 25
  stencil order = 5
  estimated absolute RMS force accuracy = 0.0031653773
  estimated relative force accuracy = 9.5324396e-06
  using double precision FFTW3
  3d grid and FFT values/proc = 4410 672
Last active /omp style is kspace_style pppm/tip4p/omp
Neighbor list info ...
  update every 1 steps, delay 7 steps, check yes
  max neighbors/atom: 2000, page size: 100000
  master list distance cutoff = 10.8154
  ghost atom cutoff = 10.8154
  binsize = 5.4077, bins = 4 5 5
  1 neighbor lists, perpetual/occasional/extra = 1 0 0
  (1) pair lj/cut/tip4p/long/omp, perpetual
      attributes: half, newton on, omp
      pair build: half/bin/newton/omp
      stencil: half/bin/3d
      bin: standard
Per MPI rank memory allocation (min/avg/max) = 10.19 | 10.21 | 10.23 Mbytes
Step Temp PotEng TotEng E_pair E_mol Press Lx Ly Lz Volume Pxx Pyy Pzz Pxy Pxz Pyz Enthalpy 
 6000000    218.93705   -4315.5784   -3940.3278   -4315.5784            0    2708.0461    17.919177    23.341827     22.09875    9243.1633    3363.4797    1654.2485    3106.4099   -211.44458    80.847119    211.99384   -3575.2776 
 6001000    210.73093   -4334.1247   -3972.9391   -4334.1247            0    2982.6216    18.191646    23.390256    21.597659    9189.9606    2574.2376    3742.4582    2631.1689    124.87335    -310.4721   -123.64671   -3573.1898 
 6002000    217.19123   -4354.4041   -3982.1458   -4354.4041            0     2074.872    17.854163    23.459969    22.146183    9276.1087    2384.5421    2072.6054    1767.4685    41.443733    616.69484    325.27555   -3701.4518 
 6003000    205.56515   -4338.4431   -3986.1115   -4338.4431            0    2213.3762    18.180276    23.275617    21.902863    9268.3531    1842.2683    1212.8325    3585.0278    1492.8003   -97.674571   -505.61563   -3686.9307 
 6004000    201.86373   -4360.2931   -4014.3056   -4360.2931            0    1329.7557    17.987374    23.290019    22.115821    9264.8985    1565.1214    1069.6116    1354.5339    51.488578     759.4743    705.13716   -3834.6302 
 6005000    209.52223   -4334.2324   -3975.1184   -4334.2324            0    1700.8657    17.916124    23.595016    21.983112    9292.9481    2459.7371    1239.8443    1403.0156    249.10018   -263.68349   -466.89694   -3744.6033 
 6006000    215.43409   -4335.1046   -3965.8579   -4335.1046            0    2440.3433    18.062984     23.34885      21.9574    9260.5313    2286.9921    2182.1479    2851.8897    804.22836    634.07482    -116.0922   -3636.2765 
 6007000    210.08592   -4341.7653   -3981.6853   -4341.7653            0    1885.0275    17.975342    23.255368     22.20529    9282.3266    2075.0866    2838.0292    741.96666    267.58799    634.93788   -869.11527    -3726.503 
 6008000    209.55365   -4328.2968    -3969.129   -4328.2968            0    2765.4005    18.076485    23.406828    21.775381    9213.4503     2735.748    2267.7087    3292.7448    45.133005   -614.59653    535.37353   -3597.5456 
 6009000    217.09789   -4328.0241   -3955.9257   -4328.0241            0    3466.1215    17.799288     23.23522    22.221835    9190.2926    3821.8734    3532.3547    3044.1365   -688.80687    207.96146    316.97788    -3491.358 
 6010000    206.16762   -4330.6994   -3977.3351   -4330.6994            0    1492.5097    18.062878     23.55671    21.848695     9296.663    2604.1734    698.89323    1174.4625   -126.22006   -385.94642    847.39311   -3774.9772 
 6011000    208.61422   -4343.4675   -3985.9099   -4343.4675            0    1546.2235     17.94412    23.467411    22.089055    9301.7458    1806.2865     1663.753    1168.6311    735.22662     424.7676    143.95024   -3776.1547 
 6012000    212.96504   -4303.3072   -3938.2924   -4303.3072            0    1778.5234    18.142949    23.307212    21.965476    9288.3556    1751.7996    981.06835    2602.7023    129.64074   -126.58733   -151.02934   -3697.3716 
 6013000    217.03314   -4333.1743   -3961.1869   -4333.1743            0    2864.7317    17.931519    23.387516    22.065703    9253.7752    2140.7381    3843.3772    2610.0797   -1759.7944    214.97936   -537.15607   -3574.5718 
 6014000     202.4474   -4346.8101   -3999.8222   -4346.8101            0    1556.0162    17.907821    23.865688    21.766136    9302.4649    1606.1751    688.63969    2373.2338   -179.40357   -185.89576    302.64923   -3788.7223 
 6015000     202.2896   -4324.9037   -3978.1862   -4324.9037            0    2375.3061    17.951385      23.2783    22.138195    9251.0581     2610.081      2688.49    1827.3474    33.268626    117.13661    762.93558   -3657.7166 
 6016000    210.06256   -4336.6644   -3976.6244   -4336.6644            0    1339.4781    18.243738      23.2289     21.95426    9303.8197    1118.3282   -73.474207    2973.5803   -615.43937   -263.52562   -249.39796   -3794.8751 
 6017000    214.42659   -4343.6284   -3976.1086   -4343.6284            0    2514.7504    17.925495    23.568779    21.896032    9250.6797    2580.3885    2661.4524    2302.4102    69.412583    -213.0512    230.64716   -3636.8394 
 6018000    210.49195   -4368.7472   -4007.9712   -4368.7472            0      924.537    17.928866    23.554314    22.010541    9295.0985    1323.0624     432.2438    1018.3048    532.66082   -390.03314   -273.49975   -3882.6415 
 6019000    213.84613   -4342.2319   -3975.7069   -4342.2319            0     2846.803    18.292376    22.956483    21.928946    9208.5918    1953.3096    3174.6634    3412.4362   -1017.0271    1131.6254    492.20586   -3593.3873 
 6020000    196.81034   -4336.0553   -3998.7291   -4336.0553            0     2299.725     18.03312    23.263313    22.032413    9242.8202    1375.9524    2715.6645    2807.5581   -935.91652    418.57493    351.79669    -3688.733 
 6021000    211.92393   -4361.5212   -3998.2909   -4361.5212            0    2419.7964    17.702089    23.796729    21.903696    9226.9719    2862.5041    1673.4319    2723.4532    83.582574   -88.536231   -234.32114   -3672.6687 
 6022000    212.79961   -4330.6972   -3965.9659   -4330.6972            0    2522.3237     17.96121    23.378803     22.04314    9256.1698    2434.7835    2706.9685    2425.2191    -324.7041   -72.894409    583.66108   -3625.4731 
 6023000    204.29458   -4351.0807   -4000.9267   -4351.0807            0    2620.7061    18.147922    23.155071    21.952022    9224.6004    2503.3875    2710.2684    2648.4623    160.43385    719.62448    250.37298   -3648.3596 
 6024000    225.22862   -4325.9504   -3939.9163   -4325.9504            0    2221.5308    17.906853    23.474714    22.062379    9274.1029     3236.955    2439.0022    988.63528   -226.93726    255.43455    703.42487   -3639.4469 
 6025000    210.54688   -4339.3109   -3978.4407   -4339.3109            0    2049.7897    17.858912    23.597045    21.999694     9271.057    2705.4776    1466.1886     1977.703     135.3002     305.6354   -51.952543    -3701.291 
 6026000    215.09739   -4326.3142   -3957.6446   -4326.3142            0    2254.5181    18.057397    23.305223    21.996843    9256.9678    1954.5792    2309.9224    2499.0527    677.86684    213.75005    337.22784   -3653.2771 
 6027000    202.95794   -4307.5089    -3959.646   -4307.5089            0    3100.0045    18.067181    23.229226    21.977064      9223.48    2249.9858    4012.3103    3037.7174    720.09529    114.95175    45.601255   -3542.6489 
 6028000    214.03419   -4360.9215   -3994.0742   -4360.9215            0    2483.7973    17.903883    23.340839    22.044929    9212.3915    2850.0057    1429.2381    3172.1482   -403.06521   -490.71832    364.91347   -3660.3679 
 6029000    194.89638   -4340.1086   -4006.0629   -4340.1086            0    3168.8614    17.995252    23.349429    21.896624    9200.4984    3297.0003     2015.675    4193.9088    95.326378      -150.24   -41.285425   -3580.8656 
 6030000    221.55413   -4344.5689   -3964.8327   -4344.5689            0    3048.2577    17.911636    23.090292    22.310455    9227.2673    2708.9837    3421.8149    3013.9745   -258.87496    72.465453    704.52728    -3554.628 
 6031000    218.92229   -4325.7513   -3950.5259   -4325.7513            0    3943.5202    17.994434    23.293434    21.839955     9154.264    3892.2372    3671.8738    4266.4498   -421.65934    45.514917    83.477495   -3424.0441 
 6032000    220.03541   -4350.0432     -3972.91   -4350.0432            0    2436.1734    17.975406    23.357751     22.05068    9258.3102    2563.7572     2629.779     2114.984   -560.75514    491.34591     226.4368   -3643.9707 
 6033000    212.30758   -4339.5743   -3975.6863   -4339.5743            0    1832.8166    18.110862    23.351253    22.003438    9305.5029    152.47637     1444.882    3901.0914     235.7125    900.33548    1160.0164   -3726.9526 
 6034000    207.11918   -4359.3345   -4004.3393   -4359.3345            0    2089.3347    18.035949    23.282223    22.081104    9272.2303    2160.3214    1408.8483    2698.8346    329.50342   -290.69945    77.561276    -3721.807 
 6035000    198.09452   -4349.2076   -4009.6803   -4349.2076            0    1887.7217    17.882477    23.622622    21.993683    9290.8133    2407.3256     1535.306    1720.5334   -11.818801    534.52538    365.94783   -3753.8997 
 6036000    205.14707   -4350.5947   -3998.9796   -4350.5947            0    327.30089    17.984079    23.565672    22.124868    9376.6722    1076.4586    2182.2214   -2276.7773   -742.79055   -341.85862   -405.21221   -3954.2215 
 6037000    213.08074   -4336.7911    -3971.578   -4336.7911            0    3387.9485    18.041443    23.124124    22.104076    9221.6561    3979.6385    3308.7572    2875.4499   -14.253765    374.26571    91.145808   -3515.9382 
 6038000    215.70745   -4351.5451   -3981.8299   -4351.5451            0    2513.3604    18.050558    23.465908    21.896753    9274.8676     3371.077    752.55368    3416.4505     -842.203    332.93965    56.164417   -3641.8616 
 6039000    217.94556   -4348.5716   -3975.0203   -4348.5716            0    2290.8409    17.766471    23.612887    22.087145    9265.9478     3116.707    2990.1938    765.62177   -494.69858   -714.68738     257.3064    -3665.449 
 6040000    209.74466   -4348.7011    -3989.206   -4348.7011            0    2597.0321    18.077284    23.292647    21.928554    9233.4076    2944.2355    2410.4169     2436.444   -220.79717    1138.7201    792.23565   -3639.4902 
 6041000    212.09876   -4345.8376   -3982.3076   -4345.8376            0    2959.2384    17.952476    23.224806    22.128579    9226.3512    3080.8758    3455.9869    2340.8526   -647.96262   -315.10444    425.16867   -3584.1217 
 6042000    207.59635   -4346.6521   -3990.8391   -4346.6521            0    1502.3455    18.019085    23.709396     21.84155    9331.1826     1846.494    70.791712    2589.7509    291.43242    147.85474    66.504432   -3786.3913 
 6043000    214.32356   -4336.0472   -3968.7039   -4336.0472            0    2577.0884     18.07249    23.141483    21.947751    9179.0809    1854.3021    3092.2631    2784.7001    301.64413   -223.24851    754.15712   -3623.7156 
 6044000    209.53381   -4338.9562   -3979.8224   -4338.9562            0    2030.2696    18.134999    23.323902    21.936643    9278.7382    1256.1776    1679.8674    3154.7638    946.91673    -446.8954   -185.17458   -3705.0846 
 6045000    196.27307   -4357.1666   -4020.7613   -4357.1666            0    1527.7511    17.785323    23.530684    22.077053    9239.2646    2990.5556    1269.6278     323.0698   -381.81165   -163.22999   -550.35103   -3814.9041 
 6046000    219.80559   -4345.8588   -3969.1195   -4345.8588            0    1674.5185    18.038035    23.402694    21.990503    9283.0406    1923.5329    2034.8727    1065.1497   -564.16692   -682.26907   -136.97936   -3742.4172 
 6047000    195.09362   -4329.7947   -3995.4109   -4329.7947            0    1552.4633    18.281993     23.11935    21.976752    9288.8651    825.79326     1542.682    2288.9146    325.37967    120.09628   -453.72379   -3785.1009 
 6048000    218.24571   -4352.6821   -3978.6164   -4352.6821            0    1560.4397     17.94931    23.609373    21.944167    9299.3225    1684.4473    695.65563    2301.2162     13.71647    813.58479     409.9642   -3766.9879 
 6049000     225.8811    -4357.404   -3970.2515    -4357.404            0    1707.5884     17.91215    23.520257    21.990732    9264.6594    1744.0088    1334.9023    2043.8541   -458.37957   -120.41401    441.09913   -3739.5298 
 6050000    207.49309   -4353.7232   -3998.0871   -4353.7232            0    3186.0936    18.149824     23.18205    21.939408    9231.0087    2305.3397    2640.3788    4612.5623   -656.16665    167.55023     444.0378   -3569.1599 
 6051000    221.09704   -4340.7209   -3961.7682   -4340.7209            0    1492.9497    17.922579    23.284785    22.263597      9291.12    2529.1833    2196.6279   -246.96201    383.07845   -293.73722    233.06575   -3759.4713 
 6052000    210.47957   -4349.1645   -3988.4097   -4349.1645            0    677.69349    17.962894    23.586667    22.027452    9332.6965    526.38913    914.07639    592.61494    45.159248    784.60659    17.098495   -3896.1703 
 6053000    209.68003   -4357.8408   -3998.4564   -4357.8408            0    1869.5455    18.046323    23.388038     22.05162    9307.2849    1148.1741    3030.0108    1430.4516   -199.54809   -685.94181    -62.77853   -3744.6895 
 6054000    216.20716   -4333.4711   -3962.8995   -4333.4711            0    2739.8527    18.143351    23.214522    21.964423     9251.178    1729.9572     4228.428     2261.173    610.15235     538.9632    707.49133   -3593.2414 
 6055000    203.76176    -4330.087   -3980.8463    -4330.087            0    1958.8883    17.914893    23.527336     22.01744    9280.1246    2996.2622    1131.9382    1748.4646   -165.23845    755.12864    377.25503   -3715.7282 
 6056000    218.31947   -4325.8872   -3951.6951   -4325.8872            0    2236.1398    17.894006    23.571243    21.937058    9252.6993    3158.2219    1180.9655    2369.2319    1017.8383    906.84033    939.70135   -3649.9479 
 6057000    212.24805   -4343.1598   -3979.3739   -4343.1598            0    1809.7819    18.174919    23.080167    22.100104    9270.5554    3140.6083    1649.1425    639.59492   -75.784378   -6.5511764    285.88581   -3734.6886 
 6058000    202.61403   -4328.5822   -3981.3087   -4328.5822            0    2201.3138     18.00202    23.378586    22.076068    9290.9732     2475.672    1761.7955    2366.4739     125.8343   -331.30505    189.65849   -3683.0322 
 6059000    214.07278   -4344.4705   -3977.5571   -4344.4705            0    3113.5095    17.917989    23.648377    21.731508    9208.3213    2757.7794    2389.8718    4192.8775   -34.681597   -150.68266    336.97767   -3559.4317 
 6060000     202.0515   -4362.1767   -4015.8674   -4362.1767            0    2771.6201    17.962594     23.29395    22.051146    9226.6355    3523.2323    2697.5388    2094.0892   -665.83835   -204.08356   -410.18246   -3642.9154 
 6061000    208.49781   -4342.7174   -3985.3593   -4342.7174            0    765.22269    18.356422    23.305902    21.823774    9336.4933   -112.04951    1639.9611     767.7565   -414.80039    15.091446    517.42768   -3881.1641 
 6062000    212.23497   -4329.2794   -3965.5159   -4329.2794            0    1831.3124    17.944451    23.428644     22.06125    9274.8621     1222.527    1965.6391    2305.7713    -277.4211    260.71582    -21.44126   -3717.8046 
 6063000    218.23401   -4321.3011   -3947.2554   -4321.3011            0    3290.1486    18.008737    23.354116     21.90801    9214.0301     2254.029    3191.6033    4424.8135   -774.12939    22.794471    584.62007   -3505.1345 
 6064000    217.20625   -4354.3942   -3982.1101   -4354.3942            0    2992.5286    17.991093    23.270504    21.954218    9191.3923    2769.8949    3632.7912    2574.8998   -71.540047   -256.26541   -1152.3726   -3580.9706 
 6065000    211.65135   -4369.9352    -4007.172   -4369.9352            0     3635.097    17.868041    23.531601    21.859504    9191.1261    3456.1674    3272.2072    4176.9165   -402.81983    173.35041    1142.0456   -3519.9122 
 6066000    216.96957   -4328.3713   -3956.4929   -4328.3713            0    2468.5166    18.171939     23.09565    22.050072    9254.2552    3116.9818    2976.9473    1311.6207   -521.12507   -338.87864    1208.0662   -3623.3325 
 6067000    204.45983   -4364.5971     -4014.16   -4364.5971            0    1499.7853     18.05664    23.270511    22.126901    9297.4416    1404.7957    1031.5685    2062.9917   -789.59039   -1034.5966    47.641605   -3810.7986 
 6068000    201.94078   -4329.0998   -3982.9802   -4329.0998            0    1150.6909    17.826689    23.790763    21.989173    9325.8401     2495.237   -1169.5945      2126.43   -798.84927     392.3897    450.77975   -3826.4772 
 6069000    200.66336   -4365.5735   -4021.6434   -4365.5735            0    1876.7273    17.953569    23.397957    22.057397    9265.8014    1769.6998    902.87572    2957.6065   -688.80254    46.812902    445.99592   -3768.0371 
 6070000    205.52772   -4338.4914    -3986.224   -4338.4914            0     2549.065    18.073505    23.337685    21.869537    9224.4345    2060.5683    2736.5607     2850.066    -1332.278    356.26553    1051.3685    -3643.301 
 6071000    207.82545   -4344.3536   -3988.1479   -4344.3536            0    2040.3037      17.9891    23.454241    22.018754    9290.1677    3272.7658    149.54061    2698.6045    977.21176    482.15155    217.32521   -3711.7121 
 6072000     231.0762   -4322.8247    -3926.768   -4322.8247            0    3216.9685    17.864857    23.532765    21.925223    9217.5721    3131.2067    3520.1769     2999.522    126.72659    80.313495    -207.4579   -3494.3146 
 6073000    202.14371   -4359.3946   -4012.9272   -4359.3946            0    1179.8095    18.047658    23.359844    22.103213    9318.5044    1113.3277    733.99687     1692.104   -684.90748   -292.86365    353.00659   -3852.5901 
 6074000    213.57891   -4354.4471   -3988.3802   -4354.4471            0    972.05816    18.253761    23.198846    21.987369    9310.9071    428.33207    1610.8898    876.95257    204.98524   -318.72604    117.81101   -3856.3844 
 6075000    212.87648   -4357.5193   -3992.6563   -4357.5193            0    2856.0428    17.877776    23.596242     21.87544    9228.1182    4808.8365    3145.5593    613.73246    898.65559    385.46855    221.68803   -3608.2826 
 6076000    209.32439   -4351.4043   -3992.6294   -4351.4043            0    1821.1304    17.844716    23.648176    21.985787    9277.8919    2249.9027   -218.18687    3431.6752   -841.12612    -400.3468   -55.069258   -3746.2149 
 6077000    202.28635   -4341.1069   -3994.3951   -4341.1069            0    3324.5139    18.065125    23.108116    22.005912      9186.39    3057.0114    3927.7762    2988.7542    -551.5666   -793.37507    391.71403   -3548.9964 
 6078000    217.05121   -4318.6398   -3946.6215   -4318.6398            0    1519.5972       18.154    23.340096    22.051482    9343.5685     53.32588    2316.4014    2189.0644    1275.0939    55.076157     695.0936   -3739.5515 
 6079000    214.53023   -4361.7878   -3994.0903   -4361.7878            0    2448.5104    17.826344     23.57562    21.995874    9244.1424     2111.951    2622.1726    2611.4074   -266.59932   -305.34108   -19.301872   -3663.9911 
 6080000    224.70086   -4336.9266   -3951.7971   -4336.9266            0     2148.827    18.047643    23.376152    21.961328    9265.1426    2745.0085    1664.2924    2037.1801   -824.46626    552.69725     510.5548    -3661.442 
 6081000    220.95752   -4355.8048   -3977.0912   -4355.8048            0    3469.7946    18.166809    22.949707    22.069919    9201.4556    3664.1299    3938.6103    2806.6437    98.488855    156.03427   -101.01408   -3511.4663 
 6082000    208.02338   -4351.7247   -3995.1797   -4351.7247            0    2480.0218    17.981159    23.437245    21.887971    9224.2224    2505.7238    2801.0281    2133.3134   -394.59991    570.12329    298.21819   -3661.5528 
 6083000    206.28791   -4355.6077   -4002.0372   -4355.6077            0    1526.1174    17.864954    23.411494    22.179538    9276.4867    3275.9065    1210.3987    92.047036    34.522312    -320.1816    787.24979   -3795.5718 
 6084000    214.54639   -4316.9121   -3949.1869   -4316.9121            0    2392.2534      18.0652    23.481473    21.882663     9282.571    2064.5825    4870.9991     241.1785   -675.93193    238.28619   -24.581137   -3625.3314 
 6085000    206.29555   -4340.5926   -3987.0091   -4340.5926            0    2877.9807    17.968872    23.344455    21.975269    9218.0435    2609.3677    3853.3112    2171.2631   -1557.8853    -821.8349    275.07765   -3600.1057 
 6086000    206.22794   -4334.1648   -3980.6972   -4334.1648            0    1527.5591    18.108426     23.29435    21.958583    9262.6572    448.29495     2004.145    2130.2373   -591.98762   -568.31889    -236.8301   -3774.3448 
 6087000    207.55928   -4348.9956    -3993.246   -4348.9956            0    3117.9841    17.951161    23.445301    21.961765    9243.0566    5017.0101    1917.0348    2419.9074   -674.65386    -787.9651    -32.32983   -3572.9402 
 6088000    216.00102   -4326.6814   -3956.4631   -4326.6814            0    2292.6936    17.791831    23.590259    21.928923    9203.8739    2021.4923    2331.1531    2525.4353    136.99288    135.55667    328.89438    -3648.717 
 6089000    204.64161   -4363.7463   -4012.9976   -4363.7463            0    1985.2706    18.083281    23.241132    22.090831    9284.2442    3885.6877    1574.6587    495.46553   -171.29557   -305.32927   -332.88118   -3744.1896 
 6090000      206.105   -4329.8298   -3976.5728   -4329.8298            0    1522.8581    18.152223     23.25871    21.982904    9281.1224    1932.0658    302.61821    2333.8903    918.26378    100.96592    -828.3751   -3770.4454 
 6091000    209.06537   -4370.9622   -4012.6314   -4370.9622            0    2814.6333     17.90015    23.397579    22.054656    9236.9347    3044.2833    1932.8853    3466.7314   -767.96873    583.76696    -53.30028   -3633.4687 
 6092000    210.70577   -4327.5717   -3966.4293   -4327.5717            0    2739.1164    17.996119    23.365718    21.958227    9233.2641    2058.7258    3794.5159    2364.1075    -56.26125    563.14566    92.082838   -3597.5862 
 6093000    207.58659    -4355.401   -3999.6046    -4355.401            0    2427.7437    18.025371    23.086974    22.140751    9213.9015    2736.2322    3250.9719    1296.0269   -685.92476   -487.12442    682.90791   -3673.3758 
 6094000    207.19362   -4344.2965   -3989.1737   -4344.2965            0    1891.4309    18.031468    23.380206    21.910669    9237.0872    1595.0402    2543.3961    1535.8563   -708.86848   -386.31929    540.52152   -3734.3726 
 6095000    206.82336   -4348.9573   -3994.4691   -4348.9573            0    1888.6189    17.828332     23.42022    22.084047    9221.0495    1815.5177    2002.2632    1848.0759    122.91142    454.51826   -966.11327   -3740.4885 
 6096000     217.3492   -4341.3859   -3968.8568   -4341.3859            0    2558.7842    18.153939    23.293744    21.889282    9256.3913    2347.8569    2519.0532    2809.4426    300.19983    379.72847   -264.58764   -3623.4338 
 6097000     220.1372   -4359.4064   -3982.0988   -4359.4064            0    1696.4006    17.943387    23.424751    22.091643    9285.5454    1181.9517    3162.1056    745.14443    169.07357    179.39019   -73.878545    -3752.372 
 6098000    204.85896   -4367.2419   -4016.1206   -4367.2419            0    2095.4553    18.012114    23.396061    21.921046    9237.8031    2038.6804    1838.9908    2408.6948    -377.3915   -266.44636   -154.78222   -3733.8128 
 6099000     225.9971   -4362.3782   -3975.0269   -4362.3782            0    1897.1121    18.164627    23.139098     22.04205    9264.5619    571.41564    2112.2719    3007.6489   -82.368741    51.716724   -422.16337   -3718.7003 
 6100000    207.97387   -4353.4368   -3996.9767   -4353.4368            0     2216.725    17.807845    23.713491    21.910437    9252.4747    2117.5317      1267.21    3265.4333   -194.08703    513.06116    123.75002   -3697.8566 
 6101000    203.46296   -4358.3771   -4009.6486   -4358.3771            0    2588.7296    17.932498    23.341925    21.973135     9197.493    1787.1665    2366.8295    3612.1928   -89.103934    210.66559   -64.844242   -3662.4068 
 6102000    210.06174   -4333.3048   -3973.2662   -4333.3048            0    1359.7944    18.276433    22.898116    22.162215    9274.7955    47.074107    2625.9277    1406.3814     248.6935    173.08501    132.49946   -3789.3358 
 6103000    203.63981   -4322.3283   -3973.2967   -4322.3283            0    1751.7886    17.985492    23.509197    21.936718    9275.3817    1788.7508    1932.3496    1534.2653    51.899291   -400.61825   -744.10192   -3736.3289 
 6104000     207.2044   -4337.4523    -3982.311   -4337.4523            0    2296.9988    17.965114    23.650237    21.853321    9285.0212    2584.9735    1478.5245    2827.4985   -698.97918    440.78039   -378.25007   -3671.2686 
 6105000    219.28846   -4341.8783   -3966.0254   -4341.8783            0    3010.9416    18.100778    23.115235    22.055696    9228.1856    2428.3594     2599.349    4005.1163   -1065.9923   -131.81052   -398.36535    -3560.802 
 6106000     190.9819   -4332.3157   -4004.9793   -4332.3157            0    2459.9359    18.070604    23.393324    21.855336    9238.9389    3323.4192    2664.0228    1392.3658    -90.33172   -236.45168    385.97118   -3673.5264 
 6107000    199.41994   -4346.4604   -4004.6615   -4346.4604            0    1080.8076    17.921249    23.575668    22.100536    9337.5963    301.27398    2505.4733    435.67558    463.43391   -438.99875    816.00373   -3857.4779 
 6108000    208.26914   -4343.6467   -3986.6805   -4343.6467            0    1102.6508    18.233998    23.384708    21.985747    9374.6501    307.96685    1848.0262    1151.9594    180.29914   -279.28679    76.896098   -3835.9265 
 6109000    206.63677   -4353.0923   -3998.9239   -4353.0923            0    2027.8033    17.984977    23.401778    22.045053    9278.3316    2017.6868    2039.2076    2026.5154   -433.58589   -357.06486   -151.58347   -3724.5318 
 6110000     210.7257   -4354.6685   -3993.4919   -4354.6685            0    1262.5519    17.854938    23.797042    21.994242    9345.2374    1518.3102    531.60889    1737.7367    54.827971    446.64174    415.26175   -3821.4178 
 6111000    207.06726   -4331.4343   -3976.5281   -4331.4343            0    2813.6805    18.175015    23.079624    22.098225    9269.5985    2446.9236    4982.2848    1011.8332    589.64243   -286.76556    480.58774   -3596.1534 
 6112000    203.67117   -4333.2322   -3984.1468   -4333.2322            0    1824.1841    18.096284     23.51506    21.889202     9314.626    1373.7153     1147.792    2951.0449   -716.70892    592.53729   -457.83599   -3736.3419 
 6113000    201.85954   -4340.9083   -3994.9279   -4340.9083            0    2004.5488    17.861666    23.545868     22.05679    9276.3895    3907.7401    1306.9042    799.00209    507.32597   -130.43226   -540.94685   -3723.7393 
 6114000    211.56906   -4313.1812    -3950.559   -4313.1812            0    2264.6253    18.227387    23.283913    21.837357    9267.8812    280.76082    2199.2819     4313.833    813.06844   -330.91654    152.27017   -3644.4665 
 6115000    215.82409   -4334.8537   -3964.9386   -4334.8537            0    2762.5427    18.031076    23.310975    21.992238    9243.8205    1560.8911    4334.7135    2392.0235   -114.90268   -252.66918   -140.91548   -3592.5157 
 6116000    207.27516   -4352.3664   -3997.1038   -4352.3664            0    2974.8982    17.746428    23.783841    21.830919    9214.3553    2758.4023    3891.4935    2274.7987    -412.8982   -387.67388    440.35142   -3597.3313 
 6117000     202.3591   -4356.9307   -4010.0941   -4356.9307            0    3503.3532    17.917374    23.337746    21.986968    9193.8752    3089.6121    4828.7596    2591.6879   -349.97491    721.14615   -530.85898   -3540.3532 
 6118000    212.30969   -4364.4389   -4000.5473   -4364.4389            0    2180.2769     18.10179    23.097103    22.026335    9209.1864    684.01566    2325.8467    3530.9684   -489.77647   -462.34969    66.194278   -3707.7219 
 6119000    215.51471    -4340.594   -3971.2092    -4340.594            0    3006.2627    17.964183    23.390327    21.901228    9202.6355    3395.1022     2604.534    3019.1519    608.74009   -40.010249   -194.79619   -3567.7357 
 6120000     209.2907   -4356.7861    -3998.069   -4356.7861            0    889.12609    17.978754    23.571687    21.985871    9317.3827    986.07149   -67.054751    1748.3615    465.46828      55.6975    198.87397   -3877.2506 
 6121000    205.47657   -4352.1554   -3999.9756   -4352.1554            0    1483.2674    18.157646    23.476104    21.795668    9290.8567    292.24852    3031.9579    1125.5957    469.81782   -154.92389   -38.022541   -3798.9964 
 6122000    219.56031   -4337.4383   -3961.1195   -4337.4383            0    2572.7149    18.027428    23.189622    22.140995    9256.0261     2711.866    2238.7685      2767.51   -1395.4616   -579.41546     16.99202   -3613.8296 
 6123000    210.31204   -4371.6182   -4011.1506   -4371.6182            0    2217.1125    18.119934    23.440972    21.862101    9285.9024    2724.2287    1703.8905    2223.2183     187.9574    25.200271   -101.40326   -3710.8973 
 6124000    218.96827   -4341.8628   -3966.5587   -4341.8628            0    2468.7252    17.952854     23.31226    22.130682    9262.1683    3424.1464    2440.9951    1541.0341    167.85179   -216.30458    106.17596   -3633.0852 
 6125000    217.00635    -4325.493   -3953.5516    -4325.493            0    3187.8921    17.925051    23.500355    21.920298    9233.8172    2199.2627     3142.229    4222.1847    372.69579    112.90724   -49.650064   -3524.2517 
 6126000    213.80959   -4347.7307   -3981.2684   -4347.7307            0    1656.5209     18.08702    23.191014    22.203748    9313.5029    1631.1046    1387.1579    1951.3001    -552.8893   -679.99312    620.42759   -3756.2666 
 6127000    210.18189   -4339.5618   -3979.3173   -4339.5618            0    2314.8417    18.158882    23.258093    21.897158    9248.0665    1365.8202    2504.2104    3074.4946   -474.50573   -274.14354   -522.08609   -3667.1063 
 6128000    210.42645   -4342.9974   -3982.3337   -4342.9974            0    3479.7077    17.780451    23.541091    22.067193    9236.6919    3909.3438    2123.0515    4406.7278    140.47805    801.63505    -336.1894   -3513.5903 
 6129000    219.40246   -4339.2343    -3963.186   -4339.2343            0    2094.3153    18.039139    23.525324    21.863309    9278.2762    1656.8533    1556.9815    3069.1111   -52.884297    198.58525    -342.1256   -3679.7955 
 6130000    212.80557   -4368.7119   -4003.9705   -4368.7119            0    2829.6229    18.064704    23.192229    22.032701    9230.8365    2339.5102      2486.92    3662.4385   -994.95404    53.482162    181.24228   -3623.0402 
 6131000    204.63249   -4361.2779   -4010.5448   -4361.2779            0    1897.2638    17.860458    23.613462    22.050402    9299.6964    2451.7822    1898.8196    1341.1895     -417.949    73.486535   -22.084792   -3753.2255 
 6132000    217.30175   -4330.5017   -3958.0539   -4330.5017            0    1345.9047    17.973234     23.50343    22.013487    9299.2155    868.82906     1178.881    1990.0039    -938.6362      245.245   -482.99189    -3775.523 
 6133000    211.34862   -4359.0212   -3996.7769   -4359.0212            0    2494.9139    18.027427    23.301027    22.026471     9252.386    3111.6077    2738.7404    1634.3937    888.73583    266.64881   -299.49617   -3660.1218 
 6134000    194.28518   -4343.0951   -4010.0969   -4343.0951            0    1404.4578    18.068451    23.297177    22.087144    9297.4485    2934.3948    707.24903     571.7296   -921.34761    344.46936    1086.9631   -3819.6612 
 6135000    199.85843   -4356.3649   -4013.8144   -4356.3649            0    2987.6043    18.045808    23.425326    21.794715    9213.2566    2594.1258    2489.1191    3879.5681    21.641884    67.340501    464.83886   -3612.3822 
 6136000    202.81905   -4330.5913   -3982.9664   -4330.5913            0    1792.1932     17.85846    23.424738    22.211083    9291.5565    2281.5439    1140.5724    1954.4634   -418.35292    80.824158    -336.8597   -3740.1102 
 6137000    202.46753   -4343.0007   -3995.9783   -4343.0007            0    2345.4216     18.02891    23.585362    21.716314    9234.1756    436.27513     1296.114    5303.8757   -606.63232   -258.88379    277.91367   -3680.1181 
 6138000    209.19534   -4341.4724   -3982.9188   -4341.4724            0    1428.7276    17.950859    23.347916    22.264067    9331.2079    1818.6533    2039.0021    428.52732    -73.81838   -47.455363   -572.76777   -3788.4888 
 6139000    187.81116   -4346.3265   -4024.4246   -4346.3265            0    2431.0596    18.150327    23.363364    21.719087    9210.0377    2669.4969    1460.6952    3162.9868    825.88724    1025.6896    452.45002   -3697.8872 
 6140000    205.56121   -4332.9737   -3980.6488   -4332.9737            0    2673.1311    17.989168    23.325592     22.00665    9234.1661    2029.7596    3982.0513    2007.5824    1001.1423   -209.90196    249.31018    -3620.656 
 6141000    202.98588    -4357.742   -4009.8311    -4357.742            0    705.60794    18.012773    23.653483    21.960623     9356.649     1734.614    526.79615   -144.58633   -619.39008   -357.67598    359.50186   -3913.5459 
 6142000    211.08819   -4366.6951   -4004.8972   -4366.6951            0     1427.826    18.104906    23.347258    22.072487    9330.0386    1405.2893    2730.3417      147.847    1307.8131   -114.02398    512.13623   -3810.6143 
 6143000    198.85957    -4337.824   -3996.9855    -4337.824            0    2687.0425     18.16478    23.110728    22.054189    9258.3773    2236.2783    3596.6464    2228.2029    402.02512   -908.79313    124.38642   -3634.1705 
 6144000    198.73745   -4332.4731   -3991.8439   -4332.4731            0    2465.9837    17.847015    23.711124    21.962747    9294.0366    2893.0397    1255.3011    3249.6104   -737.02615    107.80104   -675.42492   -3657.5947 
 6145000    212.98649   -4337.5388   -3972.4872   -4337.5388            0     1478.883    18.021583     23.40648    22.129718    9334.7978    1214.0069    1809.2988    1413.3434   -559.11763   -791.61629     144.3172   -3771.1544 
 6146000    208.87018    -4354.141   -3996.1446    -4354.141            0    2107.2171    18.120978    23.307549    21.997776    9290.8837    846.42681    2261.1709    3214.0536   -524.92539   -207.16985    541.03271   -3710.6209 
 6147000    203.22198   -4367.9292   -4019.6137   -4367.9292            0    1155.9998    17.970147    23.591107    22.035418    9341.5994    829.03933    400.02951    2238.9304    394.52157   -630.34955    585.24334    -3862.123 
 6148000    199.20275   -4358.6724   -4017.2457   -4358.6724            0    3247.4395    17.875787    23.307023    22.152322    9229.3523     3470.869    4032.2541    2239.1955   -116.16553    273.87966   -344.43862   -3580.1383 
 6149000    219.72811   -4327.3315   -3950.7251   -4327.3315            0    2229.5133    18.138365    23.261889    21.966876    9268.5413    1896.4154    2666.4913    2125.6333    -301.4843   -252.39387   -509.71978   -3649.3569 
 6150000    210.65154   -4361.2219   -4000.1724   -4361.2219            0    2276.2188    17.955351    23.507558    22.031084    9299.0221    1872.7756     1117.646    3838.2348   -68.526282   -336.42168    497.02442   -3691.4791 
 6151000    217.03722   -4342.9552   -3970.9608   -4342.9552            0    1233.4877    18.078844    23.602069    21.852708    9324.5094    1147.3663    1229.9919    1323.1049   -151.19179    -137.0156   -248.26049   -3803.2208 
 6152000    197.77312      -4354.9   -4015.9237      -4354.9            0    1283.5238    18.130626    23.218091    22.154333    9326.0555    174.64423    2067.5513    1608.3759   -1016.6806    499.71095    125.78525   -3841.3504 
 6153000     213.2571   -4343.6887   -3978.1733   -4343.6887            0    1827.4205    18.027636    23.400513    22.031502      9294.12     1256.238    2157.8468    2068.1766   -129.59973   -1021.6579    277.04585   -3730.4752 
 6154000    201.41392   -4349.4861   -4004.2696   -4349.4861            0    477.81324    17.899897    23.570683    22.127331    9335.8042    1572.8748    35.106002   -174.54113    633.79578   -564.00617    228.39689   -3939.2138 
 6155000    199.25153   -4332.4006   -3990.8903   -4332.4006            0    2042.5007    17.912777    23.402275    22.149029    9284.8669    2469.0027    1401.7493      2256.75    870.88798    891.40062    -232.8841   -3714.3147 
 6156000     193.0868   -4359.0702    -4028.126   -4359.0702            0    2587.0667    18.146578    23.484935    21.705364    9250.2008     2066.916    2634.4924    3059.7916    352.13372    212.50116    117.87166   -3679.1186 
 6157000    206.63632   -4356.4714   -4002.3038   -4356.4714            0    2137.8446    17.950641    23.405729    22.119283    9293.3689    2166.5766    2685.2258    1561.7315    298.95679    435.13917   -285.80192   -3712.5526 
 6158000     219.7112    -4376.573   -3999.9956    -4376.573            0    2651.4033    17.984019    23.409218    21.990976     9258.021     2769.674    2308.2663    2876.2698   -254.27062    139.35541    -463.7986   -3642.0064 
 6159000    206.29094   -4346.8818   -3993.3062   -4346.8818            0    2126.3872    17.887486    23.491321    22.040716    9261.5239    1633.7468     3214.059    1531.3557    91.474213   -857.38066    683.20995   -3706.0955 
 6160000    218.05101   -4334.9242   -3961.1923   -4334.9242            0    1402.3478    18.146387    23.327023    21.948199    9290.6986    465.91407    1790.0223    1951.1069   -425.21786    192.86121   -372.46236   -3771.1807 
 6161000    201.22656   -4363.7048   -4018.8094   -4363.7048            0    3043.6125    17.927558    23.189834    22.169825    9216.8185     3663.548    3619.4284    1847.8611    755.86442   -499.32434   -12.657861   -3609.6935 
 6162000    217.27516    -4365.416   -3993.0138    -4365.416            0    2344.7003    18.014539    23.388964     22.01921    9277.6049    1992.1333    3112.2933    1929.6744    648.19301    125.73719   -140.44716   -3675.7656 
 6163000    205.38414   -4343.4656   -3991.4442   -4343.4656            0    2494.5864    17.994505      23.4416    21.950184    9259.0261    3100.5123    2968.0939    1415.1529    667.91858   -161.18141    243.05244   -3654.5917 
 6164000    213.68197     -4364.67   -3998.4264     -4364.67            0    1609.5556    17.782341    23.603592    22.119866    9284.3076    2111.5725    2401.0269    316.06735    917.86755    17.412246    826.77863   -3780.4892 
 6165000    205.44659   -4339.9524    -3987.824   -4339.9524            0    2388.0158    18.022938    23.326332    22.008067    9252.3903    2123.8592    2500.0787    2540.1096    34.551799     437.5637    489.23964   -3665.5932 
 6166000    213.03208   -4341.0206   -3975.8909   -4341.0206            0    1330.2263    18.158329    23.300711    22.032813    9322.1269    859.24362     1796.529    1334.9064    162.19545    159.14666   -366.00559   -3795.0417 
 6167000    196.58734   -4342.6082   -4005.6642   -4342.6082            0    2049.6603    17.862315    23.613752    22.112205    9326.8455    3163.4085    791.23919    2194.3333    353.22146   -257.89663    194.91455   -3726.8643 
 6168000    224.56696   -4339.6406   -3954.7405   -4339.6406            0    3049.1554    17.936699    23.472219    21.957397    9244.3744    3386.8898    2340.9057    3419.6708    106.83122    358.50644    487.67942   -3543.6543 
 6169000    221.71316   -4339.6138    -3959.605   -4339.6138            0    4049.8022    18.105054    23.107658    21.932137     9175.647    4112.2797    3554.3138    4482.8132    1048.3514    256.36692   -68.823925    -3417.671 
 6170000    221.15203    -4366.524    -3987.477    -4366.524            0    2491.1062    18.004153    23.244445    22.071185    9236.7145    1959.6922    2696.1234     2817.503   -825.01577   -709.31022    655.46725   -3651.9051 
 6171000    214.45543   -4360.2727   -3992.7035   -4360.2727            0    1564.8004    17.894816    23.693407    21.898937    9284.9118    1788.0633    1157.3746    1748.9633    377.12142   -446.27032      534.631   -3780.8124 
 6172000    206.62858   -4348.6727   -3994.5183   -4348.6727            0     2035.379    18.049057    23.174597    22.236994    9301.2817    2478.2453     3618.725    9.1665547   -722.37487    16.337129   -663.55038   -3718.4199 
 6173000    205.61824   -4352.0904   -3999.6678   -4352.0904            0    2398.2169     18.10651     23.31805    21.905921    9248.8662    2293.7368    3345.1268    1555.7873    679.83715   -434.90958   -487.34141   -3676.1837 
 6174000    199.61851   -4340.9069   -3998.7676   -4340.9069            0    2584.4711    17.843635    23.587731    21.965482    9245.0707    3799.9845    1799.7855    2153.6433   -185.41524    301.12954   -779.96883   -3650.3037 
 6175000    209.78455   -4336.9307   -3977.3671   -4336.9307            0    2313.3026    17.955475    23.424063    22.020813    9261.7373     2086.654    2228.5118    2624.7419    907.47803   -23.658402   -194.75867   -3664.9026 
 6176000    197.74911   -4334.5782   -3995.6429   -4334.5782            0    2694.1447    17.966912    23.459034    21.988944    9268.0409    3541.5599     2081.797    2459.0771    490.84595   -683.48315    3.3934366   -3631.4892 
 6177000    213.90827   -4327.6108   -3960.9793   -4327.6108            0     3042.295    18.005158    23.199354    22.141382    9248.6333    3839.0773    3261.8027    2026.0049    457.76334    -448.5131    295.70969    -3550.629 
 6178000    207.92846   -4329.0943    -3972.712   -4329.0943            0    2200.3574    18.234805    23.311983    21.892971    9306.4712    2152.9078    2413.4609    2034.7034   -645.87767    627.62743    365.82096   -3674.0678 
 6179000    207.12293   -4345.4109   -3990.4093   -4345.4109            0    1470.8993    17.906474    23.461904    22.097422    9283.5685    893.45482    1795.7659    1723.4774    751.10013    671.30488    4.8957934   -3791.2622 
 6180000    209.19975   -4355.6962    -3997.135   -4355.6962            0    1332.2069    17.984101    23.706677    21.869193    9323.7831    1569.5156    820.04107    1607.0641    90.225764    132.30875    50.999058   -3815.9844 
 6181000    203.12155   -4329.4224    -3981.279   -4329.4224            0      1960.41    18.090642    23.183609    22.191529    9307.2689    3085.5567    1830.9357    964.73767    -376.0462   -282.85853    561.18707   -3715.1789 
 6182000    201.19523   -4309.1463   -3964.3046   -4309.1463            0    2665.2853    18.209459    23.406628    21.847973    9312.0873    1019.3794    2754.8133    4221.6632    115.83223    67.866933   -844.38371   -3602.3395 
 6183000    206.46841   -4351.8645   -3997.9847   -4351.8645            0    2817.0403    17.811038    23.502005    22.172819    9281.4334    3242.3661     2403.778    2804.9768    1201.1008   -35.121185   -451.00077   -3616.6696 
 6184000    204.44791   -4358.7762   -4008.3595   -4358.7762            0    2403.7263    18.041487    23.449349    21.921307    9274.0526    1913.4519    2096.5381    3201.1888   -779.67808    1063.0074    5.6898155   -3683.2494 
 6185000    211.79908   -4335.6973   -3972.6809   -4335.6973            0    1818.8473    18.245229    23.169499     22.14562      9361.68    1850.2536    2606.6355    999.65291   -737.81465   -740.65969   -78.318149   -3724.3527 
 6186000    214.57185   -4340.8118    -3973.043   -4340.8118            0    1355.8391    18.072433    23.413517    22.040214    9326.0784    644.37055    1242.7426    2180.4043   -438.32827    303.71786    94.534804   -3788.6335 
 6187000    204.37782   -4344.3326    -3994.036   -4344.3326            0    2552.5647    17.794832    23.552245    22.019771    9228.6678    4343.5215    2162.5139    1151.6587     236.2455   -7.9793651    -370.8591   -3650.4847 
 6188000     226.3549   -4346.6989   -3958.7344   -4346.6989            0    1784.7349    18.017328    23.290165     22.16111    9299.3901     718.2941     2260.908    2375.0026    171.04768     251.1515    267.77878    -3716.685 
 6189000    205.16413   -4364.2315   -4012.5872   -4364.2315            0     1587.866    18.134694    23.361516    21.930968    9291.1407    837.84024    1081.4886    2844.2691    456.64205   -241.85229    78.632519   -3797.4286 
 6190000    216.01964   -4322.9088   -3952.6586   -4322.9088            0    1365.5385    17.909655    23.489531    22.246973    9359.0659    2147.0943    1044.0979    905.42335   -839.95941    591.85126   -806.75407    -3766.273 
 6191000    202.92419   -4329.0327   -3981.2276   -4329.0327            0    1799.0559    18.005335    23.537929    21.980467    9315.5041    1437.5124    2576.5779    1383.0775    24.568002    524.85047    422.91032   -3736.8131 
 6192000    202.95007   -4326.5877   -3978.7382   -4326.5877            0    1186.6526    18.111115    23.378746    22.082848     9350.212    272.67887     1458.351    1828.9279    309.73739    646.96983    68.672475   -3816.9224 
 6193000    211.12564   -4343.4995   -3981.6374   -4343.4995            0    2207.8663    18.040533    23.377342    22.028337    9290.2247    2689.2999    2071.7512    1862.5479    573.40749    592.38684    77.955287   -3682.4971 
 6194000     221.1261   -4344.7539   -3965.7513   -4344.7539            0    1253.4753    17.920596    23.614306     22.04091    9327.3259    2348.3248     1027.195    384.90603   -510.85625    320.64988     938.2259   -3795.2417 
 6195000    209.49478   -4344.3418   -3985.2749   -4344.3418            0    2460.5885    17.906376    23.490519    21.937851      9227.72    2268.5628    2457.4767    2655.7259   -1210.2951   -167.10864    81.181281   -3654.1367 
 6196000    213.27898   -4348.5454   -3982.9925   -4348.5454            0    1769.1887    18.041587    23.366628     21.95853    9257.0806    1557.0047    2793.6902    956.87111   -276.34633   -572.97768   -12.098133   -3744.1431 
 6197000    208.73125   -4338.5801   -3980.8218   -4338.5801            0    1837.2412    18.136573    23.172159    22.121619    9296.9101    842.33759    2629.0582    2040.3278    140.45724   -243.57092   -39.789991   -3731.7178 
 6198000    217.24646   -4348.2256   -3975.8726   -4348.2256            0    2654.9349    18.026493    23.569074    21.834051    9276.5839    1328.9886    2810.2911    3825.5251     201.3495    336.07318   -60.681903   -3616.6878 
 6199000    224.59347   -4348.0267   -3963.0812   -4348.0267            0    2043.8862    17.851777    23.460466    22.131524     9268.926    2047.6863    1278.2645    2805.7076    759.92329   -135.73345   -399.13387   -3686.7932 
 6200000    206.62264   -4348.7996   -3994.6554   -4348.7996            0    2204.7038    18.151519    23.224798    21.990713    9270.5228    629.37447    2549.4601     3435.277   -321.11964   -721.73027   -457.00075   -3696.5771 
 6201000    202.89996   -4334.4132   -3986.6496   -4334.4132            0    1988.9346    18.039418    23.343305    22.075842    9296.1289    2562.2801    1589.2272    1815.2965    109.80567   -382.79755   -191.17749   -3717.0008 
 6202000    208.75699   -4338.4923   -3980.6899   -4338.4923            0    2383.0542     17.89905    23.478735    22.109729    9291.5483    2122.3411    4469.3266    557.49482   -168.74849     259.7062    309.91769   -3657.7677 
 6203000    200.97732   -4348.3344   -4003.8661   -4348.3344            0    2259.0828    17.903771    23.624699    21.911363    9267.8753    3126.4159    2466.8292    1184.0034    883.17915   -477.98121    722.69565   -3698.5229 
 6204000    198.83583   -4345.3084   -4004.5106   -4345.3084            0    2100.5728    18.105015     23.22754    22.072912    9282.4309    2126.7297    2188.8472    1986.1415    483.17373    881.35469   -80.348304   -3720.1461 
 6205000    199.97061   -4355.5027   -4012.7599   -4355.5027            0    2740.4392    18.114039    23.343849    21.901076    9260.9005    2952.5491    3192.1099    2076.6585    548.99174    -16.18328   -659.12898   -3642.6342 
 6206000    201.19335   -4349.6852   -4004.8467   -4349.6852            0    1437.0885    17.943497    23.540188    21.996716    9291.2654    2244.5884    614.37982    1452.2973    -603.2292   -380.83201   -74.060054   -3810.1161 
 6207000    214.27284   -4358.3768   -3991.1205   -4358.3768            0    1295.7374    17.897397    23.537581    22.094758    9307.6697    3454.2868    55.049582     377.8759    793.24748   -238.81043    445.77364   -3815.2334 
 6208000    210.00572   -4332.1231   -3972.1805   -4332.1231            0    2801.3758    18.061126    23.401199    21.902651    9257.1996    4209.5022    887.09162    3307.5335    219.06728    236.90444    113.32905   -3593.9759 
 6209000    213.08421   -4354.2709   -3989.0519   -4354.2709            0    2219.1745    17.942252    23.295173    22.131405     9250.216    2879.1598    1195.1636    2583.2002    658.64725   -283.83655   -184.60524   -3689.6743 
 6210000    222.39725   -4344.5067   -3963.3254   -4344.5067            0    2739.0977    18.026004    23.646691    21.738181    9266.0161    2166.5365    2151.3691    3899.3876   -973.65666     706.9297   -771.13141   -3593.1765 
 6211000    219.97424    -4371.394   -3994.3657    -4371.394            0    1216.1636    17.968739    23.467708    22.040927    9294.3307    650.67684    1170.2734    1827.5407    9.3384441    617.29354   -733.04452   -3829.5168 
 6212000    216.65859   -4358.2012   -3986.8558   -4358.2012            0    1579.3126    18.012729    23.600448    21.985113     9346.058    1201.3319    1792.7509    1743.8551    834.55991   -173.08778    111.65934   -3771.5913 
 6213000    208.26789    -4327.227   -3970.2629    -4327.227            0    2479.2072    18.143679    23.041429    22.123074    9248.6905    1520.6544    3236.2575    2680.7097    474.06721   -396.98541   -274.05061   -3635.8608 
 6214000    206.84101   -4347.4319   -3992.9135   -4347.4319            0    2797.8147    18.075955    23.418185    21.854493    9251.1389    1411.4361    3420.6801    3561.3279   -564.24404   -550.14226     9.592038   -3615.4369 
 6215000    202.89204   -4375.7174   -4027.9673   -4375.7174            0    2574.6004    17.878034    23.522688    21.962176    9235.9606    3757.7662    1000.5198    2965.5153    21.023058   -280.99696    376.91422   -3681.1763 
 6216000    208.44409   -4355.2449   -3997.9789   -4355.2449            0    1927.2836    18.056202    23.466611    21.987213     9316.375    1631.0531    2135.2638    2015.5337    -202.7633   -694.96119    305.01442   -3736.1193 
 6217000    195.05673   -4342.6006   -4008.2801   -4342.6006            0    1870.9242     18.00903    23.392006    22.005273    9270.1029    1998.4205    1720.5551    1893.7971   -174.62621    675.95013    120.38641   -3755.3406 
 6218000    213.18248   -4348.8857   -3983.4983   -4348.8857            0    2247.5488    17.877305    23.490277    22.079163    9271.9863    3363.7106    1561.9026    1817.0332    568.31783    50.979371    -12.30384   -3679.5793 
 6219000    211.69154   -4333.1685   -3970.3364   -4333.1685            0    2160.0005    18.047208    23.510254    21.905434    9294.3537    2927.8301    2200.5167    1351.6548    803.72294    320.04395   -344.84979   -3677.5513 
 6220000    199.44701   -4355.3042   -4013.4589   -4355.3042            0      614.987    17.941792    23.336497    22.338083    9352.9231    2451.4648    675.94901   -1282.4528    938.52414   -103.30059    92.524911   -3929.5729 
 6221000    207.87472   -4343.0575   -3986.7674   -4343.0575            0    3030.1108      17.9985    23.417657    21.860965    9214.0187    4141.5344    2789.6744    2159.1236    1031.6911   -68.126305     32.78169   -3579.5901 
 6222000     202.6453   -4349.4938   -4002.1667   -4349.4938            0    3489.8962     18.07601     22.95298    22.283892    9245.5491    3387.5373    5011.6431    2070.5081     546.4527    358.98013    -334.7589      -3531.6 
 6223000     197.2147   -4333.6438   -3995.6245   -4333.6438            0    1878.5967    18.089261    23.438293    21.897203    9284.0062     837.6752    2793.0888     2005.026    588.01899   -975.73373    657.97885   -3741.2668 
 6224000      211.602   -4350.5179   -3987.8394   -4350.5179            0     1600.508     17.80884    23.534794    22.205143    9306.7836    3246.7964    689.20956    865.51816   -12.964617    651.94212    44.164189   -3770.6026 
 6225000    208.27549   -4355.1562   -3998.1792   -4355.1562            0    2296.0381    18.031698    23.637818      21.6284     9218.673    2768.0626    138.02889    3982.0228   -697.69829   -319.58443   -205.62197   -3689.4886 
 6226000    217.50735   -4356.4381    -3983.638   -4356.4381            0    2673.9647    18.067711    23.114848    22.099711    9229.5556    2611.5458     2633.622    2776.7262   -337.09736    332.35349    709.56156   -3623.7127 
 6227000    222.83194   -4315.8959   -3933.9696   -4315.8959            0    3134.5021    17.946589    23.533223     21.91058    9253.7379     4082.402    2176.7763    3144.3279   -563.84759   -80.394862    756.10233   -3510.9489 
 6228000    213.17836   -4334.8551   -3969.4747   -4334.8551            0    1991.7357    17.908487    23.450089    22.120302     9289.545    2846.2704     2787.024    341.91269   -723.77861    32.276295   -527.58827   -3699.6374 
 6229000    210.45227   -4336.0557   -3975.3477   -4336.0557            0     1596.584    18.125926     23.14503     22.18874    9308.7331    2012.8498    1665.5378    1111.3645   -182.93663   -774.16755   -1094.9763   -3758.5982 
 6230000    206.37027   -4302.0506   -3948.3391   -4302.0506            0    2234.7035    18.009258    23.447798    21.912743    9253.2573    2358.6638    2528.8086    1816.6382    858.42713   -25.511365    492.04969   -3646.7675 
 6231000    213.39636   -4337.4078   -3971.6537   -4337.4078            0    2056.6392    17.712667    23.665008    22.160161    9288.8835    3883.4273    2264.1817    22.308635    560.64578   -597.44615    109.14234   -3693.0432 
 6232000     219.8633   -4354.3894   -3977.5513   -4354.3894            0    1586.4114    18.190236    23.273561    21.842423     9247.024    3114.8856    1519.4872    124.86124   -391.55124   -74.498206   -673.50083   -3763.6104 
 6233000    205.34299     -4351.56   -3999.6091     -4351.56            0    1987.8545    17.888814    23.237567    22.284404    9263.4597    2758.8279    3003.9037    200.83174   -616.00358   -57.185137   -5.3259815   -3731.0539 
 6234000    218.68224   -4343.2959   -3968.4821   -4343.2959            0    1396.9788    17.992629    23.561215     21.93571    9299.1661    1427.4626    1308.4126    1455.0612   -642.43912    148.57933    1393.5884   -3779.0255 
 6235000    208.81072   -4359.4981   -4001.6036   -4359.4981            0    3563.9458    17.893288    23.188734    22.158235    9193.9549     4024.789    4137.2204    2529.8281   -184.10609    25.715931    602.04109   -3523.7341 
 6236000    216.53413    -4360.719   -3989.5869    -4360.719            0    1740.0424    18.018646    23.554564     21.86957    9281.9123    657.98133    1574.9486    2987.1971   -563.08794    205.56052    243.12387   -3754.0423 
 6237000    208.59018   -4339.0622   -3981.5458   -4339.0622            0    3098.0513     17.92692    23.277212    21.989044      9175.78    2604.6746    3862.3292    2827.1502    231.44523    77.739298     64.88697   -3566.9666 
 6238000    216.21866   -4342.7993   -3972.2079   -4342.7993            0     1572.752    18.069643    23.438055     21.98206    9309.7824    1600.3585    2133.4161    984.48134    545.34755   -151.16244     347.6463   -3758.6697 
 6239000    201.41064   -4327.7527   -3982.5417   -4327.7527            0    1680.1002    17.894962    23.391352     22.22532    9303.2381    1110.2105    3293.6949     636.3951    433.96702   -201.62827    14.453582   -3754.5888 
 6240000    211.54536   -4344.6693   -3982.0878   -4344.6693            0     1952.032     17.84462    23.643086    21.954103    9262.4773     1090.986    1714.2314    3050.8785    594.91345    654.77753   -646.60738      -3718.4 
 6241000    202.05645    -4355.228   -4008.9102    -4355.228            0     1847.136    18.060436    23.301879    22.072049    9288.8475    1079.5005    1541.3044    2920.6031   -285.70023   -2.0169729    148.96009   -3758.6818 
 6242000    206.65668    -4338.315   -3984.1126    -4338.315            0    2357.6772    18.207127    23.232479    21.945846    9283.0208    2363.6206    2090.1177    2619.2933   -781.89947   -113.89233    868.58137   -3664.9224 
 6243000    207.45652   -4319.9971   -3964.4237   -4319.9971            0    2283.5316     17.87792    23.688148    21.933066    9288.5395    3355.1833    2424.2978    1071.1138    366.73771   -100.25753    360.86601   -3655.0878 
 6244000    214.93327   -4345.5643    -3977.176   -4345.5643            0    2791.3945    17.910443    23.406612    22.102265    9265.7733    2626.9012    3307.3779    2439.9043     1601.247    29.072281    681.98632   -3599.9699 
 6245000    215.28615   -4331.5538   -3962.5607   -4331.5538            0    2433.3971    18.281206    23.255622    21.915628    9317.2276    1527.5858    2454.8487    3317.7569    169.07019     54.58917    441.14557   -3631.9053 
 6246000    211.41291   -4350.8497   -3988.4952   -4350.8497            0    1380.3581    17.970353    23.492617    22.019329    9295.9137    2407.7208     439.4449    1293.9085   -601.26443    136.49746   -159.71405   -3801.3582 
 6247000    204.61249   -4344.3175   -3993.6187   -4344.3175            0    2322.7699    18.022853    23.652823    21.745817    9270.0535    2103.8349    1762.4504    3102.0243    552.61291   -340.02922   -716.17359   -3679.5936 
 6248000    215.12679   -4334.4343   -3965.7144   -4334.4343            0    562.86724    18.036269    23.192049    22.224337    9296.3964    954.04903    154.63844    579.91425   -1454.7448   -190.92579    385.11364   -3889.4017 
 6249000    203.30664   -4354.0221   -4005.5615   -4354.0221            0    2871.6363    18.116971    23.391841    21.810348    9242.9921    2911.3833    3050.0784    2653.4472   -122.07673   -980.09781   -169.16709   -3618.4662 
 6250000    218.87854   -4324.8883    -3949.738   -4324.8883            0    3534.0849    17.671724    23.380026    22.303794    9215.1554    5465.2733    4035.6278    1101.3537    491.45851    532.31751    -17.07237   -3474.7796 
Loop time of 356.44 on 64 procs for 250000 steps with 864 atoms

Performance: 121.199 ns/day, 0.198 hours/ns, 701.380 timesteps/s
196.1% CPU use with 32 MPI tasks x 2 OpenMP threads

MPI task timing breakdown:
Section |  min time  |  avg time  |  max time  |%varavg| %total
---------------------------------------------------------------
Pair    | 17.426     | 24.871     | 36.199     | 109.3 |  6.98
Bond    | 0.82543    | 1.0248     | 1.7833     |  16.3 |  0.29
Kspace  | 178.02     | 192.45     | 201.64     |  42.9 | 53.99
Neigh   | 1.09       | 1.2196     | 1.3093     |   5.7 |  0.34
Comm    | 52.047     | 55.168     | 58.883     |  25.2 | 15.48
Output  | 0.55454    | 0.55484    | 0.55633    |   0.0 |  0.16
Modify  | 62.361     | 64.633     | 71.404     |  22.4 | 18.13
Other   |            | 16.52      |            |       |  4.64

Nlocal:        27.0000 ave          38 max          17 min
Histogram: 4 6 3 1 3 3 2 3 2 5
Nghost:        2133.09 ave        2218 max        2052 min
Histogram: 11 5 0 0 0 0 0 1 6 9
Neighs:        6585.91 ave        9486 max        4197 min
Histogram: 4 5 3 2 3 3 3 4 4 1

Total # of neighbors = 210749
Ave neighs/atom = 243.92245
Ave special neighs/atom = 2.0000000
Neighbor list builds = 4481
Dangerous builds = 0

unfix		3
unfix		2
unfix		1

write_data	data.final.${pid} nocoeff
write_data	data.final.1 nocoeff
System init for write_data ...
PPPM initialization ...
  extracting TIP4P info from pair style
  using 12-bit tables for long-range coulomb (../kspace.cpp:340)
  G vector (1/distance) = 0.37147573
  grid = 24 27 25
  stencil order = 5
  estimated absolute RMS force accuracy = 0.0032079653
  estimated relative force accuracy = 9.6606922e-06
  using double precision FFTW3
  3d grid and FFT values/proc = 4410 672
Last active /omp style is kspace_style pppm/tip4p/omp

write_restart   restart.lmp.${pid}
write_restart   restart.lmp.1
System init for write_restart ...
PPPM initialization ...
  extracting TIP4P info from pair style
  using 12-bit tables for long-range coulomb (../kspace.cpp:340)
  G vector (1/distance) = 0.37147573
  grid = 24 27 25
  stencil order = 5
  estimated absolute RMS force accuracy = 0.0032079653
  estimated relative force accuracy = 9.6606922e-06
  using double precision FFTW3
  3d grid and FFT values/proc = 4410 672
Last active /omp style is kspace_style pppm/tip4p/omp
Total wall time: 0:05:56
