LAMMPS (30 Jul 2021)
  using 1 OpenMP thread(s) per MPI task
package omp 0
using multi-threaded neighbor list subroutines
echo both

include		in.partitions
variable        pid world 0
include		in.temp
variable        temperature equal 249.16
variable	tempDamp equal 100.0
include		in.pressure
variable        pressure equal 7375.0
variable        pressureDamp equal 1000.0 # This is 1 ps
include		in.seed
variable        seed world 745823

units		real
atom_style	full
box tilt large
read_restart	restart.lmp.${pid}
read_restart	restart.lmp.0
Reading restart file ...
  restart file = 30 Jul 2021, LAMMPS = 30 Jul 2021
  restoring atom style full from restart
  triclinic box = (-10.610748 -9.3437052 0.10619674) to (12.590748 12.333703 21.753802) with tilt (-9.0416475 1.7112182 3.1533841)
  4 by 4 by 4 MPI processor grid
  restoring pair style lj/cut/tip4p/long/omp from restart
  restoring bond style harmonic/omp from restart
  restoring angle style harmonic/omp from restart
  1296 atoms
  864 bonds
  432 angles
Finding 1-2 1-3 1-4 neighbors ...
  special bond factors lj:    0        0        0       
  special bond factors coul:  0        0        0       
     2 = max # of 1-2 neighbors
     1 = max # of 1-3 neighbors
     1 = max # of 1-4 neighbors
     2 = max # of special neighbors
  special bonds CPU = 0.077 seconds
  read_restart CPU = 0.295 seconds
include 	in.setup
variable	out_freq equal 1000
variable	out_freq2 equal 10000
variable	out_freq3 equal 1000

timestep	2.0

neigh_modify    delay 7 every 1

include		in.tip4p
# This is TIP4P/Ice

# create groups ###
group ox type 2
432 atoms in group ox
group hy type 1
864 atoms in group hy

# set charges - beside manually ###
set group ox charge -1.1794
Setting atom values ...
  432 settings made for charge
set group hy charge 0.5897
Setting atom values ...
  864 settings made for charge

# ### TIP3P Potential Parameters ###
pair_style lj/cut/tip4p/long/omp 2 1 1 1 0.1577 8.5
pair_coeff 1 1*2 0.000 0.000
pair_coeff 2 2 0.21084 3.1668
bond_style  harmonic
bond_coeff  1 450 0.9572
angle_style harmonic
angle_coeff 1 55 104.52
kspace_style pppm/tip4p/omp 1.0e-5
pair_modify tail yes

thermo          ${out_freq}
thermo          1000
thermo_style    custom step temp pe etotal epair emol press lx ly lz vol pxx pyy pzz pxy pxz pyz enthalpy

restart 	${out_freq3} restart.lmp.${pid} restart2.lmp.${pid}
restart 	1000 restart.lmp.${pid} restart2.lmp.${pid}
restart 	1000 restart.lmp.0 restart2.lmp.${pid}
restart 	1000 restart.lmp.0 restart2.lmp.0


include         in.dump
dump            myDump all atom ${out_freq2} dump.water.${pid}
dump            myDump all atom 10000 dump.water.${pid}
dump            myDump all atom 10000 dump.water.0
dump            myDump2 all dcd ${out_freq2} dump.dcd
dump            myDump2 all dcd 10000 dump.dcd
dump_modify     myDump append yes
dump_modify     myDump2 append yes


variable natoms 	equal  "count(all)"                        # NUMBER ATOMS
variable H      	equal  "enthalpy/v_natoms"                 # ENTHALPY-per-atom
variable Vol      	equal  "vol/v_natoms"                 # volume-per-atom
fix AVG all 		ave/time ${out_freq} 1 ${out_freq} v_Vol v_H file vol_enthalpy.dat
fix AVG all 		ave/time 1000 1 ${out_freq} v_Vol v_H file vol_enthalpy.dat
fix AVG all 		ave/time 1000 1 1000 v_Vol v_H file vol_enthalpy.dat


timer           timeout 10:00:00 every 1000
New timer settings: style=normal  mode=nosync  timeout=10:00:00

fix 		1 all shake 1e-6 200 0 b 1 a 1
       0 = # of size 2 clusters
       0 = # of size 3 clusters
       0 = # of size 4 clusters
     432 = # of frozen angles
  find clusters CPU = 0.192 seconds
fix             2 all nph tri ${pressure} ${pressure} ${pressureDamp}
fix             2 all nph tri 7375 ${pressure} ${pressureDamp}
fix             2 all nph tri 7375 7375 ${pressureDamp}
fix             2 all nph tri 7375 7375 1000
fix             3 all temp/csvr ${temperature} ${temperature} ${tempDamp} ${seed}
fix             3 all temp/csvr 249.16 ${temperature} ${tempDamp} ${seed}
fix             3 all temp/csvr 249.16 249.16 ${tempDamp} ${seed}
fix             3 all temp/csvr 249.16 249.16 100 ${seed}
fix             3 all temp/csvr 249.16 249.16 100 745823


run             250000
PPPM initialization ...
  extracting TIP4P info from pair style
  using 12-bit tables for long-range coulomb (../kspace.cpp:340)
  G vector (1/distance) = 0.36622018
  grid = 30 40 32
  stencil order = 5
  estimated absolute RMS force accuracy = 0.0047849217
  estimated relative force accuracy = 1.4409649e-05
  using double precision FFTW3
  3d grid and FFT values/proc = 5168 640
Last active /omp style is kspace_style pppm/tip4p/omp
Neighbor list info ...
  update every 1 steps, delay 7 steps, check yes
  max neighbors/atom: 2000, page size: 100000
  master list distance cutoff = 10.8154
  ghost atom cutoff = 10.8154
  binsize = 5.4077, bins = 7 5 5
  1 neighbor lists, perpetual/occasional/extra = 1 0 0
  (1) pair lj/cut/tip4p/long/omp, perpetual
      attributes: half, newton on, omp
      pair build: half/bin/newton/tri/omp
      stencil: half/bin/3d/tri
      bin: standard
Per MPI rank memory allocation (min/avg/max) = 9.434 | 9.440 | 9.445 Mbytes
Step Temp PotEng TotEng E_pair E_mol Press Lx Ly Lz Volume Pxx Pyy Pzz Pxy Pxz Pyz Enthalpy 
25750000    248.13516   -6288.1088   -5649.7962   -6288.1088            0    5535.6924    23.201495    21.677408    21.647606    10887.626    6755.5266    5717.0943    4134.4564   -398.28831    369.14704   -1006.9367    -4770.812 
25751000    237.95977   -6311.1213   -5698.9843   -6311.1213            0    7258.3495    23.447095    21.174765     21.76411    10805.592    7213.2366    8013.3394    6548.4725   -390.81863    139.59976    492.33919   -4555.1521 
25752000    250.71417   -6330.6992   -5685.7523   -6330.6992            0    6818.9933    23.321837    21.432262     21.62933    10811.198    5563.5773     7166.828    7726.5745    377.35811    1704.6941    547.19768      -4610.6 
25753000    252.88151   -6343.3594   -5692.8371   -6343.3594            0    7290.8621    23.119036    21.620392    21.594056    10793.629    8066.2741    5607.9787    8198.3334   -584.83744    835.42178    471.45556   -4545.1532 
25754000    240.14779   -6349.4539   -5731.6883   -6349.4539            0     6824.434    23.389562    21.397801    21.573761    10797.348    6820.3634    5547.4922    8105.4464   -189.75881   -459.93558    1357.8103   -4657.0567 
25755000    247.01028   -6334.1732   -5698.7543   -6334.1732            0    7170.7303    23.078172    21.557966     21.73128    10811.713    7845.4673    7459.1469    6207.5768   -1873.1545    1083.1129   -290.46399   -4568.0898 
25756000    259.87145   -6347.2768   -5678.7733   -6347.2768            0    7051.9164    23.295881    21.396757    21.704989    10818.988    6300.3113    7758.9889     7096.449   -1413.3424     736.7306    1641.3548   -4566.0948 
25757000    252.14506   -6358.9578     -5710.33   -6358.9578            0    7220.0259    23.332222    21.432031    21.580049    10791.253    6363.7613    7771.4381    7524.8783   -5.7228743    309.77928    409.47032    -4574.047 
25758000     244.8306   -6312.3735   -5682.5617   -6312.3735            0    7325.1833     23.36759    21.485833    21.536565    10812.909    6537.4187    6872.2482     8565.883 -0.055194383    1891.6069      -256.66   -4527.4155 
25759000    257.62705     -6315.08   -5652.3501     -6315.08            0    6849.9198    23.332683    21.392751    21.699644    10831.383    6297.2324    7336.4333    6916.0935    22.857117    164.48677   -797.10539   -4570.3052 
25760000    251.36656   -6322.1366   -5675.5115   -6322.1366            0    5653.8327    23.434727    21.369622    21.605722    10819.957    5431.0256    4890.9671    6639.5053     670.1695   -840.43385    495.44665   -4783.3482 
25761000    241.41507   -6314.0195    -5692.994   -6314.0195            0    6184.7236     23.18255    21.640816    21.611812    10842.414    6748.1505    5022.0361    6783.9843    1352.4078   -757.92592    568.22817   -4715.0315 
25762000    249.52393   -6300.7353   -5658.8502   -6300.7353            0    5503.3422    23.443673    21.340301    21.779994    10896.423    5478.6149    5375.6186    5655.7932    796.55938    453.60171    54.146691   -4784.2967 
25763000    250.98425   -6324.8023   -5679.1606   -6324.8023            0    6020.4365    23.309654    21.447335     21.75977     10878.36    7440.6109    5505.0052    5115.6935    -348.7037    384.96339   -1177.3342     -4724.02 
25764000    240.20939   -6340.8321   -5722.9081   -6340.8321            0    7682.8687    23.265885    21.516825    21.587264    10806.756    7039.7357     8343.369    7665.5012   -98.591226   -511.40241   -324.98975   -4512.0461 
25765000    254.68547   -6334.7675   -5679.6046   -6334.7675            0    6803.7493    23.521859    21.372551    21.524686    10820.936    6501.8571    6471.5897    7437.8012   -615.07797   -1698.7586    127.47293   -4605.8897 
25766000    249.32784   -6329.4152   -5688.0345   -6329.4152            0    7938.2024    23.051284    21.634432    21.605682    10774.784    8426.4877    7617.8034    7770.3162   -347.72765   -56.148269   -455.66232   -4440.6319 
25767000     250.7068   -6333.6086   -5688.6807   -6333.6086            0    7466.9502    23.519685    21.087169    21.742564     10783.52    6280.6751    8930.3606    7189.8149    17.038465     131.1869    1527.9318    -4514.379 
25768000    240.43366   -6341.5983   -5723.0973   -6341.5983            0    6558.3953    23.169188    21.644718    21.547616    10805.926     8230.459    4902.9828    6541.7441   -820.02287    161.33892    245.14581   -4689.5379 
25769000    253.43837   -6343.7819   -5691.8271   -6343.7819            0    7950.7863    23.370515    21.370889    21.553627     10764.93    8399.0391     7388.479    8064.8407    13.712752   -1590.9147   -301.57037   -4443.5897 
25770000    249.13432   -6352.6238   -5711.7409   -6352.6238            0    7393.9636    23.322938    21.428411    21.575392    10782.809    7772.9463    6568.3113    7840.6331    36.456469    225.66699    392.07998   -4548.9942 
25771000    241.21535   -6340.3776   -5719.8658   -6340.3776            0    7469.2368    23.160832    21.483814    21.661777    10778.533    8494.1808    6910.1977    7003.3317   -64.962693    781.16351   -19.841337   -4545.7478 
25772000    250.39435   -6333.6839   -5689.5597   -6333.6839            0     7628.204    23.533103    21.219464    21.604546    10788.443    6806.8899    8853.0135    7224.7087    197.19846   -500.61585    787.92538   -4489.3505 
25773000    244.55874   -6334.7759   -5705.6635   -6334.7759            0    7000.1955    23.271654    21.506457    21.568312    10794.742    7944.3726    6438.9734    6617.2405    1647.8725    -662.3864   -821.01359    -4603.621 
25774000    264.01005   -6303.6222   -5624.4725   -6303.6222            0    6145.9714    23.476233    21.410076     21.64276    10878.256    4760.4576    7607.1636    6070.2931    1184.0018   -288.87483   -1284.9927   -4649.4251 
25775000    266.57211   -6341.2974   -5655.5569   -6341.2974            0    6562.8555    23.424517    21.393278    21.646557    10847.679    6057.4503    7344.8811     6286.235   -57.084114    480.14157    329.44308   -4617.2983 
25776000    256.20881    -6321.914   -5662.8325    -6321.914            0    6611.4435    23.204416     21.57318    21.659218    10842.454    6550.0388    6038.1644    7246.1272    980.07944    818.60061    652.21199   -4617.3909 
25777000    254.13498   -6328.8003   -5675.0536   -6328.8003            0    6200.9978    23.595986    21.209701    21.692926    10856.524    5889.6203    6776.2067    5937.1663    -288.5854    -1089.786    69.091419   -4693.2417 
25778000    237.39064    -6344.731   -5734.0581    -6344.731            0    5075.8342    23.192231    21.743753    21.613137    10899.205    5285.7001    4846.9188    5094.8838    396.89758    598.44108    -910.3338   -4927.2353 
25779000    243.73406    -6345.294    -5718.303    -6345.294            0    6780.8326    23.482193    21.410707    21.554386    10836.906    6026.1214    6341.3844    7974.9919     255.4105   -690.94277   -765.21891   -4646.6253 
25780000    260.89222   -6328.3195   -5657.1902   -6328.3195            0    6258.6911    23.379352    21.415839    21.685773    10857.816      5825.27    6814.7994    6136.0039    1388.8345    -363.1274     352.5899   -4666.1258 
25781000    254.12665   -6325.8527   -5672.1274   -6325.8527            0    5984.6225    23.245082    21.467112    21.832853    10894.698    6468.9455    5707.8594    5777.0626    761.06358   -238.03227    314.69037   -4721.2427 
25782000    257.99822    -6344.107   -5680.4224    -6344.107            0     5657.941    23.580066    21.366137    21.604266    10884.552    3834.3253    5827.8267    7311.6709    258.38684    1079.7154   -256.46285   -4782.2807 
25783000    243.63563   -6320.3992   -5693.6614   -6320.3992            0    6230.8106    23.370121    21.428653    21.690919      10862.6    6099.2383    6226.1996     6366.994    174.13485    862.59782   -39.426001   -4706.5771 
25784000     243.2652    -6337.332   -5711.5471    -6337.332            0    5989.2653    23.500066    21.389593    21.599255    10857.013    4851.6918    6573.5659    6542.5381    1461.4353   -616.48641    252.52671   -4763.2165 
25785000     243.2137   -6350.4626   -5724.8101   -6350.4626            0      6417.09    23.405793    21.430559    21.595198    10832.135    6404.3548    7167.7833    5679.1318    1083.3219   -382.98777    58.071883   -4711.0666 
25786000    245.75579    -6347.929   -5715.7372    -6347.929            0    7142.5931    23.347605    21.449251    21.605569    10819.824    6826.7568    6420.5272    8180.4954    934.10967    1143.9667   -350.86294   -4588.6644 
25787000    254.11275   -6345.8644   -5692.1748   -6345.8644            0    8441.5371    23.275885    21.296752    21.703976    10758.677    7777.0542    9250.0668    8297.4903    1266.5006    148.61873   -99.008397   -4367.6616 
25788000    255.06983   -6348.9585   -5692.8069   -6348.9585            0    8156.5142    23.282585    21.464992    21.539785    10764.733    8301.9605    8207.7343    7959.8477    689.60013   -1231.5776   -966.11012   -4412.2946 
25789000    254.08826   -6342.5091   -5688.8825   -6342.5091            0    7579.5387    23.399181     21.45097    21.484496    10783.823     6736.386    8503.6354    7498.5947    866.83427   -485.66874    39.761917   -4496.8409 
25790000    248.66023   -6346.7191   -5707.0558   -6346.7191            0      7800.17    23.448058    21.348051    21.502151    10763.338    6693.4363    8945.7179     7761.356    1675.7363   -989.98795    395.60082   -4482.6456 
25791000     241.4804   -6342.2289   -5721.0353   -6342.2289            0    6427.1296    23.187656    21.573393    21.702423    10856.342    6006.6045    6035.4416    7239.3427    768.17359     114.8117    546.33631   -4703.4368 
25792000    247.10538   -6336.0087   -5700.3452   -6336.0087            0    7460.5455     23.31358    21.454617    21.567689    10787.811    8488.8042    6476.0955    7416.7368   -1343.3814   -1087.1454    47.575085   -4526.5838 
25793000    251.58072   -6328.3983   -5681.2223   -6328.3983            0    7556.9441    23.101005    21.507117    21.707059    10784.849    9185.3771    7224.4042    6261.0509   -1086.1002   -1302.2288   -349.86906   -4492.6211 
25794000    245.92556   -6319.9856   -5687.3571   -6319.9856            0    8523.9696    23.391342    21.293993    21.570196    10744.008    6484.3797    9319.3668    9768.1624    293.06307    27.001491      728.222   -4351.7334 
25795000    232.28977   -6362.8913     -5765.34   -6362.8913            0    6920.8671    23.359237    21.451052    21.584791    10815.711    7239.1296    5754.4399    7769.0318   -437.16578    398.86426    528.44163   -4673.6697 
25796000    246.49929   -6323.7297   -5689.6253   -6323.7297            0    7574.5819    23.200246      21.4568    21.747427    10825.936    7073.8421     8007.914    7641.9896    1039.8579    493.54817   -45.077906   -4493.7112 
25797000    244.12573   -6348.7062   -5720.7076   -6348.7062            0    8430.5427     23.53073    21.093679    21.686433    10764.053    8557.4329    8512.3637    8221.8315    939.57994    636.49954    167.21961   -4397.2584 
25798000    249.60888   -6318.3042   -5676.2006   -6318.3042            0    7636.2496    23.241712    21.611369    21.473006    10785.574    6977.0111     6953.477    8978.2608    397.91403    566.72582    875.07164   -4475.0451 
25799000    257.35256    -6339.884   -5677.8602    -6339.884            0    6508.1809    23.338522    21.426731    21.649268    10826.111    5830.1844    7000.0387    6694.3194   -655.35264    246.67946    477.66474   -4650.2984 
25800000    253.91453   -6339.6898   -5686.5101   -6339.6898            0    8468.9742      23.2999    21.174436    21.764594    10737.829    8216.1207    9108.7782    8082.0237    1224.4594   -864.85817      589.541   -4360.2669 
25801000    260.19361   -6329.3406   -5660.0084   -6329.3406            0    6159.9522    23.243778    21.598896    21.556362    10822.155    5740.6135    5739.2618    6999.9814    1523.5842    720.05805    233.33738   -4687.7829 
25802000    244.24652   -6342.6037   -5714.2944   -6342.6037            0     7479.834    23.537435    21.221726    21.577889    10778.263    5453.4934    8723.5445    8262.4641    295.67804     734.7982    409.13018     -4538.54 
25803000    253.56543    -6358.903   -5706.6213    -6358.903            0    8663.2695    23.110653    21.344147    21.746056    10726.833      9796.47    8759.0511    7434.2872   -810.50897     878.5254   -305.53142   -4351.3407 
25804000    248.72238   -6322.3629   -5682.5397   -6322.3629            0    7847.4676    23.275228    21.270252    21.797511    10791.293    7509.5905    8077.4468    7955.3656   -223.21706    10.208162    777.04938   -4447.5057 
25805000    253.91895   -6332.1242   -5678.9332   -6332.1242            0    8686.0657    23.254378    21.358209    21.631448    10743.732    8119.0216    10137.314    7801.8618    208.30322    335.91049   -1037.0691   -4317.9457 
25806000    255.04435   -6314.8854   -5658.7994   -6314.8854            0     7715.479    23.368422    21.455183     21.51566    10787.387    7549.8491    6834.6768    8761.9111   -11.448313    530.52384   -1099.9028   -4444.9772 
25807000    253.64523   -6338.6888   -5686.2019   -6338.6888            0    8576.0418    23.271285    21.356821    21.581851    10726.195    9427.7068    7831.0247    8469.3938   -334.33884    374.63636    1243.6433    -4344.647 
25808000    249.83835   -6335.6436   -5692.9497   -6335.6436            0    8879.5126    23.193706    21.340821    21.668376    10725.255    10163.549    8701.4277     7773.561    914.74156   -1341.0561    1465.2729   -4304.0444 
25809000    243.62115   -6304.3534   -5677.6528   -6304.3534            0    9069.9386    23.191281     21.32088    21.636312    10698.259    10279.629    7662.3321    9267.8548    258.07194   -336.78108    1997.7072   -4262.5326 
25810000    234.92968   -6329.2989   -5724.9567   -6329.2989            0    8530.8012    23.349594    21.323276    21.610621    10759.709    8449.0588    8760.1627    8383.1821    843.46924   -606.72659   -2093.2651   -4386.3092 
25811000    245.92036   -6323.3115   -5690.6964   -6323.3115            0    8139.0656    23.199651    21.503675    21.612859    10782.175    8611.2938    7283.0874    8522.8156   -1058.6663    379.64888   -1144.6359   -4410.8531 
25812000    259.26034   -6338.9818   -5672.0504   -6338.9818            0    7857.6062    23.200499    21.441817    21.673382    10781.659    7465.3152    7791.3558    8316.1477   -152.71837    513.22999    1000.1399   -4436.5248 
25813000    254.19673   -6297.2875   -5643.3819   -6297.2875            0    7939.5265    23.281915    21.353174     21.74518    10810.459    9011.7299    7881.7545    6925.0951   -190.12769   -103.95018   -519.47084   -4391.6404 
25814000    244.49385   -6317.3655     -5688.42   -6317.3655            0    7764.8801    23.200312    21.616404    21.506367      10785.6    7395.6299    7681.8035     8217.207    380.13032   -264.01569   -848.74555   -4467.0283 
25815000    234.12117   -6353.0471   -5750.7846   -6353.0471            0    6825.5024    23.302493    21.415589    21.716269    10837.213    7306.7283    7229.7618    5940.0172    -511.7429    7.3825918   -911.99723   -4672.0164 
25816000    260.54562   -6333.7339   -5663.4961   -6333.7339            0    5520.1248    23.414133    21.330225    21.733816    10854.492    5607.0062    5983.5149    4969.8534   -352.94908   -89.082575    276.63745   -4789.6514 
25817000    239.22976   -6347.9412   -5732.5372   -6347.9412            0     6796.136    23.082075    21.514955    21.695136    10774.018    6338.7259    7881.7145    6167.9676    277.91648     1444.367    307.36453    -4664.674 
25818000    241.58463   -6340.1648    -5718.703   -6340.1648            0    6823.4356    23.437422    21.373333    21.572489    10806.433    6002.4433     7603.568    6864.2954   -376.33506    702.46087    407.94167   -4643.3245 
25819000     232.1226   -6338.7333    -5741.612   -6338.7333            0    7781.4953    23.237158    21.592279    21.466279     10770.56    7467.0422    7769.7417     8107.702   -799.63822   -1025.1342   -322.46998   -4519.3137 
25820000     246.9713   -6340.7967   -5705.4781   -6340.7967            0    6772.4337    23.324674    21.384122    21.688874    10817.926    6448.8233    6622.3191    7246.1589    -136.4938   -65.784891     1010.142   -4637.0024 
25821000    253.82359   -6340.1448   -5687.1991   -6340.1448            0    7045.6451    23.257143    21.343984    21.793272    10818.182    7661.1721    8126.6962     5349.067    1390.5443   -573.31519    128.83619   -4575.5929 
25822000    257.32512   -6284.9662    -5623.013   -6284.9662            0    6802.9711    23.247538     21.36634     21.80434    10830.538    7194.3523    6580.8383    6633.7227    1369.1477   -1370.9351    931.89591   -4548.4682 
25823000    243.56999   -6344.3964   -5717.8274   -6344.3964            0    7692.7892    23.355314    21.280955    21.630525    10750.877    8290.0818    6457.5537    8330.7321    -460.5487   -281.99115    951.08204   -4511.6711 
25824000    246.79023   -6333.7734   -5698.9205   -6333.7734            0    8573.6672    23.293356    21.511205    21.450382    10748.104    7348.2102    8738.9737    9633.8177    777.42762    24.079207    659.40897   -4354.9976 
25825000     247.6276   -6330.6994   -5693.6925   -6330.6994            0    7288.7004    23.311414     21.28987    21.745896    10792.422    7226.1463    7400.4827    7239.4721   -153.03889   -1164.9195   -635.17877   -4546.4772 
25826000    247.23293   -6339.2093   -5703.2176   -6339.2093            0    8337.7921    23.157016    21.319517    21.783237    10754.305    8658.0773    8258.7453    8096.5538   -150.71068   -249.40204    1.4097258    -4395.514 
25827000    249.34155   -6361.5698   -5720.1539   -6361.5698            0    7886.1061    23.256611    21.366567    21.613566    10740.082    8815.5756    6396.4713    8446.2716   -414.63104    -1599.786    147.95516   -4484.9288 
25828000    258.17916    -6320.168   -5656.0178    -6320.168            0     7431.993    23.312557    21.450358      21.5749    10788.802    6154.7664    7756.7679    8384.4447    638.79603   -643.11856   -64.475496   -4486.6412 
25829000    248.19218   -6359.1461   -5720.6868   -6359.1461            0    8744.1062    23.289406    21.406024    21.493002    10714.983    9202.8625    8684.3894    8345.0669   -707.31162    -273.3163   -267.82845   -4354.2712 
25830000    254.52102   -6321.2085   -5666.4687   -6321.2085            0    8364.4178    23.358015    21.319047    21.625784    10769.005    8339.4651    7681.6843    9072.1042   -611.10533   -79.682578   -549.11322   -4352.7961 
25831000    247.55827   -6355.5762   -5718.7476   -6355.5762            0    7592.8954    23.340399    21.367606    21.628231    10786.614    8305.0119    7908.3041    6565.3701    206.24565    678.78559   -841.88446   -4524.2963 
25832000     244.6606   -6346.9275    -5717.553   -6346.9275            0    6726.0935    23.218024    21.438537    21.765232    10833.872     7489.032    5930.2294     6759.019   -1268.0448    71.057939   -712.32384   -4654.8241 
25833000    255.11316   -6362.4957   -5706.2326   -6362.4957            0    6557.3288     23.50598    21.343395    21.582595    10827.932    5819.3984    6540.3252    7312.2627   -239.43731   -528.36358    1776.2317   -4670.7368 
25834000    258.18153   -6310.0092    -5645.853   -6310.0092            0    6425.6015    23.233578    21.595927    21.593474     10834.54    7157.2825    5050.6425    7068.8796   -26.067651   -871.07996     411.1259   -4630.5395 
25835000    253.84903   -6363.7769   -5710.7657   -6363.7769            0    6264.8643     23.28504    21.378632     21.76175    10833.049    7163.2806    6190.1005    5441.2118   -513.46085    365.38433   -20.195476   -4720.9866 
25836000    245.94666   -6352.9684   -5720.2856   -6352.9684            0    6323.7764    23.375664    21.396221    21.658848    10832.692    5573.3488    6880.0504    6517.9301   -430.95588    867.94719    1151.7651   -4721.2321 
25837000    234.83203   -6333.8249   -5729.7338   -6333.8249            0      6839.49    23.208204    21.609373    21.541111    10803.184    8332.6498    5230.4078    6955.4123   -1498.1028     -1909.38   -676.94251   -4652.1492 
25838000    247.20806   -6319.2727   -5683.3451   -6319.2727            0    7853.6032    23.473746    21.309938    21.580969     10795.32    8178.5911    7911.4006    7470.8179   -307.63311   -1205.2639   -1351.2123   -4446.8842 
25839000    237.96576   -6351.6087   -5739.4563   -6351.6087            0    8390.0872    23.227695    21.309355    21.725272    10753.297    7675.6087    7867.0418    9627.6111    2479.7389    -292.3914    1547.8523   -4423.6741 
25840000    243.26646   -6336.0835   -5710.2953   -6336.0835            0    8410.6678    23.192278    21.453858     21.62896    10761.788    10428.424    6718.5412    8085.0383   -282.44263   -263.11249   -206.52257    -4390.244 
25841000    244.79187   -6346.4263   -5716.7141   -6346.4263            0    7701.1259    23.443116    21.268338    21.521531    10730.552    7313.2438    7868.2402    7921.8936    730.02547   -1115.2077   -294.00039   -4511.5334 
25842000    255.78377   -6345.2413   -5687.2531   -6345.2413            0    8537.6105    23.012126    21.459405    21.733888     10732.77    10041.058    8052.8011    7518.9721   -84.108646   -53.380689   -573.95783   -4350.8913 
25843000    241.96667   -6317.4703   -5695.0258   -6317.4703            0    8590.3902    23.240683    21.269947     21.71788    10735.758    9117.5659    10186.857    6466.7471   -1113.7689   -395.32968   -1172.2367   -4350.0283 
25844000    252.91787   -6335.6863   -5685.0705   -6335.6863            0    8622.2299    23.359422    21.444061    21.467698    10753.618    7433.0251    8754.4409    9679.2237    457.19458   -484.76389    2.1995401   -4332.8421 
25845000    243.84077   -6360.3613   -5733.0957   -6360.3613            0    9572.3933     23.17535    21.456603    21.437573     10660.14    10428.777    8112.4605    10175.942    486.21845    -125.2938    893.70789   -4244.9025 
25846000     262.8644   -6341.7557    -5665.553   -6341.7557            0    8400.9233    23.514946    21.054686    21.758596    10772.677     7610.077    11256.589    6336.1041    457.26258   -1693.6475   -222.69358   -4345.6971 
25847000    244.37406   -6335.2815   -5706.6441   -6335.2815            0    7638.0594     23.20041    21.443433    21.654808     10773.19    7764.7682    7755.3152     7394.095    122.85458   -306.33551    -120.0119   -4506.5833 
25848000    238.07617   -6359.3119   -5746.8755   -6359.3119            0    6654.3148    23.306781    21.369874    21.692422    10804.192    6659.5434    6722.6714    6580.7297    -804.2653    812.84816   -263.26738    -4698.368 
25849000    251.25749   -6348.7979   -5702.4533   -6348.7979            0    6224.8312    23.390397    21.431179    21.619251     10837.38    6551.1717    6129.6652    5993.6566   -180.77443   -88.689016    265.91257   -4718.6059 
25850000    233.72577   -6330.1759   -5728.9307   -6330.1759            0    6389.0204    23.301911     21.48094    21.693299    10858.515    7088.3108    5946.7492    6132.0012   -820.04543   -11.866635   -846.98243   -4717.1635 
25851000    236.43405   -6335.5583   -5727.3461   -6335.5583            0    6501.0673    23.355238    21.206293    21.768597    10781.508    7768.3349    5991.7232    5743.1437   -719.83375    -259.4995   -1066.2874   -4705.1363 
25852000    242.99511   -6328.7393   -5703.6492   -6328.7393            0    7087.2859    23.149506    21.495798    21.727394    10811.923    7431.2281    8179.9085     5650.721    217.17003    764.24865    -748.5274   -4586.1202 
25853000    251.94401   -6315.8704   -5667.7597   -6315.8704            0    7091.9108    23.509387    21.378569    21.532412    10822.127    6846.6732    7083.5158    7345.5435   -1736.6434    499.58239   -1343.7365   -4548.4462 
25854000    252.50748   -6344.6675   -5695.1074   -6344.6675            0    6365.0211    23.322408    21.682106    21.452324    10847.988     6599.722    4252.2158    8243.1255    179.74942   -706.57516    657.16048   -4688.1179 
25855000     252.3998   -6332.7883   -5683.5052   -6332.7883            0    6389.0521    23.323165    21.487155    21.590855    10820.224     6040.721    7085.6418    6040.7934    904.80197    451.93031    537.43556   -4675.3008 
25856000    247.86777     -6350.68   -5713.0552     -6350.68            0    7712.4231    23.331004    21.339163    21.635747    10771.662    7870.7853    7634.2614    7632.2225    957.84621   -1037.5257    543.44651   -4501.4826 
25857000    245.65137   -6339.9338   -5708.0106   -6339.9338            0    6736.8669    23.158231     21.62007    21.590611    10810.043    5958.0374    6528.8991    7723.6643    1291.7603    123.44989    264.25367   -4645.9207 
25858000    243.00969    -6327.929   -5702.8013    -6327.929            0    6684.5921    23.533486     21.25563    21.597281    10803.372    6187.2342    6099.5204    7767.0218    1655.8317   -946.46048    431.53308   -4649.6031 
25859000    242.11235   -6342.3569   -5719.5377   -6342.3569            0    6089.1346     23.36806    21.407387    21.671401    10841.099    6753.0749    4566.1483    6948.1805     256.2093    -808.3407 -0.066613612   -4756.8071 
25860000    243.79418   -6344.9501   -5717.8044   -6344.9501            0    6360.3455    23.402676     21.58891    21.462821    10843.838      6701.82    5112.9452    7266.2712   -647.29867   -415.31403   -409.61903   -4711.9396 
25861000    242.25395   -6320.2407   -5697.0572   -6320.2407            0    6319.9392    23.405583    21.401278    21.728891    10884.205    6753.9754    5376.1796    6829.6626    1680.0634    -1742.411    1307.9227   -4693.8619 
25862000    249.27521    -6339.362   -5698.1167    -6339.362            0    5645.0188    23.389157    21.401917    21.711797    10868.335    4278.2396    7123.5336    5533.2832    1338.2014   -53.338636    191.02257   -4803.3614 
25863000    236.96481   -6308.7848   -5699.2072   -6308.7848            0    6054.5171    23.451068    21.528417    21.526603    10868.015    6147.8746    5732.6754    6283.0013    12.724416    -628.4586    46.080695   -4739.5732 
25864000    245.83739   -6313.3663   -5680.9645   -6313.3663            0    7125.9051     23.36056    21.480374    21.525364    10801.289    6494.2218    6773.4453    8110.0482    514.08136   -1083.7521    608.50702   -4558.4512 
25865000    246.78285   -6318.6809   -5683.8471   -6318.6809            0     7939.475    23.276329     21.45422     21.59651    10784.768    8548.0549    8547.1693    6723.2007    621.32738   -78.470427    -1289.029   -4435.0886 
25866000    234.77206   -6338.7432   -5734.8064   -6338.7432            0    7220.9014    23.390942      21.3936    21.546056    10782.001    7198.0267    6296.6589    8168.0185   -185.50426    316.17779   -68.663517     -4599.36 
25867000     241.1492   -6376.1529   -5755.8112   -6376.1529            0    7860.5265    23.307995    21.337969    21.536936    10711.293    6816.2178    8791.4382    7973.9236    2190.7706    1004.3954    762.46306    -4527.893 
25868000     243.2087   -6348.5738   -5722.9342   -6348.5738            0    8474.2568    23.292644    21.351681    21.627671    10756.243    7647.0568    8226.9382    9548.7755    1758.4797   -422.98867    266.21718    -4393.588 
25869000    252.17195   -6348.5135   -5699.8165   -6348.5135            0    8282.2954    23.250558     21.37302    21.616859    10742.166     9116.943    8649.7101    7080.2333    1055.9814    19.634105   -627.11035   -4402.2833 
25870000    254.67255    -6359.941   -5704.8114    -6359.941            0    6956.8259    23.273919    21.540256    21.535474    10796.297    7419.2475    5336.3632    8114.8669    553.43358     -500.741    395.23428   -4609.4388 
25871000    241.96256   -6330.9935   -5708.5595   -6330.9935            0    7611.5953    23.451341    21.385548    21.524429    10794.927     6904.106    7436.1252    8494.5547    650.29319   -1311.5675    1967.2651   -4510.2437 
25872000    249.29889   -6292.0006   -5650.6944   -6292.0006            0    8587.5826    23.106727    21.486112    21.720174    10783.496    9652.4123    9145.3827    6964.9527   -1044.3104   -195.21484    138.68127   -4300.1577 
25873000    238.41422   -6327.5217   -5714.2156   -6327.5217            0    6647.3292    23.309223    21.457953    21.631374    10819.326    6338.0813    6419.8156    7184.0906    -1020.801   -99.756247    488.06938   -4665.3417 
25874000    245.65067   -6325.9728   -5694.0514   -6325.9728            0    6705.7483    23.370695    21.478784    21.589628    10837.434    6338.5186     8202.983    5575.7434   -337.02606    145.01051   -1258.6713   -4634.1887 
25875000    253.20431   -6319.9511   -5668.5985   -6319.9511            0    6878.8008     23.31667     21.51062    21.554244    10810.661    6024.4423    6145.6124    8466.3477     695.4842    734.49766   -173.75829   -4584.0702 
25876000    252.27482   -6348.6142   -5699.6525   -6348.6142            0    7757.6614    23.347788    21.273457    21.712393    10784.289    7806.1805    7308.0219    8158.7817    100.69857    1742.0744     307.3239   -4479.5447 
25877000    253.05735   -6358.5439   -5707.5693   -6358.5439            0    7353.0935    23.270146    21.327824    21.718634    10778.992    7985.7626    7079.0737    6994.4441    173.61288    943.96901    717.99087   -4551.6589 
25878000    252.60353   -6353.1058   -5703.2986   -6353.1058            0    6648.7027    23.277634    21.462656    21.652044    10817.358    6765.2155    6529.0441    6651.8486    5.5957727    -406.6204   -1602.5045   -4654.3988 
25879000     256.0981   -6316.5591   -5657.7623   -6316.5591            0    7190.8506    23.367245    21.343011    21.731434    10838.061    6790.6409    6690.9724    8090.9384   -863.47421    1378.8078     1713.775   -4521.1621 
25880000    239.19904   -6360.9435   -5745.6186   -6360.9435            0    6812.0831    23.047704    21.496946    21.795252    10798.572    7536.5652    7004.5018    5895.1823   -613.29774    55.434754    529.05267   -4672.8102 
25881000    233.66279   -6336.2251   -5735.1418   -6336.2251            0    7934.9219    23.402275    21.339136    21.529307    10751.398    7101.3407     8459.802    8243.6231    -80.97991    184.37661   -62.447265    -4490.961 
25882000    247.23573   -6297.3568   -5661.3579   -6297.3568            0     6696.456    23.264324    21.568802    21.614123    10845.612    6514.7257    6462.0469    7112.5952    1630.9551   -1417.1167    29.834162   -4602.1652 
25883000    253.37721   -6345.2663   -5693.4688   -6345.2663            0    6079.9833    23.188894    21.476997    21.877788    10895.746    6956.6793    6585.8635     4697.407   -451.88026    246.28397   -270.93436   -4727.3395 
25884000     241.6995   -6360.4335   -5738.6763   -6360.4335            0    6604.8734    23.425439    21.316329    21.735578    10853.538     6986.187    6296.2967    6532.1365   -750.59932   -116.02552    681.55494   -4693.2059 
25885000    242.57272   -6357.6424   -5733.6388   -6357.6424            0    7189.5726    23.267805    21.534313    21.508959    10777.198    6359.8827    7461.9979    7746.8371   -248.68705    984.77332    678.51919   -4603.6223 
25886000    253.68662   -6326.9722   -5674.3789   -6326.9722            0    7192.5182    23.430582    21.349538    21.579986    10795.002    7390.4784    7443.2482     6743.828   -287.38906   -221.66264   -510.17052   -4542.0317 
25887000    249.72763   -6355.9635   -5713.5544   -6355.9635            0    6534.4316     23.36732     21.29656    21.729245    10813.418    7008.6703    7263.2744      5331.35   -285.09675   -97.722515   -89.009982   -4683.0575 
25888000    238.73913   -6347.5363   -5733.3944   -6347.5363            0    5980.3633    23.198241    21.532986    21.742555    10861.002    6569.1528    5630.7939    5741.1434   -900.86279   -280.32679    163.82218   -4786.1253 
25889000    231.21907   -6317.5413   -5722.7443   -6317.5413            0    6305.8508    23.537078    21.412676    21.563093    10867.622     4955.435    5804.5563    8157.5612    196.28039    176.79587   -125.34231   -4723.3103 
25890000    252.48375   -6353.0068   -5703.5077   -6353.0068            0    6095.9955    23.322631    21.572562    21.561051    10847.988    6710.9632    5282.4271    6294.5962   -35.834434    86.193586    355.80565   -4739.0799 
25891000    244.72012    -6347.587   -5718.0594    -6347.587            0     6679.057    23.259574    21.478814    21.705983     10844.05    7426.5451    6302.7011    6307.9247    32.463575   -539.36203    59.192184   -4661.7709 
25892000    249.00641   -6344.0268   -5703.4729   -6344.0268            0    6202.8452    23.436334    21.299047     21.68466    10824.366    6081.8663    5792.8841    6733.7851    610.02835   -750.56863    338.90738   -4724.2777 
25893000    242.39622   -6313.2112   -5689.6617   -6313.2112            0    7771.0972    23.396286    21.392761    21.534825     10778.42     6375.988    8699.8378    8237.4657    1300.0434    795.46126   -507.88711   -4468.1058 
25894000     245.2339   -6341.4547   -5710.6054   -6341.4547            0    7373.0808    23.209415    21.446437    21.704538    10803.635    7698.3642    7186.1107    7234.7674    -459.5397   -995.89457    801.69594   -4548.9034 
25895000    259.50342   -6330.6027   -5663.0459   -6330.6027            0     6455.725    23.307166    21.372163      21.7634    10840.884    6820.7602    7095.0027    5451.4121   -439.01851    578.25714   -1428.6113   -4642.3753 
25896000    239.71276   -6320.1119   -5703.4655   -6320.1119            0    7723.9946     23.24627     21.55842    21.483413    10766.473    7237.8313     7287.583    8646.5696   -524.59328    62.161084    679.26902   -4490.6595 
25897000    250.01887   -6363.8368   -5720.6785   -6363.8368            0    7930.5652    23.275762    21.414729    21.627098    10779.901    7847.9079    8048.9026    7894.8852   -611.13982   -662.75604    1339.2721   -4473.8842 
25898000    251.66071   -6375.9251   -5728.5433   -6375.9251            0    7345.9524    23.244099    21.361185    21.732037    10790.423    7051.4421    8413.6791     6572.736    711.63988   -492.02342     157.1282   -4572.5309 
25899000    258.28458   -6329.9449   -5665.5235   -6329.9449            0    6601.3842    23.415997    21.439105    21.554981    10820.989    6859.3096    6094.4186    6850.4244    675.95331   -513.28504   -1203.8288   -4623.7392 
25900000    245.55089   -6352.1352   -5720.4705   -6352.1352            0    5376.6605    23.403624    21.452272    21.602344    10845.693    4753.5019    5728.9843    5647.4954    1748.2972    -512.7285   -160.81887   -4870.0263 
25901000    247.68367   -6310.0903   -5672.9392   -6310.0903            0     6785.094    23.332869    21.441665    21.606871    10809.821    6536.6034    5865.0201    7953.6585    368.51231    79.726486    241.11494   -4603.2681 
25902000    246.76662   -6365.2244   -5730.4323   -6365.2244            0     6652.372    23.386297    21.316645     21.69089    10813.286    6363.4849    7362.6472     6230.984    522.24896   -629.05386   -333.88096   -4681.3487 
25903000    247.76857   -6308.0269   -5670.6573   -6308.0269            0    7100.0267    23.283855    21.446353    21.678737    10825.359    8483.4085    6737.6478    6079.0239    -698.1786   -1117.2245   -275.94888   -4549.7282 
25904000    240.85676   -6323.7116   -5704.1223   -6323.7116            0    6656.8196    23.256554    21.534223    21.649866    10842.508    6250.5361     6989.181    6730.7416   -406.71206    -10.72274    632.70738   -4651.5003 
25905000    236.47554   -6343.4072   -5735.0883   -6343.4072            0    6814.8288    23.348139    21.385702    21.671997    10821.182    6748.9698    7156.1245    6539.3922   -490.55603   -674.99897   -1536.4299   -4659.6003 
25906000    238.16726   -6367.3897   -5754.7189   -6367.3897            0    7678.9403    23.188179    21.466372    21.640465    10771.889    6697.1849    8391.9993    7947.6366   -7.1901429    197.36487   -481.72995   -4548.3808 
25907000    237.38706   -6329.5507    -5718.887   -6329.5507            0    6240.1654    23.419865    21.438556    21.595076    10842.631    6225.4982    6076.2733    6418.7247     1795.631    -1096.441    693.61769   -4732.1381 
25908000    248.44253   -6362.0796   -5722.9763   -6362.0796            0    6684.9772    23.458547    21.256579    21.729187    10835.226    6489.5422    6896.5446    6668.8449    1426.4944   -58.845789   -280.06975   -4666.6119 
25909000    252.61922   -6347.8449   -5697.9973   -6347.8449            0    7150.0393    23.066417    21.571779    21.706821    10800.959    7512.2543     6189.217    7748.6467    1892.1073   -28.770734    168.95354   -4571.7166 
25910000    245.56911   -6335.1057   -5703.3941   -6335.1057            0    8129.3051    23.596894    21.272247    21.490625    10787.412    7228.2812     7147.056    10012.578    1127.3237    -14.73439   -6.8120535   -4424.4647 
25911000    239.45702   -6341.7294   -5725.7407   -6341.7294            0     8586.696    23.297821    21.375042    21.622288    10767.724    8099.8605    8864.7667    8795.4609   -1323.7335    836.96173    240.29798   -4377.3185 
25912000    254.22734   -6354.8479   -5700.8635   -6354.8479            0    5839.2982    23.196442    21.588659     21.66414     10848.97    7830.1385    4685.6675    5002.0888   -191.47811   -20.626065   -772.37522   -4776.9634 
25913000    248.36779   -6333.5392   -5694.6282   -6333.5392            0    7772.1462    23.582683    21.169805    21.572345    10769.795    6576.6723    8437.5407    8302.2255    260.11595   -661.94452     246.8278   -4473.8851 
25914000     244.0678   -6350.8656   -5723.0161   -6350.8656            0    7168.2396    23.233146    21.583955    21.554817    10808.947    7960.7456    5185.8628    8358.1104    91.911098   -709.19167    848.29884   -4593.0333 
25915000    247.27603   -6338.8547   -5702.7522   -6338.8547            0    8050.0072    23.314127    21.318183    21.744613    10807.395    7515.6502    9010.8215      7623.55   -315.74934    444.22245   -351.59831   -4433.9522 
25916000    252.45501   -6315.2592    -5665.834   -6315.2592            0    7758.1453    23.293794    21.345759    21.752303    10815.761    7130.4818    8260.3528    7883.6014      -348.74   -874.24442    532.29021   -4442.0891 
25917000    249.10405    -6353.842    -5713.037    -6353.842            0    7084.5389    23.308664     21.53616    21.539671    10812.465    7361.3395      5981.07    7911.2072   -796.23589    131.59366    104.34677   -4595.8852 
25918000    252.39574     -6327.45   -5678.1773     -6327.45            0    6756.6841    23.472023    21.462934    21.512885    10837.728      7035.88    6826.5741    6407.5981    -434.2742    1029.6197   -495.14035   -4610.2351 
25919000    256.58364   -6312.3675   -5652.3218   -6312.3675            0    6809.5606    23.302299    21.446688    21.694711    10842.087    7274.5565    6966.3511    6187.7742   -392.60736   -76.289735   -732.84006   -4575.5892 
25920000    254.64398   -6366.7053   -5711.6492   -6366.7053            0    6166.3461    23.450509    21.407804    21.558145    10822.704    4519.5604    6540.6062    7438.8716    310.41662    882.65978    820.82748   -4738.3652 
25921000    248.70333   -6349.5239   -5709.7497   -6349.5239            0     6003.031     23.15153    21.624459    21.659749    10843.722    7349.3267    4505.4413    6154.3251   -1245.0109      928.551    291.02981    -4760.403 
25922000    256.77359   -6358.4359   -5697.9015   -6358.4359            0    7251.2936     23.46408    21.251856     21.62305    10782.447    6359.8287    8120.0646    7273.9874   -275.35536    505.45248   -247.92992   -4557.6288 
25923000    246.73664   -6344.1238   -5709.4088   -6344.1238            0    8211.0892     23.36706    21.388858    21.533811    10762.485    8777.9373    8336.0088    7519.3216    824.22741   -1077.1074    8.3140837   -4420.5978 
25924000    247.72232   -6351.1931   -5713.9426   -6351.1931            0     7387.258    23.241775    21.457678    21.570003    10757.274    7694.5579     7413.449     7053.767    -408.3216   -69.941633    1180.4706   -4555.0014 
25925000     257.3936   -6351.4731   -5689.3438   -6351.4731            0    7963.3622    23.255261    21.312864    21.692024    10751.352     8403.132     7772.981    7713.9737   -548.13224   -1104.9573   -667.17182   -4440.7089 
25926000    253.41818   -6374.3555   -5722.4527   -6374.3555            0    7919.0533    23.235179    21.433981    21.559118    10736.923    8038.8484    8117.4492    7600.8623   -515.46538    271.30253    -710.1043   -4482.4318 
25927000    258.16902   -6332.8764   -5668.7523   -6332.8764            0     7521.977     23.21867    21.477138    21.622684    10782.596    6617.7647    8893.2542    7054.9121      381.314    1166.6659   -870.53772   -4485.8981 
25928000    251.34308   -6332.1029   -5685.5381   -6332.1029            0    7002.6892    23.577243    21.126806    21.666975    10792.577    4529.9358    8223.9325    8254.1992    775.95541    1008.8591    1149.1539   -4583.3242 
25929000    234.48542   -6307.3333   -5704.1338   -6307.3333            0    7129.2067     23.30514    21.498769    21.625443    10835.035    7488.5898    5860.8818    8038.1486    80.898978   -367.20031    165.22377   -4577.5918 
25930000    248.96588   -6328.5255   -5688.0759   -6328.5255            0    6803.1641    23.286958    21.537964    21.593025     10830.06    7827.9662    6583.0164    5998.5097   -1897.9959   -663.87071   -1502.3496    -4613.548 
25931000    256.98363   -6370.2974   -5709.2226   -6370.2974            0     7028.294    23.467797    21.322705    21.580993    10799.062    5804.8971    8476.2039    6803.7809   -915.89473    1499.7702   -712.01573   -4602.3138 
25932000    243.32161   -6298.6431   -5672.7131   -6298.6431            0    8276.4876    23.198135    21.424696    21.669949    10770.246    8826.8887     6987.775    9014.7991   -936.28772   -319.96274     1829.933   -4372.7004 
25933000    242.70874   -6344.4842   -5720.1307   -6344.4842            0    7666.8674    23.268175     21.39806    21.605772     10757.38    7451.1907    6880.9353    8668.4763   -325.54723    -2.700037    380.89849   -4517.3115 
25934000    244.40587   -6349.4219   -5720.7027   -6349.4219            0    6655.0553    23.355799     21.38125    21.620266    10796.646     6923.607    5865.7602    7175.7987   -472.48883    19.310261   -286.17528    -4672.811 
25935000    250.08284   -6322.5827   -5679.2598   -6322.5827            0    7410.8105     23.30926    21.479686    21.585161    10807.163    8125.9315    6258.8346    7847.6654    260.32511   -451.77551   -495.41138   -4511.2317 
25936000    260.54552   -6345.5301   -5675.2926   -6345.5301            0    7109.7534     23.16647     21.43662    21.733781    10793.231    7096.8354    7219.1741    7013.2506    248.99672    984.05254    285.32213   -4556.1592 
25937000    235.46008   -6342.4115   -5736.7047   -6342.4115            0    6930.1246    23.398779    21.264463    21.695956    10795.093     4807.753    9443.4577    6539.1633    554.79733   -628.03283    695.07027    -4645.658 
25938000    255.34701   -6324.5536    -5667.689   -6324.5536            0    6873.4567    23.404707    21.510047    21.461876    10804.688    5227.5831    8941.5024    6451.2847   -1196.8655    532.14309   -19.435258    -4584.602 
25939000    245.41895   -6379.9038   -5748.5785   -6379.9038            0    6706.9629     23.23006    21.538398    21.645743    10830.194    6859.8701    7343.9186    5917.0999   -707.76847   -940.42731   -241.86632    -4689.232 
25940000    264.59804   -6316.3961   -5635.7337   -6316.3961            0    8181.4163    23.253335     21.22942    21.779748    10751.677    9038.9474    7814.7866    7690.5151   -1617.6002    -558.7979    381.90115   -4352.8698 
25941000    258.30567   -6341.3033   -5676.8277   -6341.3033            0    8088.0089    23.232048     21.45543    21.605698    10769.438    8919.4014    7434.4546    7910.1707     1364.731   -1149.4141    1087.8619   -4406.5153 
25942000    259.30939   -6354.3466    -5687.289   -6354.3466            0    7796.2731    23.505194    21.283395    21.487999    10749.808    6191.0282    8717.6078    8480.1834   -843.78578   -491.73708    629.03403   -4465.0289 
25943000    244.98543   -6348.0878   -5717.8777   -6348.0878            0    7257.6697    23.239588    21.461668    21.680379    10813.313    7606.6568    7223.8605    6942.4917   -687.21387   -866.54061   -138.10281   -4573.3354 
25944000    245.24882   -6336.5235   -5705.6358   -6336.5235            0    6580.5916    23.301671    21.461661    21.661229    10832.619    7216.4939    5605.9823    6919.2986   -1059.9512    934.32757    623.17612   -4666.0166 
25945000    255.56288   -6331.4553   -5674.0354   -6331.4553            0     7665.476    23.329849    21.502258    21.498679    10784.692    7666.8545    6314.0344    9015.5392    1230.3561    1183.8457    1555.1852   -4468.3811 
25946000    238.88463   -6314.4924   -5699.9763   -6314.4924            0    7966.9062     23.33206    21.335702    21.652775    10778.878    6562.3561    8467.1698    8871.1928    1314.8203    1239.0429    855.68632   -4447.5875 
25947000    237.38445   -6315.2087   -5704.5516   -6315.2087            0     6351.009     23.36811    21.364394    21.780414    10873.774    5968.1739    5728.5064    7356.3467    191.91903   -330.06255   -246.08241   -4697.3906 
25948000    258.56527   -6345.1177   -5679.9743   -6345.1177            0    6453.4392    23.371749    21.462336    21.629456    10849.602    5367.8942    7655.7363    6336.6871    157.52819    822.55628   -1307.9612   -4658.8446 
25949000    249.95582   -6324.5779   -5681.5818   -6324.5779            0     5977.506    23.501701    21.375019    21.614603    10858.081    3696.6153    7223.7783    7012.1245    758.61468     50.99599    1003.5136     -4735.02 
25950000    244.02614   -6350.6522   -5722.9098   -6350.6522            0    5555.1057    23.257123    21.445655    21.773183    10859.685     5383.331    6829.8105    4452.1758   -822.01376    1957.0119    70.531711   -4843.1068 
25951000    250.40711   -6336.3089   -5692.1519   -6336.3089            0    7519.8912     23.22608    21.501014    21.639956    10806.654    6630.9713    8603.3249    7325.3774   -906.22782   -404.91928   -547.26785   -4506.9872 
25952000    248.54175   -6336.7362   -5697.3777   -6336.7362            0    7734.9323    23.383091    21.476061    21.482244    10787.882    7851.0135    7952.0001    7401.7832   -923.74202   -671.87776   -1122.5569   -4480.4393 
25953000    245.68555    -6381.776   -5749.7649    -6381.776            0    8027.3968    23.106792    21.445228     21.60444    10705.658    8027.7204    9132.5376    6921.9323    927.18641    1183.1662    1103.5831   -4496.4391 
25954000    252.93142   -6363.6898   -5713.0391   -6363.6898            0    7314.0622    23.351222    21.317359    21.616214    10760.257    8150.3908    7391.3108    6400.4851   -1111.8793    732.75685    190.41035    -4565.263 
25955000    256.89397   -6378.1042   -5717.2601   -6378.1042            0    8129.2119    23.414744    21.283938    21.549526    10739.378    8316.3537    7221.1336    8850.1483   -372.79772    6.6876567   -38.908664   -4444.0402 
25956000    244.50811     -6364.06   -5735.0777     -6364.06            0    7578.0296    23.136611    21.566883    21.584284    10770.225    7467.0471    7823.6399    7443.4017    708.47419    96.472683   -920.76722   -4544.7763 
25957000    248.00344    -6370.819   -5732.8453    -6370.819            0    7481.0302    23.447693    21.252784    21.653851    10790.737    7115.1825    7434.8111     7893.097    1004.7626    185.59546     53.79373   -4555.5419 
25958000     246.6406   -6320.2952   -5685.8272   -6320.2952            0     7909.565    23.163072    21.481013    21.614369    10754.581    8395.9574    6951.1459    8381.5917    1332.6636     367.7896    436.09011   -4445.2553 
25959000    249.10601   -6323.8859   -5683.0758   -6323.8859            0    6602.1226    23.312788    21.467227    21.596466    10808.187    6535.6677    5850.3891    7420.3109    272.86287   -1025.2531    302.91843   -4642.4075 
25960000    250.22005   -6359.9455   -5716.2697   -6359.9455            0    5459.3145    23.444437    21.416003    21.626617    10858.425    4763.1061    4846.1248    6768.7124    -435.9383   -718.16245    1017.3934   -4851.7382 
25961000    245.24302   -6321.4095   -5690.5368   -6321.4095            0     6881.057    23.254149    21.676364    21.550054    10862.636     8197.636    5211.4519     7234.083   -1050.7174   -375.34579    -387.8501    -4600.437 
25962000    246.36398   -6359.7538   -5725.9975   -6359.7538            0    7549.2735    23.404008    21.249361    21.684203    10783.993    7011.7332    8658.8061    6977.2813   -198.12671    695.93549   -796.86679    -4538.697 
25963000    247.45485   -6350.0317   -5713.4691   -6350.0317            0    6735.9319    23.142546    21.581718    21.604836    10790.663    7491.3491    6124.5886    6591.8581     602.3141   -349.05503    392.50288   -4653.4304 
25964000    249.10641   -6346.3692   -5705.5581   -6346.3692            0    6722.0915    23.344348    21.353818    21.687083    10810.815    7008.8881    6834.5365      6322.85    18.822783    130.07319     160.8803    -4645.722 
25965000    236.50658   -6350.4073   -5742.0085   -6350.4073            0     7516.378    23.395359    21.326779    21.591092    10772.825    6289.8555    7080.9783    9178.3004    294.93533     -158.067    305.66827   -4561.1059 
25966000    246.46387   -6339.1374   -5705.1241   -6339.1374            0    7964.1813    23.088062     21.52116    21.672942    10768.892     9267.201    7517.5957    7107.7471    66.661121    455.53582   -1975.6039   -4454.3236 
25967000    245.07557   -6333.2041   -5702.7621   -6333.2041            0     7817.574    23.592916    21.148049      21.6034     10778.89    7575.2431    7764.1171    8113.3618   -82.690447   -178.22719    456.48357   -4473.8469 
25968000    252.97906   -6323.6453   -5672.8721   -6323.6453            0    7329.3918    23.310483    21.408231    21.570467    10764.444    7749.9476    6514.4074    7723.8203    796.91223    339.15486    381.71351   -4522.2428 
25969000    244.00078   -6328.4295   -5700.7523   -6328.4295            0     8080.633    23.154694     21.47791    21.587727    10735.889    9469.1897    8197.0297    6575.6798   -732.56544   -267.19398   -338.41545   -4435.5521 
25970000    231.73243   -6342.4881   -5746.3705   -6342.4881            0    7655.5864    23.301019    21.278361    21.786322    10801.822    6776.9869    8697.4316    7492.3408    52.865015    -1181.793    577.55547   -4540.3593 
25971000    243.26839    -6329.446   -5703.6529    -6329.446            0    8461.3982    22.968707    21.462144    21.766817     10730.12    10286.952    8474.7802    6622.4624   -1792.7214   -1098.7797   -304.61148   -4379.5473 
25972000    245.98629   -6344.4734   -5711.6887   -6344.4734            0     8934.082    23.202407     21.40124    21.548262    10700.011    9848.0608    7254.5445    9699.6407   -1067.8289    1348.3265    520.51353    -4317.537 
25973000    241.53129   -6339.9054   -5718.5809   -6339.9054            0    8314.5905    23.343415     21.33296    21.619374    10766.105    7915.5003    7524.6981    9503.5729   -771.28531    833.86624    577.48459   -4413.0854 
25974000    256.70194   -6330.2019   -5669.8518   -6330.2019            0    7966.5543     23.27317    21.405707    21.635534    10778.361    8251.0837    8030.2812    7618.2982   -127.65886   -721.80687   -823.80164   -4417.5784 
25975000    251.28139   -6351.9529   -5705.5468   -6351.9529            0    8179.0577    23.245888    21.366458    21.605961    10731.299    8728.1161    7384.4053    8424.6515   -381.83933    377.53745    482.17032   -4425.4835 
25976000    240.73172   -6318.6396   -5699.3719   -6318.6396            0    8288.2528    23.337029    21.311416    21.642225    10763.655     8048.564    9122.6101    7693.5844   -835.66237    659.73215    -150.5707   -4398.3079 
25977000    261.21262    -6323.393   -5651.4395    -6323.393            0      6508.75    23.257194    21.373469    21.811624    10842.273    6548.0389    7704.6214    5273.5899    263.87008    537.72195   -1018.8135   -4622.2536 
25978000    252.31662   -6314.1412   -5665.0721   -6314.1412            0    6332.5631    23.382599    21.369446    21.760681    10873.229    6457.8988     7517.457    5022.3335    1139.0741     510.0634   -301.35104   -4660.8866 
25979000    251.61251   -6337.6139   -5690.3561   -6337.6139            0    5815.8766    23.356548    21.461269    21.694363    10874.542    5519.0457    5787.6313    6140.9527    -21.73872    1121.6318   -699.38778   -4767.9927 
25980000    248.87269   -6305.8098   -5665.5999   -6305.8098            0    6644.7317    23.229827    21.566954    21.627039    10835.073    6577.0649    6309.0435    7048.0868    269.91231   -46.091069    611.31415   -4615.6099 
25981000    257.83519   -6337.2917   -5674.0264   -6337.2917            0    6342.8153    23.283921    21.499007    21.655852    10840.512    7180.7945    5009.7073     6837.944   -651.18052   -437.36191    138.95036   -4671.2416 
25982000    255.19465   -6345.2453   -5688.7726   -6345.2453            0    7211.9278    23.369713    21.323795    21.659657    10793.678    6779.9742    8456.7114     6399.098     293.5026    138.66908    668.08173    -4553.509 
25983000    251.64627   -6354.0545   -5706.7098   -6354.0545            0     9079.003    23.138061    21.403786    21.657021    10725.469    9586.4996    9142.9298    8507.5797    499.05255    313.52376   -336.53073   -4286.5724 
25984000    245.83438   -6326.6234   -5694.2295   -6326.6234            0    7881.2567    23.453307    21.144177    21.661238    10741.827    7173.0633    8852.4111    7618.2956   -534.36271   -45.393905   -706.89507   -4459.5634 
25985000    249.26525   -6348.1174   -5706.8977   -6348.1174            0    7595.5335    23.365449    21.303394    21.654397    10778.765    7004.8702    8450.6356    7331.0949    102.94828    543.69507     665.8713   -4512.9009 
25986000    249.30622   -6341.8744   -5700.5494   -6341.8744            0     7925.579    23.197756    21.429142    21.594472    10734.785    8365.1447    8474.8589    6936.7335    417.31006    38.773725    -845.6606   -4459.7537 
25987000    250.23712   -6359.3517   -5715.6319   -6359.3517            0    8075.5208     23.34846    21.316338    21.580729    10740.808    7836.5683    9380.2943    7009.6997    135.48334   -1398.5793   -959.73492   -4450.6527 
25988000    250.08911   -6307.6869   -5664.3479   -6307.6869            0    8895.7786    23.137743     21.41413    21.720081    10761.749    9332.5518    9663.5671    7691.2168   -103.19613   -623.17862   -959.67575   -4268.1636 
25989000    241.85533    -6330.425   -5708.2669    -6330.425            0    8242.4603    23.292714    21.319371     21.68353    10767.738    6992.8597    9248.8214    8485.6998   -336.78459    931.92571    409.49844   -4413.9005 
25990000    257.84136    -6345.125   -5681.8438    -6345.125            0    7646.9816    23.324989    21.452344    21.497015    10756.584    6767.6201    8640.3588    7532.9659    90.867668    1417.4728    490.23405   -4482.2332 
25991000    249.85671   -6355.5589   -5712.8177   -6355.5589            0    8165.6333    23.278093    21.424649    21.556207    10750.619    6703.4106    9902.4532    7891.0361   -353.04763     1297.688    -1285.093   -4432.5546 
25992000    248.61669   -6352.2529   -5712.7016   -6352.2529            0     6204.947    23.382809    21.249027     21.78674    10825.002    5611.1698    7033.1229    5970.5485    319.66115    401.90564   -597.47665    -4733.117 
25993000    251.45304   -6337.9303   -5691.0827   -6337.9303            0    6176.9843    23.150914    21.467505    21.817132    10842.948    8623.4838    5289.7814    4617.6878    1397.8109   -365.46706   -298.17575   -4714.2959 
25994000    242.70842   -6329.7077   -5705.3551   -6329.7077            0    6387.5203    23.452648    21.318752    21.664972    10832.078    6273.9406    6239.8264    6648.7938    478.84872    510.30343    1494.1509   -4696.2882 
25995000    262.03156   -6323.8349   -5649.7746   -6323.8349            0    7698.7849    23.337687    21.463803    21.537242    10788.339    6725.9398    8737.0649    7633.3502    113.04898    272.94021    85.661604    -4438.472 
25996000    246.50383   -6352.9973   -5718.8812   -6352.9973            0    5840.0141    23.346111    21.492745    21.666366    10871.576     6119.279    4540.0288    6860.7344   -31.388695    -665.8322    402.23134   -4792.9424 
25997000    247.00456   -6335.5625   -5700.1583   -6335.5625            0    7070.2038    23.238667    21.327259    21.852506    10830.475    8912.4175     6708.273    5589.9209   -1065.5314    342.02583     -119.163     -4583.41 
25998000    248.90811   -6333.1847   -5692.8837   -6333.1847            0    6580.1376    23.294803    21.447703    21.722798    10853.144    6485.2961    6745.6995    6509.4171    865.72011    322.13709    441.16761   -4651.3665 
25999000    243.21392   -6347.0063   -5721.3534   -6347.0063            0    6811.4642    23.470946    21.419875    21.503618     10810.83    6430.7866    5344.1933    8659.4128    248.49462   -403.48924    924.53228   -4647.4247 
26000000    250.30656   -6293.6574   -5649.7591   -6293.6574            0    6352.6291    23.360855    21.566078    21.584942    10874.537    5468.6893     6391.549    7197.6491   -683.85817    217.41184    885.58132   -4642.2704 
Loop time of 586.511 on 64 procs for 250000 steps with 1296 atoms

Performance: 73.656 ns/day, 0.326 hours/ns, 426.250 timesteps/s
99.2% CPU use with 64 MPI tasks x 1 OpenMP threads

MPI task timing breakdown:
Section |  min time  |  avg time  |  max time  |%varavg| %total
---------------------------------------------------------------
Pair    | 30.423     | 39.995     | 49.505     |  96.7 |  6.82
Bond    | 0.2775     | 0.2842     | 0.30016    |   0.8 |  0.05
Kspace  | 298.09     | 310.73     | 328.2      |  37.8 | 52.98
Neigh   | 4.4898     | 4.8793     | 5.5547     |  12.1 |  0.83
Comm    | 95.143     | 104.57     | 111.19     |  35.2 | 17.83
Output  | 1.2554     | 1.256      | 1.2618     |   0.1 |  0.21
Modify  | 115.12     | 117.01     | 118.95     |   7.8 | 19.95
Other   |            | 7.794      |            |       |  1.33

Nlocal:        20.2500 ave          27 max          13 min
Histogram: 3 1 9 7 11 11 5 8 4 5
Nghost:        2570.14 ave        2603 max        2543 min
Histogram: 2 4 9 15 8 13 2 5 3 3
Neighs:        6415.41 ave        8572 max        4130 min
Histogram: 3 1 8 8 12 10 6 7 4 5

Total # of neighbors = 410586
Ave neighs/atom = 316.81019
Ave special neighs/atom = 2.0000000
Neighbor list builds = 8719
Dangerous builds = 0

unfix		3
unfix		2
unfix		1

write_data	data.final.${pid}
write_data	data.final.0
System init for write_data ...
PPPM initialization ...
  extracting TIP4P info from pair style
  using 12-bit tables for long-range coulomb (../kspace.cpp:340)
  G vector (1/distance) = 0.36948029
  grid = 30 40 32
  stencil order = 5
  estimated absolute RMS force accuracy = 0.004026367
  estimated relative force accuracy = 1.2125284e-05
  using double precision FFTW3
  3d grid and FFT values/proc = 5168 640
Last active /omp style is kspace_style pppm/tip4p/omp
WARNING: Not all mixed pair coeffs generated from mixing. Use write_data with 'pair ij' option to store all pair coeffs. (../write_data.cpp:312)

write_restart   restart.lmp.${pid}
write_restart   restart.lmp.0
System init for write_restart ...
PPPM initialization ...
  extracting TIP4P info from pair style
  using 12-bit tables for long-range coulomb (../kspace.cpp:340)
  G vector (1/distance) = 0.36948029
  grid = 30 40 32
  stencil order = 5
  estimated absolute RMS force accuracy = 0.004026367
  estimated relative force accuracy = 1.2125284e-05
  using double precision FFTW3
  3d grid and FFT values/proc = 5168 640
Last active /omp style is kspace_style pppm/tip4p/omp
Total wall time: 0:09:47
