LAMMPS (30 Jul 2021)
  using 1 OpenMP thread(s) per MPI task
package omp 0
using multi-threaded neighbor list subroutines
echo both

include		in.partitions
variable        pid world 0
include		in.temp
variable        temperature equal 282.13
variable	tempDamp equal 100.0
include		in.pressure
variable        pressure equal 11250.0
variable        pressureDamp equal 1000.0 # This is 1 ps
include		in.seed
variable        seed world 745823

units		real
atom_style	full
read_restart	restart.lmp.${pid}
read_restart	restart.lmp.0
Reading restart file ...
  restart file = 30 Jul 2021, LAMMPS = 30 Jul 2021
  restoring atom style full from restart
  orthogonal box = (-0.061418054 -0.021606779 -0.10285889) to (24.791419 24.751608 22.912859)
  4 by 4 by 4 MPI processor grid
  restoring pair style lj/cut/tip4p/long/omp from restart
  restoring bond style harmonic/omp from restart
  restoring angle style harmonic/omp from restart
  1920 atoms
  1280 bonds
  640 angles
Finding 1-2 1-3 1-4 neighbors ...
  special bond factors lj:    0        0        0       
  special bond factors coul:  0        0        0       
     2 = max # of 1-2 neighbors
     1 = max # of 1-3 neighbors
     1 = max # of 1-4 neighbors
     2 = max # of special neighbors
  special bonds CPU = 1.384 seconds
  read_restart CPU = 1.688 seconds
include 	in.setup
variable	out_freq equal 1000
variable	out_freq2 equal 10000
variable	out_freq3 equal 1000

timestep	2.0

neigh_modify    delay 7 every 1

include		in.tip4p
# This is TIP4P/Ice

# create groups ###
group ox type 2
640 atoms in group ox
group hy type 1
1280 atoms in group hy

# set charges - beside manually ###
set group ox charge -1.1794
Setting atom values ...
  640 settings made for charge
set group hy charge 0.5897
Setting atom values ...
  1280 settings made for charge

# ### TIP3P Potential Parameters ###
pair_style lj/cut/tip4p/long/omp 2 1 1 1 0.1577 8.5
pair_coeff 1 1*2 0.000 0.000
pair_coeff 2 2 0.21084 3.1668
bond_style  harmonic
bond_coeff  1 450 0.9572
angle_style harmonic
angle_coeff 1 55 104.52
kspace_style pppm/tip4p/omp 1.0e-5
pair_modify tail yes

thermo          ${out_freq}
thermo          1000
thermo_style    custom step temp pe etotal epair emol press lx ly lz vol pxx pyy pzz pxy pxz pyz enthalpy

restart 	${out_freq3} restart.lmp.${pid} restart2.lmp.${pid}
restart 	1000 restart.lmp.${pid} restart2.lmp.${pid}
restart 	1000 restart.lmp.0 restart2.lmp.${pid}
restart 	1000 restart.lmp.0 restart2.lmp.0


include         in.dump
dump            myDump all atom ${out_freq2} dump.water.${pid}
dump            myDump all atom 10000 dump.water.${pid}
dump            myDump all atom 10000 dump.water.0
dump            myDump2 all dcd ${out_freq2} dump.dcd
dump            myDump2 all dcd 10000 dump.dcd
dump_modify     myDump append yes
dump_modify     myDump2 append yes


variable natoms 	equal  "count(all)"                        # NUMBER ATOMS
variable H      	equal  "enthalpy/v_natoms"                 # ENTHALPY-per-atom
variable Vol      	equal  "vol/v_natoms"                 # volume-per-atom
fix AVG all 		ave/time ${out_freq} 1 ${out_freq} v_Vol v_H file vol_enthalpy.dat
fix AVG all 		ave/time 1000 1 ${out_freq} v_Vol v_H file vol_enthalpy.dat
fix AVG all 		ave/time 1000 1 1000 v_Vol v_H file vol_enthalpy.dat




fix 		1 all shake 1e-6 200 0 b 1 a 1
       0 = # of size 2 clusters
       0 = # of size 3 clusters
       0 = # of size 4 clusters
     640 = # of frozen angles
  find clusters CPU = 0.254 seconds
fix             2 all nph aniso ${pressure} ${pressure} ${pressureDamp}
fix             2 all nph aniso 11250 ${pressure} ${pressureDamp}
fix             2 all nph aniso 11250 11250 ${pressureDamp}
fix             2 all nph aniso 11250 11250 1000
fix             3 all temp/csvr ${temperature} ${temperature} ${tempDamp} ${seed}
fix             3 all temp/csvr 282.13 ${temperature} ${tempDamp} ${seed}
fix             3 all temp/csvr 282.13 282.13 ${tempDamp} ${seed}
fix             3 all temp/csvr 282.13 282.13 100 ${seed}
fix             3 all temp/csvr 282.13 282.13 100 745823


run             250000
PPPM initialization ...
  extracting TIP4P info from pair style
  using 12-bit tables for long-range coulomb (../kspace.cpp:340)
  G vector (1/distance) = 0.37473298
  grid = 30 30 30
  stencil order = 5
  estimated absolute RMS force accuracy = 0.0032355354
  estimated relative force accuracy = 9.7437189e-06
  using double precision FFTW3
  3d grid and FFT values/proc = 3600 512
Last active /omp style is kspace_style pppm/tip4p/omp
Neighbor list info ...
  update every 1 steps, delay 7 steps, check yes
  max neighbors/atom: 2000, page size: 100000
  master list distance cutoff = 10.8154
  ghost atom cutoff = 10.8154
  binsize = 5.4077, bins = 5 5 5
  1 neighbor lists, perpetual/occasional/extra = 1 0 0
  (1) pair lj/cut/tip4p/long/omp, perpetual
      attributes: half, newton on, omp
      pair build: half/bin/newton/omp
      stencil: half/bin/3d
      bin: standard
Per MPI rank memory allocation (min/avg/max) = 9.334 | 9.341 | 9.346 Mbytes
Step Temp PotEng TotEng E_pair E_mol Press Lx Ly Lz Volume Pxx Pyy Pzz Pxy Pxz Pyz Enthalpy 
 5000000    290.74456    -9003.894   -7895.4431    -9003.894            0    12562.976    24.852837    24.773215    23.015718    14170.425    13761.052    12385.236    11542.639    667.06792    873.08134    448.08374   -5299.1647 
 5001000    272.81664   -8987.2742   -7947.1727   -8987.2742            0    11354.638    25.034437    25.071609    22.692031    14242.735    10784.773    10331.871     12947.27   -480.02686   -526.47651     1352.721   -5588.6363 
 5002000    281.24644   -9001.7219   -7929.4822   -9001.7219            0    11727.543     24.89289    24.957993     22.90604    14230.986    11979.743    11992.812    11210.075    -538.8714   -4.2773791   -163.33472    -5495.497 
 5003000    282.36636   -9006.3917   -7929.8823   -9006.3917            0    12540.116      24.8139    24.984418    22.932372    14217.173        13908    11377.144    12335.204    577.03865   -267.86039   -527.86102   -5329.7785 
 5004000     275.2922   -9039.3419   -7989.8025   -9039.3419            0    10358.071    24.897449    25.103027    22.861491    14288.463    9862.2833    10332.533    10879.397   -174.93286    926.68507    211.56053   -5831.3609 
 5005000    278.69062   -8984.6813   -7922.1856   -8984.6813            0    10558.414    24.934343    24.978915    22.980843    14313.224    9842.7556    10537.837     11294.65    546.00471   -132.16944   -1380.2218   -5718.1833 
 5006000    282.30931    -8982.994   -7906.7021    -8982.994            0    10020.037    24.983137    24.933134    23.030908    14346.135    10593.192    9362.4273    10104.493    -855.2479    607.56485   -370.16104   -5810.2733 
 5007000    277.44054    -9022.384   -7964.6541    -9022.384            0    10205.321    24.944098    25.016225    22.921474    14303.164     9643.001    10470.583     10502.38    316.95213   -82.745412    349.85795   -5835.8549 
 5008000    283.54771   -9052.9108   -7971.8976   -9052.9108            0    10595.669    24.837599    24.971007    22.993173    14260.823    11782.675    10604.916    9399.4177   -23.534075    553.41573   -77.914096   -5768.2159 
 5009000    285.65853   -8972.9206     -7883.86   -8972.9206            0    10990.977     24.98531    24.910929    22.898663    14252.294    10561.058    11767.505    10644.368   -368.34747    -1261.701   -610.67246   -5599.3294 
 5010000    291.94608   -9024.3121   -7911.2805   -9024.3121            0    11358.064    25.029457    24.861295     22.86978    14231.058    10276.046    12580.909    11217.238   -273.31109   -1929.9936    658.63151   -5553.9667 
 5011000    276.30202   -9010.5214   -7957.1321   -9010.5214            0    10700.104    24.948711    24.883321    22.997122     14276.77    10400.272    11153.181     10546.86     271.7416     601.7467   -10.523227   -5729.2415 
 5012000    290.25662   -9004.7073   -7898.1167   -9004.7073            0    10093.904    25.143241     24.95875    22.805674    14311.561    8451.7774    10874.263    10955.672   -561.30011    758.10564    62.321308   -5791.3227 
 5013000    286.28374   -8996.4335   -7904.9893   -8996.4335            0    11266.182    24.900126     24.91935    22.972835    14254.528    10961.339    10959.483    11877.724    612.94217    1566.5639    -556.6853   -5562.8889 
 5014000    272.78198    -9037.369   -7997.3997    -9037.369            0    10623.169    25.020833     24.95063    22.843563    14260.907    10355.927    10609.519    10904.062   -898.09634    -851.3879    392.89354   -5787.9855 
 5015000    277.58306   -9011.2488   -7952.9756   -9011.2488            0    10397.065     24.93439     24.90566    23.021734    14296.668    11286.791     10130.99    9773.4155    738.55679   -78.743099     642.4806   -5785.1642 
 5016000    288.15077   -9031.5069   -7932.9448   -9031.5069            0     10562.23    24.988159     24.89995    22.912999    14256.557    9805.2455    11642.563    10238.882    279.69439    336.74826    -1094.873   -5736.8748 
 5017000    278.77689   -8995.8955   -7933.0708   -8995.8955            0     11929.85    24.989365    24.911593    22.870898    14237.704    11786.969    10857.987    13144.592    310.02048    1007.6366   -307.31881   -5455.9293 
 5018000    275.58849    -9038.395    -7987.726    -9038.395            0    9555.9402    24.884769    24.909377    23.096926    14316.955    10196.436    8679.3851    9791.9996     190.7387    117.40641   -464.09903   -5992.4638 
 5019000     282.3028   -9035.1306   -7958.8636   -9035.1306            0    10657.465    24.861472     25.07673     22.86047    14252.233    11973.651    9580.0384    10418.705    199.45162    1755.5242    612.24532   -5743.6649 
 5020000    278.64188    -9020.216   -7957.9061    -9020.216            0    12098.455     24.73901    25.038959     22.90187    14186.313    12396.488     12241.22    11657.658    -32.22705   -1609.5314   -1393.0533   -5454.8225 
 5021000    291.41713   -9056.4765   -7945.4615   -9056.4765            0    11564.192    24.835292    24.894066    22.967965    14199.977    10748.229    12305.605    11638.742    386.61426    -65.64462   -314.60002   -5550.6087 
 5022000    286.95074   -9007.2894   -7913.3023   -9007.2894            0    11050.834    24.961793    24.906521    22.945297    14265.353    10381.635     10633.67    12137.198   -375.96391   -173.91119    1807.4521   -5614.2254 
 5023000    276.82872   -9046.9586   -7991.5612   -9046.9586            0    10983.321     24.90429    24.978186    22.886328    14236.761     10487.42    10939.875    11522.667    566.38171     1429.045   -110.69947   -5711.1102 
 5024000    279.63141   -8944.3829   -7878.3004   -8944.3829            0    9212.5081    24.821728    25.084464    23.075492    14367.718     10897.16    7598.3077     9142.057   -2235.1816   -228.20937   -368.90146    -5947.926 
 5025000    278.21779   -8997.6426   -7936.9495   -8997.6426            0    10467.615    24.865253    24.970385     22.99611    14278.168    10932.764    10795.266    9674.8153    -346.8412   -111.45624    35.018169   -5757.2525 
 5026000    287.64434   -8998.0927   -7901.4613   -8998.0927            0    10513.354    24.995772    25.014897    22.851206    14288.097    11861.639    9619.6391    10058.785    156.92174    1408.9032    319.88367   -5710.7175 
 5027000    281.28356   -9018.2594   -7945.8782   -9018.2594            0    9021.7434    25.072132    25.000061    22.891796    14348.688    9454.4878    8241.0933     9369.649   -565.24003    6.3095838   -210.78962   -6057.9801 
 5028000    284.41076   -9053.4936   -7969.1901   -9053.4936            0     10089.01      24.8195    24.922847    23.136106    14311.361    9634.8009    10910.081    9722.1467   -761.48185   -921.01559   -1453.0655   -5863.4471 
 5029000    286.45651   -9069.0425   -7976.9397   -9069.0425            0    9198.0556    25.017465    25.041066    22.859021    14320.354    8940.5414    8309.4159    10344.209    290.04939   -1658.9272   -475.44883   -6055.9472 
 5030000    286.89449   -9002.2722   -7908.4996   -9002.2722            0    9927.1916    24.985634    25.031488    22.920587    14335.168     9353.792    9901.9421    10525.841    175.89325   -411.04476    420.74701    -5833.084 
 5031000    293.43035   -9005.8158   -7887.1254   -9005.8158            0    9799.5883    24.903147    25.027286    22.999005    14334.318     10618.49    9394.0678    9386.2075   -855.68901   -175.22997    1161.8479   -5838.5084 
 5032000    285.18387   -9008.1646   -7920.9136   -9008.1646            0    9905.5747    24.909533    25.060732    22.945437    14323.716    10137.393    10366.639    9212.6928    612.79244    220.37243   -686.12973   -5851.6717 
 5033000    281.14069   -9006.0874   -7934.2509   -9006.0874            0    9818.9042    24.868687    25.116071     22.93069    14322.594    10294.042    9967.5898    9195.0805   -1143.3099    121.14751    291.41123   -5883.2748 
 5034000    269.26766   -9016.0677   -7989.4965   -9016.0677            0    11073.566    24.813495     25.02351      22.9394     14243.55    13571.907    9033.7596    10615.032   -580.80116    428.87446   -618.13677   -5689.2116 
 5035000    276.39931   -9067.0287   -8013.2685   -9067.0287            0    10490.098    24.791186    24.963363    22.987432    14226.263    10957.599     10195.51    10317.184   -214.07664    217.53639    283.95121   -5836.8307 
 5036000    283.14839   -9027.4504   -7947.9596   -9027.4504            0    11704.041    24.832191    24.952874    22.916361    14199.769    13268.835    10063.695    11779.594   -316.50175   -1000.8298   -185.90311   -5524.1806 
 5037000    280.28194   -9008.0339   -7939.4713   -9008.0339            0    11715.728    24.890172    24.911786    22.945534    14227.577    11972.394    12559.584    10615.205   -726.22136   -371.31995    288.80385   -5508.5209 
 5038000    285.85151   -8990.9278   -7901.1315   -8990.9278            0    12754.411    24.868699    24.916757    22.858783    14164.384    12812.019    14114.736    11336.478    791.96462   -129.89904   -366.67958   -5266.4144 
 5039000    276.89115   -9020.3193    -7964.684   -9020.3193            0    11379.753    24.988008    24.919522    22.867873    14239.578    10596.961    12157.859    11384.439   -474.87541   -632.72049    493.19667   -5601.4548 
 5040000     280.0893   -9029.2654   -7961.4373   -9029.2654            0     11734.21    24.930357     24.93496    22.854145    14206.992    11762.759     10926.56     12513.31   -1130.9521   -784.96712   -307.46853   -5530.1746 
 5041000    273.69432   -9021.9789   -7978.5314   -9021.9789            0    13316.464    24.716015    24.948539     22.92674    14137.281    15010.554    11980.203    12958.636    541.16257   -639.44436    50.230122   -5232.9729 
 5042000    289.79329   -9053.0774   -7948.2532   -9053.0774            0    11109.672    24.788174    24.998504    22.912811    14198.319    10879.163    10562.776    11887.076   -727.79149   -916.75694   -1364.4937   -5647.7966 
 5043000    280.34191   -8980.5029   -7911.7116   -8980.5029            0    11681.908    24.829374    25.035683    22.892141    14230.221     12109.13    11056.915    11879.679   -171.68956    673.37183   -1215.2656   -5487.3282 
 5044000    289.85384   -9042.5316   -7937.4766   -9042.5316            0    11941.039    24.831114    25.038642    22.797008    14173.752    12568.646    9723.1298    13531.342   -340.54197   -1371.9812     233.1269   -5469.1487 
 5045000    278.01986   -9073.5849   -8013.6464   -9073.5849            0     11548.74     24.92243    24.854083     22.95598    14219.488    11473.622    11345.204    11827.394    790.11009   -1917.1766    110.42829   -5618.7074 
 5046000    293.52569   -9004.6428    -7885.589   -9004.6428            0    12098.671    24.934382    24.826709    22.940251    14200.903    12330.417     12217.49    11748.105    859.50377   -624.95708   -214.93535   -5379.8865 
 5047000    291.58477   -9058.0628   -7946.4087   -9058.0628            0    12728.433    25.083163    24.814478    22.742769    14155.682    11090.442    12915.681    14179.175     10.49904   -1051.4208    21.529242   -5318.6733 
 5048000    278.56778   -9014.0412   -7952.0138   -9014.0412            0    11603.103    24.952877    24.837013    22.952764    14225.088    10938.208    12346.602      11524.5   -831.89929    630.97326     232.7148   -5544.8535 
 5049000     287.3484   -9005.4091    -7909.906   -9005.4091            0    12008.444    24.925491    24.884222    22.953791    14237.122    10509.648    13545.228    11970.456    404.14594   -96.389151    890.67657   -5416.5468 
 5050000    298.10229    -9028.594   -7892.0921    -9028.594            0    13666.247    24.937441    24.909846     22.77368    14146.732    12956.432    13192.148    14850.161    361.82616   -51.240599   -284.13456   -5072.5325 
 5051000    282.95069   -9021.5231   -7942.7861   -9021.5231            0    10733.457     24.90118     24.96866    22.950879    14269.688      10701.4    10838.308    10660.661   -281.46768   -927.07728   -91.764424   -5709.0597 
 5052000    279.37754   -9001.2032   -7936.0886   -9001.2032            0    11608.992    24.814921    25.074256    22.847407    14216.015    12009.394    10876.642    11940.939    -237.2634   -613.52484    -360.7917   -5529.2429 
 5053000    281.59645   -9021.1376   -7947.5635   -9021.1376            0    11034.382     24.79342    24.930715    23.029507    14234.945    11132.686    11319.215    10651.246    89.685611   -1203.6067   -1183.6907   -5656.8028 
 5054000    270.88373   -8951.7274    -7918.995   -8951.7274            0    10540.204    24.993392     25.02478    22.890142    14316.734    9333.3701    10497.919    11789.322    709.88732   -102.96594    478.69441   -5718.2545 
 5055000    296.78343   -9028.5613   -7897.0875   -9028.5613            0    12155.336    24.728708    24.905349    23.062479    14203.652    13156.549    11318.271    11991.188    8.3672757   -1652.4373    858.95488   -5379.1619 
 5056000      287.534   -8999.7089   -7903.4982   -8999.7089            0    11641.826    24.921046    24.904682    22.941593    14238.716    11330.765    12161.957    11432.757     146.9662   -1059.1369   -479.01226   -5485.9907 
 5057000    280.10066    -9002.371   -7934.4995    -9002.371            0    11030.405    25.039557    24.953789    22.807128    14250.619    9701.8256    11424.982    11964.407   -406.89837   -1446.2511    231.65709   -5642.0431 
 5058000    284.54882   -9044.7785   -7959.9486   -9044.7785            0    10673.637     24.86722    24.871459    23.019382     14237.12    10830.997    10701.381    10488.534   -450.62754   -55.054794   -764.50445   -5743.7408 
 5059000      287.357   -9028.5689    -7933.033   -9028.5689            0    12609.831    24.948334    24.984951    22.749208     14180.33    12017.139    11662.587    14149.767   -347.40747   -717.81701    1229.8801   -5325.2497 
 5060000    285.54649   -9085.1352   -7996.5018   -9085.1352            0    10604.957    24.909076    25.045351     22.83324    14244.666    10316.541    9879.0572    11619.274    -764.7998    315.99507    -704.0431   -5793.3871 
 5061000    284.89167   -9057.7971   -7971.6601   -9057.7971            0    10259.503    24.893635    24.961515     22.98237    14280.851    12110.275    8353.4741    10314.761   -47.367045   -913.84237    426.72472   -5834.8974 
 5062000    274.17664   -8984.5104    -7939.224   -8984.5104            0    11793.962    24.921892    24.991013    22.842761    14227.004    10503.995    11474.579     13403.31     486.7336     481.2581   -487.75362   -5492.1389 
 5063000    287.51945   -8978.1441   -7881.9889   -8978.1441            0     12121.67    24.943698    24.834307    23.023032    14261.835    12522.803    11711.024    12131.183   -353.18291   -892.35997     1121.143   -5360.7515 
 5064000    283.58286   -9004.3425   -7923.1953   -9004.3425            0    11231.841    25.015898    24.933765    22.805611    14224.784    10654.474    10385.146    12655.903   -193.61295   -678.90512    107.03468   -5593.1063 
 5065000    278.78498   -9060.9293   -7998.0738   -9060.9293            0    10758.925    24.845825    24.876603    23.068051    14257.894    10997.592    10818.201    10460.982   -287.38694   -605.73627   -722.57742   -5760.8978 
 5066000    289.98897    -8973.463   -7867.8928    -8973.463            0    11888.116    24.931456    24.928344    22.909678    14238.363    12034.883    11437.959    12191.507   -162.37663   -236.70599    517.65916   -5399.3027 
 5067000     286.3245   -9074.0609   -7982.4613   -9074.0609            0    10845.909    24.878677    24.962184    22.931696    14241.182    11915.301    9533.9828    11088.442   -170.14193    1599.1758   -30.347389   -5729.8417 
 5068000    279.16635   -9042.0195     -7977.71   -9042.0195            0     11006.57    24.919732    25.016145    22.860993    14251.442    10732.079    11348.937    10938.694    244.47658    464.84286    23.372256   -5690.0751 
 5069000    281.77136   -9045.7126   -7971.4717   -9045.7126            0    10335.144    24.803417    25.015959    22.995011    14267.974    12148.557     9616.874    9240.0023    -1192.005    576.05602   -55.302366   -5820.8959 
 5070000    278.41056   -9026.0037   -7964.5757   -9026.0037            0    11083.506      24.9459    24.960355    22.872106    14241.512    10767.302    10790.003    11693.214    646.42554    360.97048   -638.68474   -5662.5554 
 5071000    282.60024   -9012.8181   -7935.4171   -9012.8181            0    10940.284    24.870018    24.957785    23.019113    14287.976    11702.937    10518.138    10599.777    280.46744    699.26673   -161.02611   -5655.7303 
 5072000    285.03799   -8986.4482   -7899.7534   -8986.4482            0    11148.362    24.983105     24.97444    22.843837    14253.162    9995.9338    10950.184    12498.967   -491.32377    267.10541   -460.75946   -5582.3685 
 5073000    268.53934   -9039.9827   -8016.1883   -9039.9827            0    11637.963    24.835417    24.807849    23.055716    14204.933    12771.797    11422.329    10719.764    1197.1016   -156.66309    96.217759   -5605.2169 
 5074000    286.96654   -9010.1269   -7916.0796   -9010.1269            0    11525.969    24.904043    24.875694    22.965564     14227.29    12599.399     10848.41    11130.099   -522.73582   -624.41724    1081.9368   -5524.5513 
 5075000    298.18884   -9016.0978    -7879.266   -9016.0978            0    11714.005     25.00064    24.980886    22.760679    14214.912    10892.973    11148.152    13100.891    692.82047   -291.18221    38.536014   -5450.8367 
 5076000    283.66626    -9013.958   -7932.4929    -9013.958            0    13159.573     24.82688      24.8152    23.026113     14186.02    12884.254    14702.967    11891.499   -153.00601    312.76473    -1226.218   -5209.9278 
 5077000    282.21922   -9056.0528   -7980.1044   -9056.0528            0    11686.826    24.891181    24.960792    22.807148    14170.163    12045.976    10801.391    12213.109   -67.414028    1.6938969   -732.81074   -5564.9367 
 5078000    273.80636   -8938.4667   -7894.5919   -8938.4667            0    12293.104    24.886064    24.912071    23.026502    14275.588    13339.163    11804.661    11735.486    665.27571   -856.09767    546.30909   -5335.2316 
 5079000    285.60488   -9042.3018   -7953.4458   -9042.3018            0    11428.121    24.931698    24.830781    22.913362    14185.056    11163.361    12435.335    10685.667   -367.88099   -688.41641    137.18007   -5589.2591 
 5080000    277.09982   -9003.7267   -7947.2958   -9003.7267            0     10377.98    24.953231     25.05713    22.836359    14278.579    10546.624    9632.1345    10955.182   -219.89148    223.14585   -136.96203   -5786.2016 
 5081000    289.90981   -9009.5717   -7904.3032   -9009.5717            0    11282.014    24.784006    25.019192    23.003765    14264.078    12619.897    9710.2023    11515.942   -186.61411    525.85721    656.81598   -5557.3404 
 5082000    278.54074   -9013.6343   -7951.7099   -9013.6343            0    11684.697    24.902584    24.994476    22.842763    14217.953     11550.92    11370.369    12132.802    288.97442    584.73774    207.48046   -5528.8382 
 5083000    271.46988   -9033.8588   -7998.8918   -9033.8588            0    12402.846    24.820232    24.931459     22.92886    14188.484    12855.862    12224.922    12127.755    1044.2258   -1302.7395    564.80078   -5432.4393 
 5084000    288.42282   -8996.5412   -7896.9418   -8996.5412            0     10676.91    24.946189    24.962414    22.928212     14277.79    11026.838    10315.319    10688.573    405.91491    765.43758    1054.1748   -5673.7217 
 5085000     274.3014   -9019.3035   -7973.5415   -9019.3035            0    9170.6258    25.085362    24.871921    22.976124    14335.289    9672.4755    8569.6505    9269.7512    568.12966   -1648.6794     1308.528   -6056.2801 
 5086000    290.47253   -9046.8269   -7939.4132   -9046.8269            0    10650.296    25.118807    24.862474    22.861827    14277.569    10070.188    11676.877    10203.822    123.86878   -665.20307    1173.3498   -5721.7692 
 5087000    281.63191   -9021.6253    -7947.916   -9021.6253            0    12059.496    24.915005    24.811878    22.998027    14217.106     12515.43    13311.821    10351.238   -259.54612   -1224.8334    750.76608    -5447.477 
 5088000    287.63822     -8970.11   -7873.5019     -8970.11            0    13244.385    24.916771     24.88628    22.878395    14186.567    12854.261    13577.617    13301.278   -722.78294    219.78518   -292.94413   -5133.2847 
 5089000    280.59842   -9050.9755   -7981.2064   -9050.9755            0    13670.607    24.800238    24.876929    22.866005    14107.268    14428.659    13841.188    12741.975    802.42444   -48.518981   -293.12074   -5168.6151 
 5090000    289.15864   -9035.9321   -7933.5275   -9035.9321            0    10634.203    24.792578    24.986152    23.042059     14273.89     11407.06    10600.206    9895.3415    126.20329   -222.72725   -599.51843    -5719.805 
 5091000    282.30241    -9053.764   -7977.4984    -9053.764            0    12039.969    24.935674    24.989068    22.783348    14196.743    11654.203    11349.125    13116.581   -80.345741   -43.039964   -211.32337   -5484.6838 
 5092000    285.82793   -9018.9312   -7929.2248   -9018.9312            0    12703.152    24.834267     24.83935    22.980067    14175.646     12424.96    13535.314    12149.183    467.44878    953.24931    1990.6426   -5303.0099 
 5093000    288.58786   -9035.2989   -7935.0703   -9035.2989            0    10606.904    24.965831    24.935912    22.928786    14274.219    10505.787    10741.086    10573.838    77.947213    984.70714     618.6899   -5726.9798 
 5094000     276.5785   -9001.0775   -7946.6341   -9001.0775            0    10823.886    25.091898    24.905341    22.859716    14285.546    9833.1034    10750.462    11888.092    405.06946   -1643.4228   -456.98005   -5691.5853 
 5095000     271.8847   -9046.4982   -8009.9498   -9046.4982            0    11276.298    24.976601    24.782329    22.947137    14203.781    10056.451    13120.716    10651.726   -77.469791    495.33833    509.50528   -5674.0919 
 5096000    281.25251   -9012.9713   -7940.7084   -9012.9713            0    10735.654    24.958228    24.877288    22.977333    14266.465    9896.7974    11041.737    11268.427    603.93852   -95.360926    1344.8674   -5707.0294 
 5097000    284.68409   -9014.9504   -7929.6048   -9014.9504            0    11176.399    24.894041     24.97913    22.908671    14245.333    10215.904    11811.843    11501.451     304.4488    121.34481    374.23272    -5607.668 
 5098000    276.62285   -9069.7453   -8015.1329   -9069.7453            0    9684.0247    24.754865    25.105625    22.956824    14267.353     10346.35    8777.2673    9928.4566    28.318258    184.99774    1020.4265   -6000.1322 
 5099000    280.25235   -8996.6903   -7928.2405   -8996.6903            0    10372.366    24.907754    25.042469    22.951779     14316.21    9510.6945    9900.9379    11705.466    405.27456   -422.10261   -992.17288   -5762.6229 
 5100000    278.46461   -9046.5821    -7984.948   -9046.5821            0    10935.206    24.815114    24.977309    22.961965    14232.165    12195.746    9780.9884    10828.883    438.92543    -1069.887   -95.973968     -5715.22 
 5101000    289.24671    -9054.807   -7952.0667    -9054.807            0    11283.495    24.908385    24.890397     22.90803    14202.511    11884.499    11985.333     9980.652    391.84189    180.01528    357.81628    -5614.927 
 5102000    284.22315   -8996.4635   -7912.8752   -8996.4635            0     11351.41    25.073895    24.904062    22.894436    14296.244    10335.496    11908.925    11809.809   -343.15101    216.92725    1069.8762   -5546.1511 
 5103000    288.58622   -9035.9991   -7935.7768   -9035.9991            0    9867.4251    25.054864    24.913935      22.9065    14298.587    8928.9673    10647.888     10025.42   -171.69913   -454.88568    153.49283   -5878.1204 
 5104000    284.52136   -9050.2461    -7965.521   -9050.2461            0    8772.5518    24.968483    24.881001    23.150065    14381.766    8961.1882    8577.3106    8779.1567   -581.65425    432.49781    1096.7928    -6125.537 
 5105000    283.71378   -9008.6023   -7926.9559   -9008.6023            0    10207.446    24.950829    25.008463    22.947858    14319.048    9981.1717    9505.5601    11135.606    199.43597   -278.17572    1044.5841   -5795.3491 
 5106000    280.21303   -9049.4078   -7981.1079   -9049.4078            0    11014.506    24.970223    24.754167     23.04293    14243.228    8987.3524    13265.095     10791.07    496.80168   -719.50516    1162.0247   -5693.1431 
 5107000     289.3027   -9043.8077   -7940.8539   -9043.8077            0    12189.222    24.955777    24.921351    22.831174     14199.43     11552.16    11364.678    13650.828    84.119446   -457.92245   -170.67572   -5416.6595 
 5108000     278.4175   -8999.6439   -7938.1894   -8999.6439            0    12781.775    24.763829    24.856524    23.072799    14202.293    13300.609    12660.772    12383.943   -276.19454   -440.28649     961.6276   -5290.7533 
 5109000    277.91678   -9006.2912   -7946.7457   -9006.2912            0    11124.836    24.910018    24.976812    22.857551    14221.347    10202.815    11648.514    11523.179    70.179826     1130.331    487.97884   -5639.4129 
 5110000    283.52139   -9043.3698    -7962.457   -9043.3698            0    10862.594    24.948511    24.972461    22.928374    14284.966    10490.205    11340.254    10757.322   -655.05743    162.42717    265.32798   -5699.4357 
 5111000    281.07445   -9012.9885   -7941.4045   -9012.9885            0    10163.204    24.913634    24.975815    22.991538    14306.215    10473.587    10245.281     9770.745    158.06598    908.27981    939.69386   -5820.9386 
 5112000    287.85043   -9037.4406   -7940.0234   -9037.4406            0    9262.9112    24.840406    25.116323     22.96403    14327.251    10825.196    7965.7948    8997.7423   -1180.0354    674.99832    141.12748   -6004.5543 
 5113000    279.25768    -9001.266   -7936.6084    -9001.266            0    11525.376    24.863289    25.033426    22.901553    14254.231     12264.05    10215.627     12096.45   -218.56559   -480.37096   -469.87853   -5540.6748 
 5114000    294.64565   -8994.4543   -7871.1307   -8994.4543            0     12010.04    24.776174    25.008266    22.912717    14196.929    11752.017    12457.638    11820.465   -110.49387   -449.35601    581.32329   -5384.4802 
 5115000    288.17736   -8979.7458   -7881.0823   -8979.7458            0    12546.514    24.806159    25.037223    22.882691     14211.92    13235.839    12275.256    12128.447    123.58062   -1478.8459   -56.602859    -5280.613 
 5116000    285.01619   -9045.3496   -7958.7379   -9045.3496            0    13216.673    24.696803    24.912995    23.007836    14156.062    13656.765    12966.665     13026.59   -279.64248    -398.5836   -444.42629   -5230.1339 
 5117000    281.69549    -9084.144   -8010.1924    -9084.144            0    11457.664     24.90368    25.013312    22.801405    14203.532    10347.855     10960.51    13064.626    607.35311   -686.82675   -13.942068   -5636.8067 
 5118000    278.00985    -9063.375   -8003.4747    -9063.375            0    11358.534    24.847997    24.874303     23.02807    14233.112    11379.274     12291.77    10404.559   -1659.9164   -34.866924     28.95075   -5645.7231 
 5119000    288.26674    -9042.983   -7943.9787    -9042.983            0    11461.005    25.027063    24.748169    22.973774    14229.358     10091.99    13759.805     10531.22   -675.68428   -570.93622   -742.56527   -5565.5841 
 5120000    278.50108   -9027.9964   -7966.2232   -9027.9964            0    10395.249    24.973256    24.923935    22.941743     14279.67    9175.6467    11337.599    10672.501    329.51802   -370.81108    9.8370006   -5801.3675 
 5121000    283.00539    -9031.544   -7952.5984    -9031.544            0    11541.151    25.087802    24.757493    22.871268    14205.598    10293.379    12678.595    11651.479   -205.71175    32.701912    760.54686   -5561.5711 
 5122000    287.14754   -9016.4786   -7921.7413   -9016.4786            0     9618.289    24.955567    24.875559    23.017502     14288.89    9005.1052    9950.9144    9898.8473    230.45018   -477.45572    1525.5787   -5917.3976 
 5123000    281.44224   -9055.7527   -7982.7666   -9055.7527            0    9672.2363    24.970014    24.984454    22.899788    14286.311    10122.921     9105.419    9788.3684    762.40583   -14.469828    560.59951   -5967.5446 
 5124000     282.4213    -8991.276   -7914.5572    -8991.276            0    11524.552    24.843937    24.873429     23.05683    14248.058    11512.194    12650.973     10410.49   -397.95719   -487.55455    10.564103   -5519.8323 
 5125000    289.33017   -8983.1145   -7880.0559   -8983.1145            0    12343.796    25.019314    24.992278     22.71219    14201.698    11584.046    11989.312    13458.032    317.21278    105.90469    97.613071   -5323.4434 
 5126000    287.51783   -9041.4942   -7945.3451   -9041.4942            0    11726.614    24.847923    24.931183    22.920872    14199.208    12448.128    11999.661    10732.054    245.22114    570.01512    258.42869   -5516.9876 
 5127000    287.53956   -9014.4515   -7918.2196   -9014.4515            0    12305.214       24.838     24.92405    22.929466    14194.797    11674.792    13434.523    11806.328   -646.83107    551.80114    1385.2955   -5370.8364 
 5128000    285.35676   -9042.4746   -7954.5645   -9042.4746            0    11084.025    24.875637    24.996706    22.882104    14228.298    11928.938    10488.243    10834.895   -573.80988   -906.51412    888.62556   -5654.5724 
 5129000    286.55513   -9021.4642   -7928.9854   -9021.4642            0    10969.337    24.816647    24.933098    23.028749    14249.174    11826.229    11256.131    9825.6504    316.33665   -586.66741    918.09835    -5649.452 
 5130000    271.57887   -9027.0659   -7991.6834   -9027.0659            0    10571.834    24.886148    25.055064    22.878738    14265.442    10807.824    9984.2338    10923.444   -388.01475    200.70917   -377.81715   -5792.2467 
 5131000    270.27799   -9016.6888   -7986.2659   -9016.6888            0    11345.566    24.808148    24.959104    23.035153    14263.117    11869.582    12474.383     9692.734   -1005.9474   -19.037508    66.152537   -5626.2414 
 5132000    277.71204   -9030.7631   -7971.9981   -9030.7631            0    9598.6497    24.994914    25.093381    22.855003    14334.816    8525.8555    10611.723    9658.3708    235.81615    478.62353   -396.84204    -5965.318 
 5133000    274.39631   -9010.1198   -7963.9959   -9010.1198            0    10551.289    24.871672    24.920201    23.060228    14292.892    10432.817    10986.375    10234.675    657.17913    47.395861    987.81141   -5764.6096 
 5134000    269.52658   -9028.1638   -8000.6055   -9028.1638            0    10531.407    24.928761    25.033423    22.854356    14262.312    11058.733    10157.926    10377.563    302.15118   -967.69282   -486.32829   -5810.0603 
 5135000     283.3931   -9091.9568   -8011.5331   -9091.9568            0    10715.718    24.838157    24.884788    23.043961    14243.294    11150.111    10188.589    10808.453    -920.6186    257.50995   -802.01197   -5785.6231 
 5136000    277.03044    -9008.759   -7952.5926    -9008.759            0    10032.185    24.994146    24.917072    22.989139    14317.197    10319.246    9799.6959    9977.6147   -263.87477    1121.1007   -72.621083   -5857.8559 
 5137000    291.11144   -9086.1213   -7976.2717   -9086.1213            0     10269.37    25.049497    24.952344    22.782036    14239.767    8347.8582    11266.648    11193.603   -480.49675    782.65098   -567.74439    -5843.607 
 5138000    276.10171   -8991.1848   -7938.5592   -8991.1848            0    11510.428    24.904676    24.827419    23.037486    14244.512    11249.589    12023.572    11258.124     128.6984   -1330.5692   -54.022355   -5547.3644 
 5139000     284.7185   -9072.7973   -7987.3205   -9072.7973            0     11250.01    25.109145     24.78173    22.822877    14201.491    10462.291    12028.971    11258.767   -240.41299    372.56901   -638.00711    -5657.284 
 5140000    275.40087   -8993.8246   -7943.8708   -8993.8246            0    10907.208     25.05618    24.813767    23.001519    14300.923     9290.731    12786.757    10644.136    83.175409   -239.99751    570.92895   -5669.0167 
 5141000    278.94029   -9045.2561   -7981.8085   -9045.2561            0    10297.519    24.915138    24.957523    22.935641    14261.843    10069.009    10072.687    10750.861    630.85215    -71.87844   -130.32355   -5839.9826 
 5142000    279.44029    -9046.111   -7980.7572    -9046.111            0    12304.081    24.946633    24.937726    22.807342    14188.727     12155.44    12435.754    12321.048   -75.141221   -422.83269    -159.6706   -5434.6979 
 5143000    280.89888   -9011.2509   -7940.3363   -9011.2509            0    11277.372     24.99284    24.820463    22.961459    14243.771    11248.219    12341.004    10242.894    77.781548    -497.6285    465.27073   -5597.6789 
 5144000    283.98139    -9027.997   -7945.3305    -9027.997            0    10324.902    24.928957    24.910286     22.96666    14262.008     10633.37     10223.53    10117.805   -934.18027   -393.85838   -255.22884   -5797.7844 
 5145000    293.37001   -9006.3951   -7887.9348   -9006.3951            0    11455.754    24.966508    24.977685    22.908091    14285.613    11282.498    11150.241    11934.524   -212.36911   -818.04634    891.08151   -5501.2314 
 5146000    281.70119   -9032.0082   -7958.0348   -9032.0082            0    11087.945    24.867369     24.92925    22.975072    14242.818    11654.597    11016.958     10592.28   -63.904009   -382.94813   -240.22504   -5654.8813 
 5147000    275.19392   -8999.7153   -7950.5505   -8999.7153            0    11883.093    24.931938    25.008838    22.793854    14212.396    12030.423    11730.607    11888.249    -595.0794    549.48306   -403.39622   -5487.5035 
 5148000    268.19666   -9007.0529   -7984.5649   -9007.0529            0    12699.166    24.888271    24.885431    22.861831    14159.597    12848.573    12677.625      12571.3   -619.96704    290.53979     800.4488   -5362.1466 
 5149000    278.00693   -8998.1686   -7938.2794   -8998.1686            0    11233.397    24.933371    24.928597    22.912658    14241.453     12315.99    10682.016    10702.186   -601.53374    827.72192    1029.2942   -5605.1366 
 5150000    281.58186   -9035.2768   -7961.7584   -9035.2768            0     10620.16    25.084539     24.78617    22.962009    14276.621    10227.765    11153.557    10479.159    903.34616   -810.14289    157.51457   -5750.5361 
 5151000    287.47278   -9023.9161   -7927.9388   -9023.9161            0    11392.684     25.04913    24.845874    22.918852    14263.949    9881.6062    11884.543    12411.903   -513.42993   -32.300647   -1126.4535    -5557.975 
 5152000     281.8824   -9052.8971   -7978.2329   -9052.8971            0    9828.1558    25.035183    24.864224    22.998273    14315.974    9026.3367     10603.92    9854.2101    471.34503   -64.002904     898.4728   -5926.2732 
 5153000     282.3708   -9023.1015   -7946.5752   -9023.1015            0    10131.653    25.038241    24.957493    22.921568    14323.498    9975.7839     9422.377    10996.799    881.79743    532.81802    1824.9365   -5830.1384 
 5154000    274.32477   -9045.4061   -7999.5549   -9045.4061            0    10184.782    25.028073    24.917475    22.889247    14274.567    10433.331    9996.6598    10124.357   -629.70348    300.85011   -307.62918   -5879.2878 
 5155000    281.00152   -9029.5786   -7958.2727   -9029.5786            0    11649.668    24.840229     24.92883    23.003399    14244.575    12415.244    11386.546    11147.216    512.43853    432.16231   -317.84455   -5538.1413 
 5156000    270.76326   -9076.5766   -8044.3035   -9076.5766            0    11461.882    24.914217    25.044131    22.738446    14187.765    10701.766    10495.414    13188.467    365.17111   -814.06125    96.739023   -5672.6796 
 5157000    273.82427   -9012.4761   -7968.5331   -9012.4761            0      10420.2    24.857995    24.915717    23.078194     14293.59    11121.398    10583.499    9555.7031   -265.35885   -465.48084   -453.35577   -5796.3659 
 5158000    278.23971   -9010.9507   -7950.1741   -9010.9507            0    10387.725    24.923676    25.059531    22.903175    14304.765    10868.591      9418.34    10876.243   -120.70813    875.08546    547.33437   -5783.0836 
 5159000    287.06169    -9011.438   -7917.0279    -9011.438            0     10621.03    24.820765    25.012777    22.959401    14254.029     10900.81    10556.803    10405.478   -114.85532   -2.2075213   -1330.9322    -5709.124 
 5160000    277.98464   -9027.4064   -7967.6021   -9027.4064            0    10667.888    24.772073    24.987647    23.074322    14282.909    12079.016    9684.6065    10240.041   -173.75032   -558.41515    71.229893   -5745.4643 
 5161000    284.95229   -9088.1324   -8001.7643   -9088.1324            0    11106.989    24.899853    25.042634    22.754982    14189.049    10772.641    10440.651    12107.677     390.6251   -1464.4853    1182.1798   -5703.3648 
 5162000     280.3764   -9018.4538   -7949.5311   -9018.4538            0    11388.974    24.717797    24.898131    23.142419    14242.469    12019.017     10572.34    11575.566    195.60633   -292.96763    195.06902   -5583.9068 
 5163000    281.62372   -9012.3174   -7938.6393   -9012.3174            0    11913.768    24.864944    25.039924    22.861588    14233.997    12155.673    12098.967    11486.665    401.53198   -990.47209    608.33659    -5465.481 
 5164000    274.67071   -9031.6213   -7984.4513   -9031.6213            0    11294.153    24.709618    24.942049    23.077769    14223.025    12113.775    11423.369    10345.316   -925.22611   -92.775665   -832.16573    -5641.725 
 5165000    278.80377   -9014.8657   -7951.9386   -9014.8657            0    10243.029    24.917995    24.977597    22.971063    14296.998    10565.487    10503.318    9660.2817   -1519.4815   -764.24434   -981.47324    -5816.195 
 5166000    285.44119      -9001.4    -7913.168      -9001.4            0    11012.371    24.907185    24.969385    22.940218    14266.914     11428.48    10219.687    11388.946    528.36896   -159.54192    748.32472   -5621.8426 
 5167000    266.04029   -9047.8414   -8033.5745   -9047.8414            0    9467.7562    24.973077      24.9363    22.979957    14310.449    8379.1696    11234.854    8789.2456   -748.02569   -172.11245   -438.53125   -6057.6233 
 5168000    283.11237   -8985.7447   -7906.3912   -8985.7447            0    10098.628    24.919566    24.946694    23.046682    14327.219    10036.599    10954.452    9304.8332    -238.6757     112.0987   -13.956441   -5796.3052 
 5169000    279.98487   -9027.1176   -7959.6876   -9027.1176            0    10287.674    24.910203    25.017215    22.929121    14289.059    10093.283    11170.328    9599.4116   -473.33442    1362.2094   -1620.2005   -5815.8261 
 5170000    282.92096   -9033.1881   -7954.5643   -9033.1881            0    12298.051    25.064049    24.766642    22.844361     14180.69    10809.417    13482.169    12602.568    538.82906   -430.35344   -180.18392   -5411.1943 
 5171000    277.14508   -9018.0993   -7961.4958   -9018.0993            0    11716.403    24.982475    24.815196    22.945915    14225.205    11111.871    12556.085    11481.251   -127.48064   -697.20204    -40.90996   -5530.8106 
 5172000    288.94715   -9062.9872   -7961.3889   -9062.9872            0    11480.312    25.004041    24.785803    22.913646    14200.623    10360.968    13539.449     10540.52   -480.84147   -795.05277   -53.933136   -5583.7988 
 5173000    283.93497   -9039.9308   -7957.4412   -9039.9308            0    11467.449    24.912942    24.838488     22.95878    14206.888    10570.261    12979.558    10852.529    1062.6557    657.54731   -999.32004   -5581.4671 
 5174000    276.74767   -9020.2171   -7965.1288   -9020.2171            0    13143.924    24.830059    24.821535    22.934332    14134.892    13524.587    13318.627    12588.559    906.09584   -1161.0952   -321.08814   -5255.6021 
 5175000    279.60177   -9014.8899   -7948.9204   -9014.8899            0    12781.417    24.813552    25.008515    22.830011    14167.165    12545.661    11883.639     13914.95    569.64435   -1018.1757    159.94033   -5308.1063 
 5176000    278.86237   -9032.1608   -7969.0103   -9032.1608            0    11920.617    24.686339    24.988912    23.027818     14205.51    13689.648    11251.641    10820.562    339.50855      803.834    -775.5994   -5499.3827 
 5177000    280.02462   -9012.3038   -7944.7222   -9012.3038            0    9911.0395    25.036171    24.916997     22.94922    14316.324    9871.0758    10158.271    9703.7713   -1018.8334   -1794.9784   -1234.4115   -5875.4071 
 5178000     274.8602   -9017.1834   -7969.2909   -9017.1834            0    9540.6627    25.058194    24.942469     22.92108    14325.978     8488.834    10318.036    9815.1177    486.54472   -132.38901    440.75774   -5975.9632 
 5179000    276.14955   -9016.9092   -7964.1011   -9016.9092            0    10055.533    25.091611    24.820931    23.030319    14343.217    8690.4108    11452.812    10023.377    381.62433    685.33683    -875.1546   -5860.6736 
 5180000    277.66642   -9047.5916   -7989.0006   -9047.5916            0    10990.328    24.962867    24.812208    23.055287    14280.072    11440.861    11314.311    10215.812     841.7404   -636.24184   -140.35006   -5700.1526 
 5181000     273.2756   -8997.4627   -7955.6114   -8997.4627            0    11511.482    24.941494    24.996502    22.848191    14244.707    11707.841    10012.745     12813.86    197.31955   -895.67248    1306.9296    -5564.165 
 5182000     289.7428   -9012.4291   -7907.7974   -9012.4291            0    10984.329    24.807875     24.98552    23.029168    14274.345     12155.47    11619.087    9178.4311    190.34858    1123.3835    791.27183   -5621.1162 
 5183000    286.68138   -9048.1856   -7955.2254   -9048.1856            0    10813.364    24.872206    24.926236    22.948612    14227.462      11009.2    10192.152     11238.74    416.84823   -112.16302    618.95978   -5711.5287 
 5184000     288.7003   -9023.0737   -7922.4164   -9023.0737            0    12806.089    24.842122    24.919967    22.888108    14169.224    12291.988    12937.568    13188.712   -213.26487    1026.4766   -400.23682   -5276.1201 
 5185000    300.39844    -9021.587   -7876.3312    -9021.587            0    12970.802    24.859144    24.907286     22.84736    14146.487    13782.276    11774.778    13355.352   -74.379186   -345.51651   -593.02476    -5200.299 
 5186000    286.47655   -8970.6662    -7878.487   -8970.6662            0    12963.213    25.007095    24.897268    22.817529    14206.384    14004.411    11615.658     13269.57    910.25061    853.06209   -1012.9149   -5192.6968 
 5187000    274.65451   -9065.4407   -8018.3325   -9065.4407            0    11819.817    24.887253    24.866747    22.994651    14230.586    11338.139    12068.319    12052.992     676.2105      -339.24   -54.794807   -5565.2655 
 5188000    290.76285   -9011.2959   -7902.7753   -9011.2959            0    12578.099    25.092198     24.88343    22.736624    14196.292    10069.252    13319.935    14345.112    1250.8808    200.11088   -40.531933   -5298.6263 
 5189000    275.23366   -9055.8222    -8006.506   -9055.8222            0    11746.795    24.950324    24.817874    22.962281    14218.566    12203.996    12092.965    10943.424   -1198.8391   -7.2001385    180.67755    -5570.653 
 5190000    288.15781   -9004.4425   -7905.8535   -9004.4425            0    11274.748    25.088079    24.833132    22.899786    14266.924    8924.5991    12801.272    12098.373   -680.28417   -289.05067     -405.201   -5559.9342 
 5191000    280.16087   -9012.3814   -7944.2804   -9012.3814            0    10582.372    25.074158    24.860457    22.938569    14298.872    9807.5463    11462.108    10477.461    1127.3795    820.17913    766.17923   -5737.4921 
 5192000    285.32379   -9013.1725   -7925.3881   -9013.1725            0    10920.116    25.013915    24.800836    23.005164    14271.622    10385.289    11337.971    11037.087   -188.49567   -184.81768   -215.81586   -5652.5083 
 5193000    272.89883   -8995.3073   -7954.8925   -8995.3073            0     10904.79    24.975358      25.0008    22.887844     14291.26    10945.531    10470.535    11298.302    673.98704    874.68599    105.62147   -5682.0796 
 5194000    280.58085   -9042.0808   -7972.3787   -9042.0808            0    10339.624    24.848515    24.895815    23.077397    14276.233    9745.7465     12390.96    8882.1651   -795.07226    708.00569     118.2468   -5819.6255 
 5195000    275.12804   -9002.5162   -7953.6026   -9002.5162            0    11488.099     25.05321    24.925437    22.806854    14242.018    10685.509    11639.671    12139.116   -613.10834   -394.79319   -1281.4349   -5567.4643 
 5196000    282.14741   -8994.0542   -7918.3796   -8994.0542            0    11438.792     24.90434    24.952818    22.925362    14246.587    12592.822    11262.737    10460.817    -479.0849    367.35036    806.69696   -5541.7205 
 5197000    282.75099   -9031.1927    -7953.217   -9031.1927            0    9935.1982     24.90957    24.993253    23.008682    14324.542    9835.1809    11047.512    8922.9016    167.15433    765.27104   -54.644009   -5877.6671 
 5198000    282.62355   -9019.1484   -7941.6585   -9019.1484            0    9960.1542    24.894475    25.047273    22.955857    14313.866    11475.839    8666.6725    9737.9511   -48.937242   -30.374078   -104.10289   -5862.4459 
 5199000    281.56539   -8994.2529   -7920.7973   -8994.2529            0    10840.412    24.703577    25.069003    23.106594    14309.776    11251.908    10222.391    11046.937   -583.53394   -237.42579   -280.69766   -5658.4747 
 5200000    284.75079    -9028.344   -7942.7442    -9028.344            0    11835.169    24.878839     24.97627    22.888638    14222.556    12606.487    10943.859    11955.162   -816.96879    853.02207   -167.14375   -5487.8769 
 5201000     290.1193   -9007.7063   -7901.6393   -9007.7063            0    12391.294    24.903756    24.910022      22.9049    14209.126    12125.872    13312.074    11735.937   -336.54034   -734.73074     339.8217   -5333.8468 
 5202000    288.09795   -9047.7515   -7949.3908   -9047.7515            0    11559.784    24.889997    24.798642    23.013901    14205.057    11280.339    12509.877    10889.135    342.74598    1462.0558     66.98112   -5554.5945 
 5203000    284.58137   -9090.9069   -8005.9529   -9090.9069            0    10642.887    24.955307    24.944817    22.845119    14221.214    10294.974    11531.524    10102.164    394.43707    153.59812    297.38008   -5798.5988 
 5204000    288.30521   -9023.2437   -7924.0927   -9023.2437            0     11574.09    24.867542    24.997714     22.87921    14222.442    13561.611    9931.4323    11229.226    581.49972   -667.18068   -137.91157   -5523.3982 
 5205000    281.02902    -9053.366   -7981.9552    -9053.366            0    10707.873    24.811277    24.993154    22.985553    14253.619    10808.512    11227.273    10087.834   -196.79518   -1153.8917   -960.27269   -5756.0624 
 5206000     268.8498   -9066.7342   -8041.7561   -9066.7342            0    10483.902    24.874882    24.982294    22.904575    14233.627    10523.552    10859.353    10068.801   -595.80272    -713.0163   -1299.3971    -5865.478 
 5207000    285.83026   -9035.0135   -7945.2982   -9035.0135            0    12070.154    24.882374    24.914182    22.904643    14199.138    11950.557    12515.131    11744.774   -69.108632    669.09119   -767.95541   -5445.8124 
 5208000     282.7597    -9030.338    -7952.329    -9030.338            0    11734.107     24.82453    24.850103    23.040973    14213.795    13067.778    11313.044    10821.498    229.00951     463.0436    518.65756   -5519.9236 
 5209000    280.52866   -8982.0944   -7912.5912   -8982.0944            0     11466.46    25.005912    25.134503    22.680916    14255.209    10345.468    11044.628    13009.283    285.96258   -1237.0543    512.53352   -5528.7418 
 5210000    288.13362   -9026.0821   -7927.5854   -9026.0821            0    11182.538    24.840496    24.920611    23.020534     14250.64    12201.197    10926.631    10419.784    498.42847   -219.73529   -278.35512   -5603.5079 
 5211000    290.96464   -9020.2624   -7910.9725   -9020.2624            0    11735.511    24.791048    25.018248    22.943462    14230.191    12165.521    11089.264    11951.747    565.12176    10.878545    1160.9294   -5475.4698 
 5212000    281.14376   -9033.3026   -7961.4543   -9033.3026            0    11364.688    24.867852    24.963397    22.891283     14210.59    10588.929    12164.297    11340.839   -894.22968    958.53319   -95.252933   -5606.1582 
 5213000    276.76259   -9029.1592    -7974.014   -9029.1592            0    10376.186    25.010841    24.846122    22.980332    14280.492    9955.5981    11386.735    9786.2242    484.52875   -631.25235    88.586597   -5813.0038 
 5214000    289.35599    -9026.643    -7923.486    -9026.643            0    12067.227    25.063763     24.74386    22.906346    14205.925    10614.752    13948.355    11638.573   -27.492034   -24.695992   -200.00791   -5423.4118 
 5215000    276.41489   -9033.4874   -7979.6678   -9033.4874            0     11023.19    24.954674    24.877747    22.947379    14246.102    9722.1977    12464.751    10882.621    356.78466    422.60318   -455.06105   -5689.4372 
 5216000    275.55524   -9047.3431   -7996.8009   -9047.3431            0    10865.128    24.873009    24.997946    22.887444    14230.821    10909.909    10417.971    11267.505   -1427.8363    296.73766   -103.95463   -5741.8312 
 5217000    285.64354   -9017.2779   -7928.2744   -9017.2779            0    11491.453    24.775324    24.943197    23.067833    14255.362    12529.023    11398.671    10546.666   -605.70493     785.1676    753.17027   -5539.2032 
 5218000    280.13412   -9007.9291   -7939.9301   -9007.9291            0    11902.244    24.842337    25.017751    22.877723    14218.491    12840.052    11212.503    11654.178   -248.53619   -276.60727    537.77928   -5471.8556 
 5219000    286.09153   -9075.8041   -7985.0927   -9075.8041            0     10798.57    24.827923    24.958011    22.955325    14224.395    10604.056    10804.116    10987.537    114.32541   -537.87786    81.703659   -5744.9487 
 5220000    275.33135   -9008.2666   -7958.5779   -9008.2666            0     10577.12    25.006676    25.036227    22.818036    14285.752    9186.2508    11089.315    11455.794    182.38128    -624.9806   -125.96249   -5754.9086 
 5221000    279.13078   -9012.5599    -7948.386   -9012.5599            0    11864.268    24.950875    24.831706    22.947481    14217.635    11793.614    12565.006    11234.184   -309.13739   -1390.6535    1611.9834   -5488.3346 
 5222000    282.13962   -9046.9599    -7971.315   -9046.9599            0    12053.961    24.839759    24.873486    22.931812    14168.452    11856.638    12349.874    11955.371   -578.37203   -84.026283   -55.515697   -5480.5767 
 5223000    286.06126    -9037.673    -7947.077    -9037.673            0     11212.16      25.0602    24.841199    22.875145    14240.359    9779.3099    12119.136    11738.034   -1307.3736    394.73783    381.63224   -5618.5241 
 5224000     290.7029   -8976.4097   -7868.1176   -8976.4097            0    12614.659    24.889439    24.839292    22.983992    14209.532    13409.608    12244.769    12189.601    456.91785    397.54469    808.65695   -5253.9636 
 5225000     282.2411   -9048.9871   -7972.9553   -9048.9871            0    11172.529    24.950166    24.799925    23.010924    14238.291    11648.173    11252.427    10616.986   -683.71556    711.09688     1187.068     -5652.97 
 5226000    293.86039   -9052.1446   -7931.8148   -9052.1446            0    13098.619    24.881155    24.923787    22.803412    14141.139    11830.599     13652.06    13813.197    88.568779   -84.185377    251.18244   -5230.4341 
 5227000    281.73662   -9003.5063   -7929.3978   -9003.5063            0    10254.683    25.028513    24.859883    22.963124    14287.791    9195.9266    11495.608    10072.516   -79.163788   -821.41054    678.69799   -5792.6009 
 5228000    281.92568   -8995.1967   -7920.3674   -8995.1967            0    11279.456    25.022203    24.896411    22.928572    14283.653     10218.93    12281.376    11338.062     438.9836   -528.50347   -618.33768   -5570.7165 
 5229000    287.37297   -9064.5489   -7968.9521   -9064.5489            0    10368.372    24.928277    24.986742    22.891665    14258.678    10406.792    10882.264    9816.0602   -465.57642   -690.34048   -74.195582   -5812.8678 
 5230000    283.24069   -9004.7735   -7924.9308   -9004.7735            0    10558.258    24.842001    24.868969    23.145997    14299.481      11520.9    10977.342    9176.5313   -78.497886    186.28267    -131.2394   -5723.0774 
 5231000    281.30771    -8983.045   -7910.5717    -8983.045            0    10639.037    24.942229    25.070682    22.867188     14299.28     10389.74    10524.622    11002.749   -598.98541    1087.1907    637.64063   -5691.9034 
 5232000    287.80648   -9031.3196   -7934.0701   -9031.3196            0    11171.388    24.977832    24.879274    22.958371    14267.028    10773.344    11492.126    11248.692   -479.69615   -14.290618   -94.837819   -5609.6398 
 5233000    287.84117   -9014.1779   -7916.7961   -9014.1779            0    11063.601    25.019098    24.893506    22.867785    14242.356    10877.828    10862.385    11450.591     586.6298   -1207.9475    24.410777   -5618.7738 
 5234000    289.72286   -9032.0177   -7927.4621   -9032.0177            0    10562.752     25.01512    24.898905    22.900143    14263.333    9196.2739    12202.984    10288.998   -1112.5106    907.10324    150.68702   -5730.2398 
 5235000    273.51532   -9021.9757   -7979.2105   -9021.9757            0     11538.86    24.981091    24.801001    23.002048    14251.058    10427.914    12646.453    11542.214   -314.80384    609.73295   -673.10395   -5581.0076 
 5236000    288.81547   -9031.6251   -7930.5288   -9031.6251            0     11973.19    24.896146    24.969382    22.851459    14205.412    11069.915    12069.377    12780.278    113.31992    670.23773    1203.3259   -5450.0267 
 5237000    284.25727   -9052.4674    -7968.749   -9052.4674            0    11456.673    24.805076    24.899979    22.996233    14203.528    11104.089     11896.84     11369.09   -519.17512   -549.16346   -70.680081   -5595.5691 
 5238000    286.11651   -8965.6226    -7874.816   -8965.6226            0    11963.859    25.077199    24.977112    22.736649    14241.237    10703.085    11816.968    13371.523   -225.23828   -1107.3099    1280.4008   -5389.9964 
 5239000    280.77116   -9008.2805   -7937.8528   -9008.2805            0    11524.907    24.944071    24.853548    22.981762    14247.513    11016.478    11869.314     11688.93   -367.32296   -434.78676    187.82455   -5543.1459 
 5240000    284.77858   -8992.8784   -7907.1725   -8992.8784            0     10213.35    25.167576    24.866232     22.85428    14302.729    8814.4015     11965.85     9859.798    301.57836   -588.73145   -989.83446   -5776.7634 
 5241000    277.66528   -8980.3946    -7921.808   -8980.3946            0    11384.274    24.923935    24.899444    22.979872    14261.128    10329.758    12471.117    11351.948     -192.088   -452.50501    1234.9646    -5554.062 
 5242000    285.32119   -9000.9123   -7913.1378   -9000.9123            0    10770.017    24.880951     25.05929    22.914251    14287.012     11264.72     9973.002     11072.33    296.12991   -1184.9237   -106.47073   -5669.0819 
 5243000     279.6535   -9003.1936   -7937.0269   -9003.1936            0    13244.812    24.786226    24.879469    22.969736    14164.705    14120.154    13952.883      11661.4   -1205.0582    724.59509    1085.9444   -5200.9442 
 5244000    277.39718   -9023.3783   -7965.8138   -9023.3783            0    11313.088    24.897716    24.874277    22.917678    14193.209     11760.43    11375.563    10803.272   -519.14018    1138.3602    676.99455   -5624.0792 
 5245000    279.20705   -8988.1248   -7923.6602   -8988.1248            0    11400.835    24.971964    24.982704    22.855271    14258.654     11144.44    10769.342    12288.722   -612.53328    52.411109   -1476.2275   -5552.8813 
 5246000     274.8518   -9012.5284    -7964.668   -9012.5284            0    11320.254    24.958983    24.886691    22.960611    14261.903    11572.049    11695.951     10692.76   -232.89487   -1230.0974    474.22527   -5610.1092 
 5247000    297.38723   -9021.2817    -7887.506   -9021.2817            0    11458.196    24.964455    24.880026    22.935245    14245.454      10499.1    12567.256    11308.232    860.81634   -380.95639    -936.7817   -5507.0046 
 5248000     283.5142   -9076.5963   -7995.7109   -9076.5963            0    9741.8034    25.101966    24.921355    22.853456    14296.551    7473.5654    9850.5644     11901.28    257.95319     85.24421   -408.44879   -5964.5397 
 5249000    276.38614   -9063.0152   -8009.3051   -9063.0152            0    10863.411    24.884172    24.866569    23.025516    14247.821    11577.727    11099.603     9912.903   -210.98437   -593.83172    325.06414   -5751.9985 
 5250000     284.4387   -8993.7623   -7909.3522   -8993.7623            0    10696.489    24.934023    25.042868    22.853516     14270.18    9958.6684     11962.26    10168.538    26.246068   -251.80494    894.81317   -5683.2424 
Loop time of 608.756 on 64 procs for 250000 steps with 1920 atoms

Performance: 70.964 ns/day, 0.338 hours/ns, 410.674 timesteps/s
99.2% CPU use with 64 MPI tasks x 1 OpenMP threads

MPI task timing breakdown:
Section |  min time  |  avg time  |  max time  |%varavg| %total
---------------------------------------------------------------
Pair    | 62.773     | 65.122     | 68.421     |  14.2 | 10.70
Bond    | 0.2716     | 0.27956    | 0.29382    |   0.9 |  0.05
Kspace  | 253.8      | 270.4      | 284.37     |  39.7 | 44.42
Neigh   | 6.4827     | 8.2888     | 9.579      |  26.1 |  1.36
Comm    | 109.4      | 126.67     | 146.77     |  68.2 | 20.81
Output  | 1.4314     | 1.434      | 1.4524     |   0.4 |  0.24
Modify  | 122.32     | 129.54     | 135.81     |  29.0 | 21.28
Other   |            | 7.02       |            |       |  1.15

Nlocal:        30.0000 ave          35 max          25 min
Histogram: 1 2 4 9 10 12 9 10 5 2
Nghost:        2806.19 ave        2836 max        2780 min
Histogram: 2 2 11 11 10 11 7 6 2 2
Neighs:        10645.3 ave       12767 max        8934 min
Histogram: 3 4 9 9 14 10 7 6 1 1

Total # of neighbors = 681302
Ave neighs/atom = 354.84479
Ave special neighs/atom = 2.0000000
Neighbor list builds = 13536
Dangerous builds = 2

unfix		3
unfix		2
unfix		1

write_data	data.final.${pid}
write_data	data.final.0
System init for write_data ...
PPPM initialization ...
  extracting TIP4P info from pair style
  using 12-bit tables for long-range coulomb (../kspace.cpp:340)
  G vector (1/distance) = 0.37441916
  grid = 30 30 30
  stencil order = 5
  estimated absolute RMS force accuracy = 0.0032796358
  estimated relative force accuracy = 9.876526e-06
  using double precision FFTW3
  3d grid and FFT values/proc = 3600 512
Last active /omp style is kspace_style pppm/tip4p/omp
WARNING: Not all mixed pair coeffs generated from mixing. Use write_data with 'pair ij' option to store all pair coeffs. (../write_data.cpp:312)

write_restart   restart.lmp.${pid}
write_restart   restart.lmp.0
System init for write_restart ...
PPPM initialization ...
  extracting TIP4P info from pair style
  using 12-bit tables for long-range coulomb (../kspace.cpp:340)
  G vector (1/distance) = 0.37441916
  grid = 30 30 30
  stencil order = 5
  estimated absolute RMS force accuracy = 0.0032796358
  estimated relative force accuracy = 9.876526e-06
  using double precision FFTW3
  3d grid and FFT values/proc = 3600 512
Last active /omp style is kspace_style pppm/tip4p/omp
Total wall time: 0:10:11
