LAMMPS (30 Jul 2021)
  using 1 OpenMP thread(s) per MPI task
package omp 0
using multi-threaded neighbor list subroutines
echo both

include		in.partitions
variable        pid world 0
include		in.temp
variable        temperature equal 248.49
variable	tempDamp equal 100.0
include		in.pressure
variable        pressure equal 5125.0
variable        pressureDamp equal 1000.0 # This is 1 ps
include		in.seed
variable        seed world 745823

units		real
atom_style	full
read_restart	restart.lmp.${pid}
read_restart	restart.lmp.0
Reading restart file ...
  restart file = 30 Jul 2021, LAMMPS = 30 Jul 2021
  restoring atom style full from restart
  orthogonal box = (0.43153505 1.5998226 0.52647176) to (17.776037 22.029355 21.686724)
  4 by 4 by 4 MPI processor grid
  restoring pair style lj/cut/tip4p/long/omp from restart
  restoring bond style harmonic/omp from restart
  restoring angle style harmonic/omp from restart
  864 atoms
  576 bonds
  288 angles
Finding 1-2 1-3 1-4 neighbors ...
  special bond factors lj:    0        0        0       
  special bond factors coul:  0        0        0       
     2 = max # of 1-2 neighbors
     1 = max # of 1-3 neighbors
     1 = max # of 1-4 neighbors
     2 = max # of special neighbors
  special bonds CPU = 1.102 seconds
  read_restart CPU = 1.414 seconds
include 	in.setup
variable	out_freq equal 1000
variable	out_freq2 equal 10000
variable	out_freq3 equal 1000

timestep	2.0

neigh_modify    delay 7 every 1

include		in.tip4p
# This is TIP4P/Ice

# create groups ###
group ox type 2
288 atoms in group ox
group hy type 1
576 atoms in group hy

# set charges - beside manually ###
set group ox charge -1.1794
Setting atom values ...
  288 settings made for charge
set group hy charge 0.5897
Setting atom values ...
  576 settings made for charge

# ### TIP3P Potential Parameters ###
pair_style lj/cut/tip4p/long/omp 2 1 1 1 0.1577 8.5
pair_coeff 1 1*2 0.000 0.000
pair_coeff 2 2 0.21084 3.1668
bond_style  harmonic
bond_coeff  1 450 0.9572
angle_style harmonic
angle_coeff 1 55 104.52
kspace_style pppm/tip4p/omp 1.0e-5
pair_modify tail yes

thermo          ${out_freq}
thermo          1000
thermo_style    custom step temp pe etotal epair emol press lx ly lz vol pxx pyy pzz pxy pxz pyz enthalpy

restart 	${out_freq3} restart.lmp.${pid} restart2.lmp.${pid}
restart 	1000 restart.lmp.${pid} restart2.lmp.${pid}
restart 	1000 restart.lmp.0 restart2.lmp.${pid}
restart 	1000 restart.lmp.0 restart2.lmp.0


include         in.dump
dump            myDump all atom ${out_freq2} dump.water.${pid}
dump            myDump all atom 10000 dump.water.${pid}
dump            myDump all atom 10000 dump.water.0
dump            myDump2 all dcd ${out_freq2} dump.dcd
dump            myDump2 all dcd 10000 dump.dcd
dump_modify     myDump append yes
dump_modify     myDump2 append yes


variable natoms 	equal  "count(all)"                        # NUMBER ATOMS
variable H      	equal  "enthalpy/v_natoms"                 # ENTHALPY-per-atom
variable Vol      	equal  "vol/v_natoms"                 # volume-per-atom
fix AVG all 		ave/time ${out_freq} 1 ${out_freq} v_Vol v_H file vol_enthalpy.dat
fix AVG all 		ave/time 1000 1 ${out_freq} v_Vol v_H file vol_enthalpy.dat
fix AVG all 		ave/time 1000 1 1000 v_Vol v_H file vol_enthalpy.dat


timer           timeout 23:50:00 every 1000
New timer settings: style=normal  mode=nosync  timeout=23:50:00

fix 		1 all shake 1e-6 200 0 b 1 a 1
       0 = # of size 2 clusters
       0 = # of size 3 clusters
       0 = # of size 4 clusters
     288 = # of frozen angles
  find clusters CPU = 0.208 seconds
fix             2 all nph iso ${pressure} ${pressure} ${pressureDamp}
fix             2 all nph iso 5125 ${pressure} ${pressureDamp}
fix             2 all nph iso 5125 5125 ${pressureDamp}
fix             2 all nph iso 5125 5125 1000
fix             3 all temp/csvr ${temperature} ${temperature} ${tempDamp} ${seed}
fix             3 all temp/csvr 248.49 ${temperature} ${tempDamp} ${seed}
fix             3 all temp/csvr 248.49 248.49 ${tempDamp} ${seed}
fix             3 all temp/csvr 248.49 248.49 100 ${seed}
fix             3 all temp/csvr 248.49 248.49 100 745823

run             250000
PPPM initialization ...
  extracting TIP4P info from pair style
  using 12-bit tables for long-range coulomb (../kspace.cpp:340)
  G vector (1/distance) = 0.37404811
  grid = 24 24 25
  stencil order = 5
  estimated absolute RMS force accuracy = 0.0030956412
  estimated relative force accuracy = 9.3224314e-06
  using double precision FFTW3
  3d grid and FFT values/proc = 2730 288
Last active /omp style is kspace_style pppm/tip4p/omp
Neighbor list info ...
  update every 1 steps, delay 7 steps, check yes
  max neighbors/atom: 2000, page size: 100000
  master list distance cutoff = 10.8154
  ghost atom cutoff = 10.8154
  binsize = 5.4077, bins = 4 4 4
  1 neighbor lists, perpetual/occasional/extra = 1 0 0
  (1) pair lj/cut/tip4p/long/omp, perpetual
      attributes: half, newton on, omp
      pair build: half/bin/newton/omp
      stencil: half/bin/3d
      bin: standard
Per MPI rank memory allocation (min/avg/max) = 9.239 | 9.243 | 9.248 Mbytes
Step Temp PotEng TotEng E_pair E_mol Press Lx Ly Lz Volume Pxx Pyy Pzz Pxy Pxz Pyz Enthalpy 
 7500000    251.01459   -3900.6347   -3470.4042   -3900.6347            0    3845.5962    17.344502    20.429533    21.160252    7497.9254     4026.861     4216.877    3293.0506    -30.64199   -243.88564    349.19461     -3049.89 
 7501000    245.67989   -3906.7673   -3485.6804   -3906.7673            0    4684.4035    17.289742    20.365032    21.093444    7427.1312    3772.0916    6451.5889      3829.53   -1137.6786   -301.57734   -614.16956   -2978.2794 
 7502000     244.0204   -3920.7637    -3502.521   -3920.7637            0    4123.6691    17.314987    20.394767    21.124243    7459.7123    3636.3614    4823.6237    3911.0223   -423.79572     664.8612    1584.5274   -3053.8978 
 7503000    239.16361   -3926.9678   -3517.0495   -3926.9678            0      5774.47    17.301685    20.379099    21.108015    7442.5332    6991.4378     5781.125    4550.8471   -703.29038   -250.87148    1073.1698   -2890.2787 
 7504000    236.66184    -3945.361   -3539.7307    -3945.361            0    6272.2896    17.259434    20.329333    21.056469    7388.1414    7264.5683    8764.1448    2788.1557   -43.219348    279.34639    1141.5418   -2863.9011 
 7505000     255.0519   -3934.7866   -3497.6364   -3934.7866            0    3805.6076    17.305562    20.383666    21.112745    7447.5373      3747.22    4405.0411    3264.5616    845.12486   -189.67105   -830.16754   -3084.2915 
 7506000    251.79607   -3920.7922   -3489.2223   -3920.7922            0    4989.1658    17.298193    20.374986    21.103755    7438.0279    4571.5841    5250.1311     5145.782   -1753.3325    823.49549    251.62871   -2948.0175 
 7507000    253.05402   -3920.5491   -3486.8232   -3920.5491            0    7266.5821    17.241531    20.308246    21.034628    7365.1752    7369.1996    5742.0668    8688.4799    1095.8154   -34.225537    297.29693    -2706.294 
 7508000    245.74432   -3890.8326   -3469.6352   -3890.8326            0    6392.8729    17.295869    20.372249     21.10092    7435.0308    6909.3461    6765.3095    5503.9632   -33.423423   -237.92702    103.93819   -2776.4413 
 7509000    263.61352    -3931.994   -3480.1694    -3931.994            0    5527.8396    17.300303    20.377471    21.106329    7440.7497    5665.0679    6800.8004    4117.6507   -329.13126   -244.50428    705.79994    -2880.312 
 7510000    244.23656   -3906.9055   -3488.2924   -3906.9055            0    7024.5356    17.205634    20.265964    20.990834     7319.268    6287.7109    7780.0756    7005.8204    584.83502   -157.16115    1272.4507   -2738.4652 
 7511000     244.3322   -3905.7414   -3486.9644   -3905.7414            0    4302.5077     17.29493    20.371143    21.099774     7433.819    4437.7842    4252.8821    4216.8568   -1545.0137   -579.12641    107.12245   -3020.5096 
 7512000    259.14798   -3895.2613   -3451.0905   -3895.2613            0     4512.398    17.308485    20.387109    21.116311    7451.3123    2996.7882    4582.4015    5958.0043    247.63484    659.46567    410.83378   -2960.7294 
 7513000     254.3152   -3901.4673   -3465.5798   -3901.4673            0    4495.1761    17.259299    20.329174    21.056304    7387.9685    4125.3139    5929.6455     3430.569    360.67416     406.8522    477.94912   -2981.2428 
 7514000    237.19445   -3925.9003   -3519.3572   -3925.9003            0    4306.8396    17.246909    20.314581    21.041189    7372.0693    5565.2969    2971.6344    4383.5876    854.42997   -317.77185    789.85312   -3056.3113 
 7515000    256.04892   -3936.5434   -3497.6843   -3936.5434            0    5448.0956    17.205892    20.266268    20.991148    7319.5966    5842.5319    5564.8956    4936.8593   -1084.3554   -121.52747    1517.2899   -2916.1066 
 7516000    265.94267   -3949.7684   -3493.9517   -3949.7684            0    6228.4263    17.158509    20.210457    20.933341     7259.291    8592.6496    4700.5984     5392.031    821.10941   -799.40316    661.87633   -2834.5525 
 7517000    257.14132   -3929.3147   -3488.5833   -3929.3147            0    5211.3704       17.222    20.285242      21.0108    7340.1743    7817.8303    3800.3656    4015.9153   -960.05194   -619.48938    298.57929   -2930.7117 
 7518000    247.11464   -3938.9242   -3515.3781   -3938.9242            0    5157.6912     17.26694    20.338174    21.065626    7397.7851    6636.6259    5326.2434    3510.2043    132.43173    696.48505   -88.799245   -2958.9194 
 7519000     238.9482    -3889.881   -3480.3319    -3889.881            0    3710.5674    17.221589    20.284757    21.010299    7339.6485    2798.9264    4781.2998    3551.4759   -275.99662   -1091.9176    12.820531   -3083.1482 
 7520000    235.58041   -3900.2488    -3496.472   -3900.2488            0     5503.674    17.262164     20.33255      21.0598     7391.649    4814.2205    6184.0474    5512.7541    1004.5104   -547.47508    729.45225    -2903.178 
 7521000    236.66974   -3896.4107   -3490.7668   -3896.4107            0    5190.2453    17.278357    20.351622    21.079555    7412.4697    5333.6707    5161.3142    5075.7511    316.04892   -1172.8655   -668.11675   -2929.6844 
 7522000    254.39536   -3900.2391   -3464.2142   -3900.2391            0    3928.4086    17.333833    20.416966    21.147236    7484.0976    3228.9868    2790.9029    5765.3361    165.59039   -682.97009    707.49895   -3035.4367 
 7523000    239.13493   -3917.0608   -3507.1917   -3917.0608            0    4837.6157    17.369977    20.459539    21.191331    7531.0117     5219.996    4416.8675    4875.9836    334.59663   -353.67431   -236.08611   -2975.8663 
 7524000    253.84862   -3896.1788    -3461.091   -3896.1788            0    3783.0571    17.345738    20.430988    21.161759    7499.5275    4750.7763    4548.9847    2049.4103   -690.04293   -1540.1854   -1031.2704    -3047.327 
 7525000    248.22552   -3925.1813   -3499.7313   -3925.1813            0    7004.6517    17.285668    20.360233    21.088474    7421.8824    7109.0918    7922.5901    5982.2733   -1464.9987   -298.08308   -627.59952    -2741.544 
 7526000    253.44951   -3891.4331   -3457.0293   -3891.4331            0    4577.9796    17.286669    20.361413    21.089696    7423.1727    5166.5135     4224.927    4342.4983   -444.89936    1520.6913   -467.26569   -2961.4202 
 7527000    258.14501   -3918.0444   -3475.5927   -3918.0444            0    5082.8227    17.355065    20.441975    21.173139    7511.6328    4924.0819    4367.8294    5956.5568    399.04059    2200.7395   -471.33467   -2918.7722 
 7528000    249.77484   -3936.6638   -3508.5583   -3936.6638            0    6954.6009    17.226518    20.290562    21.016311    7345.9517    7999.2128    5014.3149    7850.2751   -1089.8999   -641.43584    1261.7717   -2763.4898 
 7529000    248.58738   -3966.5919   -3540.5217   -3966.5919            0    3803.1828    17.240523    20.307059    21.033398    7363.8836    3473.4843    3782.7894    4153.2746    373.75052    943.76814   -975.29865     -3132.08 
 7530000    257.34728   -3912.0379   -3470.9535   -3912.0379            0    3684.5769    17.266324    20.337449    21.064875    7396.9939    3173.3334    4442.0169    3438.3802   -1338.0307    1370.4651   -799.50577   -3073.4703 
 7531000    259.80356   -3921.5821   -3476.2876   -3921.5821            0     5434.197    17.248146    20.316037    21.042697    7373.6551    5145.5609     4569.104    6587.9262   -1574.6617     161.9897    -212.5167   -2891.9093 
 7532000    244.54846   -3887.4426   -3468.2949   -3887.4426            0    4987.7985    17.195384    20.253891    20.978329    7306.1947    7290.0905    3743.0864    3930.2187   -240.58901   -763.40935    827.82686   -2936.8282 
 7533000    254.65494   -3922.6663   -3486.1965   -3922.6663            0    6727.6759    17.196873    20.255645    20.980145     7308.093    6634.5063    5918.0645    7630.4571   -872.85613   -204.66658    170.06674   -2769.1538 
 7534000    242.11493   -3938.7367     -3523.76   -3938.7367            0    4719.7242    17.236825    20.302704    21.028887    7359.1463     3948.103    5685.6555     4525.414   -453.80823   -669.28277   -598.94779   -3017.2127 
 7535000    244.88033   -3956.3046   -3536.5881   -3956.3046            0    3754.0257    17.287634    20.362549    21.090873    7424.4149    2155.7605    3714.2482    5392.0683   -366.40482   -552.82859   -1153.3184   -3130.1117 
 7536000      231.419   -3914.4267   -3517.7825   -3914.4267            0    3765.1244    17.221506    20.284659    21.010197    7339.5419    3638.6217    2926.8312    4729.9203   -676.30969   -1346.4455    -218.9544   -3114.7647 
 7537000    251.62139   -3922.7466   -3491.4762   -3922.7466            0     4028.996    17.270378    20.342224    21.069821    7402.2054    2488.0691     4855.996     4742.923   -1564.4414   -643.10482   -143.59679   -3056.5317 
 7538000    251.93747   -3928.2789   -3496.4667   -3928.2789            0    4615.4475    17.207322    20.267952    20.992892    7321.4216    4723.1225    6361.4382    2761.7817   -234.08698   -888.75517    1450.2575   -3003.6503 
 7539000    243.96677   -3923.7444   -3505.5937   -3923.7444            0    4471.6433    17.251419    20.319893    21.046691    7377.8537    3703.4193    4568.2422    5143.2685   -2137.0411     720.2683    -790.7424   -3024.4519 
 7540000    244.83205   -3928.1088   -3508.4751   -3928.1088            0    4327.9236     17.20251    20.262284    20.987022    7315.2815    3443.7385     4993.877    4546.1553   -232.30167   -1004.6973    565.74224   -3046.7467 
 7541000    252.83876   -3929.2467   -3495.8898   -3929.2467            0    4505.3794    17.246597    20.314214    21.040808    7371.6695    4958.5295    3579.6718    4977.9369   -420.03703   -423.87346   -831.58439   -3011.5244 
 7542000    248.36277   -3935.8107   -3510.1254   -3935.8107            0    5725.8218    17.237099    20.303026     21.02922    7359.4966    6767.4503    4373.1257    6036.8893   -712.98792   -421.81501   -529.91605   -2895.5689 
 7543000    245.84149    -3909.741   -3488.3771    -3909.741            0    4157.7711    17.220751     20.28377    21.009276    7338.5772    4155.9847    3582.0902    4735.2383    -1647.591   -12.014429   -559.52926   -3043.3891 
 7544000    253.18283   -3943.3349   -3509.3882   -3943.3349            0    6341.2715    17.220238    20.283166     21.00865    7337.9215    7081.5546    5392.2768     6549.983    238.54609   -278.21059     2.595783   -2830.7703 
 7545000    243.44778   -3973.4159   -3556.1547   -3973.4159            0    4969.6582    17.157459     20.20922     20.93206    7257.9584    5845.9795     5603.448    3459.5471    62.479033   -396.08053   -430.42736    -3030.117 
 7546000    259.91414   -3952.8065   -3507.3225   -3952.8065            0    5131.7701    17.225585    20.289464    21.015174    7344.7588    7263.2702    4897.5903    3234.4497    -4.898493    255.77896    841.14951    -2957.629 
 7547000    255.82399   -3966.1714   -3527.6979   -3966.1714            0    6660.1162    17.140523    20.189273    20.911399    7236.4877    8482.3828    7126.5789    4371.3868    452.33523   -895.56135   -39.742459   -2824.8109 
 7548000    250.90909   -3922.9341   -3492.8845   -3922.9341            0    5358.9112    17.179841    20.235584    20.959366    7286.4001    6060.1707    5152.0823    4864.4807   -1350.6402    1060.9036    1238.5743   -2923.4215 
 7549000    258.75266   -3920.5412    -3477.048   -3920.5412            0    5496.7787    17.214773    20.276729    21.001983    7330.9376    3924.4392    5108.1962    7457.7008   -473.52764     1905.249    491.47933   -2889.3642 
 7550000    246.04595   -3927.6499   -3505.9356   -3927.6499            0    6683.9113    17.210592    20.271804    20.996882    7325.5964    6398.4327    6048.1269    7605.1741   -100.07214   -561.26064    309.39263   -2791.8511 
 7551000    253.23823    -3918.464   -3484.4223    -3918.464            0    6110.7303    17.219033    20.281747     21.00718    7336.3809     8098.994    5094.0761    5139.1207   -1571.9318   -202.66304    728.20988   -2830.6133 
 7552000    250.15724   -3949.3281   -3520.5672   -3949.3281            0    4710.5029    17.220319    20.283261    21.008749    7338.0247    5037.8751    4595.6681    4497.9656    261.06211    1059.2173    -1411.917   -3016.4606 
 7553000    244.38533   -3952.1423   -3533.2742   -3952.1423            0    6115.6401     17.24545    20.312862    21.039409    7370.1987     6897.533    4951.0591    6498.3282    643.29801   -593.48974    2045.0374   -2875.9237 
 7554000    256.62604   -3938.9175   -3499.0693   -3938.9175            0     3606.697    17.261378    20.331624    21.058841    7390.6391    2835.0171     4232.565    3752.5088    -897.6301    1517.3505   -717.66099   -3110.3218 
 7555000    242.03455   -3919.2961   -3504.4571   -3919.2961            0    6902.0053    17.169915    20.223892    20.947256    7273.7778    7170.4228    7308.4054    6227.1876    460.14973   -685.29783    487.46444   -2772.2884 
 7556000    254.09854   -3915.4639   -3479.9477   -3915.4639            0    5420.2671    17.293271    20.369189    21.097751     7431.681    5861.6533    4440.8965    5958.2515   -328.08558   -185.50027     408.6759   -2892.4805 
 7557000    250.91806   -3942.5893   -3512.5243   -3942.5893            0    6623.9736    17.256845    20.326284     21.05331    7384.8175    6484.8524    7117.1143    6269.9542   -751.93143     864.0826   -1439.9109   -2799.1224 
 7558000    245.09035   -3937.8406   -3517.7641   -3937.8406            0    4957.3286    17.292355     20.36811    21.096633    7430.4995    4594.4039     4503.029    5774.5528   -968.86183     569.5962   -124.44995   -2980.5572 
 7559000    254.40373   -3946.7682   -3510.7289   -3946.7682            0    3751.9762    17.254121    20.323075    21.049987    7381.3209    1692.2869    4368.1659    5195.4757    1292.1747    663.67164    298.17997   -3106.8324 
 7560000    225.23843   -3926.5196   -3540.4687   -3926.5196            0     3894.562    17.277283    20.350358    21.078245    7411.0877    2690.6232    5579.9561    3413.1068    1701.6879    330.30606   -945.77103   -3119.5323 
 7561000    244.49634   -3908.4773   -3489.4189   -3908.4773            0     6062.945    17.299181     20.37615     21.10496    7439.3023    6791.0195    6640.9974     4756.818   -472.37353    1277.4339   -231.97169   -2831.6222 
 7562000    253.13507   -3887.6993   -3453.8345   -3887.6993            0    4936.0229    17.337458    20.421235    21.151658    7488.7934    5542.9296    3561.6857    5703.4535   -2239.1523   -1254.3066    855.54467     -2914.74 
 7563000    266.00099   -3899.3592   -3443.4426   -3899.3592            0    3032.0864    17.335891    20.419389    21.149746    7486.7626     2937.399    3525.9494    2632.9109    588.67859   -687.67341   -18.065674   -3112.3789 
 7564000    250.51534   -3929.3072   -3499.9325   -3929.3072            0    5966.8492     17.27268    20.344936     21.07263     7405.166    6291.2398    5626.0181    5983.2896   -1745.8446   -2006.0941   -651.43194   -2855.5322 
 7565000    242.36893   -3940.0738   -3524.6617   -3940.0738            0    5125.8584    17.245415    20.312821    21.039366    7370.1534    6359.3326    4215.4554    4802.7871   -1107.1239   -333.66768   -236.93479    -2973.703 
 7566000    265.24319   -3940.3364   -3485.7187   -3940.3364            0    5089.5415    17.253231    20.322027    21.048902    7380.1792    4844.4356    5318.5736    5105.6152    755.21852    135.31848   -1011.1141   -2937.9194 
 7567000    237.62206   -3948.9076   -3541.6316   -3948.9076            0    5474.4364    17.294772    20.370957    21.099581    7433.6158    5828.0874    7039.8651    3555.3567    920.50366   -1223.3895   -681.78332   -2948.1388 
 7568000    242.27015   -3924.5681   -3509.3253   -3924.5681            0    6009.7106    17.231108    20.295969    21.021911    7351.8252    4936.5779    6685.4526    6407.1012    226.09289   -628.75914    721.99088   -2864.9712 
 7569000    242.01071   -3954.6134   -3539.8154   -3954.6134            0    6212.1356    17.212203    20.273702    20.998848    7327.6545    5502.1756    8401.7797    4732.4515    696.05625   -897.03556   -587.61133   -2875.9473 
 7570000    250.85453   -3942.2893   -3512.3332   -3942.2893            0    6265.8473    17.204366    20.264471    20.989287    7317.6498    5588.7447    6608.4999    6600.2972   -915.86923   -66.577981    463.57401   -2843.6394 
 7571000    249.91913   -3939.9112   -3511.5584   -3939.9112            0    4420.1782    17.249172    20.317246     21.04395    7374.9718    4020.1501    4000.1388    5240.2458    209.81263    -732.0327    -1393.534   -3036.1399 
 7572000    263.83454   -3897.7539   -3445.5505   -3897.7539            0    5444.2054    17.281607    20.355451    21.083521    7416.6534    5982.2566    5324.7026    5025.6571   -193.60117   -675.73714    220.18845   -2856.6819 
 7573000    238.17014    -3944.482   -3536.2665    -3944.482            0    5704.1974    17.289207    20.364402    21.092793    7426.4427    5126.6486    7713.0154    4272.9283    -618.7561   -353.26384    392.48968   -2918.4618 
 7574000     245.2848   -3927.9386   -3507.5289   -3927.9386            0    4440.0743    17.278034    20.351241    21.079161    7412.0534    5010.7717    4267.6151    4041.8361   -573.70704    1160.0283    1191.3402   -3027.5693 
 7575000    246.63814   -3893.5922   -3470.8628   -3893.5922            0    6604.8631    17.168355    20.222054    20.945353    7271.7951    5653.6847    7501.7176    6659.1869    210.93644   -1874.3417     1533.164   -2770.4061 
 7576000    245.34507   -3905.6965   -3485.1834   -3905.6965            0    4433.8095    17.255203     20.32435    21.051307    7382.7096    4211.0797    4371.3956    4718.9534   -682.77773   -1762.6134    780.39241   -3007.7985 
 7577000    239.97345   -3912.2061   -3500.8999   -3912.2061            0    5505.1403    17.228275    20.292632    21.018455    7348.2001    4547.8337    7475.7854    4491.8018     244.0025    1129.5064   -1609.8151   -2910.9362 
 7578000    259.80345    -3882.337   -3437.0428    -3882.337            0    5447.0106      17.2258    20.289718    21.015436    7345.0342    4971.5835    8558.8555    2810.5929    31.578958    700.83282   -732.37199   -2853.5602 
 7579000    250.93277   -3945.5351   -3515.4449   -3945.5351            0    5568.6997    17.218082    20.280626    21.006019    7335.1649    6091.0809    4725.6346    5889.3837    187.12599   -950.70363    86.491814   -2919.7285 
 7580000    258.99313    -3899.749   -3455.8437    -3899.749            0    5983.7985    17.307353    20.385776     21.11493    7449.8503    5445.0968    7963.1565    4543.1421   -666.57884    64.084799    70.740749   -2805.7134 
 7581000    252.66025   -3926.9085   -3493.8575   -3926.9085            0    3414.9039     17.30188    20.379329    21.108253    7442.7849    1895.0472    3961.8042    4387.8603    35.300191    1012.1823    749.01817   -3123.1855 
 7582000    245.59791   -3941.8448   -3520.8984   -3941.8448            0    5545.8878     17.26243    20.332863    21.060125    7391.9906    5632.2352    5972.5665    5032.8617   -697.86874    552.22039   -832.27115   -2923.0262 
 7583000    247.77069   -3923.9985    -3499.328   -3923.9985            0    6594.9008     17.13046    20.177419    20.899121     7223.749    6912.2705    6512.8442    6359.5876    84.987557   -277.25864   -386.64191   -2804.5488 
 7584000    254.44886   -3878.0177   -3441.9011   -3878.0177            0    6055.2086    17.222669    20.286029    21.011616    7341.0295    5495.3643    5539.2314    7131.0302    1042.6336    414.85817    585.00504   -2793.6221 
 7585000    250.01269    -3909.457   -3480.9438    -3909.457            0    5176.5697    17.188847    20.246191    20.970353     7297.865    4119.1817    5415.9158    5994.6116    40.334819   -332.65907    1028.5733   -2929.9918 
 7586000    263.72013   -3932.0808   -3480.0735   -3932.0808            0    5123.1173    17.106545    20.149251    20.869945    7193.5378    5160.0375    4443.8598    5765.4546   -1163.6364   -2062.8565   -502.76067   -2942.6053 
 7587000    255.11859   -3930.7949   -3493.5303   -3930.7949            0     6695.056    17.130435     20.17739    20.899091    7223.7181    5688.0642    7350.1737      7046.93   -187.75821   -834.15994    -443.6077   -2788.2027 
 7588000    256.03402   -3890.8544   -3452.0209   -3890.8544            0    5371.1424    17.202882    20.262723    20.987476    7315.7561    5842.8999    5348.2136    4922.3138   -1090.7937    -582.2447   -683.83655   -2878.9587 
 7589000    244.69895   -3952.5471   -3533.1415   -3952.5471            0    4913.0647    17.291848    20.367513    21.096015    7429.8466     5501.283    6288.4261     2949.485    514.46179   -1167.3631   -622.38303    -3000.778 
 7590000    255.78714    -3934.946   -3496.5356    -3934.946            0    5666.1092    17.300951    20.378235    21.107119    7441.5858    4664.3157     7830.771     4503.241    1227.1944    806.87459   -754.55142   -2881.6047 
 7591000    239.72694     -3908.14   -3497.2563     -3908.14            0    6529.3839    17.191407    20.249207    20.973477    7301.1268    6717.0003    5684.4786    7186.6728    469.39652   -570.84286   -1226.2916   -2802.0111 
 7592000    249.97853   -3896.0336    -3467.579   -3896.0336            0    6046.1522    17.214977    20.276969    21.002232    7331.1981    6438.8292    6315.9202    5383.7073   -2592.0979    878.93253   -1387.5465   -2821.1365 
 7593000    246.72862   -3932.9415    -3510.057   -3932.9415            0    4459.5245    17.222258    20.285545    21.011115    7340.5042    4361.6401    3303.3856    5713.5478    1393.2872    168.14383   -506.03217   -3032.6483 
 7594000    243.86394   -3919.3859   -3501.4115   -3919.3859            0    5379.7706    17.231464    20.296389    21.022346    7352.2816    6928.3383    4734.5422    4476.4312    747.01869   -756.07641    695.80596    -2924.563 
 7595000    246.62931   -3915.4563   -3492.7421   -3915.4563            0    4741.4652    17.228729    20.293167    21.019009    7348.7812    6080.2291    3691.5706    4452.5958   -185.99133   -821.32729    553.00116   -2984.5782 
 7596000    242.24081   -3891.4725   -3476.2801   -3891.4725            0    5437.2273    17.265389    20.336348    21.063735    7395.7925    3572.0844    6262.2124     6477.385   -1318.7489    1577.0423   -1036.9672   -2889.8205 
 7597000    247.56448   -3915.7491   -3491.4321   -3915.7491            0     5013.752     17.30363     20.38139    21.110388    7445.0432    5091.1825     4470.603    5479.4704    180.64838    1706.1713    10.631513   -2947.0473 
 7598000    240.96361   -3963.4885   -3550.4851   -3963.4885            0    5222.9171    17.365182    20.453891    21.185482    7524.7768    5670.0499     5785.325    4213.3763   -1323.0968   -99.034925   -894.42657   -2977.3162 
 7599000    250.66561   -3913.7753   -3484.1431   -3913.7753            0    3983.9257    17.322571    20.403701    21.133496    7469.5193    2842.6961    4355.2429    4753.8381   -56.208175    -682.3929   -347.69174    -3050.153 
 7600000    230.14213   -3906.7962   -3512.3404   -3906.7962            0    4940.5395    17.394828     20.48881     21.22165    7563.3818    5668.0594    4777.0774    4376.4817    283.24779   -1019.0416    852.65252   -2967.3783 
 7601000    244.76256   -3936.3927    -3516.878   -3936.3927            0    6907.3579    17.226223    20.290216    21.015952     7345.575    6196.9506    8064.9566    6460.1665    1479.4572    911.88477    1099.2864   -2776.9088 
 7602000    254.27404   -3916.4377   -3480.6207   -3916.4377            0    4280.6704    17.358488    20.446006    21.177315    7516.0776    2516.5487    4259.4746     6065.988   -700.30571   -77.812521    52.089691   -3011.3981 
 7603000    253.03375   -3933.3737   -3499.6825   -3933.3737            0    5074.0579    17.331506    20.414225    21.144397     7481.084    3089.6862    6356.2614    5776.2263   -757.11804   -1399.5547    -1633.303   -2946.0828 
 7604000    239.78447    -3907.372   -3496.3897    -3907.372            0    4043.4623     17.30901    20.387727    21.116951    7451.9896    3733.4311    4191.6182    4205.3375    1546.4518   -825.17716   -252.64427   -3056.9477 
 7605000    260.76812   -3926.5325   -3479.5849   -3926.5325            0    4781.2252    17.343613    20.428486    21.159168    7496.7725    4152.6943    4417.7722     5773.209    98.869604   -279.39778   -628.16939   -2956.8404 
 7606000     239.0793   -3946.8226   -3537.0488   -3946.8226            0    4180.4324    17.257966    20.327604    21.054678    7386.2565    3613.9496    4161.8302    4765.5174   -290.28505   -639.37865   -465.63095   -3086.7286 
 7607000    248.28751   -3957.2906   -3531.7343   -3957.2906            0    5639.1356     17.24209    20.308905     21.03531    7365.8915    6152.0848    5299.8387    5465.4831   -2057.9659   -995.46333    98.604715    -2925.956 
 7608000    246.39243   -3919.6167   -3497.3085   -3919.6167            0    6220.6855    17.291216    20.366768    21.095243    7429.0311    5963.3134    7186.9531    5511.7901    1629.5267   -1823.9441   -575.05812   -2823.3296 
 7609000    246.83608   -3919.0527   -3495.9841   -3919.0527            0     4325.118    17.263597    20.334237    21.061549      7393.49    4854.8383    3644.6662    4475.8496    457.30759   -225.23758   -380.72628   -3029.6219 
 7610000     246.4638   -3930.0966    -3507.666   -3930.0966            0    5548.4549    17.278509    20.351801     21.07974    7412.6646    5991.1477    4331.5608    6322.6561    -28.19396    251.17383   -273.36528   -2907.8442 
 7611000    244.22153   -3915.4954   -3496.9081   -3915.4954            0    3847.0716    17.304596    20.382528    21.111566    7446.2902    4390.8729    3997.4276    3152.9145    226.29918    321.27192    507.67869   -3079.1295 
 7612000    248.35413   -3928.3773   -3502.7068   -3928.3773            0    4656.9817    17.291886    20.367558    21.096061    7429.8957    2905.0501    6593.0477    4472.8474   -1329.3249   -1153.0178   -902.71261   -2998.0884 
 7613000    242.61038   -3923.6614   -3507.8356   -3923.6614            0    6240.4376    17.228381    20.292758    21.018585    7348.3363    4555.0121    6593.9305    7572.3701    1601.5825   -872.09947   -1642.4583   -2839.0607 
 7614000    260.59351   -3913.1387   -3466.4903   -3913.1387            0     4126.869    17.297378    20.374027    21.102761    7436.9768    3328.4745    5617.9657    3434.1669    638.49589   -1181.7635   -409.62608   -3018.8873 
 7615000    265.25638   -3921.2685   -3466.6281   -3921.2685            0    3925.4003     17.35169    20.437998    21.169021    7507.2505    3135.7736    3669.5606    4970.8666   -733.82958    280.62937   -811.19368   -3036.8535 
 7616000    243.30008   -3919.0403   -3502.0322   -3919.0403            0    3923.8428     17.27953    20.353004    21.080987    7413.9798    5023.5977    2323.5379    4424.3928   -786.01023    945.63288    283.91771   -3077.7656 
 7617000    239.85012   -3934.9974   -3523.9025   -3934.9974            0    4591.2061    17.263756    20.334425    21.061742    7393.6941    4241.8444    4705.8038    4825.9701   -1306.0634    483.52097    191.14533   -3028.8353 
 7618000    241.22888   -3921.5162   -3508.0582   -3921.5162            0    6241.1238    17.213796    20.275577     21.00079    7329.6885    4721.6669    6676.5297    7325.1748    293.60175    455.10086   -706.09607   -2840.9071 
 7619000     252.8446   -3922.7314   -3489.3644   -3922.7314            0    7101.1652    17.194158    20.252447    20.976833    7304.6324    6055.4428    8887.2675    6360.7855   -326.07728   -801.78135    1208.3157   -2732.8732 
 7620000    244.17291   -3925.3678   -3506.8638   -3925.3678            0    5367.3061     17.17938     20.23504    20.958803    7285.8131    2886.6793    6956.8237    6258.4153   -539.26053   -508.60528   -228.78155   -2936.5548 
 7621000    243.07544   -3902.4895   -3485.8666   -3902.4895            0    5825.5405    17.291101    20.366633    21.095103    7428.8833    5766.8029    5788.0827     5921.736    -1201.335    -375.4455    170.40259   -2854.7121 
 7622000     256.7974   -3908.7095   -3468.5675   -3908.7095            0     5169.777     17.34938    20.435278    21.166203     7504.253    5292.2267    6635.9259    3581.1785   -1170.7647   -999.89166    661.13816   -2902.7776 
 7623000    241.26347   -3926.8616   -3513.3442   -3926.8616            0    5109.5361    17.301621    20.379024    21.107937    7442.4509     5302.045    5592.9366    4433.6267    894.00847   -719.97019   -639.39347   -2958.7526 
 7624000    258.48196   -3904.6767   -3461.6475   -3904.6767            0    6012.2394    17.238864    20.305105    21.031374    7361.7579    5622.9968    6295.6424    6118.0789    694.40509    1119.8274   -2101.5422   -2816.1513 
 7625000    265.34016   -3893.4963   -3438.7124   -3893.4963            0    5255.5419    17.228273     20.29263    21.018453    7348.1979    6220.3686    5172.3066    4373.9504    1853.8654   -344.83515    48.974148   -2875.4973 
 7626000    245.19833   -3909.0925    -3488.831   -3909.0925            0    4465.9642    17.248578    20.316546    21.043224    7374.2092    4416.8741    4267.9732    4713.0453    693.58614   -376.65353   -348.92189   -3008.5376 
 7627000    257.52433   -3924.1675   -3482.7796   -3924.1675            0     4509.327    17.261679    20.331978    21.059208    7391.0257    3928.9541    6510.9747    3088.0523    -751.7128   -553.87003    65.521109   -2996.7168 
 7628000    228.47335    -3858.914   -3467.3185    -3858.914            0    5380.8777    17.241326    20.308005    21.034378    7364.9126    6795.3926    4919.4208    4427.8198    1426.5943    176.31665   -702.68732     -2889.36 
 7629000    257.33984   -3882.3132   -3441.2415   -3882.3132            0    5351.1505    17.209605    20.270642    20.995678    7324.3369    5655.5165    4670.7808    5727.1542    287.67545    510.79639    73.937171   -2869.6427 
 7630000    239.40651   -3932.8687   -3522.5341   -3932.8687            0    6484.8831    17.232431    20.297527    21.023525    7353.5191    6867.0774     4985.385    7602.1868    1011.0704    350.41233   -621.84459   -2827.0723 
 7631000    248.96624   -3952.2407    -3525.521   -3952.2407            0    2758.6478    17.234925    20.300465    21.026568    7356.7127    2179.1845    3721.0614    2375.6976   -944.10919     68.58153    280.35534   -3229.5454 
 7632000    257.14497   -3914.4559   -3473.7182   -3914.4559            0    4891.1535    17.243722    20.310826      21.0373    7367.9826    3784.2702      4987.88    5901.3102   -1475.8688   -1006.5593   -1677.4985   -2948.1419 
 7633000    248.59485   -3930.4916   -3504.4086   -3930.4916            0    4464.3369    17.258734    20.328508    21.055615    7387.2426     4802.507    3223.9737    5366.5301    96.070538    453.89432   -427.66499   -3023.4416 
 7634000    247.84431   -3964.5938   -3539.7971   -3964.5938            0    4193.7776    17.294311    20.370414    21.099019    7433.0211    4230.7817    4252.9626    4097.5885   -1295.3974    348.00312   -240.44613   -3085.1791 
 7635000    236.32445      -3949.8    -3544.748      -3949.8            0    3894.4486    17.286495    20.361208    21.089483    7422.9479    4024.1658    3666.5226    3992.6574   -869.81303   -232.51871    185.43309   -3123.1503 
 7636000    248.17955   -3923.8884   -3498.5171   -3923.8884            0    3125.7358    17.319716    20.400338    21.130013    7465.8268    3324.3376     2220.995    3831.8746    534.57763    -288.2343   -1529.3569   -3158.1826 
 7637000    240.16155   -3917.5501   -3505.9214   -3917.5501            0    4625.5734     17.29486     20.37106    21.099689    7433.7291    3971.5171    4565.5218    5339.6814     194.6284    814.73854    79.423046   -3004.4477 
 7638000    254.92233   -3910.9588   -3474.0306   -3910.9588            0    5926.7054    17.214916    20.276897    21.002157    7331.1196    4465.9326    6112.1773    7202.0063   -24.693804   -1807.2859   -327.75775   -2840.3659 
 7639000     239.7859   -3930.4572   -3519.4724   -3930.4572            0    4805.5276    17.153407    20.204448    20.927117    7252.8183    5757.6035    3659.6297    4999.3497     610.6972   -72.320459    82.392524   -3011.1681 
 7640000    252.94337    -3906.634   -3473.0977    -3906.634            0    5871.7602    17.128642    20.175278    20.896903    7221.4498    6106.0325    5530.3437    5978.9044   -114.28931   -86.641711    20.258584    -2854.699 
 7641000    233.57021   -3926.7655   -3526.4342   -3926.7655            0    4872.3675    17.198668    20.257759    20.982335    7310.3812    4513.1251    4959.9346     5144.043   -641.17961    55.653203    612.75724   -3006.9696 
 7642000    247.49612   -3916.2692   -3492.0693   -3916.2692            0    5544.0926    17.172938    20.227453    20.950944    7277.6204    5350.8873    4543.2977    6738.0927   -210.12706    1033.0567   -1049.4351    -2903.638 
 7643000    235.84045   -3898.5106   -3494.2881   -3898.5106            0    6579.2297    17.187728    20.244873    20.968988    7296.4397    5086.2203    8466.7487    6184.7201    1309.6726    1562.8947    538.88138   -2794.1851 
 7644000    248.82869   -3920.4623   -3493.9785   -3920.4623            0    6465.5969    17.214938    20.276923    21.002184    7331.1475    5085.4182      8314.12    5997.2525   -1689.8948   -1089.8577    563.32468   -2802.6945 
 7645000    254.01489   -3890.9989    -3455.626   -3890.9989            0    2356.5267    17.284057    20.358336    21.086509    7419.8073    1940.8192    2571.7996    2556.9612   -373.19944   -1014.4413   -935.15152   -3200.6256 
 7646000    239.51759   -3908.0941   -3497.5692   -3908.0941            0    2226.5755    17.241207    20.307865    21.034232    7364.7599    1946.8788    3051.7981    1681.0498   -473.40921    3.7888155   -532.05488   -3258.4183 
 7647000    235.25645   -3919.5511   -3516.3296   -3919.5511            0    5832.1491    17.187468    20.244567    20.968671    7296.1089    6092.2247    7160.9334    4243.2892    349.07272    1152.3721   -992.53394   -2895.7524 
 7648000    228.24185   -3913.4699   -3522.2712   -3913.4699            0    4994.0356    17.198734    20.257836    20.982415    7310.4649    6575.4973     3474.182    4932.4276   -913.52148   -721.25238    617.73751   -2989.8289 
 7649000    259.28716   -3899.3896   -3454.9802   -3899.3896            0    4177.9413     17.29282    20.368658      21.0972    7431.0995     4582.354    3759.8566    4191.6134   -1013.5126    -922.9262    1617.1027    -3002.196 
 7650000    249.53564    -3926.835   -3499.1395    -3926.835            0    5157.0624    17.175875    20.230912    20.954528    7281.3554    4827.1172    6209.3584    4434.7116    725.69234   -873.12894   -434.02618   -2951.5054 
 7651000    258.41577   -3934.5662   -3491.6504   -3934.5662            0    5663.1151     17.23458    20.300058    21.026147    7356.2704    6496.0953    4078.4561    6414.7938   -1070.1305    202.58092    1409.6109   -2884.0907 
 7652000    229.88092   -3924.1608   -3530.1528   -3924.1608            0    3821.0553    17.214745    20.276696    21.001949    7330.9014    3810.3143    5169.1496    2483.7019    49.571116    281.90255   -163.99499   -3121.6297 
 7653000    246.85004   -3913.0527   -3489.9601   -3913.0527            0    4357.9827    17.265242    20.336174    21.063555    7395.6028    4051.7121    4314.4664    4707.7696    1261.8048   -659.36159   -392.92061     -3019.92 
 7654000    231.22103   -3917.5157   -3521.2107   -3917.5157            0    5064.0947    17.278536    20.351833    21.079773    7412.6994    5749.3114    4407.2111    5035.7615   -755.62416   -1274.5522   -565.83672   -2973.7486 
 7655000    250.39853   -3953.2523   -3524.0778   -3953.2523            0    3704.5443    17.355106    20.442022    21.173189    7511.6855    2559.5938    6679.8178    1874.2212   -778.65533   -705.97702    329.78411   -3118.2441 
 7656000     227.1597   -3965.2087   -3575.8647   -3965.2087            0    5061.4741    17.330747     20.41333     21.14347    7480.1001    4940.5759    6464.9076    3778.9388    877.03494    1105.2678    -731.3221   -3023.7106 
 7657000    242.60441    -3944.232   -3528.4163    -3944.232            0    5595.8308    17.290171    20.365538    21.093968    7427.6845    6470.8916    6541.1153    3775.4854   -1042.8716    549.92457    1114.8828    -2922.247 
 7658000     241.3168    -3945.467   -3531.8583    -3945.467            0    5670.8376    17.251266    20.319713    21.046504     7377.658    5714.0176    6188.0116    5110.4836   -1021.7488    -448.1952     399.2761   -2921.7013 
 7659000    245.28601   -3950.0966   -3529.6848   -3950.0966            0    5557.9973    17.310577    20.389573    21.118864    7454.0144    4414.0851    6084.9878    6174.9189    69.241425     184.8387    -270.0053   -2925.4796 
 7660000     261.3624   -3921.9259   -3473.9596   -3921.9259            0    5594.1028    17.228486    20.292881    21.018713    7348.4702    5227.7479    5885.3371    5669.2232   -930.66732   -1037.5599   -800.10439   -2874.4402 
 7661000    233.91454   -3919.4837   -3518.5622   -3919.4837            0    4692.8725    17.231658    20.296617    21.022583    7352.5298    4712.2293    5658.9537    3707.4347    1997.2573    1774.8469   -658.87065   -3015.3497 
 7662000    244.47889   -3935.8038   -3516.7753   -3935.8038            0    4914.8224    17.301286     20.37863    21.107528    7442.0184    5646.0454    2904.6439    6193.7779    1398.1786    774.94231    438.53391    -2983.349 
 7663000    250.25951   -3946.9199   -3517.9836   -3946.9199            0    6927.6149    17.282051    20.355974    21.084062     7417.225    7964.6222    6750.0415     6068.181   -66.751253   -1450.5233    850.14792   -2768.6054 
 7664000    252.49492   -3973.1139   -3540.3463   -3973.1139            0    5576.3368    17.350329    20.436395     21.16736    7505.4839     5858.591    5249.4252    5620.9941   -270.40077    684.30199    477.75067   -2929.9616 
 7665000    248.04118   -3944.4924   -3519.3583   -3944.4924            0    5542.1407    17.255571    20.324783    21.051756    7383.1818     5371.103     4399.782    6855.5372    951.79087    1429.9328   -960.44971    -2922.602 
 7666000    251.54221    -3950.337   -3519.2022    -3950.337            0    5339.5749    17.321963    20.402984    21.132754    7468.7323    6400.1427    3221.7999    6396.7822    149.80355   -304.85125    -66.01416   -2937.5954 
 7667000    234.10034   -3946.9302   -3545.6902   -3946.9302            0     5034.885    17.236809    20.302684    21.028867    7359.1256    4217.0576    6005.4186    4882.1789     481.7732   -956.87452   -270.08383   -3005.3196 
 7668000    263.07244   -3930.5925   -3479.6953   -3930.5925            0    6749.8544    17.203623    20.263595     20.98838    7316.7013    5214.7336    7061.9718    7972.8579   -591.81442   -667.18987   -1148.2128   -2759.4414 
 7669000    261.51899   -3912.8741   -3464.6395   -3912.8741            0    4621.4951    17.259536    20.329453    21.056593    7388.2728      4634.98    4541.4811    4688.0241    149.78595    148.32051    400.27463   -2966.6717 
 7670000    254.45227   -3922.1144   -3485.9919   -3922.1144            0    5264.8206    17.255586    20.324802    21.051775    7383.2021    6824.7714    5160.1413    3809.5492    382.74327    480.31171    636.83476   -2919.0948 
 7671000    239.44212   -3902.5555   -3492.1599   -3902.5555            0    5390.0258     17.28294    20.357021    21.085147    7418.3697    3870.0116    6685.2721    5614.7937    193.48196   -790.60701    88.603205   -2909.0167 
 7672000    249.05053   -3922.6923   -3495.8282   -3922.6923            0    4736.9446    17.225575    20.289452    21.015162    7344.7461     6833.805     2085.914    5291.1147    681.74351   -122.12957    88.935006   -2988.4276 
 7673000    242.56923   -3903.1359   -3487.3805   -3903.1359            0    5815.4049    17.200794    20.260263    20.984928    7313.0923    3850.1071    9241.7246     4354.383   -507.73832   -467.10066   -791.57888   -2867.1446 
 7674000    239.44063   -3913.9244   -3503.5313   -3913.9244            0    5260.0524    17.265361    20.336315      21.0637     7395.756    5535.6603    5110.7734    5133.7236   -104.55718    211.21757    444.77451   -2936.1846 
 7675000    248.09422   -3888.8241   -3463.5991   -3888.8241            0    7216.6556     17.14839    20.198538    20.920996     7246.456    7414.0838    6707.4257    7528.4572    602.57749    2461.4056    1337.0577   -2700.9276 
 7676000    240.14888    -3911.109    -3499.502    -3911.109            0    6608.1209    17.191639     20.24948     20.97376    7301.4219    6595.2306    7052.4942    6176.6378     564.7078    832.60251   -153.74485   -2795.8445 
 7677000    266.31298   -3904.0708   -3447.6195   -3904.0708            0    6204.2177    17.121147    20.166449    20.887759    7211.9736    7814.6924    4870.5725    5927.3881    80.255195    -632.9352   -299.95578   -2795.0646 
 7678000    245.59434   -3908.8847   -3487.9444   -3908.8847            0    3791.0294    17.218845    20.281525    21.006951    7336.1405    2062.6787    5193.2148    4117.1946     1236.449    258.98531   -871.46529   -3082.3419 
 7679000    239.29044   -3899.6544   -3489.5188   -3899.6544            0    4246.4611    17.223845    20.287414    21.013051    7342.5331    3608.3136    3360.4986    5770.5711   -348.06698     35.76293   -217.40785   -3034.7937 
 7680000    242.51975   -3941.0841   -3525.4135   -3941.0841            0    5642.3647    17.165043    20.218153    20.941312    7267.5873    5814.3971    6257.3167    4855.3802    889.94016   -673.26815    331.60317   -2927.3775 
 7681000    253.44889   -3903.1452   -3468.7425   -3903.1452            0    3923.2476    17.275776    20.348582    21.076406    7409.1481    4499.8863    4184.3838    3085.4728   -456.87201    828.08134    535.82169   -3044.8167 
 7682000     257.0909   -3900.0559   -3459.4109   -3900.0559            0    6226.4239    17.242985    20.309958    21.036401    7367.0383    6386.0141    7112.6425    5180.6151   -1592.8712   -728.02872    -411.1754   -2790.4396 
 7683000     246.4534   -3949.1629   -3526.7503   -3949.1629            0    3791.3157    17.156683    20.208307    20.931114    7256.9745     2797.815    5291.3551    3284.7769   -579.62044    1150.1079   -914.13978   -3125.4944 
 7684000    237.53098   -3949.0474   -3541.9274   -3949.0474            0    4789.2631    17.220194    20.283114    21.008597    7337.8653    4215.4137    6320.6363    3831.7393    1145.9834    202.41089   -78.542729   -3029.4033 
 7685000    250.37727   -3938.4019   -3509.2638   -3938.4019            0    4542.6214    17.198624    20.257707    20.982281    7310.3249    5302.5358    3990.4872    4334.8412   -1147.5692    767.63637    -91.95793   -3024.9586 
 7686000      260.677   -3937.3018   -3490.5103   -3937.3018            0    3486.4616    17.245418    20.312825     21.03937    7370.1578    3106.5022    3426.8385    3926.0441   -1016.3809    -489.3856   -725.69021   -3115.7638 
 7687000    240.45654    -3939.534   -3527.3997    -3939.534            0    3781.7975    17.258861    20.328659     21.05577    7387.4065    2101.5909    3994.4621    5249.3395   -771.67971    534.85168     219.9752   -3119.9574 
 7688000    264.96934   -3917.9363   -3463.7879   -3917.9363            0    4611.0803      17.2116    20.272991    20.998112    7326.8839    5791.3239     3111.604    4930.3129   -214.18532   -538.30997   -1032.2867   -2971.0705 
 7689000    237.30755   -3937.0143   -3530.2773   -3937.0143            0    4435.2168    17.262163    20.332548    21.059799    7391.6475    4509.8077    4191.3957     4604.447   -647.46092   -288.45085   -957.45663   -3052.1627 
 7690000    262.63825   -3909.5488   -3459.3958   -3909.5488            0    4690.7607    17.198853    20.257977    20.982561    7310.6173    3449.8379    3316.0016    7306.4425    109.00522   -544.05384    1137.9782    -2959.277 
 7691000     247.6314   -3904.8674   -3480.4356   -3904.8674            0    4502.5469     17.23055    20.295312     21.02123    7351.1112    5257.1763    2968.0017    5282.4627    671.56247    255.99673   -98.484517   -2997.7247 
 7692000    245.47623   -3909.2598   -3488.5219   -3909.2598            0    4819.5459    17.220243    20.283172    21.008657    7337.9278    5201.7847    5227.3878    4029.4652   -706.33552    930.22325   -624.32658   -2972.7526 
 7693000    250.47591   -3916.5697   -3487.2626   -3916.5697            0    5687.0652    17.152928    20.203884    20.926532    7252.2106    6336.0822    4584.8682    6140.2454    160.89388     658.6475     296.5029   -2885.7641 
 7694000    255.88854   -3903.2457   -3464.6615   -3903.2457            0    5407.2597    17.173067    20.227605    20.951102    7277.7848    6348.0383    5523.9752    4349.7656    -1582.055   -2137.0047    1160.3293   -2890.7402 
 7695000     243.7371   -3900.4472   -3482.6902   -3900.4472            0    4397.2096    17.139157    20.187663    20.909732    7234.7575    3340.8505    5461.2301    4389.5482   -1937.1176   -739.52635    742.24726   -3018.7339 
 7696000    236.90926   -3893.8807   -3487.8263   -3893.8807            0    3484.7361    17.190492    20.248129     20.97236    7299.9608    4977.4084    2725.2434    2751.5565    1030.8491    1486.9666   -39.097224   -3116.8328 
 7697000    249.00226   -3909.7184    -3482.937   -3909.7184            0    7232.6921    17.160255    20.212514    20.935471    7261.5079    7912.9833    5767.6661    8017.4269   -150.38872    2408.1316    429.89931    -2716.983 
 7698000     233.8837   -3882.7597   -3481.8911   -3882.7597            0    5160.9303     17.26546    20.336432    21.063821    7395.8839    5394.6438    4162.7179    5925.4292    430.12461    120.81934    539.91092    -2925.226 
 7699000    261.51007   -3935.2759   -3487.0566   -3935.2759            0    4774.0213    17.310781    20.389814    21.119113    7454.2785    5919.2871    4395.4635    4007.3134   -849.69759    931.82026    142.86112   -2968.0584 
 7700000    263.27088   -3970.8603    -3519.623   -3970.8603            0    6940.9379    17.226227    20.290221    21.015957    7345.5805    8010.9454    8087.1971    4724.6712   -605.63476    1129.8164    -765.0168   -2776.0559 
 7701000    252.01249   -3952.9239   -3520.9831   -3952.9239            0    5856.1833    17.227545    20.291773    21.017565    7347.2662    4597.8527    7303.2201     5667.477   -1141.0216    1075.9336      447.204   -2893.4793 
 7702000    249.35064   -3939.4939   -3512.1154   -3939.4939            0    4862.4508    17.261731    20.332039    21.059271    7391.0918    2921.7879    5905.8979    5759.6666    68.083189    1446.2322    642.52349   -2987.9846 
 7703000    242.97699   -3956.3075   -3539.8533   -3956.3075            0    6897.7718    17.192245    20.250193    20.974498    7302.1935    7416.4803    8188.8621    5087.9729   -163.43841   -1134.8092   -1476.0606    -2805.275 
 7704000    236.50357   -3944.3903   -3539.0312   -3944.3903            0    7384.3475     17.24673     20.31437    21.040971    7371.8402    6219.1947    7362.9073    8570.9404   -549.32489    -751.1761    20.828331   -2745.1347 
 7705000    237.08437   -3949.1752   -3542.8207   -3949.1752            0    5912.4972    17.279865    20.353398    21.081394    7414.4099    5774.2739    6012.6385    5950.5793    258.82016   -1408.0833    39.146676   -2903.4932 
 7706000    248.64603   -3947.8527    -3521.682   -3947.8527            0    5799.4334    17.286358    20.361047    21.089317    7422.7719    4631.2695    6068.2325    6698.7981   -18.790123    619.86186   -1054.1121   -2893.8729 
 7707000    248.21921   -3938.8021   -3513.3629   -3938.8021            0    2589.0194      17.2807    20.354382    21.082414    7415.4857    2314.2865    2164.6232    3288.1484    -1172.774   -721.73426   -310.57843   -3233.3675 
 7708000    255.07158    -3936.925    -3499.741    -3936.925            0    5026.5434    17.195491    20.254017    20.978458    7306.3304     2767.967     6248.161    6063.5023    1177.6611   -490.91468    18.678829    -2964.136 
 7709000    247.53005    -3935.545    -3511.287    -3935.545            0    4199.6817    17.243687    20.310785    21.037257     7367.938    2599.2548    2787.5008    7212.2895    42.823765    1061.9658   -780.81069   -3060.0152 
 7710000    268.34048   -3927.3186   -3467.3922   -3927.3186            0    5938.2389    17.270223    20.342042    21.069632    7402.0061    5400.7034    7492.2028    4921.8106    328.58638    1065.8141   -874.89543   -2826.3553 
 7711000    249.29901   -3924.0564   -3496.7665   -3924.0564            0    5511.9084    17.178459    20.233955    20.957679    7284.6413    7045.1388    6515.6998    2974.8868     229.5544   -1366.5731    601.51372   -2911.1867 
 7712000     252.0106   -3939.0314   -3507.0939   -3939.0314            0    4861.6927    17.215881    20.278033    21.003334    7332.3521    3312.6849    5583.4263    5688.9669     546.5349    58.549381    1501.6118   -2987.2096 
 7713000    249.81554   -3902.1676   -3473.9923   -3902.1676            0    5636.5334    17.232654     20.29779    21.023797    7353.8045    7046.2464    4012.5196    5850.8343    431.13646   -669.80056    292.16396   -2869.4871 
 7714000    256.46021   -3936.1373   -3496.5732   -3936.1373            0    5225.8923    17.243668    20.310763    21.037234    7367.9134    4509.3984    6253.2458    4915.0329    587.51471    475.03025    484.07788    -2935.033 
 7715000    227.46413   -3944.8303   -3554.9646   -3944.8303            0    5222.0701    17.233651    20.298964    21.025014    7355.0812    4953.5566    5902.5054    4810.1482   -286.88387    -1727.785    230.31396   -2994.8124 
 7716000    247.52997    -3929.884   -3505.6261    -3929.884            0    3623.9703    17.340874    20.425259    21.155826    7493.2207    4583.4999    2207.3883    4081.0228   -681.36652    1143.2444    1129.7348   -3109.5953 
 7717000    241.73539   -3926.6741   -3512.3479   -3926.6741            0    4612.1297    17.249472      20.3176    21.044316     7375.357    4770.3216    5319.9726    3746.0948    296.02125   -319.64569     879.2047   -3016.2579 
 7718000    240.20638   -3878.8139   -3467.1083   -3878.8139            0    5753.3801    17.231051    20.295902    21.021841    7351.7522    4821.0034    6328.8449    6110.2918    739.49676    818.44441   -252.93203   -2850.2438 
 7719000    253.90548   -3908.5323    -3473.347   -3908.5323            0    5469.4383    17.296009    20.372414    21.101091    7435.2112    6377.2955    5101.0575     4929.962    369.39672    1846.7188    819.20017   -2880.2688 
 7720000    249.08049   -3933.6425    -3506.727   -3933.6425            0    4427.9236    17.198688    20.257782    20.982359    7310.4063    4672.3763    4117.4653    4493.9294     1572.677   -1205.7568   -784.81992   -3034.6449 
 7721000     259.9613   -3945.6777    -3500.113   -3945.6777            0    4616.7157    17.262507    20.332952    21.060218    7392.0885    5535.3343    4602.0107    3712.8021     703.2942    934.60867   -1125.3404   -3002.4032 
 7722000    240.54915   -3916.5299   -3504.2369   -3916.5299            0    4916.9382    17.268798    20.340364    21.067894    7400.1744    5914.5421    4190.1522    4646.1203     1329.488    902.33354    -1243.204   -2973.5815 
 7723000    234.90859   -3896.0822   -3493.4569   -3896.0822            0    4729.7214    17.216196    20.278405    21.003719    7332.7552    5925.6548    4703.6748    3559.8345    235.20063    433.02583   -1127.1067   -2987.6571 
 7724000    233.77759   -3885.3124   -3484.6256   -3885.3124            0    4576.5132    17.240658    20.307217    21.033562    7364.0558    4508.9341    7092.9843    2127.6213   -248.39532    383.22215   -138.78638   -2993.1209 
 7725000    244.18261   -3923.6129   -3505.0922   -3923.6129            0    4015.6708    17.252178    20.320787    21.047617    7378.8276    5813.7175     3831.967    2401.3279    979.92168    113.03125    1087.0064   -3072.9553 
 7726000    246.50714   -3907.3116   -3484.8068   -3907.3116            0    4074.7021    17.335707    20.419173    21.149522    7486.5242    4093.0927     3773.057    4357.9565   -942.69433   -298.44782    77.061988   -3039.9175 
 7727000    261.69371   -3881.1174   -3432.5834   -3881.1174            0    4731.2073    17.220606    20.283599    21.009099    7338.3918    5832.4919    3219.2588    5141.8712   -540.45914   -231.10306    674.95431   -2926.2358 
 7728000    262.99478   -3928.7643   -3478.0003   -3928.7643            0    6734.6768    17.196966    20.255755    20.980259    7308.2115    6438.5178    6378.0298    7387.4829   -57.180079   -28.097575   -495.39749   -2760.1998 
 7729000    244.35829   -3917.9137    -3499.092   -3917.9137            0    4435.8897    17.314784    20.394529    21.123997    7459.4508    4480.3361    4433.0535    4394.2793   -103.35865    642.87321    1128.6971   -3016.5185 
 7730000    246.33383   -3905.9459   -3483.7381   -3905.9459            0    2743.0776     17.37483    20.465255    21.197252     7537.326    2459.9498    2704.1491    3065.1339   -310.28827     -210.633    -510.6618   -3182.2076 
 7731000    256.72881   -3927.6429   -3487.6185   -3927.6429            0    6615.1941    17.254564    20.323598    21.050528    7381.8902    6441.9865    7248.8594    6154.7365   -665.22984   -217.15672    246.15279   -2775.4445 
 7732000    248.24731   -3925.0838   -3499.5964   -3925.0838            0    5287.4905    17.266021    20.337093    21.064506    7396.6048    6741.5617     5652.383    3468.5267   -880.25574    240.62065   -971.81995   -2929.2248 
 7733000    228.04176   -3905.5147    -3514.659   -3905.5147            0    4898.1894    17.251187    20.319619    21.046407    7377.5559    5684.4877    3402.7987    5607.2817    -1316.062    233.13662   -852.76354   -2987.6428 
 7734000    243.07673   -3899.5704   -3482.9452   -3899.5704            0    5573.4267    17.227793    20.292064    21.017867     7347.583    6605.4699    4065.4349    6049.3754   -573.39906    213.25476   -693.83032   -2885.7137 
 7735000    237.12192   -3941.5329    -3535.114   -3941.5329            0    4469.7147     17.25776    20.327362    21.054427    7385.9929     6539.825    4241.5633    2627.7558    429.18489    1885.9894   -1579.5824   -3053.6492 
 7736000     246.1012   -3960.0816   -3538.2726   -3960.0816            0    5259.3152    17.265832     20.33687    21.064275    7396.3618    6695.2961    4126.9012    4955.7483   -868.92629    -31.78196   -378.08095   -2970.9589 
 7737000    244.37605   -3944.6153   -3525.7631   -3944.6153            0     5032.153    17.257559    20.327124    21.054181    7385.7339    5807.5148    3876.3572    5412.5871   -253.40405   -497.52924    262.28076    -2983.733 
 7738000    245.97233   -3917.7718   -3496.1837   -3917.7718            0    5413.1018    17.282968    20.357054    21.085181    7418.4057    5222.9837    4274.1629    6742.1587    838.79976    203.40228    1736.7348   -2910.5411 
 7739000    249.27386   -3957.2128   -3529.9659   -3957.2128            0    4878.7296    17.287775    20.362715    21.091045     7424.597    4639.9612    4906.5174    5089.7101     233.1008    938.37954    1386.7782   -3001.6964 
 7740000    243.45467   -3914.3208   -3497.0478   -3914.3208            0    5752.2112    17.251316    20.319772    21.046565    7377.7221    5576.6064    5452.6148    6227.4123    608.73601    176.15346    83.598892     -2878.13 
 7741000    241.20697   -3951.5697   -3538.1492   -3951.5697            0    5414.0702    17.247173    20.314892    21.041511    7372.4079    6178.0748    4703.3372    5360.7986   -8.4099674   -1513.2397    337.63271   -2956.0338 
 7742000     238.7023   -3910.4953   -3501.3677   -3910.4953            0    5810.3837    17.258843    20.328637    21.055748    7387.3829      5798.26    6274.0824    5358.8087   -985.92427    642.32429   -81.453834   -2875.3721 
 7743000    249.54228   -3906.9938   -3479.2869   -3906.9938            0    6385.9356    17.246269    20.313826    21.040407     7371.248    6085.2288    8633.6752    4438.9027   -943.12134    -647.4982   -332.39861   -2792.7854 
 7744000     256.2282   -3918.5458   -3479.3795   -3918.5458            0    6683.8666    17.256907    20.326357    21.053386    7384.8973    6915.7619     7736.929     5398.909   -945.16907   -399.04731   -624.72552   -2759.5193 
 7745000    253.76738   -3881.8693   -3446.9207   -3881.8693            0    5847.8594    17.201881    20.261543    20.986254    7314.4787    5393.1045     4494.071    7656.4025   -452.64125    221.50614    1161.7751   -2823.1052 
 7746000    243.35071   -3937.2408    -3520.146   -3937.2408            0    3784.1586    17.360576    20.448465    21.179862    7518.7905    3355.0984    2408.8472    5588.5302    137.64883    869.82602     -180.512   -3105.1984 
 7747000    249.96058   -3961.3707   -3532.9468   -3961.3707            0    4591.3424    17.308349    20.386949    21.116145    7451.1363    5430.5678    5019.8554     3323.604   -1892.0601   -604.24701   -913.81074   -3034.0185 
 7748000    262.93844   -3954.6499   -3503.9824   -3954.6499            0    4309.4277    17.326532    20.408367    21.138329    7474.6448    4291.8603     4459.092     4177.331   -1941.7704    5.8540591   -424.97796   -3034.2116 
 7749000    234.97684   -3970.2453   -3567.5031   -3970.2453            0    5556.4492    17.265316    20.336262    21.063645    7395.6986     5659.897    7152.5254    3856.9252   -2361.6966   -1236.0165   -894.30765   -2968.1918 
 7750000     257.8333    -3936.815   -3494.8975    -3936.815            0    4734.7211    17.273195    20.345542    21.073257    7405.8277    6535.7579    4662.2401    3006.1652    -920.6228   -982.84057    -1255.983   -2983.5174 
Loop time of 572.683 on 64 procs for 250000 steps with 864 atoms

Performance: 75.434 ns/day, 0.318 hours/ns, 436.542 timesteps/s
99.1% CPU use with 64 MPI tasks x 1 OpenMP threads

MPI task timing breakdown:
Section |  min time  |  avg time  |  max time  |%varavg| %total
---------------------------------------------------------------
Pair    | 19.764     | 25.629     | 30.583     |  50.2 |  4.48
Bond    | 0.28306    | 0.29656    | 0.31694    |   1.3 |  0.05
Kspace  | 250.2      | 265.25     | 286.33     |  58.1 | 46.32
Neigh   | 4.7411     | 6.2912     | 8.7495     |  44.1 |  1.10
Comm    | 112.98     | 136.67     | 152.94     |  89.0 | 23.86
Output  | 1.0784     | 1.08       | 1.0988     |   0.5 |  0.19
Modify  | 127.74     | 130.74     | 135.56     |  15.0 | 22.83
Other   |            | 6.724      |            |       |  1.17

Nlocal:        13.5000 ave          18 max           9 min
Histogram: 3 1 5 12 7 16 11 6 2 1
Nghost:        2158.09 ave        2201 max        2106 min
Histogram: 2 1 11 6 7 9 10 4 9 5
Neighs:        4169.58 ave        6300 max        2432 min
Histogram: 1 6 4 15 13 12 8 2 2 1

Total # of neighbors = 266853
Ave neighs/atom = 308.85764
Ave special neighs/atom = 2.0000000
Neighbor list builds = 12514
Dangerous builds = 0

unfix		3
unfix		2
unfix		1

write_data	data.final.${pid}
write_data	data.final.0
System init for write_data ...
PPPM initialization ...
  extracting TIP4P info from pair style
  using 12-bit tables for long-range coulomb (../kspace.cpp:340)
  G vector (1/distance) = 0.37438712
  grid = 24 24 25
  stencil order = 5
  estimated absolute RMS force accuracy = 0.0030579925
  estimated relative force accuracy = 9.2090535e-06
  using double precision FFTW3
  3d grid and FFT values/proc = 2730 288
Last active /omp style is kspace_style pppm/tip4p/omp
WARNING: Not all mixed pair coeffs generated from mixing. Use write_data with 'pair ij' option to store all pair coeffs. (../write_data.cpp:312)

write_restart   restart.lmp.${pid}
write_restart   restart.lmp.0
System init for write_restart ...
PPPM initialization ...
  extracting TIP4P info from pair style
  using 12-bit tables for long-range coulomb (../kspace.cpp:340)
  G vector (1/distance) = 0.37438712
  grid = 24 24 25
  stencil order = 5
  estimated absolute RMS force accuracy = 0.0030579925
  estimated relative force accuracy = 9.2090535e-06
  using double precision FFTW3
  3d grid and FFT values/proc = 2730 288
Last active /omp style is kspace_style pppm/tip4p/omp
Total wall time: 0:09:37
