LAMMPS (30 Jul 2021)
  using 1 OpenMP thread(s) per MPI task
package omp 0
using multi-threaded neighbor list subroutines
echo both

include		in.partitions
variable        pid world 0
include		in.temp
variable        temperature equal 268.20
variable	tempDamp equal 100.0
include		in.pressure
variable        pressure equal 10500.0
variable        pressureDamp equal 1000.0 # This is 1 ps
include		in.seed
variable        seed world 745823

units		real
atom_style	full
read_restart    restart.lmp.${pid}
read_restart    restart.lmp.0
Reading restart file ...
  restart file = 30 Jul 2021, LAMMPS = 30 Jul 2021
  restoring atom style full from restart
  triclinic box = (-3.1480289 -0.12693538 -0.11894301) to (14.758028 22.706934 19.348941) with tilt (0.042022248 -6.3699482 0.087801570)
  4 by 4 by 4 MPI processor grid
  restoring pair style lj/cut/tip4p/long/omp from restart
  restoring bond style harmonic/omp from restart
  restoring angle style harmonic/omp from restart
  1008 atoms
  672 bonds
  336 angles
Finding 1-2 1-3 1-4 neighbors ...
  special bond factors lj:    0        0        0       
  special bond factors coul:  0        0        0       
     2 = max # of 1-2 neighbors
     1 = max # of 1-3 neighbors
     1 = max # of 1-4 neighbors
     2 = max # of special neighbors
  special bonds CPU = 1.428 seconds
  read_restart CPU = 2.002 seconds

include 	in.setup
variable	out_freq equal 1000
variable	out_freq2 equal 10000
variable	out_freq3 equal 1000

timestep	2.0

neigh_modify    delay 7 every 1

include		in.tip4p
# This is TIP4P/Ice

# create groups ###
group ox type 2
336 atoms in group ox
group hy type 1
672 atoms in group hy

# set charges - beside manually ###
set group ox charge -1.1794
Setting atom values ...
  336 settings made for charge
set group hy charge 0.5897
Setting atom values ...
  672 settings made for charge

# ### TIP3P Potential Parameters ###
pair_style lj/cut/tip4p/long/omp 2 1 1 1 0.1577 8.5
pair_coeff 1 1*2 0.000 0.000
pair_coeff 2 2 0.21084 3.1668
bond_style  harmonic
bond_coeff  1 450 0.9572
angle_style harmonic
angle_coeff 1 55 104.52
kspace_style pppm/tip4p/omp 1.0e-5
pair_modify tail yes

thermo          ${out_freq}
thermo          1000
thermo_style    custom step temp pe etotal epair emol press lx ly lz vol pxx pyy pzz pxy pxz pyz enthalpy

restart 	${out_freq3} restart.lmp.${pid} restart2.lmp.${pid}
restart 	1000 restart.lmp.${pid} restart2.lmp.${pid}
restart 	1000 restart.lmp.0 restart2.lmp.${pid}
restart 	1000 restart.lmp.0 restart2.lmp.0


include         in.dump
dump            myDump all atom ${out_freq2} dump.water.${pid}
dump            myDump all atom 10000 dump.water.${pid}
dump            myDump all atom 10000 dump.water.0
dump            myDump2 all dcd ${out_freq2} dump.dcd
dump            myDump2 all dcd 10000 dump.dcd
dump_modify     myDump append yes
dump_modify     myDump2 append yes


variable natoms 	equal  "count(all)"                        # NUMBER ATOMS
variable H      	equal  "enthalpy/v_natoms"                 # ENTHALPY-per-atom
variable Vol      	equal  "vol/v_natoms"                 # volume-per-atom
fix AVG all 		ave/time ${out_freq} 1 ${out_freq} v_Vol v_H file vol_enthalpy.dat
fix AVG all 		ave/time 1000 1 ${out_freq} v_Vol v_H file vol_enthalpy.dat
fix AVG all 		ave/time 1000 1 1000 v_Vol v_H file vol_enthalpy.dat



fix 		1 all shake 1e-6 200 0 b 1 a 1
       0 = # of size 2 clusters
       0 = # of size 3 clusters
       0 = # of size 4 clusters
     336 = # of frozen angles
  find clusters CPU = 1.435 seconds
fix             2 all nph tri ${pressure} ${pressure} ${pressureDamp}
fix             2 all nph tri 10500 ${pressure} ${pressureDamp}
fix             2 all nph tri 10500 10500 ${pressureDamp}
fix             2 all nph tri 10500 10500 1000
fix             3 all temp/csvr ${temperature} ${temperature} ${tempDamp} ${seed}
fix             3 all temp/csvr 268.2 ${temperature} ${tempDamp} ${seed}
fix             3 all temp/csvr 268.2 268.2 ${tempDamp} ${seed}
fix             3 all temp/csvr 268.2 268.2 100 ${seed}
fix             3 all temp/csvr 268.2 268.2 100 745823


run             250000
PPPM initialization ...
  extracting TIP4P info from pair style
  using 12-bit tables for long-range coulomb (../kspace.cpp:340)
  G vector (1/distance) = 0.37879775
  grid = 24 27 32
  stencil order = 5
  estimated absolute RMS force accuracy = 0.0025083397
  estimated relative force accuracy = 7.5537905e-06
  using double precision FFTW3
  3d grid and FFT values/proc = 3825 384
Last active /omp style is kspace_style pppm/tip4p/omp
Neighbor list info ...
  update every 1 steps, delay 7 steps, check yes
  max neighbors/atom: 2000, page size: 100000
  master list distance cutoff = 10.8154
  ghost atom cutoff = 10.8154
  binsize = 5.4077, bins = 5 5 4
  1 neighbor lists, perpetual/occasional/extra = 1 0 0
  (1) pair lj/cut/tip4p/long/omp, perpetual
      attributes: half, newton on, omp
      pair build: half/bin/newton/tri/omp
      stencil: half/bin/3d/tri
      bin: standard
Per MPI rank memory allocation (min/avg/max) = 9.311 | 9.327 | 9.340 Mbytes
Step Temp PotEng TotEng E_pair E_mol Press Lx Ly Lz Volume Pxx Pyy Pzz Pxy Pxz Pyz Enthalpy 
14000000    270.44106   -4779.8288   -4238.9133   -4779.8288            0    8228.6496    17.906057     22.83387    19.467884     7959.728    10185.071    8148.0516    6352.8263   -43.939458    681.85327   -945.43902   -3283.6949 
14001000    260.39753   -4786.5695   -4265.7423   -4786.5695            0    11446.902    18.106607    22.526356    19.247699     7850.672    9459.2721    12994.637    11886.795    654.54946    552.69226    113.51599   -2955.1407 
14002000     266.2252   -4797.8432     -4265.36   -4797.8432            0     8235.743    17.952014     22.79284    19.445323    7956.5865    7016.1679    9321.3594    8369.7017   -50.967529   -68.607711   -922.54607   -3309.6954 
14003000    260.08082   -4785.2399   -4265.0461   -4785.2399            0    10578.921    17.893683    22.739133    19.333255    7866.4471    10978.107    11238.117    9520.5391   -224.22328   -1401.6125   -1434.6514   -3051.3893 
14004000    262.33102   -4831.7338   -4307.0394   -4831.7338            0    8297.7405    17.914389    22.812079    19.337207    7902.4293    8031.0373    9516.3642    7345.8199    2035.4769    914.08042    1125.7261   -3350.7345 
14005000    260.50015   -4784.1464   -4263.1139   -4784.1464            0    9697.3189     17.98902    22.785539    19.268143    7897.8094    9833.8175    9826.9353    9431.2041   -22.422258    786.66955   -1285.7711   -3146.1627 
14006000    268.91588   -4786.1827   -4248.3177   -4786.1827            0    9968.4026    17.925804    22.863702    19.260419    7893.8874    10366.095    9792.9311    9746.1821    1369.0039   -693.52123     224.5399   -3100.7128 
14007000    274.51788   -4809.1975   -4260.1278   -4809.1975            0    9593.5268    17.769905    22.866713    19.415593    7889.3186    9578.3387    10195.814    9006.4274    737.26143   -231.25693    1450.9548   -3156.3195 
14008000    267.78444   -4801.6745   -4266.0725   -4801.6745            0    10081.482    17.921989    22.959021    19.192654    7897.2269    9909.0223    9680.4536    10654.969    1414.5766    485.11606    189.16546   -3104.9585 
14009000    279.07244   -4789.1087   -4230.9294   -4789.1087            0    11060.064    17.753952    22.878872    19.338568    7855.1407    11492.074    11239.998    10448.121   -395.34206    386.15768     410.0874   -2963.8976 
14010000     281.4745   -4798.8523   -4235.8685   -4798.8523            0    10528.162    17.772364    22.969103    19.244943    7856.0791    8711.9102    11336.036    11536.539    2129.9314    2.8771412    1618.8146    -3029.627 
14011000    270.80431    -4808.048   -4266.4059    -4808.048            0    11384.315    17.975192    22.671765    19.286839    7859.9526    9986.9745    11805.104    12360.867   -36.978064    2315.6566   -90.473299   -2961.4293 
14012000    265.86557   -4758.3761   -4226.6121   -4758.3761            0    9615.5439    17.964182    22.949855      19.2572    7939.2691    8743.1353    10515.841    9587.6559   -432.68196    815.26218    1658.3621   -3113.2658 
14013000    271.94669   -4763.3631   -4219.4361   -4763.3631            0    10863.284    17.740915    23.004886    19.310261    7881.0529    8125.1226    12895.623    11569.107    1070.9695     1607.346    1117.3883   -2970.8421 
14014000    269.75821   -4812.2448   -4272.6951   -4812.2448            0    10597.018    17.804278    23.032001     19.15949    7856.6963    9106.6233    10924.691    11759.739      1642.54    481.72324    3697.1739   -3058.4691 
14015000    275.30652   -4814.1438   -4263.4968   -4814.1438            0    9461.2441    17.959379    23.107437    18.994825    7882.7617     7396.951    11085.322    9901.4591    2022.3154    2264.9863   -175.99167   -3175.8133 
14016000    270.29384   -4795.9368   -4255.3157   -4795.9368            0    10321.236    17.560207    23.268051    19.248492    7864.7757    11387.746    10370.205    9205.7561    237.34953    315.10498   -1039.6013   -3071.4732 
14017000    270.75915   -4792.1297    -4250.578   -4792.1297            0    11374.531     17.70189    23.285412    18.985661    7825.8098    10965.854    10518.169    12639.569    303.32827   -1213.3423   -236.55098   -2952.3867 
14018000    259.53897   -4808.0977   -4288.9877   -4808.0977            0    8376.7632    17.753834    23.217758    19.231734    7927.4019    8802.3479    7889.3366    8438.6052    100.79064    692.39758    2694.2271   -3320.5248 
14019000     267.6224   -4799.3259    -4264.048   -4799.3259            0     10025.16    17.678444    23.215168    19.187555    7874.7268    9610.1996    8871.6897    11593.592   -1260.5859   -1006.6374   -896.40472   -3112.7103 
14020000    277.22291   -4822.4476   -4267.9675   -4822.4476            0    10363.522    17.764177    23.165223    19.114489    7865.8251     9658.682    9752.7006    11679.182   -1774.1588    -286.8567    633.98714   -3079.1162 
14021000    263.19583   -4814.9299   -4288.5057   -4814.9299            0    10842.996    17.858939    22.837399    19.315205    7877.7395    10737.497    11479.767    10311.724    383.86813    535.14685    2258.8376   -3042.7675 
14022000     268.7711   -4811.8125   -4274.2371   -4811.8125            0    9177.7416    17.962347    22.925769    19.224181    7916.5299    8878.4801    9401.7418    9253.0031    2623.3849    771.13592    328.23979   -3214.6258 
14023000    256.13082    -4819.569   -4307.2757    -4819.569            0    9143.4676    18.005212    22.729546    19.365852    7925.4806    9143.7604    9735.6635     8550.979    522.77252    420.29832   -356.34791   -3250.4279 
14024000    277.24257   -4775.3848   -4220.8654   -4775.3848            0    11028.122    17.791429    22.762955    19.429946    7868.8466    12375.059     10949.57    9759.7377    -1062.042   -582.68469   -1779.8928   -2955.2884 
14025000    274.17995   -4783.3395   -4234.9457   -4783.3395            0    10544.003     17.89627    22.889849     19.24908    7885.2492    10675.878    11575.199     9380.932    3011.8027   -424.56079    1557.7798   -3022.4036 
14026000    280.52304   -4804.3024   -4243.2216   -4804.3024            0    9493.4296    17.823898     22.94126    19.301686    7892.5111    9840.9333    8732.4483    9906.9072   -372.72291   -120.99469   -22.149934   -3150.4882 
14027000    278.24473   -4772.5075   -4215.9836   -4772.5075            0    12890.812    17.776366    23.114721    18.947874    7785.6009    12498.203    12691.472    13482.761    1086.8572    1095.5483     1412.095   -2752.2964 
14028000    266.96197   -4818.7793   -4284.8223   -4818.7793            0     9410.976    17.744528    23.073715    19.318425    7909.5849     10705.39    8555.5997    8971.9388    -884.8375   -570.97276   -4099.2647   -3199.2363 
14029000    276.92549   -4796.9053   -4243.0201   -4796.9053            0    12671.427    17.828196    22.713193    19.269684    7802.9745    12297.983    12711.571    13004.726   -95.315833     185.1066   -128.16455   -2801.0323 
14030000     278.2056   -4784.2013   -4227.7558   -4784.2013            0    11741.541    17.967749    22.569263     19.35273    7847.8971    9299.9611    13032.392    12892.269    763.30886    1235.0536     34.79114    -2883.895 
14031000    263.86121   -4751.4017   -4223.6467   -4751.4017            0    9485.3898    17.938072    22.897943    19.284906    7921.1778    9274.5819    9252.8709    9928.7167   -190.51277   -804.48944   -1194.2385   -3127.8731 
14032000     265.7803    -4788.788   -4257.1946    -4788.788            0    10495.615    17.804222    22.901676    19.358021    7893.1657    10877.657    9424.7866    11184.401    389.40436   -862.34712   -1239.8506   -3049.0053 
14033000    273.88316   -4802.2461    -4254.446   -4802.2461            0    11032.877    17.886002    22.829393    19.256856    7863.0858     9662.703    11295.055    12140.872    744.30157    408.00862   -433.13131   -2989.2504 
14034000     256.5715    -4810.168   -4296.9933    -4810.168            0    8516.0887     17.90864    22.967643    19.190509    7893.4259     9261.731    7482.3358    8804.1993   -839.40524   -1823.3536    520.54579   -3316.6423 
14035000    261.38008   -4817.7662   -4294.9737   -4817.7662            0    11154.495    17.753753    22.981386    19.263319    7859.5467    12394.083    10188.377    10881.025   -142.94265    178.06134    1527.3267   -3016.4073 
14036000    255.59121   -4801.7949   -4290.5809   -4801.7949            0    10557.246    17.770473    23.151755    19.114401    7864.0015    11269.025    9527.6461    10875.066   -925.31176   -894.01243    888.53604   -3079.7874 
14037000     284.8509   -4809.7312   -4239.9942   -4809.7312            0    14147.187    17.456844    23.334122    19.066609    7766.5947    16341.088    13531.523    12568.951   -275.41112    56.355975   -1095.5956   -2637.5732 
14038000    255.55108   -4772.8788    -4261.745   -4772.8788            0    11376.958    17.677145    23.241199    19.149525    7867.3536    11743.381    10916.581    11470.912    972.14213    680.33495   -1028.9112   -2956.3838 
14039000     258.7476   -4789.5082    -4271.981   -4789.5082            0    9557.8848    17.839223    23.207129    19.120976    7916.0298      5771.98    10865.403    12036.271    141.51572    527.28332   -1933.7997   -3168.5502 
14040000    265.93785   -4785.2358   -4253.3273   -4785.2358            0    10417.955    17.655993    23.293697    19.141279    7872.2982    9798.0238    9854.9705    11600.871    943.93064   -284.37917   -1742.9847   -3057.2481 
14041000    268.87022   -4790.1212   -4252.3475   -4790.1212            0     10019.92    17.514947    23.347471    19.272829     7881.233    11671.825    8587.3082    9800.6271    225.78664   -81.184945    114.74272   -3100.6609 
14042000     280.3575   -4809.3915   -4248.6419   -4809.3915            0    11116.542      17.7711    23.154553    19.011165    7822.7497    10422.679    11429.393    11497.556    1397.3185    909.43743    1284.1285   -2980.3913 
14043000    275.34598   -4794.3819   -4243.6559   -4794.3819            0    8605.0785     17.71544    23.141961    19.281027     7904.643    9631.1236    6926.5616    9257.5504     600.7555     58.79049    46.508295   -3251.6529 
14044000    252.48957   -4791.1522   -4286.1419   -4791.1522            0    10896.642    17.863286     22.97092     19.14601    7856.2996    11794.768    10657.931    10237.226    1171.6905   -51.702984   -1290.7564   -3037.6475 
14045000    271.22926   -4833.0376   -4290.5455   -4833.0376            0    11211.107    17.844315    22.908122    19.179409     7840.154    11439.225    12029.654    10164.443   -688.64306    -727.2375    416.13896   -3008.6607 
14046000    262.26663   -4798.5387   -4273.9731   -4798.5387            0    11527.283    17.859215    22.853326    19.225387    7846.6971    11485.167     10939.86    12156.823   -1473.8661   -522.04261   -1689.7933   -2954.8366 
14047000    270.05449   -4799.2366   -4259.0943   -4799.2366            0    12490.581     17.98719    22.715709     19.14246    7821.4518    11089.297    13832.273    12550.173   -1003.3723    964.27428    1414.6604   -2834.3205 
14048000    255.91051   -4786.0638   -4274.2111   -4786.0638            0    10161.203     17.78464    22.855146    19.326747    7855.7536    9991.6785    10398.074    10093.857    327.18922    92.611645    117.23651   -3110.0613 
14049000    273.95109   -4778.8173   -4230.8812   -4778.8173            0    12307.439    17.987677    22.471548    19.318781    7808.8629    10583.843    13366.228    12972.246    35.421578    205.27408   -869.45428   -2829.2578 
14050000    257.57947   -4804.6065   -4289.4157   -4804.6065            0      10060.9    18.005308      22.8919     19.14362    7890.5353    7328.3323    10975.475    11878.892    438.88234    937.62836   -602.96531    -3131.654 
14051000    299.94606   -4794.2045   -4194.2753   -4794.2045            0    10084.983    17.705686    22.870447    19.482243    7889.0803    10828.331    10042.526    9384.0908    530.66126    90.105426   -687.46941   -3033.9563 
14052000     267.6876   -4817.5443    -4282.136   -4817.5443            0    9261.7998    18.092849    22.949236    18.960924    7872.8992    10273.774    8401.7295    9109.8961   -214.43674   -360.16786    -1049.533   -3218.7132 
14053000    267.13892   -4828.4505   -4294.1396   -4828.4505            0    11973.665    17.587891    22.952786    19.338177      7806.65    13683.238    11796.902    10440.853   -1828.1009   -405.47696   -1077.2455   -2930.9142 
14054000    276.34141   -4778.0703   -4225.3534   -4778.0703            0    11511.342    17.812683    23.198399    18.996026    7849.6468    11182.946    12234.494    11116.586   -311.68635   -68.820549    117.53798   -2907.5459 
14055000     284.4882   -4817.4584   -4248.4469   -4817.4584            0      11465.8     17.77748    23.046746    19.215056    7872.6594    11634.833    11313.013    11449.554   -1266.7614    1058.6238   -1790.3498   -2932.0049 
14056000    278.33194   -4756.6512    -4199.953   -4756.6512            0    12185.937    17.704885    23.148513     19.09017     7823.949    11927.951    12012.132    12617.728    589.90428   -1955.9976     959.3333   -2809.4855 
14057000     264.9117    -4833.678   -4303.8219    -4833.678            0    7795.2315    17.790699    23.453004    18.942598    7903.7106    7201.0236    7005.2123    9179.4586   -601.66281    -1329.891    876.42817   -3405.2849 
14058000    275.89092   -4825.2331   -4273.4171   -4825.2331            0    8272.1148    17.717401    23.337335    19.204115     7940.458    7859.4335    7945.2726    9011.6383    1314.0972    379.22438     649.2055   -3315.4778 
14059000    261.35872   -4792.4802   -4269.7305   -4792.4802            0    9190.7968    17.465337    23.686249    19.094197    7899.0462    9012.2073    8580.6538    9979.5292   -512.38865   -380.49574   -955.40992   -3210.9555 
14060000    264.16085   -4783.1128   -4254.7584   -4783.1128            0    13013.613    17.639868    23.367497    18.902937    7791.7823    11912.823    13414.868    13713.148    127.91776   -406.62721   -1157.4233   -2775.9545 
14061000    270.46843   -4787.9625   -4246.9922   -4787.9625            0    10742.917    17.665842    23.244953    19.203085     7885.587    11056.251    10809.296    10363.204    554.11076   -685.65706   -476.44662   -3011.5224 
14062000    284.12857    -4778.355   -4210.0627    -4778.355            0    11482.372    17.752352    23.026188    19.247857    7867.9271    12966.025    11022.483    10458.607   -93.850656    535.02808    229.85578   -2892.5106 
14063000    289.00852   -4816.7209   -4238.6682   -4816.7209            0    9133.8398    17.883878    23.151075    19.144733    7926.5128    10225.851    8449.0452    8726.6231    243.55939   -1130.7553     -1666.67   -3182.7958 
14064000    261.25084   -4793.4404   -4270.9064   -4793.4404            0    10623.388    17.897212    22.664759    19.352598    7850.1104    10197.492    11053.987    10618.684    51.976384    372.20269   -625.52435   -3054.6793 
14065000    266.51669   -4814.5207   -4281.4544   -4814.5207            0    12766.948    17.778536    22.892999    19.205602     7816.757    13578.753     13250.11    11471.981    177.99735    1204.3906   -746.66501   -2826.0302 
14066000    285.28303   -4784.7785   -4214.1772   -4784.7785            0    11711.512    17.815676    22.995157    19.109627    7828.7224    9462.4232    12018.822     13653.29     1009.461    819.45495   -2026.7596   -2877.0284 
14067000    271.31403   -4808.3846    -4265.723   -4808.3846            0     10998.17    17.634765    23.039793    19.255074    7823.3625     11967.93    10748.818     10277.76    927.05311    89.893856   -973.44843    -3010.879 
14068000    287.48401   -4838.1898   -4263.1862   -4838.1898            0    8897.4418    17.797018    23.234637    19.048278    7876.6011    9385.8651     7876.408    9430.0524   -27.583805   -909.87163   -809.39277    -3241.118 
14069000    257.52703   -4816.3027   -4301.2168   -4816.3027            0    10848.386    17.830386    22.943784    19.169457    7842.1583    10608.774    9613.2847    12323.099    883.67706   -381.51132    400.99768   -3060.4887 
14070000    278.12475   -4814.5307   -4258.2468   -4814.5307            0    10148.063    17.874959    22.916922    19.283232    7899.1647    9042.7613    11057.164    10344.263    1347.1936    694.61614    324.60894   -3089.1776 
14071000    271.85261   -4809.9099   -4266.1711   -4809.9099            0    9019.1452    17.994621    22.931513    19.191972    7919.4503    7817.1435    9485.6424    9754.6496    738.14978    539.67495   -617.86779   -3224.4864 
14072000    276.36008   -4764.3972   -4211.6429   -4764.3972            0    9978.5147    17.641236    23.107101    19.391668    7904.7778    12471.915    9511.1522     7952.477   -123.86556   -740.38552   -1790.1427    -3061.289 
14073000    262.79274   -4823.9366   -4298.3186   -4823.9366            0    11918.538    17.832106    23.054631    18.985591     7805.216    10790.022     11972.63    12992.963   -315.02407   -713.90665   -792.53155   -2941.6187 
14074000    252.94038   -4803.6787   -4297.7667   -4803.6787            0    9724.9802    17.682082    23.045116    19.322148    7873.4973    9438.4892    10066.649    9669.8023    561.05483    790.85349   -477.75315   -3181.0776 
14075000    267.96235    -4808.019   -4272.0612    -4808.019            0    10424.121    17.885224    23.023497    19.177921    7897.0922    10581.961    10334.419    10355.984    1201.8875   -912.59503   -294.60512   -3071.5049 
14076000    280.25292   -4810.9128   -4250.3723   -4810.9128            0    10585.385    17.801739    22.863419    19.334087    7869.1403    10451.472    9882.9488    11421.736    750.14069    -1350.244    1230.8405   -3035.5581 
14077000     258.3935   -4828.4306   -4311.6117   -4828.4306            0     10572.86    17.766793    22.871997    19.276738    7833.3345     8761.267    11252.573     11704.74    335.50348     1553.345   -349.86637    -3103.756 
14078000    289.86684   -4799.7878   -4220.0183   -4799.7878            0    10627.232    17.694176    22.999824    19.401648    7895.7515    12149.797    10153.953    9577.9466   -999.57724    593.99014   -1588.5353   -2996.2772 
14079000    265.48614    -4805.878   -4274.8729    -4805.878            0    11876.774    17.721851    23.195835    19.010764    7814.8145    11141.418    11291.897    13197.006    712.60227   -681.80621   -61.245974   -2921.2645 
14080000    271.13773   -4772.6647   -4230.3558   -4772.6647            0    11058.544     17.70636    23.130823    19.192553    7860.5536    10737.897    10974.252    11463.484    -631.2531   -583.22945    645.94173   -2962.6251 
14081000    271.32437   -4792.3922   -4249.7099   -4792.3922            0    11222.722      17.9246    22.986264    19.033439    7842.1496    10099.539    10689.288     12879.34    1572.3176   -940.92407    535.50956   -2966.1705 
14082000    265.32155   -4824.4651   -4293.7893   -4824.4651            0    11471.454    17.651548    22.938497    19.349848    7834.7531    11561.842    12660.769     10191.75   -1284.3259    650.87389   -1457.1937   -2983.0399 
14083000    280.11292   -4804.1992   -4243.9387   -4804.1992            0    9897.9142    18.027317    22.943116    19.114592    7905.8491    9250.3466    10131.238    10312.158    614.15947   -1592.0284    271.13407   -3102.7221 
14084000    276.79519   -4781.3704   -4227.7458   -4781.3704            0    9195.6183    17.862846    22.787495    19.457816    7920.2944    10295.348    9435.5545    7855.9526     538.1805    608.82996   -2114.3429   -3165.5658 
14085000    263.74826   -4812.0995   -4284.5704   -4812.0995            0    9716.6294    17.985409    22.767205    19.237982    7877.5204    9566.3825    10758.934    8824.5721    -318.5632    564.16286   -20.906173   -3168.2701 
14086000    268.96507   -4815.5578   -4277.5944   -4815.5578            0    10918.328    17.960783    22.786013    19.213092    7863.0471    9619.1817    12215.538    10920.264   -413.63974   -611.40836    76.001375   -3025.5409 
14087000    257.16011   -4784.4005   -4270.0485   -4784.4005            0    11967.164    17.936164    22.843946     19.10425    7827.6371    10132.762    13415.316    12353.415    1168.1365    1531.5565    229.07587   -2903.9003 
14088000    263.34477   -4794.7729   -4268.0508   -4794.7729            0    11134.364    17.885588    22.915303    19.196721    7867.8464    11627.312    10489.635    11286.145    333.38092    529.28553   -431.64042   -2990.4441 
14089000    254.14805   -4823.0488   -4314.7213   -4823.0488            0    11867.529    17.773333    22.987122     19.21018    7848.4684    14114.032    10781.836    10706.719   -281.39944    160.30067   -2859.5361   -2956.3418 
14090000    265.86182   -4804.1262   -4272.3698   -4804.1262            0    11612.789    17.905797    22.904661    19.103178    7834.7138    9939.5688    12526.536     12372.26    280.97183    659.96928   -381.36816   -2945.4778 
14091000    256.54746     -4792.47   -4279.3434     -4792.47            0    10249.585    17.797223    22.921735    19.408327    7917.4955    10897.072    10192.434    9659.2486    1432.6065    907.64147    -336.1061   -3095.8386 
14092000    270.52421   -4813.0594   -4271.9776   -4813.0594            0    10004.877    18.083762    22.351439    19.494325    7879.5691     8958.483    10810.929    10245.221    853.59073   -179.22153   -1248.6514   -3122.2628 
14093000    273.07367   -4788.5282   -4242.3471   -4788.5282            0    9395.6083    18.154442    22.698217    19.260319    7936.6663    5584.3328    12512.005    10090.487    1293.9461    1943.9674    828.77966    -3154.823 
14094000    275.57199   -4819.6549   -4268.4768   -4819.6549            0    10666.603    17.823465    22.902492    19.250222    7857.9744    11060.402    10674.371    10265.035    -413.0514   -381.46433    1717.4953   -3046.0789 
14095000    263.16725   -4830.3862   -4304.0192   -4830.3862            0    9755.6531    17.888234    22.617753    19.463567    7874.7969    8558.0469    11219.382      9489.53   -462.18968   -5.7413687   -616.63479   -3183.6231 
14096000    271.04653   -4801.4858   -4259.3593   -4801.4858            0    8724.0632     18.08845    22.841197    19.156516    7914.7415    7560.2577     9386.672    9225.2599   -938.82396   -249.96381   -1783.2316   -3252.3548 
14097000    269.59457     -4807.19   -4267.9675     -4807.19            0    11603.687     17.72622    22.830412    19.348572    7830.3069    10526.737    12496.177    11788.148   -778.64006    554.68021    -73.17477   -2942.8613 
14098000    272.09583   -4803.7784   -4259.5531   -4803.7784            0    11702.651    17.815428    22.909108    19.164218    7821.5988    12225.951    11470.792     11411.21    718.70858    441.48665    1141.4844   -2924.6318 
14099000    260.64723   -4798.6833   -4277.3566   -4798.6833            0    9809.0353    17.767818    23.076263    19.215907    7878.8072    8542.5971     10252.25    10632.259    1000.0976    496.33984    282.35754   -3150.2561 
14100000     265.3089   -4793.6024   -4262.9518   -4793.6024            0    10763.304    17.695133    23.000869    19.272326    7843.9028    9731.7205     12275.24     10282.95    911.69662   -208.63905    1253.4311   -3031.6807 
14101000    265.57323   -4839.6342    -4308.455   -4839.6342            0    9497.4474    17.973412    22.805243    19.257805    7893.5438    7807.0051    10929.814    9755.5231    1390.5834    196.24536   -1629.7999    -3215.116 
14102000    254.36839   -4783.4819   -4274.7137   -4783.4819            0    9583.4829    17.935317    22.871166    19.277518    7907.6691    9501.8333     9561.354    9687.2613    516.90121   -781.17202   -2110.7057   -3169.4962 
14103000    274.06298   -4787.7408   -4239.5809   -4787.7408            0    11383.024    17.819946    22.783686    19.303839    7837.4367    10158.152    11127.354    12863.567    569.23705    167.14522    785.82372   -2938.4902 
14104000    277.90976   -4800.0161   -4244.1623   -4800.0161            0    10566.866    17.641268    23.152388    19.205784    7844.3621    12573.588    9641.8117    9485.1996    627.99218   -313.54162   -1703.6998   -3035.2919 
14105000    273.31442   -4761.3762   -4214.7136   -4761.3762            0    11009.598    17.923305    23.158682    19.020328    7894.9603    10652.041    11378.465    10998.289    360.26851    835.64267   -742.05429   -2947.0696 
14106000    269.42501   -4842.2631   -4303.3798   -4842.2631            0    7105.9597    17.710477    23.140556    19.397774    7949.7954    6971.0564    7256.1219    7090.7007    141.34123   -116.60363   -162.99428   -3479.5176 
14107000    269.86521   -4801.2525   -4261.4887   -4801.2525            0    8066.1772    17.936002    23.248894    19.031997    7936.1945    7709.0394    7938.3662     8551.126    815.61367   -739.13847   -153.86108   -3327.8993 
14108000    276.27573   -4796.3357   -4243.7501   -4796.3357            0     10979.89    17.814468    23.023617    19.178491     7866.125    12195.465    10555.667    10188.539    1706.3337   -257.28032     3636.533   -2984.1441 
14109000    262.75353   -4796.5149   -4270.9754   -4796.5149            0    9361.3856    17.729105    23.058082    19.263556    7874.9253    9361.3763    9499.3483    9223.4322     57.65917   -250.67175   -2187.1463   -3195.8417 
14110000    276.50927   -4783.0837    -4230.031   -4783.0837            0    12823.389    17.809335    22.957383    19.080577    7801.2032    13254.678    13193.548     12021.94   -1361.2152    1703.6087   -699.63766   -2771.0814 
14111000    279.62009   -4776.1592   -4216.8845   -4776.1592            0    11587.513    17.803968    23.133826    19.115801    7873.2994     9997.547    11940.516    12824.475    101.13088    801.86061    658.70764     -2886.36 
14112000    267.13448   -4788.6928   -4254.3908   -4788.6928            0    10805.037    17.717899    23.190374    19.158702    7872.0177    11659.827    9711.2816    11044.001   -487.25654    379.71302    1844.9367   -3013.9153 
14113000    269.82984   -4812.0433   -4272.3503   -4812.0433            0    12072.847    17.630823    23.212171    19.069862     7804.335    14215.185    11497.228    10506.127    280.58633   -497.26706    1049.3363   -2898.2403 
14114000    264.58216   -4777.7037   -4248.5067   -4777.7037            0    10220.679    17.745949     23.50941    18.890579     7881.089    9943.7446    9606.6628    11111.629    419.59085    926.89573    138.21029   -3073.7664 
14115000    272.78388     -4805.82   -4260.2185     -4805.82            0    10246.943    17.666896    23.183365     19.21763    7871.1203    12409.314    9321.2365    9010.2779    18.836779    570.01098    623.65067   -3083.9493 
14116000    262.15218   -4816.0924   -4291.7556   -4816.0924            0    9786.5721    17.757148    23.270367    19.009526     7855.028     8600.845    11071.688    9687.1833      1063.52    1458.9163    777.25135   -3170.6301 
14117000    260.81274   -4821.6236   -4299.9659   -4821.6236            0    8738.6598    17.549649    23.373817    19.205301    7878.0585    10072.531    7385.0186    8758.4297   -315.55234   -231.12365    854.35453   -3295.9516 
14118000    256.69946   -4802.0861   -4288.6555   -4802.0861            0    11885.509    17.719086     23.31807    18.995073    7848.2874    13040.266    9740.7489    12875.511    1073.6693   -174.77428   -768.64636   -2928.2494 
14119000     266.2972   -4810.3831   -4277.7558   -4810.3831            0    12205.912    17.696658    23.100799    19.114349    7814.0782    11873.023    12186.123    12558.589    1055.3463    861.84266   -27.934599   -2886.7662 
14120000    257.02805   -4788.0709   -4273.9831   -4788.0709            0    8653.3373    17.805757    23.031292     19.31189    7919.6049    9092.1118    7789.6904    9078.2097   -528.08891    15.784093   -349.13743   -3274.5285 
14121000    271.14309   -4823.0579   -4280.7383   -4823.0579            0    10917.515    17.911283    22.888826     19.15765     7854.028    10147.423    10791.562    11813.561    665.72816   -597.62636    1146.4279    -3030.214 
14122000    281.29779   -4799.6403     -4237.01   -4799.6403            0    9694.4959    17.775408    22.768544    19.524298    7901.8768    10583.644    10610.642    7889.2026    402.40397   -56.895275   -1700.4244   -3119.8088 
14123000    269.37379   -4803.3788   -4264.5979   -4803.3788            0    9842.2803    18.015846    22.820644    19.197892    7892.8906    9926.9848    9625.0167    9974.8394    612.52323    916.34181   -351.93947   -3131.6559 
14124000    269.83778   -4768.5204   -4228.8115   -4768.5204            0    14704.418    17.642194    22.889693    19.163237    7738.5828    12147.341    16143.711    15822.201   -527.73091   -470.27167   -1145.4961   -2569.2813 
14125000    270.47619   -4764.1813   -4223.1955   -4764.1813            0    11174.601     17.86014    23.011401    19.120774    7858.3862    10952.158    11677.562    10894.083    144.33788    276.56168    197.52735   -2942.5136 
14126000    259.23142   -4795.0709   -4276.5761   -4795.0709            0     11677.87    17.680393    23.201881    19.116676     7842.012     11415.36    11140.999    12477.252    125.45306   -108.84397   -201.79247   -2941.0049 
14127000    254.89124   -4774.7363   -4264.9224   -4774.7363            0    12163.609    17.882606    22.896834    19.153728    7842.5904    13271.252    11627.326     11592.25    663.91248   -762.93248    93.236675   -2873.6957 
14128000    268.95098   -4810.2007   -4272.2655   -4810.2007            0    10503.892    17.692475    22.942905    19.305742    7836.5244    10605.193    11876.694    9029.7885   -572.69361    702.89258   -1088.9215   -3071.8002 
14129000    266.00376   -4752.5584    -4220.518   -4752.5584            0    8300.6236    17.953949    23.163059    19.162645    7969.1381    9500.4331    7013.8852    8387.5525   -609.59123   -284.84332   -2425.9943   -3255.8054 
14130000    271.58684   -4856.2954   -4313.0881   -4856.2954            0    8639.2567    17.822648    23.021132    19.304256    7920.4884    9381.4897    8894.3204      7641.96    2131.7733    714.78931   -179.05288   -3315.1486 
14131000    269.90128   -4845.2088   -4305.3728   -4845.2088            0    10919.082     17.76534    22.679818    19.404318    7818.2847    12238.151    11880.444    8638.6505    665.73429    534.46508    449.41499    -3060.361 
14132000    276.36161   -4782.5925   -4229.8351   -4782.5925            0    10600.067     17.96636    22.820335    19.336286    7927.8452    10834.071    10442.153    10523.978    538.54318     368.4959   -1072.7309   -3004.2607 
14133000    275.56329   -4790.6828   -4239.5222   -4790.6828            0    10200.999    17.916646    22.939416    19.224998    7901.4242    7371.0466    11975.758    11256.192    2170.2524   -1266.2711     674.0368   -3064.0186 
14134000    259.39586   -4817.1856   -4298.3618   -4817.1856            0      10670.7    17.785483    22.962548    19.289784     7877.948     9509.005    12116.278    10386.819   -933.10786    1503.9267   -1878.9645   -3072.3859 
14135000    253.02959   -4783.4925   -4277.4021   -4783.4925            0    12576.408    17.590634    22.993564    19.325434    7816.5847    13250.065    12714.691    11764.468      1279.36    642.08187     441.0111   -2843.7309 
14136000    280.23345   -4790.3467   -4229.8452   -4790.3467            0    11207.049    17.937984    22.936248     19.07996    7850.0688    11944.985    10098.939    11577.222    571.21693   -290.74576    -549.2028    -2946.804 
14137000    275.41965   -4827.0541   -4276.1808   -4827.0541            0    11189.637    17.767179     22.83478    19.375708    7860.9112    13595.923    11230.593    8742.3933   -617.29291    286.37238   -654.07377   -2993.3636 
14138000    281.31847   -4829.0925   -4266.4208   -4829.0925            0    10598.225    17.929311     22.88163    19.228083    7888.3568    10218.279     10111.24    11465.156   -515.44039   -49.654856   -91.723481   -3047.1629 
14139000    252.54629   -4803.0241   -4297.9003   -4803.0241            0    12293.691    17.773292    23.018093    19.132342    7827.1807    13920.225    11276.847    11684.001   -769.68735    307.59252   -1147.3473   -2894.5582 
14140000    279.72741   -4800.9153   -4241.4259   -4800.9153            0    11754.841    17.745549    23.010236    19.143389     7816.806     9331.828    14233.348    11699.348    579.24637    934.78605   -238.32571   -2901.3729 
14141000    262.77675   -4806.3615   -4280.7755   -4806.3615            0    10039.212    17.727018    23.004054    19.346239    7889.2658    11097.455    9898.7435     9121.438    119.10512    720.62425   -137.88895   -3125.6954 
14142000    263.92446   -4785.3067   -4257.4252   -4785.3067            0    12852.759    17.934666    22.866689    19.047047    7811.3166    10656.739    13445.451    14456.086    134.50837   -552.86597    4817.4394   -2793.2384 
14143000    276.01969   -4838.5466   -4286.4731   -4838.5466            0    8056.5382    17.883283    22.868928    19.429398    7946.0705    8658.3083    7440.5426    8070.7638   -432.27576   -612.04713    -1402.981   -3352.8389 
14144000    271.49754   -4807.7616    -4264.733   -4807.7616            0    10154.583    18.001143    22.707031    19.267353    7875.5789    10295.835    10278.652    9889.2613   -1410.2673   -74.948506   -16.379084   -3098.4056 
14145000    268.03548   -4797.2981    -4261.194   -4797.2981            0    12319.079    17.689773    22.756196    19.478438    7841.0829    12796.199    12047.626    12113.413   -1619.1486   -913.65529   -439.61396   -2852.4561 
14146000    253.02757   -4798.0304    -4291.944   -4798.0304            0    8079.9664     18.04454    22.941363    19.193168    7945.3254    7376.2489    7777.7269    9085.9233   -670.13064    170.63466   -690.62161   -3355.6825 
14147000    257.66853   -4816.6489     -4301.28   -4816.6489            0    10563.924    17.710532    22.681333    19.539896     7849.146    11031.008    12150.353     8510.411    1269.2946    12.492848    1270.5401   -3092.0093 
14148000    263.58355   -4800.3182   -4273.1185   -4800.3182            0    11808.054    18.131407    22.634922    19.141708    7855.8139    10509.018    11538.624    13376.521   -556.98633   -318.56282    -958.1382   -2920.2817 
14149000    284.43125   -4794.6139   -4225.7163   -4794.6139            0    10175.828    17.953463    22.698823    19.375143    7895.8063     10141.18    10421.378    9964.9259   -401.07459   -627.22887    419.01683   -3053.9469 
14150000    263.96985   -4804.8034   -4276.8311   -4804.8034            0     9870.964    17.903824    22.820096    19.214911    7850.5783    7468.6916    11908.005    10236.196    349.89874   -672.56377    1286.4528   -3146.6784 
14151000    282.14696   -4781.9092   -4217.5805   -4781.9092            0    9917.1308    18.015713    22.819263    19.312482    7939.4638    9243.6067    10563.667    9944.1193   -233.10383    1013.2061     86.74683   -3069.2864 
14152000    264.67272   -4796.2609   -4266.8828   -4796.2609            0    10180.091    17.900004    22.778304    19.416488    7916.7182    10967.495    11183.689    8389.0886    2179.3459    515.36658    180.02083   -3091.5178 
14153000    272.10221   -4784.2819   -4240.0438   -4784.2819            0    12265.254    17.982672    22.830376    19.077782    7832.4053    11766.883    13186.512    11842.368   -115.81127     675.0626   -214.25276   -2839.0133 
14154000    268.85352    -4804.771   -4267.0307    -4804.771            0     9779.075    17.678016    22.941598    19.398383    7867.2459    11205.114    9678.8479    8453.2633    413.97586    66.604987    321.52235   -3145.0216 
14155000    255.58105   -4789.1512   -4277.9575   -4789.1512            0      10640.1    18.096419    22.742817    19.113214    7866.3021    10171.828    12104.123    9644.3476    1239.8273     232.8809   -325.72001   -3057.3045 
14156000    259.21338   -4827.8223   -4309.3635   -4827.8223            0    7769.1776    17.892093    22.785833    19.495312    7947.9708    8753.4853    7727.0669    6826.9805    251.35102   -257.94967   -1068.3405   -3408.8148 
14157000    266.42161   -4808.3364   -4275.4603   -4808.3364            0     11550.85    17.989971     22.67607    19.260489    7857.1591    11485.296    12980.544    10186.708    1384.5785    1191.5405    -835.0412   -2951.8645 
14158000     265.1067   -4826.7135   -4296.4673   -4826.7135            0    11683.849    17.853068     22.66925    19.320468     7819.296    12250.223     11925.02    10876.305     282.1595   -476.02484    359.29549   -2964.0831 
14159000    264.70746    -4819.335   -4289.8874    -4819.335            0    10097.918     17.99167    22.756425    19.219683    7869.0399    10825.996     10652.94    8814.8176    37.841282    199.54535   -189.98297   -3131.0314 
14160000    270.23079   -4797.8674   -4257.3724   -4797.8674            0    9906.0894    17.894541    22.695006     19.45513    7901.0536    10671.959    10105.038    8941.2712   -216.52464   -416.60014   -1827.3637    -3115.906 
14161000    250.04458   -4789.2349   -4289.1148   -4789.2349            0    10478.606    17.968714    22.722092    19.296754    7878.6094    9228.4898    11462.014    10745.316   -718.30398   -918.61061   -472.16811   -3085.1079 
14162000    268.83169    -4794.395   -4256.6985    -4794.395            0    10084.762     18.08752    22.520761    19.425232    7912.7657    10302.225    11084.769    8867.2913    608.29946   -509.78206   -1172.6984   -3092.9213 
14163000    261.22745   -4791.6686   -4269.1814   -4791.6686            0    12446.624    18.056285    22.519989    19.223634    7816.8549    12373.693    13247.809     11718.37    1584.3854     592.4147    914.41361   -2850.2562 
14164000    255.97713   -4796.1217   -4284.1359   -4796.1217            0    10611.968     17.95702    22.621974    19.409135    7884.4415    10719.522    10891.208    10225.173    1929.8408     290.1262    377.43002   -3063.9029 
14165000    268.48889   -4802.4416   -4265.4306   -4802.4416            0    9875.0788    18.039576    22.800741    19.083165    7849.2055    9845.1792    9281.1647    10498.893   -772.17316   -1074.6774   -1089.9743   -3135.0046 
14166000    275.69683    -4786.306   -4234.8782    -4786.306            0    10188.909    17.751432    22.967588    19.445154    7927.9366    12101.931    9226.9723    9237.8236    51.516948   -1046.6894   -845.63085   -3056.8282 
14167000    265.61866   -4817.9803   -4286.7102   -4817.9803            0    9996.4185    18.010613    22.935484     19.05376     7870.768    8897.5004    9243.1154     11848.64   -986.86375   -197.09205   -62.033074   -3139.2505 
14168000    270.07934   -4787.3477   -4247.1557   -4787.3477            0     11146.11    17.819747    23.051477    19.215638    7893.2357    11124.806    11384.102    10929.421   -1315.6867    677.62467   -1081.4115    -2964.074 
14169000     284.0512   -4792.2858   -4224.1483   -4792.2858            0    10531.399    17.687381    23.307885    19.146657     7893.314    10446.009    9445.8997    11702.288   -1780.1368   -305.13389    627.09498    -3011.817 
14170000    280.13187   -4811.8394    -4251.541   -4811.8394            0    9586.9869    17.649006    23.425619    19.054168    7877.7342    10979.644     7866.758    9914.5585   -219.24306   -2214.1176   -1872.8563   -3150.1048 
14171000    273.59047   -4796.0367    -4248.822   -4796.0367            0    10293.833    17.764191    23.205284    19.114678    7879.5118    11258.046    9308.1278    10315.323   -413.35204    430.20195    385.66982   -3065.9104 
14172000      267.135   -4821.3262   -4287.0232   -4821.3262            0    9615.9344    17.749099    23.342311    19.002924    7873.0065    12039.159    7369.6694     9438.975   -1431.2125   -489.15962   -1861.0632   -3182.9243 
14173000    269.51333   -4834.1102   -4295.0503   -4834.1102            0    9569.2056    17.579822    23.438539    19.135402     7884.653    12197.322    7901.7611    8608.5335      3667.67    -1082.873     36.41743   -3194.6914 
14174000    260.81238   -4807.8289   -4286.1719   -4807.8289            0    9811.5149     17.85591    23.238927    19.083992    7918.9442    9950.3516    8994.4579    10489.735    477.43087    302.48428   -1526.0289   -3153.0432 
14175000    275.19413   -4820.2472   -4269.8249   -4820.2472            0    12784.611    17.692124    22.975639    19.190629    7800.7575    15219.247    11787.529    11347.058    123.41382   -371.00297   -427.59496   -2815.3702 
14176000    262.95895   -4809.3792   -4283.4289   -4809.3792            0    10231.102    17.866514    23.159701    19.112991    7908.6331    10740.532    9357.8161    10594.957   -219.07839     152.5249   -833.37808   -3103.3807 
14177000     266.7424   -4781.4669   -4247.9492   -4781.4669            0    9804.6378    17.789863    23.066385     19.18662    7873.1881    9807.6735     10618.42    8987.8199   -1399.3133   -126.62934    -1010.857   -3122.1574 
14178000    263.67295   -4784.8443   -4257.4659   -4784.8443            0    9790.9178    17.754946    23.109102    19.232133    7890.9606    11217.348    10243.239    7912.1661    494.34118   -987.05906   -995.06334   -3130.7117 
14179000    276.41165   -4798.5879   -4245.7305   -4798.5879            0    8983.5084    17.969797    22.989709    19.134091    7904.6833    9409.8548    8688.3923    8852.2782   -1669.5554    97.413845   -1784.7809   -3210.0964 
14180000    260.40324   -4777.1538   -4256.3152   -4777.1538            0    10511.167    17.662146    23.418869     19.03307    7872.6008    9441.2177    11355.862     10736.42    1388.8559     105.3846     3696.895   -3049.4881 
14181000    268.70303   -4821.5839   -4284.1447   -4821.5839            0    10906.779    17.652207    23.182411    19.145715    7834.8234    10759.305    9989.5618    11971.469     1769.277    33.368057   -1480.2106   -3037.9049 
14182000    282.92754     -4827.04   -4261.1499     -4827.04            0    10746.163    17.794117    23.122087     19.07908    7849.8417    11707.982    9585.6971    10944.811    840.72934   -1470.3393    434.97003   -3030.9088 
14183000    267.05592   -4816.4037   -4282.2589   -4816.4037            0    11594.056    17.863765    22.999467    19.107399      7850.41    11411.321    11038.519    12332.328    258.58325   -1134.3042     372.5937   -2954.8534 
14184000    264.64336   -4820.9591   -4291.6397   -4820.9591            0    10248.159    17.875863    22.893138    19.238771    7873.1709    10413.093    10412.607    9918.7762    470.47953   -1236.3726   -247.08778   -3114.9244 
14185000    284.76351   -4804.4655   -4234.9033   -4804.4655            0    9452.2336    17.925678    22.898189    19.281066    7914.2136     11393.34    9055.4854    7907.8751   -447.46757   -1011.0952    678.33434     -3143.92 
14186000    278.25259   -4806.9202   -4250.3807   -4806.9202            0    11029.227     17.93186     22.82679    19.310958    7904.4925    10720.521    11583.464    10783.695     -304.422    873.56223   -1855.9526   -2978.9434 
14187000    265.52871   -4809.4073   -4278.3171   -4809.4073            0    11196.807    18.029241    22.601797    19.292534    7861.5773    10753.799    11898.574    10938.047    310.56294   -850.39398    3457.3401   -2994.5692 
14188000    270.40362   -4776.7228   -4235.8821   -4776.7228            0    12650.462    17.766485    22.874262     19.26192    7827.9525    11413.628    12442.979    14094.781    -1310.253   -534.50689    78.890154   -2791.6717 
14189000    248.53607   -4802.8375   -4305.7347   -4802.8375            0    9510.5748    17.955393    22.927712    19.166165    7890.2516    9226.8358    10188.151    9116.7379   -487.88819    593.74348   -612.39622   -3211.3412 
14190000    291.21508   -4808.9434   -4226.4773   -4808.9434            0    10568.705    17.822498    22.987971    19.222555    7875.5397    11167.188    8501.7281    12037.197   -894.40491    18.571031   -1048.4888    -3012.591 
14191000    277.01676   -4794.2063   -4240.1386   -4794.2063            0    13403.974    17.741416    22.929136     19.17235    7799.2224     13469.03    13798.291    12944.602    591.44083    1421.3143    2012.8026   -2715.5215 
14192000    290.36724   -4819.7385   -4238.9681   -4819.7385            0    11257.032    17.835163    23.020649    19.065266    7827.7601    9245.1964    11631.595    12894.306   -1226.9246   -327.27507    711.07772    -2953.867 
14193000    271.15269   -4799.7164   -4257.3775   -4799.7164            0    12485.551     17.67726    22.986282    19.150062    7781.3306    11774.339     13518.08    12164.235   -1582.1965    251.12984   -93.595909   -2840.4831 
14194000    268.13915   -4805.1025   -4268.7911   -4805.1025            0    8514.7549    17.847201     22.97931    19.300645    7915.5101    7675.9038     9511.213     8357.148    944.72414    348.36727    1623.6319   -3285.8512 
14195000    251.61496   -4768.6255   -4265.3645   -4768.6255            0    9921.4409      17.8836     22.95768    19.248122     7902.624    9655.1731    10395.377     9713.773   -1275.0112    982.74218    87.230998   -3121.9019 
14196000    268.74188   -4811.7446   -4274.2277   -4811.7446            0    10738.113    17.817322    22.994911    19.170881    7854.4583    9706.0939    10911.421    11596.824   -3497.9991   -156.43169    590.64337   -3044.1852 
14197000      271.758   -4814.7898   -4271.2402   -4814.7898            0    9047.4777    17.805547    23.155862    19.181926    7908.7618    8837.8752    8423.4616    9881.0964   -275.32642    97.190261    156.57844   -3227.6935 
14198000    267.95953   -4809.5546   -4273.6024   -4809.5546            0    9861.5944     17.78512    23.216427    19.096838    7885.2167    9033.5875    9547.0223    11004.173    -207.3342    872.83937   -839.12033   -3139.5408 
14199000    268.02458   -4775.4275   -4239.3452   -4775.4275            0    9837.4226     17.77263    23.306548     19.00337    7871.5506    9884.6458    10184.708    9442.9142   -416.24323    -754.5484   -353.35522   -3110.0239 
14200000    270.93979   -4812.8755   -4270.9624   -4812.8755            0    8670.3574    17.718216    23.140287    19.222965    7881.5038    10712.967    8512.8664    6785.2386    80.504763   -297.49544    1868.1217   -3274.3599 
14201000    270.66481   -4805.8592   -4264.4961   -4805.8592            0    9306.1917     17.92803     23.17216    19.013314    7898.7234    6804.4427    10074.988    11039.144   -1307.6806    336.12991   -1994.1759   -3192.4714 
14202000    272.57127   -4813.5292    -4268.353   -4813.5292            0     11723.65    17.524346    23.085902    19.401599    7849.2143    13555.702    11103.215    10512.032    1390.5454    1401.8148     1103.845   -2926.3146 
14203000    258.45275   -4819.8578   -4302.9203   -4819.8578            0    11317.982     17.88249    22.970709    19.067867    7832.5738    11684.775    11752.279    10516.891   -879.03869   -152.18916   -168.28521   -3010.0667 
14204000    257.72589   -4813.3003   -4297.8167   -4813.3003            0    11445.565     17.66712    23.058824    19.168671    7808.9911    11512.999     12387.82    10435.877   -561.73203     178.1793    1901.3796   -2994.3256 
14205000    250.76211   -4793.6192    -4292.064   -4793.6192            0    8989.4606    17.736183     23.26068    19.047474     7858.144    9272.5488    8494.3837    9201.4493   -737.80261    421.59914    804.99426   -3261.8451 
14206000    262.73725   -4800.2839   -4274.7769   -4800.2839            0    10239.777    17.747225    23.420987    18.890553    7852.0008    8663.6741    10692.358    11363.298   -65.622693    654.61474    -507.3903   -3102.1855 
14207000    264.08751   -4802.9925   -4274.7849   -4802.9925            0    10358.324    17.806406    23.091624    19.237657    7910.1174    11522.334    9962.2772    9590.3604    1121.5433    575.15877    962.77492   -3079.8388 
14208000    279.60875   -4805.4139   -4246.1618   -4805.4139            0    9877.1476    17.909815    23.001284    19.088217     7863.367    9688.4398    8870.9249    11072.078   -724.80487   -152.44607   -609.35899    -3113.459 
14209000    267.50767   -4803.1445   -4268.0961   -4803.1445            0    8617.0931    17.612007    23.385097    19.227107     7918.847    10054.937    7105.9072    8690.4348   -355.15556   -1079.2176    565.57481    -3272.923 
14210000    275.77244   -4800.0461   -4248.4671   -4800.0461            0     11247.68    17.813476    23.216906    18.932672    7830.0571    11708.663    10661.605    11372.773    686.43147   -545.02424    1709.0747   -2964.0568 
14211000    268.22372   -4788.0583   -4251.5777   -4788.0583            0    12927.519    17.651868    23.034448    19.205668    7809.0443    12155.164    14270.701    12356.693    -603.3739     2098.509   -1434.6229   -2779.3026 
14212000    270.25534   -4801.7019   -4261.1578   -4801.7019            0     11828.98     17.90666     22.88495    19.159812    7851.5567    12079.787    11323.878    12083.274    166.32343   -475.74674   -1.6630801    -2906.658 
14213000    264.87176   -4801.5708   -4271.7946   -4801.5708            0    8735.5238    17.835641    22.921766    19.320285    7898.6037    8115.9852    9267.2029    8823.3834     -928.772   -575.12787   -120.96596   -3265.5231 
14214000    263.47608   -4780.4072   -4253.4225   -4780.4072            0    13805.045    18.009612    22.584967    19.175129    7799.4165    15101.692    13798.232    12515.212     135.5614    217.83256   -661.39387   -2683.1471 
14215000     264.8682   -4847.6083   -4317.8391   -4847.6083            0    10876.862     18.05581    22.684225    19.223674    7873.6722    9955.6046    10969.911     11705.07    1024.6576    838.01367   -292.00994   -3068.8553 
14216000    260.28381   -4798.0144   -4277.4147   -4798.0144            0    10631.423    17.890835    22.655492    19.417389    7870.3666    10352.231    11367.027    10175.011   -652.02443   -58.660241   -724.50795   -3057.1269 
14217000    264.71121   -4837.6836   -4308.2285   -4837.6836            0    8900.9838    17.951545    22.929052    19.136963    7877.0018    7591.8091    9587.0907    9524.0517    813.09373    491.03113    177.83807   -3285.7013 
14218000    277.73252   -4803.6986   -4248.1993   -4803.6986            0    9203.3957     17.72586    22.839969    19.471865    7883.3419    11120.838    10201.265    6288.0837    386.00134    -621.3235    1038.6778   -3190.0807 
14219000    262.15453   -4812.1382   -4287.7967   -4812.1382            0    8873.3029    18.055725    23.139516    18.987151    7932.8457    7273.4362    8676.9365    10669.536   -474.02503    122.31605   -965.53263   -3261.2228 
14220000    261.22971   -4823.0679   -4300.5762   -4823.0679            0    11643.749    17.685444    23.064035    19.170585    7819.6374    10496.843     12102.63    12331.772   -157.28694    1032.7939    57.902038   -2972.7069 
14221000    261.19752   -4799.6376   -4277.2103   -4799.6376            0    9429.8126    17.752241    23.356226    19.055157    7900.7512    8465.4539    9483.4701    10340.514     713.5997    783.79452   -255.12508   -3190.6662 
14222000    262.68339   -4834.1929   -4308.7937   -4834.1929            0    9800.1389    17.798775     23.13872    19.106433    7868.8102    10406.122    9311.8322    9682.4624    1233.2492   -1290.0621    692.65126   -3184.1442 
14223000    255.19069    -4806.922   -4296.5091    -4806.922            0    10396.699     17.73488    23.082836     19.15389    7841.0534    11298.476    10668.281    9223.3399    1078.1277    249.82516    204.74164   -3107.6079 
14224000    263.54257   -4785.3768   -4258.2591   -4785.3768            0    10987.769    17.722434     23.00275    19.228544    7838.7992    8241.5355    12651.864    12069.907   -912.63661    484.28764   -1553.8283    -3002.128 
14225000    266.46992   -4818.2211   -4285.2483   -4818.2211            0    10626.313    17.956189    22.887712    19.109028    7853.3532     9597.908    11758.223    10522.809    245.87439    18.533988    397.99364   -3068.1837 
14226000    260.58452   -4800.2005   -4278.9993   -4800.2005            0    7986.7874    17.939641    22.837204    19.425691    7958.5354    6977.6352    8725.4146    8257.3124    36.509002    537.07249    568.79749   -3351.9962 
14227000    278.43335   -4758.9908   -4202.0897   -4758.9908            0    10102.169    18.011663    22.881209    19.177273    7903.5031    10506.814    9239.9016    10559.791    567.23708   -1002.2207   -1208.8785   -3037.6684 
14228000    267.14843    -4773.967   -4239.6371    -4773.967            0    10216.496    17.905254    22.791199    19.369649    7904.4092    8991.3962    10795.647    10862.446    186.13204    86.383709    322.24111   -3061.9029 
14229000    268.03801   -4780.6639   -4244.5548   -4780.6639            0    10228.787    17.996365    22.779281    19.263182    7896.8309    8387.9179    12786.814    9511.6298   -1229.8902    285.55827   -2371.5045   -3066.5342 
14230000    283.90677   -4785.8737   -4218.0251   -4785.8737            0    12133.268    17.804672    22.821784    19.275977    7832.4922    11801.975    12356.348     12241.48   -1327.7233    1532.0374   -278.56659   -2832.0557 
14231000    282.21848   -4798.1417   -4233.6699   -4798.1417            0     11519.14    18.038983    22.451538    19.317044    7823.4592    10419.065    12449.453    11688.901   -515.49023   -373.02855   -2065.9958   -2919.3692 
14232000    278.23019   -4815.9663   -4259.4716   -4815.9663            0    10794.588    17.865088    22.691259    19.302738    7824.9701    13018.212    10366.773    8998.7773   -707.82401    -943.7465   -945.38027   -3027.6023 
14233000    261.63027    -4802.884   -4279.5912    -4802.884            0    11023.196    18.024984    22.792877    19.190924    7884.4229    9897.4162    11250.656    11921.515    -363.4126    181.64848    81.632137   -3012.0755 
14234000    281.63294    -4804.039   -4240.7384    -4804.039            0    11309.703    17.924835    22.721283    19.286415    7854.8798    9885.1037    13349.485    10694.521    96.048014    225.60828   -15.087978   -2945.1512 
14235000    265.08782    -4819.078   -4288.8697    -4819.078            0    10957.071    17.912494    22.535218     19.39072    7827.2961    12185.175    12082.709    8603.3304   -515.49392    249.44349    1367.7078   -3038.0862 
14236000    266.84103   -4814.5931   -4280.8781   -4814.5931            0    8606.3776    17.961999    23.147853    19.084396    7934.9433    8023.3922    8558.2635    9237.4772    168.91953    201.93625   -102.57417   -3284.9222 
14237000    256.24573   -4786.1595   -4273.6364   -4786.1595            0    10577.539     17.72456    22.887185    19.373439    7859.1318    11284.269    10956.191    9492.1571   -121.09261    342.59294   -439.72009   -3061.2666 
14238000    269.49304   -4786.8393   -4247.8199   -4786.8393            0    10957.504    18.017355    22.959667     19.01831    7867.3509    9017.3919    10771.184    13083.936    812.93015    29.342482    1305.3916   -2990.5861 
14239000    270.26851   -4803.2187   -4262.6483   -4803.2187            0    9994.9565     17.69804    23.192304    19.231096    7893.5633    9375.7954    10396.646    10212.428     -2331.85    1905.0738    -1894.001   -3112.0336 
14240000    268.21838   -4785.8855   -4249.4156   -4785.8855            0    9696.8693    17.940111    23.292476    18.885572    7891.7065    9554.5967    8693.5437    10842.467    395.43596   -402.55192    2389.5053   -3133.3792 
14241000    262.22616   -4812.4541   -4287.9694   -4812.4541            0    10548.769    17.648466    22.990261     19.30573    7833.1618    10688.415    11557.973    9399.9183    1556.5005   -137.82111    1314.1666   -3082.8925 
14242000    264.90314   -4807.9628   -4278.1238   -4807.9628            0    8068.2408    18.139378    22.962554    19.057899    7938.1186    5220.4295    8328.9335    10655.359    385.73034   -1398.7115    1355.8434    -3344.069 
14243000    281.13789   -4784.1067   -4221.7962   -4784.1067            0     12317.68     17.69719    22.584556     19.60441     7835.553    11403.927    14164.633     11384.48   -198.59955    1070.4186    324.14251   -2814.2118 
14244000     279.9919   -4801.4042   -4241.3858   -4801.4042            0    11079.778    17.936022    22.845934    19.147062    7845.7992    9314.8126    11854.104    12070.419    -206.5252   -152.24972   -1152.3007    -2973.605 
14245000    277.70113   -4781.4363   -4225.9997   -4781.4363            0    11102.965    17.828444    22.799496    19.411866    7890.5263    12422.622    10870.462    10015.812   -1285.2223   -240.27603    -1278.893   -2948.3234 
14246000    257.85235   -4800.4347   -4284.6982   -4800.4347            0    8976.1814    17.955976    22.985463    19.180976     7916.496    10681.546    7096.7214    9150.2764   -1204.5417   -1156.4473    1412.6589   -3248.3623 
14247000    283.94429   -4838.3428   -4270.4191   -4838.3428            0    8201.1906    17.781959    23.026872    19.277055    7893.2391    7285.8816    9506.8675    7810.8228   -597.92349   -596.09302   -679.69461   -3326.3407 
14248000    270.00362   -4795.3238   -4255.2832   -4795.3238            0     9001.128    17.926195    22.786542    19.430132    7936.7422    9568.3061    8215.5419    9219.5358    1102.5762    -640.6935   -97.013799   -3213.4095 
14249000    277.96008   -4840.8944   -4284.9399   -4840.8944            0    10392.315    17.962402    22.727318    19.302146    7879.8544    11706.659    10048.098    9422.1873   -479.87427    804.15968   -1995.4306   -3090.6593 
14250000    287.77632   -4797.7227   -4222.1345   -4797.7227            0    11631.596    18.068503    22.556151     19.29074    7862.0546    10068.308    12956.777    11869.703   -1103.6673    18.558301   -1478.3266   -2888.4557 
Loop time of 573.703 on 64 procs for 250000 steps with 1008 atoms

Performance: 75.300 ns/day, 0.319 hours/ns, 435.765 timesteps/s
99.1% CPU use with 64 MPI tasks x 1 OpenMP threads

MPI task timing breakdown:
Section |  min time  |  avg time  |  max time  |%varavg| %total
---------------------------------------------------------------
Pair    | 27.673     | 32.251     | 36.07      |  32.0 |  5.62
Bond    | 0.28319    | 0.294      | 0.31048    |   1.1 |  0.05
Kspace  | 266.84     | 278.17     | 290.52     |  33.3 | 48.49
Neigh   | 4.8687     | 5.6389     | 6.56       |  19.8 |  0.98
Comm    | 104.69     | 120.03     | 132.35     |  57.2 | 20.92
Output  | 1.3577     | 1.3606     | 1.3729     |   0.3 |  0.24
Modify  | 123.69     | 128.37     | 135.05     |  27.0 | 22.37
Other   |            | 7.593      |            |       |  1.32

Nlocal:        15.7500 ave          20 max          11 min
Histogram: 1 3 5 9 14 8 8 9 6 1
Nghost:        2518.05 ave        2556 max        2486 min
Histogram: 3 2 9 7 17 12 6 4 3 1
Neighs:        5316.25 ave        6738 max        3664 min
Histogram: 1 3 5 9 14 8 8 9 3 4

Total # of neighbors = 340240
Ave neighs/atom = 337.53968
Ave special neighs/atom = 2.0000000
Neighbor list builds = 10209
Dangerous builds = 0

unfix		3
unfix		2
unfix		1

write_data	data.final.${pid}
write_data	data.final.0
System init for write_data ...
PPPM initialization ...
  extracting TIP4P info from pair style
  using 12-bit tables for long-range coulomb (../kspace.cpp:340)
  G vector (1/distance) = 0.37934984
  grid = 24 27 32
  stencil order = 5
  estimated absolute RMS force accuracy = 0.0024487143
  estimated relative force accuracy = 7.3742304e-06
  using double precision FFTW3
  3d grid and FFT values/proc = 3825 384
Last active /omp style is kspace_style pppm/tip4p/omp
WARNING: Not all mixed pair coeffs generated from mixing. Use write_data with 'pair ij' option to store all pair coeffs. (../write_data.cpp:312)

write_restart   restart.lmp.${pid}
write_restart   restart.lmp.0
System init for write_restart ...
PPPM initialization ...
  extracting TIP4P info from pair style
  using 12-bit tables for long-range coulomb (../kspace.cpp:340)
  G vector (1/distance) = 0.37934984
  grid = 24 27 32
  stencil order = 5
  estimated absolute RMS force accuracy = 0.0024487143
  estimated relative force accuracy = 7.3742304e-06
  using double precision FFTW3
  3d grid and FFT values/proc = 3825 384
Last active /omp style is kspace_style pppm/tip4p/omp
Total wall time: 0:09:38
