LAMMPS (30 Jul 2021)
Processor partition = 1
  using 2 OpenMP thread(s) per MPI task
using multi-threaded neighbor list subroutines
variable        pid world 0 1
variable        phase world IceIII Liquid

shell cd ${phase}
shell cd Liquid
include Restart.lmp
echo both
log log.lammps
#include		in.partitions
include		in.temp
variable        temperature equal 262.31
variable	tempDamp equal 100.0
include		in.pressure
variable        pressure equal 7500.0
variable        pressureDamp equal 1000.0 # This is 1 ps
include		in.seed
variable        seed equal 745823

units		real
atom_style	full
read_restart	restart.lmp.${pid}
read_restart	restart.lmp.1
Reading restart file ...
  restart file = 30 Jul 2021, LAMMPS = 30 Jul 2021
  restoring atom style full from restart
  orthogonal box = (0.55215906 1.7419017 0.67363277) to (17.655413 21.887276 21.539563)
  2 by 4 by 4 MPI processor grid
  restoring pair style lj/cut/tip4p/long/omp from restart
  restoring bond style harmonic/omp from restart
  restoring angle style harmonic/omp from restart
  864 atoms
  576 bonds
  288 angles
Finding 1-2 1-3 1-4 neighbors ...
  special bond factors lj:    0        0        0       
  special bond factors coul:  0        0        0       
     2 = max # of 1-2 neighbors
     1 = max # of 1-3 neighbors
     1 = max # of 1-4 neighbors
     2 = max # of special neighbors
  special bonds CPU = 0.002 seconds
  read_restart CPU = 0.008 seconds
include 	in.setup
variable	out_freq equal 1000
variable	out_freq2 equal 10000
variable	out_freq3 equal 1000

timestep	2.0

neigh_modify    delay 7 every 1

include		in.tip4p
# This is TIP4P/Ice

# create groups ###
group ox type 2
288 atoms in group ox
group hy type 1
576 atoms in group hy

# set charges - beside manually ###
set group ox charge -1.1794
Setting atom values ...
  288 settings made for charge
set group hy charge 0.5897
Setting atom values ...
  576 settings made for charge

# ### TIP3P Potential Parameters ###
pair_style lj/cut/tip4p/long/omp 2 1 1 1 0.1577 8.5
pair_coeff 1 1*2 0.000 0.000
pair_coeff 2 2 0.21084 3.1668
bond_style  harmonic
bond_coeff  1 450 0.9572
angle_style harmonic
angle_coeff 1 55 104.52
kspace_style pppm/tip4p/omp 1.0e-5
pair_modify tail yes

thermo          ${out_freq}
thermo          1000
thermo_style    custom step temp pe etotal epair emol press lx ly lz vol pxx pyy pzz pxy pxz pyz enthalpy

restart 	${out_freq3} restart.lmp.${pid} restart2.lmp.${pid}
restart 	1000 restart.lmp.${pid} restart2.lmp.${pid}
restart 	1000 restart.lmp.1 restart2.lmp.${pid}
restart 	1000 restart.lmp.1 restart2.lmp.1


include         in.dump
dump            myDump all atom ${out_freq2} dump.water.${pid}
dump            myDump all atom 10000 dump.water.${pid}
dump            myDump all atom 10000 dump.water.1
dump            myDump2 all dcd ${out_freq2} dump.dcd
dump            myDump2 all dcd 10000 dump.dcd
dump_modify     myDump append yes
dump_modify     myDump2 append yes


variable natoms 	equal  "count(all)"                        # NUMBER ATOMS
variable H      	equal  "enthalpy/v_natoms"                 # ENTHALPY-per-atom
variable Vol      	equal  "vol/v_natoms"                 # volume-per-atom
fix AVG all 		ave/time ${out_freq} 1 ${out_freq} v_Vol v_H file vol_enthalpy.dat
fix AVG all 		ave/time 1000 1 ${out_freq} v_Vol v_H file vol_enthalpy.dat
fix AVG all 		ave/time 1000 1 1000 v_Vol v_H file vol_enthalpy.dat


timer           timeout 23:50:00 every 1000
New timer settings: style=normal  mode=nosync  timeout=23:50:00

fix 		1 all shake 1e-6 200 0 b 1 a 1
Finding SHAKE clusters ...
       0 = # of size 2 clusters
       0 = # of size 3 clusters
       0 = # of size 4 clusters
     288 = # of frozen angles
  find clusters CPU = 0.000 seconds
fix             2 all nph iso ${pressure} ${pressure} ${pressureDamp}
fix             2 all nph iso 7500 ${pressure} ${pressureDamp}
fix             2 all nph iso 7500 7500 ${pressureDamp}
fix             2 all nph iso 7500 7500 1000
fix             3 all temp/csvr ${temperature} ${temperature} ${tempDamp} ${seed}
fix             3 all temp/csvr 262.31 ${temperature} ${tempDamp} ${seed}
fix             3 all temp/csvr 262.31 262.31 ${tempDamp} ${seed}
fix             3 all temp/csvr 262.31 262.31 100 ${seed}
fix             3 all temp/csvr 262.31 262.31 100 745823

run             250000
PPPM initialization ...
  extracting TIP4P info from pair style
  using 12-bit tables for long-range coulomb (../kspace.cpp:340)
  G vector (1/distance) = 0.3736398
  grid = 24 24 24
  stencil order = 5
  estimated absolute RMS force accuracy = 0.0032326792
  estimated relative force accuracy = 9.7351173e-06
  using double precision FFTW3
  3d grid and FFT values/proc = 3549 432
Last active /omp style is kspace_style pppm/tip4p/omp
Neighbor list info ...
  update every 1 steps, delay 7 steps, check yes
  max neighbors/atom: 2000, page size: 100000
  master list distance cutoff = 10.8154
  ghost atom cutoff = 10.8154
  binsize = 5.4077, bins = 4 4 4
  1 neighbor lists, perpetual/occasional/extra = 1 0 0
  (1) pair lj/cut/tip4p/long/omp, perpetual
      attributes: half, newton on, omp
      pair build: half/bin/newton/omp
      stencil: half/bin/3d
      bin: standard
Setting up Verlet run ...
  Unit style    : real
  Current step  : 22250000
  Time step     : 2
  Walltime left : 23:49:59.93
Per MPI rank memory allocation (min/avg/max) = 10.19 | 10.20 | 10.20 Mbytes
Step Temp PotEng TotEng E_pair E_mol Press Lx Ly Lz Volume Pxx Pyy Pzz Pxy Pxz Pyz Enthalpy 
22250000    264.51974   -3829.1468    -3375.769   -3829.1468            0    6001.7265    17.103254    20.145374     20.86593    7189.3867     6207.979    6656.9159    5140.2847    511.67863    677.55884   -767.30212    -2746.489 
22251000    260.61174   -3839.0593   -3392.3797   -3839.0593            0    7605.4512    17.063145    20.098131    20.816997    7138.9249    8423.9538     6318.164    8074.2359    498.74267    1029.6915    347.45323   -2600.5466 
22252000    269.96678   -3873.5163   -3410.8025   -3873.5163            0    5236.1742    17.127269     20.17366    20.895228    7219.7128    6137.8981    5673.8485     3896.776   -60.923096    895.80626   -1822.4636   -2859.4747 
22253000    272.37475   -3873.2007   -3406.3597   -3873.2007            0    7168.7362    17.092017    20.132139    20.852221    7175.2257    7577.3921    6764.0716    7164.7449   -61.181061   -1710.4981   -22.175454   -2656.1994 
22254000    247.30714   -3879.5741   -3455.6981   -3879.5741            0     4981.111    17.078187    20.115849    20.835349    7157.8221    4017.7598    5289.5919    5635.9814    129.94633    23.232171   -758.60231   -2935.7224 
22255000    259.19674   -3849.3796   -3405.1253   -3849.3796            0    7621.5162    17.039198    20.069924    20.787782    7108.9102    7024.3688    7445.0114    8395.1684   -901.00223   -249.97718   -588.51013   -2614.9557 
22256000    255.35163    -3834.847   -3397.1831    -3834.847            0    7974.7076    16.992339    20.014731    20.730614    7050.4219    5893.0728    8080.8242    9950.2258   -522.00805    114.49208   -30.538675   -2577.1984 
22257000    245.81205   -3845.1628   -3423.8494   -3845.1628            0    8075.6207    17.088653    20.128175    20.848116    7170.9889    9695.3686    7049.8237    7481.6698   -2272.8557   -597.69483   -1429.6304   -2579.2887 
22258000    260.54175   -3845.6014   -3399.0418   -3845.6014            0     7147.088    17.038895    20.069568    20.787412    7108.5311    7262.8224    8435.7788    5742.6629    1281.3854    205.12042   -1773.8987   -2658.0986 
22259000    273.55771   -3848.9323   -3380.0638   -3848.9323            0    8073.4321    17.062607    20.097498    20.816341    7138.2504    8277.4382    8954.3075    6988.5506   -1168.1836    665.51319    166.33949   -2539.5867 
22260000    274.63081   -3893.3166   -3422.6088   -3893.3166            0     7695.692    17.055412    20.089023    20.807563    7129.2239    7945.7507    7562.4547    7578.8706     1262.117   -456.09216    724.78078   -2622.4691 
22261000    253.51552   -3831.7512   -3397.2343   -3831.7512            0    7663.1377      17.0183    20.045309    20.762286    7082.7855    7189.6275    9508.0162    6291.7695    793.53957     442.4968    1742.0699   -2605.6693 
22262000    267.35694   -3815.7121   -3357.4715   -3815.7121            0    10904.979    16.958411    19.974768    20.689222     7008.274    9427.1497    10806.819    12480.967    498.47946   -2675.3981    59.226159   -2242.8901 
22263000    274.54411   -3841.1029   -3370.5436   -3841.1029            0    9314.9811    16.952537     19.96785    20.682056    7000.9943    8174.8934    11186.605    8583.4447   -1015.9176    638.42357    3033.9372   -2419.4625 
22264000    249.64966   -3860.2791   -3432.3882   -3860.2791            0    6886.1661    16.998314    20.021768    20.737903    7057.8614    5900.2264    7646.3202    7111.9517    130.44287    398.94419    552.95018   -2723.5836 
22265000    263.21357   -3871.8797   -3420.7407   -3871.8797            0    6062.4601    17.142129    20.191163    20.913357    7238.5208    4654.4532    4714.2241    8818.7029    421.94946    1756.4455    558.00081   -2780.7486 
22266000    270.08662   -3891.3644   -3428.4452   -3891.3644            0    6358.9619    17.068428    20.104354    20.823442    7145.5583    6867.3357     6072.049    6137.5011   -44.611447   -361.69944    1256.9783   -2765.7737 
22267000    266.52132   -3858.2272   -3401.4188   -3858.2272            0    8196.5233    17.053778    20.087098     20.80557    7127.1749     6425.623    7729.5635    10434.383    -1694.696   -498.01776   -281.18475   -2549.4514 
22268000    245.40321   -3858.7469   -3438.1342   -3858.7469            0    6477.1944    17.067232    20.102945    20.821983    7144.0565     6950.371    7100.1756    5381.0367    469.49401     17.10537    2088.8145   -2763.2835 
22269000    273.44234   -3906.1122   -3437.4414   -3906.1122            0    5393.1106    17.092804    20.133065    20.853181    7176.2163     6462.098    5362.4411    4354.7926   -817.42084   -320.56731    514.33382   -2873.0106 
22270000    251.56746   -3887.1252   -3455.9472   -3887.1252            0    8967.9633     16.98319    20.003954    20.719452     7039.039    9380.8724    9776.4155     7746.602   -822.34853    374.78378    836.02147   -2535.3215 
22271000    263.87905   -3903.3532   -3451.0735   -3903.3532            0    6798.1546    17.031716    20.061112    20.778654    7099.5503    6775.2203    5896.5705    7722.6732   -2393.8593   -637.24857    1354.0768   -2747.1949 
22272000     266.0165   -3864.7419   -3408.7987   -3864.7419            0    8885.5467    16.992213    20.014583    20.730461    7050.2652    11622.186    9030.7679    6003.6865    1010.0503   -2611.2174    1111.2495   -2495.1789 
22273000    255.64525   -3887.8496   -3449.6824   -3887.8496            0     6982.438    16.958055    19.974349    20.688787    7007.8323    7720.8708    7307.7204    5918.7229   -141.18914    121.21624   -440.19034    -2736.063 
22274000    257.82578   -3814.0301   -3372.1256   -3814.0301            0    4985.3739    17.120969     20.16624    20.887542     7211.749    5057.7837    5669.8277    4228.5103   -481.28162     827.4163   -79.377532   -2847.7841 
22275000    263.15054   -3851.1636   -3400.1326   -3851.1636            0    7206.0417    17.017131    20.043933    20.760861     7081.327    6990.5378    7837.9391    6789.6483    211.24409     759.0171   -740.87656   -2655.9366 
22276000     283.1117   -3873.1341   -3387.8903   -3873.1341            0    7222.9627    17.104135    20.146412    20.867005    7190.4979     7345.025    6532.2437    7791.6193    1187.2128   -638.73067     50.04163   -2630.4469 
22277000    280.93811   -3866.7278   -3385.2095   -3866.7278            0    7660.7788    17.052183    20.085219    20.803623    7125.1748     8501.644    5247.5352    9233.1572    883.95735    103.49934   -851.90291   -2589.1522 
22278000    256.80465    -3848.899   -3408.7446    -3848.899            0    7361.6885    17.033046    20.062679    20.780277    7101.2136    7911.3479    7896.6714    6277.0463   -934.23468    587.71545   -1220.1612   -2646.3393 
22279000     247.3219   -3863.0541   -3439.1529   -3863.0541            0    5675.7318    17.062653    20.097552    20.816397     7138.308    7876.3343    4850.9851     4299.876    351.15833     1054.877    241.10427   -2848.2814 
22280000     275.1681   -3852.0611   -3380.4324   -3852.0611            0    7444.4351    17.029127    20.058062    20.775495    7096.3121    8188.3006    7842.1094    6302.8952   -1550.9411   -4.6259724   -1281.0883   -2609.9897 
22281000    265.45474   -3813.2696   -3358.2892   -3813.2696            0    7804.4409    17.041449    20.072576    20.790528    7111.7277    7701.6916    6837.4864    8874.1449   -387.57736    959.44739   -1558.8592   -2548.8341 
22282000    257.37634   -3819.1149   -3377.9806   -3819.1149            0     6776.691    17.156738    20.208371     20.93118     7257.044    8122.0711    5409.2962    6798.7057   -89.129438   -338.54062   -29.093709   -2660.7591 
22283000    269.96091   -3862.1199   -3399.4161   -3862.1199            0    8795.9449    17.044423    20.076079    20.794156    7115.4523    9167.7551    7607.5725     9612.507   -465.83358   -319.33225    315.62645   -2486.6471 
22284000    263.64402   -3882.8591   -3430.9823   -3882.8591            0    8067.2815    17.016273    20.042922    20.759814    7080.2556    7758.2393    8373.1065    8070.4987    507.18765     150.7838     1248.019   -2597.9688 
22285000    255.24111   -3889.1234   -3451.6488   -3889.1234            0    8402.1143    17.037567    20.068003    20.785792    7106.8691    6785.3617    10022.437     8398.544   -186.23655    337.30513    1164.1668      -2580.8 
22286000    262.98181   -3877.2268    -3426.485   -3877.2268            0    8116.5494    17.043664    20.075184     20.79323    7114.5011    7248.1092    6801.4162    10300.123   -617.75579    660.72999    480.25906   -2584.3305 
22287000    263.04181   -3817.1506   -3366.3059   -3817.1506            0    7447.9067    17.024276    20.052349    20.769577    7090.2501    8233.4276    6401.4392    7708.8532    1664.8796    1209.3594   -2143.8801   -2596.1624 
22288000     265.2827   -3831.4032   -3376.7177   -3831.4032            0    8634.1303    17.030897    20.060148    20.777655    7098.5262    8575.4781    7574.6376    9752.2751    71.056851   -30.471639   -333.21174   -2482.8718 
22289000    258.17362   -3843.9861   -3401.4853   -3843.9861            0    8174.8374    17.069362    20.105454    20.824582    7146.7313    8425.8947    7000.9937    9097.6239    889.64028   -1607.6042    272.02373   -2549.4404 
22290000      258.548   -3864.7127   -3421.5702   -3864.7127            0    5739.9072     17.05519    20.088761    20.807292    7128.9454     3248.689    6783.3676    7187.6649   -192.51288   -133.40899   -25.500533   -2824.8015 
22291000    259.58439   -3878.8527    -3433.934   -3878.8527            0    7609.2476    17.059828    20.094223     20.81295    7134.7621    9021.1007    6605.3633    7201.2788    576.25896    443.81964   -1671.4294   -2642.1675 
22292000    269.31444   -3887.5886   -3425.9929   -3887.5886            0    8343.1307    17.023154    20.051027    20.768208     7088.848    8167.2551     10181.44    6680.6968   -1770.5892   -1102.0725   -2139.5284   -2563.4502 
22293000     259.1953   -3855.8422   -3411.5903   -3855.8422            0    7311.4335    17.056127    20.089865    20.808435    7130.1205    7450.5054    6415.7057    8068.0892    -128.0858   -209.81287    863.16651   -2651.3073 
22294000    264.59229   -3875.4436   -3421.9415   -3875.4436            0    8412.2713    17.049792    20.082402    20.800706    7122.1777    8587.8406    10891.978    5756.9949   -703.97068   -1278.3744    413.67368   -2548.1617 
22295000    254.62917   -3913.1013   -3476.6756   -3913.1013            0    6600.0608    17.061055    20.095669    20.814447    7136.3024    6202.1344    5996.0249    7602.0232    478.36354    801.57757    279.86249     -2789.77 
22296000    280.60574   -3878.5475   -3397.5989   -3878.5475            0    7981.3827    16.997297     20.02057    20.736662    7056.5945    8322.5864    7655.1663    7966.3955   -1348.8023    -1319.977   -148.16588   -2576.2093 
22297000    260.79606    -3875.953   -3428.9575    -3875.953            0    5864.7572    17.107439    20.150303    20.871036    7194.6653    4294.7305    6032.1958    7267.3455    1796.6644   -716.19547   -90.641813   -2813.5872 
22298000    258.60003   -3851.7042   -3408.4726   -3851.7042            0    7326.8181    17.070795    20.107142     20.82633    7148.5314    6244.1539    6807.2464    8929.0541   -181.75114    744.55442   -222.62952   -2644.6225 
22299000    265.45094   -3835.0351   -3380.0613   -3835.0351            0    7652.6652    17.048003    20.080296    20.798524    7119.9369    7087.4597    8826.9135    7043.6222    1483.2026    1060.8862    38.454911   -2585.4317 
22300000    262.37265   -3832.6065   -3382.9088   -3832.6065            0    9809.9341    17.002322    20.026489    20.742793    7062.8551    9257.3699    8930.9536    11241.479   -636.41425    472.68173   -904.71197   -2372.4414 
22301000    267.07945   -3829.9316   -3372.1666   -3829.9316            0    8259.8814    17.037188    20.067557    20.785329    7106.3947    7714.0012    10141.651     6923.992    1125.8117     1263.741   -213.81936   -2516.1168 
22302000    254.70914   -3836.8284   -3400.2656   -3836.8284            0    8251.5945    16.986989     20.00843    20.724087    7043.7647    7687.0121    8754.9651    8312.8063     1489.111    1439.7724   -375.04016   -2552.6116 
22303000    259.13906   -3872.1527   -3427.9972   -3872.1527            0    8448.5767    17.035094    20.065091    20.782775    7103.7754    7250.7642    9441.5507    8653.4151     698.4407    430.97197   -874.14032   -2552.7138 
22304000    257.67315   -3846.5536   -3404.9106   -3846.5536            0     5597.859     17.17149    20.225747    20.949178    7275.7799    5036.6738    6461.9675    5294.9356     402.3927    616.14432    940.84637    -2810.923 
22305000    263.78971   -3879.4429   -3427.3163   -3879.4429            0    6256.2863    17.092116    20.132255    20.852342      7175.35    8006.2473    5146.0624    5616.5492    327.91615   -809.46188     830.7591   -2772.6265 
22306000    265.46223   -3840.9017   -3385.9085   -3840.9017            0    7183.1036    17.071381    20.107832    20.827045    7149.2678    7908.0051    4906.1018    8735.2039   -302.08413   -840.52959   -1387.8356   -2636.9641 
22307000    274.64596   -3895.5576   -3424.8238   -3895.5576            0    8266.0696    17.048531    20.080917    20.799168    7120.5979    7515.3498    9556.0097    7726.8494   -1340.3372    355.78378   -1277.8602   -2566.4205 
22308000    272.59068   -3877.0408   -3409.8297   -3877.0408            0    8474.5967    17.045076    20.076847    20.794952    7116.2694    7920.5136    8912.9461    8590.3304   -1689.0459    1465.4724    182.28166   -2530.3065 
22309000    261.59923   -3848.3544   -3399.9823   -3848.3544            0    5570.1129    17.100513    20.142146    20.862587     7185.931    6294.2015    5241.2972    5174.8399   -1439.0566   -255.86796    1476.5584   -2816.2376 
22310000    260.44078   -3887.2405   -3440.8539   -3887.2405            0     8682.464    17.045837    20.077745    20.795882    7117.2237    9837.0157    6452.3367    9758.0397   -229.16288   -202.20877   -1124.0039   -2539.6366 
22311000    253.46638    -3841.428   -3406.9953    -3841.428            0     8295.438    17.034249    20.064096    20.781744    7102.7181    8236.4955    10020.631    6629.1879   -549.12018    664.59791   -1399.9539   -2547.7052 
22312000    268.83661   -3840.0755   -3379.2988   -3840.0755            0     5043.529    17.081399    20.119631    20.839266    7161.8608    5877.0812    5544.1916    3709.3141    -748.3743    340.84299    1278.8156   -2852.5103 
22313000     278.3879   -3833.6889   -3356.5415   -3833.6889            0     5129.092    17.134072    20.181673    20.903528    7228.3194    5534.2227    3197.0451    6656.0082    277.76731    -664.6877   -366.26877   -2815.8449 
22314000    263.22933   -3836.1959   -3385.0298   -3836.1959            0    7758.7934    17.030579    20.059773    20.777267    7098.1281    8682.7868    5949.6557    8643.9376    304.83769   -450.76007    67.967277   -2581.8479 
22315000    252.64738   -3859.4223   -3426.3934   -3859.4223            0    5795.0114    17.085862    20.124888    20.844711     7167.476    6967.2544    6021.2216    4396.5583    -530.1283    395.72685   -244.21988   -2820.6392 
22316000    271.26951   -3830.7319   -3365.7853   -3830.7319            0    6141.0226    17.146244     20.19601    20.918377    7243.7352    6270.8848    6704.5972    5447.5859    773.44642     810.3685   -1034.9714   -2717.0326 
22317000      238.976   -3846.0798   -3436.4831   -3846.0798            0    7602.6225     17.04486    20.076593    20.794689    7115.9989    6254.4667    6780.5692    9772.8317    821.75957   -200.07825   -461.52664   -2647.4864 
22318000    268.56012   -3886.1426   -3425.8397   -3886.1426            0    8705.8003    17.054975    20.088507    20.807029    7128.6751    7667.5276    9140.3705    9309.5027    315.69041   -761.18132   -661.50318   -2520.7463 
22319000    249.79051   -3907.2874    -3479.155   -3907.2874            0    4883.3811    17.056738    20.090584     20.80918    7130.8861    4694.4851    3906.7557    6048.9026    784.55826    836.54934   -1881.9955   -2971.2997 
22320000    259.93059   -3877.8893   -3432.3772   -3877.8893            0    8653.7989    17.022039    20.049713    20.766848    7087.4552    9421.4451    9127.8053    7412.1463    -576.2722    474.21118    111.33051   -2537.8923 
22321000    260.59736   -3886.6618   -3440.0069   -3886.6618            0    4469.3425    17.109699    20.152966    20.873793    7197.5175    3826.5595    5882.8725    3698.5956     308.5408    22.726604     -2035.06   -2970.8671 
22322000    275.37289   -3825.3907    -3353.411   -3825.3907            0    7348.6782    17.065308    20.100679    20.819636    7141.6405    7479.7338    7551.4956    7014.8051   -1368.2346    538.31885    301.52505   -2588.0204 
22323000    257.64412   -3904.2442    -3462.651   -3904.2442            0    8663.6559    17.022828    20.050642     20.76781    7088.4403    9660.3392    9000.1293    7330.4991   -213.04376    -805.2881   -846.90642   -2567.0228 
22324000    267.25486   -3912.8331   -3454.7674   -3912.8331            0    7514.2663    17.030438    20.059607    20.777095    7097.9519    7293.0363    7890.0812    7359.6815   -305.37978     838.0816    590.98922    -2676.918 
22325000    263.61623   -3889.3364   -3437.5072   -3889.3364            0    8851.3668    17.028096    20.056848    20.774237    7095.0235     10627.66     7464.346    8462.0943    505.70091    506.93792   -1066.1282   -2521.6241 
22326000    257.43286   -3874.0069   -3432.7758   -3874.0069            0    7905.4936    17.051283    20.084159    20.802526    7124.0473    7703.6639    11015.405    4997.4118    240.23006   -911.79279   -1696.5921   -2611.4193 
22327000    250.84192   -3873.0559   -3443.1214   -3873.0559            0     7434.129    17.092635    20.132867    20.852975    7176.0042    8791.6474    7505.2427    6005.4969   -800.37534    1745.5292    732.77671   -2665.1051 
22328000    265.39672   -3846.5554   -3391.6745   -3846.5554            0    7482.7167    17.084751     20.12358    20.843356    7166.0782    7601.8963    6667.4435    8178.8102     721.3117   -1032.8073    220.58514   -2609.6565 
22329000     261.7205     -3893.74     -3445.16     -3893.74            0    8767.1993    17.000525    20.024373    20.740601    7060.6165     8376.726    9471.0204    8453.8516    726.73795   -88.242163   -1052.0818   -2542.3852 
22330000    272.74025    -3871.266   -3403.7986    -3871.266            0    6871.0249    17.092242    20.132403    20.852495    7175.5085    5268.8009    9432.4608    5911.8129   -283.11841    11.195063   -1009.9839   -2684.7635 
22331000    255.91536   -3879.1758   -3440.5456   -3879.1758            0    7246.6301    17.092199    20.132353    20.852443     7175.455    6262.2961    8560.3834     6917.211   -679.97186   -277.13119    -1490.911   -2682.2101 
22332000    264.18754   -3913.3111   -3460.5027   -3913.3111            0    8583.3868    17.046729    20.078795    20.796969    7118.3404    7403.7738    9602.1684    8744.2181   -390.60428   -39.657793   -504.49902   -2569.4296 
22333000     255.7236   -3887.1263   -3448.8248   -3887.1263            0    6592.2315    17.119322      20.1643    20.885533     7209.668    6470.1846    7307.6075    5998.9023    406.29346    342.57123   -975.01745   -2755.6806 
22334000    282.48311   -3849.9562   -3365.7899   -3849.9562            0    10149.402    16.982028    20.002586    20.718035    7037.5951    9579.6138    12027.981    8840.6121    603.19437   -216.96662    -1198.342   -2324.0947 
22335000    268.01006   -3874.0245   -3414.6644   -3874.0245            0    7592.5159    17.096051    20.136889    20.857142    7180.3063    8201.8472    7106.8613    7468.8394    2093.1266    54.047651   -1028.5942   -2619.5959 
22336000    262.28942   -3851.5282   -3401.9731   -3851.5282            0    8580.5249    17.091136    20.131101    20.851146    7174.1161    9005.7789    8638.6138     8097.182    462.94453   -1191.6944   -279.00508   -2504.2175 
22337000     257.4921   -3884.5019   -3443.1692   -3884.5019            0     6057.168    17.088765    20.128308    20.848253    7171.1305    5984.5257    7204.5884      4982.39   -302.19819    242.66994    2260.6842   -2809.6889 
22338000    260.32112   -3817.2496   -3371.0681   -3817.2496            0    7073.9641    17.162533    20.215196     20.93825    7264.3994     7686.548    5932.2989    7603.0453   -69.133798    142.15634   -936.01545   -2621.6254 
22339000    257.58625   -3881.3886   -3439.8946   -3881.3886            0    7960.2371    17.085155    20.124056    20.843849    7166.5866    9095.4538    8152.0749    6633.1828    267.51551    658.65023   -4.7325069    -2607.912 
22340000    255.52245   -3877.3127   -3439.3559   -3877.3127            0    7049.3868    17.174385    20.229157     20.95271    7279.4603    5417.1264    9118.7865    6612.2474   -499.24155   -400.84671   -36.818924   -2690.9686 
22341000    255.30792   -3870.5477   -3432.9587   -3870.5477            0    7688.4216    17.017474    20.044336    20.761278    7081.7541    6966.2299    9257.5635    6841.4714   -1013.7154    2325.7413   -24.151067   -2638.8976 
22342000    275.32359    -3865.355   -3393.4598    -3865.355            0    6904.4348    17.059359    20.093672    20.812378    7134.1746    7611.4242     6833.146    6268.7342    500.53453   -766.37382   -988.00928   -2675.0905 
22343000    246.02208   -3861.1137   -3439.4403   -3861.1137            0    8164.5378    17.081904    20.120227    20.839883    7162.4969    9781.3027    8122.8735    6589.4372    1415.2644   -433.44119    1472.1534   -2586.5917 
22344000    249.42764   -3844.3629   -3416.8525   -3844.3629            0    9664.1077    17.061759    20.096499    20.815306    7137.1859     10562.98    9698.7608    8730.5829    -886.0962    380.93817     472.0892   -2410.9296 
22345000    273.50638    -3908.681   -3439.9004    -3908.681            0    8793.4418    17.020419    20.047806    20.764872    7085.4325    9329.2045    8051.8033    8999.3176   -507.30238    1027.5311   -2248.9056    -2531.241 
22346000    276.77666    -3873.105   -3398.7192    -3873.105            0    9185.5324     16.98686    20.008278     20.72393     7043.604    8513.9585    8002.2091    11040.429    -564.5364    602.82563    -981.9709    -2455.147 
22347000    273.92706   -3888.1647   -3418.6631   -3888.1647            0     7951.207     17.05781    20.091848    20.810489    7132.2316    6749.5311    7883.8079     9220.282   -428.90113    290.41655    29.663151   -2591.6081 
22348000    239.29523   -3854.6742   -3444.5304   -3854.6742            0     7785.598    17.047665    20.079897    20.798111    7119.5126    8786.0268    6836.8243    7733.9429    1086.8687    198.62034    1161.8794   -2636.1456 
22349000    270.95257   -3879.2423   -3414.8389   -3879.2423            0    6355.8003    17.082798     20.12128    20.840974     7163.621    4831.6039    7016.4628    7219.3342   -1643.6288   -523.28843    148.60856   -2750.8226 
22350000    266.11919   -3887.6212    -3431.502   -3887.6212            0    7506.7824    17.033145    20.062795    20.780397    7101.3367    7219.7539    7729.8241    7570.7692    12.668372   -817.14984   -1624.4965   -2654.0567 
22351000    253.27883   -3889.1537   -3455.0424   -3889.1537            0    7150.0794    17.034217    20.064058    20.781705    7102.6778     5660.246    8159.5975    7630.3948    278.54028   -180.00855   -640.59538   -2714.3995 
22352000    270.13391   -3882.3543    -3419.354   -3882.3543            0    6459.6921    17.153456    20.204505    20.927176    7252.8794    4720.8985    6792.3421    7865.8358    187.77693    783.40925     447.7107   -2736.0749 
22353000    259.67618   -3844.4321    -3399.356   -3844.4321            0    7904.0553    16.986442    20.007785     20.72342    7043.0838     6889.802    8010.8327    8811.5311   -403.38318   -648.90149   -154.44985   -2587.4819 
22354000      270.559   -3883.8833   -3420.1544   -3883.8833            0     8660.886     16.98949    20.011375    20.727138    7046.8761    9395.7849    9682.3828    6904.4904   -1270.0306   -1450.5802   -2220.6879   -2530.0625 
22355000    280.86023   -3891.8891   -3410.5043   -3891.8891            0    6956.9845    17.089967    20.129724     20.84972    7172.6439    7369.4144    6540.1959    6961.3431    768.93861    216.35327    331.65428   -2682.7644 
22356000    256.30573   -3920.1109   -3480.8117   -3920.1109            0    6611.4338    17.070685    20.107012    20.826196    7148.3936    6228.5759    7142.1451    6463.5804     57.11771   -1435.0818   -475.73758   -2791.5565 
22357000    258.45092    -3901.769   -3458.7929    -3901.769            0    8398.7904    16.971872    19.990623    20.705644    7024.9756    8565.1023    7994.7022    8636.5668   -2617.0458    119.46614    457.14855   -2598.3195 
22358000    255.27269    -3876.359   -3438.8304    -3876.359            0    7670.8123    17.019842    20.047126    20.764168    7084.7115    7967.2256    8195.1814    6850.0298   -921.96248   -432.63411   -995.16048   -2646.2571 
22359000    256.99638    -3899.153     -3458.67    -3899.153            0    6892.6644    17.004286    20.028803     20.74519    7065.3036    6790.2026      6428.52    7459.2705    29.617062   -818.59389   -41.671957   -2748.4484 
22360000    258.93361   -3901.0826   -3457.2792   -3901.0826            0    6480.6192    17.039973    20.070837    20.788727    7109.8804    8114.5371    5411.2273    5916.0932   -330.12389    -1074.812   -793.29091   -2785.3018 
22361000    268.03911   -3879.8736   -3420.4637   -3879.8736            0    9121.4255    17.062855    20.097789    20.816643     7138.561    9825.2645     9217.522      8321.49    217.82362    631.96723   -116.94127    -2470.845 
22362000    258.48704    -3876.084   -3433.0461    -3876.084            0    9142.1361    17.044957    20.076708    20.794808    7116.1209    8274.2106     9647.593    9504.6046    412.30085   -2315.4579    175.73878   -2484.2631 
22363000    255.65619   -3881.8279   -3443.6419   -3881.8279            0    7951.1685    17.052712    20.085842    20.804269    7125.8384    4713.7899    8575.5336    10564.182     153.1523   -2088.2392    232.34007   -2617.3323 
22364000    274.38047   -3870.6074   -3400.3286   -3870.6074            0    7546.4115    17.088746    20.128285     20.84823    7171.1062    8027.5615    7775.4577    6836.2155    366.00497    1180.6556   -621.92914   -2611.1005 
22365000    263.80783   -3874.7008   -3422.5432   -3874.7008            0    6990.3735    17.131055    20.178119    20.899847    7224.5014    8173.9109    5509.2263    7287.9833    724.11389    426.22188    1038.0079   -2686.0239 
22366000    249.48895   -3867.0591   -3439.4436   -3867.0591            0    8868.8875    17.101533    20.143347    20.863831    7187.2167    11460.717     7783.759    7362.1863   -895.11937    334.51044    186.68518   -2509.8229 
22367000    240.87312   -3885.0528   -3472.2045   -3885.0528            0    7856.4299    17.081791    20.120093    20.839745     7162.354    9223.0763     6480.668    7865.5453    112.83309    687.23629   -2672.8978   -2651.5565 
22368000    247.96802    -3874.284   -3449.2753    -3874.284            0    7664.9436    17.021653    20.049259    20.766377    7086.9733    7851.7002    7025.6975    8117.4331   -497.04356    347.13443    60.142675   -2657.0555 
22369000    262.22412   -3887.1953   -3437.7521   -3887.1953            0      7523.98    17.139442    20.187998    20.910079    7235.1175    6882.1212    7697.6884    7992.1306    139.46999    638.54405    10.793081    -2643.846 
22370000    258.49229   -3898.8322   -3455.7852   -3898.8322            0    7083.8681    17.090386    20.130217    20.850231    7173.1715    4492.7257    8611.8576    8147.0211    1001.4946    1526.8059     43.76004   -2714.7181 
22371000    258.95664   -3890.6481   -3446.8053   -3890.6481            0    8032.7536    17.027838    20.056544    20.773922     7094.701    8826.6286     8379.991    6891.6412    610.20234    688.77951   -1077.8251   -2615.6648 
22372000    268.16577    -3850.597   -3390.9701    -3850.597            0    7260.8689    17.073467    20.110289     20.82959    7151.8889    7806.1108    6355.2545    7621.2416   -400.98496   -45.139637   -1552.5504   -2633.6399 
22373000    243.70074   -3852.1365   -3434.4417   -3852.1365            0    7035.3665    17.005671    20.030434    20.746879    7067.0293    7374.0614     7322.616    6409.4221   -445.01146   -32.153526   -717.69592    -2709.339 
22374000    272.66213   -3864.9569   -3397.6233   -3864.9569            0    6758.2066    17.002862    20.027125    20.743452    7063.5279    6655.6579    7312.9917    6305.9703    374.62224   -598.18633    1039.4116   -2701.4313 
22375000    257.26215   -3816.7204   -3375.7819   -3816.7204            0    8882.2376    17.045993    20.077929    20.796072    7117.4191    8151.6881    10169.909    8325.1156    138.63984    234.23877   -194.33951   -2453.8034 
22376000    262.22226   -3864.1162   -3414.6762   -3864.1162            0    7050.0645    17.057981    20.092049    20.810698    7132.4462    6187.6581     6619.515    8343.0205   -668.57256   -57.384399    1428.4382   -2681.3326 
22377000     271.3587    -3872.419   -3407.3194    -3872.419            0    8452.4128    16.968199    19.986297    20.701163    7020.4153    8154.8311     9107.817    8094.5902   -630.01401     -860.981    4.3848217   -2541.9145 
22378000    261.94696   -3866.7724   -3417.8043   -3866.7724            0    5809.2451    17.039093    20.069801    20.787654     7108.779    5155.6935    5905.2435    6366.7983    1017.4448   -378.55617    1935.6441   -2815.5351 
22379000    263.75819   -3862.4053   -3410.3328   -3862.4053            0     7595.478    17.076755    20.114161    20.833601     7156.021    8225.0545    7808.8562    6752.5234   -79.141465    1210.2201   -1508.5835   -2617.6442 
22380000    259.25042    -3911.678   -3467.3316    -3911.678            0    6959.0542    17.081392    20.119623    20.839258    7161.8521    6647.3984    6905.8075    7323.9566    299.07574    1443.2761   -513.49389   -2740.4705 
22381000    257.82824   -3892.4875   -3450.5787   -3892.4875            0    7565.9986    16.989374    20.011239    20.726997    7046.7319    7483.0443    6183.1512    9031.8003   -478.13668   -62.213511   -43.226932   -2673.0259 
22382000    263.21123   -3837.5844   -3386.4494   -3837.5844            0    7390.1374     17.14171     20.19067    20.912846    7237.9901    7164.9132    6822.5007    8182.9982    801.58951    1522.6257    854.94524   -2606.3564 
22383000    251.06159   -3825.5652   -3395.2543   -3825.5652            0     8561.497    17.031484    20.060839    20.778371      7099.26    9224.6932    8596.1059     7863.692   -328.70642   -640.33436   -146.32345    -2508.836 
22384000    264.65769   -3895.1732    -3441.559   -3895.1732            0    6887.4784    17.063119      20.0981    20.816965    7138.8926    7635.8124    6666.1163    6360.5064    1024.8278   -91.837156   -250.51496     -2724.48 
22385000    246.68683   -3908.5899   -3485.7771   -3908.5899            0    5667.0996    17.093354    20.133714    20.853853    7176.9098    6879.5547    5257.0351    4864.7091   -58.293722   -272.48695     780.4608   -2892.6139 
22386000    262.99126   -3861.2062   -3410.4482   -3861.2062            0    8435.8351    17.014606    20.040959     20.75778    7078.1749    7847.5655    9768.3124    7691.6274    575.21542    568.48077    12.532277   -2539.6345 
22387000    242.27508   -3854.2159   -3438.9647   -3854.2159            0    7091.5883    17.046002    20.077938    20.796082    7117.4295    5781.9244    7525.8519    7966.9884    332.29418    492.86217    1516.5806    -2702.855 
22388000     267.6531   -3883.1191   -3424.3709   -3883.1191            0    7584.9876    17.060245    20.094715    20.813459    7135.2854     7778.346     7259.706    7716.9108    766.12508    404.16433    1127.2754   -2635.0709 
22389000    247.71943   -3910.1992   -3485.6165   -3910.1992            0    6512.9049    17.052931      20.0861    20.804535    7126.1122    4796.1129     6754.963    7987.6388    617.90904   -1881.9628   -1030.9447   -2808.7496 
22390000    256.10337   -3874.2822   -3435.3298   -3874.2822            0    6652.6827    17.112604    20.156387    20.877337    7201.1834     6685.857    6291.3844    6980.8068    42.640674    201.23144     495.7697   -2736.6526 
22391000    268.64041   -3924.2491   -3463.8086   -3924.2491            0    8410.6151    17.053318    20.086556    20.805008    7126.5981    10242.573    7662.5317    7326.7408   -954.39665   -102.67438   -2012.4288   -2589.6587 
22392000    256.60556   -3893.7858   -3453.9726   -3893.7858            0    6973.2728    17.108314    20.151334    20.872103    7195.7694    4677.8847    7931.4215    8310.5122    -747.1563   -326.73808   -1077.2978   -2722.1771 
22393000    246.77262   -3857.2487   -3434.2889   -3857.2487            0    6165.0045     17.09911    20.140493    20.860874    7184.1617    6914.3796    5730.2795    5850.3544   -559.11242    1504.4313   -169.95542    -2788.359 
22394000       252.02   -3864.4545   -3432.5008   -3864.4545            0    6166.1394     17.05942    20.093744    20.812453    7134.2512    7637.2787    4167.2951    6693.8445    987.25485    715.90485    962.80551   -2790.9403 
22395000     276.1838   -3866.8431   -3393.4735   -3866.8431            0    8173.3153    17.034249    20.064095    20.781744    7102.7181    6906.0913    7495.0723    10118.782   -1450.9395   -163.89345   -208.84338   -2546.8337 
22396000    260.59282   -3883.6703   -3437.0231   -3883.6703            0    6533.1394    17.020955    20.048436    20.765525    7086.1008    5717.3103    6716.4469    7165.6608    121.50747   -666.12122   -1032.5668   -2761.8655 
22397000    250.48261   -3891.4188   -3462.1002   -3891.4188            0    6431.8403    17.028373    20.057174    20.774575    7095.3701    7380.1631    6891.8268     5023.531    404.17377   -1303.5902   -1504.9377   -2796.5418 
22398000    254.25923   -3921.3221   -3485.5305   -3921.3221            0    7271.5262     17.03821    20.068761    20.786577    7107.6741    6364.9078    8284.7678     7164.903   -138.29051    274.59875   -1507.9456   -2731.7776 
22399000    279.18103   -3866.6544   -3388.1476   -3866.6544            0     7286.825    17.050054    20.082711    20.801026    7122.5063    8222.2609    7329.8302    6308.3838    404.04512   -133.34106    481.84212   -2631.2327 
22400000    256.59946   -3892.7575   -3452.9548   -3892.7575            0    6598.7532    17.080618    20.118712    20.838314    7160.8786    7612.8416     4654.048      7529.37   -27.614628    -1091.944    941.40869   -2763.8201 
22401000    273.00978   -3882.3881   -3414.4586   -3882.3881            0    7010.8366    17.064991    20.100305    20.819249    7141.2425    5182.4131    5890.7306     9959.366   -1251.8187    383.31759   -1134.6149   -2684.2962 
22402000    257.51027   -3878.4759   -3437.1121   -3878.4759            0    8392.9301    17.046522    20.078551    20.796717    7118.0811    6252.6671    8063.7979    10862.325    1352.9708   -252.38862    1277.3892   -2565.8428 
22403000    275.16892   -3869.7899   -3398.1598   -3869.7899            0    6325.8401    17.054187    20.087579    20.806068     7127.687    5910.7992    4456.4586    8610.2624   -196.17824    1231.1573   -553.36832   -2740.5887 
22404000    250.22154   -3866.5777   -3437.7066   -3866.5777            0    7579.4166    17.067071    20.102755    20.821787     7143.854    9901.8934    7942.6912    4893.6652    783.32141   -628.15757   -589.17785   -2648.0391 
22405000    259.49278   -3841.6227   -3396.8609   -3841.6227            0    8811.2364    17.041429    20.072552    20.790503    7111.7028    5977.1636    9997.2379    10459.308   -358.63162   -262.17797    854.88744   -2482.9869 
22406000    246.93568    -3883.928   -3460.6887    -3883.928            0    6834.9746     17.13046    20.177419    20.899121    7223.7494    8408.8859     6908.068    5187.9699   -957.41839    451.05527   -231.31639   -2740.6174 
22407000    249.32879   -3836.5328   -3409.1918   -3836.5328            0    7968.7025    17.057031    20.090929    20.809538    7131.2537    6790.0702    8535.3661    8580.6712    595.21357   -1686.5486   -297.30532   -2580.4306 
22408000    259.12078   -3862.2888   -3418.1646   -3862.2888            0    9284.7753    16.974226    19.993396    20.708516    7027.8994    9117.4156     9684.171    9052.7395   -108.58025   -1539.9428    2.8295008   -2466.5243 
22409000    249.19471   -3870.8719   -3443.7607   -3870.8719            0    7262.2674    17.099427    20.140866    20.861261    7184.5613    8668.7136    8871.4273    4246.6614   -292.64188    65.064098    502.33645   -2682.8242 
22410000    291.59644    -3888.585   -3388.7987    -3888.585            0    7598.4517    17.021897    20.049546    20.766674    7087.2777     7491.171    7615.3258    7688.8584   -114.98174   -149.45671   -610.06281   -2603.4176 
22411000    263.61882   -3897.7882   -3445.9545   -3897.7882            0    7094.6627     16.98663    20.008007    20.723649    7043.3178    6465.6853    8563.0611    6255.2418    422.71211   -18.671729    1124.1191   -2717.1938 
22412000    256.72873   -3908.4609   -3468.4366   -3908.4609            0    6067.6385    17.110326    20.153704    20.874558    7198.3086    5838.6692    6546.6864      5817.56   -117.85196   -312.81257   -706.21335   -2831.4562 
22413000    255.49679   -3888.8882   -3450.9754   -3888.8882            0    9408.4539    17.056739    20.090585    20.809181    7130.8874     8180.306    11088.197    8956.8583    615.79249   -714.88851   -745.77037   -2472.5275 
22414000     264.6711   -3916.9049   -3463.2677   -3916.9049            0    8644.8079    17.071348    20.107793    20.827005    7149.2263    11135.352    8026.6657    6772.4061    717.93512    676.00172   -267.80522   -2561.9243 
22415000    251.32295   -3902.2563   -3471.4974   -3902.2563            0    6429.3624    17.092714     20.13296    20.853072    7176.1035    7041.0777    4695.5377    7551.4718    830.08264    -849.8875    378.94673   -2798.6253 
22416000    265.10175   -3898.7912   -3444.4159   -3898.7912            0    6375.6114    17.094878    20.135508    20.855711    7178.8291    6842.8751    6609.6048    5674.3545   -2308.7311    854.28291    1341.3458   -2776.9158 
22417000    246.19075   -3908.1199   -3486.1574   -3908.1199            0    7147.5634    17.110157    20.153505    20.874352    7198.0955    5199.0837    8495.5251    7748.0814    261.92731   -669.90188    598.43543   -2735.8288 
22418000    271.12687   -3883.2862    -3418.584   -3883.2862            0    6904.5763    17.113076    20.156944    20.877913    7201.7802    7005.0714    5770.3842    7938.2732   -575.28439   -881.43077    1469.3533   -2693.3924 
22419000     278.1284   -3894.5332   -3417.8306   -3894.5332            0    7366.6826      17.0526    20.085711    20.804133    7125.6982    5323.7641    7581.4895     9194.794    149.56234    289.28798   -971.14271   -2652.2776 
22420000    286.09782   -3915.3343   -3424.9724   -3915.3343            0    8431.1705    17.046031    20.077973    20.796118    7117.4665    9586.4039    7544.3335     8162.774    268.09046    333.52727   -143.45834   -2549.8089 
22421000    260.39434   -3901.1087   -3454.8017   -3901.1087            0    9431.7278    17.065105    20.100439    20.819388    7141.3851    8272.8408    9285.8192    10736.523   -1402.4966    631.72191   -320.41089   -2472.4894 
22422000    251.07436   -3899.9841   -3469.6512   -3899.9841            0    6328.8755    17.132063    20.179307    20.901077    7225.7772    6323.4586     6060.878    6602.2898    320.63139    -469.3613   -570.29635   -2802.7109 
22423000    262.36406   -3918.6141   -3468.9311   -3918.6141            0    7965.2012    17.039017    20.069712    20.787561    7108.6842    10788.887    7127.1797    5979.5367    146.52081   -163.15384   -1155.4074   -2643.1558 
22424000    255.53784   -3911.9728   -3473.9897   -3911.9728            0    6565.4559    17.080439    20.118501    20.838096    7160.6537    6832.8471    6115.2462    6748.2743   -771.03351    522.75223   -895.97397    -2788.354 
22425000    266.36531   -3888.6025   -3432.0615   -3888.6025            0    7297.8733    17.093219    20.133555    20.853688    7176.7395    7122.6042    7912.5275    6858.4881    1263.6593     1309.708    1137.6729   -2668.2268 
22426000    260.43029   -3895.4756    -3449.107   -3895.4756            0    9967.7132    16.964513    19.981955    20.696666    7015.8414    9873.2887    9520.5042    10509.347   -238.01962    353.80603    44.394334   -2429.2221 
22427000    273.54157   -3886.8287   -3417.9878   -3886.8287            0    7592.2575    17.092286    20.132455    20.852549    7175.5639    8183.0268    7447.1052    7146.6404   -253.77117   -140.91553    922.89322   -2623.4714 
22428000    267.17342    -3873.268   -3415.3419    -3873.268            0    5778.3851    17.107362    20.150212    20.870941    7194.5678    6567.9469    5363.3999    5403.8086   -1118.5879    220.60577    1129.4139   -2809.0426 
22429000    255.88696   -3871.6368   -3433.0553   -3871.6368            0    5713.7786    17.111043    20.154549    20.875433    7199.2138    5301.1526    6332.4241    5507.7591    242.52435     1.855972    61.740654   -2833.1477 
22430000    258.27472   -3872.4288   -3429.7548   -3872.4288            0    5642.3511    17.121826    20.167249    20.888587    7212.8316    6444.8226     5235.008    5247.2227   -725.99249   -15.962099   -586.37392    -2836.226 
22431000    270.39392   -3877.2439    -3413.798   -3877.2439            0      8356.91    17.086653     20.12582    20.845676    7168.4716    8676.2997    9214.8759    7179.5545    1317.3111    2182.4573   -488.88881   -2540.1265 
22432000     275.1242   -3829.6649   -3358.1114   -3829.6649            0    9925.5334    16.995111    20.017996    20.733996    7053.8724    11265.637    8698.4725    9812.4908    268.76831    1185.6246    1247.3392   -2337.0371 
22433000    251.07212   -3846.4034   -3416.0744   -3846.4034            0    6602.1584    17.086167    20.125248    20.845084    7167.8607     6064.818    7258.4918    6483.1655   -219.95097    -189.8271   -1609.9076   -2725.9119 
22434000    258.87136   -3863.1982   -3419.5016   -3863.1982            0    7363.7197     17.06905    20.105086    20.824201    7146.3389    8813.7116    6586.8597     6690.588    349.61431   -332.70617    1615.7397   -2652.0398 
22435000    262.26747   -3842.9239   -3393.4064   -3842.9239            0    7322.3663    17.059561    20.093909    20.812624    7134.4274    7081.4033    6945.0244    7940.6711   -826.87576   -170.47159   -1187.9279   -2631.5266 
22436000    267.95464   -3848.5948   -3389.3297   -3848.5948            0     9328.184    17.107652    20.150554    20.871295    7194.9339    9629.5624    9193.0556    9161.9342   -1374.3361    -1591.093    666.78836   -2410.5165 
22437000    256.22406   -3865.8259   -3426.6666   -3865.8259            0    7300.7884    17.046663    20.078717    20.796889    7118.2578    7825.9886    6385.1497    7691.2268    681.44442    143.09341    -1608.821   -2668.7536 
22438000    264.72166   -3843.0936   -3389.3697   -3843.0936            0    8595.5356    17.080997    20.119159    20.838777    7161.3561    8438.0313    8207.3696     9141.206   -546.93458    530.31496   -829.11724   -2491.6431 
22439000    257.73757   -3868.4647   -3426.7114   -3868.4647            0    7937.0489    17.008251    20.033473    20.750026    7070.2465    8035.4601    8298.2722    7477.4142   -543.80939     104.8829    -319.6763   -2608.3041 
22440000    263.23863   -3795.0704   -3343.8884   -3795.0704            0    8338.2369    17.015343    20.041826    20.758678    7079.0941    7022.9157    7273.6962    10718.099   -1027.2826   -881.96983    77.392107   -2483.0377 
22441000      257.605   -3829.5367   -3388.0106   -3829.5367            0    8412.2263    17.001507     20.02553    20.741799    7061.8401    7985.0928     9693.795    7557.7909   -735.58351   -295.43107    1272.8572    -2521.638 
22442000    258.64664    -3816.916   -3373.6045    -3816.916            0    9199.0225    16.957231    19.973378    20.687782    7006.8108    8199.3521    9749.2729    9648.4424   -594.19679    140.34648   -232.14735   -2433.5826 
22443000    255.93037    -3842.861   -3404.2051    -3842.861            0    7813.9348    17.123947    20.169748    20.891176    7215.5135    7971.9463     9058.638      6411.22    403.83657   -1123.1997    817.34968    -2581.938 
22444000    268.79981      -3846.1   -3385.3863      -3846.1            0    7679.0677    17.050201    20.082884    20.801205    7122.6904    7482.4085    7614.3745    7940.4201    2414.6263   -402.07905   -159.53241   -2587.7067 
22445000    250.43655   -3846.4838   -3417.2441   -3846.4838            0    7566.0289    17.107135    20.149946    20.870665    7194.2821    7493.7976    6707.5685    8496.7206    23.022006   -1090.9208    1186.9161   -2623.4071 
22446000    263.04941   -3848.7817    -3397.924   -3848.7817            0    5295.1378    17.115523    20.159826    20.880898    7204.8698    4389.7835    5193.6364    6301.9936    1126.5921   -1699.8033    -714.3837    -2841.534 
22447000    261.44518   -3852.1749   -3404.0668   -3852.1749            0    8786.2738    16.992141    20.014497    20.730372    7050.1744    8338.4215     8019.418    10000.982    499.74304   -208.33779   -493.02612    -2500.666 
22448000    262.34528   -3862.6031   -3412.9523   -3862.6031            0    9503.6945    16.991046    20.013207    20.729036    7048.8118    8062.6391     10150.89    10297.555    180.03035    120.92577    2797.6678   -2435.9755 
22449000    274.39025   -3888.7181   -3418.4226   -3888.7181            0    7490.7094    17.058468    20.092622    20.811291    7133.0564    6610.3396    8016.0512    7845.7374   -554.32861   -525.00808   -1309.8538   -2639.1768 
22450000    256.68702   -3865.4654   -3425.5126   -3865.4654            0    7969.5848    17.039046    20.069746    20.787597    7108.7207    8354.8908    7623.1115    7930.7522    437.41776    469.81364    520.64923   -2599.2787 
22451000    249.53996     -3841.83   -3414.1271     -3841.83            0    6876.3278    17.116746    20.161266     20.88239    7206.4142    8169.5036     5134.128    7325.3518   -549.58173    46.601348   -532.14441   -2691.4377 
22452000    261.74234   -3850.4614    -3401.844   -3850.4614            0    5822.8008    17.090282    20.130095    20.850104    7173.0403    4072.3295    7333.4702    6062.6025    1251.8332   -2204.4771   -438.12565   -2792.7125 
22453000    253.26588   -3887.4766   -3453.3876   -3887.4766            0    8059.7022    17.017379    20.044224    20.761162    7081.6356    6984.2525    9637.0355    7557.8187     581.3103   -854.32107   -250.24673   -2620.9945 
22454000    256.21856    -3890.015   -3450.8652    -3890.015            0    9678.9212    16.967962    19.986018    20.700874    7020.1219    9374.9346    9774.1983    9887.6307   -703.59147    344.37099   -19.974837   -2459.9249 
22455000    253.16779   -3911.5085   -3477.5876   -3911.5085            0    6638.6017    17.088554    20.128059    20.847996    7170.8648    7236.9601    6448.8215    6230.0236   -1178.1827    1035.8228    274.24789   -2783.3245 
22456000    265.19724   -3907.8269   -3453.2879   -3907.8269            0    9794.2712    16.964902    19.982414    20.697141    7016.3247    7975.6268    9091.6195    12315.567    -554.4483    1067.0521    754.01568   -2451.0803 
22457000     257.5196   -3890.6391   -3449.2593   -3890.6391            0    7244.7683    17.106159    20.148796    20.869474    7193.0505    7520.5838    7352.7663    6860.9547    1643.8993    127.54101     1152.231   -2689.2594 
22458000    256.22512   -3851.3157   -3412.1546   -3851.3157            0    7200.3703    17.053664    20.086964    20.805431    7127.0322    5484.8796    8215.1132    7901.1179    300.78568   -1208.6358    829.36232   -2663.7449 
22459000    265.92505   -3877.0528   -3421.2663   -3877.0528            0    8752.0841     17.03822    20.068773    20.786589    7107.6867    7410.5374    9776.0468    9069.6682   -1515.6626    927.28052    868.52716     -2514.04 
22460000    258.17611   -3866.8433   -3424.3383   -3866.8433            0    6499.2595    17.132193     20.17946    20.901235    7225.9419    7813.8639    5323.6769    6360.2376    400.90997   -182.46275   -148.45298   -2739.4272 
22461000    251.11048   -3846.3525   -3415.9578   -3846.3525            0    7600.2027    17.073885    20.110782      20.8301    7152.4144    8294.9869    6578.9522     7926.669    1160.8387   -727.08793     434.6857   -2623.1758 
22462000    265.85888    -3844.554    -3388.881    -3844.554            0    7758.8646    17.015907     20.04249    20.759366    7079.7981    7610.5622    8362.1128    7303.9187   -1639.2853   -460.81084   -483.19605   -2587.7658 
22463000    278.67006   -3840.6744   -3363.0434   -3840.6744            0      7821.12    17.056039    20.089762    20.808328    7130.0105    8263.8439    7336.8994    7862.6169   -93.944602    828.74889    1415.5301   -2549.7729 
22464000    261.29709   -3858.2667   -3410.4125   -3858.2667            0    5853.3451    17.072958     20.10969    20.828969    7151.2495    7239.0574    5869.8561    4451.1219   -837.12462   -1099.2678   -176.96584   -2799.9458 
22465000    246.65151   -3865.5189   -3442.7666   -3865.5189            0    6429.3746    17.020046    20.047366    20.764417    7084.9663    6333.2542    6400.0278    6554.8418   -274.00515   -1196.6551    2234.2914   -2778.4388 
22466000    249.11014   -3832.1468   -3405.1806   -3832.1468            0    7351.1423    17.049942     20.08258     20.80089    7122.3668    8360.8915     6281.635    7410.9003    267.25234   -829.75686    -1164.871   -2641.5997 
22467000     252.3616   -3865.5165   -3432.9773   -3865.5165            0    7968.4662    17.053577    20.086861    20.805324    7126.9225    7193.3658    7793.1755    8918.8574    1963.0174   -964.73526   -2218.1894   -2604.7441 
22468000    252.43492    -3834.317   -3401.6522    -3834.317            0    8170.0833    17.037564       20.068    20.785788    7106.8652     7517.352    8067.0668    8925.8312    755.54327    305.25429   -353.67922   -2554.8529 
22469000    274.40032   -3880.4737    -3410.161   -3880.4737            0    7246.5252     17.09379    20.134227    20.854384    7177.4582    8091.7303    5741.8509    7905.9944   -888.65071   -73.100201    313.75724   -2651.6247 
22470000    254.89862   -3891.6615    -3454.774   -3891.6615            0    9418.4523    16.972227    19.991042    20.706077    7025.4168    8376.6407    9516.6198    10362.096    -224.9572    761.75726   -115.12316   -2489.7735 
22471000    262.16715   -3871.8001   -3422.4546   -3871.8001            0     6722.691    17.048536    20.080924    20.799174    7120.6046    7513.7818    4939.2011    7715.0902    392.16169    285.57502   -2404.3898   -2724.3252 
22472000    256.70253   -3889.9819   -3450.0025   -3889.9819            0    7777.7557     17.08181    20.120116    20.839769    7162.3787    8408.6978    7682.0925    7242.4769   -625.35217   -894.84419    852.62006   -2637.5697 
22473000    256.75616   -3873.4258   -3433.3545   -3873.4258            0    8128.7303    17.088948    20.128523    20.848476    7171.3606     7678.379    8401.3337    8306.4784     1086.135   -818.55734   -209.01176   -2583.1955 
22474000    251.23545   -3847.6444   -3417.0355   -3847.6444            0    8402.5496    17.096394    20.137294    20.857561    7180.7396    9869.9927    8017.9312    7319.7249   -655.16545    461.70374    237.69225   -2537.0892 
22475000     262.5682   -3863.3964   -3413.3635   -3863.3964            0    8920.1371    17.021297    20.048839    20.765942    7086.5283    11025.733    7389.9126    8344.7655    473.84578   -119.11797   -149.45216   -2491.4696 
22476000    266.74455   -3874.5168   -3417.3258   -3874.5168            0    6798.8161    17.126541    20.172802    20.894339     7218.792    4881.5672    7426.7387    8088.1426    96.447674   -649.08763   -911.38382   -2701.5554 
22477000    279.24274    -3836.232   -3357.6195    -3836.232            0    7040.0287    17.051911    20.084899    20.803291    7124.8341    6977.8678    5875.3966    8266.8217    1228.2537   -78.053386   -12.358047   -2626.1014 
22478000    271.85188   -3863.7303   -3397.7854   -3863.7303            0    9184.7584    17.006624    20.031556    20.748041    7068.2174    8562.4272    10752.074     8239.774    1192.1053   -1156.0621   -608.27129   -2450.9957 
22479000    268.11535   -3877.9194   -3418.3789   -3877.9194            0    7231.1111    17.121461     20.16682    20.888143     7212.371     8840.047    5168.8472     7684.439    566.23414    -233.0056   -1141.1642   -2657.7742 
22480000    272.24056   -3840.4029   -3373.7918   -3840.4029            0    5900.4047     17.10602    20.148633    20.869305    7192.8756     6879.159    4639.2434    6182.8116     108.0671   -833.15536     627.4426   -2754.8352 
22481000    262.18072   -3865.1386   -3415.7698   -3865.1386            0    7066.9012    17.071375    20.107825    20.827038    7149.2606    6494.4989    7039.0136    7667.1911   -94.930992   -1756.1963    534.98904    -2678.942 
22482000    261.24044   -3859.7916   -3412.0344   -3859.7916            0    7883.3248    16.978304    19.998199    20.713491    7032.9658    9145.6517    6744.9413    7759.3813    146.05126   -1510.5318   -139.36691   -2603.4529 
22483000    257.74341   -3866.1534     -3424.39   -3866.1534            0    8046.4839    17.025279    20.053529      20.7708    7091.5028    8847.6912    6722.3563    8569.4042   -1347.6495    218.06228     452.4726   -2592.2042 
22484000    261.76851   -3841.6214   -3392.9591   -3841.6214            0    6747.6857    17.091173    20.131145    20.851192    7174.1629    7056.4308    4807.4403     8379.186    0.8889205    476.25839   -104.51901   -2686.9635 
22485000    255.03784   -3880.8148   -3443.6887   -3880.8148            0    7327.3212    17.018039    20.045002    20.761968    7082.4598    5394.8916     6327.073    10259.999   -1859.1604    1064.0639    515.69494   -2686.8466 
22486000    247.02843   -3830.8389   -3407.4406   -3830.8389            0    8401.3949    16.988265    20.009932    20.725644    7045.3517    7429.4139    10299.359    7475.4121   -1562.5228   -1084.3723    258.22297   -2544.2038 
22487000    267.91465   -3854.2911   -3395.0946   -3854.2911            0    8360.1261    16.973392    19.992414    20.707499    7026.8639    8969.5401     8925.002    7185.8362   -290.68252   -1513.4008    1236.9703   -2538.3522 
22488000    256.31734   -3839.5043   -3400.1851   -3839.5043            0    5974.9126    17.094254    20.134773    20.854949    7178.0423    6757.4467    5190.9876    5976.3035   -415.39144   -429.97184    -223.9432   -2774.7051 
22489000    259.51713   -3859.9383   -3415.1348   -3859.9383            0     7184.707    17.009742    20.035229    20.751845    7072.1059     7849.653    8099.5843    5604.8839   -2703.1588    -208.5967   -188.63481   -2674.1084 
22490000    254.65493   -3843.7049   -3407.2351   -3843.7049            0    6875.2025    17.023012     20.05086    20.768035    7088.6708    8673.5796     7105.371    4846.6568    777.73124   -1495.1101    1398.5748   -2696.4698 
22491000    254.29405   -3895.9203    -3460.069   -3895.9203            0    5886.0492    17.064961     20.10027    20.819213    7141.2052    4735.6941    7359.9123    5562.5411    107.97151   -1560.9597    1366.3671   -2847.0538 
22492000    264.73202   -3882.8346   -3429.0929   -3882.8346            0    5349.7547    17.097347    20.138417    20.858724    7181.9404    5781.2239    5475.0319    4793.0084    627.61949    -698.7307    165.82688    -2868.753 
22493000     266.6332   -3847.4743   -3390.4741   -3847.4743            0    7913.9342    17.050402    20.083122    20.801451    7122.9431    7765.6581    7965.8989    8010.2454    115.20895   -1732.5459    -278.0675   -2568.3682 
22494000    258.13043   -3845.6776   -3403.2509   -3845.6776            0     7504.693    17.065179    20.100526    20.819478    7141.4781    8177.8207    7220.9548    7115.3035   -601.79056   -1224.9822   -769.46801   -2621.6286 
22495000    276.34376   -3862.6887   -3389.0449   -3862.6887            0    6942.5271    17.097539    20.138642    20.858957    7182.1815    6582.2839    6079.4222    8165.8751   -1071.1906   -1322.2082    295.48508   -2661.8517 
22496000    256.23881    -3853.332   -3414.1474    -3853.332            0    8183.5304     17.03757    20.068007    20.785796    7106.8734    8472.6078     7460.586    8617.3975   -471.46696   -371.15233    1211.9181   -2565.9535 
22497000    264.30858   -3891.2721   -3438.2562   -3891.2721            0    7733.1933    16.989133    20.010954    20.726702    7046.4314    7573.1676    7878.3931    7748.0192   -561.60515   -1423.7089   0.40932336   -2643.5548 
22498000    268.81251   -3838.6415   -3377.9061   -3838.6415            0    7342.1406    17.039267    20.070006    20.787866    7108.9969     8372.188    7613.6087    6040.6252   -184.56648   -1266.8685   -652.04444   -2616.6919 
22499000    265.71292   -3887.0273   -3431.6044   -3887.0273            0    7064.8531    17.015498    20.042009    20.758868    7079.2884    9117.5247    8275.7062    3801.3284     891.0063    912.56337    1617.5268   -2702.1996 
22500000     271.9493   -3833.0947   -3366.9829   -3833.0947            0    8100.3615    17.009695    20.035174    20.751788    7072.0475    8897.7447    7792.5662    7610.7735   -60.151452   -2094.5121    254.70488   -2531.5233 
Loop time of 382.859 on 64 procs for 250000 steps with 864 atoms

Performance: 112.835 ns/day, 0.213 hours/ns, 652.981 timesteps/s
193.6% CPU use with 32 MPI tasks x 2 OpenMP threads

MPI task timing breakdown:
Section |  min time  |  avg time  |  max time  |%varavg| %total
---------------------------------------------------------------
Pair    | 25.733     | 33.415     | 41.551     |  61.2 |  8.73
Bond    | 0.92638    | 1.1638     | 1.7716     |  20.0 |  0.30
Kspace  | 167.88     | 177.13     | 184.97     |  29.8 | 46.26
Neigh   | 3.9882     | 4.3981     | 4.7366     |  10.7 |  1.15
Comm    | 76.436     | 80.591     | 85.084     |  22.6 | 21.05
Output  | 0.51852    | 0.51879    | 0.52047    |   0.0 |  0.14
Modify  | 71.796     | 74.616     | 77.092     |  14.7 | 19.49
Other   |            | 11.03      |            |       |  2.88

Nlocal:        27.0000 ave          33 max          20 min
Histogram: 1 2 2 5 3 3 11 3 0 2
Nghost:        2602.41 ave        2642 max        2577 min
Histogram: 4 8 3 0 4 4 4 3 0 2
Neighs:        8725.94 ave       10542 max        5837 min
Histogram: 1 1 2 1 5 8 2 2 4 6

Total # of neighbors = 279230
Ave neighs/atom = 323.18287
Ave special neighs/atom = 2.0000000
Neighbor list builds = 14118
Dangerous builds = 1

unfix		3
unfix		2
unfix		1

write_data	data.final.${pid}
write_data	data.final.1
System init for write_data ...
PPPM initialization ...
  extracting TIP4P info from pair style
  using 12-bit tables for long-range coulomb (../kspace.cpp:340)
  G vector (1/distance) = 0.37409305
  grid = 24 24 24
  stencil order = 5
  estimated absolute RMS force accuracy = 0.0031802867
  estimated relative force accuracy = 9.5773389e-06
  using double precision FFTW3
  3d grid and FFT values/proc = 3549 432
Last active /omp style is kspace_style pppm/tip4p/omp
WARNING: Not all mixed pair coeffs generated from mixing. Use write_data with 'pair ij' option to store all pair coeffs. (../write_data.cpp:312)

write_restart   restart.lmp.${pid}
write_restart   restart.lmp.1
System init for write_restart ...
PPPM initialization ...
  extracting TIP4P info from pair style
  using 12-bit tables for long-range coulomb (../kspace.cpp:340)
  G vector (1/distance) = 0.37409305
  grid = 24 24 24
  stencil order = 5
  estimated absolute RMS force accuracy = 0.0031802867
  estimated relative force accuracy = 9.5773389e-06
  using double precision FFTW3
  3d grid and FFT values/proc = 3549 432
Last active /omp style is kspace_style pppm/tip4p/omp
Total wall time: 0:06:23
