LAMMPS (30 Jul 2021)
Processor partition = 0
  using 2 OpenMP thread(s) per MPI task
using multi-threaded neighbor list subroutines
variable        pid world 0 1
variable        phase world IceIII Liquid

shell cd ${phase}
shell cd IceIII
include Restart.lmp
echo both
log log.lammps
#include		in.partitions
include		in.temp
variable        temperature equal 253.24
variable	tempDamp equal 100.0
include		in.pressure
variable        pressure equal 1375.0
variable        pressureDamp equal 1000.0 # This is 1 ps
include		in.seed
variable        seed equal 745823

units		real
atom_style	full

read_restart	restart.lmp.${pid}
read_restart	restart.lmp.0
Reading restart file ...
  restart file = 30 Jul 2021, LAMMPS = 30 Jul 2021
  restoring atom style full from restart
  orthogonal box = (-0.14054097 -0.10571119 -0.12054221) to (20.140542 20.105712 20.820540)
  4 by 2 by 4 MPI processor grid
  restoring pair style lj/cut/tip4p/long/omp from restart
  restoring bond style harmonic/omp from restart
  restoring angle style harmonic/omp from restart
  972 atoms
  648 bonds
  324 angles
Finding 1-2 1-3 1-4 neighbors ...
  special bond factors lj:    0        0        0       
  special bond factors coul:  0        0        0       
     2 = max # of 1-2 neighbors
     1 = max # of 1-3 neighbors
     1 = max # of 1-4 neighbors
     2 = max # of special neighbors
  special bonds CPU = 0.002 seconds
  read_restart CPU = 0.008 seconds
include 	in.setup
variable	out_freq equal 1000
variable	out_freq2 equal 10000
variable	out_freq3 equal 1000

timestep	2.0

neigh_modify    delay 7 every 1

include		in.tip4p
# This is TIP4P/Ice

# create groups ###
group ox type 2
324 atoms in group ox
group hy type 1
648 atoms in group hy

# set charges - beside manually ###
set group ox charge -1.1794
Setting atom values ...
  324 settings made for charge
set group hy charge 0.5897
Setting atom values ...
  648 settings made for charge

# ### TIP3P Potential Parameters ###
pair_style lj/cut/tip4p/long/omp 2 1 1 1 0.1577 8.5
pair_coeff 1 1*2 0.000 0.000
pair_coeff 2 2 0.21084 3.1668
bond_style  harmonic
bond_coeff  1 450 0.9572
angle_style harmonic
angle_coeff 1 55 104.52
kspace_style pppm/tip4p/omp 1.0e-5
pair_modify tail yes

thermo          ${out_freq}
thermo          1000
thermo_style    custom step temp pe etotal epair emol press lx ly lz vol pxx pyy pzz pxy pxz pyz enthalpy

restart 	${out_freq3} restart.lmp.${pid} restart2.lmp.${pid}
restart 	1000 restart.lmp.${pid} restart2.lmp.${pid}
restart 	1000 restart.lmp.0 restart2.lmp.${pid}
restart 	1000 restart.lmp.0 restart2.lmp.0


include         in.dump
dump            myDump all atom ${out_freq2} dump.water.${pid}
dump            myDump all atom 10000 dump.water.${pid}
dump            myDump all atom 10000 dump.water.0
dump            myDump2 all dcd ${out_freq2} dump.dcd
dump            myDump2 all dcd 10000 dump.dcd
dump_modify     myDump append yes
dump_modify     myDump2 append yes


variable natoms 	equal  "count(all)"                        # NUMBER ATOMS
variable H      	equal  "enthalpy/v_natoms"                 # ENTHALPY-per-atom
variable Vol      	equal  "vol/v_natoms"                 # volume-per-atom
fix AVG all 		ave/time ${out_freq} 1 ${out_freq} v_Vol v_H file vol_enthalpy.dat
fix AVG all 		ave/time 1000 1 ${out_freq} v_Vol v_H file vol_enthalpy.dat
fix AVG all 		ave/time 1000 1 1000 v_Vol v_H file vol_enthalpy.dat


timer           timeout 02:55:00 every 1000
New timer settings: style=normal  mode=nosync  timeout=02:55:00

fix 		1 all shake 1e-6 200 0 b 1 a 1
Finding SHAKE clusters ...
       0 = # of size 2 clusters
       0 = # of size 3 clusters
       0 = # of size 4 clusters
     324 = # of frozen angles
  find clusters CPU = 0.000 seconds
fix             2 all nph aniso ${pressure} ${pressure} ${pressureDamp}
fix             2 all nph aniso 1375 ${pressure} ${pressureDamp}
fix             2 all nph aniso 1375 1375 ${pressureDamp}
fix             2 all nph aniso 1375 1375 1000
fix             3 all temp/csvr ${temperature} ${temperature} ${tempDamp} ${seed}
fix             3 all temp/csvr 253.24 ${temperature} ${tempDamp} ${seed}
fix             3 all temp/csvr 253.24 253.24 ${tempDamp} ${seed}
fix             3 all temp/csvr 253.24 253.24 100 ${seed}
fix             3 all temp/csvr 253.24 253.24 100 745823


run             250000
PPPM initialization ...
  extracting TIP4P info from pair style
  using 12-bit tables for long-range coulomb (../kspace.cpp:340)
  G vector (1/distance) = 0.37151796
  grid = 24 24 25
  stencil order = 5
  estimated absolute RMS force accuracy = 0.0035186102
  estimated relative force accuracy = 1.059619e-05
  using double precision FFTW3
  3d grid and FFT values/proc = 3458 576
Last active /omp style is kspace_style pppm/tip4p/omp
Neighbor list info ...
  update every 1 steps, delay 7 steps, check yes
  max neighbors/atom: 2000, page size: 100000
  master list distance cutoff = 10.8154
  ghost atom cutoff = 10.8154
  binsize = 5.4077, bins = 4 4 4
  1 neighbor lists, perpetual/occasional/extra = 1 0 0
  (1) pair lj/cut/tip4p/long/omp, perpetual
      attributes: half, newton on, omp
      pair build: half/bin/newton/omp
      stencil: half/bin/3d
      bin: standard
Setting up Verlet run ...
  Unit style    : real
  Current step  : 2500000
  Time step     : 2
  Walltime left : 2:54:59.93
Per MPI rank memory allocation (min/avg/max) = 10.19 | 10.19 | 10.20 Mbytes
Step Temp PotEng TotEng E_pair E_mol Press Lx Ly Lz Volume Pxx Pyy Pzz Pxy Pxz Pyz Enthalpy 
 2500000    269.00718   -4684.2708   -4165.4678   -4684.2708            0    947.24542    20.281083    20.211423    20.941082    8583.9498   -563.82925    1597.0428    1808.5227    450.60402    418.83287    929.51589    -4046.884 
 2501000    258.05226   -4714.6299   -4216.9544   -4714.6299            0    1860.1652    20.069512    20.264374    20.835466    8473.7027    814.24437    2786.2744    1979.9768   -341.74652   -663.88972   -629.03174   -3987.0747 
 2502000    248.98138   -4689.5415     -4209.36   -4689.5415            0     2932.616    20.170094    20.138323    20.961848    8514.5324    4025.5594     1569.566    3202.7226   -852.47468    -860.5382   -878.47222   -3845.2003 
 2503000    261.62915   -4721.4023   -4216.8285   -4721.4023            0    1263.7789    20.270876    19.942899    21.245935    8588.8823    821.37796    2009.7785    960.18008    124.55327    -500.7972   -1573.9302   -4058.5275 
 2504000    250.98209   -4730.6466   -4246.6065   -4730.6466            0    241.75891    20.162619    20.154944    21.141509    8591.4116    2045.8546   -1792.3552    471.77734   -173.80401   -323.34833   -91.611906   -4216.3149 
 2505000    251.21354   -4687.4721   -4202.9857   -4687.4721            0    1501.9572    20.288627     19.86396    21.291214    8580.6249   -555.61691    3045.2475    2016.2412   -144.03541   -869.38553    953.54342   -4015.0313 
 2506000    254.79126   -4678.5248   -4187.1385   -4678.5248            0    3321.2799    20.273114     19.82537    21.058141    8463.7298    2677.1574    4745.6279    2541.0544    -294.0167   -1753.2836   -1712.3396   -3777.1769 
 2507000    246.41684   -4676.7509   -4201.5153   -4676.7509            0    1613.3267    20.193184    20.182938     21.13512    8613.7825    3311.1126   -844.44818    2373.3156    1006.2503    81.639958    284.72239   -3998.8441 
 2508000    256.28176   -4694.2453   -4199.9844   -4694.2453            0    898.54997    20.031277    20.217875    21.269635    8613.9864    2359.6236   -319.55822     655.5845   -243.20135    594.88099   -162.23744    -4087.103 
 2509000     277.5558   -4708.2961   -4173.0064   -4708.2961            0    1305.1282    20.335307    20.031155    21.284581    8670.0546    783.22119    1486.4723     1645.691    -180.3366    1415.0211    527.81247    -4007.981 
 2510000    251.76639   -4677.6909   -4192.1383   -4677.6909            0    1602.4312    20.316556    20.004634    21.047053    8554.0539    269.14856     2994.135    1544.0099   -40.146156   -30.482695    272.30176   -3992.2316 
 2511000    256.85259   -4711.8037   -4216.4419   -4711.8037            0    1474.4682      20.2046    20.131622    21.105941    8584.8703    652.43349    2954.0205     816.9505    262.71577    470.45479    828.50639   -4031.8363 
 2512000    258.52524   -4659.1271   -4160.5394   -4659.1271            0    165.08442    20.086457    20.310276    21.127152    8619.0641   -215.78522    634.10089    76.937596    161.51044   -837.44325   -2062.7198   -4139.7883 
 2513000    262.43348   -4672.0009   -4165.8758   -4672.0009            0    1897.5605    20.089929    20.040432    21.330232    8587.7828     3079.474    1744.0709     869.1366   -117.71189   -1147.2622    734.98091   -3928.2177 
 2514000    255.03073   -4706.1125   -4214.2643   -4706.1125            0    1949.9772     20.04496     20.06188    21.369115    8593.3674    2991.3137    414.60354    2444.0144   -380.43713    749.74125   -53.262947   -3969.8825 
 2515000    246.02737   -4698.6464   -4224.1619   -4698.6464            0     1125.902    20.247672    20.088033    21.131273    8594.8472    2486.4475    622.22757    269.03081    -391.1267   -1207.2221    1875.6139   -4083.0335 
 2516000    253.14206   -4693.4017   -4205.1959   -4693.4017            0    1488.7281    19.983452    20.283343    21.180052    8584.9359     1645.875    1493.0749    1327.2345    295.08065    988.60875    491.30996   -4018.8035 
 2517000    249.39027   -4687.8912   -4206.9211   -4687.8912            0   -59.051681    20.361887    20.121953    21.169104    8673.4251    445.73878    133.63679   -756.53061   -403.82639   -812.60945     44.65873   -4214.3907 
 2518000    249.20272   -4715.1476   -4234.5392   -4715.1476            0    1870.4228     20.26207    20.277177    20.862532    8571.5296    -901.7212    2868.2373    3644.7522    284.42459    861.07932    1334.2801   -4000.7233 
 2519000     241.9287   -4672.3296   -4205.7498   -4672.3296            0     1790.451    20.254229    20.205809    20.907981    8556.6559    1027.8299    2077.1125    2266.4106   -971.65958    46.986219    48.453879   -3982.3193 
 2520000     256.6161   -4716.3453   -4221.4396   -4716.3453            0    1305.3621    20.222868    20.012241    21.302577    8621.2575    1515.5478    1824.1366    576.40186   -707.52676    796.18925    932.20627   -4057.3136 
 2521000    244.81636   -4707.6161   -4235.4672   -4707.6161            0    1791.5463    20.059337    20.437074    21.122796    8659.3778    4059.8562   -742.45573    2057.2385    403.34017    657.48798   -11.174916   -4009.2161 
 2522000    246.57649   -4683.5313   -4207.9878   -4683.5313            0    1108.2839    20.113856    20.215696    21.139153     8595.509     2507.136   -141.19842      958.914   -933.25932   -1065.6119    313.35923    -4069.057 
 2523000    237.78238   -4698.3192   -4239.7358   -4698.3192            0    1360.5667    20.285215    20.304177    20.951208    8629.2702    1886.6779   -593.41178    2788.4339    46.887774    406.35608     1217.831   -4068.5098 
 2524000    252.85171   -4652.0704   -4164.4246   -4652.0704            0    141.39948    20.169348    20.236784    21.205496    8655.2933    1038.1003    215.31936   -829.22122   -456.12645    1691.0295   -132.17789   -4146.5759 
 2525000    252.43563   -4658.3187   -4171.4754   -4658.3187            0    867.70076    20.342038    19.956963    21.359716    8671.3037   -995.71164    2829.1109      769.703    40.087215   -601.19783    -81.94129   -4061.7441 
 2526000    265.08984   -4689.0378   -4177.7898   -4689.0378            0     1830.096    20.052905    20.087399    21.378801    8611.6094    1984.9904    2503.4878    1001.8098    33.940752    1379.2547    388.13294   -3947.9453 
 2527000    257.40121    -4664.622   -4168.2021    -4664.622            0    1973.3977    20.067527    20.158032    21.116223    8541.9736    2765.0719    1396.7399    1758.3814   -64.443839    667.96949   -1360.1117   -3922.3643 
 2528000    246.87548    -4703.517   -4227.3969    -4703.517            0   -5.7093807    20.350635    20.236748    20.849514    8586.4695    90.058276    119.85641   -227.04283    103.59689     308.5284   -695.17196   -4228.1119 
 2529000    251.39407   -4685.6209   -4200.7863   -4685.6209            0    1074.0445    20.192272     20.24824    21.081102    8619.1764     1568.069    190.74077    1463.3238   -355.78083    1351.5643   -70.354601   -4065.7769 
 2530000    260.61157   -4700.2517   -4197.6403   -4700.2517            0    1785.6217    20.043978     20.13455    21.345267    8614.4479    4109.7697   -32.563866    1279.6594   -995.14001    551.51176   -420.63987   -3973.3075 
 2531000    247.04662   -4651.6533   -4175.2031   -4651.6533            0    1067.2411    20.206974    20.100725    21.424111    8701.9347    2142.0544    271.59101    788.07788    353.07823    -533.1303    324.04599   -4039.7609 
 2532000    253.62644   -4679.8858   -4190.7459   -4679.8858            0    607.58008    20.161933    20.022968    21.236187    8573.0854   -767.60261    2024.0746    566.26823    545.63951   -310.04758   -13.258992   -4114.7804 
 2533000    247.37934   -4680.7273   -4203.6355   -4680.7273            0     1907.908    20.249419    20.365391    20.668219    8523.3115    3145.6126    402.57583    2175.5357   -267.33254    2230.7616    46.932471   -3966.4754 
 2534000    244.12213   -4705.0746   -4234.2645   -4705.0746            0    2180.2559     20.26437    20.214669    20.915217    8567.6578    1849.1224    2378.1171    2313.5281     232.9807   -1298.0439     360.0651   -3961.8405 
 2535000    245.86044    -4730.564   -4256.4015    -4730.564            0    1356.6933    20.147319    20.130242     21.01464    8522.9162     1089.302     586.5969     2394.181    353.57486    30.814008    939.76646   -4087.7672 
 2536000    231.65236    -4692.655    -4245.894    -4692.655            0    604.18327    20.228429    20.073679    21.322206    8658.0732   -464.80197    1387.6749    889.67689    202.95607    389.80644   -525.36106   -4169.6043 
 2537000    256.21941   -4701.7147    -4207.574   -4701.7147            0    1459.1951    20.183894    19.942699    21.336156    8588.2579    1175.9414    1496.6787    1704.9654   -604.92009   -435.81826   -1261.6328   -4024.8084 
 2538000    258.91675   -4688.9861   -4189.6434   -4688.9861            0    1573.5638    20.312732    20.078891      21.0069    8567.8138     2136.336    1775.9677     808.3878     98.94644   -97.425109   -46.403802   -3993.0222 
 2539000    252.09337   -4716.5028   -4230.3196   -4716.5028            0     2194.454    20.177959    20.290354    20.676041    8465.1423    506.60781    3472.6773    2604.0769   -405.58147    72.872075     305.4843   -3959.4023 
 2540000    254.10701     -4699.67   -4209.6033     -4699.67            0    3048.7146    20.232749    20.141789    20.935264    8531.6176    3098.2237    2268.5435    3779.3768    232.91318    251.32328    307.35528   -3830.2673 
 2541000    241.47185   -4661.7832   -4196.0845   -4661.7832            0    746.99599    19.861755    20.235214    21.371166    8589.2184    1729.5191    336.30192     175.1669    450.71024   -604.79007   -508.63063    -4102.512 
 2542000    252.42839   -4707.0333   -4220.2039   -4707.0333            0     321.0928    20.155341      20.1826    21.251378    8644.7884    1594.4944   -1691.5588    1060.3428   -440.20572    680.23643    338.89814    -4179.722 
 2543000    253.40163   -4678.7499   -4190.0436   -4678.7499            0    1701.4549    19.990837    20.304901    21.014176    8529.9055    2907.5834   -118.64976    2315.4312    -459.7787    238.97192    923.67928   -3978.3827 
 2544000    249.98271   -4725.3705   -4243.2578   -4725.3705            0    950.01175    20.486421    20.204891    20.867266    8637.5022     1083.857   -15.636478    1781.8147    32.561342   -1041.5762   -1868.5342   -4123.5857 
 2545000    230.50658   -4687.4184   -4242.8671   -4687.4184            0    867.36106    20.112969    20.261711    21.049553    8578.1805     823.3328    649.10147    1129.6489  -0.90428256    10.698861    599.09834   -4134.3568 
 2546000    247.77618   -4712.8043   -4234.9471   -4712.8043            0    1170.9376    20.033221    20.236841    21.206452     8597.289    2038.0638    842.95594    631.79309   -488.08853   -213.80439   -508.78589   -4088.1318 
 2547000    253.55716   -4705.0614   -4216.0551   -4705.0614            0     36.59539    20.163503    20.222547    21.302478    8686.2427   -1226.4219    1459.6549   -123.44681    277.03476   -1126.3411   -1642.3172   -4211.4192 
 2548000    246.65638   -4722.4819   -4246.7843   -4722.4819            0    1683.9362    20.068585    20.147053    21.181597    8564.2031    2664.5044    412.65902    1974.6452     259.4212    1255.7757   -822.09112   -4036.4604 
 2549000    256.38685    -4685.963   -4191.4994    -4685.963            0    959.62619    20.022108    20.330054    20.957234    8530.6534    198.86342   -52.570248    2732.5854    267.90199    -962.5456    1000.8783   -4072.1115 
 2550000    251.68586   -4718.0555   -4232.6582   -4718.0555            0    1860.3998    20.263078    20.244333    20.845635    8551.1401    1364.3851    1979.5262     2237.288   -72.406321   -1020.1622   -1197.7306   -4000.6485 
 2551000    264.24803   -4645.6118   -4135.9872   -4645.6118            0    2263.8065    20.165793    20.288783    20.948219    8570.7419    1729.3147    1888.9803    3173.1245   -630.04329     211.1249   -991.47637   -3853.0217 
 2552000     249.9059   -4711.3629   -4229.3983   -4711.3629            0    1756.2217    19.873946    20.213965    21.157591    8499.6656    3652.0933    961.87202    654.69969    544.24274    804.63531    1070.1593    -4011.699 
 2553000    246.01496   -4720.4321   -4245.9716   -4720.4321            0   -323.63004    20.201756    20.051813     21.50187    8710.0166   -1082.6434    525.04965   -413.29639   -1059.4847    415.84612    931.00853   -4287.0812 
 2554000    254.03831   -4671.0316   -4181.0973   -4671.0316            0    1783.8537    20.114516    20.082059    21.044292    8500.6501    1571.3184    1967.8876    1812.3552    209.76853     541.2067   -441.67025   -3959.9472 
 2555000    258.17782   -4693.5399   -4195.6222   -4693.5399            0     2154.926    20.232658    20.221818    20.970675    8579.9659    2513.2607    516.44109    3435.0762   -1436.7141   -516.70143    242.01004   -3925.9763 
 2556000    270.55922   -4684.6378   -4162.8416   -4684.6378            0    3734.7294    20.273633    20.060523     20.82591    8469.8909    3767.1906    3142.7085    4294.2892    -695.7702    615.79561   -60.007773   -3701.5103 
 2557000    249.46028    -4729.493   -4248.3879    -4729.493            0   -278.26111    20.261642    20.242712    21.067895    8641.0096   -1366.9588    317.16273    215.01277   -72.418482   -1195.1462    -1099.224   -4283.4544 
 2558000    253.46609   -4686.0934   -4197.2627   -4686.0934            0    1195.0871    20.211454    19.966851    21.540278    8692.7748    1023.2231    1379.3181      1182.72     1085.449   -219.43485   -125.82725   -4045.7553 
 2559000    256.40144   -4708.1747   -4213.6829   -4708.1747            0    133.32458    20.229066    20.055891    21.159124    8584.5092    817.10527   -295.50074   -121.63078    -186.2699   -311.50825   -358.24158   -4196.9912 
 2560000    252.33963   -4696.7765   -4210.1183   -4696.7765            0    1749.9887    20.163024     20.30018    21.058495    8619.5162    1592.7738    780.78617     2876.406   -148.42936   -1055.8742    1311.1524   -3990.1328 
 2561000    263.53155   -4710.4429   -4202.2001   -4710.4429            0    1627.7799    20.258284    20.149288    20.878316    8522.3196    1508.6347    839.90565    2534.7995    -257.7456    294.99841   -60.457485   -3999.8845 
 2562000    265.16453   -4676.8937   -4165.5016   -4676.8937            0    2666.5819    20.166629    20.234623    20.917481     8535.674    3314.5722    2491.2452    2193.9283   -637.90265    502.12632   -279.66525   -3833.5546 
 2563000    263.43853   -4686.7271   -4178.6637   -4686.7271            0    727.36914    20.334127    19.958035    21.141357    8579.7807    962.59393    1042.7077    176.80578   -912.74863    407.85644    577.44187     -4087.65 
 2564000    249.42385    -4679.149   -4198.1142    -4679.149            0    484.37564    20.308593    20.001988    21.244676    8629.8476    464.00405    587.11529    402.00759   -529.79139   -834.02788    513.18096   -4137.1519 
 2565000    245.27058   -4694.1825   -4221.1576   -4694.1825            0    2736.0511    20.100009    20.227115    21.003336    8539.2252    1277.1137    4674.8343    2256.2053   -224.56345    23.125961   -267.25093   -3880.4211 
 2566000    266.95872   -4681.9405   -4167.0882   -4681.9405            0    105.82891    20.411411     20.12777    21.042749    8645.1227    266.30005   -455.29022     506.4769   -176.95619    1410.8589    942.95218   -4153.7453 
 2567000    241.19123   -4689.1238   -4223.9662   -4689.1238            0    715.44753      20.0279    20.294374    21.049757    8555.7514    873.25751    757.68242    515.40266   -263.56859   -234.22811   -1073.1253   -4134.6949 
 2568000    249.51606   -4697.4026   -4216.1899   -4697.4026            0    1435.6996    20.218938    20.067039    21.196032    8599.9552    894.12951    3353.8308    59.138327    127.06981    376.50581   -513.04707   -4036.1223 
 2569000    249.32332    -4727.945    -4247.104    -4727.945            0     1319.152    20.123398    20.144369    21.078722    8544.7478   -762.11964    2795.4936    1924.0819   -764.03562   -1045.4793     1175.277   -4082.7161 
 2570000    254.03804   -4700.1182   -4210.1845   -4700.1182            0    577.45223    20.051001    20.267858    20.885718    8487.7646    239.43462    642.32381    850.59828    639.78556    283.40682   -1547.7037   -4138.7044 
 2571000    251.94781   -4685.0269   -4199.1243   -4685.0269            0    2375.4719    20.117561    20.177513    21.050744    8544.9673    3838.2323    697.65309    2590.5304    34.216155   -901.62631   -478.42626    -3903.094 
 2572000    272.32187   -4676.4762   -4151.2806   -4676.4762            0    553.42942    20.264603    20.300463     21.14543    8698.8245   -1258.2871    1652.8184     1265.757    -27.29923    -350.2117    234.73789   -4081.0706 
 2573000    244.12747   -4715.4554    -4244.635   -4715.4554            0    2069.6287     20.22714    19.970438    21.055062    8505.0841    769.75497    3087.5429    2351.5884   -269.35078    367.00929    311.73097   -3987.9225 
 2574000    258.25256    -4739.716   -4241.6542    -4739.716            0    983.77877     20.22166     20.19014    20.945498    8551.5891     1090.964    1199.1187    661.25366    1040.3917   -346.62382   -2138.7736   -4118.9611 
 2575000    259.97314   -4718.0534   -4216.6733   -4718.0534            0      1527.14    20.307514    20.089547    21.197008    8647.7171    112.14187    2202.7796    2266.4985   -860.61905   -1518.8335   -126.12583   -4024.0734 
 2576000    256.82281   -4709.4806   -4214.1762   -4709.4806            0    667.68441    20.168834    20.161943    21.032632    8552.7697    647.09113    1437.3496   -81.387549   -756.26684    283.60038   -597.94997   -4130.8937 
 2577000    243.46339   -4719.1424   -4249.6027   -4719.1424            0    2295.8365    20.061769    20.338359    20.761399    8471.1379    3191.7774     1113.536    2582.1962    242.74294     207.8922    240.72972   -3965.9685 
 2578000    256.91928   -4670.8776   -4175.3872   -4670.8776            0    1982.6904    20.278385     20.17485    20.932908    8563.9327    1958.2856    2316.7862    1672.9994   -123.21274    1778.5915    282.46429   -3927.7567 
 2579000      269.576   -4753.2515   -4233.3516   -4753.2515            0    1628.2871    20.247609     20.18562    20.946432    8561.0275    2543.8662   -5.3734621    2346.3686   -215.94385    112.23568   -818.86083   -4030.0537 
 2580000     264.4572   -4696.4349    -4186.407   -4696.4349            0    919.26881    20.216676    20.075898    21.131826    8576.7305    2152.1133    833.07643   -227.38333   -440.41691     75.44554    554.06892   -4071.4222 
 2581000    262.86178   -4707.6336   -4200.6825   -4707.6336            0    594.11395     20.24276    20.059026     21.19037    8604.3504    246.32304    747.39903    788.61978   -316.39595    15.812182   -1244.9407   -4126.1297 
 2582000    242.29279   -4704.1023   -4236.8203   -4704.1023            0   -242.01252     20.00085     20.14259    21.440009    8637.5134    829.66379   -334.05319   -1221.6482    673.75687    440.78794   -247.36607   -4267.3064 
 2583000     256.1278   -4687.3266   -4193.3626   -4687.3266            0    856.03562    20.347942    20.120927    21.143094    8656.3938   -631.57499    2512.4952    687.18664    342.78286    265.61166   -1243.9976   -4085.2927 
 2584000    264.36767   -4687.6983    -4177.843   -4687.6983            0    1172.3955    19.898002    20.210389    21.202394    8526.4657    3391.2174   -234.24946     360.2186   -54.079918   -1388.6678     434.3661   -4032.0559 
 2585000    248.81292   -4708.7982   -4228.9416   -4708.7982            0    533.46819    20.363295    20.222835    21.107527    8692.1546   -653.76584    1456.5376    797.63284    285.22962    198.74662   -813.29997   -4161.3159 
 2586000    245.14564    -4699.792   -4227.0081    -4699.792            0    1780.4115    20.315052     20.09039    20.917053    8537.0301     513.2985    2391.3414    2436.5946    102.13068   -654.92571    258.66487     -4005.34 
 2587000    252.36418   -4712.8479   -4226.1424   -4712.8479            0    95.333108    20.175181    20.295263    21.201916    8681.3495    219.94866   -453.12616    519.17682    123.94136   -1115.3775   -462.96311   -4214.0724 
 2588000    244.04732   -4683.3897    -4212.724   -4683.3897            0    2497.2062    20.083161    20.227635    21.098399    8570.9052    3581.4907    1146.0864    2764.0414     678.3856    183.82059   -1242.3102   -3900.5785 
 2589000    242.63495   -4738.9789    -4271.037   -4738.9789            0   -199.81601    20.226603    20.326174    20.989285    8629.3135    649.87725   -2357.1685    1107.8432    143.18668    1245.2737   -981.08811   -4296.1838 
 2590000    244.18431   -4697.6611   -4226.7312   -4697.6611            0    2657.6851    20.055399    20.086028    21.095294    8497.8872    1452.0502    4572.4679    1948.5373   -497.29707   -90.852662   -855.65089   -3897.3563 
 2591000    244.24873    -4696.599   -4225.5448    -4696.599            0     948.5724    20.200622    20.068501    21.271111    8623.2278    1085.1488    1402.4388    358.12966    410.49994   -109.97619    434.72015   -4106.2514 
 2592000    258.20731   -4712.7722   -4214.7977   -4712.7722            0    704.40791    19.973699    20.281721    21.454901    8691.4017    1514.0403    571.85149    27.331974   -114.63243    203.78843   -359.64575   -4125.5103 
 2593000    258.72166   -4687.5805    -4188.614   -4687.5805            0    412.28013     20.38768     19.99048    21.204078    8641.9235    -2204.063     2209.996    1230.9074   -453.05785    251.54844    219.01843   -4136.6528 
 2594000    256.95439    -4710.615   -4215.0569    -4710.615            0    2122.7836     20.05909    20.249035    20.994144     8527.343    2834.0478    1035.1587    2499.1445   -315.47461   -464.39259   -1284.0383   -3951.0621 
 2595000    237.78439   -4712.0107   -4253.4235   -4712.0107            0   -114.31927    20.374706    20.345282    20.800753    8622.5179   -1172.8853   -1077.6193    1907.5468   -366.45264    1681.1169   -874.72534   -4267.7993 
 2596000    265.04815   -4711.9399   -4200.7722   -4711.9399            0    2385.2429    20.196449    20.083161    20.981323    8510.2036    1412.8069    3336.2147    2406.7069     1086.647   -537.68987    267.74991   -3904.7336 
 2597000    250.51319   -4689.2769   -4206.1412   -4689.2769            0    485.11268    20.182501    20.162555    21.271547    8656.0469    358.06907   -146.00813    1243.2771   -342.49474   -16.801615    418.78081   -4144.9008 
 2598000     254.4858   -4702.5412   -4211.7439   -4702.5412            0    2515.7648    20.160274    20.058199    21.098698    8531.8663    1225.6887     4513.967    1807.6386   -199.02075   -1208.2184   -1103.9141    -3898.711 
 2599000    250.95911   -4702.7499   -4218.7542   -4702.7499            0   -31.341504     20.46581    20.177729     20.99658     8670.613    1248.2418   -2095.7663    753.50004   -515.80991    184.16352     386.7735   -4222.7174 
 2600000    264.42068   -4723.7185    -4213.761   -4723.7185            0    2584.6592    20.129274     20.15567    21.048703    8539.8584    3087.9479    3091.2504    1574.7794   -243.26194    585.94004    1724.5263   -3891.8545 
 2601000    247.60294   -4732.9673   -4255.4442   -4732.9673            0    1388.9389    20.246268    19.862317    21.299409    8565.2971    130.83786    2645.6871    1390.2917    567.05251   -303.48671    369.30838   -4081.9434 
 2602000    255.99116   -4702.9746   -4209.2741   -4702.9746            0    117.47698    20.148533    20.215536    21.140498    8610.8076   -93.227566   -308.15671    753.81522    369.43671   -387.46978    576.53975   -4194.5214 
 2603000    257.61717   -4692.5141   -4195.6777   -4692.5141            0      3498.02     20.17532    20.276896    20.740836    8484.9279    2794.4873    3655.3073    4044.2655   -314.37076    1928.5656   -861.91628   -3762.8188 
 2604000    253.32657   -4683.1849   -4194.6233   -4683.1849            0    1367.9659    20.259911    20.139723    20.983696    8561.9567    615.02076    3806.5614   -317.68455   -186.05205   -148.32464     782.4097    -4023.809 
 2605000    263.35541   -4676.1676   -4168.2646   -4676.1676            0    1445.9298    20.155427    20.147292    21.144586     8586.336     3965.168   -771.91422    1144.5357   -312.63861    78.275998    409.26497    -3987.201 
 2606000     232.7339   -4687.6485   -4238.8016   -4687.6485            0    1498.4736    20.016086    20.123513    21.547068    8679.0287    2761.3044     1853.102    -118.9856   -1086.4815   -570.31565   -1063.5189   -4049.1327 
 2607000    262.12227   -4717.8342   -4212.3094   -4717.8342            0   -562.71245    20.180432    20.175938    21.220505    8640.1226   -1037.8358   -599.33952   -50.962056    174.68638    374.40242   -29.608584   -4283.2153 
 2608000    256.65463   -4678.9822   -4184.0022   -4678.9822            0    415.46468    20.328504    20.046908    21.054018    8580.0101    1268.2285    96.982274   -118.81678    534.16686   -829.11254    365.20001   -4132.0148 
 2609000    246.49667     -4677.99   -4202.6005     -4677.99            0    809.92943    20.324321    20.331307    20.728881    8565.5887    1539.6782   -520.79473    1410.9048    246.24538   -352.06328    -552.5961   -4101.4238 
 2610000    254.12365   -4664.2127   -4174.1139   -4664.2127            0    480.84663     20.35477    20.256937    20.864796    8603.0831   -432.95503    1060.5866     814.9083   -707.83777   -232.71273    169.76594   -4113.7834 
 2611000    267.94473   -4695.5918   -4178.8379   -4695.5918            0     2043.151    20.111082    20.070921    21.098917    8516.5343    1712.6449    2875.8996    1540.9086    29.048219    430.67208   -831.74058   -3925.0685 
 2612000    265.54102   -4712.2806   -4200.1625   -4712.2806            0     286.1357    20.180849    20.193863    21.314266    8686.1879    82.811011   -92.464672    868.06077   -35.775345    581.30949    44.522263    -4163.915 
 2613000     245.8685   -4711.1552   -4236.9771   -4711.1552            0     616.1355    19.958649    20.269857    21.190531    8572.8193    2974.1402   -1576.5756    450.84192    -318.9879   -419.36501   -1248.9684   -4159.9443 
 2614000    255.18655   -4696.7831   -4204.6344   -4696.7831            0     893.7672    20.275868    20.187373    20.990555    8591.7809    1044.7586     -241.382    1877.9249   -44.411899   -880.30682     565.9333   -4092.6433 
 2615000    262.39068   -4720.1427   -4214.1002   -4720.1427            0    2254.6515    20.188465    20.093549     20.91729    8485.2644    3784.1884    381.25698    2598.5092   -455.74458   -58.040078    640.72495   -3935.0896 
 2616000    241.86984   -4700.3506   -4233.8842   -4700.3506            0    1029.1199    20.103044    20.304511      21.0759    8602.8135     1293.286    843.54187    950.53187   -1153.7076    87.805658    196.31704   -4104.7675 
 2617000      243.418   -4712.8412   -4243.3891   -4712.8412            0    1621.9725    20.153265    20.132732    20.978061    8511.6446    1259.7899    1868.0817    1738.0458   -111.98054    617.68649    597.03499   -4042.0478 
 2618000     254.3197   -4725.4386   -4234.9616   -4725.4386            0    1163.1919    20.328598    20.070096    21.048891    8587.8826    725.02242    1807.4603    957.09311     45.60757    1867.3035    435.30673   -4089.2771 
 2619000     252.3677   -4723.8949   -4237.1826   -4723.8949            0     2435.328    20.025662    20.273005    21.013443    8531.0448    2892.0634    1824.9356    2588.9849    94.794014   -635.07282   -406.76775   -3934.1875 
 2620000    250.91057   -4689.0692   -4205.1671   -4689.0692            0    2156.2603    20.348956    19.882926    21.063705    8522.3071    999.34179    2887.5124    2581.9266   -36.441616     1304.748   -944.78683   -3937.1674 
 2621000      229.906   -4687.5354   -4244.1423   -4687.5354            0    933.10944    20.009234    20.364541    21.197208    8637.4144    2488.1127   -440.65286     751.8685   -672.29108    15.033278   -220.33235   -4126.6006 
 2622000    255.67384   -4674.2948   -4181.2063   -4674.2948            0    1753.8575    20.147123    19.992789    21.420073    8627.9453    1732.7898    2039.3035    1489.4792   -814.96293   -473.95121    376.06879   -3960.5189 
 2623000    251.07207   -4688.4673   -4204.2536   -4688.4673            0    2381.9595    20.080741    20.157617    21.061732    8525.3653    3225.3764    1806.2807    2114.2215   -584.51743    389.88585   -866.06703   -3908.0958 
 2624000    248.32508   -4684.6693   -4205.7535   -4684.6693            0    1474.2077    20.313855    20.162101    21.047315    8620.3487    420.01168    2264.3681    1738.2433   -285.59449    1544.7426   -1569.8484   -4020.4177 
 2625000    260.39805   -4683.3772   -4181.1777   -4683.3772            0    1044.1614     20.29322    20.249147     20.85816    8571.0432    297.33765    1048.9527    1786.1938    -796.4044    1123.3142   -119.16218   -4050.6576 
 2626000    242.67858   -4716.9017   -4248.8757   -4716.9017            0    1381.8578     20.17744    20.149034    21.161603    8603.3751     1288.447    1141.4961    1715.6302     343.5283   -713.25979    541.67091    -4075.492 
 2627000    259.53495    -4718.847    -4218.312    -4718.847            0     1781.407      20.2401    20.058493    21.132372     8579.445    256.77947    3951.7585    1135.6832   -172.81431    223.12678    219.27103   -3995.4181 
 2628000    255.31187   -4713.3639   -4220.9735   -4713.3639            0    1172.0882    20.154447    20.159949    21.246605    8632.7641    1501.4394    1423.8242    591.00101    985.12703    661.31428    1884.3098   -4073.4075 
 2629000    255.81882   -4657.8896   -4164.5215   -4657.8896            0    667.87936    20.227587    20.206137    21.200378     8665.048    1296.0143    506.31015    201.31361   -199.74337    1153.7477   -728.88116    -4080.121 
 2630000    246.37823   -4728.1265   -4252.9654   -4728.1265            0    923.70604     20.43529    20.206956    20.624239    8516.4701   -1145.0838    1459.8366    2456.3653   -110.34826    419.12547    1815.6192   -4138.2374 
 2631000    248.97445   -4732.4155   -4252.2473   -4732.4155            0    1425.8746    20.183774    20.170891    21.062794    8575.1839    2271.8676    614.20166    1391.5546    -316.5216    1687.9132     1829.039   -4073.9271 
 2632000    266.00051   -4685.0903   -4172.0859   -4685.0903            0    1373.7158    20.040065    20.244259    21.202832    8601.9096    2790.3365     775.9082    554.90254    174.36054    52.178439    1285.6072   -3999.7532 
 2633000     261.4732   -4677.2877   -4173.0146   -4677.2877            0    2527.7033    20.285174    20.020946    21.115317     8575.529   -45.774758    5165.7486     2463.136   -681.79281   -13.396248    1899.7505   -3856.8866 
 2634000    243.23595   -4703.4182   -4234.3172   -4703.4182            0   -31.532085    20.192681    20.320183    21.247108    8718.0918    1158.8334   -1018.8415   -234.58816    320.85306    143.40611   -1081.2804   -4238.3263 
 2635000    242.88268   -4689.1234   -4220.7037   -4689.1234            0    2510.2349      20.0562    20.096844    21.030085    8476.5193    1165.2902    4079.6812    2285.7333   -894.13956    929.51596   -547.62869   -3910.3851 
 2636000    260.32016   -4700.6842   -4198.6348   -4700.6842            0   -292.66307     20.26105    20.353224    21.105608    8703.4821   -1869.0735    42.116175    948.96815    90.513199   -157.13027   -438.28565   -4235.7829 
 2637000    246.92566   -4712.4111   -4236.1942   -4712.4111            0    918.23941    20.221564    20.155117      21.0565    8581.9552    1455.1501    514.67332    784.89486    362.55821    573.05135    316.05576   -4121.2682 
 2638000    249.68281    -4698.404   -4216.8697    -4698.404            0    1128.1127    19.988488    20.312269    21.185248    8601.4553    2889.6238   -280.60573    775.31997    -1570.801    451.29201   -33.070279   -4075.3554 
 2639000    238.79203   -4718.8119   -4258.2814   -4718.8119            0   -804.65555     20.23517    20.187093      21.2999      8700.78    196.31037   -1927.3185   -682.95853   -60.232624   -124.00232    277.02443   -4360.3857 
 2640000     260.2886    -4707.051   -4205.0626    -4707.051            0    666.28247    20.173977    19.988952     21.19647    8547.6181    1093.5364    1147.7021   -242.39102    181.75413    590.63353   -573.91318    -4122.005 
 2641000    250.72094    -4705.409   -4221.8726    -4705.409            0    2262.3367    20.260249    20.018702    21.108158    8561.1289    2667.6703    2572.6197    1546.7201   -564.52272    -643.4732   -804.65012   -3939.4079 
 2642000    243.91646   -4679.4853   -4209.0719   -4679.4853            0    1056.0565     20.06031    20.262847    21.197932    8616.5141    1680.0465    872.78185    615.34123   -558.15345    186.63362   -37.002695   -4076.3647 
 2643000    247.38728   -4697.2007   -4220.0935   -4697.2007            0    1815.1033    20.225958    20.066396    21.080916    8555.9447    1320.2649    2875.5978    1249.4471    19.016417    251.91843    881.61413   -3993.6055 
 2644000    249.50549   -4690.0719   -4208.8796   -4690.0719            0    1445.5637    20.343489    20.290596    20.925042    8637.4706    1875.1718   -36.405796    2497.9251    141.52129    660.01799    1658.3983   -4026.7839 
 2645000    252.46079   -4692.8326   -4205.9407   -4692.8326            0    2190.5702    20.065962     20.14994    20.935202     8464.687    2656.6979    2157.9056    1757.1073   -636.96846    581.49316   -1642.1603   -3935.5175 
 2646000    252.08409   -4727.2735   -4241.1081   -4727.2735            0    1743.2333    20.118156    20.065202     21.18428    8551.5616    2275.3794    2189.9293    764.39103   -71.231647   -1007.6498    1302.7209   -4023.6994 
 2647000    249.23358   -4724.5499    -4243.882   -4724.5499            0    1613.6786    20.244451    19.892831    21.346965    8596.8377    224.59475    3819.0081    797.43283   -536.80532   -436.08871   -76.365698   -4041.5653 
 2648000     248.2891   -4713.7566   -4234.9102   -4713.7566            0    1014.9702    20.162961     20.02863    21.333039    8615.0594    2854.9814    64.027071    125.90208    -136.1703   -761.09916    901.88835   -4107.3875 
 2649000     264.8981   -4697.2703   -4186.3921   -4697.2703            0    221.77488    20.085368    20.250584      21.1763    8613.2576    766.97178   -511.51261    409.86546   -89.681247    580.97016    330.27416   -4158.5337 
 2650000    254.04411   -4718.9513   -4229.0058   -4718.9513            0    633.52261     20.08877    20.426447    20.919236    8584.0449    1956.6379   -1192.9089    1136.8388   -493.32719    344.19897    778.10867   -4149.6954 
 2651000    252.85085   -4661.4245   -4173.7803   -4661.4245            0    1859.1995     20.12604      20.2401    21.121119    8603.7526    2687.2437    964.14174     1926.213   -206.47849   0.51056032    1278.6107   -3940.4937 
 2652000    256.13339    -4695.262   -4201.2872    -4695.262            0    2129.7234    20.375314    20.032042    20.989875    8567.2094   -15.659471    5131.8992    1272.9304    1002.9968    234.91308    467.93455   -3935.1911 
 2653000    241.12632   -4677.1608   -4212.1284   -4677.1608            0    1787.8278    19.967722    20.296446    21.087479    8546.2026    3764.5625    262.42806    1336.4929     186.4568    1175.1782   -437.64755   -3989.2978 
 2654000    258.29055   -4712.6098   -4214.4748   -4712.6098            0    1977.9676    20.256781    20.078015    20.932575    8513.6122    1982.3781    1472.7247    2478.8001   -356.36408     416.5673   -542.03275   -3968.8857 
 2655000    255.21559   -4713.2058   -4221.0011   -4713.2058            0    1272.0022    20.097255    20.315215    20.848458    8512.0096    2157.7803    543.07515     1115.151    592.64471    312.90781     1351.935   -4063.0961 
 2656000    253.76713   -4731.5493    -4242.138   -4731.5493            0    956.56573    20.100989    20.227124    21.159823    8603.2712    777.93073    30.014087    2061.7524   -28.052609    683.63828   -457.25382   -4122.1178 
 2657000     246.6623   -4681.3771   -4205.6681   -4681.3771            0    1535.4665    20.052371    20.026507     21.31105     8558.069    2369.8135    813.62791    1422.9583    99.334441    466.89118     321.7669   -4014.0255 
 2658000    249.73052   -4723.4103    -4241.784   -4723.4103            0    1512.3496    20.166124    20.025427    21.242711    8578.5555    2899.0328    719.51122    918.50475   -633.17015    1221.3615    454.36155   -4052.5748 
 2659000    237.66254    -4690.553   -4232.2008    -4690.553            0    1250.7514    20.218802    20.118612    21.119796    8590.9887    1069.9194    1191.9253    1490.4095    220.32564    787.23684   -805.43022   -4075.4932 
 2660000    268.54245   -4726.8063   -4208.8996   -4726.8063            0    1769.4888    20.242808    20.211754    20.937337     8566.358    2098.1586    1261.1638     1949.144   -549.94756    923.03741    1059.6924   -3987.8346 
 2661000    242.64311   -4705.7381   -4237.7805   -4705.7381            0    1574.3367    20.085943    20.359339    20.879373    8538.3387    1721.1477    741.79064    2260.0719    4.8428581    721.65979   -560.77255   -4041.7395 
 2662000    258.18644   -4693.7188   -4195.7846   -4693.7188            0    853.47107    19.952849    20.278372    21.205863    8580.1316    1136.3582   -10.978863    1435.0339    646.52558    393.45514    473.27321   -4088.9877 
 2663000    259.28183   -4704.8641   -4204.8172   -4704.8641            0    1340.4442    20.139388    20.114417    21.069646    8535.1457      1505.24     886.1999    1629.8927   -456.24734   -31.427698   -223.19751   -4037.9636 
 2664000    247.05338   -4703.8609   -4227.3976   -4703.8609            0    1123.2597    20.285288    20.191567    21.110373    8646.6346    415.62564     2680.602     273.5515    710.08576   -1065.9333   -12.856904    -4085.752 
 2665000    259.07222   -4722.1039   -4222.4613   -4722.1039            0     2267.005    20.189195    20.158832    20.884806    8499.9195    591.82963    3225.1165    2984.0689   -1300.8176   -1147.1614    -775.9655   -3941.4374 
 2666000    252.97259   -4684.6193   -4196.7404   -4684.6193            0    1055.4428    20.208037    20.105404    21.169981    8601.1675   -214.68779    1839.8816    1541.1346   -201.26148    294.20854    672.94557   -4064.3465 
 2667000    265.22235   -4731.2878   -4219.7842   -4731.2878            0    1289.6753    20.177138    20.024762    21.276362    8596.5525    2204.1858    1137.1522    527.68788   -123.25344   -96.666015    392.36908   -4058.0952 
 2668000    266.53386   -4690.9828   -4176.9499   -4690.9828            0    1709.4805    20.100769      19.9635     21.32999    8559.3343     2880.256    2250.6699   -2.4843577    106.04083   -779.24934    13.399166   -3963.5569 
 2669000    247.77935   -4661.7363    -4183.873   -4661.7363            0    1045.2667    20.112457    20.284726    21.286527    8684.3854    621.41046    2169.4038    344.98592    41.944873   -1450.9075   -1228.4929    -4051.487 
 2670000    256.40355   -4688.2146   -4193.7188   -4688.2146            0     2362.093    20.126226    20.133104    21.115718     8556.161    2632.6879    2861.1154    1592.4757   -499.56551    2279.0727    883.01531   -3898.9702 
 2671000    251.06125   -4663.9751   -4179.7824   -4663.9751            0   -585.29247    20.254818    20.439141    20.973064    8682.6611   -383.45423   -1550.0873    177.66418    -174.4805   -1760.2466    152.84513   -4253.8966 
 2672000    262.83181   -4732.6258   -4225.7325   -4732.6258            0    2212.4103    19.991326    20.396733    20.891829     8518.805    3267.0359     895.0001    2475.1948    173.82289   -223.02175    45.107803    -3950.867 
 2673000    243.23896   -4706.7766   -4237.6698   -4706.7766            0   -695.79051    20.263501    20.180368    21.220957    8677.7776   -737.79367   -971.17007    -378.4078    -62.29295    153.66389    1114.6528   -4325.7266 
 2674000    264.85345   -4722.3567   -4211.5646   -4722.3567            0    1168.0864    19.915716     20.29617    21.220957    8577.7811    3948.6877   -506.84241    62.413812   -353.56147    1038.9221    1428.6885   -4065.4391 
 2675000    259.95016   -4722.5828   -4221.2471   -4722.5828            0    1102.4626    20.177269    19.993083    21.306102    8595.0055    584.09067     2461.601    261.69614   -498.72038    1452.4091   -327.77334   -4083.0541 
 2676000    246.90533   -4716.5539   -4240.3762   -4716.5539            0    1160.2493    20.114194    20.156635    21.169944    8583.0248    1013.9407    2616.8698    -150.0626    261.63338    102.48853   -804.04442   -4095.1424 
 2677000    244.20384   -4680.0851   -4209.1174   -4680.0851            0    664.59658     20.21547    20.255013    20.950272    8578.3948     1270.004    371.66376    352.12194    178.50736   -85.627195   -1120.3775   -4125.9717 
 2678000    243.74192   -4670.0513   -4199.9745   -4670.0513            0    2726.0795    20.210325    20.192044      20.8635    8514.1394    488.08563    4558.5368    3131.6161    152.07611   -511.17059     712.6801   -3861.4772 
 2679000    246.37147     -4664.69   -4189.5419     -4664.69            0    1276.8273    20.088014     20.40758    21.046161    8627.8267   -814.30179    2479.6851    2165.0985   -186.20011    201.31603   -1863.1607   -4028.8813 
 2680000    249.83971   -4677.0389    -4195.202   -4677.0389            0    1050.5169    20.338891    20.051658    21.153157    8626.8596   -801.01394    2102.2895    1850.2751   -230.44566   -372.16126   -319.15399   -4063.0323 
 2681000     232.4102   -4664.2406    -4216.018   -4664.2406            0    1446.6725    20.163492    20.267314    20.949473    8561.2078    2412.8824    491.96087    1435.1744   -174.45644   -212.14168    -252.6563   -4035.3916 
 2682000    249.21552   -4697.7205   -4217.0875   -4697.7205            0   -726.83915    20.081173     20.41568    21.096659    8649.0146    347.69325   -2320.9577   -207.25297    663.45966    1507.1337    1069.1117   -4308.7688 
 2683000    243.77016   -4712.9121   -4242.7808   -4712.9121            0   -1410.5462    20.239637      20.1851    21.273394    8691.0131   -1071.6013   -1056.6361   -2103.4011     66.16724   -585.21296   -854.50175   -4421.5669 
 2684000    250.36745   -4720.7469   -4237.8922   -4720.7469            0    998.79704    20.155366    20.111541    21.225265    8603.7773     418.5421    1868.2872    709.56185   -337.02549    174.46805    697.64314   -4112.5659 
 2685000    254.52767   -4685.6773   -4194.7993   -4685.6773            0    1434.6573    20.178281    20.313685    20.892581    8563.7698    2669.0278    64.938046    1570.0062    141.37157    325.09656    113.43737   -4015.6195 
 2686000    263.09754   -4695.4531   -4188.0474   -4695.4531            0    1198.1673      20.3815    20.132669    20.946683    8595.1363   -35.081976    2458.7006    1170.8833    351.13148   -730.73835    715.21149   -4037.8556 
 2687000    249.18245   -4708.1959   -4227.6266   -4708.1959            0    1150.5296    20.195798    20.192516    21.097444    8603.6216    1004.4952    1391.9797    1055.1141   -12.333642    1019.9495   -1704.9879   -4083.2639 
 2688000    252.02913   -4679.9547   -4193.8953   -4679.9547            0    2509.9244    20.242042    20.220601    20.919891    8562.6424     1497.682    2180.6461    3851.4452    161.27326    628.39464   -855.55829   -3880.4626 
 2689000    245.69518   -4716.4687   -4242.6249   -4716.4687            0    3045.5331    19.996849    20.145065    20.932156    8432.2642    3014.7393    4451.0988     1670.761   -216.73912    -330.0086   -1039.8041   -3868.0976 
 2690000    259.59858   -4677.2087    -4176.551   -4677.2087            0    1960.1305    20.070753    20.247388    21.222918    8624.5759    1577.9089    1291.7381    3010.7443    53.157658    564.87786     777.1868   -3930.0046 
 2691000    245.68513   -4677.7542   -4203.9298   -4677.7542            0    3109.9705    20.073698    20.133164    21.145523    8545.9009    2153.0542    5157.7124    2019.1449    13.517574   -322.23533   -90.817762   -3816.3242 
 2692000    250.12647   -4677.7015   -4195.3116   -4677.7015            0    2984.1638      19.9962      20.2413    20.966271    8486.0791    4612.0338    424.56447    3915.8931    794.05548   -274.99397   -87.012025   -3825.9892 
 2693000    251.05234   -4690.7854   -4206.6099   -4690.7854            0    1023.5901    20.235691    20.255962    21.073393    8637.8444   -236.47361    1484.7109    1822.5332   -612.52627   -84.341162   -172.48076    -4077.664 
 2694000    249.86748   -4670.2104   -4188.3199   -4670.2104            0    2210.0944    20.120531    20.162241    21.233503     8613.901    2840.5263    1823.8925    1965.8643    132.53984    360.22554    594.22538    -3910.677 
 2695000    249.78589   -4700.8004   -4219.0673   -4700.8004            0    814.98794    20.240786    20.079919    21.068794    8563.0604   -68.624373    2183.2666    330.32161    614.15023   -859.93127   -94.877865   -4117.2888 
 2696000    258.87736   -4712.9746   -4213.7079   -4712.9746            0    1684.5382    20.223305    20.255794    20.928608    8573.1761   -556.83725    3250.4401    2360.0118    -606.0416    633.40701   -426.98229   -4003.0884 
 2697000    249.93774   -4696.3644   -4214.3384   -4696.3644            0    1706.3434    20.086675    20.286012    21.006936    8559.8755    1727.8865    1029.1903    2361.9534    -98.14836    3.2293958   -148.70288   -4001.3236 
 2698000    251.47601   -4685.2385   -4200.2459   -4685.2385            0      2177.13    19.968453    20.218373    21.226242     8569.663    1068.1868    3011.8335    2451.3698   -76.451641     948.6361    472.72817   -3928.1487 
 2699000    259.50224   -4681.7214   -4181.2495   -4681.7214            0    1782.8366    20.038281    20.273599    21.095575    8570.0369    3779.5564    556.88823    1012.0651   -487.25023    428.82934    98.128929   -3958.4213 
 2700000    255.41318   -4703.5315   -4210.9457   -4703.5315            0    618.27319    20.140207    20.354121    20.875521    8557.6321   -441.28219    957.58944    1338.5123    428.63229   -135.22509     352.1417   -4133.7825 
 2701000    241.12771    -4684.232   -4219.1969    -4684.232            0    775.14795     20.27454    20.234972    20.952751    8595.9658     857.8939     727.9062    739.64374    179.75432   -418.15321    1491.9044   -4122.0217 
 2702000    259.11696   -4704.8846   -4205.1558   -4704.8846            0    1599.2543    20.124535     20.23374    21.394596     8711.764    1423.0374    2006.3734    1368.3522   -280.69256    119.82472     31.99685   -4001.9671 
 2703000    242.97186   -4709.2729   -4240.6812   -4709.2729            0    1070.3781     20.07907    20.102203    21.256156    8579.6979    1796.4534    1470.1753   -55.494486    413.19023    123.36231   -90.019084    -4106.749 
 2704000      243.797   -4710.7796   -4240.5965   -4710.7796            0   -13.543637    20.208803    20.135063    21.073864     8575.072    -354.4888    786.29857   -472.44068    1.8680904    841.89541    126.84645   -4242.2903 
 2705000    249.14375   -4726.5311   -4246.0365   -4726.5311            0    624.00614    20.289801    20.192114    20.945884    8581.4024    503.46152    80.485849    1288.0711   -149.72647    67.320926   -447.68944   -4167.9415 
 2706000    250.14061   -4721.8827   -4239.4655   -4721.8827            0    2587.3607    20.101638    20.101989    21.131777    8538.9896     2668.423    2594.4331    2499.2259   -216.30198    843.88852   -565.57501   -3917.2552 
 2707000    239.17509   -4672.1875   -4210.9183   -4672.1875            0    1287.4923    20.396399    20.040123     21.22314    8674.8808    2316.0184    116.31289    1430.1455   -903.15281   -532.36906   -217.36066   -4048.0322 
 2708000    248.93476   -4679.2482   -4199.1566   -4679.2482            0    762.37921     20.03421    20.241665    21.283369    8630.9545    1374.9344    212.97195    699.23133   -461.75152    884.72402    16.427833   -4103.1932 
 2709000    249.60116   -4697.2896   -4215.9128   -4697.2896            0    1927.2023    20.141748    20.121726    20.940505     8486.909    2225.6664    2655.3447    900.59588    325.16247   -363.85327    -893.6634   -3977.3775 
 2710000    259.79432    -4683.304   -4182.2688    -4683.304            0    3.4195392    20.361967    20.118925    21.163529    8669.8707   -1045.3422    73.138386    982.46247   -901.91385    758.76122    399.32891   -4181.8364 
 2711000    254.89317   -4698.1813   -4206.5984   -4698.1813            0    1539.9762    20.044632    20.235066     21.06704    8544.8856    1490.7355    1912.0306    1217.1625    631.28027    1023.2042     777.5892    -4014.689 
 2712000     259.1367   -4718.8906   -4219.1237   -4718.8906            0    1752.8193    20.175409    20.258447    20.963915    8568.4226    2437.3909     862.8728    1958.1942    797.86311    979.67775    401.88568   -4000.0885 
 2713000    255.06603   -4684.4126   -4192.4963   -4684.4126            0    575.82324    20.378596     20.15697    21.008247    8629.5731    283.68705    1369.3114    74.471317   -41.747426    743.73804    343.69044    -4120.027 
 2714000    259.95491   -4703.2498   -4201.9048   -4703.2498            0    2258.8695    20.020921    20.285911    20.901421    8488.9579    4599.4748     134.7321    2042.4017   -552.13306    633.08051   -83.469132   -3922.2506 
 2715000    243.58229   -4730.7315   -4260.9626   -4730.7315            0    2571.4737     20.34679    19.826423    21.121303    8520.4194    1141.2426    3503.0625     3070.116   -100.26655    434.98697    1509.7625   -3941.4272 
 2716000     252.8488   -4717.2167   -4229.5765   -4717.2167            0    808.78957    20.085076    20.136191    21.189149    8569.6743    4206.9535   -2409.5608    628.97592   -393.85102   -32.976066   -229.27186    -4128.494 
 2717000    250.90934   -4735.4086   -4251.5088   -4735.4086            0    1984.7481    20.153922    20.096884    20.994207    8503.3057     2356.531    1338.7047    2259.0086   -393.10317   -837.91777    818.73283   -4005.3763 
 2718000    251.69073   -4676.5936   -4191.1869   -4676.5936            0    1588.1992    20.350528    20.263165    20.934878     8632.834    1047.4792    947.82111    2769.2973   -485.96455    1009.3558    860.93448    -3991.231 
 2719000    249.13072   -4683.1996     -4202.73   -4683.1996            0    2285.2073    20.061507    20.284161    20.992262    8542.3988    754.90888    2259.4001    3841.3129    231.80714    852.24398   -480.09815    -3918.034 
 2720000     248.4268   -4715.7781   -4236.6661   -4715.7781            0    1704.6269    20.127062    20.080974    21.466427    8676.1072    1780.0869    3142.3569    191.43701   -304.99854   -753.74097    1195.6044   -4020.9761 
 2721000    239.50267   -4675.2736   -4213.3726   -4675.2736            0    2445.7017    20.090869    20.232367    21.038996    8552.0539    2691.5437    2513.6365    2131.9249     -184.091   -297.53833   -178.42301   -3908.3375 
 2722000    252.32473    -4721.765   -4235.1356    -4721.765            0    1236.6917    20.365215    20.191596    20.898529    8593.6049    736.36195    405.12362    2568.5894   -318.19074    1240.7421    298.08241   -4080.1423 
 2723000    247.90828   -4707.8566   -4229.7447   -4707.8566            0    1858.4708    20.191388     20.17116    20.917494    8519.3549    1251.7146    1805.9663    2517.7315   -587.14683    105.19455   -916.16289    -3998.837 
 2724000    248.76568   -4696.2937   -4216.5281   -4696.2937            0    1953.7532    20.130778    20.150305    21.143376    8576.6271    2876.8465    187.82443    2796.5886   -130.68046   -2231.7398   -673.98424   -3972.1501 
 2725000    249.46092   -4715.3963   -4234.2899   -4715.3963            0    925.89352    20.044351    20.054871     21.30021    8562.4049    2706.3045   -191.84089    263.21693   -238.10011   -1105.4468  -0.87795031     -4118.67 
 2726000    259.84244    -4718.147    -4217.019    -4718.147            0    1173.0562    20.209217    20.108313     21.19076    8611.3584    301.95155    2666.3322    550.88473    392.26539    872.12052      523.465   -4069.6974 
 2727000    263.85814   -4658.1349   -4149.2623   -4658.1349            0    2135.1998    20.166717    20.258666    20.924046    8548.5352    2649.0368    475.12129    3281.4415    132.47633   -1288.8292    168.38459   -3883.0634 
 2728000    253.45238   -4676.5494   -4187.7451   -4676.5494            0      1822.09    20.335181    20.003125    21.088817    8578.2383    1094.5406    2820.7484     1550.981   -603.58301    1309.9723    1059.5507   -3959.7929 
 2729000    250.91621   -4687.8216   -4203.9086   -4687.8216            0    1697.4471      20.2316    20.296357    21.119038    8672.0635    1565.2332    1231.3297    2295.7784      332.598    43.682133    -872.8361   -3989.2271 
 2730000    260.62147   -4681.8339   -4179.2035   -4681.8339            0    1995.0517    20.236509    19.975798    21.289748    8606.1763    2532.6162    1212.1877    2240.3511    -563.2647    1507.5487    580.94317      -3928.8 
 2731000    269.85418   -4711.3577   -4190.9212   -4711.3577            0    2029.2199    20.135364    20.238623    20.997889    8556.8927    2861.9342    1347.9436    1877.7819    258.85747    740.84141   -653.64472   -3937.6877 
 2732000    256.87691     -4694.02   -4198.6113     -4694.02            0    1485.5429    20.265452    20.264046      20.7563    8523.7834   -867.34198    2535.1092    2788.8614    399.13338    1637.5643   -1307.1166   -4013.9425 
 2733000    256.51327   -4719.9222   -4225.2148   -4719.9222            0    1100.6469    20.260985    20.022387    21.206247    8602.8078    713.94841    1438.2348    1149.7574    273.03093    294.45913   -564.43959   -4087.1242 
 2734000    254.07492   -4679.3796   -4189.3748   -4679.3796            0    430.46206    20.150646    20.318704    21.159914    8663.6093     1920.321   -813.05691     184.1221    272.56884   -289.84639   -992.33425    -4134.986 
 2735000    249.06729   -4718.9519   -4238.6046   -4718.9519            0    1647.6306    20.181293    20.254327    21.023702     8593.617    2707.4715    1474.5982    760.82204   -120.00205    275.62014    557.85207   -4032.1086 
 2736000    243.95246   -4701.5182   -4231.0353   -4701.5182            0    2277.0248    20.089591    20.163102    21.013042    8511.7209    1423.2326     2848.148    2559.6937    1152.3824   -287.69789   -880.50498   -3948.3775 
 2737000    256.38207   -4696.8015   -4202.3471   -4696.8015            0    1970.2259      19.9581    20.275494    21.140579    8554.7537    1924.0107    2254.2875    1732.3796   -359.64777   -245.54897    151.88833   -3956.5372 
 2738000    268.92818   -4718.0122   -4199.3616   -4718.0122            0    1874.0132    19.891985    20.220971    20.996478    8445.5238    3948.8748   -155.10339    1828.2681    96.497746    799.63836    97.223217   -3968.5407 
 2739000    262.22577   -4733.0877   -4227.3633   -4733.0877            0    200.94278    20.224022    20.077538     21.10907    8571.3076     732.4813   -170.61249    40.959531   -40.727009    184.90997   -512.06771   -4202.2447 
 2740000    249.63505   -4677.0844   -4195.6422   -4677.0844            0    1945.1289    20.024649    20.151311    21.284989    8588.9809    3710.6611    173.90012    1950.8257   -340.22596   -748.87913   -15.589745   -3951.9924 
 2741000    248.13197   -4709.3695   -4230.8262   -4709.3695            0    1314.4998    20.207212    20.065391      21.3596    8660.5834    2893.7536    689.28895    360.45699     -62.0869    426.74861    151.19571   -4064.7973 
 2742000    255.42834   -4707.1848   -4214.5697   -4707.1848            0    2197.2327    20.049733    20.168751     21.24838    8592.3791    2803.8903    1589.9145    2197.8933   -269.78687   -526.09286   -260.23501   -3939.2322 
 2743000     259.7878   -4690.4085   -4189.3858   -4690.4085            0    468.22927    20.152217    20.223111    21.111669    8603.8605    741.34327    151.96712    511.37741   -136.05844    -554.9383   -722.09258   -4130.6331 
 2744000     259.3854     -4697.63   -4197.3834     -4697.63            0    2219.2593    20.184227    20.090138    20.908869    8478.6276    3495.2015       1146.6    2015.9764   -603.78331    1337.8427    1311.0286   -3922.9674 
 2745000    276.78124   -4707.2468   -4173.4508   -4707.2468            0    1542.6974    20.189137    20.225355    20.939006    8550.0759    591.02535    2391.9411    1645.1257    -187.1196    -866.1992   -402.71427   -3981.0856 
 2746000    260.86756   -4690.7603   -4187.6553   -4690.7603            0    398.46346    20.304334    20.133438    21.046289    8603.6396    321.50584   -74.254847     948.1394   -88.943971   -28.748919    512.88604    -4137.658 
 2747000    251.01565   -4704.4927   -4220.3879   -4704.4927            0    831.22418    20.285138    19.920948    21.194212    8564.5639   -1133.9282      2759.37    868.23073    3.0691177    656.13498   -969.41321   -4116.5635 
 2748000    265.60219   -4702.4013   -4190.1652   -4702.4013            0    424.24285    20.404924    20.157062    21.111193    8683.1038   -326.54984    1883.1864   -283.90802   -190.44042    102.72906    512.01648   -4136.4415 
 2749000    240.42294   -4691.1428   -4227.4669   -4691.1428            0    1212.3546    20.278341     20.19259    20.970188    8586.7095     1831.108    721.53472    1084.4213    170.57062    272.79314   -243.39998   -4075.6458 
 2750000    260.04393   -4663.8674   -4162.3508   -4663.8674            0   -204.67888    20.329863    20.281077    21.032154    8671.7995   -590.60724    84.115532   -107.54494     192.2049   -2210.7622    53.003926   -4188.2364 
Loop time of 359.992 on 64 procs for 250000 steps with 972 atoms

Performance: 120.003 ns/day, 0.200 hours/ns, 694.459 timesteps/s
194.9% CPU use with 32 MPI tasks x 2 OpenMP threads

MPI task timing breakdown:
Section |  min time  |  avg time  |  max time  |%varavg| %total
---------------------------------------------------------------
Pair    | 25.087     | 33.736     | 40.821     |  74.1 |  9.37
Bond    | 0.8561     | 1.15       | 1.6944     |  17.6 |  0.32
Kspace  | 159.23     | 166.57     | 178.86     |  41.0 | 46.27
Neigh   | 2.0383     | 2.4314     | 2.813      |  14.6 |  0.68
Comm    | 66.931     | 72.133     | 78.089     |  36.1 | 20.04
Output  | 0.50231    | 0.50367    | 0.50539    |   0.1 |  0.14
Modify  | 68.521     | 71.186     | 75.627     |  17.2 | 19.77
Other   |            | 12.28      |            |       |  3.41

Nlocal:        30.3750 ave          35 max          25 min
Histogram: 3 0 3 3 1 6 4 5 1 6
Nghost:        2492.03 ave        2509 max        2459 min
Histogram: 1 0 3 0 4 3 5 5 3 8
Neighs:        9096.50 ave       11486 max        6637 min
Histogram: 2 1 4 5 3 8 1 3 4 1

Total # of neighbors = 291088
Ave neighs/atom = 299.47325
Ave special neighs/atom = 2.0000000
Neighbor list builds = 7910
Dangerous builds = 0

unfix		3
unfix		2
unfix		1

write_data	data.final.${pid}
write_data	data.final.0
System init for write_data ...
PPPM initialization ...
  extracting TIP4P info from pair style
  using 12-bit tables for long-range coulomb (../kspace.cpp:340)
  G vector (1/distance) = 0.37123958
  grid = 24 24 25
  stencil order = 5
  estimated absolute RMS force accuracy = 0.0035534975
  estimated relative force accuracy = 1.0701252e-05
  using double precision FFTW3
  3d grid and FFT values/proc = 3458 576
Last active /omp style is kspace_style pppm/tip4p/omp
WARNING: Not all mixed pair coeffs generated from mixing. Use write_data with 'pair ij' option to store all pair coeffs. (../write_data.cpp:312)

write_restart   restart.lmp.${pid}
write_restart   restart.lmp.0
System init for write_restart ...
PPPM initialization ...
  extracting TIP4P info from pair style
  using 12-bit tables for long-range coulomb (../kspace.cpp:340)
  G vector (1/distance) = 0.37123958
  grid = 24 24 25
  stencil order = 5
  estimated absolute RMS force accuracy = 0.0035534975
  estimated relative force accuracy = 1.0701252e-05
  using double precision FFTW3
  3d grid and FFT values/proc = 3458 576
Last active /omp style is kspace_style pppm/tip4p/omp
Total wall time: 0:06:00
