LAMMPS (30 Jul 2021)
Processor partition = 0
  using 2 OpenMP thread(s) per MPI task
using multi-threaded neighbor list subroutines
variable        pid world 0 1
variable        phase world IceV IceIII

shell cd ${phase}
shell cd IceV
include Restart.lmp
echo both
log log.lammps
#include		in.partitions
include		in.temp
variable        temperature equal 273.97
variable	tempDamp equal 100.0
include		in.pressure
variable        pressure equal 7891.2
variable        pressureDamp equal 1000.0 # This is 1 ps
include		in.seed
variable        seed equal 745823

units		real
atom_style	full
read_restart    restart.lmp.${pid}
read_restart    restart.lmp.0
Reading restart file ...
  restart file = 30 Jul 2021, LAMMPS = 30 Jul 2021
  restoring atom style full from restart
  triclinic box = (-3.1523170 -0.29385015 0.031480658) to (14.762316 22.873849 19.198517) with tilt (0.10444752 -6.3080439 0.26477458)
  2 by 4 by 4 MPI processor grid
  restoring pair style lj/cut/tip4p/long/omp from restart
  restoring bond style harmonic/omp from restart
  restoring angle style harmonic/omp from restart
  1008 atoms
  672 bonds
  336 angles
Finding 1-2 1-3 1-4 neighbors ...
  special bond factors lj:    0        0        0       
  special bond factors coul:  0        0        0       
     2 = max # of 1-2 neighbors
     1 = max # of 1-3 neighbors
     1 = max # of 1-4 neighbors
     2 = max # of special neighbors
  special bonds CPU = 0.002 seconds
  read_restart CPU = 0.007 seconds

include 	in.setup
variable	out_freq equal 1000
variable	out_freq2 equal 10000
variable	out_freq3 equal 1000

timestep	2.0

neigh_modify    delay 7 every 1

include		in.tip4p
# This is TIP4P/Ice

# create groups ###
group ox type 2
336 atoms in group ox
group hy type 1
672 atoms in group hy

# set charges - beside manually ###
set group ox charge -1.1794
Setting atom values ...
  336 settings made for charge
set group hy charge 0.5897
Setting atom values ...
  672 settings made for charge

# ### TIP3P Potential Parameters ###
pair_style lj/cut/tip4p/long/omp 2 1 1 1 0.1577 8.5
pair_coeff 1 1*2 0.000 0.000
pair_coeff 2 2 0.21084 3.1668
bond_style  harmonic
bond_coeff  1 450 0.9572
angle_style harmonic
angle_coeff 1 55 104.52
kspace_style pppm/tip4p/omp 1.0e-5
pair_modify tail yes

thermo          ${out_freq}
thermo          1000
thermo_style    custom step temp pe etotal epair emol press lx ly lz vol pxx pyy pzz pxy pxz pyz enthalpy

restart 	${out_freq3} restart.lmp.${pid} restart2.lmp.${pid}
restart 	1000 restart.lmp.${pid} restart2.lmp.${pid}
restart 	1000 restart.lmp.0 restart2.lmp.${pid}
restart 	1000 restart.lmp.0 restart2.lmp.0


include         in.dump
dump            myDump all atom ${out_freq2} dump.water.${pid}
dump            myDump all atom 10000 dump.water.${pid}
dump            myDump all atom 10000 dump.water.0
dump            myDump2 all dcd ${out_freq2} dump.dcd
dump            myDump2 all dcd 10000 dump.dcd
dump_modify     myDump append yes
dump_modify     myDump2 append yes


variable natoms 	equal  "count(all)"                        # NUMBER ATOMS
variable H      	equal  "enthalpy/v_natoms"                 # ENTHALPY-per-atom
variable Vol      	equal  "vol/v_natoms"                 # volume-per-atom
fix AVG all 		ave/time ${out_freq} 1 ${out_freq} v_Vol v_H file vol_enthalpy.dat
fix AVG all 		ave/time 1000 1 ${out_freq} v_Vol v_H file vol_enthalpy.dat
fix AVG all 		ave/time 1000 1 1000 v_Vol v_H file vol_enthalpy.dat



fix 		1 all shake 1e-6 200 0 b 1 a 1
Finding SHAKE clusters ...
       0 = # of size 2 clusters
       0 = # of size 3 clusters
       0 = # of size 4 clusters
     336 = # of frozen angles
  find clusters CPU = 0.000 seconds
fix             2 all nph tri ${pressure} ${pressure} ${pressureDamp}
fix             2 all nph tri 7891.2 ${pressure} ${pressureDamp}
fix             2 all nph tri 7891.2 7891.2 ${pressureDamp}
fix             2 all nph tri 7891.2 7891.2 1000
fix             3 all temp/csvr ${temperature} ${temperature} ${tempDamp} ${seed}
fix             3 all temp/csvr 273.97 ${temperature} ${tempDamp} ${seed}
fix             3 all temp/csvr 273.97 273.97 ${tempDamp} ${seed}
fix             3 all temp/csvr 273.97 273.97 100 ${seed}
fix             3 all temp/csvr 273.97 273.97 100 745823


run             250000
PPPM initialization ...
  extracting TIP4P info from pair style
  using 12-bit tables for long-range coulomb (../kspace.cpp:340)
  G vector (1/distance) = 0.38295821
  grid = 24 30 32
  stencil order = 5
  estimated absolute RMS force accuracy = 0.0019956614
  estimated relative force accuracy = 6.009875e-06
  using double precision FFTW3
  3d grid and FFT values/proc = 5355 768
Last active /omp style is kspace_style pppm/tip4p/omp
Neighbor list info ...
  update every 1 steps, delay 7 steps, check yes
  max neighbors/atom: 2000, page size: 100000
  master list distance cutoff = 10.8154
  ghost atom cutoff = 10.8154
  binsize = 5.4077, bins = 5 5 4
  1 neighbor lists, perpetual/occasional/extra = 1 0 0
  (1) pair lj/cut/tip4p/long/omp, perpetual
      attributes: half, newton on, omp
      pair build: half/bin/newton/tri/omp
      stencil: half/bin/3d/tri
      bin: standard
Setting up Verlet run ...
  Unit style    : real
  Current step  : 2750000
  Time step     : 2
Per MPI rank memory allocation (min/avg/max) = 10.33 | 10.34 | 10.34 Mbytes
Step Temp PotEng TotEng E_pair E_mol Press Lx Ly Lz Volume Pxx Pyy Pzz Pxy Pxz Pyz Enthalpy 
 2750000    291.11265   -4787.2901   -4205.0288   -4787.2901            0    8305.6428    17.914633    23.167699    19.167037    7955.1028    7156.9213    8900.8424    8859.1647    -1149.978    869.10764     627.8175   -3241.4329 
 2751000    279.66805    -4809.492   -4250.1214    -4809.492            0    7442.4363    17.792505    23.245264    19.400451     8023.861    8057.3661    7568.1168    6701.8261    162.54257    963.58721    190.12672   -3379.2091 
 2752000     280.7869   -4803.4374    -4241.829   -4803.4374            0    6772.4077    18.051004    23.223911    19.176034    8038.8792    9464.2869    5278.8107    5574.1255   -264.93647    617.60837    1166.5004     -3447.84 
 2753000    278.21013   -4790.4695   -4234.0148   -4790.4695            0    9535.5308    17.882181    23.026389     19.26887    7934.1896    9430.7585    8663.1251    10512.709   -54.343188   -790.91429    291.65464   -3130.6393 
 2754000    267.04576    -4823.562   -4289.4375    -4823.562            0    6716.3752    18.010199    22.923307    19.481641    8043.0603    5784.3315    6879.9358    7484.8582    988.30399    148.57517    1494.1676   -3501.6081 
 2755000    274.68631   -4787.6567   -4238.2502   -4787.6567            0    8830.3012     18.09108    22.759382     19.31531    7952.9205    9288.5573    9007.7168    8194.6295    34.440609   -820.10687    -1.538303    -3214.066 
 2756000    279.10209   -4789.1088   -4230.8702   -4789.1088            0    7163.2269     18.10581    22.720959    19.454207    8003.0984    5666.4699    7881.7165    7941.4942   -912.50635    69.165978    -17.79857      -3394.8 
 2757000    261.80514   -4761.8175   -4238.1749   -4761.8175            0    8919.5923    18.099382    22.758606    19.376237    7981.3958    8442.5935    8242.0406    10074.143    -48.46685   -385.97763   -1292.7186   -3199.9302 
 2758000    267.62762   -4772.8797   -4237.5914   -4772.8797            0    7892.0106    18.068944    22.762479    19.494464    8017.9555    7772.1423    7165.0688    8738.8209    -619.3012   -566.61098    461.92818   -3314.7497 
 2759000     295.9417    -4786.491   -4194.5711    -4786.491            0    9855.3301    18.204101     22.74856    19.261499    7976.5158    8120.3803    9934.3029    11511.307    1219.5912    523.38105    -1272.074   -3048.1074 
 2760000    285.21467   -4787.9156    -4217.451   -4787.9156            0    6231.3465     17.99674    22.973278    19.388325    8015.9888     5725.305    5772.6948    7196.0395   -1999.7626    867.04184   -2572.6879   -3488.9756 
 2761000    274.37011   -4801.1674   -4252.3933   -4801.1674            0    8667.7654    18.170374    22.876369    19.244685    7999.4802    7091.0488    8363.1905    10549.057    1302.3935   -189.06933   -1669.6287   -3241.1753 
 2762000    272.29353   -4725.8009   -4181.1802   -4725.8009            0    10556.975    17.788047    22.899372    19.471108    7931.2659    12019.365    9725.2852    9926.2746   -1370.4699    746.40413   -1217.4459   -2960.0614 
 2763000    285.46015   -4752.6576   -4181.7021   -4752.6576            0    8720.6473    18.168459    22.834332    19.229846    7977.7828    7319.3825    8436.0454    10406.514    939.11712   -2178.5204   -245.76452   -3167.0741 
 2764000    282.46616   -4810.0797   -4245.1125   -4810.0797            0    9509.6507    17.948729    22.896961    19.349215    7951.9727    9637.8792    10711.874    8179.1985   -1418.3673    417.57844   -71.334936   -3142.2653 
 2765000    263.31495   -4770.2308   -4243.5683   -4770.2308            0    5895.5757    18.135511    23.060599    19.321112    8080.3932    5426.2276    6563.5533    5696.9462    1466.4944    103.98574    1279.8265   -3548.8087 
 2766000    271.50631    -4759.111   -4216.0649    -4759.111            0     9914.014    17.758788    23.064885    19.299867    7905.3105    10249.871    8604.0099    10888.161   -923.40452    455.70118   -2250.7559   -3073.0698 
 2767000    276.14767   -4784.9275    -4232.598   -4784.9275            0    6617.6298    17.985807    23.144287    19.190861    7988.5544    7510.8299    6631.8112    5710.2482    838.18971   -487.82007    298.55329   -3461.6119 
 2768000    264.67145   -4796.8197   -4267.4441   -4796.8197            0    6699.9717     17.99031    22.986501    19.376277     8012.755    7648.3231    6972.1939     5479.398   -504.27747    801.45873   -576.27227      -3484.5 
 2769000    271.20819    -4773.375   -4230.9251    -4773.375            0    7499.6554    18.041066    23.024933    19.160186     7959.033    8432.7235    6292.7116    7773.5311   -856.55503   -127.64699   -998.53297   -3360.4076 
 2770000    277.42647     -4788.32   -4233.4327     -4788.32            0    8295.2568    17.817017    23.034094    19.385036    7955.5965    9976.6731    7272.5703     7636.527     802.1784   -735.52554    14.268294   -3270.9821 
 2771000    279.68942   -4830.6827   -4271.2693   -4830.6827            0    6316.2064    17.900163    23.023813    19.381991    7987.9004    6317.6772    6549.4814    6081.4607    145.43676   -630.60024   -273.75214   -3535.4608 
 2772000     278.0162   -4795.6047   -4239.5379   -4795.6047            0    8202.1297    17.894763    23.108204    19.269232    7968.1325     7612.126     8042.892    8951.3713    1893.0873    1208.9256    1420.3506   -3286.3927 
 2773000    271.84087   -4817.8838   -4274.1685   -4817.8838            0    7766.9708    17.938274    23.299514    19.122172    7992.1702    7042.7086    6651.2496    9606.9543   -540.27099    429.90094     247.2919    -3368.869 
 2774000    293.22102   -4775.5951   -4189.1168   -4775.5951            0    7677.9852     17.90418    22.960594    19.419951    7983.3594    8351.2171    8298.2335    6384.5051    1181.1888    1148.7347    588.58033   -3295.1758 
 2775000    268.08485   -4744.0386   -4207.8358   -4744.0386            0     7717.769    18.100428    22.945807     19.31324    8021.3471    7686.5002    7659.4466    7807.3602   -597.13249   -1037.8592    -422.0302   -3304.9871 
 2776000    276.10941   -4763.9446   -4211.6917   -4763.9446            0    7961.3248    18.072685    22.842783    19.370238    7996.6234    7224.5661    8346.9481    8312.4602    557.37904    456.26266    1063.2041   -3283.2217 
 2777000    286.31247      -4777.1   -4204.4396      -4777.1            0     6572.508    17.974038    23.049019    19.308044    7999.0127    9645.0518    5973.8424    4098.6297   -1374.3842   -390.86645    550.45644    -3437.708 
 2778000    267.96721   -4792.9717   -4257.0041   -4792.9717            0    6615.2539    18.049245     22.98562    19.342219    8024.5657    5302.9225    6954.9574    7587.8816   -491.70874   -731.63367   -303.02745   -3482.8206 
 2779000    275.01229   -4778.9762   -4228.9177   -4778.9762            0    8709.9859    17.745149    23.097047    19.414517    7957.2444     10837.47      9336.08     5956.408     2131.334    836.40621    2013.1927   -3218.1391 
 2780000    275.42485   -4756.9098    -4206.026   -4756.9098            0    9546.5669    17.949671    23.091171    19.175314    7947.7635    9272.9089      9550.83    9815.9619   -2078.8489      151.828    112.29137   -3099.4837 
 2781000    283.26757   -4773.4044   -4206.8343   -4773.4044            0    6047.9887    17.999553     23.02642    19.418532    8048.3071     5591.371    6437.9839    6114.6111    939.03369   -228.64076   -230.97625   -3496.9437 
 2782000    271.85396   -4765.4268   -4221.6853   -4765.4268            0    7932.0815    17.917128     22.87099    19.482044       7983.4    7813.6318    8191.7054    7790.9073    890.32053   -1836.1945    369.32411   -3298.1555 
 2783000    287.97288   -4819.8083    -4243.827   -4819.8083            0    7915.6519    18.171224    22.698483    19.349666    7980.9485    9096.9563    8097.6908    6552.3085    939.63269   -97.946991    976.90598    -3322.493 
 2784000    259.75036   -4784.5672   -4265.0344   -4784.5672            0    8061.8496    18.175662    22.623698    19.427669    7988.6712    6496.7547    8535.8969    9152.8974    1195.4076    861.43699    1310.3458   -3325.7759 
 2785000    281.74341   -4828.7168   -4265.1952   -4828.7168            0    9638.2007     18.21374     22.45278    19.423148     7943.079    8296.1084    10611.605    10006.889   -903.32488    754.00061   -1101.9935     -3148.69 
 2786000    267.33508   -4810.0467   -4275.3435   -4810.0467            0    7591.2932    18.025369    22.795582    19.425041    7981.7256    7987.9318    7545.4588     7240.489   -1496.2351   -1035.2086    94.635617   -3391.6769 
 2787000     274.2741   -4777.6032   -4229.0211   -4777.6032            0    8966.9823    18.055217    22.770395    19.320648    7943.1904    10096.651    8805.3687    7998.9269    179.30604    160.11241    750.48644   -3190.2564 
 2788000    276.33171   -4808.9113   -4256.2138   -4808.9113            0    5714.8323    17.980575    23.029783    19.414748    8039.4288     7116.627    5987.3219     4040.548   -1511.4213    17.371797    -1042.718   -3586.1678 
 2789000    276.04552   -4792.7704   -4240.6453   -4792.7704            0    8519.1791    17.917585    22.997246     19.24381    7929.5102    7251.4442     9705.765    8600.3282    265.19167    480.07692   -911.75167   -3255.4553 
 2790000    268.03183   -4768.3731   -4232.2763   -4768.3731            0    5530.2559    17.915754    23.262557    19.311936    8048.5628    5739.8594    5815.8012    5035.1071   -289.10868   -433.76309   -2052.6334   -3583.1347 
 2791000    282.45616   -4794.6701   -4229.7229   -4794.6701            0     8386.001    17.898905    23.180782    19.202302     7967.239     8855.951    8411.3715    7890.6806    105.52164    1011.8212    1124.3931   -3255.3199 
 2792000    282.57436   -4793.2185   -4228.0349   -4793.2185            0    9810.2483    17.811285    23.119789    19.254524    7928.8812    9829.6994    9048.0208    10553.025    -1105.521    264.24688    -787.0963   -3093.6308 
 2793000    278.80525   -4774.7582   -4217.1133   -4774.7582            0    6033.1526    18.230911    22.942501    19.305385    8074.7223    5270.2164    7843.3449    4985.8964   -330.65948    69.649093   -366.59333   -3506.6399 
 2794000    277.48718   -4826.5149   -4271.5062   -4826.5149            0     8644.798    18.036784    22.647461    19.467182    7952.0978    12995.216    7948.9802    4990.1979    237.74743   -1290.5905    1652.9639   -3268.9415 
 2795000    265.94339   -4803.0795   -4271.1598   -4803.0795            0    7501.0137    17.997558    22.807275    19.450377    7983.8983    8095.3512    8295.4031    6112.2868    -1673.544   -321.03242    389.38921   -3397.7646 
 2796000    265.08916   -4782.5461    -4252.335   -4782.5461            0    9281.6611    18.015099    22.743193    19.401642    7949.2579    9222.1109    10505.024     8117.848   -318.33538    298.28539    73.002462   -3176.2956 
 2797000    277.44873   -4797.5691   -4242.6373   -4797.5691            0    5981.9572    18.167758    22.748822    19.421487    8026.8055    3954.4066     7127.835    6863.6301   -1171.6975    642.56766    89.916396   -3542.3731 
 2798000    274.88076   -4815.2303   -4265.4349   -4815.2303            0     8080.011    18.380851     22.38516    19.427464    7993.5911    5232.0549    9535.6288    9472.3494    1253.4277   -158.36329    1318.6189   -3323.4807 
 2799000    276.25659   -4768.6671   -4216.1198   -4768.6671            0    7783.9862    18.014234    22.647371      19.6115    8001.0026    8226.2149     8366.724    6759.0198    1988.0195   -1043.1321   -259.55891   -3307.8343 
 2800000    273.72399   -4823.3595   -4275.8777   -4823.3595            0    6787.2471    18.087365    22.903702    19.304516    7997.2357    5530.1073    7203.7838    7627.8503   -173.63952    552.77779   -847.96072   -3484.2711 
 2801000     283.4904   -4729.6516   -4162.6358   -4729.6516            0    9439.5995    17.785409    23.165879    19.369258    7980.4176    10243.267    9125.3033    8950.2281    275.26742   -413.10896   -1296.1445   -3063.9966 
 2802000    273.03657   -4794.6028   -4248.4959   -4794.6028            0    8818.0094    17.841554    23.124663    19.217825    7928.8889     8716.461    8601.6729    9135.8941   -1171.7647    61.803164    206.15664   -3228.8279 
 2803000    273.71024    -4823.048   -4275.5937    -4823.048            0    8387.0665    17.814205    23.165074    19.301446     7965.077    8876.9887    8629.4884    7654.7225   -390.35668   -203.92992   -344.96864   -3301.3313 
 2804000    282.96052   -4779.5826   -4213.6266   -4779.5826            0    7442.5461    18.004854    23.338123     19.06858    8012.6075    6524.2453    7292.4945    8510.8986   -919.47359   -376.00142    1078.0693   -3343.9229 
 2805000    278.84708   -4781.8302   -4224.1016   -4781.8302            0    7022.6661     17.86338    23.109208    19.417847    8015.8534    7914.9247    6066.4764    7086.5972    -187.0997     1174.402    1878.4857   -3403.1309 
 2806000    282.03129   -4749.5871   -4185.4897   -4749.5871            0    9089.6689    18.078629    22.939591    19.195961     7960.879    11246.801    8547.0742    7475.1311   -185.73298   -457.95579   -360.94946   -3130.1677 
 2807000    256.32193   -4775.4996   -4262.8241   -4775.4996            0    9291.7253    18.092806    22.720028    19.301888    7934.4087    9129.4606    9868.5667    8877.1487    260.78188   -547.62949    2134.7536   -3187.6301 
 2808000    258.67176   -4757.0601   -4239.6846   -4757.0601            0    6864.5366    17.775266    22.996623    19.715334    8059.0584    8552.9353     7426.916    4613.7584   -40.619471     709.3779    1392.4101   -3432.8743 
 2809000    277.94286   -4794.4959   -4238.5758   -4794.4959            0    7647.7844    18.119457    23.109548    19.098633    7997.2179    5684.9166    7726.5418    9531.8947    223.08713   -347.99347    261.59133   -3346.6054 
 2810000    268.20446   -4774.5137   -4238.0716   -4774.5137            0     9462.752    17.755834    22.877705     19.50082    7921.4814    9825.9403    10081.922    8480.3941    1066.1178    460.79259   -11.553158   -3144.8713 
 2811000    275.10199   -4759.1146   -4208.8766   -4759.1146            0    7341.8209     18.15692    23.211916    19.034899    8022.3896    5728.5598    6873.3211    9423.5817   -64.136577   -640.44289    1054.9706   -3349.8959 
 2812000    281.62473   -4746.3616   -4183.0773   -4746.3616            0    8721.2262    17.771089    23.181465    19.406351    7994.6383    10968.052    7285.8669    7909.7597   -19.521545   -66.920449   -121.29275   -3166.2382 
 2813000     282.8945    -4774.821    -4208.997    -4774.821            0    7588.4561    18.118844     22.92723    19.294532    8015.2362    6876.1665     7268.417    8620.7847   -508.89443   -44.565967    696.41892   -3321.9521 
 2814000    269.66672   -4787.4487    -4248.082   -4787.4487            0    5490.2852    18.043188    23.038637     19.43602    8079.3681    4283.8996    5669.1543    6517.8018   -1240.1699    1078.2637   -813.48408   -3601.1655 
 2815000    280.52195   -4828.5552   -4267.4766   -4828.5552            0     8003.694    17.918116    22.776505     19.51675     7965.021    8599.9306    8248.8696    7162.2817    628.92347    207.99177    1787.9977   -3337.7542 
 2816000    280.09925   -4759.2921    -4199.059   -4759.2921            0      9192.15    18.145286    22.858003    19.279971     7996.657    7775.5921    10214.559    9586.2993   -760.41807    35.145695    979.77278   -3127.0425 
 2817000    264.47673   -4792.3545   -4263.3684   -4792.3545            0    6585.4821    18.014479    22.810914    19.502027    8013.9043    5904.2687    6496.5169    7355.6605   -638.51892    554.23184     72.52597    -3493.693 
 2818000    275.82199   -4787.2506   -4235.5725   -4787.2506            0    7934.2422    18.121633    22.760306    19.332869    7973.9178    6849.7297    7990.2848     8962.712     2343.461   -433.36454    895.13281   -3312.8883 
 2819000    270.17846   -4820.5848   -4280.1945   -4820.5848            0    7343.8787    17.947627    22.767315    19.512991    7973.3845    8609.5547    6396.6596    7025.4217    -883.5892   -968.27382    410.66195   -3426.2216 
 2820000    277.62253   -4780.0657   -4224.7863   -4780.0657            0    8070.9297    18.082178    22.782359    19.364791    7977.4163    9400.1956    7983.6743    6828.9193    41.007371    824.06136   -527.90023   -3285.7947 
 2821000    281.24786   -4800.1476   -4237.6171   -4800.1476            0    8245.5556    18.148664    22.606098    19.453315    7981.1208    8566.4198    9473.8396    6696.4074     712.4176   -227.42424   -98.459008   -3277.8636 
 2822000    271.23973   -4719.1469   -4176.6339   -4719.1469            0    6300.5789    18.275603    22.686289    19.462515     8069.268    6891.4926     6272.237    5738.0069   -602.24828   -868.94484    251.34679   -3435.1692 
 2823000     267.0156   -4806.5998   -4272.5356   -4806.5998            0    9623.1116    18.066807     22.61559    19.368353    7913.7442    9504.9618    9964.3776    9399.9955    1407.5761    1687.1006    1730.2836   -3161.8953 
 2824000    261.82448   -4803.7584   -4280.0771   -4803.7584            0    7376.8059    18.045827    22.935863    19.291598    7984.7271    7876.3384    5801.0137    8453.0657    316.91478    -984.4801    459.40064    -3421.055 
 2825000    271.43333   -4793.5534   -4250.6532   -4793.5534            0    8202.6912    17.867181    23.031755    19.358738    7966.3631    11433.883    7015.8775    6158.3132    448.19748   -824.33072   -887.72455   -3297.6545 
 2826000    282.56436   -4793.7162   -4228.5526   -4793.7162            0    6945.5962    18.015369    22.928743    19.341955    7989.5769    9170.8214     5733.988    5931.9791   -630.25913   -1350.3026   -682.60555   -3419.2533 
 2827000    262.70525    -4808.926   -4283.4831    -4808.926            0    9134.7576    17.980261    22.879852    19.261329    7923.8356    8458.2837    9476.5786    9469.4104    1043.9652    667.96699    812.14082   -3227.8612 
 2828000    279.00805   -4751.6704   -4193.6199   -4751.6704            0     7894.685    17.960338    22.948668    19.439128    8012.1444    7577.4819    8752.9749    7353.5983    342.59698   -521.17393   -211.85857   -3271.1345 
 2829000     263.8347   -4786.0541   -4258.3521   -4786.0541            0    8216.8084    18.039683    22.901778    19.275288    7963.4078    7520.3567    8024.9846     9105.084   -1133.9227   -470.91212   -108.61677   -3304.0673 
 2830000    284.32128   -4783.2681   -4214.5905   -4783.2681            0    7530.5062     18.03015    22.834778    19.488859    8023.8455    9577.1072    6895.5463     6118.865    1067.7065    292.26534    3245.4355    -3333.374 
 2831000    282.00191    -4804.471   -4240.4323    -4804.471            0     4127.918    18.260304     23.00607    19.282874    8100.6936    3632.2805    4070.0131    4681.4605   -674.04238   -608.26032    168.33091   -3752.7588 
 2832000     272.9479   -4813.2717   -4267.3422   -4813.2717            0    9268.9123    17.900472    22.951189    19.266545     7915.412    9383.4308    10230.156    8193.1496    1303.1669    581.96237    803.47502    -3197.356 
 2833000    272.47745   -4763.6913   -4218.7028   -4763.6913            0    8096.7886    18.019755    22.834706    19.442552    8000.1396    9334.0747    8514.7985    6441.4926    2150.7267   -54.358784    1790.8873   -3274.0194 
 2834000    291.83954   -4794.7448   -4211.0296   -4794.7448            0    6439.3565    18.208578    22.885014    19.310397    8046.7112     4537.304    7848.2944    6932.4711    -1852.032    320.84072   -440.22986   -3455.3517 
 2835000    274.31874   -4800.1519   -4251.4805   -4800.1519            0    10426.569    17.922885    22.751633    19.381029    7903.0973    11026.688    11454.826     8798.194    76.939264     564.1548   -302.87913   -3049.7291 
 2836000    270.44546   -4795.8239   -4254.8996   -4795.8239            0    6237.4776    17.923603    23.205482    19.243153    8003.7246    8966.8709    4751.3721    4994.1899    3786.7796   -258.61838    2011.1105   -3526.8231 
 2837000    275.41885    -4803.256   -4252.3843    -4803.256            0    7154.7049    17.986104    22.868084    19.402461    7980.3827    7910.8989     7263.867    6289.3487    136.58967   -159.87156   -1676.6008   -3419.6789 
 2838000    282.70039   -4807.5939   -4242.1582   -4807.5939            0    8025.7232    18.010001    22.858783    19.301696    7946.2515    8863.8559    7392.4739    7820.8397   -69.807323    215.40121    418.29037   -3312.0738 
 2839000    270.02675   -4842.8282   -4302.7413   -4842.8282            0     6515.087     17.90541    23.129948    19.360265    8018.0773    7578.6739    5935.3642    6031.2229   -417.77866   -1273.0658     -1471.79   -3540.8968 
 2840000      267.861   -4778.0162   -4242.2611   -4778.0162            0    9845.7205    17.798286    23.007602    19.345101    7921.7393    10826.347    10324.441    8386.3735    1933.0211   -629.17311   -611.24179   -3104.7807 
 2841000    263.84189   -4784.1448   -4256.4284   -4784.1448            0    6921.1667    18.044777    23.039128    19.239621    7998.6016    7446.8267    5751.1083     7565.565    41.036755    454.30636   -543.19941   -3449.0646 
 2842000    262.09888   -4775.1847   -4250.9546   -4775.1847            0    9124.1087    17.987383    23.107577    19.173442    7969.3425    8973.3473    8335.2029    10063.776    507.02655    1144.5527   -1919.6828   -3190.5079 
 2843000    283.24649   -4774.6628   -4208.1349   -4774.6628            0    8905.1789    17.992788    23.121676    19.141219    7963.1952    8201.4563    9788.8908    8725.1897    634.26504    782.92734   -154.13906   -3173.9316 
 2844000    263.89839   -4766.3456   -4238.5162   -4766.3456            0    7084.2487    17.888973    23.087981    19.314209    7977.1597    7260.4551    6990.0358    7002.2551    548.34762    846.07553   -353.81768   -3414.3439 
 2845000    258.98771   -4796.5387   -4278.5313   -4796.5387            0    8926.3622    17.812867    23.087183    19.272842    7925.9356    7964.9549    10524.787    8289.3452    813.84329   -330.69326    1052.9269   -3246.7184 
 2846000    275.92021   -4783.9038   -4232.0293   -4783.9038            0     6490.944    17.957358    23.100965    19.360236    8031.2512    6373.1951    6773.1588    6326.4781   -1235.7869    512.79486    434.91104   -3471.7609 
 2847000    266.80849   -4780.9623   -4247.3124   -4780.9623            0    7406.8518     17.96772    23.124312    19.229407    7989.6486    7014.7743    7693.9171    7511.8639    440.85303    105.08823    1428.8833   -3384.2598 
 2848000    280.63178   -4803.9863   -4242.6881   -4803.9863            0    7937.2046    17.818221     23.21932    19.226852    7954.6672    8773.3172    6683.9435    8354.3531   -467.40295    297.06995   -784.39822   -3321.8877 
 2849000    274.95261   -4809.0199   -4259.0807   -4809.0199            0    7066.8305     17.84863    23.214901    19.293325    7994.2699    8953.2132    6424.1175    5823.1609   -1019.0973    1398.0385   -177.79211   -3435.1715 
 2850000    268.16863    -4778.587   -4242.2166    -4778.587            0     8471.512    18.022288    23.221166     19.04842    7971.7358    7801.9579    7956.6227    9655.9552    472.52332    560.42691   -973.44321   -3257.3221 
 2851000    264.05167   -4803.6912   -4275.5553   -4803.6912            0     8016.533    17.680123    23.044009    19.524105    7954.5286    9453.8664    9155.8592    5439.8734    443.93019    1419.1536    11.317879   -3345.5682 
 2852000    276.32403   -4780.9898   -4228.3076   -4780.9898            0    9583.7128    18.074333    22.862475     19.17408    7923.1902     8394.788    10187.279    10169.072   -906.66658    446.32914   -2550.4851   -3120.8942 
 2853000    285.62503   -4800.3129   -4229.0275   -4800.3129            0    7750.1926    17.996179    22.897019    19.433427    8007.7154    8316.7001    7810.3006    7123.5771    284.54015     585.8095    408.12164   -3323.9266 
 2854000    281.92565   -4780.4985   -4216.6123   -4780.4985            0    8998.6995    18.008691    22.764934    19.425265     7963.711    9709.4004    9468.7477    7817.9504     -594.114    349.98184   -1238.5547   -3171.4804 
 2855000    293.04782    -4780.167   -4194.0352    -4780.167            0     5991.523    18.219786    22.885645    19.341315    8064.7785    4365.2804    5382.7893    8226.4992   -943.39232   -1006.5786    789.36498   -3489.3331 
 2856000     260.0578   -4795.3704   -4275.2227   -4795.3704            0    5836.8035    17.941844    22.811935    19.598789    8021.5526    5926.7942    6308.7312    5274.8851   -1071.9136    624.09815   -295.33985   -3592.3977 
 2857000    281.81975   -4794.8118   -4231.1375   -4794.8118            0    8614.2585    18.178952    22.742205    19.368695    8007.5891    7785.0434    9485.4148    8572.3173    1136.1884     121.5339   -27.649416   -3225.1431 
 2858000     277.4099   -4771.5884   -4216.7343   -4771.5884            0    9136.6618    18.083374    22.708392    19.380828    7958.6274    7731.6467    10475.725    9202.6139   -889.78785    547.99617   -957.67941   -3156.2564 
 2859000     275.6789   -4800.3903   -4248.9984   -4800.3903            0    6000.7826    18.225205    22.720013    19.390724    8029.2507    5887.0131    6071.8001    6043.5347   -986.97802   -599.92766    17.681737   -3546.3165 
 2860000    273.87089   -4759.6885   -4211.9129   -4759.6885            0     8586.577    18.081331    22.659257    19.474284    7978.7995    9514.1839    8585.8582    7659.6889   -1058.9663   -462.94086    691.06628   -3212.7564 
 2861000    289.06696   -4775.9116    -4197.742   -4775.9116            0    8273.4921    18.200371    22.611756     19.43293    7997.4736    8056.9602    8183.3084    8580.2078   -1061.8306   -2057.6932    437.91016   -3232.7637 
 2862000     279.2378   -4781.5728   -4223.0627   -4781.5728            0    9338.5672    18.068908    22.506593    19.499873    7930.0047    11080.339    9831.2458    7104.1171    322.50772    461.64621    1249.8913   -3143.0482 
 2863000    279.12134   -4814.1176   -4255.8404   -4814.1176            0    9561.6899     18.16986    22.642703    19.268993    7927.5477    9139.4379    10277.367    9268.2652   -794.55556    -146.0292   -1104.9519   -3150.3642 
 2864000    277.81128   -4785.3758   -4229.7189   -4785.3758            0    6260.2101    17.920318    22.833889    19.685993     8055.322    8459.5295     5323.225    4997.8758    198.64063   -233.96996   -707.69029   -3494.2781 
 2865000    273.29492   -4790.9274   -4244.3038   -4790.9274            0    8462.8943    18.083088    22.947767     19.16498    7952.8243    6263.2322    8267.2072    10858.243    693.29142     729.1696    506.18376   -3262.7453 
 2866000    264.40308    -4798.725   -4269.8861    -4798.725            0    8599.1418    17.832813    23.054739    19.328895    7946.7049    9268.2744    8295.0402    8234.1108   -1050.8831    368.36167    219.15872   -3273.2926 
 2867000    262.64033   -4806.0627   -4280.7496   -4806.0627            0     6599.001     17.94403    23.252198    19.230298    8023.6135    6839.8622      5707.24    7249.9009     12.75918   -1669.0519   -338.58068   -3508.5598 
 2868000    269.00585   -4795.0775   -4257.0326   -4795.0775            0    9153.3978    17.794943    23.141629    19.204853    7908.6345    6743.6279    10091.671    10624.894    -409.5884   -1127.4396   -12.692857   -3201.2859 
 2869000    256.72848   -4774.3197    -4260.831   -4774.3197            0    9231.1951    17.827824    23.127229     19.29667    7956.1747    9916.5073    8767.2668    9009.8111   -82.033004    1685.8397   -112.81868    -3189.711 
 2870000    266.17362   -4775.5164   -4243.1363   -4775.5164            0    9287.9613    17.868992    23.231161    19.081891    7921.2257    9818.6045    9132.1315     8913.148    1000.7448    751.11693    2104.0359   -3170.1636 
 2871000    277.12357    -4819.289   -4265.0077    -4819.289            0    5039.4716    17.606169    23.503052    19.385032    8021.5014     7258.182    4364.9838    3495.2491    134.54663   -55.533572   -179.52201   -3675.4632 
 2872000    277.06664   -4771.8377   -4217.6702   -4771.8377            0    6416.3653    18.103559    23.120324    19.183209    8029.3265    6577.0231    5504.6163    7167.4565    694.17177   -28.282239   -1051.8555   -3466.3171 
 2873000    277.79809   -4791.1967   -4235.5662   -4791.1967            0    8565.8103    17.691224    23.018771    19.459627    7924.5483    10262.079    9338.1966    6097.1549    1719.1214    611.17651    691.26169   -3245.6034 
 2874000    272.18279   -4779.6351   -4235.2359   -4779.6351            0    5800.9832    18.041877    23.010038    19.307004    8015.1922    7652.9409    4063.0015    5687.0072   -399.07234   -1704.9267    104.40585   -3557.1395 
 2875000    276.49664   -4758.6248   -4205.5974   -4758.6248            0    9473.5935    17.960056    22.797876    19.433673    7957.1396    7707.7501    10431.587    10281.443   -297.17507   -193.71275   -702.89219    -3106.218 
 2876000    269.35489   -4796.2381   -4257.4951   -4796.2381            0    7433.0192    18.190581    22.849233    19.265298    8007.4439    7610.6255    7120.6914    7567.7407    -1458.172    1271.9819   -750.49882   -3389.4645 
 2877000    264.13683   -4791.5366   -4263.2303   -4791.5366            0    6077.7165    18.053189    22.838526    19.584681     8074.925    7158.7665    5558.9494    5515.4337    1010.0498    203.39521    744.05079   -3547.4911 
 2878000    270.44876   -4803.4777   -4262.5468   -4803.4777            0    8856.1635    17.992129    23.094618    19.117771    7943.8418    7979.8415    8623.2385    9965.4105   -168.10612    695.13635   -266.68016   -3236.5356 
 2879000    283.54105   -4757.7388   -4190.6217   -4757.7388            0    7894.3344    17.817244    23.205195    19.356896    8003.1596    11086.701    7168.1931     5428.109   -207.77347    501.99137   -245.33721   -3269.2118 
 2880000    272.83903   -4819.6879   -4273.9761   -4819.6879            0    6729.5557    17.916483    23.193763    19.222662      7987.99    6324.5988    6197.2836    7666.7846   -159.23356    219.77733    1606.2873   -3490.0055 
 2881000    273.34102   -4822.5761   -4275.8603   -4822.5761            0    8216.8295    17.835823    22.970642    19.348247    7926.9831    8136.6898    8684.3888      7829.41   -1023.3738    275.21507    19.206876    -3325.938 
 2882000    283.97512   -4781.7399   -4213.7546   -4781.7399            0    5881.7513    17.905362    23.201071    19.312877    8023.0243    6448.4717    6086.9259    5109.8565   -1787.7002   -411.75415   -1174.3573   -3525.5451 
 2883000    294.28971   -4799.8874   -4211.2717   -4799.8874            0    7923.9998    17.912693    22.951305    19.380516    7967.7114    8305.6147    7334.8313    8131.5534   -513.04152   -639.10267   -1022.9551   -3290.4958 
 2884000    270.74043   -4815.6332   -4274.1188   -4815.6332            0    7975.0043     17.97757    22.973008    19.311092    7975.4594    6074.8094    8386.3705    9463.8329   -81.399853   -489.69969   -849.79251    -3346.515 
 2885000    277.18947   -4796.1032     -4241.69   -4796.1032            0    11172.939    18.000026    22.794786    19.120287    7845.1826    11701.287    10252.914    11564.615    1553.1427   -451.15429   -425.27574   -2963.3501 
 2886000    284.10588     -4793.24   -4224.9932     -4793.24            0    7702.6194     17.95173     23.02372     19.36711    8004.7284    10501.435    5884.6051    6721.8185    1010.3874   -1295.6179   -18.456712   -3325.7836 
 2887000    277.87622    -4804.096   -4248.3093    -4804.096            0    9529.6375    18.004262    22.980753    19.197827    7943.1301    8445.1812    8592.2464    11551.485    331.31626   -1100.4127    1530.3139   -3144.3731 
 2888000    273.85514   -4791.9414   -4244.1973   -4791.9414            0    8836.5425    17.956558    22.722266    19.489932    7952.1591    10258.871     9108.993    7141.7634   -1121.9631   -919.11842   -1766.9155   -3219.3874 
 2889000    254.22888   -4781.7735   -4273.2843   -4781.7735            0    8721.9451    17.967088    22.948971     19.29996    7957.8789    8886.8052    7542.3928    9736.6372    1925.5444   -826.40886    969.62457   -3261.0372 
 2890000    275.91246   -4775.2292   -4223.3702   -4775.2292            0    6131.2144    18.135194    23.148764    19.211339    8065.0607    5010.0897    6518.2773    6865.2761   -645.10544    240.21181   -2051.9427   -3502.2129 
 2891000    274.03793   -4790.0649   -4241.9551   -4790.0649            0    7935.1286    17.786823    23.108389    19.374766    7963.5098      8008.72    7574.0539     8222.612    1520.0667     298.8879    897.79578   -3320.3723 
 2892000    269.86477   -4777.9031   -4238.1402   -4777.9031            0    8425.3019      17.9817    23.152831    19.141677    7969.2019    7501.8633    8710.0627    9063.9799    759.52742   -744.22922   -786.41665   -3258.9294 
 2893000    275.12177    -4808.298   -4258.0205    -4808.298            0    7131.6022    17.914814    23.062243    19.334117    7988.0025    8007.2901    6781.0265    6606.4899    316.47058    125.97506   -2343.0862   -3427.2115 
 2894000    273.12686   -4787.2253   -4240.9378   -4787.2253            0    6761.6425    17.870987    23.077686    19.399986    8000.9623    6679.7596    7199.8312    6405.3366    600.58429    1639.1675   -131.64244     -3451.95 
 2895000    277.20489   -4796.4768   -4242.0327   -4796.4768            0    8782.0571    17.986778    23.188132    19.072734    7954.8519    7171.4335    8161.9791    11012.759   -72.573006   -210.11847    636.77192   -3223.1968 
 2896000     280.3215   -4814.5404   -4253.8627   -4814.5404            0    8255.1591    17.811034    23.263455    19.248844    7975.6852    7652.6616    8811.3778     8301.438    1561.9094    343.73283   -1003.9411   -3293.6458 
 2897000    257.21688   -4780.0636   -4265.5981   -4780.0636            0     7346.192    17.797539    23.249543    19.208853    7948.3283    6768.5531    6701.6187    8568.4043    415.56168   -590.01571    228.88693   -3414.0406 
 2898000    273.39454   -4796.9603   -4250.1375   -4796.9603            0    7614.8525     17.97694    23.242597    19.177875    8013.1067    7928.2754    6699.1178    8217.1642    -243.4928    1061.6971   -1071.0013   -3360.2434 
 2899000    281.39747   -4766.4161   -4203.5864   -4766.4161            0    7011.6421    17.873102    23.178825    19.299219    7995.2325    8001.3754    6417.5022    6616.0485   -1878.2907    956.64649   -1633.1315   -3386.0131 
 2900000    270.24344    -4800.162   -4259.6417    -4800.162            0    8321.0944    17.947663    23.010577    19.279048    7961.9784     8562.397     7290.184    9110.7021    345.87759     86.77524    503.94659   -3293.4188 
 2901000    269.32295    -4728.896   -4190.2168    -4728.896            0    8481.2671    17.923929    22.956928    19.438612     7998.568    9294.1985    8211.3945    7938.2084    393.87956   -1029.8701    561.94854   -3200.8693 
 2902000    270.38997    -4774.537   -4233.7236    -4774.537            0    9863.9991    17.924349    22.830982    19.335835    7912.8136    9113.5883    9979.3293     10499.08   -1323.6883   -603.07534    1260.6835   -3095.4155 
 2903000    271.29229   -4773.6937   -4231.0755   -4773.6937            0    6939.3306    18.207634    22.876089    19.321856    8047.9287    6816.9609    6830.2891    7170.7418   -482.34712   -672.55623   -1614.2698   -3416.6009 
 2904000    276.07334     -4799.34   -4247.1592     -4799.34            0    8635.9348    17.923074    22.836427    19.428165     7951.928    8986.9295    9488.7353    7432.1395   -904.67692    1108.6582   -970.43511   -3245.6437 
 2905000    264.38619   -4784.8667   -4256.0617   -4784.8667            0    8876.7579    17.932704    23.024945    19.260501    7952.6519    7483.9702    10162.277    8984.0264    277.58572   -503.03492   -568.25854    -3226.524 
 2906000    255.92357   -4797.8738   -4285.9951   -4797.8738            0    5118.5425    17.993525    23.075055    19.399725    8054.7961    5528.1034    4756.1171     5071.407    120.42739   -1031.4152   -47.670304   -3684.7151 
 2907000    274.77664   -4801.5097   -4251.9224   -4801.5097            0    8097.8602    17.969792    23.130753    19.193933     7978.051    7861.6933    7974.7186    8457.1688   -739.02261    200.30296    1393.9977   -3309.7227 
 2908000     264.7027   -4801.5853   -4272.1472   -4801.5853            0    8931.3306    17.870978    23.117828    19.162534    7916.7749    6427.4252    9738.4727    10628.094   -525.18878    222.56024    353.99332   -3240.9533 
 2909000    263.42599   -4796.6357   -4269.7512   -4796.6357            0    5579.5236    17.903207    23.137811    19.391785     8032.873    5687.8084    5162.3962    5888.3661   -1095.8801   -497.87726   -482.33929   -3616.1033 
 2910000    293.77791   -4828.1216   -4240.5295   -4828.1216            0    8204.3171     17.85585      23.0029    19.464279    7994.6868    10831.461    7814.3889    5967.1011   -1388.1372   -174.08933   -696.05178   -3283.9528 
 2911000    270.10286   -4807.7669   -4267.5278   -4807.7669            0    9046.1137    18.024225    22.888311    19.257388    7944.5211    8723.6203    9326.6391    9088.0818    207.37824   -23.054289     296.5237   -3219.4207 
 2912000    274.62393   -4792.8458   -4243.5641   -4792.8458            0    5936.7142    18.129871    22.982771    19.360385    8066.9821    4161.6134     6402.111    7246.4181   -393.47291    65.733787   -1774.1965   -3545.1176 
 2913000    263.43457   -4757.3511   -4230.4494   -4757.3511            0    8643.7858     17.83783     22.94379    19.377018     7930.382    6960.9994     8819.899    10150.459    2008.2493   -815.07814    2600.1979   -3230.7395 
 2914000     269.1508   -4791.8903   -4253.5555   -4791.8903            0     9397.274    18.033685    22.754443    19.390091    7956.6553     9533.447    10121.274     8537.101   -764.24226    280.85877   -566.02683    -3163.099 
 2915000    271.15979   -4798.0622   -4255.7091   -4798.0622            0     7534.247    18.051154    22.894738    19.372948    8006.3832    8208.9319    6431.8303    7961.9787    1145.6265    875.90976     827.6114   -3375.9736 
 2916000    282.91429   -4757.8989   -4192.0354   -4757.8989            0    8654.3665     18.12191    22.876366    19.208266    7963.0451    7798.4572    9154.7795    9009.8628    461.94661   -1302.7582    1294.7014   -3186.9792 
 2917000    267.34642   -4792.4721   -4257.7462   -4792.4721            0    7839.3394    17.954351    22.712217    19.529153    7963.6586    8065.5811     8450.048    7002.3891   -1569.7414    786.87503   -703.99325   -3347.2713 
 2918000    275.28644   -4770.3481   -4219.7412   -4770.3481            0    6893.0213    18.019801    22.935662    19.349967    7997.2656    3998.1388    8998.0432    7682.8818   -12.759349    888.56438   -1587.0269    -3415.795 
 2919000    293.10867   -4792.4781   -4206.2246   -4792.4781            0    8299.1761    18.030114    22.950676    19.313613    7992.0369    7892.2547    7956.2265    9049.0473    277.47491    106.42057    531.04926   -3238.9086 
 2920000    270.60695   -4770.8218   -4229.5745   -4770.8218            0    6420.8513    17.834143    22.922673     19.65156    8033.6805    8848.5039    4842.2218     5571.828   -61.002501   -1953.3645   -715.15255   -3477.2884 
 2921000    280.69277   -4787.7017   -4226.2814   -4787.7017            0    7417.3633    18.107806    22.753952    19.363305    7978.1489    8533.0971     5814.694    7904.2987    2002.2407   -2158.5401    359.64027   -3363.2481 
 2922000    270.70837   -4798.8446   -4257.3944   -4798.8446            0    7208.1555     18.08819     22.72223    19.428913    7985.3612    6741.6249    8297.6965    6585.1452   -18.248218    374.56395    47.202626   -3417.9449 
 2923000    268.38564   -4813.2829   -4276.4785   -4813.2829            0    7340.0494    17.992462    22.763935    19.459768     7970.317    7141.8728    7280.1482    7598.1272    1607.3902    -64.41137    1104.2542   -3423.2792 
 2924000    266.99053   -4780.7355   -4246.7215   -4780.7355            0    8510.0118    18.076436    22.815194    19.320707    7968.1956    7270.8386    9399.1497     8860.047   -325.82744   -477.99405    -2241.163   -3257.7904 
 2925000    266.93701   -4784.3475   -4250.4405   -4784.3475            0    9393.9974    17.906939    22.933043    19.400509    7967.0245    8732.2312    9390.3101    10059.451    451.40306    748.62143    1419.3725   -3158.9437 
 2926000    274.08938   -4804.2018   -4255.9892   -4804.2018            0    8676.6373    18.071212    22.903313    19.177964    7937.5799    7144.2741    9014.3473    9871.2906    674.69583    170.18231    -1370.817    -3251.569 
 2927000    290.46276   -4796.2999   -4215.3385   -4796.2999            0    7801.8918    18.063778     22.89711    19.304392    7984.4573     4380.207    9895.2211    9130.2474    138.23969    945.99586    823.58438   -3306.8462 
 2928000    266.71844    -4760.504   -4227.0341    -4760.504            0    8549.6709    17.838551    23.159412    19.318758    7981.1655    9155.2989    9128.8607    7364.8532   -536.47812    981.91293   -1321.9075   -3231.8771 
 2929000    277.68249   -4778.3504   -4222.9511   -4778.3504            0    7426.0585    18.066206    23.115348    19.256826    8041.7788    6597.1238    6362.7302    9318.3217   -1419.0455   -588.18463   -3677.1679   -3352.0149 
 2930000    272.79554   -4783.7024   -4238.0777   -4783.7024            0    6521.6122    17.970444    23.111506    19.374321    8046.6205    5886.6802    6992.2943    6685.8621    -626.3849    782.94342    1077.6835   -3472.7554 
 2931000    269.76205   -4803.0046   -4263.4472   -4803.0046            0    8152.5683    17.947614    23.038296    19.257562    7962.6641    9947.4788    6808.8143    7701.4118   -1770.4876   -1868.1484    -1761.069   -3316.7116 
 2932000    268.51198     -4766.37   -4229.3129     -4766.37            0    8693.5757    17.846096    23.220741      19.1898    7952.2447    10015.649    7409.8216     8655.257   -939.06128   -1559.4162    544.65075   -3221.0726 
 2933000    260.03771    -4797.208   -4277.1004    -4797.208            0    5817.1622    17.923129    23.215118    19.324389    8040.6379     5244.742    6657.6948    5549.0499   -1161.0486    708.36034   -381.44568   -3594.9541 
 2934000     273.6122    -4825.134   -4277.8758    -4825.134            0    8369.2865    17.983209    23.017163     19.19874    7946.7894    8021.6655    8637.8212    8448.3727    -657.4958    557.60652   -1343.5373   -3307.9109 
 2935000    286.71031   -4786.8496   -4213.3936   -4786.8496            0     8317.449    17.892128    23.007432    19.351874    7966.2358    7490.0211    7823.5385    9638.7875   -181.99344   -131.24527   -698.50911   -3247.0775 
 2936000    281.86361   -4790.7269   -4226.9648   -4790.7269            0    8545.0811    18.161632    22.965992    19.127942    7978.2629    6825.7511    8306.5712    10502.921   -496.94015   -907.44673   -343.69427   -3232.7038 
 2937000    276.67354   -4814.8651   -4261.4838   -4814.8651            0    8169.4182    17.928075    22.792932    19.562762    7993.9979    9597.1766    8891.4848    6019.5932    1568.1466    2089.9268    155.71128   -3309.0582 
 2938000    282.38658   -4773.4659   -4208.6578   -4773.4659            0    10028.093    18.011637    22.746139     19.29981    7907.0395    9484.3777    10060.721    10539.181     698.4434   -577.07321   -585.51827   -3052.2576 
 2939000    260.35117    -4797.949   -4277.2145    -4797.949            0    7607.8926    17.942677    22.879928    19.446667    7983.3848    8146.4701    6967.5171    7709.6907    1543.8924    1590.3515    435.11766   -3391.4315 
 2940000    297.40002   -4789.3404   -4194.5036   -4789.3404            0    5352.6584    18.191931    22.998131    19.284468    8068.2435    5405.8358    4862.5681    5789.5713    897.88405   -1095.6726    375.02828   -3564.6721 
 2941000    262.95713   -4756.0212   -4230.0745   -4756.0212            0    8027.1607     17.98553    23.022544    19.264864    7977.0536    6793.9542    8283.5252    9004.0027    564.95149    115.27921    -456.2018   -3296.2175 
 2942000    274.23578   -4770.0914   -4221.5859   -4770.0914            0    8879.0469    17.893091    23.228319    19.159013    7962.9921    7191.8603    8860.5536    10584.727   -429.74079   -28.316784    291.13102   -3190.4438 
 2943000    272.52262    -4782.439   -4237.3601    -4782.439            0    8284.6572    17.814555    23.432156    18.989833    7926.9909    8886.6447    5892.7476    10074.579   -1183.3932    -1555.994   -639.45882   -3279.5955 
 2944000    272.40187   -4765.8173   -4220.9799   -4765.8173            0    8396.1014    17.723279    23.288012    19.253466    7946.6746    6849.4355    9534.9226    8803.9462   -684.07413    264.61521    1466.2235   -3247.9213 
 2945000    266.81348   -4786.9632   -4253.3033   -4786.9632            0    6431.6488    18.050802    23.152892    19.278968    8057.2258    6700.5438    5871.8393    6722.5633      -598.55    700.70566   -961.20787   -3497.5435 
 2946000    275.01902   -4802.8022   -4252.7302   -4802.8022            0    6808.1121    17.852709    22.996594    19.450855    7985.5773    9385.0434    7005.8982    4033.3947    60.727478    229.82922    1928.3794   -3459.8476 
 2947000    276.43521   -4799.3872   -4246.4826   -4799.3872            0    7155.3103    18.051976    23.125183    19.124945    7983.8088    6203.5576    6834.9348    8427.4385    368.99375    828.75945   -653.96483   -3413.3493 
 2948000    280.91615   -4798.8271   -4236.9601   -4798.8271            0    8184.3746    17.870071    23.013868     19.38404    7971.8695    10300.908    7313.2337    6938.9823    623.99908   -1300.2572   -20.853422   -3285.4322 
 2949000    292.93723   -4806.2208   -4220.3101   -4806.2208            0    7854.2217    17.972916      23.0864    19.274801     7997.692    9515.7578    6594.3425    7452.5649    1839.3456   -682.67273   -348.52031   -3304.2084 
 2950000    278.15611   -4798.1206    -4241.774   -4798.1206            0    10925.422    17.954058    22.838179    19.267816    7900.5363      10035.1    11461.631    11279.535    418.85364      772.781    1120.8531   -2982.9335 
 2951000    278.14559   -4803.0296   -4246.7041   -4803.0296            0     7465.073    17.913299    22.961579    19.420095    7987.8276    8954.7673    6492.4261    6948.0254     595.7469   -605.64137    483.19575   -3377.0658 
 2952000    267.67787   -4782.9625   -4247.5737   -4782.9625            0    8417.8754    17.996158    22.848348    19.412151    7981.9363    8763.1306    7978.0685    8512.4272    1449.6693   -148.05481    719.09771   -3267.6627 
 2953000    266.97948   -4800.2537   -4266.2618   -4800.2537            0    10152.183    18.184632    22.778363    19.053086     7892.096    9995.7308    10007.787    10453.032   -1353.8213    266.07308   -1153.0097   -3097.7645 
 2954000    261.72303   -4811.6638   -4288.1854   -4811.6638            0    6784.1426     18.04117    22.753748    19.618902    8053.6423    8164.9166    7023.9007    5163.6106     188.9378     1749.692    337.20681     -3491.36 
 2955000    272.54685   -4818.1982   -4273.0709   -4818.1982            0    7469.8011    18.063828    22.871976    19.311028    7978.4567    7323.0677    7919.3245     7167.011   -42.941343    292.59225   -1665.5323   -3403.9027 
 2956000    279.60557   -4816.3094   -4257.0637   -4816.3094            0    8757.7621    17.864694    22.938532    19.373579    7939.0961    9207.2988    8034.6438    9031.3439    372.04554    487.73319   -339.06863   -3243.0587 
 2957000    272.68973   -4791.0994   -4245.6863   -4791.0994            0     7265.514    17.957491     23.01509    19.296189    7974.9851    8088.8303    6789.3849    6918.3268    2018.4116   -910.56583   -134.41346   -3400.6563 
 2958000    280.87863   -4772.1766   -4210.3846   -4772.1766            0    10545.668    17.993074    22.816504    19.240845    7899.1181    9593.1658    11668.695    10375.142    499.10893    598.43526   -115.95024   -2995.5181 
 2959000    269.50452   -4784.4413   -4245.3989   -4784.4413            0    6405.0732     18.03914    22.822192    19.464617    8013.4408    6922.1238    6387.8798    5905.2161   -1246.9199    25.445522   -58.101033    -3496.852 
 2960000    275.02066   -4762.9188   -4212.8435   -4762.9188            0    8971.8294    18.078586     22.77692    19.298108    7946.4689     8906.545    9601.7113     8407.232   -385.42979    30.077629   -925.30971   -3173.0883 
 2961000    277.89631   -4796.8179    -4240.991   -4796.8179            0    8687.8705    18.129605    22.687972    19.406852    7982.5035    8222.6552    9834.0584    8006.8979    2501.1908    1434.7534    2338.6347   -3229.5784 
 2962000    273.50785   -4785.8597   -4238.8102   -4785.8597            0    9451.3495    17.923013    22.880009    19.369402     7942.979    9303.0187    10367.512    8683.5179   -151.13493    1757.7713    -241.0136    -3143.964 
 2963000    268.92311   -4780.3469   -4242.4675   -4780.3469            0    5977.4774    18.127588    23.208837    19.070378    8023.2942    5867.7434    5984.6415    6080.0473   -634.50604   -1156.4381    1836.6695   -3543.0338 
 2964000    285.35152   -4812.3361   -4241.5978   -4812.3361            0    8557.1447    17.826675    23.137726    19.266427    7946.7984    11196.128    7516.4253    6958.8807   -1215.9378   -87.107589   -663.14359   -3249.8598 
 2965000      261.248    -4821.749   -4299.2207    -4821.749            0    7144.4559    17.875499    23.229034     19.19714    7971.2397    7760.0083    6264.8425     7408.517   -676.92075   -559.40223   -48.469442   -3468.6609 
 2966000    276.71215   -4803.1085   -4249.6501   -4803.1085            0    5775.8471    17.830579    23.325546    19.308623    8030.6107    6565.8419    4935.2125    5826.4868      273.711    395.93231   -128.52291   -3573.1931 
 2967000    277.42005    -4837.664   -4282.7896    -4837.664            0    9242.0828    17.899695    23.096472     19.15368    7918.5107    9240.3358    8511.8057    9974.1068    705.98948    378.52364    952.14813   -3215.4829 
 2968000    277.73436   -4778.8696   -4223.3666   -4778.8696            0    6819.3463    17.880861     23.23578    19.291532    8015.1637    6716.5052    6093.6974    7647.8364     401.3113    29.254157   -1386.9095   -3426.2332 
 2969000    281.35679   -4806.0214   -4243.2731   -4806.0214            0    7599.9776    17.941633    23.065258    19.243188    7963.3775    8443.7781    7119.3287    7236.8259    292.95923   -544.87265   -1270.8085   -3360.6292 
 2970000    269.29814   -4810.2009   -4271.5714   -4810.2009            0    9502.3548    17.977872    22.889668    19.245025    7919.4724    9544.6622    9242.6819    9719.7202    614.93824   -564.80727    1106.7156   -3174.0743 
 2971000    268.98057   -4793.0633    -4255.069   -4793.0633            0    6775.8639    18.036711    22.910022    19.417318    8023.6526    6653.5532    7624.4167    6049.6217    89.148673   -22.250396    43.468038   -3462.1794 
 2972000    262.51274   -4816.9109    -4291.853   -4816.9109            0    6800.5148    17.892238    22.902317    19.506316    7993.1752    8288.0285    6404.3115    5709.2044    1782.5504   -313.57492    1838.6056   -3499.1016 
 2973000    269.72066   -4826.9083   -4287.4337   -4826.9083            0    6236.1927    18.150657    22.883393    19.318044     8023.723    7319.7973    5338.9838    6049.7971   -890.36906   -766.25696   -174.72542   -3557.6883 
 2974000    286.39233   -4810.5985   -4237.7785   -4810.5985            0    8609.0055    17.947727    22.755142    19.546166    7982.7145    10367.309    8329.2759    7130.4319   -1837.8086   -85.843376    128.47376   -3235.5206 
 2975000    276.69115   -4815.3281   -4261.9116   -4815.3281            0    8677.0779    18.077817    22.873158    19.161304    7923.1372    7327.6675    8717.1404    9986.4258   -977.66457     244.9973    305.68897   -3259.2681 
 2976000    264.15321   -4779.2198   -4250.8807   -4779.2198            0    8163.4627    17.871043    23.034561    19.372442    7974.6974    8518.9604    8725.8378    7245.5899    1424.3854    638.01553    137.97097   -3301.4473 
 2977000     289.5868   -4758.3672   -4179.1579   -4758.3672            0    7298.6569    18.033288    23.004724    19.278924    7997.8774    6564.5072    8553.8948    6777.5687   -574.98209    533.99879    1579.4872   -3327.8364 
 2978000    279.25302   -4772.4617   -4213.9211   -4772.4617            0    9365.5141    18.002416    22.847524    19.321373    7947.0862    8652.2856    10747.472    8696.7843    -744.6395    1403.2454   -977.85463   -3128.4571 
 2979000    275.23921   -4776.5386   -4226.0262   -4776.5386            0    7130.7827    18.058934      23.0009    19.317988    8024.1461    5625.3681    6799.6063    8967.3738    2588.1933   -174.55427    1494.4147   -3391.5539 
 2980000    282.27377   -4754.8992   -4190.3168   -4754.8992            0    7826.9764     18.05475    22.904978    19.325875    7992.0929    7145.7143    8631.4701    7703.7446    1089.4931    853.52012    884.16635    -3278.032 
 2981000    289.13836    -4785.683   -4207.3706    -4785.683            0    7518.3547    18.058134    22.864082    19.404009    8011.5788    8084.6983    7439.4218     7030.944   -391.99486   -850.20878   -1550.6255   -3328.9211 
 2982000    277.77411   -4801.7089   -4246.1264   -4801.7089            0    8218.4981    17.973713    22.887642     19.41435    7986.5961    6999.4937    9670.9785    7985.0221    621.74304    130.74504   -421.91932   -3288.8661 
 2983000    268.58593   -4787.6167   -4250.4116   -4787.6167            0    8612.4464    18.094137    23.009464    19.111954    7957.0021    6290.8206    8545.7176    11000.801   -724.94896   -581.79787    101.10963   -3250.9828 
 2984000     286.1761   -4783.4525    -4211.065   -4783.4525            0    11566.956     17.80915    22.800061    19.467821    7904.9028    11943.689    12519.212    10237.968    1225.1146    1527.6395    961.15587   -2877.5696 
 2985000    265.82921   -4811.5129   -4279.8216   -4811.5129            0    6634.8163    18.140324    22.939302    19.225916    8000.4106    6258.0991    6432.3612    7213.9888   -596.31173    -542.5286    208.46794   -3505.6859 
 2986000    259.04907   -4761.6442   -4243.5141   -4761.6442            0    8738.7913      17.9453    23.094536    19.264805    7984.0745    10322.003     7792.132    8102.2394   -1191.1804    250.50319   -273.40658   -3225.9733 
 2987000    271.08555   -4782.6708   -4240.4663   -4782.6708            0    8733.6411    17.827501    23.036135    19.356336    7949.1963    9561.2792    9247.6035    7392.0408    1670.4393    645.74141    780.07099   -3227.9676 
 2988000    275.59432   -4774.8811   -4223.6585   -4774.8811            0    8072.4761    18.042954    23.095412    19.150197    7980.0683    8173.6655    7869.1456    8174.6171   -339.80647    904.65128   -1901.1397   -3284.1747 
 2989000    273.94468   -4795.7027   -4247.7795   -4795.7027            0    8180.7046    17.959033    22.954213     19.34437    7974.4356    9930.9241    7685.5468     6925.643   -223.79254   -141.58354   -999.28961    -3296.372 
 2990000    279.92581   -4777.3096   -4217.4234   -4777.3096            0    10155.377    17.882864    22.898907    19.361317    7928.4215    10137.168    10628.625    9700.3366   -479.37381    -110.0603     526.3857   -3043.1786 
 2991000     269.7808   -4810.5331   -4270.9381   -4810.5331            0    5870.8914    18.081005    23.026825    19.309968     8039.669    5236.2522    4552.2601    7824.1618   -120.01354   -1112.6329   -1781.4371   -3582.5742 
 2992000    272.64333   -4792.8652   -4247.5449   -4792.8652            0     7823.149    17.986494    22.834738    19.507516    8012.0658    7944.6117    7465.2616    8059.5737     1042.595   -52.665474    3318.5399   -3333.4275 
 2993000    289.50452   -4788.9043   -4209.8595   -4788.9043            0    7268.4541    18.114834    23.065452    19.177202    8012.7494    5716.5997    7259.0872    8829.6754    773.56217     365.2802   -1598.2197   -3360.4845 
 2994000    288.54243   -4790.2677   -4213.1472   -4790.2677            0    10449.961    17.757987    22.858345    19.433622    7888.4608    8825.1557    12067.523    10457.203   -228.74002    1457.2975   -1240.8209   -3010.9303 
 2995000     285.3291   -4766.7066   -4196.0131   -4766.7066            0     8353.972    18.139197    22.825611     19.31193    7995.8773    6712.5911    9682.6598    8666.6652    460.22846   -392.09183   -2192.8022   -3221.8425 
 2996000    273.32369   -4802.8119   -4256.1308   -4802.8119            0    6019.9239     18.02938    22.855834    19.458814    8018.5205    7417.9131    4680.0084    5961.8502   -778.13529   -464.87229    366.66646   -3552.1494 
 2997000    255.11034    -4742.277   -4232.0248    -4742.277            0     9130.575    18.108769    22.768012    19.304355    7959.1982    9847.0109    9607.4656    7937.2486    563.47254   -252.71295    -659.6243   -3172.1774 
 2998000    281.02158   -4780.1046   -4218.0267   -4780.1046            0     9486.042    17.924195    22.812758    19.513138    7978.9284    11923.368    8558.7183    7976.0393   -1871.0933     635.6001   -1072.7633   -3114.1883 
 2999000    273.48366   -4807.7933   -4260.7922   -4807.7933            0    6292.0094    18.134834    22.965159    19.207104      7999.17    5338.7143    6046.8867    7490.4271    385.04004   -650.15334   -468.19302   -3526.7683 
 3000000     280.1387   -4766.2038   -4205.8918   -4766.2038            0    7547.9243    17.956927    22.924375    19.509033    8030.9194    8618.9886    7273.4593    6751.3248    1473.6197   -89.672261     2151.217   -3321.8583 
Loop time of 512.056 on 64 procs for 250000 steps with 1008 atoms

Performance: 84.366 ns/day, 0.284 hours/ns, 488.228 timesteps/s
195.0% CPU use with 32 MPI tasks x 2 OpenMP threads

MPI task timing breakdown:
Section |  min time  |  avg time  |  max time  |%varavg| %total
---------------------------------------------------------------
Pair    | 36.046     | 39.983     | 44.303     |  31.5 |  7.81
Bond    | 0.88384    | 1.1776     | 1.4731     |  10.4 |  0.23
Kspace  | 254.1      | 260.37     | 266.32     |  19.7 | 50.85
Neigh   | 4.1702     | 4.8598     | 5.1511     |  12.1 |  0.95
Comm    | 88.785     | 93.82      | 102.26     |  34.2 | 18.32
Output  | 0.92771    | 0.92814    | 0.92988    |   0.0 |  0.18
Modify  | 96.117     | 99.75      | 103.24     |  18.2 | 19.48
Other   |            | 11.17      |            |       |  2.18

Nlocal:        31.5000 ave          35 max          27 min
Histogram: 1 4 1 3 0 4 7 7 4 1
Nghost:        2878.00 ave        2909 max        2851 min
Histogram: 3 3 2 4 5 5 4 2 3 1
Neighs:        10408.3 ave       11495 max        8898 min
Histogram: 1 4 1 2 1 4 7 6 4 2

Total # of neighbors = 333065
Ave neighs/atom = 330.42163
Ave special neighs/atom = 2.0000000
Neighbor list builds = 10914
Dangerous builds = 1

unfix		3
unfix		2
unfix		1

write_data	data.final.${pid}
write_data	data.final.0
System init for write_data ...
PPPM initialization ...
  extracting TIP4P info from pair style
  using 12-bit tables for long-range coulomb (../kspace.cpp:340)
  G vector (1/distance) = 0.3790864
  grid = 24 27 32
  stencil order = 5
  estimated absolute RMS force accuracy = 0.0024580481
  estimated relative force accuracy = 7.4023389e-06
  using double precision FFTW3
  3d grid and FFT values/proc = 5355 672
Last active /omp style is kspace_style pppm/tip4p/omp
WARNING: Not all mixed pair coeffs generated from mixing. Use write_data with 'pair ij' option to store all pair coeffs. (../write_data.cpp:312)

write_restart   restart.lmp.${pid}
write_restart   restart.lmp.0
System init for write_restart ...
PPPM initialization ...
  extracting TIP4P info from pair style
  using 12-bit tables for long-range coulomb (../kspace.cpp:340)
  G vector (1/distance) = 0.3790864
  grid = 24 27 32
  stencil order = 5
  estimated absolute RMS force accuracy = 0.0024580481
  estimated relative force accuracy = 7.4023389e-06
  using double precision FFTW3
  3d grid and FFT values/proc = 5355 672
Last active /omp style is kspace_style pppm/tip4p/omp
Total wall time: 0:08:32
