LAMMPS (30 Jul 2021)
Processor partition = 1
  using 2 OpenMP thread(s) per MPI task
using multi-threaded neighbor list subroutines
variable        pid world 0 1
variable        phase world IceV IceIII

shell cd ${phase}
shell cd IceIII
include Restart.lmp
echo both
log log.lammps
#include		in.partitions
include		in.temp
variable        temperature equal 273.97
variable	tempDamp equal 100.0
include		in.pressure
variable        pressure equal 7891.2
variable        pressureDamp equal 1000.0 # This is 1 ps
include		in.seed
variable        seed equal 745823

units		real
atom_style	full

read_restart	restart.lmp.${pid}
read_restart	restart.lmp.1
Reading restart file ...
  restart file = 30 Jul 2021, LAMMPS = 30 Jul 2021
  restoring atom style full from restart
  orthogonal box = (0.030849873 0.021489502 0.16128032) to (19.969151 19.978511 20.538718)
  2 by 4 by 4 MPI processor grid
  restoring pair style lj/cut/tip4p/long/omp from restart
  restoring bond style harmonic/omp from restart
  restoring angle style harmonic/omp from restart
  972 atoms
  648 bonds
  324 angles
Finding 1-2 1-3 1-4 neighbors ...
  special bond factors lj:    0        0        0       
  special bond factors coul:  0        0        0       
     2 = max # of 1-2 neighbors
     1 = max # of 1-3 neighbors
     1 = max # of 1-4 neighbors
     2 = max # of special neighbors
  special bonds CPU = 0.002 seconds
  read_restart CPU = 0.007 seconds
include 	in.setup
variable	out_freq equal 1000
variable	out_freq2 equal 10000
variable	out_freq3 equal 1000

timestep	2.0

neigh_modify    delay 7 every 1

include		in.tip4p
# This is TIP4P/Ice

# create groups ###
group ox type 2
324 atoms in group ox
group hy type 1
648 atoms in group hy

# set charges - beside manually ###
set group ox charge -1.1794
Setting atom values ...
  324 settings made for charge
set group hy charge 0.5897
Setting atom values ...
  648 settings made for charge

# ### TIP3P Potential Parameters ###
pair_style lj/cut/tip4p/long/omp 2 1 1 1 0.1577 8.5
pair_coeff 1 1*2 0.000 0.000
pair_coeff 2 2 0.21084 3.1668
bond_style  harmonic
bond_coeff  1 450 0.9572
angle_style harmonic
angle_coeff 1 55 104.52
kspace_style pppm/tip4p/omp 1.0e-5
pair_modify tail yes

thermo          ${out_freq}
thermo          1000
thermo_style    custom step temp pe etotal epair emol press lx ly lz vol pxx pyy pzz pxy pxz pyz enthalpy

restart 	${out_freq3} restart.lmp.${pid} restart2.lmp.${pid}
restart 	1000 restart.lmp.${pid} restart2.lmp.${pid}
restart 	1000 restart.lmp.1 restart2.lmp.${pid}
restart 	1000 restart.lmp.1 restart2.lmp.1


include         in.dump
dump            myDump all atom ${out_freq2} dump.water.${pid}
dump            myDump all atom 10000 dump.water.${pid}
dump            myDump all atom 10000 dump.water.1
dump            myDump2 all dcd ${out_freq2} dump.dcd
dump            myDump2 all dcd 10000 dump.dcd
dump_modify     myDump append yes
dump_modify     myDump2 append yes


variable natoms 	equal  "count(all)"                        # NUMBER ATOMS
variable H      	equal  "enthalpy/v_natoms"                 # ENTHALPY-per-atom
variable Vol      	equal  "vol/v_natoms"                 # volume-per-atom
fix AVG all 		ave/time ${out_freq} 1 ${out_freq} v_Vol v_H file vol_enthalpy.dat
fix AVG all 		ave/time 1000 1 ${out_freq} v_Vol v_H file vol_enthalpy.dat
fix AVG all 		ave/time 1000 1 1000 v_Vol v_H file vol_enthalpy.dat


timer           timeout 02:55:00 every 1000
New timer settings: style=normal  mode=nosync  timeout=02:55:00

fix 		1 all shake 1e-6 200 0 b 1 a 1
Finding SHAKE clusters ...
       0 = # of size 2 clusters
       0 = # of size 3 clusters
       0 = # of size 4 clusters
     324 = # of frozen angles
  find clusters CPU = 0.000 seconds
fix             2 all nph aniso ${pressure} ${pressure} ${pressureDamp}
fix             2 all nph aniso 7891.2 ${pressure} ${pressureDamp}
fix             2 all nph aniso 7891.2 7891.2 ${pressureDamp}
fix             2 all nph aniso 7891.2 7891.2 1000
fix             3 all temp/csvr ${temperature} ${temperature} ${tempDamp} ${seed}
fix             3 all temp/csvr 273.97 ${temperature} ${tempDamp} ${seed}
fix             3 all temp/csvr 273.97 273.97 ${tempDamp} ${seed}
fix             3 all temp/csvr 273.97 273.97 100 ${seed}
fix             3 all temp/csvr 273.97 273.97 100 745823


run             250000
PPPM initialization ...
  extracting TIP4P info from pair style
  using 12-bit tables for long-range coulomb (../kspace.cpp:340)
  G vector (1/distance) = 0.37196447
  grid = 24 24 24
  stencil order = 5
  estimated absolute RMS force accuracy = 0.0035345763
  estimated relative force accuracy = 1.0644272e-05
  using double precision FFTW3
  3d grid and FFT values/proc = 3211 432
Last active /omp style is kspace_style pppm/tip4p/omp
Neighbor list info ...
  update every 1 steps, delay 7 steps, check yes
  max neighbors/atom: 2000, page size: 100000
  master list distance cutoff = 10.8154
  ghost atom cutoff = 10.8154
  binsize = 5.4077, bins = 4 4 4
  1 neighbor lists, perpetual/occasional/extra = 1 0 0
  (1) pair lj/cut/tip4p/long/omp, perpetual
      attributes: half, newton on, omp
      pair build: half/bin/newton/omp
      stencil: half/bin/3d
      bin: standard
Setting up Verlet run ...
  Unit style    : real
  Current step  : 2750000
  Time step     : 2
  Walltime left : 2:54:59.95
Per MPI rank memory allocation (min/avg/max) = 10.18 | 10.19 | 10.19 Mbytes
Step Temp PotEng TotEng E_pair E_mol Press Lx Ly Lz Volume Pxx Pyy Pzz Pxy Pxz Pyz Enthalpy 
 2750000    283.69239   -4640.4297   -4093.3051   -4640.4297            0    8440.7569    19.938301    19.957022    20.377437    8108.3681    7931.8471    8905.2092    8485.2144     292.9683   -576.03254   -1232.6044   -3095.1668 
 2751000    269.59116   -4659.6529   -4139.7237   -4659.6529            0    8555.9803    19.916956     19.84212    20.385083     8056.075    8039.4229     9368.986    8259.5319    -368.0176   -285.49611    985.48285   -3134.4851 
 2752000    265.62595    -4641.523    -4129.241    -4641.523            0    10272.776    19.841383    19.836464    20.491127    8064.9572     11502.55    10502.121    8813.6572   -876.21246   -553.50575    2062.0688   -2920.9661 
 2753000      267.437   -4659.7339   -4143.9591   -4659.7339            0    8161.4867    19.885243    19.858109    20.580357    8126.8402    8282.1821    9281.9581    6920.3198    149.68515    1593.2387    75.315731   -3176.6464 
 2754000    266.24386   -4694.6464   -4181.1727   -4694.6464            0    7797.3255    19.913321    19.922621     20.52389    8142.3516    8557.6008    7436.4389    7397.9366    -740.7866    283.55526    573.54926   -3255.2571 
 2755000    259.97101   -4642.5769   -4141.2009   -4642.5769            0    8762.3364    20.027797    19.933776    20.379619    8136.1474    6604.0049    9564.3949    10118.609    354.54898    2668.9444     164.6474   -3101.4852 
 2756000    274.65076   -4655.8431    -4126.156   -4655.8431            0    8963.1997    19.725948    20.122768     20.50298    8138.4666    10606.657    8036.7024    8246.2395    -846.1739     49.94188   -83.327272   -3062.3032 
 2757000    279.49802   -4677.3704    -4138.335   -4677.3704            0    8501.7833    20.161542    19.682841    20.498128    8134.4034    6009.7172    9610.2313    9885.4013   -1048.0846     138.4612    53.200471    -3129.752 
 2758000    283.41739   -4682.9945   -4136.4002   -4682.9945            0    7723.3881    19.717238    20.110136    20.534644    8142.3218    7957.8563    8201.8934    7010.4146   -22.489338   -556.88602    743.16894   -3219.2679 
 2759000    282.91776   -4649.3557    -4103.725   -4649.3557            0    8858.5829    20.053915    19.756449    20.536376    8136.3921    6632.9181    9183.6793    10759.151   -18.836933   -438.56798    2179.0252   -3052.5573 
 2760000    284.71315   -4673.2697   -4124.1765   -4673.2697            0     9653.769     19.95362    19.946306    20.485326    8153.1801    9458.4785    9674.5601    9828.2685   -89.372661    205.00318    1110.0406   -2976.2877 
 2761000    272.16006   -4663.2196    -4138.336   -4663.2196            0     9706.612    19.815388    19.875189    20.485425    8067.8688    11395.374    9109.1993    8615.2622    700.54986    434.85058    882.01697   -2996.2406 
 2762000      292.903   -4672.4362   -4107.5482   -4672.4362            0    5920.6054     20.04131    19.833907    20.855782    8290.1204    5399.5655    7445.4816     4916.769   -150.82221    342.05449   -664.91524   -3391.7298 
 2763000    284.60136   -4645.3199   -4096.4423   -4645.3199            0    8807.3652    19.698635    19.993884    20.745908    8170.8218    8412.2169    8804.0585    9205.8201    311.49341    558.45375   -96.137774   -3046.9297 
 2764000    261.86268   -4662.6308   -4157.6066   -4662.6308            0    8427.5974    20.065283     19.87427    20.378373    8126.5459    9522.7678    8623.2847    7136.7397    184.93248    271.16341    1247.3685   -3158.7902 
 2765000    262.80778   -4651.2792   -4144.4323   -4651.2792            0    9220.1605    19.723668    20.146433    20.431828     8118.823    10370.019    7899.1242    9391.3383   -569.70437   -1055.7432    153.07227   -3052.7219 
 2766000     277.8589   -4680.3448   -4144.4705   -4680.3448            0     8637.118    19.998897    19.847519    20.537286    8151.8338    7973.6842    9527.6905    8409.9792    11.286265   -93.218445   -1051.5632   -3117.6369 
 2767000     282.0964   -4685.8629   -4141.8163   -4685.8629            0     7583.799    19.858658    20.116317     20.43383    8162.9691    6445.0385    8772.6585    7533.6999   -927.84543    402.46936   -541.71876   -3238.9761 
 2768000    263.16856   -4688.5003   -4180.9576   -4688.5003            0    7619.6408    19.922608    19.782392    20.748399    8177.2933    8281.7753    7658.7337    6918.4135    -515.8211    -714.5714   -744.40071   -3272.2588 
 2769000     267.9939   -4662.2802   -4145.4315   -4662.2802            0    7917.0232    19.925824    19.849888    20.551049    8128.4615    7362.2468    9518.5991    6870.2238    1026.6121    142.06166    502.63993   -3206.9058 
 2770000     270.7341   -4677.1991   -4155.0656   -4677.1991            0    8620.6711    20.071971    19.957068    20.454247    8193.5152    10114.561    7673.7033    8073.7495    257.29527   -1302.2541    -383.8785    -3124.947 
 2771000    272.08191   -4699.9497   -4175.2168   -4699.9497            0    8030.3891    19.700017    20.087775    20.597245     8150.938    8448.4273    8443.1623    7199.5777   -376.52544   -475.45756   -364.48157   -3220.6198 
 2772000     271.2352    -4660.477   -4137.3771    -4660.477            0    7521.9772    20.010901    19.855521     20.53996    8161.0781    6254.9089    7256.8441    9054.1786   -790.79162    506.31395   -542.06418   -3242.1042 
 2773000    275.18296   -4700.6827   -4169.9693   -4700.6827            0    7101.2175    19.817726    20.233148    20.265646     8126.017    6446.5422    6958.0044     7899.106    -412.5071   -255.40292    83.505663   -3328.4066 
 2774000    293.39559   -4655.1804   -4089.3424   -4655.1804            0    7535.4315    20.162192    19.715195    20.556355    8171.1824     6778.724    8928.4033    6899.1674   -585.57823    455.00286   -2323.6705   -3191.3577 
 2775000    287.27441   -4653.0394   -4099.0066   -4653.0394            0    10814.459    19.846006    19.813181    20.493855    8058.4399     14196.17     8493.254    9753.9522   -967.78442    180.54519    1773.4959   -2828.0473 
 2776000    286.10846   -4663.3737   -4111.5894   -4663.3737            0    6818.0547    20.062643    19.804596    20.652534     8205.924     6479.595    7208.8984    6765.6707    1118.1398   -927.76507    175.76496   -3295.6388 
 2777000    286.72197   -4665.1252   -4112.1577   -4665.1252            0    7664.8313    20.052627    20.123703    20.290148    8187.7464    7139.3647    7270.2907    8584.8387   -688.68497   -578.34435   -1067.0333   -3196.9011 
 2778000    265.78133   -4671.7186   -4159.1369   -4671.7186            0    6747.2297    20.028033    20.046998    20.442987    8207.8985    6413.0606    7723.9285       6104.7     74.35327    1238.5324   -844.82065    -3351.468 
 2779000    278.68981   -4662.2728   -4124.7961   -4662.2728            0    7868.9102    19.942483    19.957889    20.416547    8125.9869    5721.1046    9224.9248    8660.7014    123.31503    -300.5106   -828.33815    -3192.258 
 2780000    280.79363    -4659.443   -4117.9089    -4659.443            0    6509.3563    20.098199    19.912777    20.323404    8133.6494    4528.9327    8136.8927    6862.2435    254.60892    885.32033   -246.10782    -3345.763 
 2781000    283.29899   -4655.1257   -4108.7597   -4655.1257            0     8383.689     19.97972    20.022562    20.436577    8175.5541      9223.14    6867.8941     9060.033     48.69775    1065.1471   -91.437023   -3109.1551 
 2782000    276.17453   -4658.8879   -4126.2621   -4658.8879            0    8519.7729    20.089485    19.776143    20.573585    8173.7318    7984.2447    7867.7633    9707.3106   -399.00812    288.31689   -1195.8078   -3110.6584 
 2783000    278.33096   -4665.9389   -4129.1542   -4665.9389            0    9408.7264    19.717547    20.092952    20.577201    8152.3522     10690.05    7727.1958    9808.9337    -225.3931    676.07802    769.63984   -3010.5159 
 2784000    283.85418   -4715.4126   -4167.9759   -4715.4126            0    6190.4648    20.050726    19.684115    20.659541    8153.9239    5279.9339    7121.6365    6169.8241    108.72337   -296.47591   -1147.1194   -3431.8268 
 2785000    263.09637    -4700.044   -4192.6405    -4700.044            0    8816.1359    19.854524    19.844689    20.647305    8135.1797    9211.3801    9234.5891    8002.4385   -250.53984   -610.38035   -697.70586   -3146.6654 
 2786000    264.85011   -4679.3224   -4168.5367   -4679.3224            0    9757.3343    20.000033    19.917204    20.322244    8095.2588    10152.586    9686.8609    9432.5562   -302.65052    813.26544    1799.8393   -3016.5756 
 2787000    276.35805   -4685.1381   -4152.1583   -4685.1381            0    8196.1388    19.910842    20.102367    20.420156    8173.2704    8563.5571    7999.2649    8025.5945   -79.296331    459.38596    889.37944   -3175.1887 
 2788000    269.46406   -4643.3909   -4123.7068   -4643.3909            0    7723.9404    20.276682    19.804953    20.371098    8180.5996    7367.5785    7865.6648     7938.578     490.0521   -772.71708     330.4379   -3202.1971 
 2789000    260.59608   -4676.4188   -4173.8373   -4676.4188            0    5479.6948     19.90593    20.156256    20.639191    8281.0422    5944.2536    3661.6823    6833.1483    706.46713    85.721263    752.18541   -3512.0518 
 2790000    268.61041   -4667.8282   -4149.7904   -4667.8282            0    9812.0555     20.09796    19.903499    20.338273    8135.7103    10632.048    9352.3791    9451.7399    148.05484    490.19144    666.75442   -2985.5803 
 2791000    269.40911   -4651.8832   -4132.3051   -4651.8832            0    6561.9723    19.915524     20.02119    20.663783    8239.3216    8074.4985    5719.0846    5892.3336    425.15105    526.94396   -550.27225   -3343.8051 
 2792000    283.29369   -4703.5084   -4157.1527   -4703.5084            0    9155.4138    19.924749    19.856968    20.546972    8129.3089    9656.8541    10529.296    7280.0908   -280.98281   -196.78003   -621.93252   -3071.7085 
 2793000    273.00675   -4635.7762   -4109.2597   -4635.7762            0    8760.0734    19.959187     20.21742    20.152949    8132.1834    9065.5707    6628.3449    10586.305   -135.83642   -743.82749   -1199.6054   -3070.3189 
 2794000    261.16811   -4671.4756    -4167.791   -4671.4756            0    10331.424    19.758009    19.937437    20.505929    8077.7785    11219.889    10490.989     9283.393    432.16077    646.92346   -884.94142   -2950.6861 
 2795000    262.33092   -4687.5002    -4181.573   -4687.5002            0    7405.6875    19.916438    19.924693    20.594951    8172.6721    5759.2214     9387.031    7070.8102   -693.60982   -930.62003   -939.38941   -3298.8888 
 2796000    265.49934   -4677.2452   -4165.2074   -4677.2452            0    6545.4921    20.148883    19.884812    20.345188     8151.437    6973.2066    5925.5322    6737.7375    16.641223    1171.2799    -353.3094    -3387.077 
 2797000    270.63409    -4669.039   -4147.0984    -4669.039            0    8169.5032    19.986155    20.096406    20.257421     8136.391    7716.6732    8636.6088    8155.2276   -897.17939   -220.35007   -1278.7294   -3177.6976 
 2798000    258.23624    -4680.795   -4182.7646    -4680.795            0    7587.0706    20.012304    19.880286    20.561651    8180.4593    6022.3608    9631.0821    7107.7689    974.96279    1401.9891    380.82947   -3277.5998 
 2799000    278.06259   -4672.4361    -4136.169   -4672.4361            0    7935.9283    19.934295    19.906092    20.675161    8204.1914    7245.9658    8777.7925    7784.0266    290.00598   -300.31924   -1840.1938   -3186.6374 
 2800000    268.09076   -4692.8479   -4175.8123   -4692.8479            0    9757.7084    19.921282    19.870146    20.481052    8107.1948    9858.5548    9160.1029    10254.468   -439.85002   -1127.4469   -1186.6561   -3022.1085 
 2801000    289.83322   -4635.5742   -4076.6065   -4635.5742            0    7608.2088    20.110699    20.027821    20.378504    8207.9212    7051.9789    7211.7546     8560.893   -717.05252   -215.24735    1317.3878   -3165.8726 
 2802000    263.87995   -4681.4037    -4172.489   -4681.4037            0    7621.8375    19.867185    19.919075    20.654136    8173.5844     6932.624    8136.3115     7796.577   -1021.4554   -2031.4938    -631.1918   -3263.9405 
 2803000     265.0693   -4690.1688   -4178.9604   -4690.1688            0    7614.3734    20.165056    19.530232    20.780961    8184.1289    6041.4584    9324.5745    7477.0873   -281.77428   -768.57203    304.43434   -3270.1306 
 2804000    278.36428   -4653.8066   -4116.9577   -4653.8066            0    7735.4406    20.004332    19.993246    20.330874    8131.3638    7984.2629    7151.2343    8070.8247     137.4593    -494.0459   -538.40926   -3199.6303 
 2805000    284.23048   -4687.8527   -4139.6903   -4687.8527            0    7324.5623    19.964383    19.942498    20.348197    8101.4247    8225.5452    7127.7391    6620.4026   -79.207433     985.2363    846.00187   -3274.2862 
 2806000     279.7499   -4641.0117   -4101.4905   -4641.0117            0    8603.5738     19.99391    20.089532    20.404487    8195.8357    9948.8828    6738.1663    9123.6723    121.69378    475.46143    1014.0197   -3073.1237 
 2807000    267.26206   -4685.5127   -4170.0754   -4685.5127            0     8615.947    19.960608    19.848126    20.433595     8095.395    8774.1066     8839.959    8233.7755     253.5719   -968.69643    165.61757   -3152.8505 
 2808000    269.25002   -4668.4702   -4149.1989   -4668.4702            0    5886.9725    19.877657    20.064385    20.643164    8233.1741    7065.0934    4850.2298    5745.5944   -522.85241    451.69639    380.09371    -3442.336 
 2809000    272.81722   -4676.5348   -4150.3838   -4676.5348            0    7634.2419    20.017554     19.56417     20.69706    8105.5239    6004.7079    8702.6999    8195.3181   -245.70602   -22.301862   -337.19165   -3247.9343 
 2810000    275.36392   -4681.4326   -4150.3701   -4681.4326            0    7679.0963    19.805009    19.934658    20.701751    8173.1774    6354.8251    9764.8366    6917.6272    1048.0159    710.63058   -2240.6611   -3235.0418 
 2811000    283.39613   -4672.9708   -4126.4175   -4672.9708            0    8972.0135    20.105759    19.765147    20.430764    8119.0486    5829.2305    10799.136    10287.674   -274.31384   -45.007144   -1277.4025   -3064.0594 
 2812000    278.59354   -4632.5385   -4095.2474   -4632.5385            0     8312.843    19.881875    20.140749     20.33242    8141.8299    10277.021     5865.301     8796.207   -430.53496   -1381.2254    560.50105   -3108.1785 
 2813000    279.55562   -4646.7388   -4107.5923   -4646.7388            0    7283.4788    19.931994    20.104489    20.341295    8151.2156    6111.1062    6747.4762    8991.8539    68.189915      782.101   -915.81438   -3241.7533 
 2814000    275.29361   -4672.5249    -4141.598   -4672.5249            0    6736.1579    20.002664    19.843509    20.645413    8194.6402    6401.5972    8868.6381    4938.2385   -1.7913478    -1090.126   -165.99553   -3336.5569 
 2815000     286.5831   -4698.4189   -4145.7193   -4698.4189            0    7009.8208    19.873271    19.690451     20.79273    8136.4795    8140.7332    7801.3161    5087.4131   -609.30025    809.43575   -3.9590702   -3313.9185 
 2816000    285.51751   -4643.9766   -4093.3321   -4643.9766            0     7393.817    20.021515    19.822925    20.530425    8148.2174     8313.536     7869.307     5998.608    254.99864    -1441.957    169.77288   -3214.6997 
 2817000    272.26549   -4687.4013   -4162.3144   -4687.4013            0    7750.3476    20.013258      19.9359     20.40995    8143.2092    7176.1129    6675.5638    9399.3662   -614.15003    412.18464    743.13148   -3241.8804 
 2818000    266.44974   -4665.8469   -4151.9762   -4665.8469            0    7918.0986    20.075595    19.987279    20.391828    8182.3535    7700.9929    8666.4349     7386.868    -540.3707   -532.53409     1867.112   -3207.0997 
 2819000    264.39211   -4695.4472   -4185.5448   -4695.4472            0    7317.5346    20.242417    19.845994    20.314107    8160.8045    7226.3545    8000.7793      6725.47   -321.02372    252.06209   -486.78027   -3314.6341 
 2820000    277.52879   -4672.2221   -4136.9845   -4672.2221            0    7906.1416     19.75202    20.001165    20.634751    8152.0354    7102.1501    9747.3669    6868.9077   -195.10166  -0.74647972   -743.51997   -3197.0306 
 2821000    282.37623   -4663.1475   -4118.5612   -4663.1475            0    10431.342     20.02308    19.524095    20.564835    8039.4627    10464.507    10005.597    10823.922   -36.022404    461.48206    185.11607   -2895.5143 
 2822000    295.50742   -4633.6747   -4063.7638   -4633.6747            0    9893.8085    19.852625    20.050658    20.432008    8133.1281    9063.4346    10202.997    10414.994   -694.27975   -961.76754     955.8988   -2890.2262 
 2823000    265.91183   -4685.8068   -4172.9735   -4685.8068            0    7528.2109    20.157022    19.775761    20.417747    8138.9312    5945.0264    9310.6875    7328.9187   -204.68554    915.78431    543.14305   -3279.3902 
 2824000    254.76569   -4676.9761    -4185.639   -4676.9761            0    7474.1786    19.892033    20.150803     20.39695    8175.9223    7003.9636    7623.1924    7795.3799   -775.12976    55.315844   -63.271425   -3294.4371 
 2825000    273.53787    -4683.499   -4155.9582    -4683.499            0    6762.8819    20.060113    19.935808     20.43952    8174.0617    6131.5114    7569.1666    6587.9678   -49.551365    1139.9023   -378.15524    -3349.753 
 2826000    277.48696   -4678.7882   -4143.6313   -4678.7882            0    6783.0549     19.82977    19.907088    20.820525    8218.9642     7998.119     7253.823    5097.2228   -301.40402    334.14077     876.7882   -3330.5793 
 2827000    253.58084   -4675.0082   -4185.9562   -4675.0082            0    8150.6848    19.813988    19.860415     20.69775    8144.8548    8569.7215    8072.5911    7809.7418    767.80508   -349.34737   -862.95722   -3217.7824 
 2828000    282.15813   -4647.1468   -4102.9811   -4647.1468            0    7585.0074    19.852814    19.785398    20.728329    8142.0012    8458.3107     7683.397    6613.3145    96.876717   -676.62749    1427.0656   -3202.3165 
 2829000    275.57216   -4691.7012   -4160.2372   -4691.7012            0     7689.965    20.070383    19.715289    20.599049    8150.9077    6802.9547    10376.293    5890.6469   -240.88562     1630.176   -1323.8978   -3246.1108 
 2830000    273.62772   -4644.3194   -4116.6054   -4644.3194            0    7924.1968    19.972084    19.989364    20.400387    8144.4315     8230.248    6507.9278    9034.4145   -286.56146    146.38589   -1239.6182   -3175.3837 
 2831000    291.67753    -4698.954   -4136.4293    -4698.954            0     6151.598    19.989947    19.895547    20.534805    8166.9163    7130.7311    4507.4003    6816.6626    543.59288    8.0421889   -253.56146   -3403.7365 
 2832000    265.22024    -4679.449   -4167.9494    -4679.449            0    9298.9594    19.772632    19.753847    20.733557     8098.228    9825.3644    10101.445    7970.0691    13.974401    558.45365    1020.1536   -3069.7019 
 2833000    282.53359   -4678.7231   -4133.8333   -4678.7231            0    7602.4602    19.947682     19.91889    20.598166    8184.3864    8400.7698    6852.7016    7553.9091    245.41586   -340.63351   -1283.1276   -3226.3969 
 2834000     275.7936   -4630.6904   -4098.7993   -4630.6904            0    7773.8412    20.248026    19.888298    20.319151    8182.4972    6757.7823    7369.3258    9194.4154    37.275621    778.09995   -486.80677   -3171.1209 
 2835000    268.03264   -4689.2248   -4172.3013   -4689.2248            0    7717.5109    19.909724    20.082373    20.426633    8167.2727    6811.4354     8566.907    7774.1901    386.72544   -1519.0393   -42.491398   -3253.0586 
 2836000    266.33051   -4678.5539   -4164.9131   -4678.5539            0    6616.6443    19.904796    19.994608    20.553623    8180.1076    4760.2578     8282.339    6807.3361   -855.24902   -156.13699    22.526856   -3375.5575 
 2837000    263.24375   -4672.6638   -4164.9761   -4672.6638            0    8638.1382    19.979079    19.739415    20.713535    8168.9071    10124.866    8307.8591    7481.6899    169.37277   -773.58898    327.39296   -3135.8704 
 2838000    279.60423   -4682.2176   -4142.9773   -4682.2176            0    6377.9645      19.8683     20.24888    20.466487    8233.8895    7317.2707    4961.4609    6855.1618    125.39594   -1155.7517   -520.01451   -3377.0933 
 2839000    273.17255   -4726.4062   -4199.5699   -4726.4062            0    8578.0024    20.126526    19.825804    20.399543    8139.9185    8106.2421     8822.591    8805.1743    624.38032    1851.9919   -31.935046    -3181.255 
 2840000    273.11174   -4683.3783   -4156.6594   -4683.3783            0    6190.0806    19.993682    20.246253    20.257139    8200.0322     6951.342    4242.0039    7376.8958   -6.2636034    418.60409   -934.68525   -3416.3935 
 2841000    264.66382   -4668.8564     -4158.43   -4668.8564            0    8467.2677    19.832864    19.985628    20.492572    8122.6868    8157.3089    9147.8252     8096.669   -497.01403    1153.9252    735.14148   -3155.3885 
 2842000    272.06131   -4658.5609   -4133.8678   -4658.5609            0    9224.8065    19.774902    20.068236    20.256661    8038.8034    9277.0385    8369.8474    10027.534    44.113063   -296.44086   -758.15298   -3052.3727 
 2843000    280.86788   -4655.2343   -4113.5569   -4655.2343            0    9132.9584    19.810046    19.946759    20.399827    8060.9142    10609.008    6986.4697    9803.3977    44.449639    469.06714   -9.6945355   -3039.8848 
 2844000    269.21502   -4668.9341   -4149.7303   -4668.9341            0    7023.2479     19.90316    19.839971    20.728964     8185.414    9368.4102    5048.3454    6652.9881   -365.64007    300.83511    618.61545   -3311.3239 
 2845000    268.18421   -4707.3175   -4190.1017   -4707.3175            0    8519.5371    19.925632    19.894841    20.497409    8125.5271    8510.5133    7833.5558    9214.5422   -25.317109   -207.46318    32.716737   -3180.5154 
 2846000    269.78908   -4652.0775   -4131.7665   -4652.0775            0    9423.0372    20.053401    19.843089    20.407636    8120.6351    6972.3734    10514.513    10782.226    315.00348   -417.04958   -78.281604   -3015.7856 
 2847000    274.91316   -4675.8234   -4145.6302   -4675.8234            0    7226.2323    19.841954    20.090427     20.52275    8181.0525    9909.0526    4546.7554    7222.8888   -121.04923    1020.9693    330.98572   -3283.4521 
 2848000    286.50367   -4697.7358   -4145.1894   -4697.7358            0    8733.6722    19.973552    19.810845    20.566538     8138.034    9107.6511    8423.9137    8669.4519    178.91101    282.30264    183.19397   -3108.6346 
 2849000    268.75791   -4668.0037   -4149.6815   -4668.0037            0    8260.4147    20.006616    19.953069    20.410536    8147.7512    9791.0491    6008.4946    8981.7005    318.36796    1465.8568   -1598.3097   -3168.1246 
 2850000    273.08241   -4672.5476   -4145.8852   -4672.5476            0    9239.2916    20.009303    20.102889    20.179583    8117.1322    8918.3806    9585.0287    9214.4655    32.502294   -521.97155    833.46146   -3052.1374 
 2851000    259.69863   -4694.7708   -4193.9202   -4694.7708            0    7654.6509    20.052604    19.885235    20.520109    8182.4083    8150.0909    7144.0053    7669.8564    746.53241    184.59693   -258.32678   -3280.4751 
 2852000    269.98293    -4668.279   -4147.5942    -4668.279            0    7439.7645    19.654638     19.97987    20.780371    8160.3919     8645.068    7445.6707    6228.5547   -525.00987    1081.4404     536.4198   -3262.1808 
 2853000     281.0348   -4671.7936   -4129.7943   -4671.7936            0    6316.8294    20.010534    19.789152    20.643129    8174.5038    4129.6022    9238.8658      5582.02   -539.44347    48.296224    770.40046   -3376.7225 
 2854000    286.82446   -4687.2797   -4134.1147   -4687.2797            0    6644.8385    19.722996    20.086006    20.714679     8206.249    9352.5746    4714.3855    5867.5556   -644.03424    701.58325   -215.83108   -3338.8622 
 2855000    283.13289   -4636.8458   -4090.8002   -4636.8458            0    7295.9117    19.830171    20.147576    20.479434    8182.1457     8361.763    6586.8647    6939.1075   -485.02716    -564.1176    1467.2622   -3220.1922 
 2856000    270.43609   -4683.8085   -4162.2497   -4683.8085            0    8846.4264    20.208275    19.865724    20.151145    8089.7175    8245.1925    8529.4442    9764.6426   -57.270278   -536.60391   -485.03265   -3118.5463 
 2857000    269.33962   -4657.5639   -4138.1198   -4657.5639            0    8496.0328    19.924122    19.892114    20.502808    8125.9375    7965.4025    8717.0966    8805.5994   -300.40848   -7.6756205    719.73069    -3131.268 
 2858000    282.72976   -4669.6831    -4124.415   -4669.6831            0    8769.7533    19.971557    19.894363    20.522461     8154.013    7424.3314    8902.0312    9982.8973    95.806016   -791.21333   -1310.3274   -3081.5342 
 2859000    273.72674   -4669.4363   -4141.5313   -4669.4363            0    8425.2178    19.865445    19.966223    20.535648    8145.2167    7932.5968    9350.9696    7992.0868   -493.36775    1084.9606   -591.62083   -3140.7028 
 2860000    276.02328   -4656.2922    -4123.958   -4656.2922            0    8651.7074    19.954699    20.016604    20.502869    8189.3647    9038.6418    7084.2995    9832.1809   -739.66904   -832.73211    617.49344   -3090.6545 
 2861000    283.01755   -4657.9133   -4112.0901   -4657.9133            0    7192.1477    19.976142    20.039902    20.316176      8132.97     8987.004    4012.9595    8576.4796   -408.84559   -296.01096   -420.50535   -3259.0221 
 2862000    281.55349   -4670.4959   -4127.4963   -4670.4959            0    8768.2285      20.0116    19.832511    20.396957    8095.1497    7448.0257    9802.3369    9054.3229   -247.75838     1579.205   -1449.2743    -3092.324 
 2863000    259.64887   -4675.3259   -4174.5712   -4675.3259            0    8497.1085    19.782015    19.995737    20.557646    8131.6996    9252.7895    7976.6681    8261.8679   -342.54615    646.61399     -531.316   -3166.8779 
 2864000    272.88398     -4668.21   -4141.9303     -4668.21            0    7066.7741    20.115187    19.825625    20.649716     8235.027     7022.421    6481.5567    7696.3446    174.18173   -1666.3817       763.78   -3293.2148 
 2865000    275.83537   -4684.5693   -4152.5976   -4684.5693            0    8150.4943    19.812583    20.016512    20.542674    8146.7888    5912.1951    9890.7916    8648.4963   -1239.6154   -1374.7652   -1479.9859   -3184.2165 
 2866000    256.92691    -4668.297   -4172.7918    -4668.297            0    8483.6959    20.365924    19.619981    20.339923     8127.407    4443.6367    12180.175    8827.2758   -275.51824   -2751.0061    731.09652   -3167.2203 
 2867000    276.36958   -4712.4649    -4179.463   -4712.4649            0     6457.046    19.774954    20.134102    20.534346    8175.7693    7507.0652    5514.2295    6349.8434    -293.3857    244.57829   -3.8027435   -3409.5557 
 2868000    267.07096   -4679.4117   -4164.3429   -4679.4117            0    9282.3464    20.050925    19.793907    20.447748    8115.4283    9177.6241    10073.169    8596.2463    93.678321    1512.3238   -50.179663    -3065.729 
 2869000    262.89277   -4682.3021   -4175.2912   -4682.3021            0    8087.1803    19.844077    20.102956    20.454574    8159.8329    8718.8969    7083.3615    8459.2825   -28.220881    697.64053    547.90287   -3212.8942 
 2870000    284.94881   -4695.9033   -4146.3556   -4695.9033            0    6642.7216    19.955334    19.868786     20.59207    8164.5145    7227.0585    6712.5506    5988.5558    144.81527    679.87811    133.12088   -3355.3996 
 2871000    264.63371   -4677.9534   -4167.5851   -4677.9534            0    9253.3287    20.186604    19.743094    20.256692    8073.2238    7930.5353    9735.0735    10094.377    226.84509    1091.6412   -137.64906    -3078.101 
 2872000    277.80378   -4658.0165   -4122.2485   -4658.0165            0    8043.0699    20.024521    20.047554    20.473186    8218.8102    8274.0115    7102.4615    8752.7367   -151.60671    556.73611    605.82315   -3158.1827 
 2873000     268.2692   -4653.7772   -4136.3974   -4653.7772            0    10515.418    19.973602      19.6365    20.566003    8066.2256    12181.302    10702.561    8662.3918   -218.29417    273.85493   -375.74193   -2899.3886 
 2874000    265.46861   -4651.0495    -4139.071   -4651.0495            0    9458.7073    19.895551    19.904879    20.487655    8113.4913    8549.5506    9387.9638    10438.608    491.81803    397.16735    280.09505    -3019.851 
 2875000    289.71618   -4667.0226   -4108.2806   -4667.0226            0     7624.469    20.053226    19.880202    20.679465    8244.1204    6810.1979    9567.9323    6495.2769    -112.0549    97.710433   -1492.8773   -3191.5751 
 2876000    262.93347   -4684.7922   -4177.7029   -4684.7922            0    7523.2859    20.052016    19.907596     20.55754    8206.3117    8383.6868    6812.7654    7373.4054    122.16448   -1075.4177    228.48309   -3277.3113 
 2877000    273.66388   -4685.1485   -4157.3647   -4685.1485            0    7181.7401    19.993841    20.282423    20.223766    8201.2132     6787.574    6840.5626    7917.0836    537.37443   -1804.9857    17.854028   -3298.3835 
 2878000    267.97655   -4675.7323    -4158.917   -4675.7323            0    7481.3378    19.982178    19.930372    20.458871     8147.791    9620.5008    6224.1293    6599.3832    51.455307    766.17429    -586.0774   -3269.9308 
 2879000    285.87747    -4636.303   -4084.9643    -4636.303            0    7948.9123    19.836256     19.76474    20.742285    8132.1878    7047.5058    9111.5801    7687.6509    532.17979    -405.3365    66.919652   -3142.2263 
 2880000    269.14786    -4711.558   -4192.4837    -4711.558            0    7989.9882    20.002353    19.765245    20.564518    8130.2115     8980.092    5949.2279    9040.6448   -886.22805     669.3911    318.26155   -3245.1044 
 2881000     265.4049   -4713.1864   -4201.3307   -4713.1864            0    6943.9465    19.929155    20.192331    20.323071    8178.3308    7078.4107    6550.8482    7202.5806    588.14111    928.15024    1107.4311   -3373.1084 
 2882000    290.34102   -4665.3008   -4105.3537   -4665.3008            0    8037.3614    20.293014    19.781551    20.231994    8121.6746    6097.4878    9175.0177    8839.5787   -509.32453   -200.62179    783.95913   -3153.3581 
 2883000    278.34185    -4642.451   -4105.6453    -4642.451            0    8880.9164    19.889317    20.010612    20.430119    8131.1346    8672.1002    9382.0095    8588.6394    547.59914    159.92811    288.86589   -3052.5085 
 2884000    261.34508   -4676.7933   -4172.7673   -4676.7933            0    7055.1854    20.096144    19.724405    20.722581    8214.1098    8186.4311    6866.7594    6112.3658    13.664853   -69.253342    -421.3166   -3327.5959 
 2885000    277.98763   -4692.7137   -4156.5912   -4692.7137            0    7580.6885    19.796787    19.945983    20.623142    8143.3856    8669.6351    7226.1076    6846.3227    27.162909    640.41659    982.49691   -3256.2864 
 2886000    260.92171   -4654.8343   -4151.6249   -4654.8343            0    7140.3041    20.225968    19.905846     20.48793    8248.7481    8372.4109    5997.7641    7050.7372    106.82388   -148.82242   -438.20833   -3292.6496 
 2887000    282.65501   -4712.5325   -4167.4085   -4712.5325            0    7345.4893    19.867998    20.192821     20.35178    8164.9496    5685.2088    9077.4163    7273.8427    395.43003   -217.41883    213.91141   -3292.7266 
 2888000    270.26113   -4680.5072   -4159.2859   -4680.5072            0    8546.4109    20.128697    19.915318    20.361658    8162.3659    6525.2902    9951.1439    9162.7986   -198.22141   -1069.6215    308.57028   -3141.9234 
 2889000    260.66411   -4706.5958   -4203.8831   -4706.5958            0     7522.754    19.817983    20.115432    20.520977    8180.6317    7194.7259    6741.3634    8632.1727    300.22672    411.29108    267.62187   -3306.3725 
 2890000    274.62865   -4668.6736   -4139.0292   -4668.6736            0    7251.1299    19.945082    19.942773    20.502453    8155.0606    5864.4193    8139.1097    7749.8606    9.5494774     -924.293   -663.53899   -3276.6291 
 2891000    276.14606   -4691.6348   -4159.0639   -4691.6348            0    8265.9404    19.929642    19.889404    20.473417    8115.4311    8532.4437    7938.3303    8327.0472   -619.68663    1042.1472   -134.67387   -3180.7466 
 2892000    264.47669   -4657.4073   -4147.3418   -4657.4073            0    7278.5548     19.96617     19.94331    20.500783     8163.238    7119.3671     7855.696    6860.6014    323.44896   -621.25659   -764.22761    -3280.812 
 2893000    271.83801   -4678.8305    -4154.568   -4678.8305            0    8051.4508    20.072557    19.914501    20.285703    8108.9044    7828.9524    6516.1619    9809.2382    133.97545    405.81228     336.3261    -3202.403 
 2894000    277.53881   -4679.3444   -4144.0874   -4679.3444            0     7997.681    19.926865    19.962352    20.589552    8190.2576    8075.6887    7088.6866    8828.6679    -691.7098   -2519.2437     26.89344   -3188.7924 
 2895000    269.98806   -4666.2866   -4145.5919   -4666.2866            0    8586.3415    19.924382     19.72271    20.689032      8130.02    7057.3313    9812.1288    8889.5645    651.62353   -2041.3675   -601.86587   -3127.5266 
 2896000    270.10089   -4686.7661   -4165.8538   -4686.7661            0    8004.4794    19.773594    20.062598      20.4818    8125.3282    8928.9779    7967.2536    7117.2066   -594.97708    -395.7556    429.13625   -3217.3264 
 2897000     266.4671   -4687.4947   -4173.5905   -4687.4947            0    9885.0856    19.896306    20.039106    20.302609     8094.735    9640.2294    10801.958    9213.0693    298.12519     457.9655    1141.2219   -3006.6225 
 2898000    268.47254   -4681.3901   -4163.6182   -4681.3901            0    7334.9565    20.113673    19.878015     20.42315    8165.5819    6550.2523    7727.7895    7726.8278    846.58952   -508.89352   -680.54236   -3290.1229 
 2899000    279.71612    -4664.004   -4124.5479    -4664.004            0    7089.0948    19.890976    19.872732    20.744646    8200.1104    8996.9522    6157.1036    6113.2284    278.16309    655.57614    677.17891   -3276.7617 
 2900000     269.2966   -4681.5981   -4162.2369   -4681.5981            0    5900.5136    19.908888    20.100381    20.462213    8188.4917    6880.7966    3431.9168    7388.8273   -14.874556    1353.8847   -643.08139   -3457.5932 
 2901000    285.82628   -4657.2673   -4106.0273   -4657.2673            0    8633.7675    19.950591    19.998815    20.317681    8106.5145    6447.9089    10189.386     9264.008    29.819015   -98.170857    821.80171   -3085.2984 
 2902000    278.67362   -4670.9357   -4133.4902   -4670.9357            0     8670.811    19.917547    19.889916    20.479595    8113.1626     8036.862    8613.7791    9361.7919    100.38204     2461.433    -191.0188   -3107.5412 
 2903000    266.11232   -4665.7765   -4152.5565   -4665.7765            0    7469.3123    20.098461    19.859523    20.429824    8154.4794    8513.2504    6219.4349    7675.2518    87.508549    -675.9274   -602.45483   -3264.2706 
 2904000    271.95964   -4680.1332   -4155.6362   -4680.1332            0    5155.0034    19.855851    19.999456    20.709136    8223.7267    6499.4971    4568.8154    4396.6977   -504.02905    1548.0656    1280.8999   -3537.3728 
 2905000    269.50669   -4687.9509   -4168.1846   -4687.9509            0    5919.2521     20.02018    20.063862    20.528798    8246.0512    9028.3743    3422.1758     5307.206    136.97077   -747.90861   -622.30823   -3456.3342 
 2906000     258.4448   -4672.3215    -4173.889   -4672.3215            0    6705.5851    20.056909    20.091292    20.267952    8167.3607    6591.5353    5136.3505    8388.8696    773.84437   -481.12607   -518.30632   -3375.1695 
 2907000    278.39748   -4687.0196   -4150.1066   -4687.0196            0    6271.6416    20.258258    19.854696    20.404385    8207.0834    6568.7504    6706.0445    5540.1298    494.27612    555.90615     207.6861   -3399.4419 
 2908000    260.85147   -4691.2317   -4188.1577   -4691.2317            0    7455.1205    20.030809    19.896497    20.470515    8158.3789    6776.0894    9412.3108    6176.9613   -81.284698   -34.550141   -20.830444   -3301.1357 
 2909000    278.98086   -4715.6163   -4177.5782   -4715.6163            0    7226.5099    19.974291    19.819011    20.672061    8183.4631    5283.0226     9544.173    6852.3341    289.28789    726.94666   -122.17273   -3315.1129 
 2910000     280.2479   -4691.7855   -4151.3039   -4691.7855            0    6960.6514    19.860962    19.874142    20.813428    8215.4673    7996.2543    6415.7122    6469.9879    400.19446    595.55982    65.377114   -3317.3192 
 2911000    265.23043   -4675.3198   -4163.8006   -4675.3198            0    7951.0437    19.956261    19.894643    20.563182    8164.0498    6838.1424    10009.675    7005.3141    195.52734   -1368.3014    679.63996   -3217.1152 
 2912000    264.07478   -4651.8316   -4142.5412   -4651.8316            0    7428.2328    20.037479    20.126344    20.328033    8197.9132    6988.7123    6548.4754    8747.5106   -1093.1283    228.11989    626.51823   -3254.4354 
 2913000    271.80552   -4670.1889   -4145.9891   -4670.1889            0    5830.9526    19.976835    19.876682    20.645998    8197.9723    5408.5519    6001.8117    6082.4942   -1046.1526   -1726.0059    1510.1485   -3448.8462 
 2914000    267.47625   -4681.8292   -4165.9788   -4681.8292            0    7152.1506     20.09743    19.950623    20.356995    8162.2645    8118.5771    6095.5714    7242.3033    367.35789    199.86836    734.08294   -3314.5992 
 2915000    275.91043   -4686.8127   -4154.6962   -4686.8127            0    7309.2592    20.130679    19.938304    20.323533    8157.2889    8485.5388    6028.9633    7413.2756    291.02613    569.28367    -976.7558   -3285.1452 
 2916000    287.84753   -4679.4598   -4124.3217   -4679.4598            0     10361.92    19.840779    19.689411     20.62665    8057.8678    10843.144    10883.819    9358.7964   -0.6898376   -302.24567    1473.9148    -2906.633 
 2917000    270.75326   -4668.2138   -4146.0434   -4668.2138            0    8632.5408    19.881685    19.830911    20.657538    8144.6876    9991.6343    9280.2214    6625.7667   -575.27778    1678.4992    -27.63966   -3120.6536 
 2918000    283.62331   -4650.9467   -4103.9553   -4650.9467            0     7986.134    19.934574    20.242033    20.183391    8144.3273     8370.703    7030.1966    8557.5024   -296.34672     214.5326    950.43991   -3155.3889 
 2919000    283.99106   -4664.1442   -4116.4436   -4664.1442            0    7053.1929    19.973895    19.963405    20.602155    8215.0463    8012.0426    7542.5278    5605.0084   -53.369951    1702.5167    1017.8746   -3271.4145 
 2920000    286.64275   -4693.9811   -4141.1665   -4693.9811            0    7971.8225    19.928322    20.054952    20.450614    8173.3237    8959.8023    7566.0645    7389.6007   -731.35199    78.910344    1753.4174   -3190.9289 
 2921000    279.73565   -4670.3967    -4130.903   -4670.3967            0    7749.3025    20.203413    19.903813     20.32127      8171.69    6505.6362    7135.2417    9607.0297    200.10269    381.79903   -1669.2838   -3207.3743 
 2922000    271.68129   -4696.4059   -4172.4457   -4696.4059            0    6750.5663    20.066505    20.032361    20.380459    8192.5262    5499.2847    6090.4462     8661.968    510.04911   -809.01636     2011.983   -3365.8908 
 2923000    267.09026   -4693.2891   -4178.1831   -4693.2891            0    7018.6592    19.980163    19.762194    20.829153    8224.4297    8514.8302    7354.6813    5186.4661   -294.09543    1950.4282   -469.05252   -3336.3309 
 2924000     273.7336   -4675.2381   -4147.3199   -4675.2381            0    7372.6245    19.855752    19.979021    20.581051    8164.4717    8370.2405    5870.0425    7877.5904    437.21653    1317.6688    445.14327   -3269.4582 
 2925000    273.41234   -4683.5503   -4156.2516   -4683.5503            0    7194.5808    19.967757    20.078147     20.38555     8172.884    6256.6299    7782.7803    7544.3323   -1135.4661    117.71708    1714.8295    -3298.707 
 2926000    264.08535   -4681.4633   -4172.1525   -4681.4633            0    8417.9286    20.017657    19.982412     20.29718    8118.8935    8935.8457    6127.6067    10190.334    27.708318   -425.62506   -424.23653   -3175.4215 
 2927000     270.7375   -4664.1671    -4142.027   -4664.1671            0    8147.9905    20.035354    19.909411    20.462373    8162.2787    7714.1155    8018.3214    8711.5346    437.47202      527.913    575.81623   -3172.1028 
 2928000    276.47887    -4681.987   -4148.7743    -4681.987            0    6291.7445     19.97641    20.000024    20.394066    8148.0145    7170.9156    4958.4939     6745.824    -17.78843   -51.948274    303.88031   -3401.1235 
 2929000    268.39139   -4643.4052   -4125.7898   -4643.4052            0    7913.1663    20.049035    19.695618    20.834283    8227.0025    8863.9017    7035.1426    7840.4547   -646.83452    -1434.354   -171.06786   -3176.3492 
 2930000    277.32763    -4656.344   -4121.4944    -4656.344            0    7682.6444    19.826634    19.981336    20.586085    8155.4375    9321.9973    6250.3614    7475.5745   -57.998641   -395.69269    1122.5633   -3207.7307 
 2931000    273.66055   -4686.8302   -4159.0528   -4686.8302            0    7453.1983    20.071611    19.935644      20.3357    8137.1372    6970.9874    6684.1171    8704.4905   -81.798144    1510.4229    85.076783   -3274.5684 
 2932000    271.63308   -4662.0909   -4138.2236   -4662.0909            0    7327.0747    20.135502    19.876032    20.379869    8156.3065    6257.8071    8607.4377    7115.9793     416.5305    633.55132     -341.141   -3266.6581 
 2933000    273.58276   -4701.4153   -4173.7879   -4701.4153            0    8477.8668    19.700707    20.043461    20.579367     8126.182    10935.285    6097.6151    8400.7006    120.21901   -445.17755    1446.2731   -3169.0587 
 2934000    272.04175   -4710.5849   -4185.9295   -4710.5849            0    6288.5206    20.014453    19.938879    20.560955    8205.1732    6755.8263    5859.8469    6249.8886   -287.17442    70.581176   -692.15518   -3433.4198 
 2935000    283.82588   -4672.2514   -4124.8693   -4672.2514            0    7979.4108    20.140503    19.984315    20.281965    8163.3721    7760.6068    9235.5127    6942.1128    533.36992     827.7757   -1247.9166   -3174.8853 
 2936000    272.57732    -4648.104   -4122.4157    -4648.104            0    8019.8297    19.887596    20.137952    20.432097    8182.9618    7982.5525    8972.3554    7104.5814   -430.52694   -353.37785   -642.71534   -3165.3284 
 2937000    260.63893   -4652.5067   -4149.8426   -4652.5067            0    9955.4476    19.973624    19.812934    20.465155    8098.8003    8990.2282    10655.475     10220.64   -1147.0223    434.73345    636.57089   -2973.9779 
 2938000    268.62135   -4646.5656   -4128.5067   -4646.5656            0    8080.7096    19.817933    19.874901    20.665672    8139.7838    7239.3737    8859.7918    8142.9633   -291.97209    125.93092      29.3592   -3169.2424 
 2939000    260.89111   -4685.6072   -4182.4568   -4685.6072            0    6319.8959    20.134273      19.8562    20.498964    8195.2839    7331.0314     4258.947    7369.7092    386.49305     412.9797    911.25613   -3427.1041 
 2940000      282.127   -4647.6372   -4103.5316   -4647.6372            0    7433.3227    19.937536    20.196057    20.240564    8150.0578     5854.845    7668.3292     8776.794   -1547.2371    -1664.209   -1167.4596   -3220.0051 
 2941000    257.48762   -4643.2174   -4146.6308   -4643.2174            0    6573.3673    20.061761    19.904982    20.512901    8191.3958    5227.1732    8096.7572    6396.1714   -556.44176   -1160.3395    1214.7291    -3361.356 
 2942000    292.08178   -4696.3424   -4133.0381   -4696.3424            0    7424.5261    19.805224    20.047881    20.481843    8132.3727    9882.3884    4727.4883    7663.7017    899.79706    1098.6083    418.94846   -3252.4721 
 2943000    282.87158    -4689.746   -4144.2043    -4689.746            0    8379.7098    20.118327    19.764821    20.499012    8151.1273    7784.4796    7788.9098    9565.7401   -32.634768    1551.1032    819.79518   -3148.0593 
 2944000    279.07883   -4656.0643   -4117.8373   -4656.0643            0     10573.66    19.932311    20.013293    20.316978    8104.6695    11203.646    9797.6648    10719.669    674.50359   -536.43174   -504.29859   -2868.0487 
 2945000    280.52585   -4685.3853   -4144.3676   -4685.3853            0    8131.0284    20.162615    19.888135    20.311072    8144.6751    6999.5673     9530.631    7862.8868    198.97918    -461.2154    1722.5754     -3178.55 
 2946000    278.72204   -4682.2476   -4144.7087   -4682.2476            0    8241.2687    19.756779    19.994531    20.650504    8157.5177     9960.048    7279.5873    7484.1707    576.14736   -503.72255    2250.4424    -3164.253 
 2947000    265.60886   -4658.6916   -4146.4426   -4658.6916            0    6657.8725    20.125997    19.755109    20.582917    8183.5881    6322.0147    8450.1662    5201.4367   -447.30866    5.1406198    1663.3031   -3351.8306 
 2948000     287.3404   -4695.7871    -4141.627   -4695.7871            0    7202.7744    19.908367    20.116982    20.413521    8175.5387    7807.6344    6147.8363    7652.8525    221.90248    122.92173   -73.842875   -3282.8269 
 2949000    277.88687   -4654.7313   -4118.8031   -4654.7313            0    7535.8707    20.143089    19.966933    20.429899    8216.8176     6733.552    7740.0704    8133.9896   -194.92939    961.74385    1645.0848   -3215.7507 
 2950000    265.81281   -4675.7697   -4163.1274   -4675.7697            0    7236.4743    20.155064    20.007929    20.308619    8189.6762    8068.9146    5618.0068    8022.5016     -764.153    595.62775    109.78873   -3298.8171 
 2951000    264.78219   -4667.4373   -4156.7826   -4667.4373            0    6623.0734    20.104248    19.938141    20.401424    8177.7341    7196.3985    6430.7674    6242.0541    94.688292    -1466.974   -1006.4878   -3366.8893 
 2952000    263.34419   -4645.8104    -4137.929   -4645.8104            0    6629.9294    20.010324     20.08044    20.598025    8276.6181    6507.0263    5647.8659    7734.8959    880.70082   -101.50802   -980.44596   -3337.6569 
 2953000    272.12087   -4684.7443   -4159.9363   -4684.7443            0    9660.3434    19.867058    19.765322    20.475114    8040.1431    11063.437    8283.8032    9633.7898   -634.96665   -383.91964   -1494.7462   -3027.1911 
 2954000     265.3681    -4683.065   -4171.2803    -4683.065            0    8877.3486    19.945727    19.991792    20.333982    8108.1923    8485.0474    8311.1769    9835.8215    59.463802    1847.3408   -647.26435   -3121.5367 
 2955000    274.85261   -4714.1452   -4184.0688   -4714.1452            0    8204.1143     19.80997    19.712805    20.787442    8117.7053    9961.7053    7198.6857    7451.9521    148.50374    289.43635   -202.39225   -3212.7968 
 2956000    276.62068   -4697.2937   -4163.8075   -4697.2937            0    9226.4381    19.921032    19.688864    20.636998    8094.2949     7553.796    11433.708    8691.8104   -220.07974   -415.39177    8.6252286   -3074.6542 
 2957000    270.20339   -4673.2542   -4152.1443   -4673.2542            0    8097.2104    20.185428    19.836519    20.479394    8200.1257     6762.307    8957.7988    8571.5254    451.00684    1106.7429    1344.9608   -3183.7954 
 2958000      268.002   -4657.4517   -4140.5873   -4657.4517            0     7069.079    19.926761    20.176829    20.373069    8191.1729    7658.9281    5842.6752    7705.6337    80.336422    796.38345    124.87843   -3296.1162 
 2959000    275.90143   -4685.3603   -4153.2612   -4685.3603            0    7709.0132    20.054812    19.946817    20.410568    8164.8328    6995.2567    8285.3017    7846.4812    544.45627   -526.02579    1030.6827   -3235.3049 
 2960000    289.41539   -4675.5609   -4117.3989   -4675.5609            0    7310.6198    19.805584    19.851513     20.80425    8179.6241    6906.5287    8273.3415    6751.9892    1228.0479   -1092.3519    563.77787   -3245.3047 
 2961000    283.61162   -4686.4267   -4139.4579   -4686.4267            0    9117.5495    19.853169    19.976551    20.479829    8122.2559    10802.276    7442.8376    9107.5345    570.31833    987.70396   -68.304451   -3059.4406 
 2962000    277.80403   -4679.4424    -4143.674   -4679.4424            0    6515.1701    20.205629    19.823659    20.423076    8180.4528    5571.0244    6688.8756    7285.6102   -423.18405    2040.7368   -1114.5859   -3366.3913 
 2963000    297.59941   -4680.7795    -4106.834   -4680.7795            0    7853.5369    19.829042    20.076954    20.369439    8109.2116    9131.2857     6457.427     7971.898   -149.52017    1258.3815   -354.54211   -3178.0391 
 2964000     275.1062   -4663.3774    -4132.812   -4663.3774            0    9158.8787    20.124347    19.672576    20.540298    8131.8579    8844.2128    8975.6443    9656.7788    340.08544    504.54929   -731.04758   -3046.6165 
 2965000    261.28181    -4703.723   -4199.8191    -4703.723            0    7212.9313    19.824705    19.750518     20.78795    8139.4844    7922.3026     6877.757    6838.7342    468.41811   -974.66057    1300.2307   -3343.6006 
 2966000    269.29984   -4672.9088   -4153.5415   -4672.9088            0    7914.1912    19.926845    19.881448    20.568548     8148.735    6920.6515    8711.2875    8110.6346    492.49706   -58.738869    226.73722   -3213.0115 
 2967000    259.62987   -4682.5808   -4181.8628   -4682.5808            0    7472.4668    19.811719    20.374702    20.253056    8175.3055    8150.4895    5969.6654    8297.2456   -807.46468    1041.6563   -1086.5277   -3290.9322 
 2968000    277.28521   -4664.9129    -4130.145   -4664.9129            0    7241.0997    20.103834    19.851209    20.455905    8163.6533    7714.6977    6782.2773    7226.3241    373.62386    720.29654    989.82376   -3268.0305 
 2969000    263.92178   -4637.2566   -4128.2612   -4637.2566            0    6781.8626    19.750744    20.236329    20.466019    8179.9106    8018.6765    5688.8194    6638.0917    1040.2613    -185.7931    -709.7427   -3319.2148 
 2970000    257.41285    -4673.331   -4176.8886    -4673.331            0    6938.0485     20.07402    19.879768    20.531649    8193.5006    6380.2639    7861.8934    6571.9881   -363.36064   -127.39273    386.96692   -3347.8349 
 2971000    274.78998   -4681.3058   -4151.3502   -4681.3058            0    7950.4966    19.963499     20.08729    20.376833    8171.3667    8458.0958    7680.3533    7713.0405   -567.69017    549.36351   -374.18679   -3203.8815 
 2972000    271.64946   -4691.8802   -4167.9814   -4691.8802            0      8624.36    19.964792    20.048892    20.385627     8159.795    9571.5339    7404.9677    8896.5784    435.55116    1303.3138   -142.83455   -3141.6632 
 2973000    261.55216   -4664.3491   -4159.9237   -4664.3491            0    9318.4243    19.854246    19.937235    20.571696    8143.0748    11076.694    8863.5154    8015.0635    319.41027    1213.6307   -170.47579   -3053.2826 
 2974000    268.00963    -4662.737   -4145.8579    -4662.737            0    5171.2692     20.08524    19.904245    20.506607    8198.1626    4505.0268    5108.7577    5900.0231    865.51838   -960.47963    1346.6445   -3527.5717 
 2975000    256.96648   -4650.6281   -4155.0467   -4650.6281            0    9044.7659    19.987404    20.148157    20.072408    8083.3461    8231.8025    8560.7215    10341.774   -931.75219   -15.167094    -140.6156   -3088.7835 
 2976000    287.41894   -4690.7552   -4136.4436   -4690.7552            0    9002.7714    20.069345    19.750359    20.415667    8092.2959    7434.9052    10826.759    8746.6501    376.01683   -359.09815    1612.3749    -3073.956 
 2977000     289.2827   -4634.4371   -4076.5311   -4634.4371            0    6922.1334    19.906145    19.981174    20.700645    8233.6434    6416.1598    7988.3265     6361.914   -484.29039    488.10996    381.23653   -3245.3266 
 2978000    276.91329   -4658.5688   -4124.5182   -4658.5688            0    7976.3173    20.123726    20.046441    20.381708    8222.1663    6913.9969    8775.7851      8239.17    356.32434   -1267.2211    670.69055   -3168.0632 
 2979000    278.35826   -4673.1368   -4136.2994   -4673.1368            0    6979.7507    19.907837    19.950251    20.607795    8184.7226    6495.3015    8275.3934    6168.5572    3.6194929   -530.73059   -879.18087    -3303.156 
 2980000    281.17094   -4639.4573   -4097.1955   -4639.4573            0    6756.4593    20.154471    19.769128    20.474142    8157.6419    6412.7866    7064.3927    6792.1987   -316.62562    502.27908    473.58665   -3293.3739 
 2981000    285.71188   -4664.6116   -4113.5922   -4664.6116            0    8718.1965    19.902293    20.150265    20.285972    8135.4149    9917.8569    7048.5973    9188.1353   -217.28934     272.9201   -1199.9566   -3079.2072 
 2982000     274.2132   -4662.4675   -4133.6243   -4662.4675            0    7480.5404    19.965869    19.907028    20.540511    8164.0543    6305.4306    7942.4506    8193.7399   -360.01881   -1184.2031    855.56227   -3242.9585 
 2983000    269.74619   -4672.5757   -4152.3475   -4672.5757            0    7734.6954    19.978506    19.827143    20.556941    8142.9476    7848.4216    7336.6449    8019.0197   -407.14455    431.39009   -1130.0639   -3233.8019 
 2984000    268.37941   -4643.2461   -4125.6539   -4643.2461            0    8045.0922     19.99489    19.981784    20.482944    8183.6242    7590.2935    8904.4068    7640.5764    362.28396   -1002.5336   -22.686542    -3165.474 
 2985000    253.90185   -4658.2528   -4168.5817   -4658.2528            0    8672.9551    20.000948    20.098951    20.188029    8115.5488    7510.6601    8753.7771    9754.4281   -153.02565   -81.832399    888.20978   -3142.0772 
 2986000    266.71918   -4683.5727   -4169.1823   -4683.5727            0    6329.3101    20.123298    19.858958     20.56876     8219.847    5684.0878    6003.7217    7300.1207     542.7469   -15.479634    456.37769    -3410.437 
 2987000    272.27663    -4676.787   -4151.6786    -4676.787            0    8052.3797    19.876991    19.857536    20.600947    8131.3603     9556.912    7828.7966    6771.4305   -327.57407   -597.34762   -374.14887   -3196.7666 
 2988000    278.08753   -4660.9489   -4124.6337   -4660.9489            0    8291.7795    19.882408    20.148625    20.411722    8177.0006    10935.429    7185.8626    6754.0469   -161.11568    255.96136    804.65521   -3135.8127 
 2989000    266.09689   -4666.0078   -4152.8176   -4666.0078            0    7241.8964    20.159074    19.923178    20.391832    8190.0288    7156.8819    6245.6464    8323.1609   -144.91981    522.94155    -243.8474   -3287.8225 
 2990000    267.56065   -4646.4459   -4130.4327   -4646.4459            0    7972.4766    19.796892    20.031602    20.554884    8151.3157    9030.3065    6568.2085    8318.9147     501.3475    961.59461   -1109.5452    -3182.676 
 2991000    282.08827   -4709.4788   -4165.4478   -4709.4788            0    8343.2644    20.077452    19.788573    20.435454    8119.0902    8579.9197    7296.0299    9153.8436   -115.72414     893.3212    202.52444   -3177.5335 
 2992000    275.64639   -4682.4834   -4150.8761   -4682.4834            0    6131.4914     19.98568    20.196917    20.430877    8246.9054    7808.3188    3640.4359    6945.7195    98.864818    1029.1425   -391.71829   -3413.4254 
 2993000    264.45926   -4633.6804   -4123.6484   -4633.6804            0    7362.5145    19.946785    20.124507     20.46272    8214.1293    8077.7216    6392.5413    7617.2805    243.60138    391.75442    -449.9749   -3241.6586 
 2994000    269.31403   -4654.8768    -4135.482   -4654.8768            0     7249.009    20.024653    19.953085    20.433618    8164.3256    7662.9173    5391.4389    8692.6708     368.2072    916.52835    972.69407   -3272.3548 
 2995000    293.74326   -4661.5324   -4095.0238   -4661.5324            0    6287.6937    19.981929    19.986533     20.49646     8185.661    4036.1246    9315.0989    5511.8576   -905.51815    167.97786    -644.7573   -3344.4023 
 2996000    271.08584   -4634.8731   -4112.0612   -4634.8731            0    9467.9358    19.768079     19.85649    20.600336    8086.1402    10576.723     8289.464      9537.62   -101.65175   -556.27488   -458.43003   -2995.5259 
 2997000    275.20446   -4671.4262   -4140.6713   -4671.4262            0    7347.0369    20.088095    19.758681    20.576241     8167.003    6075.0726    8087.6588    7878.3794   -986.63276    96.383987   -1720.7708   -3265.5851 
 2998000    263.30975   -4622.4947   -4114.6797   -4622.4947            0    9334.1216    19.875464    20.046455    20.427681    8139.0538     9631.336    10587.566    7783.4631    457.21181    595.71952   -853.55197   -3006.7218 
 2999000    259.48929   -4676.8842   -4176.4373   -4676.8842            0    4982.5182    20.095738    19.853805    20.656219    8241.3534    6108.0613    4771.1741    4068.3192   -260.47315   -742.08045    1117.7325   -3577.5801 
 3000000    279.18939    -4638.842   -4100.4018    -4638.842            0    7719.4024    19.851994    19.960544     20.59593    8161.2728    7546.8692    8535.3401    7075.9979    315.51642   -1487.7037    1357.8412   -3181.6093 
Loop time of 394.303 on 64 procs for 250000 steps with 972 atoms

Performance: 109.561 ns/day, 0.219 hours/ns, 634.031 timesteps/s
193.4% CPU use with 32 MPI tasks x 2 OpenMP threads

MPI task timing breakdown:
Section |  min time  |  avg time  |  max time  |%varavg| %total
---------------------------------------------------------------
Pair    | 29.746     | 36.268     | 42.762     |  64.6 |  9.20
Bond    | 0.97289    | 1.1411     | 1.3973     |   8.6 |  0.29
Kspace  | 172.84     | 182.5      | 189.79     |  33.9 | 46.28
Neigh   | 2.8676     | 3.2193     | 3.608      |  12.3 |  0.82
Comm    | 70.065     | 75.85      | 81.048     |  32.5 | 19.24
Output  | 0.72656    | 0.72691    | 0.72858    |   0.0 |  0.18
Modify  | 77.949     | 79.614     | 80.961     |   9.1 | 20.19
Other   |            | 14.99      |            |       |  3.80

Nlocal:        30.3750 ave          38 max          24 min
Histogram: 4 1 4 1 3 11 3 4 0 1
Nghost:        2660.78 ave        2700 max        2623 min
Histogram: 1 2 6 3 7 3 4 1 3 2
Neighs:        9628.94 ave       12686 max        7203 min
Histogram: 1 1 6 7 5 7 1 1 2 1

Total # of neighbors = 308126
Ave neighs/atom = 317.00206
Ave special neighs/atom = 2.0000000
Neighbor list builds = 8793
Dangerous builds = 0

unfix		3
unfix		2
unfix		1

write_data	data.final.${pid}
write_data	data.final.1
System init for write_data ...
PPPM initialization ...
  extracting TIP4P info from pair style
  using 12-bit tables for long-range coulomb (../kspace.cpp:340)
  G vector (1/distance) = 0.37173726
  grid = 24 24 24
  stencil order = 5
  estimated absolute RMS force accuracy = 0.0035664352
  estimated relative force accuracy = 1.0740214e-05
  using double precision FFTW3
  3d grid and FFT values/proc = 3211 432
Last active /omp style is kspace_style pppm/tip4p/omp
WARNING: Not all mixed pair coeffs generated from mixing. Use write_data with 'pair ij' option to store all pair coeffs. (../write_data.cpp:312)

write_restart   restart.lmp.${pid}
write_restart   restart.lmp.1
System init for write_restart ...
PPPM initialization ...
  extracting TIP4P info from pair style
  using 12-bit tables for long-range coulomb (../kspace.cpp:340)
  G vector (1/distance) = 0.37173726
  grid = 24 24 24
  stencil order = 5
  estimated absolute RMS force accuracy = 0.0035664352
  estimated relative force accuracy = 1.0740214e-05
  using double precision FFTW3
  3d grid and FFT values/proc = 3211 432
Last active /omp style is kspace_style pppm/tip4p/omp
Total wall time: 0:06:34
