LAMMPS (30 Jul 2021)
  using 1 OpenMP thread(s) per MPI task
package omp 0
using multi-threaded neighbor list subroutines
echo both

include		in.partitions
variable        pid world 0
include		in.temp
variable        temperature equal 263.29
variable	tempDamp equal 100.0
include		in.pressure
variable        pressure equal 8375.0
variable        pressureDamp equal 1000.0 # This is 1 ps
include		in.seed
variable        seed world 745823

units		real
atom_style	full
read_restart	restart.lmp.${pid}
read_restart	restart.lmp.0
Reading restart file ...
  restart file = 30 Jul 2021, LAMMPS = 30 Jul 2021
  restoring atom style full from restart
  orthogonal box = (-0.15350802 -0.085498813 -0.088625508) to (24.883509 24.815500 22.898626)
  4 by 4 by 4 MPI processor grid
  restoring pair style lj/cut/tip4p/long/omp from restart
  restoring bond style harmonic/omp from restart
  restoring angle style harmonic/omp from restart
  1920 atoms
  1280 bonds
  640 angles
Finding 1-2 1-3 1-4 neighbors ...
  special bond factors lj:    0        0        0       
  special bond factors coul:  0        0        0       
     2 = max # of 1-2 neighbors
     1 = max # of 1-3 neighbors
     1 = max # of 1-4 neighbors
     2 = max # of special neighbors
  special bonds CPU = 1.874 seconds
  read_restart CPU = 2.211 seconds
include 	in.setup
variable	out_freq equal 1000
variable	out_freq2 equal 10000
variable	out_freq3 equal 1000

timestep	2.0

neigh_modify    delay 7 every 1

include		in.tip4p
# This is TIP4P/Ice

# create groups ###
group ox type 2
640 atoms in group ox
group hy type 1
1280 atoms in group hy

# set charges - beside manually ###
set group ox charge -1.1794
Setting atom values ...
  640 settings made for charge
set group hy charge 0.5897
Setting atom values ...
  1280 settings made for charge

# ### TIP3P Potential Parameters ###
pair_style lj/cut/tip4p/long/omp 2 1 1 1 0.1577 8.5
pair_coeff 1 1*2 0.000 0.000
pair_coeff 2 2 0.21084 3.1668
bond_style  harmonic
bond_coeff  1 450 0.9572
angle_style harmonic
angle_coeff 1 55 104.52
kspace_style pppm/tip4p/omp 1.0e-5
pair_modify tail yes

thermo          ${out_freq}
thermo          1000
thermo_style    custom step temp pe etotal epair emol press lx ly lz vol pxx pyy pzz pxy pxz pyz enthalpy

restart 	${out_freq3} restart.lmp.${pid} restart2.lmp.${pid}
restart 	1000 restart.lmp.${pid} restart2.lmp.${pid}
restart 	1000 restart.lmp.0 restart2.lmp.${pid}
restart 	1000 restart.lmp.0 restart2.lmp.0


include         in.dump
dump            myDump all atom ${out_freq2} dump.water.${pid}
dump            myDump all atom 10000 dump.water.${pid}
dump            myDump all atom 10000 dump.water.0
dump            myDump2 all dcd ${out_freq2} dump.dcd
dump            myDump2 all dcd 10000 dump.dcd
dump_modify     myDump append yes
dump_modify     myDump2 append yes


variable natoms 	equal  "count(all)"                        # NUMBER ATOMS
variable H      	equal  "enthalpy/v_natoms"                 # ENTHALPY-per-atom
variable Vol      	equal  "vol/v_natoms"                 # volume-per-atom
fix AVG all 		ave/time ${out_freq} 1 ${out_freq} v_Vol v_H file vol_enthalpy.dat
fix AVG all 		ave/time 1000 1 ${out_freq} v_Vol v_H file vol_enthalpy.dat
fix AVG all 		ave/time 1000 1 1000 v_Vol v_H file vol_enthalpy.dat




fix 		1 all shake 1e-6 200 0 b 1 a 1
       0 = # of size 2 clusters
       0 = # of size 3 clusters
       0 = # of size 4 clusters
     640 = # of frozen angles
  find clusters CPU = 0.168 seconds
fix             2 all nph aniso ${pressure} ${pressure} ${pressureDamp}
fix             2 all nph aniso 8375 ${pressure} ${pressureDamp}
fix             2 all nph aniso 8375 8375 ${pressureDamp}
fix             2 all nph aniso 8375 8375 1000
fix             3 all temp/csvr ${temperature} ${temperature} ${tempDamp} ${seed}
fix             3 all temp/csvr 263.29 ${temperature} ${tempDamp} ${seed}
fix             3 all temp/csvr 263.29 263.29 ${tempDamp} ${seed}
fix             3 all temp/csvr 263.29 263.29 100 ${seed}
fix             3 all temp/csvr 263.29 263.29 100 745823


run             250000
PPPM initialization ...
  extracting TIP4P info from pair style
  using 12-bit tables for long-range coulomb (../kspace.cpp:340)
  G vector (1/distance) = 0.37436029
  grid = 30 30 30
  stencil order = 5
  estimated absolute RMS force accuracy = 0.0032830847
  estimated relative force accuracy = 9.886912e-06
  using double precision FFTW3
  3d grid and FFT values/proc = 3600 512
Last active /omp style is kspace_style pppm/tip4p/omp
Neighbor list info ...
  update every 1 steps, delay 7 steps, check yes
  max neighbors/atom: 2000, page size: 100000
  master list distance cutoff = 10.8154
  ghost atom cutoff = 10.8154
  binsize = 5.4077, bins = 5 5 5
  1 neighbor lists, perpetual/occasional/extra = 1 0 0
  (1) pair lj/cut/tip4p/long/omp, perpetual
      attributes: half, newton on, omp
      pair build: half/bin/newton/omp
      stencil: half/bin/3d
      bin: standard
Per MPI rank memory allocation (min/avg/max) = 9.331 | 9.339 | 9.344 Mbytes
Step Temp PotEng TotEng E_pair E_mol Press Lx Ly Lz Volume Pxx Pyy Pzz Pxy Pxz Pyz Enthalpy 
 6500000    268.18703   -9068.2508   -8045.7995   -9068.2508            0    8311.0091    25.037017    24.900999    22.987251    14331.326    8019.2715    8687.9633    8225.7924    372.59062    626.13434   -1268.5773   -6308.7347 
 6501000    265.89074    -9096.775   -8083.0783    -9096.775            0    8948.6321    24.989598    24.793995    23.092335    14307.825    9163.9753    10065.624    7616.2971   -462.67279    1254.0284    207.41856   -6215.8124 
 6502000     265.4223    -9094.651   -8082.7402    -9094.651            0    7426.1819    24.978322    25.033184    23.012636    14389.501     6807.727    8628.4014    6842.4172    333.22646    977.03736    149.29978   -6524.3106 
 6503000    266.50487   -9089.5609   -8073.5228   -9089.5609            0    8715.6668    25.052991    25.058981     22.83116    14333.457    8045.8372    8419.0632    9682.1001   -702.34801     448.8859     669.0914   -6251.6105 
 6504000    262.66518    -9131.904   -8130.5046    -9131.904            0    7790.9791    24.785587    25.032789    23.110496    14338.962    8825.6052    7994.6775    6552.6548   -704.36182     705.6756   -18.257067   -6501.2624 
 6505000    264.10386    -9080.629   -8073.7446    -9080.629            0    7374.2594    24.840159    25.123305    23.085369    14406.814    8723.4166     6467.823    6931.5387   -124.01116   -121.39055     721.8101   -6524.3492 
 6506000    256.82008   -9022.0637   -8042.9484   -9022.0637            0    8373.1567    24.928539    24.995347    23.097111    14391.752    9303.3262    8175.5389    7640.6051   -390.34866   -383.87643    145.21228   -6285.5154 
 6507000    255.86658   -9086.0168   -8110.5367   -9086.0168            0     8023.985    24.865628    25.071956    23.056196    14373.923    8685.2505    6698.2523    8688.4522     279.0248   -32.918981    534.68011   -6428.4774 
 6508000    262.37709   -9112.2299   -8111.9288   -9112.2299            0    7678.5318    24.959559    25.111153    22.970651    14397.161    7294.9568    8113.5976    7627.0411   -807.81244    505.46335    1547.6097   -6499.6841 
 6509000    266.42511   -9054.4364   -8038.7023   -9054.4364            0    8393.0468    24.865591    25.042273    23.112211    14391.764    8225.0954    8826.7545    8127.2903    1541.5364   -226.73015    484.03065   -6277.0932 
 6510000    257.78621   -9049.7734   -8066.9748   -9049.7734            0    7976.8567    24.864055    25.057016    23.089484    14385.188    8653.1458    8683.6887    6593.7355    964.05881   -1028.6595   -105.37181   -6393.4844 
 6511000    253.93988   -9054.7198   -8086.5852   -9054.7198            0     7998.201     24.84284    25.226766    22.922818    14365.834    8727.7794     7609.885    7656.9385   -1238.2748   -1241.9041     1219.442   -6410.8744 
 6512000    268.84242   -9060.9618   -8036.0118   -9060.9618            0    7508.3371    24.889614    25.197028    23.023015    14438.753     7865.559    6864.8115    7794.6407    365.79479   -1205.0009   -258.52204   -6454.9483 
 6513000    263.01704   -9057.3363   -8054.5954   -9057.3363            0    7627.6333    24.874279    25.036683    23.146456    14414.905    8296.3185    6815.7144    7770.8671    387.38855   -796.69618   -500.19606   -6451.0639 
 6514000    256.90048   -9102.7683   -8123.3465   -9102.7683            0    7734.9586    25.021927    25.062396    22.939168    14385.369    7505.4624    7420.7124    8278.7009    137.07349    306.08669    601.79331   -6500.5843 
 6515000    265.55337   -9090.2565   -8077.8459   -9090.2565            0    9261.1522    24.936405    24.927238    23.013001    14304.782     9279.005    9529.1986    8975.2528    -1107.508   -68.990743      735.932    -6145.779 
 6516000    267.85031    -9085.515   -8064.3475    -9085.515            0    9399.1568    24.916291    24.950527    23.032276     14318.58    9859.0935    9603.2766    8735.1003   -365.29346    868.94674    871.14042   -6101.5986 
 6517000    262.79406   -9071.5508     -8069.66   -9071.5508            0     9272.474    25.110566    24.883673    22.912741    14316.868     7665.634    10520.736    9631.0522    67.676417   -550.40204   -1788.6635   -6133.5967 
 6518000    250.36663   -9069.3944   -8114.8826   -9069.3944            0    8435.5802    25.041123    24.899646    23.020563    14353.669    8435.6323    8492.0687    8379.0397    164.90431     -2159.78   -24.772474   -6349.0328 
 6519000    259.96459   -9088.6151   -8097.5115   -9088.6151            0    7935.5428    25.035429    24.823753     23.13989    14380.824    7802.1317    9363.1082    6641.3885   -700.32836   -879.64082    311.21172   -6433.1935 
 6520000    263.09012   -9118.5922   -8115.5727   -9118.5922            0    7986.7403    24.932474    25.002403    23.026791    14354.251    7645.9051    7733.4917    8580.8241    312.88615    855.78898    390.77263   -6443.6123 
 6521000    261.04952   -9102.9742   -8107.7343   -9102.9742            0    8599.1019     24.96823    25.047558    22.958403    14358.029    8336.2165    8595.2088    8865.8805   -1032.0492   -131.75219     169.4866   -6307.1072 
 6522000    262.98332   -9057.1325   -8054.5201   -9057.1325            0    8698.9628    24.932934    25.054616    22.988421    14360.524    9404.2116    8030.0744    8662.6023    201.37048   -132.05567   -1322.2999   -6232.6658 
 6523000    257.63495   -9102.9192   -8120.6973   -9102.9192            0    8892.4932    24.836352    24.991916    23.045798    14304.711    9259.0271    9095.5128    8322.9398    704.42371   -946.24619    572.66878   -6265.5494 
 6524000    272.40236   -9047.5455   -8009.0235   -9047.5455            0    8161.1413    24.763369    25.115918    23.140233    14392.177    9948.3999     6892.882    7642.1419   -82.365436   -193.53315    -805.8043   -6296.0396 
 6525000     266.5544   -9094.4038   -8078.1769   -9094.4038            0     8084.935    25.010102    24.988263    22.993795     14370.18     7744.046    7614.1715    8896.5875   -855.66129    404.21711    761.65831   -6383.7821 
 6526000    267.66935   -9068.5792   -8048.1015   -9068.5792            0    8329.6037    25.056527    24.895438     23.04995    14378.402    7586.4303    9174.5547    8227.8261   -809.66941   -94.305731   -374.16993   -6301.4315 
 6527000    264.99285    -9094.328   -8084.0544    -9094.328            0    7367.6884    25.096539    24.978869    23.026154    14434.708    5101.9985    9510.5369    7490.5299     517.3681    169.44303    -326.3178   -6533.0424 
 6528000    256.17935   -9077.6859   -8101.0134   -9077.6859            0      6676.54    24.978406    24.953161    23.174007    14444.131    7337.6298     6705.055    5986.9351    177.95235      78.9835   -156.07438   -6694.5813 
 6529000    257.08701   -9092.7009    -8112.568   -9092.7009            0    7660.5241    24.993781      24.9934     23.05605    14402.643    7800.1115    7389.5011    7791.9596   -536.76171   -57.961323     30.53151   -6503.4919 
 6530000    268.32918   -9064.5651   -8041.5719   -9064.5651            0    7715.0942    25.043706    25.030914    22.995109    14414.871     8018.338     8008.079    7118.8657    284.11843   -903.37749   -165.60883   -6419.6576 
 6531000     270.5594    -9067.438   -8035.9421    -9067.438            0    7424.9634    25.009604    24.909713    23.133799    14411.941    6305.7589    9009.5486    6959.5827    731.17674   -1433.9236    431.51088   -6475.3382 
 6532000    268.75771   -9075.8547   -8051.2277   -9075.8547            0    8144.6279    25.027486    25.026137    22.960771    14381.279    7123.1639    8593.5823    8717.1373  -0.40532404     318.7524   -1006.0703   -6343.0044 
 6533000    272.01274   -9100.2965   -8063.2599   -9100.2965            0    7261.3465    25.081003    25.037059    22.946456    14409.331    5794.3558     7382.071    8607.6126    459.94196   -373.68893   -138.19264   -6537.3219 
 6534000     257.0888   -9119.3798   -8139.2401   -9119.3798            0    7862.5809    25.001209    24.867538    23.119792    14374.002    5965.4848    9967.0006    7655.2572    418.59641    827.77125   -40.568625   -6491.0066 
 6535000    265.34376   -9165.1699   -8153.5585   -9165.1699            0    7714.1718    24.956419    24.954349    23.040345    14348.863    8277.5868    7967.4632    6897.4654    -323.5407   -1168.5733    392.62754   -6539.2643 
 6536000    266.79927   -9131.7283   -8114.5678   -9131.7283            0     7706.573    25.053959    24.993823    22.970486    14383.985    6012.5359    8450.9714    8656.2117    959.17368   -268.55145    66.246033   -6497.9163 
 6537000     262.2696   -9091.1582   -8091.2668   -9091.1582            0    8690.4298    24.937298     24.92129    23.089525    14349.439    7788.8161    10381.977     7900.496     472.6065    217.11559    811.66645   -6272.6046 
 6538000    267.52842   -9087.8824   -8067.9421   -9087.8824            0    9150.9798    25.004254    24.903845    22.986833    14313.949    8240.8306    10180.859      9031.25   -51.404272   -121.92564    140.52751   -6157.6361 
 6539000    267.20009   -9142.8418   -8124.1532   -9142.8418            0    8099.9576    25.009886    25.003705    22.955313    14354.871    7777.0305    8341.7104     8181.132   -163.32984    605.87195   -9.0183193   -6428.4184 
 6540000    265.03628   -9111.1614   -8100.7222   -9111.1614            0    9698.0969    24.834788    24.891611    23.096655    14277.841     10106.72    9502.8228    9484.7482   -8.9603609   -68.842847   -567.84967   -6081.3101 
 6541000    257.48135   -9110.3973    -8128.761   -9110.3973            0    9425.9571    24.795199    25.047802    22.987249    14276.581    11561.565    8740.3451    7975.9615   -502.47937    204.84281    921.31541   -6166.1891 
 6542000    265.49085   -9112.3114   -8100.1392   -9112.3114            0    7538.3205    24.887066    25.060575    23.060503    14382.471    7913.7123    6581.5598    8119.6895   -487.71977   -228.58988   -330.60707   -6518.9494 
 6543000    268.36538   -9092.9391   -8069.8079   -9092.9391            0    8202.5416     24.92874    25.051742    23.015467    14373.351    8925.8671    6922.2931    8759.4645    220.02436   -124.16375   -712.81328   -6350.3864 
 6544000    261.73078   -9099.1505   -8101.3135   -9099.1505            0     7127.151     24.90979    25.066257    23.105774    14427.134     8618.994    6189.8734    6572.5855   -363.68842     911.5496   -1080.4597   -6601.7256 
 6545000    254.80321   -9127.6181   -8156.1921   -9127.6181            0    7601.1606    24.963099    25.010721    23.042355    14386.381    7890.8095    7736.0352    7176.6372      103.112    948.68528   -307.35125   -6561.3879 
 6546000    272.98818   -9073.3525    -8032.597   -9073.3525            0    9639.6895    25.076857    24.964684    22.855926    14308.628    9630.0395    9067.2611    10221.768   -54.785397   -598.71357    105.80213   -6021.0188 
 6547000    264.38988   -9117.8731   -8109.8983   -9117.8731            0    8808.3553    24.926625    24.939578    23.023495    14312.774    9923.1134    7777.6471    8724.3055    11.996555    -1065.733   -220.28273   -6271.2675 
 6548000    255.97237    -9077.403   -8101.5196    -9077.403            0    7651.6103    24.987609    25.047789    23.004784    14398.334    8116.7197    7941.0307    6897.0804   -1804.0283    391.58405   -302.23844   -6494.7967 
 6549000    265.16242   -9080.6266   -8069.7066   -9080.6266            0    6822.4378    25.006796    25.078825    22.993111    14419.924    7050.0892    5637.2818    7779.9423    85.380837    185.69023    1445.8273   -6634.9493 
 6550000    265.89541    -9066.469   -8052.7544    -9066.469            0    9133.2543    24.984987    24.886556    23.084193    14353.527    8785.1107     8988.407    9626.2451   -466.19715   -290.76385   -66.791653   -6140.8769 
 6551000    263.32685   -9094.3754   -8090.4533   -9094.3754            0    8080.0986    25.068214     24.92163    23.041696    14395.087    7720.6458    8973.3494    7546.3006   -497.35641   -869.69803    1353.3585    -6394.137 
 6552000    251.27253    -9071.421   -8113.4555    -9071.421            0    6584.8096    25.008966    25.038908    23.086783    14456.879    5668.5251    7604.7729    6481.1307    429.98097   -349.61926    232.27136   -6725.1225 
 6553000    258.97924   -9091.7179    -8104.371   -9091.7179            0    7518.2053    25.029522    24.934528    23.089253    14409.987    7521.9414    8213.7594    6818.9152    -1259.959   -511.44738    1024.0866   -6524.3835 
 6554000    258.68087   -9070.6665   -8084.4571   -9070.6665            0    6671.0781     25.05215    25.082227    23.023116    14466.891    6441.9663    6580.1568    6991.1111   -440.91198   -1323.3958    823.35355   -6676.9612 
 6555000    267.94945   -9080.9769   -8059.4314   -9080.9769            0    7897.2546    25.022362     25.01152    23.022823    14408.772    7571.4146    8316.4171    7803.9321    351.88283    596.37592   -30.397738   -6399.9248 
 6556000     273.6583   -9098.7332    -8055.423   -9098.7332            0    7906.9567    25.023451     24.92446    23.117849     14418.51    7663.2973    8817.2266    7240.3462   -526.41156   -796.53972   -155.06821   -6392.7546 
 6557000    262.09452   -9092.1294   -8092.9056   -9092.1294            0    7782.2278    25.053756    24.957443    23.013578    14389.876    6781.7725    8620.5453    7944.3656   -855.72464    -507.7254   -641.95045   -6459.7149 
 6558000    257.64559   -9088.8224   -8106.5599   -9088.8224            0    8486.5477    25.153102    24.901591    22.939884    14368.449    6448.6797    9549.2051    9461.7583   -27.823597   -5.2840987   -77.023069   -6328.2116 
 6559000    269.59041   -9105.7435   -8077.9419   -9105.7435            0     9075.962    25.010533    24.854525    23.033123    14317.963    8257.4494    10378.846    8591.5907   -420.57788    535.27425   -52.237146   -6182.7648 
 6560000    256.99747   -9107.1178   -8127.3262   -9107.1178            0    8747.6722    25.100476    24.752961    23.067604    14332.158    7657.5299    9979.4048     8606.082   -161.26413   -1073.6549    1354.6005   -6298.8893 
 6561000    258.58699   -9096.4876    -8110.636   -9096.4876            0    7970.5787    25.148465    24.882204    23.017128     14402.95     6529.053    7963.9723    9418.7109    -335.4993     616.0219   -527.32984    -6436.398 
 6562000    267.54512   -9103.4701   -8083.4661   -9103.4701            0     9069.048    25.065839    24.849289    22.989561    14319.468    8670.3835    10070.752    8466.0089    686.01305   -800.74674   -1108.9665   -6189.5337 
 6563000    271.13568    -9060.766   -8027.0732    -9060.766            0    8875.0822    24.998389    24.952338    23.009155     14352.38    8893.4545    7628.4377    10103.354    171.99577   -248.87068   -1676.4702   -6169.3876 
 6564000     274.7641   -9116.4777   -8068.9517   -9116.4777            0    8418.4413    24.927877    24.969307    23.055849    14350.694    7507.1896    9319.6433     8428.491   -989.66989   -682.49789    786.56739   -6307.0548 
 6565000    258.83432   -9127.0577   -8140.2633   -9127.0577            0     7826.045    24.935192    25.005221     23.04931    14371.475    8027.5563    7956.3213    7494.2572    740.63731    206.68593   -1318.4541   -6499.9773 
 6566000     268.9857   -9051.8924   -8026.3963   -9051.8924            0     6743.284    25.052747     25.12755    22.982748    14467.965     6384.138    5604.0329    8241.6811    298.56137    444.36352   -712.30775   -6603.5604 
 6567000    262.28279   -9141.4097   -8141.4681   -9141.4097            0    6683.4217    24.917087    24.990153    23.209663    14452.235    7352.7557    6802.3362    5895.1732    371.79811   -107.41469   -348.41328   -6732.7965 
 6568000    258.10845   -9107.7159   -8123.6887   -9107.7159            0    7546.9689    24.946856    25.040009    23.015124    14376.846    7839.8571    7180.8869    7620.1628   -562.37145   -102.29172   -1186.8952   -6541.3041 
 6569000    261.38016   -9122.0963   -8125.5959   -9122.0963            0    9429.6221    24.951664    25.103411    22.809576    14287.277     9453.867    8370.9591     10464.04   -102.46813   -361.13276     17.68098   -6160.7901 
 6570000    261.00881   -9116.1653   -8121.0807   -9116.1653            0    8890.9257    24.847804    24.974698    23.089563    14328.607    9710.7042    8563.2736    8398.7995    826.06624    298.73447     298.3998   -6263.1614 
 6571000    269.61934   -9105.3192   -8077.4073   -9105.3192            0    8349.6417    24.909138    25.078082    22.968548     14347.84    8104.4383    8324.7341    8619.7528    60.057122   -608.48994    859.96561    -6330.257 
 6572000    262.85444   -9046.4984   -8044.3774   -9046.4984            0    8262.5272    24.939102    25.027599    22.998903     14355.13     9228.806    8345.5219    7213.2538    -428.1163   -588.06018    2140.1948   -6314.5773 
 6573000    256.83017      -9139.7   -8160.5462      -9139.7            0    8608.1129     24.95439    24.941078    23.011801    14322.301    9812.3135     7866.169    8145.8563    822.75598    349.34483    328.17182   -6362.5175 
 6574000    273.54638   -9102.4941   -8059.6106   -9102.4941            0    8440.4042    24.943685    24.957355    23.013931    14326.825    8151.4101    8428.5336     8741.269   -589.50177    214.02424   -955.10591   -6296.0552 
 6575000     264.9636   -9047.1226   -8036.9606   -9047.1226            0    9010.0609    24.990427    24.998182    22.965032    14346.605    8529.5693    8985.1913    9515.4221    406.33392    306.71689    72.475759   -6151.7808 
 6576000    268.35261   -9093.9573   -8070.8748   -9093.9573            0    9577.1735    24.856364    25.074106    22.913876    14281.099    10575.518    8546.7024    9609.2996    351.19261    386.03888   -765.92635   -6076.1873 
 6577000    258.02719   -9103.8676   -8120.1502   -9103.8676            0    9014.1798    24.813895    24.983701    23.021807    14272.207    9206.3972    8860.0458    8976.0965   -702.96036   -187.29279    377.68277   -6243.8893 
 6578000    268.14233   -9069.3906   -8047.1097   -9069.3906            0    8433.5246    24.939052    25.062829    23.051861    14408.409    9288.3913    7767.3152    8244.8674   -76.180872     535.4793   -185.92857   -6274.9575 
 6579000    256.92048   -9093.5799   -8114.0819   -9093.5799            0    7887.8663    24.942866    24.982872    23.057706    14368.281    8858.3135    7586.9896     7218.296    643.43802    19.039656     521.2985    -6461.206 
 6580000    264.57492   -9101.5087   -8092.8284   -9101.5087            0    8118.9965    25.025427     25.01654    22.982108    14387.939    7281.5608    9240.3146    7835.1142   -503.17914   -197.03299    775.63786   -6389.1923 
 6581000    273.60793   -9102.4808   -8059.3626   -9102.4808            0    7718.8865    24.900648    25.022831     23.11432    14402.179     7187.117    8186.1651    7783.3774   -118.94924   -45.884974    172.01742   -6438.0798 
 6582000    262.22931   -9100.4381   -8100.7004   -9100.4381            0    8410.2092    24.966507    24.923041    23.059639    14348.659    8497.5259    8622.5074    8110.5943     162.7561    524.20543    -436.7015    -6340.776 
 6583000    255.39622    -9116.971   -8143.2841    -9116.971            0    8501.2602    25.088566    24.957417    22.883527    14328.425    7057.0161    9430.2798    9016.4847   -684.43723    138.04714   -506.53404   -6366.8151 
 6584000    263.66711   -9054.8512   -8049.6319   -9054.8512            0    7535.9426    25.093563    25.000189    23.021002    14442.083    6483.6733    7869.5964    8254.5581   -318.10305   -1172.6143    477.12123   -6462.3893 
 6585000    256.84608   -9088.7118   -8109.4974   -9088.7118            0      7548.46    24.935013    24.920303    23.148109    14383.959    7417.3901    8257.6129    6970.3769   -567.90557    1199.3773    773.88182   -6526.0171 
 6586000    271.30202   -9104.8676   -8070.5406   -9104.8676            0    8290.6608    24.977412    25.031974    22.902355     14319.33    8380.0008    7940.3748     8551.607    320.93149    -96.69816   -941.93694   -6339.1792 
 6587000    265.01685   -9089.7109   -8079.3458   -9089.7109            0     9032.355    24.945471    24.985605    22.969973    14316.671    8328.2916    9369.6513    9399.1223   -180.72983   -1142.7971   -738.02488   -6193.4446 
 6588000    265.47761    -9044.533   -8032.4113    -9044.533            0    9169.9172    24.825363    25.100736    23.008146    14337.179     10490.81    8575.8768    8443.0645    1031.8547    422.10056     509.4743   -6115.0454 
 6589000    249.99983     -9093.76   -8140.6466     -9093.76            0    9706.8921    24.855078    25.087722    22.886975     14271.34    9624.6527    9141.5929    10354.431   -162.05247    517.98367    529.27424   -6120.3235 
 6590000    268.52733   -9099.7849   -8076.0363   -9099.7849            0    9145.6244    24.862669    24.987711    23.052521    14321.636    10353.925    9081.5081    8001.4404   -1257.6736   -110.58238    -782.7783   -6165.8228 
 6591000    256.50539   -9092.3306   -8114.4151   -9092.3306            0    9658.9571      24.8415    25.020027    23.006497    14299.343    10939.341    8903.1367    9134.3936    191.22284   -214.73754   -674.99433   -6100.1241 
 6592000    269.08509    -9100.947   -8075.0719    -9100.947            0    9060.2653     24.89498    25.076937    22.940074    14321.256    9166.9561    9627.9739     8385.866    440.24074   -189.21412   -535.64848   -6182.7374 
 6593000    272.61021   -9102.0889   -8062.7745   -9102.0889            0    8337.6751    24.862824    25.021202    23.097523    14368.917    8999.8223    8273.3443    7739.8585    439.91412   -1148.2901   -160.84435   -6315.5654 
 6594000    254.90857     -9061.93   -8090.1023     -9061.93            0    9484.4288    24.869572    25.026901    23.014398    14324.353     9753.002     8516.772    10183.512   -133.38254   -1119.7627   -688.51431   -6108.7482 
 6595000    249.82352    -9099.926   -8147.4848    -9099.926            0    8718.4764    24.879301    25.035313    22.929131    14281.663    9008.9236     8224.328    8922.1776   -168.62688   -664.78405    1088.3858   -6331.5708 
 6596000    263.84087   -9090.4729   -8084.5912   -9090.4729            0    8395.0189    24.686296    25.007367    23.205075    14325.404    9571.3845    8608.0188    7005.6535    26.814506    737.97446   -341.01812   -6330.6927 
 6597000    267.58026   -9102.1847   -8082.0467   -9102.1847            0    7985.5037    24.916284    24.993685    23.065548    14364.064    8368.9731    8233.0397    7354.4984   -30.869307   -731.65769   -183.75734   -6409.2023 
 6598000    254.15786   -9116.1349   -8147.1692   -9116.1349            0    8900.0541    24.874472    25.073238    22.939602    14307.052    9089.2678    7686.0497    9924.8449   -600.29384    370.16429     1007.034   -6290.1402 
 6599000    259.83351   -9064.4319   -8073.8281   -9064.4319            0    8053.7883    24.911547    25.127896    22.980683    14385.328    7985.4099    8002.8361    8173.1189   -19.832481    855.86075   -94.177281   -6384.1816 
 6600000    258.45961   -9117.7888   -8132.4229   -9117.7888            0    7797.5937    24.980181    24.943738    23.064963    14371.757    7787.8588    8528.0567    7076.8655    843.31849    -607.3063   -106.33539    -6498.068 
 6601000    266.45091   -9123.5699   -8107.7376   -9123.5699            0    9399.8743    24.971126    24.996638    22.892428    14289.321    9244.8539    8791.8495     10162.92   -403.17031    -1895.493   -572.81252   -6148.8499 
 6602000    269.22492   -9081.5158   -8055.1076   -9081.5158            0    9026.5891    24.890628    24.970491    23.046222    14323.946    9883.7356    8872.7044    8323.3274   -174.04699   -610.23192   -753.94896   -6169.4526 
 6603000    267.05708   -9095.2502   -8077.1068   -9095.2502            0    7862.1829    24.935654    24.982632    23.082145    14379.213    8599.1206    7306.5589    7680.8694   -608.83623   -169.21206    224.71205   -6428.3592 
 6604000    268.00616   -9125.9773   -8104.2155   -9125.9773            0    5971.6095     24.99773    25.068119    23.111065    14482.458     5863.295    5986.3798    6065.1538   -111.35662   -36.415071    1083.4681   -6842.9412 
 6605000    266.57955   -9089.3504   -8073.0276   -9089.3504            0    7284.6538    24.996487    25.027492    23.076037    14436.354    8320.6865    6474.2828    7058.9919   -288.78752   -2.2566762   -370.95229   -6539.3208 
 6606000    249.39287   -9066.4378   -8115.6384   -9066.4378            0    8409.3768    24.895034    25.021667     23.06674    14368.624    9996.1349     6903.979    8328.0166    95.645522    139.45171   -500.08023   -6353.4397 
 6607000    269.03302   -9104.1629   -8078.4864   -9104.1629            0    8720.2356    24.906583    25.052673     22.99447    14348.008     8842.209    8497.1698    8821.3279     1242.594    993.10089   -571.13745   -6253.7685 
 6608000    264.54008    -9091.551   -8083.0036    -9091.551            0    8900.0818    24.807004    25.042832    23.074836    14334.956    10415.188    7891.5937    8393.4641   -1053.7229   -427.87148    38.849561   -6222.3468 
 6609000    259.00377   -9092.1731   -8104.7326   -9092.1731            0    8049.9424    24.984621    25.005059    23.024746    14384.525    7995.9723    7727.3434    8426.5115   -856.54638   -120.89522     507.0389   -6415.9873 
 6610000    263.69971   -9119.0192   -8113.6756   -9119.0192            0    7700.6468      25.0004    25.042862    22.994393    14396.366    6608.0872    7936.8802     8556.973    220.03107   -358.06197    623.62824   -6496.8769 
 6611000    257.89748   -9066.9623   -8083.7395   -9066.9623            0    8611.9917    24.944588    24.970741    23.115981    14398.595    9036.2851     8382.864    8416.8259   -1066.4795    70.547301    792.58053   -6275.3182 
 6612000    265.79501   -9092.6341   -8079.3023   -9092.6341            0    8002.5203       24.933    25.003771    23.049126    14369.264    8699.1779    8618.8992    6689.4837    928.49878   -1569.6086    924.64812   -6402.2864 
 6613000    263.24824   -9099.7338   -8096.1115   -9099.7338            0    8261.6138    25.011416    25.079203    22.904435    14367.182    8717.9052     6998.308    9068.6281    314.50843    809.65422    694.07565   -6365.0505 
 6614000    270.42348   -9053.9124   -8022.9348   -9053.9124            0    8334.6139    24.896355    25.032219    23.041834    14359.925    8080.5349    8905.3019    8018.0048   -287.37104   -260.94356    196.39084   -6277.4602 
 6615000    279.56494   -9095.4978   -8029.6688   -9095.4978            0     8862.383    24.911173    24.932598      23.0786    14334.124    8709.4894    8958.9937    8918.6658   -130.44685    -597.2355    640.14143   -6177.0009 
 6616000    256.56931   -9085.2509   -8107.0916   -9085.2509            0    8861.1505    24.998074    25.054729    22.832734    14300.597    8387.1621    8401.7854     9794.504    245.21565    395.63153    185.27592   -6259.0142 
 6617000    259.83984   -9130.1927   -8139.5647   -9130.1927            0    9198.7028     24.84666    24.904605    23.097813     14292.84    9636.0815    8759.4162    9200.6108   -120.45837   -742.06127    264.05394   -6222.1282 
 6618000    254.07676   -9113.5119   -8144.8554   -9113.5119            0    9278.9715    24.917941    24.885793    23.068748    14304.993    8353.5086    9531.7239    9951.6818   -1155.3154   -577.07965   -960.10378   -6209.0425 
 6619000     261.4825   -9087.4309   -8090.5404   -9087.4309            0    9376.1829    25.034941    25.077658    22.777162    14299.905    8506.3244    8431.0171    11191.207   -657.93667    -691.5388    339.82432   -6135.1426 
 6620000    262.52863   -9104.3465   -8103.4676   -9104.3465            0    8502.5055     24.85475    24.933764    23.170272    14359.138    9005.1716    7874.1569     8628.188   -138.92838   -1308.3792    415.48636   -6322.9299 
 6621000    263.77299   -9102.4135   -8096.7905   -9102.4135            0      7904.22    24.914368    25.032883    22.988097    14337.181    8831.9079    7825.3358    7055.4163   -133.85882    103.88966    417.01426   -6444.0728 
 6622000    259.79556   -9048.4348   -8057.9757   -9048.4348            0    8946.7485    24.911257    25.097175    22.942691     14343.82    8977.5649    8392.3594    9470.3211     351.5559    511.39049    1286.5054   -6186.4062 
 6623000    262.54943   -9125.4093   -8124.4511   -9125.4093            0    7341.3888    24.890463     25.04426    23.081127    14387.926    8567.0881     5899.473    7557.6053   -244.85127    119.20426    382.39454   -6583.9845 
 6624000    271.40261   -9089.2661   -8054.5555   -9089.2661            0    8038.0653    24.968467     24.96954    23.047095    14368.738    8489.5794    7526.1122    8098.5043   -1525.5123    53.209213    658.66181   -6370.1524 
 6625000    260.33014   -9031.0512    -8038.554   -9031.0512            0    8819.1594    24.923268    24.958868    23.073151    14352.804    9786.1028    8484.1618    8187.2137    364.60892   -546.17041    580.54156   -6192.5193 
 6626000    267.69164   -9103.6904   -8083.1277   -9103.6904            0    9932.8469    24.888598    24.989215    22.915434    14252.175    10674.267    10046.332    9077.9423   -766.09126    552.72391   -794.76088   -6018.5522 
 6627000    271.32529   -9109.0764   -8074.6606   -9109.0764            0    8619.3668    24.902748    25.098982     22.92244    14327.296    8510.7381    8475.8182    8871.5441    437.09453     205.7828   -678.04401   -6273.6533 
 6628000    264.88955   -9117.4405   -8107.5608   -9117.4405            0     9397.399    24.790257    24.964261    23.109802    14301.974    10876.302    9215.8903    8100.0047   -116.85823    1099.9022    674.12768   -6147.4549 
 6629000    270.55497   -9103.6361   -8072.1572   -9103.6361            0    8289.2893    24.950937    24.989722    22.998736    14340.102    8366.4925     7201.036    9300.3393   -40.849082   -609.17055    869.40247    -6338.571 
 6630000    265.87426   -9142.7314   -8129.0974   -9142.7314            0    8894.2997    24.970918    25.039734    22.814522    14265.125    7851.9501    8904.7186    9926.2303   -109.72719      530.589    526.70466   -6278.7076 
 6631000    258.89847    -9111.644    -8124.605    -9111.644            0    8459.4771    24.853688    24.950994    23.132079    14344.762    9256.3136    7944.1615     8177.956    617.32361    1015.9016    39.406788   -6354.8516 
 6632000    260.92718   -9084.6403   -8089.8669   -9084.6403            0    7318.0849    25.016138    25.087123    23.020213    14447.093    6843.8171    6683.3073    8427.1304   -1163.5515    112.95213   -42.161776   -6547.9755 
 6633000     255.0961   -9077.6303   -8105.0877   -9077.6303            0    7702.7016    25.029348    25.137839    22.859103    14382.575      7476.17    6190.0523    9441.8823   -820.40588    10.324287    212.84589   -6489.4067 
 6634000    261.34251    -9129.055   -8132.6982    -9129.055            0    7657.7106    24.931643    24.940833    23.124337    14379.082    7360.4131    7875.9613    7736.7574   -432.14277    371.33706   -488.63896   -6526.8444 
 6635000    257.30786   -9135.9602   -8154.9853   -9135.9602            0    7390.8835    25.007764    24.897071    23.040432    14345.436    6857.5386    8645.3785    6669.7334   -571.12961    512.90037    187.93848   -6608.7129 
 6636000    261.43222   -9090.4134   -8093.7146   -9090.4134            0    7284.8213    25.059921    25.111354    22.906659    14414.898    7047.9034    6546.9401    8259.6202    95.308622   -323.37456   -242.34664   -6562.2521 
 6637000    256.29842   -9099.5669   -8122.4404   -9099.5669            0    7809.8265    24.922655    24.976395    23.144179    14406.744    8019.3224    7510.0472    7900.1098   -875.24229    681.24312   -440.71424   -6481.5366 
 6638000    261.94479   -9091.8699    -8093.217   -9091.8699            0    7615.5314    24.969448    24.994794    23.093008     14412.49    8050.8371    7565.7486    7230.0085   -967.24995   -1016.6372    113.65641   -6492.4979 
 6639000    264.38785   -9149.8492   -8141.8821   -9149.8492            0    6810.6614    25.096583    25.053262    22.900212    14398.537    5975.3036    6631.5625    7825.1181    53.624153   -324.50937   -493.55562   -6711.7257 
 6640000    265.66958   -9105.6075    -8092.754   -9105.6075            0     8526.743    25.064117    24.947121    22.955876    14353.795    7640.1388     9636.476    8303.6142   -313.38065   -99.813936    396.23314   -6307.8051 
 6641000    260.73265   -9124.3032   -8130.2715   -9124.3032            0    7900.8748    25.028737    24.832391    23.111959    14364.623    7191.7149    9314.7518    7196.1577    676.59993   -495.25033     862.9399   -6475.0912 
 6642000    265.28098   -9133.2116   -8121.8395   -9133.2116            0    8800.2599    24.916252    24.897643    23.062743     14307.11    8442.6628    8859.2199    9098.8969    21.704833    323.50966   -387.73022   -6285.6255 
 6643000    263.13176   -9087.3588   -8084.1805   -9087.3588            0    9034.2902    25.074374    24.929331    22.906112    14318.321    7452.4314    10630.042    9020.3966    54.011201    2102.6218   -1587.5314   -6197.6579 
 6644000    259.42463   -9086.3951   -8097.3501   -9086.3951            0    8433.4736    25.014943    25.023617    22.949823    14365.771    7971.3232    7995.7486     9333.349     502.0834   -300.85693    199.90322   -6330.4527 
 6645000    282.95105   -9116.3519   -8037.6134   -9116.3519            0    7923.7737    24.842759    24.968177    23.190144    14384.346    8630.0987    7524.3616    7616.8609    395.23059    415.94488   -557.29341   -6375.3568 
 6646000    249.14377   -9061.4145   -8111.5648   -9061.4145            0    6891.9387    25.094564    25.002177    23.017924    14441.877    5791.0447    7631.8047    7252.9668    200.92196   -634.70031    135.02605   -6659.9849 
 6647000    261.13082   -9096.4494   -8100.8996   -9096.4494            0    8592.7309     25.07313    24.930907    22.949269    14345.493    7526.1199    9212.1096    9039.9633   -131.58125   -738.51735   -621.19339   -6303.1773 
 6648000    261.32073   -9125.6936   -8129.4198   -9125.6936            0    8436.9376    24.919034    24.839227     23.13867    14322.132    6821.1098     10095.94    8393.7627   -1123.4125   -13.852417    863.35444   -6367.1662 
 6649000     263.3081   -9081.7665    -8077.916   -9081.7665            0    8967.7361    24.961045    24.946713     22.99153    14316.734    8625.7442    9680.6279    8596.8363    933.18283    544.89465    1265.1008   -6205.4986 
 6650000    265.83026   -9129.5998   -8116.1336   -9129.5998            0    9560.0955     25.04697    24.850845    22.952729    14286.659    7859.0717    10308.136    10513.079   -1321.0964   -950.06781      724.104   -6124.2277 
 6651000    268.21126   -9099.1275   -8076.5839   -9099.1275            0    8537.9518    24.969334    24.942517    22.998197    14323.231    8719.7205    7605.3636    9288.7712   -831.46643    365.98785    248.70161   -6293.0942 
 6652000    262.74514   -9128.1989   -8126.4946   -9128.1989            0     6859.282    25.149674    24.912443    23.011046    14417.336    5036.0338    8294.1527    7247.6595    209.56762   -1126.8965   -559.21986   -6684.2478 
 6653000     262.8611   -9084.7347   -8082.5883   -9084.7347            0    7568.8549    25.059074    24.943542    23.053514    14409.877    7649.5648    7599.4792    7457.5206   -715.44226     409.1037    1053.3258   -6491.9687 
 6654000      253.822   -9103.0172   -8135.3319   -9103.0172            0    8048.9855    25.029402    24.990701    22.972177    14369.149    7779.9925    8033.4976    8333.4664   -217.29086   -321.62404   -148.03349   -6448.5922 
 6655000    266.65122   -9117.5013   -8100.9053   -9117.5013            0    8693.2557    24.983998    24.872798    23.085472    14345.818    8043.3426    8968.5068    9067.9176    107.16878   -870.89151     383.3741   -6282.1106 
 6656000    251.11116   -9131.8706   -8174.5203   -9131.8706            0    9312.1888    24.940866    24.992403    22.898647    14273.464    9132.8113    8950.2913    9853.4639    416.59672   -185.13022   -235.11366   -6236.0595 
 6657000    262.63701   -9111.0154   -8109.7233   -9111.0154            0    8161.0561    24.966675    25.000331    23.054865    14390.273    7779.2691     8390.359    8313.5401   -132.09261   -748.55104    574.39889   -6396.9839 
 6658000    271.35343    -9133.374   -8098.8509    -9133.374            0    7806.0774    25.018191    25.000394    22.996497    14383.495    7794.8963    6952.0859    8671.2499    106.90039   -685.64174    1768.6513   -6461.3816 
 6659000    262.46106   -9062.0101   -8061.3888   -9062.0101            0    9092.4748    24.938936    24.979861    22.995009    14325.227    9044.0889    8776.2508    9457.0848    300.86092   -432.56448    965.65103   -6161.8004 
 6660000    263.02139   -9095.2652   -8092.5077   -9095.2652            0    9096.8277    24.812804    24.887449    23.169612     14307.87    9660.0044    9187.6937    8442.7848     22.98271   -350.46331   -464.91666   -6194.3127 
 6661000     268.3803   -9166.5901    -8143.402   -9166.5901            0     8672.585     25.03445    24.923764    22.910412    14295.014    8046.0535    8288.0872    9683.6143   -418.82379    452.20552    2172.0459   -6335.3578 
 6662000    266.07261   -9124.2192   -8109.8291   -9124.2192            0    7068.0511    25.154852    24.953206    22.934334    14395.748    6162.2523    7280.5036    7761.3974    641.78215    263.25555   -945.22186   -6625.9114 
 6663000    263.87496   -9085.7915   -8079.7798   -9085.7915            0    8800.4164     24.93481    24.934522    23.029659    14318.404    7849.7058    9971.2064    8580.3368   -507.83092   -84.176171    699.41413   -6242.0836 
 6664000    257.26195   -9113.5963   -8132.7964   -9113.5963            0    8800.6368    24.878605     24.99703     23.04474    14331.322    10503.148    7317.8595    8580.9027    1162.3355    340.05523     1239.091   -6293.3962 
 6665000    261.10635   -9089.6764   -8094.2199   -9089.6764            0    8625.0136    24.913476    25.047206    22.973012    14335.458    8399.0204    7687.7175    9788.3027   -325.81752   -102.60284   -8.8400318    -6291.006 
 6666000    263.36603   -9057.1283   -8053.0569   -9057.1283            0    8961.5643    24.950584    25.156954     22.85775    14347.368    9375.4171    7270.0124    10239.263    196.39078    67.262022   -391.68067   -6177.9244 
 6667000    259.60229   -9154.4073    -8164.685   -9154.4073            0    6592.7904    24.941052    25.017456    23.083345    14403.122    6850.7483    6495.0852    6432.5377   -46.218713    463.54468   -365.44418    -6779.838 
 6668000    267.70595    -9066.608   -8045.9909    -9066.608            0    7664.3078    24.926414    25.059127    23.093074    14424.723    7512.0981    7586.9389    7893.8862    247.97991   -449.98116   -120.99228   -6433.6521 
 6669000    262.16498   -9100.6337   -8101.1412   -9100.6337            0    7272.6515    24.959643    25.126905    22.975259    14409.131    7101.2545    7047.5484    7669.1516     313.2082    266.11369   -1016.6282   -6572.8488 
 6670000    261.56179   -9095.8278    -8098.635   -9095.8278            0     9712.744    24.805908    24.936064    23.137831    14312.176    9993.1796     9741.686    9403.3663   -1225.0043   -711.07115    431.46982   -6071.3093 
 6671000    258.88115   -9092.0024   -8105.0294   -9092.0024            0    8771.4009    24.897231    25.007147    23.005235     14323.26    9251.4752    8897.1668    8165.5608    158.79146    650.48417   -296.41364    -6272.771 
 6672000    266.30966   -9113.9632   -8098.6693   -9113.9632            0    10134.183    24.886969    25.022914    22.859357    14235.538    10055.473     10808.14    9538.9356    600.82751   -402.14674     1212.344   -5994.7042 
 6673000    261.67516   -9095.8642   -8098.2391   -9095.8642            0     9159.924    24.808208    25.043654    23.036494    14312.301    11118.575    8100.9747    8260.2223    88.488629   -346.40572      11.7022   -6186.2861 
 6674000    260.27969   -9098.6281   -8106.3232   -9098.6281            0    8484.4011    24.760939    25.185925    22.975895    14328.392    10232.331    5686.2081    9534.6637    523.30848   -1457.3599   -1691.4296   -6333.3812 
 6675000    259.85694   -9087.4377   -8096.7445   -9087.4377            0    8366.5143    24.937051    25.076188    22.963894    14359.924     9473.852      8020.37     7605.321    0.5328228   -709.87858    217.30784   -6344.5893 
 6676000     267.4438   -9136.8689   -8117.2511   -9136.8689            0    9091.2384     24.76943    25.112856    22.988829    14299.767     9431.701    8373.1961    9468.8182    686.60543     -424.375    236.91311   -6221.2967 
 6677000    260.11619   -9085.4175   -8093.7359   -9085.4175            0    7294.8115    24.968227     25.15337    22.999295    14444.364    7795.2049    6326.1228    7763.1067   -387.07512   -678.08225   -1649.8018   -6557.0384 
 6678000    250.88177   -9069.2566   -8112.7809   -9069.2566            0    5960.3891    24.953241    25.122868    23.087178    14473.282    6341.4852    5619.5135    5920.1686   -78.873463     877.0022   -222.20774   -6854.6741 
 6679000    260.49963   -9114.8992   -8121.7558   -9114.8992            0    7068.3729    24.956036    24.997222    23.117358    14421.338    7669.7243    6417.1116    7118.2828   -149.57828   -271.54175    570.67034   -6635.1326 
 6680000    255.57802   -9105.1494   -8130.7695   -9105.1494            0    6411.9659     24.93256    25.039654    23.101826    14422.533    7399.7059    6617.8871    5218.3048   -270.68699   -518.44443    327.38278   -6782.0904 
 6681000    265.14309   -9113.4192   -8102.5728   -9113.4192            0     8380.208    24.892893     25.06233    22.975187    14333.619    9006.0697    7977.4731    8157.0813    942.62082   -1416.7239    663.98988   -6350.7647 
 6682000     267.7205   -9077.1419   -8056.4693   -9077.1419            0    9094.6769    24.851284    25.041291    23.045879     14341.64    9894.3409    8158.9585    9230.7313    -141.7856   -175.65835    583.65521   -6154.2438 
 6683000    260.44851   -9094.3082   -8101.3597   -9094.3082            0     8390.735    24.933586     25.08253    22.967753    14363.974    9474.3897    7598.5995    8099.2158    6.2936907   -863.35192    524.47168   -6343.6365 
 6684000    268.56473   -9103.3981   -8079.5068   -9103.3981            0    8565.0815     24.90381    25.031251    22.986187     14328.98    9133.4009    8171.9916     8389.852   -313.17425   -184.46375   -853.54201   -6289.6319 
 6685000     272.3788   -9073.4988   -8035.0666   -9073.4988            0     9095.566    24.879754    25.012055      23.0717    14357.375    11229.362    7720.5579    8336.7775    68.161788    158.56264    871.61015   -6130.5679 
 6686000    273.11488   -9088.1814   -8046.9429   -9088.1814            0    7628.7901    24.977703    25.140367     22.90429    14382.718    7840.4321    6210.8818    8835.0564    487.70042   -62.103344    638.06473   -6446.7494 
 6687000    260.79627    -9161.411   -8167.1367    -9161.411            0    6505.0534    24.963446    25.028579    23.115826    14442.759    6888.3162      7125.38    5501.4639    400.73772   -286.76607    920.83227    -6796.959 
 6688000    268.03211    -9085.901   -8064.0404    -9085.901            0    8769.5421      24.9714    24.964994     23.07505    14385.236    8250.4458    8894.1849    9163.9956   -1299.4102     593.5169    1215.3866   -6224.2438 
 6689000    251.92921   -9113.4901   -8153.0211   -9113.4901            0      7940.39     25.00923    25.028138    22.932409    14354.185    7524.7445     7051.228    9245.1976    -476.5629    72.938915    308.56988   -6490.7713 
 6690000    269.83564   -9084.1892   -8055.4527   -9084.1892            0    7083.8878    24.864895     25.03382    23.172618    14424.105    8028.9924    6194.6574    7028.0135    400.08403   -998.74005    316.45635   -6565.2806 
 6691000    258.92966   -9079.1602   -8092.0023   -9079.1602            0    6836.6163    24.970874    25.041565    23.136493    14467.475    6656.0393    7762.7164    6091.0933    156.53675    1089.9084    176.21856   -6649.5222 
 6692000    278.16245   -9129.7392    -8069.257   -9129.7392            0    8480.8995    24.871774    25.059663    23.002134    14336.731     8837.901    8338.4958    8266.3018    503.98763   -198.89663   -133.81491   -6296.0154 
 6693000    261.05626   -9098.2097   -8102.9442   -9098.2097            0    7849.2626    24.828699    25.079046     23.05361    14355.024    9409.8212    6850.8184    7287.1481    401.53142   -868.27178   -541.10857   -6459.6752 
 6694000    264.05151   -9122.9104   -8116.2256   -9122.9104            0    8137.3785    24.941601    25.147045    22.921311     14376.42    8498.4799    7522.4845    8391.1711   -598.86861   -110.35214    -506.1787   -6410.0994 
 6695000    254.64419   -9062.1156   -8091.2958   -9062.1156            0    8878.6614    24.926883    25.053441    23.001584    14364.585    7995.2512    8181.0113    10459.722   -588.54481   -246.63577   -1533.0685   -6231.2807 
 6696000    278.73404   -9121.7304   -8059.0691   -9121.7304            0    9781.1305    24.710916     24.93993    23.148277    14266.017     11114.98    10216.521    8011.8904   -786.08342     257.0691    201.84398   -6024.0539 
 6697000    265.76248   -9113.2412   -8100.0335   -9113.2412            0    8810.1056    24.914547    25.089696    22.949696    14345.819     8410.673     8111.594    9908.0496   -438.69023   -775.53808   -353.63526   -6256.7916 
 6698000    268.94962   -9086.9989   -8061.6403   -9086.9989            0    8786.3542     24.90542    25.031162    22.981454    14326.905     9712.011    7719.3288    8927.7227    1.8550154   -1079.2184    82.792557   -6225.7913 
 6699000    269.18304   -9081.2574   -8055.0089   -9081.2574            0    8140.7488    24.869338    24.980812    23.147014    14380.228    10177.179    7189.6169    7055.4506   -1060.1045    600.93135    260.21765    -6347.724 
 6700000    268.81172   -9118.0756   -8093.2428   -9118.0756            0    8260.4198    24.856001    25.070476    23.000476    14332.787    8146.2658    8501.0725    8133.9212    -236.3138   -622.63639    422.66106   -6366.5755 
 6701000    269.71402   -9072.9647   -8044.6919   -9072.9647            0    9154.5885    24.989322    25.100195    22.790121    14294.804    7809.6667    8215.8103    11438.288    707.00421    63.896708   -1065.7449   -6136.1886 
 6702000    264.28797   -9110.6878   -8103.1016   -9110.6878            0     8652.127    24.937441    24.927771    23.039222    14321.983    8410.9657    9083.1994    8462.2159    1131.3939    69.896688   -1203.1974   -6295.9194 
 6703000    259.10938   -9128.5667   -8140.7236   -9128.5667            0    8875.9323    24.955924    24.802221    23.124364    14313.111    8875.6024    10167.679    7584.5158    373.28474   -764.96669    847.80733   -6287.9434 
 6704000    264.58354   -9081.0059   -8072.2928   -9081.0059            0    8734.2463    25.022217    24.964719    22.977959    14353.701    8238.8813    8844.0488    9119.8088   -660.37307   -212.50956    42.319101    -6243.918 
 6705000    252.45493   -9084.8794   -8122.4061   -9084.8794            0    8014.0628    25.017086    24.989845    22.944897    14344.532    7046.1254    7934.6259     9061.437     116.4875    956.00196   -292.69855   -6445.8619 
 6706000    246.98177   -9123.0686   -8181.4615   -9123.0686            0    7727.4888    24.880989    24.959351    23.128459    14363.081    8514.2793    7965.0374    6703.1496    58.582708   -311.34793    342.93931   -6562.7782 
 6707000    263.53489   -9087.8403   -8083.1251   -9087.8403            0    9680.1984    24.858879    24.920803     23.01907    14260.388    10647.093    9010.7679    9382.7341    16.774457    426.67222   -317.95304    -6069.904 
 6708000    263.95762   -9097.3564   -8091.0296   -9097.3564            0    8117.4783    25.002715    24.941392    23.039052    14367.211    7716.8299    8522.4335    8113.1714    146.10009    1094.5976     1300.455    -6390.166 
 6709000    254.55839   -9027.1948   -8056.7021   -9027.1948            0    8308.3458    25.219369    24.890277    22.896059    14372.247    6602.6442    8515.2706    9807.1226    32.275185    1499.1477   -105.72439   -6315.2355 
 6710000    263.60765   -9077.6998   -8072.7072   -9077.6998            0    9525.9478    25.045157    24.890097    22.968854    14318.241    8275.6176    10741.827    9560.3991    444.99029   -349.63348   -731.42383   -6083.5287 
 6711000    265.04652   -9074.3717   -8063.8935   -9074.3717            0    8974.7791    24.966928    24.722277    23.211801    14327.236    9034.8775    10516.971    7372.4885     17.71704    863.95709    620.13113    -6188.631 
 6712000    263.76696   -9112.8065   -8107.2066   -9112.8065            0    7548.4335    25.052562    24.901926    23.033242    14369.451    7213.4266    7821.7577    7610.1163   -172.11537   -223.99726   -526.17685   -6525.3289 
 6713000    264.73211   -9123.1201   -8113.8405   -9123.1201            0    7605.6653    25.050684     24.93382    22.970041    14347.299    6002.6372    9234.9681    7579.3905   -8.3244174    1111.2022    104.65092   -6522.4262 
 6714000    264.20992   -9079.4931   -8072.2043   -9079.4931            0    9109.0522    25.008425    24.886603    23.004811    14317.613    8277.4294    10578.334    8471.3932    362.95195    -43.99554    -70.81581   -6170.1641 
 6715000    258.29744   -9093.4836    -8108.736   -9093.4836            0    10060.226    24.917778    24.987757    22.926192     14274.75    10640.827    9165.2311     10374.62    1035.8176   -588.01088    306.71472   -6014.3721 
 6716000    258.64305   -9116.9071   -8130.8418   -9116.9071            0    8112.5884    24.999469    24.948487    23.023902    14359.983    7546.2002    8192.8761     8598.689   -455.30772   -176.00056   -414.47808   -6431.8579 
 6717000    265.06832   -9079.9117   -8069.3504   -9079.9117            0    7881.8809    25.084405    24.834561    23.059314    14365.034    7140.9437    8703.6063    7801.0928    474.79547   -950.62059   -87.646325   -6418.1019 
 6718000    264.85357   -9095.4386    -8085.696   -9095.4386            0    8584.8312    25.009198    24.869342    23.028659    14322.957    7946.1634    9230.0223    8578.3081   -673.79176   -811.58069   -411.45658    -6292.448 
 6719000    257.30495   -9119.5389   -8138.5751   -9119.5389            0    8911.4293    24.983747    24.955886    22.984791    14330.823    8482.9101    9769.3758    8482.0019   -419.78323   -209.25474    -249.3427   -6276.0832 
 6720000    261.61979   -9102.5015   -8105.0876   -9102.5015            0     6498.421    24.963181    24.940159    23.188906    14437.081    6303.2988    7971.9581    5220.0061   -267.84472   -694.25663   -1027.7729    -6736.845 
 6721000     257.2619   -9073.3136   -8092.5139   -9073.3136            0    8804.8588    24.905354    24.987672    22.992443    14308.814    9226.0308    8441.6321    8746.9137    700.86939     153.1452   -2186.1841   -6255.1215 
 6722000    264.54336   -9123.1694   -8114.6095   -9123.1694            0    9587.0447    24.867623    24.976992    22.963256    14262.901    11324.649    8390.0314    9046.4533    545.57833   -788.87936    332.86164   -6120.4104 
 6723000    263.15288   -9097.3608    -8094.102   -9097.3608            0    8994.5796      24.8965    24.872541    23.075332     14289.15     7720.835    10081.876    9181.0277    201.47279   -545.33756   -350.03017   -6219.6982 
 6724000    273.36005    -9061.886   -8019.7128    -9061.886            0    9316.7779    25.064342    24.926795    22.916947    14317.906     9230.116    9003.3971    9716.8205    92.564581   -1161.1244   -76.956149    -6074.258 
 6725000    260.92735   -9106.5728   -8111.7988   -9106.5728            0    7529.5591    25.044618     24.88261    23.096263    14393.025     6966.315    9286.9108    6335.4516   -319.51235    389.99897     -461.547   -6531.2878 
 6726000    266.17256   -9104.6284   -8089.8572   -9104.6284            0    8835.9974    24.957725    24.917273    23.032945    14323.692    8721.1249    9544.7555    8242.1117    576.02424   -937.55676     48.72391   -6244.0496 
 6727000    264.87603   -9083.2567   -8073.4284   -9083.2567            0    8096.6717    24.970651    25.003296    23.019444    14372.157    7850.5492    7318.5131    9120.9529    -46.60299   -425.72462   -205.04615   -6376.3404 
 6728000    267.93533   -9089.8647    -8068.373   -9089.8647            0    7806.0499    24.961199    25.020503    23.043657    14391.726    7794.2319    6687.1184    8936.7995   -441.20362   -65.497329     359.8623   -6429.9724 
 6729000    264.15554   -9122.5999   -8115.5185   -9122.5999            0    8405.9348    24.921572     24.96444    23.106456    14375.753    7985.1501    9161.6484    8071.0059   -814.61316    1352.3884   -673.35825   -6353.1671 
 6730000    260.30393   -9066.9972   -8074.5999   -9066.9972            0    8575.2452    24.925126    24.973636     23.06463    14357.064    8628.0408    9179.0469     7918.648   -56.420157   -1110.1285    471.59323   -6279.0889 
 6731000    264.24512   -9064.9419    -8057.519   -9064.9419            0    7607.3628    25.002986    25.097693    22.924789    14385.701    7811.6327     6634.128    8376.3278   -545.21154   -79.413621    -1094.634   -6461.4889 
 6732000    255.11481   -9049.7318   -8077.1178   -9049.7318            0    8491.4447    24.964506    24.973285    23.037545    14362.659    8815.7044     7603.905    9054.7245     650.4785   -1589.6242    607.04466   -6298.4603 
 6733000    263.42908   -9067.0828    -8062.771   -9067.0828            0    8526.7523    24.962242    25.025896    23.019734    14380.485    8137.3376    9309.3964    8133.5228   -1448.0058   -46.226581    471.18649   -6274.5011 
 6734000     267.6301   -9104.4604   -8084.1324   -9104.4604            0    6316.4556    24.981406     25.10101    23.026217    14438.785    6338.6502    6289.7585    6320.9581     117.8781   -458.66967    344.53952   -6754.0455 
 6735000    255.14619   -9103.9186    -8131.185   -9103.9186            0    7460.2034    24.928282    25.005233    23.119434     14411.21    7632.2373    7470.9387    7277.4342   -47.542684    699.02816   -53.669534   -6563.2537 
 6736000    261.55656   -9070.6522   -8073.4793   -9070.6522            0    9064.4841    24.942975    25.044446    22.887505    14297.435    9491.8825    8652.5039    9049.0659    30.423973    278.37903   -175.04094   -6183.4127 
 6737000    259.65527   -9100.0049   -8110.0805   -9100.0049            0    8264.9023    24.885573    25.004711    23.053077    14344.929    8524.6175    8111.5839    8158.5055   -390.10823   -1825.3125    353.13435   -6381.0128 
 6738000    276.39476   -9098.4523   -8044.7094   -9098.4523            0    7343.7501    24.995011    25.019549    23.047755    14413.234    7095.4905    7351.9313    7583.8285     294.5791   -63.761854   -260.12146   -6501.0367 
 6739000    260.15839   -9086.3506   -8094.5082   -9086.3506            0    7408.3442    25.117487    24.995393    22.968072    14419.848    6073.1397    8055.6154    8096.2775   -177.45126   -207.35529    441.70701    -6536.543 
 6740000    266.16331   -9063.3337   -8048.5978   -9063.3337            0    8987.4921     25.01502    24.975714     22.92741    14324.312    8171.1191    9584.6082     9206.749   -50.236122   -247.67467   -320.51208   -6171.0623 
 6741000    267.79056   -9093.5207   -8072.5809   -9093.5207            0    8475.3558    24.938543    24.960224    23.092633    14374.509    8012.2678    8441.7822    8972.0173    728.49386   -278.50891   -3.5655647   -6295.8288 
 6742000    263.13827   -9055.8232   -8052.6201   -9055.8232            0    7207.4561    25.147366    24.942733    23.018109    14437.971    6210.0041    8412.3051    7000.0593   -1072.4344   -66.404566   -660.96874   -6534.9965 
 6743000    267.60526   -9123.7298   -8103.4965   -9123.7298            0    7303.8032    24.989397    24.922119     23.10579    14390.026    6966.6224    8460.9178    6483.8695   -597.83041   -79.332041    -631.6233   -6570.6928 
 6744000     258.9082     -9100.58   -8113.5039     -9100.58            0    7688.3631    25.059091    24.999892    22.938471    14370.369    7512.9995    7412.9059    8139.1839    952.45414   -695.29226    437.91628   -6502.1991 
 6745000    270.99697   -9111.2089   -8078.0448   -9111.2089            0     8691.782    24.895699     24.95245    23.053014    14320.732    7783.3523    9462.1901    8829.8035    578.73034   -381.09497    847.84081   -6262.7384 
 6746000    263.50359   -9107.1471   -8102.5513   -9107.1471            0    8450.9876     25.00522    25.107633    22.826477    14330.962     7421.807    7861.7252     10069.43   -623.92734    -1364.273   -556.67495   -6336.2748 
 6747000    270.43898   -9073.8113   -8042.7746   -9073.8113            0    9332.8606    24.967847    24.987247    22.991967    14344.177    9818.4667    7641.0285    10539.087   -55.130732   -722.40131    823.05916   -6090.3858 
 6748000    256.39064   -9121.2464   -8143.7684   -9121.2464            0    7461.4737    24.956922    24.953612    23.111043    14392.757    8089.0439    7158.6532    7136.7239    44.304225   -298.43663   -134.30929   -6577.5783 
 6749000    247.39472   -9095.4934   -8152.3119   -9095.4934            0    8059.5326    24.981873    24.887375    23.079751    14349.448    7934.7692    9254.0269    6989.8016   -285.72265   -396.28506    193.77779   -6465.6775 
 6750000      266.874     -9077.77   -8060.3247     -9077.77            0    8130.6404    25.065197    24.885173    23.054675    14380.394    6878.3358     8484.874    9028.7114    1133.2739    387.01959    1394.4543   -6355.1399 
Loop time of 585.722 on 64 procs for 250000 steps with 1920 atoms

Performance: 73.755 ns/day, 0.325 hours/ns, 426.824 timesteps/s
99.1% CPU use with 64 MPI tasks x 1 OpenMP threads

MPI task timing breakdown:
Section |  min time  |  avg time  |  max time  |%varavg| %total
---------------------------------------------------------------
Pair    | 62.082     | 64.199     | 66.225     |  12.5 | 10.96
Bond    | 0.27151    | 0.28027    | 0.29323    |   0.8 |  0.05
Kspace  | 253.66     | 263.41     | 277.02     |  28.7 | 44.97
Neigh   | 6.2076     | 6.9266     | 8.3281     |  18.5 |  1.18
Comm    | 100.87     | 115.01     | 124.46     |  48.7 | 19.64
Output  | 0.85252    | 0.85352    | 0.859      |   0.1 |  0.15
Modify  | 119.52     | 126.21     | 130.79     |  27.3 | 21.55
Other   |            | 8.828      |            |       |  1.51

Nlocal:        30.0000 ave          34 max          26 min
Histogram: 1 1 9 11 0 20 12 7 2 1
Nghost:        2794.19 ave        2840 max        2744 min
Histogram: 3 3 7 8 6 15 7 6 5 4
Neighs:        10557.7 ave       11814 max        9149 min
Histogram: 1 3 6 8 8 12 13 7 2 4

Total # of neighbors = 675692
Ave neighs/atom = 351.92292
Ave special neighs/atom = 2.0000000
Neighbor list builds = 11336
Dangerous builds = 0

unfix		3
unfix		2
unfix		1

write_data	data.final.${pid}
write_data	data.final.0
System init for write_data ...
PPPM initialization ...
  extracting TIP4P info from pair style
  using 12-bit tables for long-range coulomb (../kspace.cpp:340)
  G vector (1/distance) = 0.37428819
  grid = 30 30 30
  stencil order = 5
  estimated absolute RMS force accuracy = 0.0032903127
  estimated relative force accuracy = 9.9086791e-06
  using double precision FFTW3
  3d grid and FFT values/proc = 3600 512
Last active /omp style is kspace_style pppm/tip4p/omp
WARNING: Not all mixed pair coeffs generated from mixing. Use write_data with 'pair ij' option to store all pair coeffs. (../write_data.cpp:312)

write_restart   restart.lmp.${pid}
write_restart   restart.lmp.0
System init for write_restart ...
PPPM initialization ...
  extracting TIP4P info from pair style
  using 12-bit tables for long-range coulomb (../kspace.cpp:340)
  G vector (1/distance) = 0.37428819
  grid = 30 30 30
  stencil order = 5
  estimated absolute RMS force accuracy = 0.0032903127
  estimated relative force accuracy = 9.9086791e-06
  using double precision FFTW3
  3d grid and FFT values/proc = 3600 512
Last active /omp style is kspace_style pppm/tip4p/omp
Total wall time: 0:09:49
