#include		in.partitions
include		in.temp
variable        temperature equal 158.97
variable	tempDamp equal 100.0
include		in.pressure
variable        pressure equal 7284.4
variable        pressureDamp equal 1000.0 # This is 1 ps
include		in.seed
variable        seed equal 745823

units		real
atom_style	full

read_restart	restart.lmp.${pid}
read_restart	restart.lmp.1
Reading restart file ...
  restart file = 30 Jul 2021, LAMMPS = 30 Jul 2021
  restoring atom style full from restart
  orthogonal box = (0.17307709 0.067183193 0.066016400) to (19.826924 19.932818 20.633982)
  2 by 4 by 4 MPI processor grid
  restoring pair style lj/cut/tip4p/long/omp from restart
  restoring bond style harmonic/omp from restart
  restoring angle style harmonic/omp from restart
  972 atoms
  648 bonds
  324 angles
Finding 1-2 1-3 1-4 neighbors ...
  special bond factors lj:    0        0        0       
  special bond factors coul:  0        0        0       
     2 = max # of 1-2 neighbors
     1 = max # of 1-3 neighbors
     1 = max # of 1-4 neighbors
     2 = max # of special neighbors
  special bonds CPU = 0.002 seconds
  read_restart CPU = 0.006 seconds
include 	in.setup
variable	out_freq equal 1000
variable	out_freq2 equal 10000
variable	out_freq3 equal 1000

timestep	2.0

neigh_modify    delay 7 every 1

include		in.tip4p
# This is TIP4P/Ice

# create groups ###
group ox type 2
324 atoms in group ox
group hy type 1
648 atoms in group hy

# set charges - beside manually ###
set group ox charge -1.1794
Setting atom values ...
  324 settings made for charge
set group hy charge 0.5897
Setting atom values ...
  648 settings made for charge

# ### TIP3P Potential Parameters ###
pair_style lj/cut/tip4p/long/omp 2 1 1 1 0.1577 8.5
pair_coeff 1 1*2 0.000 0.000
pair_coeff 2 2 0.21084 3.1668
bond_style  harmonic
bond_coeff  1 450 0.9572
angle_style harmonic
angle_coeff 1 55 104.52
kspace_style pppm/tip4p/omp 1.0e-5
pair_modify tail yes

thermo          ${out_freq}
thermo          1000
thermo_style    custom step temp pe etotal epair emol press lx ly lz vol pxx pyy pzz pxy pxz pyz enthalpy

restart 	${out_freq3} restart.lmp.${pid} restart2.lmp.${pid}
restart 	1000 restart.lmp.${pid} restart2.lmp.${pid}
restart 	1000 restart.lmp.1 restart2.lmp.${pid}
restart 	1000 restart.lmp.1 restart2.lmp.1


include         in.dump
dump            myDump all atom ${out_freq2} dump.water.${pid}
dump            myDump all atom 10000 dump.water.${pid}
dump            myDump all atom 10000 dump.water.1
dump            myDump2 all dcd ${out_freq2} dump.dcd
dump            myDump2 all dcd 10000 dump.dcd
dump_modify     myDump append yes
dump_modify     myDump2 append yes


variable natoms 	equal  "count(all)"                        # NUMBER ATOMS
variable H      	equal  "enthalpy/v_natoms"                 # ENTHALPY-per-atom
variable Vol      	equal  "vol/v_natoms"                 # volume-per-atom
fix AVG all 		ave/time ${out_freq} 1 ${out_freq} v_Vol v_H file vol_enthalpy.dat
fix AVG all 		ave/time 1000 1 ${out_freq} v_Vol v_H file vol_enthalpy.dat
fix AVG all 		ave/time 1000 1 1000 v_Vol v_H file vol_enthalpy.dat


timer           timeout 02:55:00 every 1000
New timer settings: style=normal  mode=nosync  timeout=02:55:00

fix 		1 all shake 1e-6 200 0 b 1 a 1
       0 = # of size 2 clusters
       0 = # of size 3 clusters
       0 = # of size 4 clusters
     324 = # of frozen angles
  find clusters CPU = 0.000 seconds
fix             2 all nph aniso ${pressure} ${pressure} ${pressureDamp}
fix             2 all nph aniso 7284.4 ${pressure} ${pressureDamp}
fix             2 all nph aniso 7284.4 7284.4 ${pressureDamp}
fix             2 all nph aniso 7284.4 7284.4 1000
fix             3 all temp/csvr ${temperature} ${temperature} ${tempDamp} ${seed}
fix             3 all temp/csvr 158.97 ${temperature} ${tempDamp} ${seed}
fix             3 all temp/csvr 158.97 158.97 ${tempDamp} ${seed}
fix             3 all temp/csvr 158.97 158.97 100 ${seed}
fix             3 all temp/csvr 158.97 158.97 100 745823


run             250000
PPPM initialization ...
  extracting TIP4P info from pair style
  using 12-bit tables for long-range coulomb (../kspace.cpp:340)
  G vector (1/distance) = 0.3721513
  grid = 24 24 24
  stencil order = 5
  estimated absolute RMS force accuracy = 0.0035161458
  estimated relative force accuracy = 1.0588769e-05
  using double precision FFTW3
  3d grid and FFT values/proc = 3211 432
Last active /omp style is kspace_style pppm/tip4p/omp
Neighbor list info ...
  update every 1 steps, delay 7 steps, check yes
  max neighbors/atom: 2000, page size: 100000
  master list distance cutoff = 10.8154
  ghost atom cutoff = 10.8154
  binsize = 5.4077, bins = 4 4 4
  1 neighbor lists, perpetual/occasional/extra = 1 0 0
  (1) pair lj/cut/tip4p/long/omp, perpetual
      attributes: half, newton on, omp
      pair build: half/bin/newton/omp
      stencil: half/bin/3d
      bin: standard
Per MPI rank memory allocation (min/avg/max) = 10.19 | 10.19 | 10.19 Mbytes
Step Temp PotEng TotEng E_pair E_mol Press Lx Ly Lz Volume Pxx Pyy Pzz Pxy Pxz Pyz Enthalpy 
20750000    164.84371   -4906.9092   -4588.9943   -4906.9092            0    7272.4271    19.653847    19.865635    20.567965    8030.4769    7402.5612    6092.3029    8322.4173   -479.99701    904.40913    41.608337   -3737.2747 
20751000    162.57265   -4933.9706   -4620.4356   -4933.9706            0    6951.5338    19.561148    19.971344    20.570785    8036.2324    8534.6335    6102.9562    6217.0117    -40.65536    407.15139    9.3172644   -3805.7144 
20752000    159.93204   -4919.3903   -4610.9479   -4919.3903            0    7724.4663    19.750224    19.853534    20.559643    8061.6773     9071.554    6251.8357    7850.0093    346.73744    682.37524    798.59805   -3702.7724 
20753000    150.82421   -4906.1797   -4615.3025   -4906.1797            0    7480.2787    19.842476    19.705268    20.490938    8011.9834    6648.4263    8298.6065    7493.8032   -641.81969    533.74182    831.58019   -3741.2577 
20754000    156.80441    -4932.788   -4630.3775    -4932.788            0    6281.0425    19.855304    19.862453    20.273171    7995.2329     5965.347    5956.4444    6921.3361    168.34885    -505.5918    621.36971   -3897.9937 
20755000    157.06898   -4914.6495   -4611.7288   -4914.6495            0    6349.8034    19.776001     19.83363    20.522226    8049.4303    6216.2969    6061.2321    6771.8811   -761.69582    1339.0824   -407.68452   -3866.3083 
20756000    167.74692   -4924.8164   -4601.3024   -4924.8164            0    7186.3246    19.795992      19.6258    20.666855    8029.3247    6865.4136    8388.8342     6304.726   -638.76974   -577.47252    592.56627   -3759.7876 
20757000    159.81854   -4926.9997   -4618.7762   -4926.9997            0    6538.9464    19.866007    19.933209    20.423767    8087.6742    4971.8428    6823.5557    7821.4406    11.090707    1417.7597    146.34374   -3847.5047 
20758000    161.79782   -4918.0019   -4605.9612   -4918.0019            0    8211.6789      19.7653    19.870486    20.428849    8023.3509    9667.7379    6922.1413    8045.1575   -115.82748   -579.44046    444.33229   -3645.0934 
20759000    167.50451   -4911.9096   -4588.8631   -4911.9096            0     7790.958     19.67498    19.891631    20.396327    7982.4587    6584.3988    8761.4896    8026.9856   -352.71065     87.79426   -65.758983   -3681.8711 
20760000    162.87758   -4917.7889   -4603.6658   -4917.7889            0    6915.1644    19.966424     19.69403    20.465385    8047.3855    7679.3579     6303.653    6762.4824   -25.904229    228.26768    63.456103   -3792.0823 
20761000    154.59874   -4914.1353   -4615.9787   -4914.1353            0    7021.4459    19.786722    19.823285    20.447027    8020.0975    6655.8291    6648.4373    7760.0714      73.2484   -948.48395   -324.29939    -3794.716 
20762000    163.70717   -4899.2961    -4583.573   -4899.2961            0    6744.7087    19.914488    19.703788    20.528834    8055.3266     6310.058    7659.8476    6264.2206    266.94086    1004.1049   -510.66199   -3791.2136 
20763000    164.90817   -4900.1596   -4582.1203   -4900.1596            0    8582.7509    19.712481    19.721095    20.508577    7972.7442    9404.7339    8838.5373    7504.9815   -433.06102    59.736475    597.93233    -3584.167 
20764000    156.96871   -4921.0843   -4618.3569   -4921.0843            0    8015.5647    19.639295    19.769684    20.607537    8001.1374    8835.5021    6570.4733    8640.7186   -447.19186      232.399    68.821637   -3683.0337 
20765000    160.65535   -4923.6341   -4613.7967   -4923.6341            0    7828.0956    19.920361     19.65687    20.406308    7990.5374    6337.1099    9397.2964    7749.8807    -462.7737   -702.13742    606.26272    -3701.559 
20766000    154.97678   -4912.3262   -4613.4404   -4912.3262            0    7823.9928    19.842242    19.859466    20.446456    8057.0554    7881.2326    8180.7391    7410.0067   -192.38799    780.90361    613.53385   -3694.0908 
20767000    159.22972   -4918.3197   -4611.2318   -4918.3197            0    6587.7882    19.603649     19.90944    20.587123    8035.1063    7297.6855    6030.8385    6434.8408   -85.559153    391.29546   -763.14713   -3839.2498 
20768000     149.9918    -4919.058   -4629.7862    -4919.058            0    7388.5771    19.877988    19.836816    20.339831    8020.3204    6852.6568    7486.8571    7826.2175    351.08758    252.78235    -573.3496    -3765.558 
20769000    149.51143   -4905.1799   -4616.8346   -4905.1799            0    7420.9694    19.726991    19.850848     20.46572    8014.3248    7195.8711    8378.6888    6688.3483   -193.14895   -487.47054   -197.45508   -3749.4664 
20770000    163.56542    -4932.664   -4617.2144    -4932.664            0    7530.7087    19.737262    19.718087    20.674623    8046.1713    8180.8593     7463.381    6947.8857   -86.742515    349.14941     1004.405   -3733.5222 
20771000     156.6798   -4936.6074   -4634.4373   -4936.6074            0    6476.2606     19.91483    19.724059    20.538452    8067.5303     7941.353    4330.7965    7156.6322   -720.50504   -992.16773    22.928561   -3872.4621 
20772000    161.18641   -4926.9276    -4616.066   -4926.9276            0    7070.1623    19.742615    19.874836    20.538774    8059.0292    7264.4907    6481.5763    7464.4199    185.31766   -146.40245   -155.10403   -3785.0909 
20773000    155.83154   -4925.7628   -4625.2286   -4925.7628            0    7815.0398    19.828706    19.800584    20.390416    8005.6841    9103.5856    6575.1514    7766.3823   -647.10229    320.46819   -1154.1941    -3712.786 
20774000    166.09081   -4903.8983   -4583.5782   -4903.8983            0    7549.7258    19.944903    19.874499    20.279583    8038.7242    6932.9624    8134.0416    7582.1734   -822.96434   -483.27339    98.487855   -3698.4744 
20775000    166.12946   -4924.0035   -4603.6089   -4924.0035            0    5768.1771    19.831291    19.793668    20.625666    8096.2751    4452.2807    8470.1334    4382.1173   -174.88189     -495.455    213.91776   -3922.5264 
20776000    163.62544   -4910.4159   -4594.8505   -4910.4159            0    5960.4752    19.717845    19.790147    20.606184    8040.9255    7596.2799    4137.1546    6147.9911    112.46767    127.00037    559.97663   -3895.8736 
20777000    161.98091   -4903.4844   -4591.0905   -4903.4844            0    7493.1675    19.868082    19.863976    20.380658    8043.4124    8344.1965    7392.6831     6742.623   -391.34298    816.72674    1402.6616   -3712.1051 
20778000    157.35926   -4930.0919   -4626.6113   -4930.0919            0    6086.2959    19.909001     19.78622    20.537177    8090.0843    6166.8387    6371.0959     5720.953    476.10395   -728.74865   -821.94248   -3908.5162 
20779000    163.08988   -4917.6545    -4603.122   -4917.6545            0    8471.3976     19.78058    19.785706    20.389046     7979.717     9396.557     8514.726    7502.9098   -597.36183    754.66912    378.17604   -3617.2547 
20780000    161.15057    -4918.552   -4607.7595    -4918.552            0    5959.4184     19.85546    19.739374    20.646841    8092.2058    5399.3954    6282.9728    6195.8871    -402.5779    688.01246     327.4075   -3904.4497 
20781000    164.84944   -4911.9939   -4594.0679   -4911.9939            0    7443.5657    19.915896    19.823682    20.389418    8049.8727    5744.7066    9290.9231    7295.0673   -492.64671    1390.5892    108.74193   -3720.1997 
20782000    159.84499   -4911.0724   -4602.7979   -4911.0724            0    7866.0924    19.887366     19.56434    20.663603    8039.8605     8324.306    8156.8465    7117.1247    27.633689   -1801.2388    1463.7381   -3680.4741 
20783000    160.70851   -4917.7934   -4607.8536   -4917.7934            0    7230.5861    19.785366    19.854908    20.425232    8023.7791    7193.1262    7442.8503    7055.7817   -159.74068    1359.4703    400.98995   -3761.7406 
20784000    156.10125   -4927.7038   -4626.6494   -4927.7038            0    7020.4749    19.899086    19.746384     20.48703    8050.0711    7247.2421    6475.3326    7338.8501   -282.66343    384.68473   -629.58914   -3802.4314 
20785000    154.92397   -4944.5105   -4645.7266   -4944.5105            0    6851.1466    19.589423    20.089449     20.47913    8059.3716    7502.1995    5404.6822     7646.558     277.0197    -843.2376    -257.3366   -3840.4588 
20786000    157.43368   -4934.7818   -4631.1577   -4934.7818            0    7184.1969    19.861128    19.803921     20.38389    8017.5586    6912.3166    7033.4205    7606.8537    -833.1045    -134.6091   -652.79141   -3791.1249 
20787000    156.66014   -4923.5091   -4621.3768   -4923.5091            0    5952.2049    19.944432    19.803865    20.458479    8080.6253    6462.3641    5296.5322    6097.7184   -193.66852   -168.95634   -623.82599   -3919.9236 
20788000    162.57757   -4919.4195   -4605.8749   -4919.4195            0    6629.6104    19.728717    19.802712    20.622467    8056.8288     8402.348    5204.5791    6281.9041   -469.51384   -257.84105    47.045967   -3826.8918 
20789000    155.94458   -4929.5218   -4628.7696   -4929.5218            0     7903.416     19.85519    19.804788    20.412064    8026.5915    7494.6847     7957.395    8258.1682    68.951313     391.4383     739.6183   -3703.5989 
20790000     157.3833   -4922.7696   -4619.2426   -4922.7696            0    7750.1393    19.876706    19.784713    20.481747     8054.548    6189.2779    8931.7515    8129.3886   -155.33675    1114.2082    628.98751   -3708.8545 
20791000    163.25656   -4921.3928   -4606.5388   -4921.3928            0    6542.7685    19.829983    19.741525    20.483728    8018.8492    7305.1406    6118.6897    6204.4753   -326.31188     485.3772    586.66816   -3841.3837 
20792000    161.78183   -4935.9933   -4623.9835   -4935.9933            0     6611.753    19.898044     19.81384     20.46363    8067.9221    7004.3246    6065.7605    6765.1738   -563.15143   -725.83574    1240.0852    -3846.029 
20793000    155.82099   -4905.3598   -4604.8459   -4905.3598            0    6924.2913    19.753613    19.774331    20.672796    8075.0936    8570.1878    6414.4063    5788.2798   -225.91851     101.9609   -143.37365   -3789.3932 
20794000     154.6597   -4934.2991   -4636.0248   -4934.2991            0    6566.6677     19.79334    19.954962    20.389008    8053.1557    6366.9819    6427.3746    6905.6467    376.61973    616.86892    626.56628   -3864.7893 
20795000    157.16886   -4942.9095   -4639.7962   -4942.9095            0    6108.2551    19.756791    19.877642    20.519829    8058.5152    5403.0043    6052.9707    6868.7903    163.95033    813.72707   -689.84713   -3921.9224 
20796000    158.40538   -4926.4878   -4620.9897   -4926.4878            0    8549.2113     19.70545    19.874581    20.440869    8005.4122    10247.462    6830.6527     8569.519   -724.81272    721.62845    292.64868   -3622.8631 
20797000    157.75988   -4919.3281   -4615.0749   -4919.3281            0     6747.601    19.889204    19.736327    20.446282      8025.98    5831.9207    7490.3403     6920.542   -181.39489    -671.0917    751.39556   -3825.2635 
20798000     151.7695   -4930.3652   -4637.6649   -4930.3652            0    7087.3192    19.803314    19.754077    20.568601    8046.3586       8207.5    6686.6305    6367.8269   -282.58009   -58.487011   -917.75109    -3805.983 
20799000     160.6023   -4919.6143   -4609.8793   -4919.6143            0    7195.4965    19.873905    19.743169    20.471372    8032.4314    4892.9951     9256.201    7437.2933   -440.84801    879.46881    217.05127   -3766.9645 
20800000    151.15529   -4917.3859   -4625.8702   -4917.3859            0    8236.5498    19.847684      19.7812    20.405042    8011.2443    7956.4955    8536.4405    8216.7136    325.79044    493.73039    1216.7593   -3663.5465 
20801000    169.07413   -4894.2514   -4568.1777   -4894.2514            0    6233.4405    19.826473    19.801672    20.418654     8016.309    4068.7614    7234.1178    7397.4424    510.91578   -259.48648    561.16318   -3839.4284 
20802000    150.91941   -4915.9412   -4624.8805   -4915.9412            0    7972.3636    19.827587    19.813079    20.396914    8012.8372    6649.7074    8548.9779    8718.4055   -197.60639   -56.194236    331.38982   -3693.2379 
20803000    151.94081     -4928.92   -4635.8894     -4928.92            0    7858.7078    19.665397    19.780446    20.664451    8038.2712    8854.8586    9095.8603    5625.4045    487.22795    963.57424    37.517615   -3714.6135 
20804000    159.39123   -4906.9467   -4599.5473   -4906.9467            0    7020.4138    19.903496    19.788173     20.47173    8062.8688    7777.7269     6851.058    6432.4566    224.37935    94.072227     1779.419   -3774.0261 
20805000    163.13269   -4925.4468   -4610.8317   -4925.4468            0    6589.0528    19.822596     19.83562    20.416369    8027.5836    6616.4857    7190.7737    5959.8991    199.52854    1259.1616   -23.633622   -3839.4245 
20806000    170.71662   -4916.4235   -4587.1821   -4916.4235            0    6599.4542    19.779655    19.925421    20.480028    8071.5463    6920.6905    6579.2488    6298.4232   -233.60183    -132.2799    387.90675   -3810.3259 
20807000    154.07497     -4939.29   -4642.1435     -4939.29            0    5827.5879    19.862937    19.925932    20.462997    8098.9993    6017.2167    5775.0419    5690.5052    151.70588   -796.48553    36.854451   -3953.8144 
20808000    160.32859   -4923.5306   -4614.3234   -4923.5306            0    8347.3317    19.662564    19.819342    20.564828    8014.0947    10118.657     7685.088    7238.2503   -108.80892    353.10826    308.74492   -3638.7094 
20809000    155.99115   -4916.5161    -4615.674   -4916.5161            0    7587.8909     19.63634    19.943414    20.585384    8061.5587    5856.5442    9232.0041    7675.1245   -386.79089   -69.904898   -1345.3465    -3723.569 
20810000    162.03262   -4925.1568   -4612.6633   -4925.1568            0    6780.3383    19.776928    19.822536    20.489333    8032.4102    6895.4836    6049.6352    7395.8962    -346.1214    913.90557   -11.900088   -3818.3842 
20811000    153.96399   -4904.1721   -4607.2396   -4904.1721            0    7658.7031    19.886423    19.789675    20.505299     8069.775    8130.5549     7510.795    7334.7595    751.95206    1043.4638    291.45192   -3705.8915 
20812000    165.82092   -4907.7181   -4587.9185   -4907.7181            0    7865.9799    19.632369    19.779742    20.710938    8042.5381    8126.1042    8231.3761    7240.4593   -31.115997    779.52101    529.05502   -3665.3006 
20813000    163.93806   -4914.4288   -4598.2605   -4914.4288            0     6874.631    19.723347    19.897872    20.410991    8010.3472    7577.6992    6659.3777    6386.8162   -61.216615     164.8228    91.206236   -3795.1476 
20814000    154.07105    -4912.505    -4615.366    -4912.505            0    7018.4029    19.811158    19.892858    20.482037     8071.982    6591.7224    7038.6815    7424.8049   -668.59347   -872.30249    241.50631   -3789.1486 
20815000    158.27536   -4915.4391   -4610.1918   -4915.4391            0    8028.3555    19.535658    19.742853    20.645277    7962.6692    7303.1593    9269.2255    7512.6818    444.62734   -300.71866    375.69602     -3677.88 
20816000    167.32692   -4907.2672   -4584.5632   -4907.2672            0    8440.1513     19.84004     19.70388    20.564468    8039.1802    8450.9965    8920.2963    7949.1609    409.73707     1186.682   -53.157657   -3595.0129 
20817000    158.61165   -4928.1808   -4622.2849   -4928.1808            0    6903.5832     19.74005    19.819654    20.494238    8018.1852     8434.743    5559.5278    6716.4787    632.64841    326.81094   -451.44912   -3815.0005 
20818000    162.65691   -4927.8113   -4614.1137   -4927.8113            0    7562.4164    19.757172    19.874602    20.475431    8040.0043    8237.4126    7373.0687    7076.7679    379.92906   -964.59822    524.41275    -3727.381 
20819000    156.50654   -4938.4172   -4636.5812   -4938.4172            0      7814.26     19.77068    19.836211    20.491132    8036.1174    6799.4388    8452.5234    8190.8179     94.38162   -1004.2245    827.06865   -3720.7614 
20820000    155.74428   -4904.4841   -4604.1182   -4904.4841            0    6593.3221    19.630643    20.110347     20.37261    8042.6794    8221.3337     3944.806    7613.8266   -23.593748    894.59164    645.95738   -3830.7596 
20821000    165.82165   -4928.1399   -4608.3389   -4928.1399            0    7587.8297    19.667898     19.87663    20.565591    8039.7377    7935.7003    7628.5441    7199.2447   -387.97948    551.64715    115.20577   -3718.6558 
20822000    172.29747    -4906.193   -4573.9029    -4906.193            0      8023.51    19.891829    19.654864    20.513096    8020.0296    9710.7079    6579.9012    7779.9207    -301.0179     296.3198    896.09572   -3635.4418 
20823000    155.58864   -4931.2306   -4631.1648   -4931.2306            0    7451.7949    19.966036     19.60533    20.425968    7995.5557    7094.9708      8035.46    7224.9539   -604.44722    506.44027   -407.40986   -3762.2335 
20824000    150.88556   -4914.6125    -4623.617   -4914.6125            0    8098.7988    19.850117    19.725583    20.418003     7994.774    7427.7471    7824.3967    9044.2526    312.06005    611.89655   -204.45134   -3679.3329 
20825000    157.33726   -4927.9635   -4624.5254   -4927.9635            0    8036.5378    19.943071    19.639363     20.58296    8061.7113    7049.9241    9225.1734     7834.516   -94.628531    950.62711    16.893182   -3679.6553 
20826000    153.26922   -4911.9299   -4616.3373   -4911.9299            0    6518.8694    19.846693    19.877976    20.336795    8023.1114    6321.8238    6047.6756    7187.1088    525.16466   -719.14013   -113.54397   -3853.5719 
20827000    152.67366   -4938.0477   -4643.6037   -4938.0477            0    6617.5875    19.832507    19.863328    20.458886    8059.5651    6643.8826    6569.4168     6639.463    378.86325   -432.29568    1023.7189   -3865.7692 
20828000    161.57365   -4907.0553    -4595.447   -4907.0553            0    8044.4484    19.840614    19.641058    20.648634    8046.5795    7782.8634    9382.5758     6967.906    -166.6897    108.03198    1539.0863    -3651.422 
20829000    161.63876   -4927.5591   -4615.8251   -4927.5591            0    9842.0843    19.726463    19.648425    20.431759    7919.2256    9439.8088    9884.4367    10202.007   -179.26914   -961.90167    554.29771   -3479.1256 
20830000    161.97584   -4912.5604   -4600.1763   -4912.5604            0    8105.5786    19.831237    19.801548    20.506395    8052.6397    6666.3766    9195.5465    8454.8126   -521.28711   -236.80311   -36.263393   -3648.2613 
20831000    157.32847   -4913.9243   -4610.5031   -4913.9243            0    6237.2769     19.68462    19.856852     20.68219     8084.143    7350.2174    6167.0014    5194.6119   -71.462158   -366.16043    368.80076   -3875.1348 
20832000     154.3142    -4926.385   -4628.7771    -4926.385            0    7101.9009      19.7506    19.805504     20.50761    8021.9736     6286.659    8752.5858     6266.458   -49.597938    58.302516    160.37573   -3797.9096 
20833000    162.18592   -4915.4738   -4602.6846   -4915.4738            0    7415.8252    19.969895    19.750775    20.334924    8020.5194     7399.395    6830.4971    8017.5836    -100.4895    426.77241   -426.15425   -3735.2477 
20834000    165.53935   -4912.7989   -4593.5424   -4912.7989            0    6911.6798    19.950037    19.665259    20.558539    8065.5803    7657.7072    7605.0223    5472.3098     868.5406   -97.213618    1439.4455   -3780.5338 
20835000    154.64035   -4920.4767   -4622.2397   -4920.4767            0    7535.3018    19.737064    19.888251    20.371608    7996.5831    7406.7485    6892.2404    8306.9165   -534.24172   -130.08864    828.70051   -3743.4581 
20836000    154.33014   -4921.3007    -4623.662   -4921.3007            0    7124.7064    19.759611    19.868947    20.474397    8038.3027     8638.371    6644.9837    6090.7644     -159.247    231.01702    1222.5816   -3788.4299 
20837000    162.50443   -4936.0845    -4622.681   -4936.0845            0     5888.257    19.694493    19.917047     20.51414    8046.7974    6482.4758     6043.101    5139.1942    -232.2386    1410.6789    1234.0106   -3931.6688 
20838000     159.3036   -4924.9796   -4617.7492   -4924.9796            0    6285.6101    19.931532    19.792805    20.548195    8106.2817    5630.2545    7484.8111    5741.7649   -131.32403    -932.5882   -332.79379   -3874.6531 
20839000    152.09132   -4937.5292   -4644.2083   -4937.5292            0    7485.6928    19.954669    19.649082    20.464124    8023.7976    7841.4915    6938.2006    7677.3862   -219.57098   -284.45706    632.00455   -3768.2411 
20840000    151.95608   -4912.1194   -4619.0594   -4912.1194            0    8186.6303    19.717322    19.910736    20.478952    8039.7579      9916.56    5782.7065    8860.6245   -126.86903   -272.21959   -379.89262   -3659.1637 
20841000    156.15166    -4925.454   -4624.3024    -4925.454            0    6754.1279    19.789588    19.997717     20.34082    8049.8101    7180.3438    5116.9748    7965.0651    466.15332     733.6459   -503.67819   -3831.3797 
20842000    156.96472   -4926.0685   -4623.3489   -4926.0685            0    7292.1757     20.01953    19.798802    20.342512    8063.0131    6101.3447    7164.1894    8610.9928   -223.52189   -392.29702   -504.39191   -3765.8563 
20843000    161.46887   -4907.8791   -4596.4728   -4907.8791            0    7556.4273    19.793742    19.733129    20.535206    8020.8963    7498.5464    7959.5192    7211.2164   -742.80363    1108.8654    529.59986    -3712.548 
20844000    165.77509   -4927.2599   -4607.5487   -4927.2599            0    8816.3971    19.857405    19.641124    20.463308    7981.1353    9463.2194    9027.1049    7958.8668    294.00449    129.51377   -611.65772   -3581.3494 
20845000    148.96416   -4924.0923   -4636.8024   -4924.0923            0    7345.0734    19.782605    19.824697    20.411097    8004.9086    7787.8889    7000.1627    7247.1685     -212.056   -67.957055    234.12294   -3779.3137 
20846000     155.3498   -4908.0262    -4608.421   -4908.0262            0    6896.5612    19.826149    19.844081    20.416406    8032.4615    6675.7181    6602.0096    7411.9559   -539.90839    625.08123    636.62538   -3800.5219 
20847000    160.94479    -4922.364   -4611.9685    -4922.364            0    6635.6348    19.727138    19.767761     20.65461    8054.4995    6437.3206    7035.3347    6434.2491   -678.54331     861.1659    -793.2509   -3832.5029 
20848000    163.24489   -4919.7454   -4604.9139   -4919.7454            0    9038.2659    19.639224    19.783282    20.471439    7953.7334    8736.3802     9088.801    9289.6165    233.65134   -734.80736    854.59506   -3556.5018 
20849000    149.56421   -4907.7734   -4619.3262   -4907.7734            0    5842.7531    19.756968       19.991    20.402375    8058.1536    5849.9115    3981.5102    7696.8378   -354.22674     636.3386   -341.07749   -3932.6864 
20850000     159.8579   -4926.0299   -4617.7305   -4926.0299            0     7112.695    19.847224     19.86009    20.370789     8029.506    7091.7723    5949.0844    8297.2285   -649.38823    828.02175   -837.71721   -3784.8189 
20851000    153.46243    -4935.146   -4639.1808    -4935.146            0    7710.2949    19.749711    19.689219    20.576683    8001.3743    9217.1718    7014.4868    6899.2261    30.215535    336.49865   -739.90475   -3739.4524 
20852000    156.20661   -4911.0062   -4609.7486   -4911.0062            0    7508.8025    19.752163    19.900996    20.386094    8013.5232    7402.9182    6943.2317    8180.2577   -553.52201    1543.3425   -336.35667   -3732.2023 
20853000    165.28191   -4921.0446   -4602.2845   -4921.0446            0    8638.4697    19.845927    19.859013    20.386851    8034.8763    7872.8039    9319.6097    8722.9954   -189.18987    344.35593    484.28507   -3590.0249 
20854000    160.22824   -4915.2894   -4606.2758   -4915.2894            0     5006.527    19.664787    19.985988    20.534604     8070.514    6100.8754    3789.3376    5129.3679    192.51535   -282.09134    184.77467   -4017.0067 
20855000    164.61881   -4903.8398   -4586.3586   -4903.8398            0    8102.1128    19.791851    19.735994    20.563131    8032.2031     8399.456    7813.9321    8092.9501   -708.98043   -646.07786    227.61031   -3637.2654 
20856000    150.15118   -4919.0698   -4629.4906   -4919.0698            0    6809.0512    19.899093    19.864623     20.32357     8033.663    6647.9742    6390.4868    7388.6925   -620.89234   -68.351183    305.33187   -3831.7236 
20857000    162.29046   -4924.7397   -4611.7489   -4924.7397            0    7387.5793    19.786877    19.833066    20.461442    8029.7744    6914.2816    7281.0874    7967.3688   -114.70237    1399.8549    765.99003   -3746.6189 
20858000    161.56673   -4909.3072   -4597.7122   -4909.3072            0    8057.6379    19.917627    19.577831    20.588578    8028.3916    8319.1857    8045.1915    7808.5364    131.95997    56.583209   -124.27554   -3654.2767 
20859000    159.57541   -4919.8214   -4612.0668   -4919.8214            0    8475.1548    19.763951    19.894396    20.380611    8013.4908    8348.7404    8141.9093    8934.8146    111.36144    1211.3789   -128.40308   -3621.5878 
20860000    164.24742    -4912.603    -4595.838    -4912.603            0    7971.1963    19.869023    19.733955    20.427171    8009.3795    7187.1662    8456.3583    8270.0642   -899.47982   -219.02312   -427.75659   -3664.7339 
20861000    163.87407   -4915.4785   -4599.4336   -4915.4785            0    7977.3984    19.792843    19.714882    20.724713    8087.0642    10674.344    6513.3062    6744.5446   -636.14203   -259.31511    1150.4012    -3658.567 
20862000    163.26776   -4923.8152   -4608.9396   -4923.8152            0     7653.283    19.722455    19.832948    20.565209    8044.1723    7186.7126    8745.5627    7027.5738   -62.014696   -273.13888    1205.2807   -3711.0871 
20863000    152.83461   -4926.7216   -4631.9672   -4926.7216            0    6762.5199    19.746036    19.984991    20.373556    8039.9014    7067.7004    6285.8289    6934.0303   -219.90672   -538.63027   -198.91429   -3839.0366 
20864000    155.86125   -4911.6187   -4611.0272   -4911.6187            0    7657.2062     19.76387    19.951241    20.497329    8082.3787    9224.2571    6799.3127    6948.0489    -102.7436    443.80855   -694.41243   -3708.4477 
20865000    156.89546   -4923.6386   -4621.0525   -4923.6386            0    5912.2045    19.759713    19.900944    20.532176    8074.0099    5531.2433    6506.0336    5699.3366    315.59396   -533.82601    1212.2208   -3924.8836 
20866000    157.31906   -4923.8018   -4620.3988   -4923.8018            0    8138.2077     19.48012    20.002715    20.441638    7965.1925    9198.7286    7194.0244      8021.87    214.32569   -107.62303    22.197648   -3675.0307 
20867000     153.6188   -4933.9147   -4637.6479   -4933.9147            0    6937.5098    19.903179    19.743376    20.505107    8057.6039    5832.5645    7833.5393    7146.4257    74.600218    123.97568   -284.73083   -3822.4081 
20868000    154.53806   -4921.7727    -4623.733   -4921.7727            0    7437.1428    19.740819     19.85175    20.412395    7999.4095    7759.4689    7174.3586    7377.6008    57.092563   -259.32667    277.45719   -3756.0923 
20869000    159.21546    -4935.851   -4628.7906    -4935.851            0    6971.1952    19.829469    19.922597    20.321547    8028.1188    6842.4713    7098.5609    6972.5534   -233.49049    224.43767    276.98644     -3812.59 
20870000    158.94598   -4919.6706   -4613.1299   -4919.6706            0    8397.8517    19.776488    19.765756    20.535644    8027.3261    8717.3252    8989.1935    7487.0364   -177.04243    55.411954     732.9334   -3629.9907 
20871000    152.22425   -4925.9946   -4632.4173   -4925.9946            0      8215.57    19.635731    19.879099    20.538309    8016.9369    6894.3597    9639.0534     8113.297    -526.4314   -222.99015    662.84724   -3671.8627 
20872000    161.89499    -4902.996   -4590.7679    -4902.996            0    7691.6137    19.664084     19.75632    20.558686    7986.8423    7331.6592    8532.1601    7211.0219   -45.205378   -823.98218   -842.98329   -3694.8495 
20873000    158.15702   -4915.0736   -4610.0544   -4915.0736            0    6785.5155    19.753107    19.782021    20.554251    8031.7048    6264.0034    7649.3685    6443.1747   -104.13128    1154.1517   -358.89688   -3815.2387 
20874000    160.15788   -4921.0207   -4612.1428   -4921.0207            0    6343.5528    19.783709    19.867691    20.480451    8049.9771    6385.3467    6525.1964    6120.1152   -204.95647    505.78782    258.33034   -3867.4055 
20875000    164.70874   -4913.4425   -4595.7879   -4913.4425            0    7537.8713    19.752119    19.801858    20.474569    8008.1903    6914.9617    8302.1785    7396.4737   -614.66992    317.39848    299.34362   -3715.4305 
20876000    159.18832   -4940.5279   -4633.5199   -4940.5279            0    7594.5887    19.759463    19.971022    20.298151    8009.9885    8208.0453    5826.4114    8749.3094   -451.40402    267.16078    691.83683   -3746.3393 
20877000    163.37444    -4933.216   -4618.1346    -4933.216            0    7808.0366    19.775881    19.772602    20.485622    8010.3007    7811.3954    8387.9506     7224.764    -236.6743   -430.66841     912.9574    -3705.984 
20878000     156.8605   -4918.9504   -4616.4317   -4918.9504            0    9209.8115    19.765531    19.541791    20.627281    7967.3669    7318.8068    12676.862    7633.7654    214.73506    998.38618    305.15133   -3546.2897 
20879000      164.103   -4905.0694    -4588.583   -4905.0694            0    7371.3776    19.836464     19.90288    20.341724    8030.9688    5701.9852    8478.0079    7934.1396   -359.04125     760.2922   -525.93452   -3725.2219 
20880000    153.69839   -4938.7595   -4642.3392   -4938.7595            0    7643.6041    19.706275    19.812702     20.55889    8026.9005    8047.8175    6399.3459     8483.649   -455.22748    1780.9726   -776.66462   -3747.5475 
20881000    154.90067   -4932.9212   -4634.1823   -4932.9212            0    8052.3887    19.737438    19.854505    20.397402    7993.2742    8137.9617    7591.3822    8427.8221   -750.64636    191.41021    416.28483   -3695.4855 
20882000    158.02502   -4899.1927   -4594.4281   -4899.1927            0    6948.0796     19.78874    19.888719    20.461433    8053.0612    5411.9983    7490.7028    7941.5378   -246.45491     240.0131    -1275.627   -3778.4065 
20883000    161.38592   -4907.8551   -4596.6088   -4907.8551            0    7344.5858    19.884574    19.675536    20.619014    8066.9761    8060.2713    7270.7084    6702.7778    198.48316   -92.163903   -931.30281   -3732.5287 
20884000    157.49758   -4926.0891   -4622.3417   -4926.0891            0    7856.8929    19.820943    19.766394    20.461475    8016.5722    6320.6258    9404.8203    7845.2326    85.056305    723.74304    1644.8824    -3703.765 
20885000    157.64004   -4919.4206   -4615.3985   -4919.4206            0    9378.6804    19.674071    19.908368    20.417452    7997.0799    9799.8348    9276.2478    9059.9587   -155.45246    495.32258   -517.71119   -3521.5705 
20886000    161.38711   -4915.9818   -4604.7332   -4915.9818            0    7543.3269    19.716249    19.797489    20.493041    7999.0941    7664.1476    7664.3671    7301.4661    508.33241    434.64576    209.60263   -3724.7393 
20887000    151.49377   -4920.5201   -4628.3516   -4920.5201            0     6134.494    19.701107    19.890135    20.560228    8056.6832    6659.3708    5872.9937    5871.1176   -87.006012    254.31296    782.86485    -3907.558 
20888000    155.80866   -4922.7459   -4622.2558   -4922.7459            0    6978.3766    19.818859    19.775117    20.501998    8035.1482    8533.5963    5314.6377    7086.8959   -525.40108   -691.34895   -193.92822    -3804.499 
20889000    149.41383   -4929.7741    -4641.617   -4929.7741            0    7132.4411    19.698345    19.866022    20.505653    8024.4313    5955.1488    8705.0787     6737.096    708.15018   -591.00429    107.99542   -3806.9209 
20890000    161.73599   -4924.4822   -4612.5608   -4924.4822            0     7009.237    19.950774    19.795704    20.423673    8066.1173    7049.4324    6773.9708    7204.3077   -77.153848    368.24564   -1417.1015   -3788.0219 
20891000    156.20143   -4921.1518   -4619.9043   -4921.1518            0    6612.8914    19.747271    19.726291    20.605864     8026.817     6743.788    7157.0438    5937.8423    137.18129    122.68091   -827.78511   -3845.7801 
20892000    165.36298   -4933.5816   -4614.6652   -4933.5816            0    8437.4885    19.678437    19.805793    20.543597    8006.8061    8084.1747    9111.9924    8116.2984   -725.30165    363.38726   -930.96856   -3629.4108 
20893000    154.49872   -4915.8824   -4617.9186   -4915.8824            0    8575.7588    19.826355    19.835607    20.391781    8019.4309    9735.5105    7346.8352    8644.9307   -265.78242    436.09871   -521.66654   -3614.9393 
20894000    157.12867    -4924.475   -4621.4391    -4924.475            0    6102.7117    19.877347     19.89126    20.479802     8097.416     5456.215     6285.571    6566.3491   -568.90456    774.36186    252.48147   -3900.7546 
20895000    157.97957   -4922.9351   -4618.2582   -4922.9351            0    6547.1948     19.78259    19.756744     20.54237    8028.7714    6578.7454    6350.7177    6712.1214   -272.93564    746.51458   -1387.5077    -3851.638 
20896000    155.77047   -4927.2582   -4626.8418   -4927.2582            0    6949.2818    19.776225    19.831785    20.498698     8039.545    6766.8435    6997.3501    7083.6519   -137.78753   -1148.7687    787.81772   -3812.0488 
20897000    157.30666   -4932.8107   -4629.4316   -4932.8107            0    7796.6763    19.786884     19.79834    20.429482    8003.1976    8020.0975     7824.916    7545.0153   -67.915782   -442.29972    777.35688   -3719.4158 
20898000    156.89447   -4930.3484   -4627.7642   -4930.3484            0    6661.1083    19.732014    19.824888    20.601209     8058.883    6345.7448    6590.8122    7046.7679   -317.63901    -409.1616    475.14047   -3844.8805 
20899000    163.07862   -4923.6327   -4609.1219   -4923.6327            0    5616.7483    19.712164     20.03814    20.432122     8070.588    6976.7218    3246.8422    6626.6808   -484.53916   -458.21646   -271.53249   -3948.0236 
20900000    162.65134   -4931.4498    -4617.763   -4931.4498            0    7071.0971    19.862268    19.838333    20.413196    8043.4992    7909.8135    5513.2076    7790.2702   -666.53856   -474.95149     662.9817   -3788.2795 
20901000    170.81815   -4924.2102    -4594.773   -4924.2102            0    7240.4187    19.841971    19.739321    20.628847    8079.6391    6658.2986    8051.8916    7011.0658   -288.84373    11.946062   -398.67947    -3741.611 
20902000    163.61345   -4923.9863    -4608.444   -4923.9863            0    7356.0627    19.783745    19.898548    20.513569    8075.5316    8118.2819    6574.6906    7375.2155    126.76801    446.05759    562.29669   -3742.0959 
20903000    163.72924   -4935.7507   -4619.9851   -4935.7507            0    7218.3487    19.807095    19.718055    20.636859    8059.8777    6358.4275     7251.398    8045.2206    340.60861   -502.43423    588.94248   -3771.5039 
20904000    157.67364   -4922.3246   -4618.2377   -4922.3246            0    6461.4154    19.765397    19.947059     20.43276    8055.8514    6041.6987     7203.863    6138.6843    -99.96239    705.76914    175.51341   -3859.1098 
20905000    157.26839   -4924.2722   -4620.9669   -4924.2722            0    7245.4716    19.730357    19.886602    20.461325    8028.4049    8487.6314    6143.7329    7105.0504    459.73957    -569.9987    163.48692   -3772.6232 
20906000    156.93069   -4932.0992   -4629.4452   -4932.0992            0    6103.0747    19.700003    19.840715    20.550826    8032.5402    5753.8181     6048.946    6506.4601     161.0717   -124.25703    350.05989   -3914.4922 
20907000    164.76871   -4924.5338   -4606.7635   -4924.5338            0    7269.4587    20.024822     19.87388    20.149314    8018.8407     5913.721    7407.4668    8487.1883   -600.71687   -747.01928    860.48102   -3756.6253 
20908000    153.76032    -4932.621   -4636.0813    -4932.621            0    7637.0871     19.79235    19.717059    20.573262    8028.6522    7955.2091    8191.9113     6764.141   -97.548082     1324.768    244.72256   -3741.8574 
20909000    154.38118   -4931.9451    -4634.208   -4931.9451            0    7047.4851    19.809049    19.829891    20.555033    8074.2491    8479.9351    7168.5516    5493.9686    408.36707    398.70794   -560.80532   -3804.3339 
20910000    158.09861   -4922.3376   -4617.4311   -4922.3376            0    7412.2994    19.762143    19.931485    20.446871    8053.7945    7820.7303    6817.7316    7598.4364   -213.74975     400.3729   -747.86053   -3746.8096 
20911000     159.5401   -4928.8515    -4621.165   -4928.8515            0    8184.4829    19.759512    19.811599    20.430018    7997.6885     8624.729    8698.4048    7230.3149    214.72758   -77.212933    238.72172   -3666.5426 
20912000    159.65847   -4917.6977   -4609.7829   -4917.6977            0    6750.0296    19.704886    19.726271    20.663185     8031.861    5891.4483    8456.1521    5902.4884   -11.292099   -338.61488    115.11105   -3819.1084 
20913000    157.37121   -4902.9328   -4599.4292   -4902.9328            0    9785.2402    19.839126    19.504425    20.523706    7941.6632    10191.203    9304.0738    9860.4437    69.978777    123.47902   -768.33852   -3466.0928 
20914000    161.50217   -4933.3628   -4621.8923   -4933.3628            0    6886.4312    19.814462     19.76639    20.420019    7997.7125    4979.9639    8891.5766    6787.7532   -363.42006    414.77819   -1036.4885   -3818.6697 
20915000    159.35146   -4930.1221   -4622.7994   -4930.1221            0     7891.362    19.777143     19.80921     20.55968    8054.6568    7519.9331    7825.5264    8328.6264    -177.8797   -263.70251   -75.156128   -3695.8097 
20916000     160.0475   -4911.8545   -4603.1894   -4911.8545            0    8375.0578    19.738188    19.761974    20.502637    7997.3728    7470.1386    10019.634    7635.4012    280.97348    359.06388   -1291.6384   -3626.3773 
20917000    155.71035   -4913.6153   -4613.3148   -4913.6153            0    7541.1651    19.762863    19.790423    20.495813    8016.2287    8423.0903    6610.6816    7589.7235   -350.85812    571.66611   -172.90842   -3731.6887 
20918000    164.52693   -4906.7545   -4589.4505   -4906.7545            0    7830.6228    19.763467    19.971023    20.295008    8010.3714    8172.2203    8565.9349    6753.7131   -428.33096    578.37733   -49.075738   -3674.6532 
20919000     162.7771   -4905.8144   -4591.8851   -4905.8144            0    7874.2398    19.540876    19.846304    20.620112    7996.7715    8713.7152    8248.4554    6660.5487    18.664137   -647.06931    14.683425   -3673.5541 
20920000    157.07445   -4914.6679   -4611.7366   -4914.6679            0    6618.1357     19.81488     19.82208      20.4929    8049.0401     6730.767    7544.0855    5579.5546   -324.01248    563.87268   -144.10245   -3834.8535 
20921000    161.61063   -4914.4564   -4602.7767   -4914.4564            0    7414.2568    19.763173    20.026663    20.235771     8009.124    7197.2739    7148.0623    7897.4343   -87.418865   -203.21942    354.94348   -3736.7554 
20922000    158.35492   -4927.6862   -4622.2855   -4927.6862            0    8072.6618    19.727162    19.743778    20.572158    8012.6231    6977.1613    8793.7047    8447.1194   -318.43979    1661.2525    1055.0847   -3678.9474 
20923000    154.31744   -4926.0614   -4628.4473   -4926.0614            0    8065.2506    19.820236    19.707938    20.505789    8009.8891    7759.5844    9361.3273      7074.84   -229.06133   -1204.4557    666.76305   -3686.2968 
20924000    161.20926   -4922.6764   -4611.7708   -4922.6764            0    7293.5441    19.905144    19.795028     20.39078    8034.4341    7031.1571     7715.933     7133.542    648.50578    1597.4513   -836.76787   -3757.1572 
20925000    163.33531   -4937.3192   -4622.3133   -4937.3192            0    7247.1952    19.842193    19.973305    20.331308    8057.5857    5972.5769     7191.363    8577.6456    728.14073   -804.85042   -412.32322   -3770.6837 
20926000    161.40805   -4946.1163   -4634.8273   -4946.1163            0    7314.0814    19.725137    19.879427    20.510426     8042.639      6416.95    7161.2971     8363.997   -896.21797    181.03822   -1217.4884   -3776.9321 
20927000    157.42033   -4923.3616   -4619.7632   -4923.3616            0    5432.9638    19.861542    19.953963    20.507071    8127.2901    4110.9064    6382.5628    5805.4223   -505.71191    881.38048    859.70407   -3975.8039 
20928000    157.87391   -4921.9014   -4617.4282   -4921.9014            0    6275.3097    19.786569    19.792703    20.567905    8055.0025    5242.7839    8033.9586    5549.1867    84.261828   -1329.1235    201.13057   -3880.2428 
20929000    155.71741   -4906.1945   -4605.8804   -4906.1945            0    5435.0455    19.953868    19.818551    20.502436    8107.8269    5554.4582    4764.5206    5986.1576    -486.9458   -614.05432    681.95172    -3963.217 
20930000    165.36961   -4927.0987   -4608.1695   -4927.0987            0    6816.9167    19.713015    19.911247    20.550287    8066.2076    7924.5214    5504.3453    7021.8835   -540.53029    856.45163   -856.84901   -3806.2454 
20931000    156.68817   -4922.1839   -4619.9976   -4922.1839            0     8037.938    19.547973    19.936394    20.625522    8038.0979    8899.0461    8262.6766    6952.0914    125.99262    479.74367    829.42333   -3677.7309 
20932000    160.20788   -4926.8494    -4617.875   -4926.8494            0    7543.8475    19.865677    19.744821    20.537376    8055.6674    7731.9392    7477.8293     7421.774   -47.159721    469.34305   -35.081338   -3731.5963 
20933000      154.058   -4923.9216   -4626.8078   -4923.9216            0    7388.5032    19.909435    19.767772    20.322805    7998.3483    4614.6796    8722.9442    8827.8858    190.50716    1497.1962    581.49704   -3764.9559 
20934000    155.39437   -4930.2971    -4630.606   -4930.2971            0    6599.4015    19.735913    19.826899    20.438305    7997.5485    7304.5839    6147.7474    6345.8731    148.05358    898.77163    1053.8116   -3860.8779 
20935000    161.42441   -4914.0153   -4602.6947   -4914.0153            0    7454.8653    19.789233     19.82402    20.520618    8050.2825    7923.9646    7447.5457    6993.0855    268.10436    646.50978   -72.287889   -3727.4554 
20936000    161.86788   -4923.7464   -4611.5706   -4923.7464            0    6032.3978    19.826221    19.872477    20.536901    8091.4594    5190.4943    7249.9144    5656.7846   -537.21683   -53.635369   -973.17219   -3899.7137 
20937000    151.52235   -4918.5233   -4626.2997   -4918.5233            0    6217.0803    19.736689    19.960774     20.48284    8069.4113    5718.3523    6465.5029    6467.3857    553.05553    71.994075   -171.24325   -3894.6483 
20938000    167.74333   -4922.2635   -4598.7564   -4922.2635            0    8007.7901    19.863253    19.592539    20.511102    7982.3373    7674.0509    7315.1181    9034.2013    698.45881   -124.18336    858.40729   -3666.5359 
20939000    149.83317   -4920.9139    -4631.948   -4920.9139            0    7112.5892    20.009401    19.680862    20.424937    8043.3862    6246.9908    7384.3908     7706.386    201.67281   -311.92219   -249.46377   -3797.6091 
20940000    169.30497   -4910.6657   -4584.1468   -4910.6657            0    7347.2061    19.730359    19.679813    20.540716      7975.75    7890.1249    7358.0516    6793.4418     200.9323   -110.92646    321.18926   -3729.5335 
20941000    161.36494   -4919.1149    -4607.909   -4919.1149            0    7207.1662    19.873285     19.59744    20.568699    8010.7992    6786.7432    7855.9257    6978.8298   -474.55159    1986.6609    1306.2767   -3765.9009 
20942000    160.98984   -4919.2575   -4608.7751   -4919.2575            0    6948.8775    19.739421    19.878856    20.449431    8024.2977    6206.6659    6329.4844    8310.4823   -725.15542    993.44337   -525.55189   -3795.5747 
20943000    163.65662   -4924.3277   -4608.7021   -4924.3277            0    8165.9373    19.911307    19.732428    20.408466    8018.4544    7323.6402    8025.1437    9149.0281     769.6145    349.62663    480.95272   -3653.7698 
20944000    160.50278   -4917.2941    -4607.751   -4917.2941            0    6460.8727    19.849788    19.709938    20.666131    8085.3779    5205.7818    7308.5308    6868.3054   -245.55188   -492.33692    -741.9891   -3845.9047 
20945000      163.647   -4928.5994   -4612.9924   -4928.5994            0    7185.3563    19.832446     19.84057    20.354013    8009.0401    6694.6666    8156.6502    6704.7522    430.45151   -636.72551    1408.4442   -3773.7166 
20946000    157.92592   -4916.5152   -4611.9418   -4916.5152            0    7067.8716    19.854534    19.757602    20.455436    8024.2172    6144.5561     7182.697    7876.3616    723.52314    292.75957    207.23765   -3784.8243 
20947000    153.12596   -4907.5767   -4612.2604   -4907.5767            0    6950.8951    19.779742    19.819658    20.464785    8022.7632    5563.1616    7503.3908    7786.1328   -419.23344    284.38729    1573.8333   -3798.9795 
20948000    159.03468   -4914.6602   -4607.9484   -4914.6602            0    8124.8581    19.763219     19.89126    20.436862    8034.0435    8453.3055    7259.9217    8661.3473   -111.61158    1261.4474    337.40508   -3655.9727 
20949000     158.2033   -4904.1269   -4599.0185   -4904.1269            0    7544.9255    19.744383    19.852071    20.506724    8037.9569    6298.7802    8648.4553    7687.5409    47.266892    620.54129     723.2984    -3714.562 
20950000    156.29167   -4924.9888   -4623.5671   -4924.9888            0    7680.0421    19.830912    19.645737    20.741487    8080.7357    5883.9215    9794.2412    7361.9635   -665.27544   -609.44324   -60.780871     -3718.48 
20951000    153.73935    -4917.524   -4621.0247    -4917.524            0    5744.4614    19.832753    19.830691    20.488764    8058.1733    4668.5848    6674.7972    5890.0021   -287.25447   -1553.9933    -283.7218   -3945.9345 
20952000    157.32202   -4922.2527   -4618.8439   -4922.2527            0    5290.6623    19.761233    19.921099    20.565098    8095.7689    4738.0394    5430.5442    5703.4035   -94.505895    -223.7478   -980.40963   -3994.1834 
20953000    155.17625   -4932.5209   -4633.2505   -4932.5209            0    6073.3639    19.701658    19.996791    20.405051    8038.9769     6086.757     5261.618    6871.7166   -145.47274    417.13098    242.46909   -3921.2079 
20954000    155.23751   -4930.3217   -4630.9331   -4930.3217            0    6389.5624    19.810752    19.775905    20.536279    8045.6119     7635.415    5216.2692    6317.0029    41.081634   -826.86657    677.69513   -3881.2011 
20955000    152.93517   -4922.4238   -4627.4754   -4922.4238            0    9392.3186    19.513553    19.807961    20.547084    7941.9352    11260.929    9600.8729    7315.1533    -403.3881   -491.27076    79.297695   -3539.6103 
20956000    154.07286   -4928.3349   -4631.1924   -4928.3349            0    7002.4291    19.789036    19.891226    20.386111    8024.5478    6208.3548    8489.0167    6309.9159   -361.45687   -156.10462    246.37526   -3811.6995 
20957000    159.61804   -4927.6419    -4619.805   -4927.6419            0    6302.3443    19.809197    19.729045    20.644858    8068.3519    5567.1475    6748.0373    6591.8482   -444.74885    179.04191   -402.57892   -3878.2168 
20958000    157.94824   -4903.9492   -4599.3328   -4903.9492            0    8281.6183    19.636779    19.755794    20.515491    7958.7825    8207.7886    8264.6344    8372.4318    482.36443   -1120.6825    918.62684   -3638.0797 
20959000    156.65588   -4924.2038   -4622.0797   -4924.2038            0    5602.8564     19.98177      19.8114    20.402453    8076.6549    5427.2109    5719.7381    5661.6202    495.07659    219.21495    295.86339   -3962.1208 
20960000    165.31682   -4916.2917   -4597.4643   -4916.2917            0    6774.7567    19.968779    19.810852    20.360071    8054.4145    6444.7053    6812.7063    7066.8586   -313.31402   -210.33163   -19.530917    -3801.665 
20961000    160.42122   -4913.5471   -4604.1613   -4913.5471            0    7290.4037    19.602492    19.785681    20.526109    7961.0237    8067.8394    6507.5024    7295.8692   -45.922375     396.5198    71.445445   -3757.7209 
20962000    161.01802   -4927.9707   -4617.4339   -4927.9707            0    5852.9389    19.845734    19.888541    20.446888    8070.4417    5329.1153    6570.0798    5659.6216    72.043392   -862.41144   -303.59374   -3928.5482 
20963000    163.07011    -4913.025   -4598.5305    -4913.025            0    7332.6409    19.657179    19.787121    20.631137    8024.6662    8259.3842    6589.2627    7149.2758    295.27849   -1466.7901   -406.72002   -3740.3804 
20964000    155.93431   -4912.3192   -4611.5868   -4912.3192            0    6717.5698    19.687005    19.951012    20.555587    8073.7347    7431.5427    5796.8541    6924.3126   -114.59634    995.10462   -988.81981   -3820.6122 
20965000    157.62619   -4938.4974   -4634.5021   -4938.4974            0     8699.425    19.603293    19.940926    20.296841    7934.1939    8893.0716    9272.0854     7933.118   -305.84714    810.11803   -818.03024   -3627.8735 
20966000    159.90519   -4931.0218   -4622.6312   -4931.0218            0    7387.8535    19.786099    19.673288    20.610151    8022.6587    6030.3597    9925.3104    6207.8904     111.6207    913.72819   -513.26893   -3758.2357 
20967000    152.47348   -4926.8669    -4632.809   -4926.8669            0    7189.3096    19.626076    19.778295    20.566831    7983.4336    6768.0843    7381.5123    7418.3322    96.934271    15.362033    96.744562   -3795.7563 
20968000    164.58741   -4925.7702   -4608.3496   -4925.7702            0    5554.5897    19.808068    19.947838    20.449097    8080.0131    6467.8509    5293.8391     4902.079    11.906317    1078.3697   -449.05631   -3953.8039 
20969000    159.12142   -4916.2021   -4609.3231   -4916.2021            0    8170.8476    19.904682    19.858897     20.41698    8070.5264    7435.9468    9118.7822    7957.8139    565.88196    62.528066    -14.56958   -3647.6114 
20970000    158.56922   -4938.4052   -4632.5911   -4938.4052            0    7099.1466    19.790366    19.727996    20.536843     8018.082    7218.4863    8233.2143    5845.7391   -347.14446    985.60689   -159.14445   -3802.4488 
20971000    166.05264   -4928.8564     -4608.61   -4928.8564            0    9479.7163    19.875407    19.484649    20.482305    7932.0865    8536.0548    11186.735    8716.3591    280.60183    451.93788     832.7136   -3511.9836 
20972000    152.28307   -4922.0872   -4628.3965   -4922.0872            0    6951.1997    19.945829    19.806817    20.408624    8062.7003    8218.8573    5720.8417    6913.9002   -524.32266    204.79713   -303.54701   -3811.0312 
20973000    160.19642   -4932.6461   -4623.6939   -4932.6461            0    6045.0903    19.809527    19.710271    20.519339    8011.7993    4595.8101    6905.7044    6633.7564   -467.16377    112.50237   -145.74206   -3917.3621 
20974000    155.60482    -4915.435    -4615.338    -4915.435            0    8607.6481    19.725395     19.69777    20.621064    8012.2382     9490.802    9106.8996    7225.2427    2.4893437   -99.430972    205.78848   -3609.5319 
20975000     155.3417   -4934.5434   -4634.9538   -4934.5434            0    6437.8407    19.853512    19.930707    20.476619     8102.486    6141.1636    6389.8142    6782.5445   -200.97424    1911.5824    468.93569   -3874.2171 
20976000    163.44309   -4932.3352   -4617.1214   -4932.3352            0     7340.957    19.865457    19.823346    20.431782    8046.0323     7420.982    6701.0273    7900.8617    351.64326    -189.8685    848.30264   -3755.7106 
20977000    167.14927   -4890.6995   -4568.3381   -4890.6995            0    6921.8765    19.757024    19.878818    20.332625    7985.5629    6456.5496     7313.678     6995.402   -447.74624    596.84701    -1009.345   -3762.2077 
20978000    165.16039   -4920.4496   -4601.9239   -4920.4496            0    6424.5426    19.807787    19.785818    20.551843    8054.5398      6716.44    6658.4575    5898.7302   -112.42398    152.45984    651.25481   -3847.2508 
20979000    162.22683   -4918.8644   -4605.9963   -4918.8644            0    7825.6116    19.990513    19.795283    20.370887    8061.1237    6585.3143    8334.1327    8557.3878    457.14383   -1007.3044   -147.24801   -3685.9922 
20980000    168.67577   -4916.8101   -4591.5047   -4916.8101            0    7564.8231    19.875035    19.724419    20.541427    8052.7224    7528.5079    8074.0164    7091.9452    764.03252      247.099   -1123.1805   -3703.0866 
20981000    167.89669   -4925.4847   -4601.6818   -4925.4847            0    7562.2437    19.726722    19.831152    20.525381    8029.6033    8080.4607    8001.5101    6604.7602    14.335586   -750.06251    1601.6723   -3716.1164 
20982000     164.6889   -4930.4853   -4612.8689   -4930.4853            0    6556.2979    19.789463    19.879732    20.467526    8052.1132    7385.3452    5894.8392    6388.7094   -828.45914    175.84131    1091.2413   -3842.9509 
20983000     157.7124   -4928.9195   -4624.7579   -4928.9195            0    7512.9896    19.753945     19.89498    20.493383    8053.9887    8051.4774    6322.9431    8164.5483   -899.03945    728.56117   -388.62302   -3742.2884 
20984000    160.78291   -4909.9404   -4599.8571   -4909.9404            0    8417.5444    19.596096    19.873802    20.538857    7998.8359    8777.8444    8417.2345    8057.5542    179.37233   -269.44043    9.2423859     -3617.91 
20985000    152.82016   -4927.5608   -4632.8343   -4927.5608            0    7669.8484    19.766692    20.058761    20.348483    8068.0788    7168.0029     6847.477    8994.0652    5.9170428     1076.948    2.0668586   -3730.3643 
20986000    158.94681    -4933.879   -4627.3368    -4933.879            0    6396.0049    19.832279    19.842389    20.402725     8028.876    5932.1459    6443.2197    6812.6489     96.63601    343.57597     9.515033   -3878.4099 
20987000      157.438   -4920.1246   -4616.4921   -4920.1246            0    6512.9625    19.586121    19.946223    20.627951    8058.7038    8477.3058    5147.4771    5914.1045    136.49176    679.23944    859.19478   -3851.0371 
20988000    161.42198   -4912.0678    -4600.752   -4912.0678            0    8188.5232     19.55315    20.000193    20.449651    7997.1792    10345.498    6318.3112    7901.7604    103.12569    1372.0508   -164.09425   -3645.7191 
20989000    146.54795   -4894.8282   -4612.1981   -4894.8282            0    7641.0373      19.8027    19.777573     20.45478     8011.101    8519.2022    7492.2642    6911.6455    -450.4881   -421.92029    1504.0468   -3719.4676 
20990000    162.52422   -4922.0273   -4608.5857   -4922.0273            0    8502.7252    19.832764    19.839279    20.416804    8033.3537    9564.6642    7743.6336    8199.8777    60.041924    453.24165   -580.69717   -3612.4215 
20991000    153.40421   -4923.0211   -4627.1682   -4923.0211            0    6763.9365    19.789411     19.81386    20.497748    8037.2617    8105.7657    4376.8842    7809.1595   -65.484643    10.413533   -1464.1101   -3834.3319 
20992000    152.36282    -4917.075   -4623.2305    -4917.075            0    5168.7799    20.145554    19.701539    20.466321    8123.0505    5316.8417    6124.6756    4064.8225   -564.99016    -168.2997    318.40576    -4010.904 
20993000    160.75137   -4914.6374   -4604.6148   -4914.6374            0    6925.3919     19.80055    19.793762    20.502203    8035.3748    4799.8945     8578.393    7397.8881   -347.40456    352.89848   -99.501296   -3793.0441 
20994000    163.91753   -4921.2454   -4605.1166   -4921.2454            0    6483.7163     19.72486    19.699121     20.73706    8057.6417    6277.3451    7449.0348     5724.769   -287.14326   -577.15566   -976.48651   -3843.1993 
20995000    161.01251   -4897.7426   -4587.2165   -4897.7426            0    7420.0881    19.826547    19.970319    20.331321    8050.0334    7083.0632    7585.6519    7591.5492    52.402028   -614.48849    339.96445   -3716.0871 
20996000     163.5321   -4917.3224    -4601.937   -4917.3224            0      7591.08    19.828596    19.767082     20.41911    8003.3415    7930.1315    6887.7077    7955.4007    533.11975   -767.95241   -160.69784   -3715.9021 
20997000     152.0426   -4909.0379   -4615.8109   -4909.0379            0    6479.5054    19.603069    19.777412    20.698293    8024.6866    7406.8842    7057.5211    4974.1109    239.30066    962.61024    -344.5825   -3857.5026 
20998000     160.5749   -4911.5854   -4601.9032   -4911.5854            0     7876.018    19.918346    19.812009     20.42728    8061.0635    7675.4647    7100.8332    8851.7562    383.98646     405.6216   -582.56649   -3675.9801 
20999000    147.66323   -4911.2892   -4626.5082   -4911.2892            0    8607.6374    19.999121    19.740313    20.331432    8026.6236    7725.8296     8594.699    9502.3835    22.645036    162.74505   -459.45491   -3618.8976 
21000000     162.0506    -4903.568   -4591.0398    -4903.568            0    7890.3791    19.849798    19.623323    20.687028    8057.9905    8306.8952    8429.9659    6934.2762    -158.3824   -1017.0851    580.79656    -3663.782 
Loop time of 384.315 on 64 procs for 250000 steps with 972 atoms

Performance: 112.408 ns/day, 0.214 hours/ns, 650.509 timesteps/s
195.2% CPU use with 32 MPI tasks x 2 OpenMP threads

MPI task timing breakdown:
Section |  min time  |  avg time  |  max time  |%varavg| %total
---------------------------------------------------------------
Pair    | 27.634     | 36.823     | 50.044     |  77.1 |  9.58
Bond    | 0.95389    | 1.2834     | 2.0904     |  17.5 |  0.33
Kspace  | 165.13     | 176.78     | 189.55     |  41.1 | 46.00
Neigh   | 1.195      | 1.3057     | 1.4246     |   6.2 |  0.34
Comm    | 68.952     | 74.088     | 78.612     |  29.4 | 19.28
Output  | 0.56131    | 0.5616     | 0.56313    |   0.0 |  0.15
Modify  | 75.419     | 78.98      | 82.647     |  17.7 | 20.55
Other   |            | 14.49      |            |       |  3.77

Nlocal:        30.3750 ave          35 max          24 min
Histogram: 2 1 1 3 4 4 7 3 3 4
Nghost:        2723.44 ave        2753 max        2691 min
Histogram: 1 1 2 5 7 4 7 2 1 2
Neighs:        9751.31 ave       12154 max        7504 min
Histogram: 1 2 6 5 3 5 4 2 2 2

Total # of neighbors = 312042
Ave neighs/atom = 321.03086
Ave special neighs/atom = 2.0000000
Neighbor list builds = 3547
Dangerous builds = 0

unfix		3
unfix		2
unfix		1

write_data	data.final.${pid}
write_data	data.final.1
System init for write_data ...
PPPM initialization ...
  extracting TIP4P info from pair style
  using 12-bit tables for long-range coulomb (../kspace.cpp:340)
  G vector (1/distance) = 0.37327912
  grid = 24 24 25
  stencil order = 5
  estimated absolute RMS force accuracy = 0.0033026596
  estimated relative force accuracy = 9.9458612e-06
  using double precision FFTW3
  3d grid and FFT values/proc = 3458 576
Last active /omp style is kspace_style pppm/tip4p/omp
WARNING: Not all mixed pair coeffs generated from mixing. Use write_data with 'pair ij' option to store all pair coeffs. (../write_data.cpp:312)

write_restart   restart.lmp.${pid}
write_restart   restart.lmp.1
System init for write_restart ...
PPPM initialization ...
  extracting TIP4P info from pair style
  using 12-bit tables for long-range coulomb (../kspace.cpp:340)
  G vector (1/distance) = 0.37327912
  grid = 24 24 25
  stencil order = 5
  estimated absolute RMS force accuracy = 0.0033026596
  estimated relative force accuracy = 9.9458612e-06
  using double precision FFTW3
  3d grid and FFT values/proc = 3458 576
Last active /omp style is kspace_style pppm/tip4p/omp
Total wall time: 0:06:24
