LAMMPS (30 Jul 2021)
  using 1 OpenMP thread(s) per MPI task
package omp 0
using multi-threaded neighbor list subroutines
echo both

include		in.partitions
variable        pid world 0
include		in.temp
variable        temperature equal 247.87
variable	tempDamp equal 100.0
include		in.pressure
variable        pressure equal 11750.0
variable        pressureDamp equal 1000.0 # This is 1 ps
include		in.seed
variable        seed world 745823

units		real
atom_style	full
read_restart	restart.lmp.${pid}
read_restart	restart.lmp.0
Reading restart file ...
  restart file = 30 Jul 2021, LAMMPS = 30 Jul 2021
  restoring atom style full from restart
  orthogonal box = (0.71538533 1.9341607 0.87276843) to (17.492187 21.695017 21.340427)
  4 by 4 by 4 MPI processor grid
  restoring pair style lj/cut/tip4p/long/omp from restart
  restoring bond style harmonic/omp from restart
  restoring angle style harmonic/omp from restart
  864 atoms
  576 bonds
  288 angles
Finding 1-2 1-3 1-4 neighbors ...
  special bond factors lj:    0        0        0       
  special bond factors coul:  0        0        0       
     2 = max # of 1-2 neighbors
     1 = max # of 1-3 neighbors
     1 = max # of 1-4 neighbors
     2 = max # of special neighbors
  special bonds CPU = 0.083 seconds
  read_restart CPU = 0.223 seconds
include 	in.setup
variable	out_freq equal 1000
variable	out_freq2 equal 10000
variable	out_freq3 equal 1000

timestep	2.0

neigh_modify    delay 7 every 1

include		in.tip4p
# This is TIP4P/Ice

# create groups ###
group ox type 2
288 atoms in group ox
group hy type 1
576 atoms in group hy

# set charges - beside manually ###
set group ox charge -1.1794
Setting atom values ...
  288 settings made for charge
set group hy charge 0.5897
Setting atom values ...
  576 settings made for charge

# ### TIP3P Potential Parameters ###
pair_style lj/cut/tip4p/long/omp 2 1 1 1 0.1577 8.5
pair_coeff 1 1*2 0.000 0.000
pair_coeff 2 2 0.21084 3.1668
bond_style  harmonic
bond_coeff  1 450 0.9572
angle_style harmonic
angle_coeff 1 55 104.52
kspace_style pppm/tip4p/omp 1.0e-5
pair_modify tail yes

thermo          ${out_freq}
thermo          1000
thermo_style    custom step temp pe etotal epair emol press lx ly lz vol pxx pyy pzz pxy pxz pyz enthalpy

restart 	${out_freq3} restart.lmp.${pid} restart2.lmp.${pid}
restart 	1000 restart.lmp.${pid} restart2.lmp.${pid}
restart 	1000 restart.lmp.0 restart2.lmp.${pid}
restart 	1000 restart.lmp.0 restart2.lmp.0


include         in.dump
dump            myDump all atom ${out_freq2} dump.water.${pid}
dump            myDump all atom 10000 dump.water.${pid}
dump            myDump all atom 10000 dump.water.0
dump            myDump2 all dcd ${out_freq2} dump.dcd
dump            myDump2 all dcd 10000 dump.dcd
dump_modify     myDump append yes
dump_modify     myDump2 append yes


variable natoms 	equal  "count(all)"                        # NUMBER ATOMS
variable H      	equal  "enthalpy/v_natoms"                 # ENTHALPY-per-atom
variable Vol      	equal  "vol/v_natoms"                 # volume-per-atom
fix AVG all 		ave/time ${out_freq} 1 ${out_freq} v_Vol v_H file vol_enthalpy.dat
fix AVG all 		ave/time 1000 1 ${out_freq} v_Vol v_H file vol_enthalpy.dat
fix AVG all 		ave/time 1000 1 1000 v_Vol v_H file vol_enthalpy.dat


timer           timeout 23:50:00 every 1000
New timer settings: style=normal  mode=nosync  timeout=23:50:00

fix 		1 all shake 1e-6 200 0 b 1 a 1
       0 = # of size 2 clusters
       0 = # of size 3 clusters
       0 = # of size 4 clusters
     288 = # of frozen angles
  find clusters CPU = 0.143 seconds
fix             2 all nph iso ${pressure} ${pressure} ${pressureDamp}
fix             2 all nph iso 11750 ${pressure} ${pressureDamp}
fix             2 all nph iso 11750 11750 ${pressureDamp}
fix             2 all nph iso 11750 11750 1000
fix             3 all temp/csvr ${temperature} ${temperature} ${tempDamp} ${seed}
fix             3 all temp/csvr 247.87 ${temperature} ${tempDamp} ${seed}
fix             3 all temp/csvr 247.87 247.87 ${tempDamp} ${seed}
fix             3 all temp/csvr 247.87 247.87 100 ${seed}
fix             3 all temp/csvr 247.87 247.87 100 745823

run             250000
PPPM initialization ...
  extracting TIP4P info from pair style
  using 12-bit tables for long-range coulomb (../kspace.cpp:340)
  G vector (1/distance) = 0.37522784
  grid = 24 24 24
  stencil order = 5
  estimated absolute RMS force accuracy = 0.0030524928
  estimated relative force accuracy = 9.1924914e-06
  using double precision FFTW3
  3d grid and FFT values/proc = 2535 216
Last active /omp style is kspace_style pppm/tip4p/omp
Neighbor list info ...
  update every 1 steps, delay 7 steps, check yes
  max neighbors/atom: 2000, page size: 100000
  master list distance cutoff = 10.8154
  ghost atom cutoff = 10.8154
  binsize = 5.4077, bins = 4 4 4
  1 neighbor lists, perpetual/occasional/extra = 1 0 0
  (1) pair lj/cut/tip4p/long/omp, perpetual
      attributes: half, newton on, omp
      pair build: half/bin/newton/omp
      stencil: half/bin/3d
      bin: standard
Per MPI rank memory allocation (min/avg/max) = 9.237 | 9.242 | 9.247 Mbytes
Step Temp PotEng TotEng E_pair E_mol Press Lx Ly Lz Volume Pxx Pyy Pzz Pxy Pxz Pyz Enthalpy 
31500000    252.09684   -3893.8241   -3461.7387   -3893.8241            0    10252.183    16.776802    19.760856    20.467659    6785.5196    11684.774    9182.4961    9889.2789    2761.6621   -1257.0089   -941.91589   -2447.1843 
31501000    252.86921   -3903.2627   -3469.8536   -3903.2627            0    11852.702    16.730635    19.706478    20.411335    6729.6558    12258.055    10547.767    12752.285   -767.60649   -375.27245   -1578.1853   -2306.5686 
31502000    240.31361   -3902.9128   -3491.0235   -3902.9128            0    9544.8009     16.79193    19.778676    20.486116     6803.893    10366.541     9248.369    9019.4931   -525.66655    1109.4204   -681.74272   -2543.9139 
31503000    256.66578   -3959.3335   -3519.4171   -3959.3335            0    9690.7223    16.796603    19.784179    20.491816    6809.5739    10395.698    10159.772    8516.6973   -493.65756   -960.58627   -736.01258   -2557.0252 
31504000    225.33919   -3941.8033   -3555.5797   -3941.8033            0    10947.974    16.787708    19.773702    20.480964     6798.761    10332.643    12001.055    10510.223   -77.628741   -1731.6075   -1352.7848   -2470.0557 
31505000    249.02859   -3911.6439   -3484.8174   -3911.6439            0    12074.279    16.777043     19.76114    20.467953     6785.812    12385.652    12680.779    11156.405    24.704872   -2041.8277   -2371.7609   -2289.8972 
31506000    250.35634   -3901.2166   -3472.1144   -3901.2166            0    11021.947      16.7797     19.76427    20.471194    6789.0364    10075.523    11010.201    11980.116    -769.4006   -194.69192    459.01429    -2380.819 
31507000    252.25063   -3906.9743   -3474.6254   -3906.9743            0    12424.909    16.720756    19.694842    20.399283    6717.7416    12821.276    13647.272     10806.18    906.92844     1441.842     925.4522     -2257.34 
31508000    254.13405    -3903.871    -3468.294    -3903.871            0    12108.673    16.795535    19.782922    20.490514    6808.2758     12211.22    11719.791     12395.01   -749.41521   -690.34707    13.858529    -2266.003 
31509000    265.08247   -3889.8808   -3435.5385   -3889.8808            0    14622.927    16.712583    19.685215    20.389312    6707.8956    13701.586    16050.112    14117.084   -502.75557   -754.21772    387.27043     -2005.01 
31510000    240.75438   -3882.4433   -3469.7986   -3882.4433            0     10771.58    16.776118    19.760051    20.466824    6784.6896     10651.94    11643.322    10019.478   -231.70563   -1537.9688   -380.29231   -2403.9751 
31511000    252.28914   -3911.7371   -3479.3222   -3911.7371            0    11962.686    16.765968    19.748096    20.454442    6772.3828    14177.677     12838.55     8871.832   -1188.9806    1096.7185    252.86501   -2297.7885 
31512000    255.98157   -3894.1416    -3455.398   -3894.1416            0     10016.56    16.817188    19.808426     20.51693    6834.6415    11052.866    10906.126    8090.6865   -101.25103   -919.05848   -1724.9459    -2456.985 
31513000    259.45322   -3913.0839     -3468.39   -3913.0839            0    10960.508    16.737134    19.714133    20.419265    6737.5018    9381.5668     10640.71    12859.247   -477.78152    1475.6514   -592.84606   -2391.4154 
31514000    239.38763   -3925.0796   -3514.7774   -3925.0796            0    10378.531    16.796199    19.783704    20.491324    6809.0831     11324.33    10924.048    8887.2152    1721.6626    850.05233   -1654.5713    -2484.153 
31515000    248.92205   -3922.1681   -3495.5243   -3922.1681            0    11110.012    16.761349    19.742655    20.448807    6766.7867    10482.776    11422.632    11424.627   -570.92245     22.50393    435.03276   -2399.1145 
31516000    245.91016   -3888.9631   -3467.4815   -3888.9631            0    12289.008    16.664157    19.628176    20.330232    6649.7547    12599.561    13970.137    10297.326     -628.519   -2364.0265    -214.1113   -2275.6953 
31517000    247.00742   -3901.3013   -3477.9391   -3901.3013            0    12473.052      16.7588    19.739653    20.445697    6763.7005    9754.0708    14861.613    12803.471     20.22124   -1262.5305    1703.2046   -2247.5769 
31518000    237.56026   -3918.8657   -3511.6955   -3918.8657            0    11654.279    16.729311    19.704918     20.40972    6728.0579     11333.13    13784.132    9845.5746   -1374.2387    1201.3585    432.08773   -2368.1564 
31519000    239.49636   -3903.7868   -3493.2982   -3903.7868            0    11681.354    16.764969    19.746918    20.453222    6771.1715     12273.66    12074.689    10695.714    2319.8085    428.65693    722.43367   -2339.7575 
31520000    235.66323   -3923.1901   -3519.2714   -3923.1901            0    9112.0116    16.799717    19.787848    20.495615    6813.3623    9500.5309    10313.633    7521.8713    1024.2404   -1013.5277    933.01707   -2613.8481 
31521000    251.38562   -3946.1136   -3515.2473   -3946.1136            0    11208.949    16.745453    19.723931    20.429413    6747.5524     9183.736    12721.863    11721.248    1344.0084    1146.5847     -911.319    -2412.218 
31522000     257.9026   -3933.3739   -3491.3376   -3933.3739            0    12201.247    16.713733    19.686569    20.390715    6709.2805    10539.537    13210.916    12853.289    1783.4867     3299.976    1446.4801   -2297.4703 
31523000    237.73868   -3934.4999    -3527.024   -3934.4999            0    11229.406    16.746131     19.72473     20.43024    6748.3721    12205.407    12438.548    9044.2633     528.6869    355.35274   -194.44349   -2421.8473 
31524000    248.62331   -3865.1425   -3439.0106   -3865.1425            0    10519.191    16.816431    19.807535    20.516007    6833.7188    10893.698    10513.848    10150.028    908.09256    2686.2887   -307.45083   -2390.6388 
31525000    254.75013   -3895.3535   -3458.7204   -3895.3535            0    12467.516     16.74285    19.720866    20.426238    6744.4069    13743.001     12281.56    11377.985     2087.726    520.48049   -361.97989   -2232.4124 
31526000    264.11942   -3912.6112   -3459.9196   -3912.6112            0    10157.235    16.770441    19.753365    20.459899    6777.8051    8994.1354    9357.1884    12120.381   -300.60482    -577.8973    364.33889    -2455.904 
31527000    246.38178   -3893.1096   -3470.8197   -3893.1096            0    12585.215    16.732691      19.7089    20.413844    6732.1371    13543.834    10963.559    13248.251    1176.1921   -2014.6004   -1142.3805   -2235.1868 
31528000    246.54428   -3915.5689   -3493.0004   -3915.5689            0    11652.094    16.727932    19.703295    20.408038    6726.3951    13986.706    9767.8818    11201.694    181.78236   -16.112874    8.1763425   -2349.9582 
31529000    233.40547   -3915.4601   -3515.4111   -3915.4601            0    12577.466    16.743664    19.721824    20.427231    6745.3902    13455.708     10563.26    13713.429   -721.15887   -2888.0284   -682.18541    -2278.108 
31530000    249.01391    -3898.813   -3472.0117    -3898.813            0    11416.657    16.818701    19.810209    20.518776    6836.4867    10030.192    12231.443    11988.334     72.68366   -3054.6751   -178.77154   -2333.7351 
31531000    256.06442   -3878.8895   -3440.0038   -3878.8895            0    11427.542     16.73606    19.712868    20.417954    6736.2045     11269.11    11412.487    11601.029   -362.92845    -1951.226    10.298332   -2317.3549 
31532000    243.11663   -3869.2913   -3452.5977   -3869.2913            0    12062.644    16.694889    19.664374    20.367726    6686.6132    11697.965    14460.312    10029.655   -588.42426     89.78457    917.08602   -2276.2801 
31533000    256.95806   -3894.5743    -3454.157   -3894.5743            0    13583.035    16.699416    19.669706    20.373248    6692.0536    11078.629    15080.299    14590.177   -519.97904   -828.23126    1100.6976   -2128.4971 
31534000    228.13596   -3927.5334   -3536.5162   -3927.5334            0    10949.004    16.761497     19.74283    20.448988    6766.9665    10508.645    11283.983    11054.385   -334.22886   -969.80816    4.7321344    -2455.967 
31535000    243.87568   -3969.9895   -3551.9949   -3969.9895            0    11371.901    16.749267    19.728424    20.434066    6752.1639    10106.087    13446.674    10562.942   -33.011125    781.84864   -785.80011   -2432.1654 
31536000    240.51659   -3938.0813   -3525.8441   -3938.0813            0    9697.5137    16.741092    19.718795    20.424093    6742.2827     9437.007    9870.5489    9784.9852   -340.29756    -184.9171   -1114.5425   -2572.2946 
31537000    250.43333   -3896.9246   -3467.6905   -3896.9246            0    13726.001    16.692271    19.661291    20.364532    6683.4683    12879.881    13754.322    14543.801    708.10964    269.13883   -869.97935   -2129.7961 
31538000    246.21075   -3925.2334   -3503.2366   -3925.2334            0     12883.59    16.706471    19.678016    20.381856    6700.5392    11488.033    13741.832    13420.904    898.58191    1365.1723     1286.008   -2244.2459 
31539000    252.51598   -3941.7143   -3508.9105   -3941.7143            0    10355.982    16.754086      19.7341    20.439945    6757.9938    10206.337    11334.844    9526.7652    -61.65512   -760.54909    887.44088   -2488.2414 
31540000    237.12128   -3919.9275   -3513.5097   -3919.9275            0    12452.021    16.692855    19.661978    20.365244    6684.1693    12824.351    14270.088    10261.624   -549.76619   -1216.5156   -480.70202   -2299.6649 
31541000    248.33568   -3926.1048   -3500.4659   -3926.1048            0    12473.421    16.672099    19.637531    20.339922    6659.2674    13217.167    11475.358    12727.737    531.27983   -194.46856    1088.5327   -2289.0649 
31542000    243.49672   -3915.6056   -3498.2606   -3915.6056            0    12567.829    16.689022    19.657464    20.360568    6679.5664    13026.474    11734.208    12942.806    1214.0587    1235.4001   -789.82577   -2273.9702 
31543000    246.64905   -3925.5703   -3502.8223   -3925.5703            0    9548.9774    16.801232    19.789632    20.497463    6815.2053    11465.698    9974.1118    7207.1225    223.00041    1062.1304    82.544644   -2553.7229 
31544000    243.64907   -3908.7547   -3491.1485   -3908.7547            0    13232.725    16.745632    19.724142    20.429632     6747.769    12629.088    12287.741    14781.345    425.96584   -1079.7384   -946.22792   -2188.9255 
31545000     238.7752   -3957.6383   -3548.3858   -3957.6383            0     11583.63     16.76397    19.745743    20.452005    6769.9621     14151.69    10883.747    9715.4542    267.59236    315.71677    596.51958   -2404.6998 
31546000    250.67914   -3927.4536   -3497.7981   -3927.4536            0    11874.786    16.736462    19.713341    20.418444    6736.6897    12147.124    12103.229    11374.007   -253.66456   -38.326377   -1294.9993   -2331.1275 
31547000    252.30144   -3958.9416   -3526.5055   -3958.9416            0    12883.868    16.732798    19.709026    20.413975    6732.2667    13248.168    13450.642    11952.795   -602.06991    566.04728    266.57966    -2261.526 
31548000    243.93961   -3901.0587   -3482.9545   -3901.0587            0     12210.11    16.655177    19.617598    20.319277    6639.0102    10274.717    13732.214      12623.4     1295.511    149.71533    507.58339   -2300.7332 
31549000    259.04069   -3920.2538   -3476.2669   -3920.2538            0    10656.098    16.721995    19.696301    20.400794     6719.235    10793.343    9960.1104     11214.84   -254.63001   -772.25042   -918.24999   -2432.0423 
31550000    235.93448   -3898.9064   -3494.5228   -3898.9064            0    12737.563    16.683885    19.651413    20.354301    6673.3999    14029.993    11298.391    12884.306    496.55298   -1178.8845    199.53335   -2254.8433 
31551000    248.64546   -3891.5713   -3465.4015   -3891.5713            0    11274.088    16.724111    19.698793    20.403376    6721.7861     8983.725    13885.548    10952.992    875.40944     171.6072   -498.93896   -2360.1986 
31552000    247.69129   -3931.7121   -3507.1777   -3931.7121            0    10892.273    16.741971    19.719831    20.425166    6743.3446    10520.156    12291.855    9864.8072    464.34486   -772.46226   -389.14311   -2435.9797 
31553000    238.74036   -3919.9075   -3510.7147   -3919.9075            0    11255.875    16.766957    19.749261    20.455648    6773.5812     10111.16    10876.621    12779.842   -72.623147    201.07408   -292.93235   -2398.7949 
31554000    258.28205   -3916.6191   -3473.9325   -3916.6191            0    8903.5831    16.759409     19.74037     20.44644    6764.4378    10323.154    7244.9954    9142.5997    281.51381    255.55948    2717.2122   -2595.5728 
31555000     238.7096   -3886.9165   -3477.7764   -3886.9165            0     13651.91    16.684821    19.652515    20.355442    6674.5229     13316.34    13411.259    14228.132   -1543.8034      231.984   -1268.4878   -2148.8848 
31556000    254.94229   -3886.7089   -3449.7465   -3886.7089            0    12253.874    16.737997     19.71515    20.420317    6738.5437    14917.088    11154.981    10689.552    1549.7796     1559.752    364.99496   -2245.5002 
31557000    251.97248   -3920.2672    -3488.395   -3920.2672            0    12889.946    16.685244    19.653014    20.355959    6675.0311    12607.118    12793.674    13269.045   -236.13428    492.39191   -597.32829   -2233.5784 
31558000    250.43659   -3909.1459   -3479.9062   -3909.1459            0    12590.563    16.696555    19.666336    20.369758    6688.6146    11953.452     13021.38    12796.858    678.29773    475.01101    1114.2452   -2251.7398 
31559000    258.42388   -3909.5063   -3466.5766   -3909.5063            0     12842.45    16.686291    19.654246    20.357236     6676.287     11414.45    12828.764    14284.136   -447.66816    190.65982    1089.3987   -2216.1483 
31560000    245.53202   -3927.6138   -3506.7803   -3927.6138            0    9216.7756    16.720461    19.694494    20.398923    6717.3863    8521.9695    11721.256    7407.1015   -1229.8417   -2711.6186    2334.2801    -2603.848 
31561000    240.36045   -3902.1169   -3490.1473   -3902.1169            0     11226.73    16.702873    19.673779    20.377467    6696.2115    10460.984    11080.659    12138.547   -1051.1589   -293.36753    2982.1599   -2393.7744 
31562000    241.37745   -3887.2655   -3473.5529   -3887.2655            0    10958.369    16.748945    19.728045    20.433674    6751.7755    11360.024    11474.751    10040.332     718.8854    661.51517    667.28545   -2394.5072 
31563000    257.15844   -3907.7022   -3466.9415   -3907.7022            0    9895.5034    16.767695     19.75013    20.456549    6774.4758    9782.5242    11223.222     8680.764    817.18962    978.30271   -345.82044   -2489.2778 
31564000     241.8308   -3906.8278   -3492.3381   -3906.8278            0    9924.8729    16.731507    19.707505    20.412399     6730.708    9441.1267    9903.7822     10429.71    1145.8227    1165.4885   -136.10788   -2518.1078 
31565000    242.08783   -3932.7015   -3517.7713   -3932.7015            0    11022.391    16.730297     19.70608    20.410923     6729.248    12107.007    11655.462    9304.7041   -1978.6379    -943.7414    161.54922   -2436.0429 
31566000    267.18469   -3928.3459   -3470.4005   -3928.3459            0    9900.4321    16.763075    19.744688    20.450912    6768.8775    10029.294    9637.5358    10034.466    260.24718    198.42571    370.59057   -2493.0582 
31567000    238.83051   -3952.1228   -3542.7755   -3952.1228            0    12512.452    16.739648    19.717094    20.422332    6740.5379     11286.95    11974.434     14275.97    82.937408   -494.91408   -1728.9508   -2312.7536 
31568000    248.03325   -3925.9572   -3500.8367   -3925.9572            0    11404.472    16.724609     19.69938    20.403984    6722.3867    11691.921    10859.576     11661.92    575.57811   -426.65465   -562.22601   -2382.7524 
31569000    246.82126    -3943.077   -3520.0338    -3943.077            0    10333.242    16.706786    19.678387     20.38224    6700.9186    9982.1995    8907.6141    12109.914   -1798.2293    639.28592   -797.70321   -2510.2072 
31570000     239.2508   -3887.5274   -3477.4597   -3887.5274            0    11811.614    16.707877    19.679672    20.383571    6702.2308     8007.044    12488.577     14939.22    786.88241    49.399926    2655.8236   -2322.9317 
31571000    247.89688   -3920.2605   -3495.3738   -3920.2605            0    8673.2308    16.819424     19.81106    20.519658    6837.3681    8845.8776    7868.2344    9305.5804   -896.09513    341.10326    210.22473   -2630.5139 
31572000    262.38117   -3865.5972   -3415.8848   -3865.5972            0    12759.187    16.712829    19.685505    20.389612    6708.1921    10837.226    13336.125     14104.21   -1019.5826     1225.379   -1178.5463   -2167.6267 
31573000    245.16329   -3931.7404   -3511.5389   -3931.7404            0    13691.063    16.726137     19.70118    20.405848    6724.2291    13648.002    13129.642    14295.546   -148.75766    1251.7884    1222.5266   -2168.9114 
31574000    245.99424   -3911.3784   -3489.7527   -3911.3784            0    11688.916    16.796385    19.783923     20.49155    6809.3091    9225.0972    13673.213    12168.438    2011.3114    7.5349379   -131.88814   -2328.9639 
31575000    247.44187   -3895.7513   -3471.6443   -3895.7513            0    14023.885    16.694648     19.66409    20.367431    6686.3231    14806.417    14911.745    12353.494    30.102032   -604.65885    -604.6179   -2104.1309 
31576000    244.24829   -3903.6812    -3485.048   -3903.6812            0    11394.083    16.775559    19.759393    20.466143    6784.0118    9766.3775    12544.557    11871.315    186.15517   -536.42046    1516.5711   -2357.7419 
31577000    252.90493   -3939.8715   -3506.4011   -3939.8715            0    12468.426    16.706225    19.677727    20.381556    6700.2435     14502.31     12106.59    10796.379   -1222.9899    152.93604    534.90903   -2288.0341 
31578000    262.45137   -3896.5947    -3446.762   -3896.5947            0    13291.752    16.700219    19.670652    20.374228    6693.0197    11835.714    12622.993    15416.549   0.23405086      533.051   -370.59444   -2149.3431 
31579000    237.99818    -3909.782   -3501.8613    -3909.782            0    12265.656    16.736684    19.713602    20.418715    6736.9574    13120.053    12319.043    11357.872    55.293788   -748.75818    855.42258   -2296.7408 
31580000    253.97869   -3896.8828    -3461.572   -3896.8828            0    11274.022    16.787194    19.773097    20.480337    6798.1367    11841.984    11163.119    10816.964    226.13072   -577.73567   -656.95817    -2343.822 
31581000    251.26487   -3946.5968   -3515.9374   -3946.5968            0    10551.008    16.764471    19.746332    20.452615    6770.5687    11026.332    9616.6575    11010.033    1064.9576   -477.16436    -505.2643   -2474.1119 
31582000    251.38001   -3968.3253   -3537.4686   -3968.3253            0    11713.992     16.74866    19.727709    20.433326      6751.43    10807.354    10671.096    13663.526    2115.8055     1121.548   -685.45416   -2384.0775 
31583000    250.75756   -3967.3818    -3537.592   -3967.3818            0    11471.273    16.767467    19.749861     20.45627     6774.199    10785.019    9976.6507    13652.148   -553.57001   -751.86695    271.84904   -2404.2905 
31584000    256.08925    -3910.321   -3471.3927    -3910.321            0    10504.792    16.802402     19.79101    20.498891    6816.6296    11200.654    11080.713    9233.0092    2149.5392   -613.57028   -511.28214    -2427.074 
31585000    246.23071   -3893.1321   -3471.1011   -3893.1321            0    14298.959      16.7047     19.67593    20.379695    6698.4081    13111.158    14364.607    15421.112    777.88864    1765.1197    140.94712   -2074.2442 
31586000     251.2551   -3909.8476   -3479.2049   -3909.8476            0    12246.993    16.712715     19.68537    20.389473    6708.0546    10147.834    11490.263    15102.883    528.26283    2262.5864    134.48578   -2281.0804 
31587000    242.46937   -3922.7844   -3507.2001   -3922.7844            0    11447.675    16.744677    19.723018    20.428467    6746.6147    12329.514    10059.834    11953.677    132.83586   -1639.3029   -169.98353   -2380.8353 
31588000    252.43007   -3891.9416   -3459.2851   -3891.9416            0     12964.68    16.722822    19.697276    20.401804    6720.2328    12950.895    14103.397    11839.747   -486.59448   -2256.8072    -8.930917   -2188.6466 
31589000    243.82269   -3935.3483   -3517.4446   -3935.3483            0    12493.341    16.689032    19.657475     20.36058    6679.5781    12640.739    11461.936    13377.349   -723.51528    328.67876   -1556.1381   -2300.4083 
31590000    251.41014   -3923.1482   -3492.2399   -3923.1482            0    12380.301    16.712659    19.685305    20.389405    6707.9878     11184.77    11585.201    14370.931    -172.4736   -277.41985    691.08084   -2281.0859 
31591000    240.10231   -3915.0885   -3503.5613   -3915.0885            0     11632.46    16.690487    19.659189    20.362355    6681.3252    12948.089    10522.761    11426.529    609.71371    15.524666    754.78023   -2370.0913 
31592000    239.17023   -3879.1545   -3469.2249   -3879.1545            0    12586.798    16.729023     19.70458     20.40937    6727.7115    12694.062    12139.387    12926.945   -69.453841   -586.25977    1451.4778    -2234.249 
31593000    243.62016   -3920.8513   -3503.2947   -3920.8513            0    11700.033    16.697709    19.667696    20.371166    6690.0022    9866.4331    13642.755    11590.911   -681.47624   -1104.2615   -73.606795   -2361.7597 
31594000     251.0177   -3919.6706   -3489.4348   -3919.6706            0    10178.471    16.751606    19.731179     20.43692    6754.9932     9538.606    11153.969    9842.8368   -535.38927   -1314.8439    1144.6285   -2486.7064 
31595000    234.53434   -3897.0068    -3495.023   -3897.0068            0    11622.454    16.756427    19.736857    20.442801    6760.8269    12321.063     10935.27     11611.03   -1407.5622   -1220.1166    670.44789   -2349.0522 
31596000    252.16609   -3901.6913   -3469.4873   -3901.6913            0    11287.224    16.764827    19.746752     20.45305    6771.0006    11032.893    10188.159     12640.62    -935.1502   -253.38647    2096.3027   -2354.8954 
31597000    255.02135   -3914.5053   -3477.4075   -3914.5053            0    13280.393    16.677345     19.64371    20.346322    6665.5554     13044.84    13696.231    13100.109   -524.44372    882.53539    814.61752   -2186.4166 
31598000    245.61328   -3945.0764   -3524.1037   -3945.0764            0    10597.319    16.743078    19.721135    20.426517    6744.6827    10941.481    11054.084    9796.3911    25.835656   -908.52449   -1070.5779   -2481.7061 
31599000    238.34752   -3903.8293   -3495.3098   -3903.8293            0    13540.831    16.700377    19.670839    20.374422      6693.21    15479.288    12250.367    12892.838   -1597.5844    784.78393   -435.79996   -2173.5405 
31600000    239.03093   -3916.5422   -3506.8513   -3916.5422            0    12100.857    16.674292    19.640113    20.342597    6661.8951    11061.827    12663.107    12577.636   -2093.5665   -1526.8156   -997.42171   -2331.1695 
31601000    242.17955   -3953.5366   -3538.4492   -3953.5366            0    10913.432    16.705786    19.677209     20.38102     6699.715    12361.445    9583.5697    10795.283    1255.4488   -695.99311    397.72827   -2472.1144 
31602000    248.93531    -3919.389   -3492.7224    -3919.389            0    10124.935    16.767374    19.749751    20.456157    6774.0861    8413.4038    11566.833    10394.569   -629.64225   -269.02879   -34.339982   -2492.4487 
31603000    238.68193   -3904.1541   -3495.0615   -3904.1541            0    12244.358    16.754157    19.734184    20.440032    6758.0801    12485.545    12325.141    11922.389   -736.45916    913.29485    309.81943   -2288.2616 
31604000    243.79057   -3907.6363   -3489.7876   -3907.6363            0    11786.862    16.756635    19.737103    20.443055    6761.0791     13923.36    11059.126    10378.099    798.14815   -219.98079     361.5832   -2327.5629 
31605000    258.14052    -3909.086    -3466.642    -3909.086            0     11745.78    16.735247    19.711911    20.416963    6735.2234    11718.447    12546.832    10972.062   -976.63653    41.170692   -731.60238   -2312.8971 
31606000    232.73445   -3909.7778   -3510.8789   -3909.7778            0      11896.7    16.697534    19.667489    20.370952    6689.7916    10480.331    13470.703    11739.065    1158.1802   -335.48982    60.761355   -2350.1923 
31607000    244.26403   -3939.0145   -3520.3543   -3939.0145            0    9858.3481    16.754959    19.735129    20.441011    6759.0511    10110.485    9119.1849    10345.374   -1631.3309    108.36633   -917.82421   -2548.5792 
31608000    244.14506   -3920.5815   -3502.1252   -3920.5815            0    12377.894    16.704599    19.675811    20.379572    6698.2873    11749.784    12629.165    12754.733    507.17262    -1841.833   -15.287325   -2292.9578 
31609000    244.93052   -3929.3987   -3509.5961   -3929.3987            0    13204.166    16.702173    19.672954    20.376613    6695.3696    11081.136     12685.72    15845.643   -368.50418    1400.4053     989.8393    -2220.274 
31610000    234.53184   -3919.0929   -3517.1133   -3919.0929            0    10492.329    16.767531    19.749936    20.456348    6774.2765    9595.6347    11100.935    10780.417    1204.6078   -581.01188   -259.51747   -2480.5145 
31611000    253.95527   -3943.3168   -3508.0462   -3943.3168            0    11388.969    16.772512    19.755804    20.462426     6780.316    11627.933    10287.186    12251.788   -1392.5381   -569.17897   -283.31321   -2381.8599 
31612000     232.8461   -3894.7327   -3495.6424   -3894.7327            0    11142.588    16.768571    19.751162    20.457618     6775.538    11385.609    9703.3905    12338.764    1104.1596    750.97401   -840.17399   -2394.5957 
31613000    239.65883   -3934.6947   -3523.9277   -3934.6947            0    12068.779    16.731239     19.70719    20.412072    6730.3848    12381.332    10744.635     13080.37    399.37395   -1724.6401    2261.2576   -2339.3075 
31614000     263.0012   -3932.3429   -3481.5678   -3932.3429            0     11821.23    16.758452    19.739242    20.445272    6763.2782    14028.372    10111.033    11324.284   -787.12585    244.72061    827.97702   -2315.5752 
31615000     254.0737   -3922.9717    -3487.498   -3922.9717            0    12768.873    16.731845    19.707903    20.412812    6731.1159    11791.328    12999.226    13516.066    256.24849   -909.21795    692.55255   -2234.0234 
31616000    230.87944   -3914.5722   -3518.8527   -3914.5722            0    13134.106    16.733973    19.710409    20.415407    6733.6842    16019.609    11429.639     11953.07   -971.55734   -780.23553   -527.48048   -2229.0326 
31617000    239.27093   -3951.4597   -3541.3575   -3951.4597            0    9014.2455    16.777556    19.761745     20.46858    6786.4353     8501.446    7732.2527    10809.038   -172.14871   -895.27075    2374.2392   -2649.1888 
31618000    245.80236   -3938.7535   -3517.4566   -3938.7535            0    10039.324    16.773245    19.756667     20.46332    6781.2049    11104.949    7806.4065    11206.616    683.98753   -214.21999    341.55297   -2524.5985 
31619000    237.38653   -3898.1491   -3491.2767   -3898.1491            0    11275.242    16.761847    19.743241    20.449414    6767.3895    11739.353    9976.6708    12109.701    1631.7341   -402.69883    420.65123   -2378.4618 
31620000    247.02281   -3948.4915   -3525.1029   -3948.4915            0    8822.0587     16.80659    19.795943       20.504    6821.7276     8473.688     7819.016    10173.472    99.525189   -59.579864    1515.0194   -2647.4148 
31621000    244.55279   -3929.7425   -3510.5873   -3929.7425            0    11876.222    16.737925    19.715065    20.420229    6738.4568    10941.547    12539.862    12147.259    30.507203   -1374.4238   -569.79162   -2343.4696 
31622000    250.44553    -3884.461   -3455.2059    -3884.461            0    10890.534    16.741713    19.719526     20.42485    6743.0322    9502.4527    11619.703    11549.447   -77.420164   -720.99996   -253.29363   -2384.2285 
31623000    240.56423   -3920.8851   -3508.5663   -3920.8851            0    12377.931     16.73399     19.71043    20.415429    6733.7051    13139.051    13749.588    10245.152   -1778.6359   -267.63122   -1198.3874   -2293.0018 
31624000    245.51123   -3891.2046   -3470.4068   -3891.2046            0    10462.245     16.76944    19.752186    20.458678    6776.5913    10710.727    9441.7412    11234.267    536.99919   -2336.4532    677.72192   -2436.4269 
31625000    259.38968   -3873.0197   -3428.4346   -3873.0197            0    12019.775    16.738754    19.716041     20.42124    6739.4577    12449.189     10699.97    12910.168    135.16792    693.90355     892.7206    -2247.034 
31626000    247.70737   -3894.9762   -3470.4143   -3894.9762            0    12623.496    16.711719    19.684197    20.388258    6706.8555    13220.956    12782.344    11867.187   -733.49617   -486.15884    563.89676   -2235.6773 
31627000    255.65911   -3920.8441   -3482.6532   -3920.8441            0    11289.869    16.744347    19.722629    20.428064    6746.2159    13136.457    11110.592     9622.559   -1041.4919      2418.37    1443.2946   -2371.8809 
31628000    257.82679    -3932.265   -3490.3587    -3932.265            0    12002.231    16.768668    19.751276    20.457735    6775.6548    11560.444    12153.859    12292.392    -316.3297    1384.4434      463.263   -2304.3465 
31629000     256.7113   -3900.4495   -3460.4551   -3900.4495            0     12335.42    16.738502    19.715744    20.420933    6739.1531    12926.183    11934.927    12145.152   -1177.1951   -77.756385    1635.2728   -2248.0852 
31630000    232.94172   -3898.7986   -3499.5445   -3898.7986            0    12314.122    16.681074    19.648102    20.350871    6670.0275    13936.163    12061.608    10944.596   -763.94857    539.01834     699.8316   -2301.6819 
31631000    242.69836   -3930.9174   -3514.9407   -3930.9174            0    11964.392    16.697174    19.667065    20.370513    6689.3587    9834.4957    13689.918    12368.761     1555.469    1336.1921    -62.85523   -2347.7253 
31632000    255.59891    -3901.939   -3463.8512    -3901.939            0    11849.498    16.751863    19.731482    20.437234     6755.305    12893.885    8393.8082      14260.8   -1033.1797     1965.599     -466.389   -2296.4482 
31633000    248.85027   -3931.0168   -3504.4959   -3931.0168            0    10785.704    16.752488    19.732218    20.437996    6756.0609    10327.131    11227.287    10802.693   -186.20562    457.14961   -1280.2786   -2441.7782 
31634000    240.12955   -3944.3904   -3532.8166   -3944.3904            0    12801.561    16.723992    19.698653    20.403231    6721.6429    13578.471    13094.344    11731.868    996.09769     97.23704   -677.08004   -2277.9017 
31635000    235.45498   -3954.8139   -3551.2521   -3954.8139            0    11679.737    16.724813    19.699621    20.404233    6722.6335    9829.1024    12666.045    12544.064   -1467.9642    3097.8694   -1893.8647    -2406.139 
31636000     238.6666   -3905.1822   -3496.1159   -3905.1822            0    11863.432    16.724352    19.699078    20.403671    6722.0775    11875.792    11823.751    11890.753   -1480.1716    1655.8627   -1711.5893    -2333.089 
31637000    244.82689   -3925.8479    -3506.223   -3925.8479            0    11848.715    16.722125    19.696454    20.400953    6719.3921    11980.926    12816.481    10748.737   -957.55728    255.53615   -1041.8984    -2345.103 
31638000    246.75089   -3928.1391   -3505.2166   -3928.1391            0    11306.191    16.703184    19.674144    20.377845    6696.5847    12155.432    11487.012    10276.128   -1843.7815   -653.65344   -381.00421   -2401.0221 
31639000    233.28013   -3957.6106   -3557.7765   -3957.6106            0    12207.103    16.685121    19.652869    20.355809    6674.8838    14482.427    11602.489    10536.393    232.56427   -499.34114    720.20733   -2369.4598 
31640000    246.56199   -3915.1087   -3492.5099   -3915.1087            0    12785.995    16.692386    19.661425    20.364671    6683.6055    12228.504    11222.444    14907.036    1009.7185   -956.16787    890.50059   -2246.2139 
31641000    233.98646   -3939.8893   -3538.8445   -3939.8893            0    11370.315    16.738911    19.716227    20.421433     6739.648    11015.573    12636.288    10459.083   -1163.1224    2868.9737    650.61771   -2421.2466 
31642000    241.55975   -3920.2963   -3506.2712   -3920.2963            0      12494.9    16.683332    19.650761    20.353626    6672.7358    13687.934    11646.553    12150.213   -1085.1058    138.87781    226.92424   -2290.3299 
31643000    242.16581   -3915.0553   -3499.9914   -3915.0553            0    12766.989    16.671015    19.636253    20.338599    6657.9678    10664.976    13820.673    13815.318    74.155901    1280.7594   -604.24281   -2260.3215 
31644000      243.371    -3907.715   -3490.5854    -3907.715            0     12155.07    16.713107    19.685833    20.389952    6708.5272    11902.982    13243.375    11318.853    1879.6178    536.46605   -743.31955     -2301.37 
31645000    254.67053   -3913.9589   -3477.4624   -3913.9589            0    10916.164    16.738456     19.71569    20.420877    6739.0975    10321.774    12695.561    9731.1589    1127.2211   -1544.1368    1.5673144   -2404.5909 
31646000    244.23076   -3938.2799   -3519.6768   -3938.2799            0    10856.876    16.715096    19.688175    20.392378    6710.9225    10880.529    11393.946    10296.154    1868.0067    326.00938    1257.2779   -2457.0934 
31647000    244.92211   -3951.0626   -3531.2744   -3951.0626            0    13596.537     16.65774    19.620617    20.322404    6642.0756    14263.462    13079.332    13446.817    664.83569   -248.39096    131.94202    -2214.207 
31648000    233.92147   -3962.3397   -3561.4063   -3962.3397            0    12006.271    16.729101    19.704671    20.409464     6727.805    13669.289    11394.273     10955.25    1511.3514    711.51886   -1265.0995   -2383.3734 
31649000    260.12331   -3922.8187   -3476.9763   -3922.8187            0    11961.487    16.754063    19.734073    20.439918    6757.9663    14062.036    9648.4839     12173.94    -20.60959    534.12713    339.48846   -2298.0759 
31650000    233.35328   -3918.5442   -3518.5847   -3918.5442            0    11097.343    16.763217    19.744855    20.451086    6769.0496    9521.7479    12258.032     11512.25    367.11892   -99.901978   -626.19928   -2423.0589 
31651000    247.69714    -3911.557   -3487.0126    -3911.557            0    10974.442    16.733067    19.709343    20.414303    6732.5916     10779.53    12039.993    10103.804   -433.38365    1170.7034    450.31851   -2409.4547 
31652000    235.42287   -3927.9459   -3524.4392   -3927.9459            0    9791.5819    16.726307     19.70138    20.406055    6724.4346    10966.388    8046.2306    10362.127    1128.7285   -766.41279   -825.67403   -2564.1887 
31653000    243.93067   -3911.1187   -3493.0299   -3911.1187            0    9579.5722    16.746048    19.724633     20.43014    6748.2722    9751.5224    8662.8641     10324.33   -1022.9842    89.139904   -1751.9227   -2550.2407 
31654000    245.32588   -3950.8944   -3530.4142   -3950.8944            0    12150.349    16.743739    19.721913    20.427323    6745.4811    11714.127     10787.74    13949.179    1192.0929   -126.02835   -70.376164   -2335.1125 
31655000    242.70856   -3939.0861   -3523.0919   -3939.0861            0    10444.388    16.707639    19.679392    20.383281    6701.9451    10118.403    9669.3269    11545.433    1634.2877    1422.4698    788.32606    -2502.247 
31656000    236.54975   -3943.3228   -3537.8847   -3943.3228            0    9579.9182    16.711875    19.684381    20.388448    6707.0431    9174.6153     11011.43     8553.709    542.04857     292.9497    132.27891   -2600.8217 
31657000    245.49352    -3914.468   -3493.7005    -3914.468            0    14046.471    16.656596     19.61927    20.321008    6640.7073    13363.031    14327.761    14448.622    671.30897    496.35696    -748.2181   -2133.3292 
31658000    254.21305   -3938.9131   -3503.2006   -3938.9131            0    9015.1611    16.706269    19.677778    20.381609    6700.2956    8399.5889    9036.5255    9609.3688    750.93464   -175.40802    616.26782   -2622.2667 
31659000     246.3426   -3912.2818    -3490.059   -3912.2818            0    9905.5486    16.738953    19.716275    20.421483    6739.6979     10591.55    11407.705    7717.3913   -955.69792   -434.94322    1207.1342    -2516.427 
31660000     257.1097   -3889.8451   -3449.1679   -3889.8451            0    11711.144    16.731471    19.707463    20.412356    6730.6652    12383.694    10091.123    12658.615   -710.70845    1291.7133    703.46505   -2299.6037 
31661000    245.63311   -3946.4159   -3525.4092   -3946.4159            0    12852.317    16.672156    19.637598    20.339992    6659.3359    10806.297    16044.249    11706.406   -764.35594   -1471.7363   -476.46826   -2277.1975 
31662000    239.34542   -3927.0524   -3516.8225   -3927.0524            0    11204.591    16.742385    19.720319    20.425671    6743.8452    12716.464    9225.1396    11672.168    586.23433    2058.1477    1003.8818   -2414.8279 
31663000     244.8067   -3914.7613    -3495.171   -3914.7613            0    13034.512    16.678619     19.64521    20.347876     6667.083    14176.937    14089.711    10836.888   -149.68235   -51.540085    232.40725    -2227.792 
31664000    250.92687   -3965.9429   -3535.8629   -3965.9429            0    11448.017    16.686126    19.654052    20.357034    6676.0892     10810.23    11257.212     12276.61     1005.304    232.06702    1127.3047   -2421.2391 
31665000    236.76473   -3920.1447    -3514.338   -3920.1447            0    11192.762    16.694964    19.664463    20.367817    6686.7036     12472.66    9617.4392    11488.187   -742.99271   -398.11527    1650.3938   -2422.8343 
31666000    250.30638   -3954.4765   -3525.4599   -3954.4765            0    10361.109    16.757803    19.738478     20.44448    6762.4926    9734.1877    10213.329     11135.81   -1251.2482   -826.89571   -450.43399   -2503.6057 
31667000    231.02067   -3947.3535    -3551.392   -3947.3535            0    12196.138    16.723781    19.698405    20.402974     6721.389     13100.65    10116.272    13371.492   -633.99998   -2402.1366   -788.76368   -2355.8709 
31668000    257.21628     -3919.86   -3479.0001     -3919.86            0    12454.714    16.683087    19.650473    20.353328    6672.4429    12373.868    12311.459    12678.816    868.55671    1695.8312    358.10468   -2267.0227 
31669000    257.90297   -3929.2818   -3487.2449   -3929.2818            0    13038.039     16.70882    19.680783    20.384722    6703.3665    12806.934    12189.679    14117.504   -1090.8844   -553.34253    1003.1254   -2212.6237 
31670000    250.05982   -3936.6012   -3508.0072   -3936.6012            0    12080.941    16.737267     19.71429    20.419427    6737.6623    12615.967    12086.779    11540.078   -847.77751    508.64389    770.61953   -2320.9111 
31671000    236.31411   -3901.0873    -3496.053   -3901.0873            0    12952.175    16.703676    19.674724    20.378445    6697.1765    12479.095    13046.825    13330.605    866.78667    965.23503   -2158.9653   -2230.9953 
31672000    250.66653    -3950.044   -3520.4101    -3950.044            0    12555.266    16.699806    19.670166    20.373724     6692.523    12152.105    13517.711    11995.981    56.341313    -166.1984   -370.66077   -2294.9712 
31673000    236.99928   -3940.4471   -3534.2384   -3940.4471            0     11790.54    16.702308    19.673113    20.376777    6695.5317    12654.412    10474.006    12243.202    708.60617    51.630669    828.39021   -2382.9221 
31674000    243.67527   -3924.1004   -3506.4493   -3924.1004            0    13409.125    16.662874    19.626665    20.328668    6648.2192    15456.798    13993.372    10777.205    2670.2464    1031.6249   -562.54303   -2206.3346 
31675000    247.88577   -3898.6141   -3473.7464   -3898.6141            0    11430.452    16.732696    19.708906     20.41385    6732.1435    12599.949    9906.9228    11784.485   -765.80321   -2279.5313    486.90311   -2351.4885 
31676000    241.76503   -3925.8471   -3511.4702   -3925.8471            0    12499.662    16.720016    19.693971    20.398381    6716.8503    12584.486    11811.928    13102.572    220.08846   -1670.6391    468.03129   -2287.0236 
31677000    261.62061    -3925.516   -3477.1072    -3925.516            0    10698.784    16.778532    19.762894    20.469769    6787.6188     11412.23    9826.2887    10857.834    1887.4802    1243.9778   -1516.2388   -2418.0297 
31678000    246.97918      -3899.4   -3476.0861      -3899.4            0    12164.734    16.718064    19.691671    20.395999    6714.4975    15070.499    11261.355    10162.349    1635.6811   -1582.6751    342.86302    -2284.866 
31679000    253.38758   -3914.6281   -3480.3305   -3914.6281            0    12162.164    16.718025    19.691625    20.395951    6714.4505    13091.458    12396.436    10998.598    727.63295    290.71637    85.628519   -2289.3704 
31680000    246.51213   -3921.5705   -3499.0571   -3921.5705            0    12805.062    16.717278    19.690745     20.39504     6713.551    10468.826    14337.869    13608.492    104.10424   -494.89487   -22.357811   -2245.3102 
31681000    239.53664   -3874.1969   -3463.6393   -3874.1969            0    12080.477    16.686202    19.654142    20.357128    6676.1807    12841.585    12384.384    11015.461   -1192.5922   -774.31277   -1176.9195   -2287.4207 
31682000    249.71381   -3857.4693   -3429.4684   -3857.4693            0    13255.455     16.68706    19.655153    20.358174    6677.2108    13556.669    14485.505    11724.191     303.8151    2322.6877     1345.279   -2138.6485 
31683000     235.8191   -3907.3022   -3503.1163   -3907.3022            0    11067.951    16.735717    19.712464    20.417536    6735.7904    10566.785    12352.398    10284.671   -146.67531   -1557.8171   -84.034846   -2415.8606 
31684000     252.2094   -3927.8407   -3495.5624   -3927.8407            0    11119.247    16.743757    19.721934    20.427344    6745.5024    12016.927    12309.797    9031.0179    13.172765   -2239.1744   -773.48168   -2401.6927 
31685000    246.93903   -3897.6737   -3474.4287   -3897.6737            0    11400.708    16.807851    19.797428    20.505539    6823.2638    12037.791    10437.188    11727.144    324.06067     203.9062   -466.73553   -2339.9408 
31686000    250.40909   -3904.6255   -3475.4329   -3904.6255            0     13484.18     16.76287    19.744447    20.450662    6768.6292    12819.713     14350.44    13282.387   -82.787341   -688.40159   -179.97747   -2144.3621 
31687000    239.93887   -3909.5198   -3498.2728   -3909.5198            0     10633.15    16.769887    19.752711    20.459223    6777.1324    11216.361     9280.836    11402.252    2159.2282   -1182.6926   -134.23293   -2447.3186 
31688000    268.77869   -3921.4355   -3460.7581   -3921.4355            0    12875.956    16.720488    19.694526    20.398957    6717.4192     13041.47    13665.568    11920.829   -889.96145    3863.0109   -556.94584   -2199.3436 
31689000    232.42311   -3910.0869   -3511.7216   -3910.0869            0    10986.152    16.726703    19.701847    20.406539    6724.9122    13038.168    9683.1663    10237.123   -1128.1567    1563.4512   -1589.2714   -2434.2443 
31690000    257.23936   -3891.3674    -3450.468   -3891.3674            0     12158.99    16.751933    19.731565    20.437319    6755.3894    13571.331    12695.586    10210.051   -153.42161   -601.18942    218.45141   -2252.5592 
31691000    256.70312   -3923.4163    -3483.436   -3923.4163            0    13061.484    16.722811    19.697263    20.401791    6720.2196    11382.492    14340.008    13461.951    47.860293    220.35156   -896.39301   -2203.3125 
31692000    249.00524   -3935.8696   -3509.0832   -3935.8696            0    12898.337    16.785562    19.771175    20.478347     6796.155    13742.903    12052.407      12899.7     240.1239    77.358593   -455.19517   -2230.6652 
31693000    254.86667   -3926.8041   -3489.9713   -3926.8041            0    10869.007    16.771703    19.754851    20.461439    6779.3351    10873.108    12701.152    9032.7619     1022.389    344.02808   -891.79343   -2415.3564 
31694000     254.2427   -3913.6903    -3477.927   -3913.6903            0    11876.315     16.73863    19.715896     20.42109    6739.3088    11119.688    12463.456    12045.802      322.701   -339.66568      134.031   -2310.6526 
31695000     236.2187   -3903.3448    -3498.474   -3903.3448            0    13525.347    16.701991    19.672739     20.37639    6695.1501    11689.801     13687.81     15198.43     548.8514    84.133282    273.06351   -2177.8335 
31696000       242.95   -3914.7348   -3498.3268   -3914.7348            0    10987.777    16.817878    19.809238    20.517771    6835.4822    10266.864    11445.278    11251.188    32.445592   -914.12701   -576.82009   -2402.9718 
31697000    246.86114   -3910.5034   -3487.3919   -3910.5034            0    12305.615     16.76915    19.751843    20.458324    6776.2391    13831.462    12280.551    10804.832    62.097375    21.355159    78.341917   -2271.2956 
31698000    253.59157   -3926.3939   -3491.7467   -3926.3939            0    10628.108    16.820507    19.812336     20.52098    6838.6891     10456.62    10440.345     10987.36   -718.44421    989.12363    1173.8549   -2431.7495 
31699000    251.62315   -3922.7771   -3491.5036   -3922.7771            0    9389.0774    16.827067    19.820062    20.528983    6846.6932    10067.766    9606.0493     8493.417   -795.92558    46.276934    765.57415   -2553.9855 
31700000    256.36656   -3941.0771   -3501.6736   -3941.0771            0    11628.642    16.766189    19.748356    20.454711    6772.6505     12491.84    11819.977    10574.109   -691.92331   -224.60569       1010.1   -2353.0875 
31701000    247.20352   -3911.8507   -3488.1523   -3911.8507            0    13430.164    16.710561    19.682833    20.386845    6705.4614    14387.712    13073.654    12829.125   -371.47202   -126.12079   -1999.5631    -2174.786 
31702000    242.05821   -3889.6104   -3474.7309   -3889.6104            0    11419.718    16.791014    19.777597    20.484998    6802.7794      9097.35    11649.757    13512.047    -92.91183    309.13929    1323.2344   -2341.7629 
31703000    245.62181   -3933.4544   -3512.4671   -3933.4544            0    14439.175    16.683383    19.650822    20.353689    6672.7979    13708.492    14939.037    14669.997   -1042.1233    -62.43348   -377.36735   -2107.3056 
31704000    245.01116   -3919.9708   -3500.0301   -3919.9708            0    11282.962    16.752096    19.731756    20.437518    6755.5865    11783.696    11648.235    10416.954   -436.09806    653.02944   -690.24746   -2388.3955 
31705000     242.8032   -3934.5038   -3518.3474   -3934.5038            0    12764.955    16.704907    19.676174    20.379948    6698.6577    12475.029    13399.136      12420.7   -1081.0323   -505.21358    54.788766      -2271.3 
31706000    235.86929   -3908.5244   -3504.2525   -3908.5244            0    13160.427    16.630965     19.58908    20.289738    6610.0984    11962.795    15718.264    11800.223   -977.46962    394.51406   -267.01834   -2235.5674 
31707000    250.61696   -3925.3057   -3495.7568   -3925.3057            0      11271.9    16.734766    19.711344    20.416375    6734.6422    11444.446    11302.385    11068.868    171.59154    635.45014   -267.52123    -2388.655 
31708000    246.77406   -3921.0098   -3498.0475   -3921.0098            0    11459.101    16.771067    19.754101    20.460662    6778.5631    12763.876    13240.647    8372.7816   -314.60316   -407.79843   -1001.6916   -2365.2191 
31709000    236.27279   -3913.4607   -3508.4972   -3913.4607            0    11767.864    16.743984    19.722201    20.427621    6745.7768    10928.137    11487.927    12887.527   -142.65027   -883.17767   -686.27639    -2350.772 
31710000    250.21531   -3896.7416   -3467.8811   -3896.7416            0    12640.827     16.69038    19.659063    20.362224    6681.1965    13135.675    14060.172    10726.634   -561.21576   -2384.4664    342.13783   -2236.1792 
31711000    250.49828   -3930.2426   -3500.8971   -3930.2426            0    13725.925     16.67943    19.646166    20.348866    6668.0558    11955.544     13652.89    15569.343   -135.93834    3358.5394    1021.4397   -2166.0954 
31712000    253.24283   -3935.4621   -3501.4125   -3935.4621            0    12883.255    16.723381    19.697933    20.402485    6720.9059    11670.114    12412.827    14566.825   -1745.5391   -1204.8152    1759.7039   -2238.6278 
31713000    251.94941   -3915.9347    -3484.102   -3915.9347            0    11893.229    16.741927    19.719778    20.425111    6743.2909    11575.417    12624.612    11479.659    529.06702    499.20953    -229.9677   -2314.4745 
31714000    243.48516   -3924.9227   -3507.5974   -3924.9227            0    11016.142    16.760306    19.741427    20.447534    6765.5239    10981.811    10164.871    11901.743    -777.2483   -331.91689    642.87914   -2420.6542 
31715000     239.2673   -3968.9044   -3558.8085   -3968.9044            0    11796.123     16.70245     19.67328     20.37695    6695.7021    10945.138    13065.741    11377.488   -92.754798   -182.04754   -1250.9172   -2406.9177 
31716000    250.46691   -3960.3429   -3531.0512   -3960.3429            0    13004.971    16.719939    19.693879    20.398286    6716.7571    13775.678    12907.261    12331.974    18.768024   -790.35317   -800.27581   -2257.1231 
31717000    235.02729   -3936.7572   -3533.9284   -3936.7572            0     10836.54    16.742662    19.720644    20.426008    6744.1792    10159.455    9876.0032    12474.163   -1326.6899   -326.85032   -1489.7975   -2468.0795 
31718000    247.87562   -3924.6066   -3499.7563   -3924.6066            0    12798.949    16.699723    19.670068    20.373623    6692.4229    12349.619    13556.461    12490.769   -1129.7736    649.24978    432.19254   -2250.5516 
31719000    248.50962   -3899.1396   -3473.2026   -3899.1396            0    12452.456    16.700882    19.671433    20.375037    6693.8162    12105.133    12106.285    13145.949   -922.22835   -428.85399    520.25634   -2257.5635 
31720000     235.2434   -3931.1933   -3527.9941   -3931.1933            0    11853.706    16.723744    19.698361    20.402928    6721.3437     11132.18     15161.02    9267.9189    103.12419    345.41644    346.10453   -2366.0476 
31721000    253.38097   -3955.7698   -3521.4835   -3955.7698            0    11208.905    16.762602    19.744131    20.450335    6768.3044    11997.123    11714.375    9915.2175   -1234.7165    834.92424    1711.9387   -2415.0661 
31722000    250.96328   -3973.0041   -3542.8616   -3973.0041            0    13031.493     16.73049    19.706307    20.411158    6729.4805    13051.909    13861.983    12180.587    631.03122   -959.99491   -24.657077   -2263.9174 
31723000    249.85492   -3947.7298    -3519.487   -3947.7298            0    10642.411    16.736161    19.712987    20.418077    6736.3262    6878.2115    12300.134    12748.887    1235.7863     -411.416    1698.4772   -2473.9509 
31724000    253.50647   -3925.2872   -3490.7858   -3925.2872            0    13128.464    16.647939    19.609074    20.310447     6630.359    14056.403    12193.114    13135.877    252.34648    -421.2384    608.83226   -2221.3028 
31725000    243.73686   -3935.3452   -3517.5885   -3935.3452            0    11400.869    16.732644    19.708844    20.413787    6732.0806    9343.6982     13273.49    11585.418   -676.39535    786.52484    333.06059   -2398.2456 
31726000    247.53382   -3913.8693   -3489.6048   -3913.8693            0    11417.103    16.706287    19.677799    20.381631    6700.3178    10835.087    11908.714    11507.508   -1418.8793    554.19834    -886.8096   -2373.9568 
31727000    265.59936   -3886.1975   -3430.9693   -3886.1975            0    11594.016    16.732366    19.708517    20.413448    6731.7454     11618.46    11861.896    11301.691    1990.2288   -378.67907    437.22046   -2292.7199 
31728000     239.9509   -3873.8388   -3462.5712   -3873.8388            0     12317.06    16.696495    19.666265    20.369684    6688.5425    12013.515    14326.355     10611.31   -421.94349    2013.3918   -62.275223    -2261.097 
31729000    247.21268   -3892.7655   -3469.0514   -3892.7655            0    14354.432    16.679365    19.646089    20.348786    6667.9777    14846.338    13690.597    14526.362    3.0032423   -314.83043    1008.1512   -2073.1458 
31730000    252.08929   -3887.9756   -3455.9032   -3887.9756            0    8904.8019    16.750111    19.729418    20.435096    6753.1849    8079.5451    9521.3058    9113.5546   -459.77685   -989.90352     757.5582   -2578.8846 
31731000    259.95349   -3919.4067   -3473.8553   -3919.4067            0    11335.069    16.705463    19.676829    20.380626    6699.3268    11635.744    9699.3424    12670.121    948.96489    926.08168   -792.01067   -2366.3872 
31732000    249.27351   -3919.4373    -3492.191   -3919.4373            0    11369.906    16.741815    19.719646    20.424975    6743.1556    11026.463    11869.149    11214.105   -45.736792   -71.483597    301.04317   -2374.0517 
31733000    247.36718   -3924.3888   -3500.4099   -3924.3888            0    12955.914    16.650372    19.611938    20.313414    6633.2654     13426.63      11930.6    13510.512    702.58746    376.64687   -368.10569   -2247.0629 
31734000    266.38116   -3915.2168   -3458.6486   -3915.2168            0      11845.7    16.664614    19.628714     20.33079    6650.3015    11581.385    12085.177    11870.537   -1576.9445   -1987.2381    1297.5323   -2309.7599 
31735000    243.40341   -3915.8325   -3498.6473   -3915.8325            0    12637.621      16.6705    19.635647    20.337971    6657.3511    13033.488    10815.256    14064.118    955.30195   -888.04625    961.59941   -2271.6527 
31736000    246.55891    -3922.034   -3499.4404    -3922.034            0    9809.9722     16.72094    19.695059    20.399508    6717.9639    11819.715    7334.4622     10275.74    1250.1038     863.8157    891.93818   -2538.3122 
31737000    242.48908   -3899.0905   -3483.4725   -3899.0905            0    12157.081    16.653443    19.615556    20.317161    6636.9367    13464.605    9677.3742    13329.264    1212.3853    420.21996   -680.83181   -2306.7532 
31738000    255.95461   -3911.9426   -3473.2451   -3911.9426            0     10653.79    16.704712    19.675945     20.37971    6698.4235    10952.585     11060.91    9947.8744   -118.01787    204.13531    14.749519   -2432.4803 
31739000    256.49795   -3920.4581   -3480.8294   -3920.4581            0    12324.764    16.648079    19.609238    20.310618    6630.5261     14542.91    11708.902     10722.48    2239.1928    1033.6514   -487.32169   -2289.0319 
31740000    246.01162   -3901.0283   -3479.3728   -3901.0283            0    12026.319    16.753199    19.733055    20.438863    6756.9203    14513.435    11748.497    9817.0245   -1020.7779    203.09719   -982.94983   -2294.2663 
31741000    239.87386   -3941.2457   -3530.1101   -3941.2457            0     11271.73    16.759782    19.740809    20.446894    6764.8886    11465.674    12627.838    9721.6802    621.67741    75.806247   -176.31826   -2418.0529 
31742000    245.49425   -3906.8031   -3486.0343   -3906.8031            0    11670.278    16.768246    19.750779    20.457222    6775.1441    13232.112    10447.048    11331.674   -310.13137   -459.69237    574.13998   -2332.9113 
31743000     253.4834   -3915.6134   -3481.1515   -3915.6134            0    12049.082    16.783076    19.768246    20.475313    6793.1352    12054.491    12980.263    11112.491   -141.73552   -1716.9441   -647.79792   -2287.4381 
31744000    245.98927   -3915.5767   -3493.9595   -3915.5767            0    11975.671    16.755808    19.736129    20.442047    6760.0787    12809.736    13686.136    9431.1403   -829.60945   -142.13494    1421.0322   -2313.2923 
31745000    258.90467   -3895.6358   -3451.8821   -3895.6358            0    12035.338    16.737787    19.714902    20.420061    6738.2896    9437.1416    13298.748    13370.123   -2024.9512    1769.9209   -645.87704   -2269.1569 
31746000    242.05532   -3907.4508   -3492.5763   -3907.4508            0     12556.94    16.767131    19.749466    20.455861    6773.7924    12175.463    13162.206    12333.153   -773.55953    1390.8723    189.36372   -2252.0911 
31747000    249.75002   -3920.2968   -3492.2338   -3920.2968            0    10029.589    16.780377    19.765067     20.47202    6789.8581    10603.277    11260.902    8224.5868   -1251.1658    453.24767    244.85396   -2499.0727 
31748000    262.25438   -3901.7364   -3452.2414   -3901.7364            0    9923.9176    16.752133      19.7318    20.437563    6755.6308    9597.9271    9636.1168    10537.709    -801.7104    41.252608    921.21503   -2474.4979 
31749000    241.89099   -3907.1334   -3492.5405   -3907.1334            0    13645.443    16.693551    19.662798    20.366093    6685.0051    13346.057    13721.646    13868.627    577.25384    1835.0179   -510.43311   -2162.1924 
31750000    248.97543   -3878.4654     -3451.73   -3878.4654            0    11963.788    16.771934    19.755122     20.46172    6779.6144    9439.4172    13292.837     13159.11    1258.0652    1152.7251   -499.13821   -2268.8257 
Loop time of 425.604 on 64 procs for 250000 steps with 864 atoms

Performance: 101.503 ns/day, 0.236 hours/ns, 587.401 timesteps/s
99.1% CPU use with 64 MPI tasks x 1 OpenMP threads

MPI task timing breakdown:
Section |  min time  |  avg time  |  max time  |%varavg| %total
---------------------------------------------------------------
Pair    | 21.682     | 27.495     | 34.189     |  50.5 |  6.46
Bond    | 0.26395    | 0.2766     | 0.28683    |   1.0 |  0.06
Kspace  | 174.62     | 183.08     | 195.4      |  40.7 | 43.02
Neigh   | 4.364      | 5.2293     | 6.7056     |  29.7 |  1.23
Comm    | 86.906     | 102.09     | 111.81     |  61.6 | 23.99
Output  | 1.2194     | 1.2202     | 1.2262     |   0.1 |  0.29
Modify  | 99.424     | 101.98     | 104.75     |  15.0 | 23.96
Other   |            | 4.233      |            |       |  0.99

Nlocal:        13.5000 ave          20 max           9 min
Histogram: 6 6 11 8 13 11 2 5 0 2
Nghost:        2339.05 ave        2403 max        2286 min
Histogram: 4 2 12 11 10 7 6 9 1 2
Neighs:        4544.77 ave        6789 max        2834 min
Histogram: 3 8 8 9 12 12 5 4 2 1

Total # of neighbors = 290865
Ave neighs/atom = 336.64931
Ave special neighs/atom = 2.0000000
Neighbor list builds = 12464
Dangerous builds = 0

unfix		3
unfix		2
unfix		1

write_data	data.final.${pid}
write_data	data.final.0
System init for write_data ...
PPPM initialization ...
  extracting TIP4P info from pair style
  using 12-bit tables for long-range coulomb (../kspace.cpp:340)
  G vector (1/distance) = 0.37525165
  grid = 24 24 24
  stencil order = 5
  estimated absolute RMS force accuracy = 0.0030498613
  estimated relative force accuracy = 9.1845667e-06
  using double precision FFTW3
  3d grid and FFT values/proc = 2535 216
Last active /omp style is kspace_style pppm/tip4p/omp
WARNING: Not all mixed pair coeffs generated from mixing. Use write_data with 'pair ij' option to store all pair coeffs. (../write_data.cpp:312)

write_restart   restart.lmp.${pid}
write_restart   restart.lmp.0
System init for write_restart ...
PPPM initialization ...
  extracting TIP4P info from pair style
  using 12-bit tables for long-range coulomb (../kspace.cpp:340)
  G vector (1/distance) = 0.37525165
  grid = 24 24 24
  stencil order = 5
  estimated absolute RMS force accuracy = 0.0030498613
  estimated relative force accuracy = 9.1845667e-06
  using double precision FFTW3
  3d grid and FFT values/proc = 2535 216
Last active /omp style is kspace_style pppm/tip4p/omp
Total wall time: 0:07:06
