#include		in.partitions
include		in.temp
variable        temperature equal 71.47
variable	tempDamp equal 100.0
include		in.pressure
variable        pressure equal 6829.8
variable        pressureDamp equal 1000.0 # This is 1 ps
include		in.seed
variable        seed equal 745823

units		real
atom_style	full
read_restart    restart.lmp.${pid}
read_restart    restart.lmp.0
Reading restart file ...
  restart file = 30 Jul 2021, LAMMPS = 30 Jul 2021
  restoring atom style full from restart
  triclinic box = (-3.1221400 -0.026027214 0.017437880) to (14.732139 22.606026 19.212560) with tilt (-0.25905987 -6.7815667 0.12481334)
  2 by 4 by 4 MPI processor grid
  restoring pair style lj/cut/tip4p/long/omp from restart
  restoring bond style harmonic/omp from restart
  restoring angle style harmonic/omp from restart
  1008 atoms
  672 bonds
  336 angles
Finding 1-2 1-3 1-4 neighbors ...
  special bond factors lj:    0        0        0       
  special bond factors coul:  0        0        0       
     2 = max # of 1-2 neighbors
     1 = max # of 1-3 neighbors
     1 = max # of 1-4 neighbors
     2 = max # of special neighbors
  special bonds CPU = 0.002 seconds
  read_restart CPU = 0.007 seconds

include 	in.setup
variable	out_freq equal 1000
variable	out_freq2 equal 10000
variable	out_freq3 equal 1000

timestep	2.0

neigh_modify    delay 7 every 1

include		in.tip4p
# This is TIP4P/Ice

# create groups ###
group ox type 2
336 atoms in group ox
group hy type 1
672 atoms in group hy

# set charges - beside manually ###
set group ox charge -1.1794
Setting atom values ...
  336 settings made for charge
set group hy charge 0.5897
Setting atom values ...
  672 settings made for charge

# ### TIP3P Potential Parameters ###
pair_style lj/cut/tip4p/long/omp 2 1 1 1 0.1577 8.5
pair_coeff 1 1*2 0.000 0.000
pair_coeff 2 2 0.21084 3.1668
bond_style  harmonic
bond_coeff  1 450 0.9572
angle_style harmonic
angle_coeff 1 55 104.52
kspace_style pppm/tip4p/omp 1.0e-5
pair_modify tail yes

thermo          ${out_freq}
thermo          1000
thermo_style    custom step temp pe etotal epair emol press lx ly lz vol pxx pyy pzz pxy pxz pyz enthalpy

restart 	${out_freq3} restart.lmp.${pid} restart2.lmp.${pid}
restart 	1000 restart.lmp.${pid} restart2.lmp.${pid}
restart 	1000 restart.lmp.0 restart2.lmp.${pid}
restart 	1000 restart.lmp.0 restart2.lmp.0


include         in.dump
dump            myDump all atom ${out_freq2} dump.water.${pid}
dump            myDump all atom 10000 dump.water.${pid}
dump            myDump all atom 10000 dump.water.0
dump            myDump2 all dcd ${out_freq2} dump.dcd
dump            myDump2 all dcd 10000 dump.dcd
dump_modify     myDump append yes
dump_modify     myDump2 append yes


variable natoms 	equal  "count(all)"                        # NUMBER ATOMS
variable H      	equal  "enthalpy/v_natoms"                 # ENTHALPY-per-atom
variable Vol      	equal  "vol/v_natoms"                 # volume-per-atom
fix AVG all 		ave/time ${out_freq} 1 ${out_freq} v_Vol v_H file vol_enthalpy.dat
fix AVG all 		ave/time 1000 1 ${out_freq} v_Vol v_H file vol_enthalpy.dat
fix AVG all 		ave/time 1000 1 1000 v_Vol v_H file vol_enthalpy.dat



fix 		1 all shake 1e-6 200 0 b 1 a 1
       0 = # of size 2 clusters
       0 = # of size 3 clusters
       0 = # of size 4 clusters
     336 = # of frozen angles
  find clusters CPU = 0.001 seconds
fix             2 all nph tri ${pressure} ${pressure} ${pressureDamp}
fix             2 all nph tri 6829.8 ${pressure} ${pressureDamp}
fix             2 all nph tri 6829.8 6829.8 ${pressureDamp}
fix             2 all nph tri 6829.8 6829.8 1000
fix             3 all temp/csvr ${temperature} ${temperature} ${tempDamp} ${seed}
fix             3 all temp/csvr 71.47 ${temperature} ${tempDamp} ${seed}
fix             3 all temp/csvr 71.47 71.47 ${tempDamp} ${seed}
fix             3 all temp/csvr 71.47 71.47 100 ${seed}
fix             3 all temp/csvr 71.47 71.47 100 745823


run             250000
PPPM initialization ...
  extracting TIP4P info from pair style
  using 12-bit tables for long-range coulomb (../kspace.cpp:340)
  G vector (1/distance) = 0.38020819
  grid = 24 27 32
  stencil order = 5
  estimated absolute RMS force accuracy = 0.0023519434
  estimated relative force accuracy = 7.0828077e-06
  using double precision FFTW3
  3d grid and FFT values/proc = 5355 672
Last active /omp style is kspace_style pppm/tip4p/omp
Neighbor list info ...
  update every 1 steps, delay 7 steps, check yes
  max neighbors/atom: 2000, page size: 100000
  master list distance cutoff = 10.8154
  ghost atom cutoff = 10.8154
  binsize = 5.4077, bins = 5 5 4
  1 neighbor lists, perpetual/occasional/extra = 1 0 0
  (1) pair lj/cut/tip4p/long/omp, perpetual
      attributes: half, newton on, omp
      pair build: half/bin/newton/tri/omp
      stencil: half/bin/3d/tri
      bin: standard
Per MPI rank memory allocation (min/avg/max) = 10.31 | 10.32 | 10.33 Mbytes
Step Temp PotEng TotEng E_pair E_mol Press Lx Ly Lz Volume Pxx Pyy Pzz Pxy Pxz Pyz Enthalpy 
38000000    73.870931   -5231.4788   -5083.7278   -5231.4788            0    6100.2609    17.854279    22.632053    19.195122    7756.3457    6951.9272    5794.3249    5554.5307    125.49126   -365.72918     864.3655   -4393.6763 
38001000    72.670343   -5245.1799   -5099.8302   -5245.1799            0     7025.633    17.781916    22.599084    19.213008    7720.8435    6393.0551    7965.8484    6717.9955   -278.96535    607.06705   -1673.5504   -4308.7398 
38002000    73.484827   -5246.4012   -5099.4225   -5246.4012            0    6744.1868    17.846797    22.626386    19.153563    7734.3716    6987.4304    6993.3835    6251.7467    602.98439    886.94906    1201.7875   -4338.6925 
38003000    70.783578   -5241.3177   -5099.7419   -5241.3177            0    7333.6519    17.856101    22.694923    19.045494    7718.0501    7219.6253    7643.8897    7137.4408   -419.96161    583.58787   -64.213755   -4274.2671 
38004000    68.218117   -5247.5761   -5111.1314   -5247.5761            0    5565.0108     17.88217    22.734449    19.097484    7763.9157    5432.5966    5602.4967    5659.9392   -34.964113    -428.3795    80.577305   -4481.0122 
38005000     73.50135    -5244.503   -5097.4912    -5244.503            0    6677.1601    17.881043    22.620643    19.091363     7722.088    7460.1178    6089.5109    6481.8518   -475.02028   -710.24634   -871.07981   -4345.5179 
38006000    72.219127   -5239.0562    -5094.609   -5239.0562            0    6936.6359    17.827062     22.78266    19.043949    7734.6596    6228.3982    7029.5725    7551.9371   -157.38417   -237.59294    -834.6651   -4312.1421 
38007000     70.02293   -5244.7639   -5104.7094   -5244.7639            0    5961.4367    17.912886    22.668383    19.083023     7748.779    6008.3812    6221.9451    5653.9839   -29.818452    654.94928    429.46455   -4431.0194 
38008000    70.362149   -5236.8141   -5096.0811   -5236.8141            0    6990.3068    17.807002    22.740216    19.054839    7715.9727    6988.5033    7110.5687    6871.8483    123.10467   -505.43098   -254.74118    -4309.465 
38009000    71.879165   -5234.0883   -5090.3211   -5234.0883            0    6591.4865    17.897773    22.576515     19.14289    7735.0549    5717.0897    7487.8502    6569.5195   -297.72607    530.01236    26.227748   -4346.7498 
38010000    72.382366   -5238.0452   -5093.2715   -5238.0452            0    7171.8163    17.878432    22.465469     19.24293    7728.8725    6833.1113    7585.7738     7096.564   -608.19333   -111.04438   -509.52316   -4284.8811 
38011000    72.647426   -5247.9551   -5102.6513   -5247.9551            0    6072.7598    17.934085    22.560984    19.162374    7753.2996     5570.332    6329.7936    6318.1539    18.191258   -416.24578    498.51715   -4415.9805 
38012000    73.957457   -5233.7635   -5085.8395   -5233.7635            0    6567.8235    17.903885    22.627449    19.087159    7732.5754    6030.1597    6424.1869    7249.1239   -403.14722   -668.04621    148.81866    -4345.175 
38013000    76.313224   -5239.0922   -5086.4563   -5239.0922            0    7401.2899    17.768476    22.734198    19.090365    7711.5917    7095.9576    7373.1315    7734.7805   -593.78536   -348.48708   -195.90255   -4254.0654 
38014000    69.018069   -5243.4164   -5105.3717   -5243.4164            0    6047.9677      17.8385    22.710882    19.163523    7763.6811      5491.09    6518.4288    6134.3844   -148.09417    457.94329    23.862768   -4420.5886 
38015000    72.551867   -5241.9639   -5096.8512   -5241.9639            0    7234.4554    17.713111    22.706521    19.196375     7720.842    7945.3871    7718.1753    6039.8037   -914.82181    290.74569    352.47862   -4282.2474 
38016000    70.647616    -5238.045    -5096.741    -5238.045            0    7354.4478     17.80896    22.585445    19.201977    7723.4823    7578.2325     7710.346    6774.7648    176.08425    393.84465   -521.66194   -4268.3429 
38017000    72.274395   -5239.8861   -5095.3284   -5239.8861            0    7921.7712    17.760017    22.661116    19.151451    7707.7275     8199.765    7697.5845     7867.964    816.70623   -634.21874    819.11325   -4204.8476 
38018000    70.771187   -5244.4617   -5102.9106   -5244.4617            0    7397.3253    17.788724    22.729187    19.079675    7714.3564    7561.4538    7374.4622    7256.0599     436.0671    459.10523    768.60277   -4270.6673 
38019000    71.193806   -5242.9352   -5100.5387   -5242.9352            0    6456.7752    17.766947    22.820119    19.106976     7746.806    6556.4424    5820.9878    6992.8956    463.86765   -175.42898    582.08874   -4371.0573 
38020000    68.397956   -5234.9027   -5098.0984   -5234.9027            0    6853.6973    17.777036     22.74401    19.107059    7725.3869    6264.1263    6533.6309    7763.3345    366.22052   -207.32293   -706.14009   -4325.9139 
38021000    68.195045   -5243.7015    -5107.303   -5243.7015            0    6058.6699    17.830373    22.683277    19.200756    7765.7704    6305.2649    5844.4328    6026.3119   -953.91504   -361.36372   -552.08246   -4421.1235 
38022000    71.270468   -5240.0936   -5097.5439   -5240.0936            0    6956.2173    17.787711    22.662118    19.178566    7731.0179    6263.4379    6967.7585    7637.4554    -45.33048    317.52306   -387.41972   -4313.2376 
38023000    67.525028   -5241.3656   -5106.3072   -5241.3656            0    6565.1472    17.855306    22.663925    19.128996    7740.9559    6363.3264     6458.361    6873.7543    335.58402   -143.07441    696.36245   -4365.1421 
38024000    74.334987   -5233.0895   -5084.4104   -5233.0895            0    7405.1499    17.820152    22.745769     19.04443     7719.337    6210.9954    7396.8844      8607.57   -160.31086    474.46795   -563.68356   -4250.7488 
38025000    75.389661   -5244.1177   -5093.3291   -5244.1177            0    6810.9022     17.81299    22.768143    19.088751       7741.8    6608.0835    7281.3685    6543.2545   -866.01444    350.59785   -1136.1765   -4324.3359 
38026000    75.647265   -5244.9079    -5093.604   -5244.9079            0    7022.9033    17.794578    22.749651    19.096013    7730.4564    6934.2923    6961.0536     7173.364    421.97542    397.66892   -458.40505   -4301.8364 
38027000    74.337965   -5235.8381    -5087.153   -5235.8381            0    7571.1932      17.7478    22.702431     19.12459    7705.6455    8636.9409     7228.062    6848.5767    671.22749    227.76849    560.11292   -4236.3103 
38028000    72.414631   -5246.3248   -5101.4866   -5246.3248            0    7172.1388     17.80941    22.560205    19.224278    7724.0062    7346.2146    7582.5604    6587.6414   -761.36647    138.72137   -597.36726   -4293.5688 
38029000    70.823361   -5237.6648   -5096.0093   -5237.6648            0    7095.0322    17.898692     22.74598    18.970069    7723.1568    6202.4475     6587.019    8495.6302   -532.00962    235.25743   -697.48062   -4296.8652 
38030000      73.4133   -5240.3448   -5093.5091   -5240.3448            0    6149.2547    17.939784    22.644157    19.078725    7750.3749    5589.0119    6109.5833    6749.1689   -1289.9884   -439.67436   -178.34067   -4398.4511 
38031000    71.171882   -5234.0303   -5091.6777   -5234.0303            0    6350.0275    17.898909    22.645781    19.093935    7739.4361    6775.8791    6061.7581    6212.4453    689.94853   -1013.8489    557.41121   -4374.9391 
38032000     76.16274   -5246.6199    -5094.285   -5246.6199            0    7546.2596    17.974653    22.443563    19.135009    7719.3546    6979.0109     7864.419    7795.3487   -508.96191    550.71641   -87.207638   -4244.7356 
38033000    71.443541   -5242.3828   -5099.4869   -5242.3828            0    6860.4534    17.892704    22.481884     19.22913    7735.1422    7533.6003    7040.3765    6007.3835   -284.97406    -625.4045   -476.58923   -4325.5653 
38034000    68.303586   -5243.8153   -5107.1997   -5243.8153            0    6975.6104    17.856716    22.680291    19.111811    7740.1978    8182.4372    6611.8997    6132.4944    429.99315   -209.47494    415.08892    -4319.773 
38035000    68.505349   -5246.1798   -5109.1607   -5246.1798            0    6579.7936    17.716798    22.826803    19.129605     7736.354    7143.2548    5959.5125    6636.6135    544.09244   -527.99292    277.93836   -4366.7837 
38036000    69.963404    -5245.699   -5105.7636    -5245.699            0    6819.8773    17.825632    22.807538     19.00287    7725.7836    6423.7056    6920.8176    7115.1086   -465.67703    204.06881   -809.44565   -4337.3501 
38037000    73.074391   -5243.0793   -5096.9215   -5243.0793            0    6887.9049    17.865251     22.73421    19.032582    7730.1284    5741.2033    6988.5869    7933.9245   -514.85199    577.37169    -883.5293   -4320.4067 
38038000     69.57311   -5241.5186   -5102.3638   -5241.5186            0    6299.9129    17.885341    22.677339    19.109787    7750.7751    6825.1729    5944.3256    6130.2403   -481.48837   -262.17305   -927.66535   -4390.2399 
38039000    70.246728   -5244.2179   -5103.7157   -5244.2179            0    6254.6608    17.844806    22.538881    19.272398    7751.3963    6253.9692    6029.5375    6480.4756   -14.649127    -615.7794    430.40413   -4396.6503 
38040000    72.617595   -5246.2075   -5100.9633   -5246.2075            0    5751.0367    17.805738    22.619666    19.282911    7766.3826    6623.7709    5719.6336    4909.7056    1015.0549   -232.40609    1406.3021   -4449.5737 
38041000    71.023959   -5242.0054   -5099.9487   -5242.0054            0     6565.538    17.865608    22.529413    19.223308    7737.4132    5622.8521    7039.2134    7034.5485      602.855   -386.25002   -551.33853   -4359.0787 
38042000    71.623477   -5239.8086   -5096.5528   -5239.8086            0    7587.7783    17.912315    22.483157    19.152938    7713.3749    7069.5371     8325.097    7368.7009    721.73861    390.68747   -497.46832    -4242.991 
38043000    71.225156   -5237.2079   -5094.7488   -5237.2079            0    6114.5768    17.840296    22.656073    19.174918    7750.3305    5963.7331    5960.0716    6419.9257    676.40924   -166.47539    639.34494   -4403.6144 
38044000    71.505979    -5251.177   -5108.1562    -5251.177            0    6509.8484    17.888211     22.63787    19.113161    7739.8938    6396.4877    6761.2831    6371.7743    398.75666   -42.077743    717.21441   -4373.3348 
38045000    67.889964   -5242.7021   -5106.9138   -5242.7021            0    7109.3191    17.857245    22.693022    19.063332    7725.1268    5993.3904    7190.8704    8143.6964     196.3396    375.19337    20.223846   -4305.9562 
38046000    70.179322   -5243.7152   -5103.3479   -5243.7152            0    6589.6679     17.77768    22.781011    19.073935    7724.8201    6306.0204    6751.9296    6711.0538   -1418.0296    379.84106   -1256.1557   -4360.9653 
38047000    75.048312   -5248.8017   -5098.6958   -5248.8017            0    6888.1695    17.747477    22.784397    19.115556    7729.6728    8251.2985    6254.0297    6159.1804   -543.89115   -107.77033   -443.33705   -4322.1969 
38048000    69.762393   -5244.2929   -5104.7595   -5244.2929            0    6432.6831     17.73642    22.859499    19.089798    7739.8763    7973.4364     5561.908    5762.7049    1005.1255    255.32323   -387.39108   -4378.6501 
38049000    73.916671   -5241.4055    -5093.563   -5241.4055            0    6937.8339    17.767545    22.830096    19.058612    7730.8354    7163.7116    5796.0245    7853.7657   -249.38265   -371.79258    3.7209734   -4311.3479 
38050000    72.193381    -5249.969   -5105.5733    -5249.969            0    6470.2653    17.847035    22.795382    19.015368    7736.0213    5397.9828     6942.921    7069.8919   -9.6760048     945.9085   -358.38248   -4375.5855 
38051000    76.534165   -5232.8274   -5079.7496   -5232.8274            0    6666.1363    17.789905    22.645486    19.182466    7727.8683    6785.1266    7258.1831    5955.0992   -343.24749   -100.01722   -1001.2039   -4328.4558 
38052000    70.805125   -5242.8311   -5101.2121   -5242.8311            0    7615.3223    17.846252    22.543744    19.158514    7707.8789    7323.9005    8231.4947    7290.5718   -247.90766    162.27901    387.06428   -4245.1622 
38053000    71.004602   -5252.8633   -5110.8453   -5252.8633            0    5743.7007    17.827847    22.513182    19.314285    7752.0117    5387.2364     6227.743    5616.1227   -736.66539   -668.22622   -205.82507   -4461.4904 
38054000     75.53764   -5240.1325   -5089.0479   -5240.1325            0    7386.7507    17.904181    22.504321    19.189506    7731.8636    7657.3344    7588.0064    6914.9114    950.03923     690.1391    748.54807   -4256.1083 
38055000    74.728413   -5245.2024   -5095.7364   -5245.2024            0    6477.5927     17.84192    22.614497      19.1811    7739.3065    7403.1553    6224.5159    5805.1068   -671.41324    261.00091   -346.07187   -4364.6115 
38056000    75.443394   -5236.2317   -5085.3356   -5236.2317            0     7277.801    17.874639    22.633798    19.087497    7722.2469    7560.8925    7121.5572    7150.9532   -265.25058   -176.12857   -441.90841    -4265.702 
38057000    69.525419   -5248.2689   -5109.2095   -5248.2689            0    6709.5393    17.939378    22.709167    18.971475    7728.7572    4808.6837    7371.3436    7948.5905   -47.474478     470.1992    376.59229   -4352.9371 
38058000    70.469812   -5240.8115   -5099.8631   -5240.8115            0    6131.8834    17.921752    22.672369     19.03742    7735.4477    4715.3915    6789.8301    6890.4284    398.41313   -59.066179   -1277.3038   -4408.1035 
38059000     69.73313   -5235.9221   -5096.4472   -5235.9221            0     8300.202    17.817385    22.678252     19.03753    7692.4406    7442.6922    9107.3723    8350.5415    336.01654    877.70298    -419.1698   -4165.2778 
38060000    73.145685   -5247.8785   -5101.5781   -5247.8785            0    6380.9069    17.816481    22.642256    19.206196    7747.8817    6324.8289    6692.4486    6125.4433    864.66689   -77.773715    81.701946   -4380.5681 
38061000    74.382021   -5240.2422   -5091.4689   -5240.2422            0    7173.1794    17.968816    22.525103    19.112388    7735.7281    6872.2686    7562.9567    7084.3129   -174.74909    677.01827    40.768963   -4282.2076 
38062000    76.567409   -5240.3462   -5087.2019   -5240.3462            0      6492.58     17.91818    22.584814    19.144588    7747.4081    5653.3939     6946.045     6878.301   -266.41907   -278.33733   -406.02542   -4353.6183 
38063000    77.592458    -5248.678   -5093.4835    -5248.678            0    6622.7752    17.982454    22.534385    19.128858    7751.4637    6261.8452    6310.3457    7296.1348   -838.71904   -514.74967   -605.52436   -4344.7977 
38064000    71.509374   -5243.0083   -5099.9808   -5243.0083            0     6987.786    17.940101    22.520692    19.124072    7726.5744    5552.4688    7697.9785    7712.9108    -30.54793   -472.40717    618.47419   -4312.5679 
38065000    70.521763   -5248.1066   -5107.0543   -5248.1066            0    6554.3362     17.90939    22.525374    19.214379    7751.3819    6010.9849     7385.974    6266.0498   -77.882057    782.70003    115.06287   -4366.1132 
38066000    72.747329   -5232.6209   -5087.1172   -5232.6209            0    7290.1559    17.877975    22.585974    19.081386    7704.9014    6247.0126    7871.9055    7751.5496    973.54799    619.84398    441.69022   -4267.9364 
38067000    70.703865   -5243.8532   -5102.4367   -5243.8532            0    7426.8742    17.803792     22.64056    19.157886    7722.3107    7659.0431    7789.4452    6832.1344    101.64336    121.62353    67.349088   -4266.0075 
38068000    72.133678   -5240.6971   -5096.4208   -5240.6971            0    7325.1975    17.738657    22.860258    19.054627    7726.8471     7082.005    6928.3964    7965.1911    259.15948   -39.275179   -229.38137    -4270.958 
38069000    68.566578   -5245.0061   -5107.8644   -5245.0061            0    6978.1231    17.759942    22.848666    19.033571    7723.6516    6326.7739    6950.1824    7657.4131   -175.47707   -359.95436    375.32822   -4321.8379 
38070000    70.400586   -5235.0397   -5094.2298   -5235.0397            0    6827.2506     17.72925    22.736171    19.147828    7718.3989     7382.194    6858.5194    6241.0384   -650.80552    525.31843   -1507.6884   -4325.7208 
38071000    71.951632   -5241.9981   -5098.0859   -5241.9981            0      6560.06    17.883305    22.613556    19.130492     7736.469    4736.6796    7817.5775    7125.9229   -429.79952    729.88329    106.59716   -4357.9244 
38072000    73.065476   -5233.8305   -5087.6906   -5233.8305            0    6270.6763      17.8975    22.649578    19.143291    7760.1318    6318.9583    6565.3309    5927.7396   -252.37245    55.940545    1272.5992   -4378.0158 
38073000    67.322267   -5246.1585   -5111.5057   -5246.1585            0    6221.4233    17.952312    22.491323    19.172482    7741.2969    5985.6887    6112.5307    6566.0505    60.768472   -643.68958    909.99633    -4409.114 
38074000    67.937629   -5243.4123   -5107.5287   -5243.4123            0    7516.1117    17.822906    22.570557    19.166681    7710.2367    8292.1823     7398.966    6857.1867    380.94802   -109.04859   -489.53218   -4262.3728 
38075000    71.670513   -5246.5878   -5103.2379   -5246.5878            0    7282.8956    17.808306    22.665254     19.12926    7721.1393    6334.8669    7962.3687    7551.4514   -711.85294    58.468631   -1632.5773   -4283.1482 
38076000     72.45303   -5240.6725   -5095.7575   -5240.6725            0    7110.1496    17.772372    22.736046    19.100208    7717.8872    7160.4282    7079.2384    7090.7821    718.86513   -166.31887    93.075452   -4295.4571 
38077000    66.418506   -5244.8945   -5112.0493   -5244.8945            0    7055.6006    17.780512    22.872534    18.994974    7724.9781    6523.3034    6635.9278    8007.5706   -825.34408   -359.88321   -553.26082   -4317.1591 
38078000    72.111039   -5229.5584   -5085.3274   -5229.5584            0    7416.8493    17.833505    22.740455    19.059955    7729.6123    6235.3559    7291.3924    8723.7996     269.2105    212.31067   -508.38023   -4249.2373 
38079000    71.750263   -5247.6122   -5104.1028   -5247.6122            0    6515.7238    17.804832    22.681068    19.138181    7728.6215    6146.2884    6730.3168    6670.5662   -937.60866   -323.23009   -307.98173   -4369.6894 
38080000    74.057988   -5239.3282    -5091.203   -5239.3282            0    6981.3112    17.825166    22.658464    19.143407    7731.8473    6424.8293     7102.755    7416.3494   -790.30535    24.043896   -701.13544    -4303.983 
38081000    73.051344   -5244.2463   -5098.1346   -5244.2463            0    6824.5705    17.905449    22.611998    19.114778    7739.1528    6685.2071    7014.9379    6773.5666    145.39078    467.14141    291.03595   -4327.8616 
38082000    70.349894   -5244.9753   -5104.2668   -5244.9753            0    7533.3953    17.780413    22.602572    19.192062    7712.9649    8696.1525     7373.738    6530.2955    486.96475    130.61678    -190.4894   -4256.8677 
38083000    73.507808   -5239.8564   -5092.8317   -5239.8564            0    7192.9124    17.829827    22.630957    19.137311    7722.0208    8060.4834    7172.8396    6345.4142    671.87604    384.20451    615.49027   -4282.7821 
38084000    75.915873   -5239.2832    -5087.442   -5239.2832            0    7047.4839    17.852772    22.629426    19.145029    7734.5531    7074.6883    6818.4896    7249.2739    1.4972936    297.80901    -106.2046   -4292.4822 
38085000     68.99877   -5242.7925   -5104.7864   -5242.7925            0    6680.4422     17.90387    22.607803    19.128252    7742.4885    6368.2254    7182.6427    6490.4584   -41.150654    555.34944    871.67626   -4350.4559 
38086000    71.057572    -5244.638    -5102.514    -5244.638            0    6509.2843    17.728462    22.743579     19.17621    7732.0142    7429.6603    6285.2331    5812.9596    719.62861   -479.10589    1438.4894   -4368.5044 
38087000    69.468579   -5242.5897   -5103.6439   -5242.5897            0    7106.3242    17.779642    22.708306    19.112761    7716.6925    7963.5783    6581.4801    6773.9143   -368.92306    346.84706   -584.46733   -4303.8979 
38088000    70.288796   -5239.2749   -5098.6887   -5239.2749            0    7303.1747    17.844251    22.609832    19.162201    7731.0957    8149.2437    7083.6814     6676.599   -133.55395   -126.34709    232.04519    -4275.255 
38089000    66.627525   -5249.4134   -5116.1501   -5249.4134            0    6393.2843    17.913266    22.648021    19.097744    7747.9552    5606.1781    6648.2659    6925.4089    365.74399    636.34218    810.05358   -4393.7347 
38090000     70.14538   -5243.9679   -5103.6684   -5243.9679            0    6241.0123    17.743073    22.864556    19.090621     7744.826    6046.5527    5775.1174    6901.3668   -211.95339    754.08839   -491.02296    -4398.744 
38091000    69.823915   -5245.5485    -5105.892   -5245.5485            0    6732.6304    17.800765    22.800234    19.093336    7749.2523    6671.2893    6665.0324    6861.5696    225.48953     740.5716    722.07252   -4345.0045 
38092000    69.662995   -5243.2456    -5103.911   -5243.2456            0    6413.3278    17.829317    22.755094    19.083842    7742.4632    6912.1676    5951.1743    6376.6415    77.004425   -474.60197   -620.07781   -4379.7444 
38093000    73.205787   -5238.2029   -5091.7823   -5238.2029            0    7230.0805    17.855945    22.725243    19.037759    7725.1548    6833.4348    6952.8569    7903.9498    582.21269    2.4153007   -16.941591   -4277.2164 
38094000    67.160383   -5235.7942   -5101.4651   -5235.7942            0    6641.9211    17.936982    22.594462    19.114909    7746.8225    6251.9103    7106.3991    6567.4539    755.03955    376.88767    364.10536   -4351.0644 
38095000    70.731733   -5253.2022     -5111.73   -5253.2022            0     6385.846    17.846413    22.449932    19.306339    7735.0991    6654.9682    6705.7066    5796.8632    377.63481   -528.70418   -449.13855   -4391.3524 
38096000    76.067737   -5247.0614   -5094.9165   -5247.0614            0    7495.0422    17.898862    22.522637    19.158378    7723.3085    6679.3564    7681.5321    8124.2381   -131.76994    8.4980148   -265.24027   -4250.7009 
38097000    77.810031   -5253.7701   -5098.1404   -5253.7701            0    6426.8081    17.875075    22.531729     19.22817    7744.2676    6503.5083    6632.5033    6144.4128   -780.52013    286.46515   -574.42505   -4372.2826 
38098000    70.015589   -5241.9653   -5101.9254   -5241.9653            0     5826.845    17.890501    22.504513    19.285939    7764.8468    6347.4012    6588.5597    4544.5742    22.845074   -91.105417    217.48338     -4442.08 
38099000     69.51231   -5241.6919   -5102.6587   -5241.6919            0    6508.8531    17.882991    22.601209    19.180396     7752.279    6515.6024    6767.1864    6243.7704    190.28516    168.89594   -61.801824   -4366.7741 
38100000    70.694133   -5240.6305   -5099.2335   -5240.6305            0    6902.0603    17.837174    22.552066    19.191579    7720.1029    7367.9541    7456.5474    5881.6793     670.4916    20.882715    1073.7626    -4322.132 
38101000    69.271929   -5245.9263   -5107.3739   -5245.9263            0    7842.4972    17.785503    22.611368    19.145913     7699.616    8205.7985    8496.5978    6825.0954    202.31393    402.89978    869.43946    -4226.732 
38102000    69.818883   -5239.9505   -5100.3041   -5239.9505            0    5470.2588    17.763642    22.731638     19.17447    7742.5876    5378.4783    5819.3171    5212.9811     311.7233    36.837359    1407.7591   -4482.6151 
38103000    70.882875   -5238.6613   -5096.8868   -5238.6613            0    6343.1783    17.864581    22.663695    19.121137    7741.7164    6000.8153    6877.9216     6150.798   -534.21851   -609.55693   -410.46284   -4380.7102 
38104000    70.872823   -5235.2826   -5093.5282   -5235.2826            0    7602.5784    17.873598     22.60516    19.101569    7717.7129    6874.7389    7835.6832     8097.313   -622.58768    181.53975    1043.8211   -4237.8205 
38105000    74.796661   -5234.5317   -5084.9291   -5234.5317            0    7880.1506    17.853035    22.677758    19.065373    7718.9363    7188.4861    7612.2646    8839.7011    218.96891   -50.793162   -445.14081   -4197.8387 
38106000    68.672123    -5242.606   -5105.2532    -5242.606            0    7094.1831    17.756738    22.594712    19.202627    7704.2549    8007.6172    7362.7055    5912.2266      1415.71   -354.12563    704.25884   -4308.1604 
38107000    74.192231   -5244.8657   -5096.4721   -5244.8657            0    6620.3087    17.813199    22.666877    19.142923      7729.33    7321.2532    6499.1663    6040.5067    330.35068    156.53532   -112.26002   -4350.2021 
38108000    74.249639   -5239.5236   -5091.0151   -5239.5236            0    7784.7497    17.764673    22.632561    19.142975    7696.6254    8445.8402    7936.9974    6971.4116   -234.87089    203.98076    571.25768   -4217.1973 
38109000    72.364589   -5249.8518   -5105.1137   -5249.8518            0    6183.5369    17.969946    22.562771     19.12229    7753.1664    5990.5946    5998.8369    6561.1792     387.6455    -333.5805    567.68045   -4405.9289 
38110000    73.739882   -5240.6894   -5093.2006   -5240.6894            0    6754.3392     17.79247    22.699859    19.159602     7738.306    7340.5565    6387.5241    6534.9371   -314.72071   -169.09053    512.23169   -4330.9379 
38111000    72.787088   -5230.9678   -5085.3846   -5230.9678            0    7617.6656    17.740968    22.793131    19.082216    7716.3178    9393.2113    6404.1129    7055.6727    889.73771   -437.48517    15.278644   -4228.1338 
38112000    72.191969   -5242.7014   -5098.3085   -5242.7014            0    6748.2954    17.787866    22.721175    19.135627    7733.8785    7363.8508    7126.8511    5754.1844   -127.92485    896.22018    56.707949   -4337.1637 
38113000     72.65723   -5248.0457   -5102.7222   -5248.0457            0    6751.8362    17.805587    22.701092    19.107685    7723.4459    6812.0711    7058.4926    6384.9449    884.10095    103.34021   -52.204084   -4342.2053 
38114000    71.738553   -5236.7706   -5093.2847   -5236.7706            0    6952.9676    17.834619    22.615548    19.153908     7725.531     7103.394    6571.9489    7183.5598   -71.484908   -42.295551   -316.45714   -4309.9011 
38115000    67.823666   -5235.2281   -5099.5724   -5235.2281            0    6911.9327    17.929898    22.635049    19.073752      7740.97    6309.7378    7105.2289    7320.8314    641.13884    450.32765    840.38098   -4319.2559 
38116000    67.908704   -5244.1254   -5108.2996   -5244.1254            0    6880.2362    17.886119    22.667242    19.053902     7725.004    5981.2162    6738.4862    7921.0063    455.06235    199.48451   -58.639998   -4333.1635 
38117000    69.380887    -5249.135   -5110.3647    -5249.135            0    6425.1318    17.848001    22.708199    19.110324    7745.3374    6013.4433    6487.6272     6774.325   -662.59937    11.522907    1552.5575   -4384.5959 
38118000    67.703623   -5242.7467   -5107.3311   -5242.7467            0     6655.096    17.788167    22.716179    19.150646    7738.3773    6455.6967    6687.9046    6821.6866   -852.86027   -637.86963   -1489.2272   -4356.2616 
38119000    69.341396   -5243.3313   -5104.6399   -5243.3313            0    7619.3188    17.807476    22.689316    19.088641    7712.5641    7280.6813    8113.7306    7463.5445    430.33599    584.33623    39.494902   -4247.6202 
38120000    69.857448   -5242.5771   -5102.8535   -5242.5771            0    5922.8536    17.897598    22.675289    19.115959    7757.8913    5117.2731    6800.5668     5850.721    637.15224    721.51284    1109.9639   -4432.7366 
38121000    70.096398   -5246.0396   -5105.8381   -5246.0396            0     6670.023    17.907564    22.626717     19.06594    7725.3166    6952.0862    6005.3723    7052.6106    440.21482    98.551281    139.82742   -4354.3545 
38122000    73.874853   -5241.8822   -5094.1233   -5241.8822            0    5988.8898    17.872466    22.655142    19.183917    7767.6301    5064.0332    6483.8877    6418.7484   -676.64692    501.18832    1011.9446   -4415.6844 
38123000    71.540137   -5246.7684   -5103.6793   -5246.7684            0    6033.9512    17.909353    22.563862    19.217146     7765.729    6304.8403    5859.1909    5937.8224   -1068.4035   -394.38844   -334.58242    -4420.303 
38124000    75.565903   -5245.3679   -5094.2268   -5245.3679            0     6896.578    17.781537    22.683594    19.125376    7714.2045    6412.0638    7143.0339    7134.6363   -227.93468   -241.99258   -408.04825   -4318.3358 
38125000    73.797595   -5242.8888   -5095.2845   -5242.8888            0    6659.7852     17.77633     22.85874    19.040011    7736.8041    8729.9543    5937.4361    5311.9653   -436.93802   -195.58186    535.82402   -4343.8386 
38126000    71.658541   -5247.0219    -5103.696   -5247.0219            0    7476.9215    17.840775    22.788426     18.99118    7721.1141    7361.5243    7548.6253    7520.6151    660.42868    38.027002    466.05611   -4261.7608 
38127000    69.842418    -5243.699   -5104.0056    -5243.699            0    7074.1849    17.845592     22.69614     19.06259    7720.8458    7029.6392    7325.9737    6866.9418    461.62378    952.23113    259.25458    -4307.448 
38128000    70.965855      -5246.8   -5104.8595      -5246.8            0    6354.0692    17.828196    22.701502    19.128578    7741.8491    6645.5798    6274.0238    6142.6039    334.14431    194.33669    337.87673   -4387.4411 
38129000    73.000116   -5233.3828   -5087.3736   -5233.3828            0    6654.6502    17.895326    22.629924    19.106609     7737.601    6915.2671    6614.9654    6433.7182     88.79503    306.73636    654.79222   -4336.4298 
38130000    69.291033    -5249.964   -5111.3734    -5249.964            0    6137.9529    17.954803    22.659111    19.066273    7756.9202    5360.9558    6670.1918     6382.711    274.34584    65.801853    381.48663   -4417.0069 
38131000    69.360882   -5246.0946   -5107.3643   -5246.0946            0    7313.7868    17.965855    22.385703    19.200454    7722.0056    7643.1279    8263.9975    6034.2351   -96.025339   -13.156433    386.67326   -4283.7037 
38132000    77.651967   -5245.4499   -5090.1364   -5245.4499            0     7414.879    17.904764    22.447584    19.217283    7723.7852    7606.2464    7726.3648    6912.0257    285.20829   -24.451492    316.04602   -4254.8986 
38133000    74.100929   -5240.3039   -5092.0929   -5240.3039            0    7567.3049    17.884151     22.56605    19.131291    7720.9036    6854.7882    7850.5646    7996.5619   -415.11508    109.75796    723.69921   -4240.0033 
38134000    68.040372   -5241.3336   -5105.2445   -5241.3336            0     6917.853    17.989373    22.568157    19.021853    7722.6247     5509.695    7582.6212    7661.2429   -405.88127   -227.46212   -820.79753   -4326.1105 
38135000    70.022331   -5244.2915   -5104.2382   -5244.2915            0    6983.9627    17.814016    22.676232    19.138196    7730.9654    6629.9431    7522.3573    6799.5876    85.545827    328.74905   -1046.5737   -4316.8089 
38136000    75.152829   -5244.8492   -5094.5343   -5244.8492            0    7082.6743    17.817519     22.65776     19.14202    7727.7308    7618.0461    6801.6409    6828.3358    125.49792   -49.519262    -711.3967   -4296.3096 
38137000    71.781765   -5247.3307   -5103.7583   -5247.3307            0    6927.0848    17.777936    22.736064     19.10801    7723.4631    6762.4866    6650.6148     7368.153    128.22246    11.473724   -1270.3581   -4323.4999 
38138000    69.055682    -5239.132   -5101.0121    -5239.132            0    6625.0376    17.724828    22.857588    19.078592    7729.6305    6606.9724    6726.2245     6541.916   -102.20167    383.72985   -681.66906     -4354.18 
38139000    68.309982   -5244.9062   -5108.2778   -5244.9062            0    6388.1515    17.751012    22.927454    19.014102    7738.4638    6514.4912    5885.6386    6764.3246    310.32261    448.20373    141.14372   -4387.3267 
38140000    72.400753   -5241.6248   -5096.8143   -5241.6248            0    6557.8558    17.828432    22.751723    19.072364    7736.2761    6688.3554    7073.4784    5911.7335   -775.03059    325.79413    335.04501     -4356.92 
38141000    71.803513   -5244.4093   -5100.7934   -5244.4093            0    6619.5958    17.841341    22.749073    19.042854    7728.9987    6127.3241    6487.3464    7244.1168    1150.4386   -49.165936    545.66803   -4354.6357 
38142000    73.559564   -5247.7094   -5100.5812   -5247.7094            0    6877.0964     17.88913     22.74804    19.024221    7741.7669    6383.8864    6714.7434    7532.6595   -135.34955    234.38335    115.74936   -4324.1176 
38143000    70.914493   -5245.7945   -5103.9567   -5245.7945            0     7020.871    17.756275    22.706166    19.178475    7732.3185    7607.7961    7127.6084    6327.2084   -784.79382   -142.88397    1305.1551   -4312.2276 
38144000    71.916678   -5247.0829   -5103.2407   -5247.0829            0    5912.1606    17.808668    22.666485    19.233797    7763.9126    6963.5508    5318.8289     5454.102   -305.89063    -423.1252   -305.52054   -4433.8144 
38145000    71.125942   -5244.8144   -5102.5537   -5244.8144            0    6435.2087    17.870808    22.645641    19.116868    7736.5179    6336.1185    6445.3466    6524.1609   -863.21571   -193.84452     298.2359   -4376.4744 
38146000     71.70382   -5246.4623   -5103.0458   -5246.4623            0     6679.288    17.802455    22.699555    19.147874    7737.8055    6708.2546      6457.07    6872.5393   -788.67163   -3.5866677   -1061.1834   -4349.3018 
38147000    66.269447   -5242.9501    -5110.403   -5242.9501            0    6839.6084    17.888845    22.630208    19.111661    7736.9413    7464.0295    6462.1076     6592.688    15.326071    -26.62017   -134.74009   -4338.6533 
38148000    68.129666   -5237.4963   -5101.2285   -5237.4963            0    6766.2974    17.782247    22.675141    19.148909    7721.1264    6246.7329    7210.5794    6841.5799   -696.76951   -450.50473   -561.98194   -4339.3116 
38149000    73.450839    -5238.963   -5092.0522    -5238.963            0    6426.3718    17.887657    22.578824    19.178363    7745.8006    6048.7071     7184.816    6045.5924    383.58174    125.77073    131.25435      -4366.1 
38150000    73.046912   -5247.8722   -5101.7694   -5247.8722            0    7324.7877     17.79139     22.73054    19.070503    7712.2621    7663.6447    6664.3595    7646.3589    612.31212   -722.54459    789.42564   -4277.9107 
38151000    72.616882   -5235.0489   -5089.8061   -5235.0489            0    6600.0137     17.84704    22.779076    19.070924    7753.0758    6116.4964    6685.4014    6998.1433   -110.42772    964.99178   -575.01325   -4343.5382 
38152000    70.292559   -5239.5035   -5098.9097   -5239.5035            0    6617.6692    17.803191    22.768896    19.072236    7731.1028    6789.9574    6220.9482     6842.102    680.05701    -220.3901   -129.70121   -4352.7662 
38153000    70.662887   -5236.4703   -5095.1358   -5236.4703            0    7052.6282    17.878166    22.656701     19.07389    7726.0748    6188.1773    7189.8157    7779.8917   -395.36886     250.7361   -93.706968   -4300.4677 
38154000    74.709414   -5249.6866   -5100.2585   -5249.6866            0     7290.946    17.879867    22.604463    19.100623    7719.7993    7632.7882    7147.2286    7092.8213   -283.58514    -690.2225   -143.78379   -4279.4048 
38155000    67.501073   -5238.6944   -5103.6839   -5238.6944            0    6945.3444    17.956406    22.553922    19.071221    7723.6036     5869.349    7361.9823    7604.7019   -287.04202   -313.13558   -478.10782   -4321.3545 
38156000    68.761014   -5247.3464   -5109.8159   -5247.3464            0    6929.3495    17.898214    22.586734    19.126203    7732.0009    7436.8015    7106.0013    6245.2457    861.93515    892.08822    568.64512   -4328.4396 
38157000    73.533923   -5245.4856   -5098.4086   -5245.4856            0     7274.213    17.752523    22.669182    19.171599    7715.3257     7421.684    7659.8933    6741.0617    711.00246   -309.68806   -265.64495   -4279.9134 
38158000     70.93157   -5250.8098   -5108.9379   -5250.8098            0    6376.2811     17.90043    22.624089    19.110848    7739.5291    7771.8923    6273.2533    5083.6977    264.02106   -66.291782    230.23504   -4389.2274 
38159000    68.790447   -5244.6177   -5107.0283   -5244.6177            0    6020.3141     17.87365    22.672688    19.115822    7746.5661    5257.9244    6394.5793    6408.4387    379.35812     -493.602   -652.65243   -4426.8789 
38160000    71.577828    -5243.365   -5100.2005    -5243.365            0    6163.0697     17.91592     22.71404    19.052175    7753.1479    6013.6029    5604.5035    6871.1028     -144.776   -233.31083      252.631   -4403.3317 
38161000    67.876138   -5244.1161   -5108.3555   -5244.1161            0    6973.0052     17.80686       22.798    19.059074    7737.2368     6641.031    6458.1247    7819.8599   -328.20314    319.84879    790.65202   -4321.5239 
38162000    69.958734    -5240.395   -5100.4689    -5240.395            0    6643.3582    17.746538    22.841119    19.097763    7741.2932    7854.7555    5961.9995    6113.3196   -1365.9472    96.858601    613.57812   -4350.4416 
38163000    71.724024   -5247.8777   -5104.4208   -5247.8777            0    6304.5698    17.807276     22.88484      18.9978    7741.9197    5895.9123    5764.1564    7253.6407   -288.81834    35.914902   -528.04861   -4392.5847 
38164000    72.959609   -5250.2976   -5104.3694   -5250.2976            0    7085.5262    17.814844    22.770559    19.024517    7717.3706    7477.0972    7230.2362    6549.2452    109.43581     -160.867    491.71859   -4306.8939 
38165000    69.464576   -5240.7245   -5101.7868   -5240.7245            0    7068.0047    17.899263    22.659637    19.040317    7722.5776    6733.9111    7500.1498     6969.953    555.00712     573.8701   -1100.8929   -4305.7466 
38166000    76.411035   -5243.4747   -5090.6432   -5243.4747            0    6817.1295    17.788376     22.73328    19.126309    7734.4527    7680.3276    6189.2236    6581.8372    1024.8921   -405.36639    112.29354   -4321.6774 
38167000    71.813833   -5247.8463   -5104.2098   -5247.8463            0    6738.5615     17.91111    22.573472    19.151814    7743.3835    6863.7059    6969.3931    6382.5856    827.45959    73.597167    319.53084   -4343.2287 
38168000    71.383009   -5236.6377   -5093.8628   -5236.6377            0     6797.737    17.845679    22.576957    19.189666    7731.5379     6040.369    7642.8766    6709.9654    429.43716    214.04529    898.11791   -4327.3735 
38169000    73.885393   -5238.7646   -5090.9847   -5238.7646            0    5886.3271    17.934548    22.583247    19.145194    7754.1927    4822.9808    6632.5532    6203.4471    69.996149   -275.51742    983.11153   -4425.3179 
38170000    71.902638   -5245.0099   -5101.1958   -5245.0099            0    6299.9503    17.856724    22.633648    19.170772    7748.1132     6716.544    6267.3288     5915.978    156.12773   -135.10682    1215.3062   -4389.3122 
38171000    75.848154   -5247.7781   -5096.0724   -5247.7781            0    6874.2157    17.840743     22.55934    19.204491    7729.3352    7508.8466    6836.7798    6277.0206    288.26075   -318.04568    1138.4793   -4321.1804 
38172000    68.668514    -5240.711   -5103.3655    -5240.711            0    7227.0674    17.776028    22.694931    19.139284    7721.2798    6534.6812    7751.4449    7395.0762   -593.82242    181.86552    583.12995   -4289.5475 
38173000     70.59874   -5250.5361   -5109.3299   -5250.5361            0    5876.8296    17.816897    22.831338    19.029506    7740.8908    5454.6486    5871.6292    6304.2109     432.7805    246.87596    628.09646   -4445.8773 
38174000     71.04279   -5247.8805   -5105.7862   -5247.8805            0    6169.0936    17.812858    22.797223    19.066198    7742.4719    5542.7478    6389.9684    6574.5645   -237.21338    514.97985   -1116.4338   -4409.1967 
38175000      69.2574   -5239.9956   -5101.4722   -5239.9956            0    6862.5162    17.814259    22.667442    19.127615    7723.8013    6449.4747    7209.4244    6928.6496    -532.5311     539.9952    365.40604   -4328.4529 
38176000    72.517778   -5246.9911   -5101.9466   -5246.9911            0    6239.7782    17.873908    22.600944     19.14444    7733.7257    6511.6605    6687.5747    5520.0992    562.59349   -574.16011   -59.426092   -4398.1717 
38177000    75.932642   -5246.4173   -5094.5427   -5246.4173            0    6566.7929    17.895866    22.537361    19.153342     7725.033     6579.395    6718.6131    6402.3706    240.99339    -192.7802    -228.1446   -4354.7167 
38178000    72.298673   -5240.4735   -5095.8673   -5240.4735            0    6854.1998    17.927934    22.462745    19.189564     7727.841    6840.6157    7685.7956    6036.1881     96.78429    380.31511   -1362.8384   -4323.3809 
38179000    74.458644   -5242.6606   -5093.7341   -5242.6606            0    7034.1322    17.886177    22.427508    19.252157    7722.8562    6575.1473     8056.241    6471.0084   -925.53999   -128.30322    357.55949   -4301.4803 
38180000    71.928937   -5241.0267     -5097.16   -5241.0267            0    7429.3657    17.829894    22.603884    19.150495    7718.1255    7114.7525    7600.5286    7572.8159    795.77642    343.29499    127.73702   -4260.9035 
38181000    72.053503    -5246.985   -5102.8691    -5246.985            0    7157.7985    17.697526    22.864097    19.069304    7716.1641    7561.5326    6232.8991    7678.9638   -100.47634   -738.00569   -237.28743   -4297.3853 
38182000    73.632764   -5246.1516    -5098.877   -5246.1516            0    6560.8541    17.799326     22.75401    19.085022    7729.5492    6069.3172    6578.4078    7034.8372   -346.29238    269.69585    812.63137    -4359.288 
38183000    70.640741   -5248.7347   -5107.4445   -5248.7347            0    6921.9647    17.813204    22.723159     19.11896    7738.8248    7350.0046    6742.6105    6673.2788    252.17862    520.52311   -15.442277    -4326.212 
38184000    69.356619   -5244.7475   -5106.0257   -5244.7475            0    7893.3511    17.706336    22.754023    19.107833     7698.362     7971.576    8333.0144    7375.4631   -238.14731    482.63295    331.71506   -4219.8178 
38185000     77.42184   -5245.7346   -5090.8814   -5245.7346            0    6860.8376    17.801204    22.651543    19.144578    7719.5674    7135.4615    7012.7874    6434.2641    832.53559    850.00227    631.48757   -4318.4747 
38186000    74.094619   -5246.4068   -5098.2084   -5246.4068            0    6304.8294    17.782622     22.80455    19.112583    7750.6244    5690.6395    6411.3231    6812.5255    -166.1979    775.76911    31.530365   -4385.5426 
38187000    70.560198   -5244.1506   -5103.0215   -5244.1506            0    7309.4278     17.84626    22.680287    19.060845    7715.0353    7413.8488    7248.8006     7265.634    72.541814    672.01648   -409.93205   -4280.5948 
38188000    73.817084   -5238.7296   -5091.0864   -5238.7296            0    7236.7692    17.747918    22.784931    19.100854    7724.1003    8034.0655    6778.1295    6898.1125   -941.84565    830.89281   -717.58879   -4275.8782 
38189000    66.271533   -5240.4738   -5107.9226   -5240.4738            0    6317.5182    17.753707    22.814329    19.090513    7732.4006    5900.0353     6577.275    6475.2443    584.32733     364.6662    452.47961   -4395.5015 
38190000    72.844055    -5234.345   -5088.6479    -5234.345            0    7211.2174    17.858321    22.787682    19.024169    7741.8803    6795.2697    7371.3905     7466.992    631.97394    896.06617    1062.6748   -4274.4482 
38191000    73.239711   -5241.1942   -5094.7057   -5241.1942            0    7450.2772    17.821805    22.809394    18.995402     7721.718    7325.6365    7143.1916    7882.0036    49.031825   -694.48618   -826.38953   -4255.7052 
38192000    74.544163   -5248.9506   -5099.8531   -5248.9506            0    6754.8589    17.867278    22.733228    19.092402     7754.969    6524.7213    6876.8056    6863.0499   -134.27155   -510.86335   -270.86662   -4335.8902 
38193000    69.353198   -5239.0396   -5100.3246   -5239.0396            0    6654.0239    17.824234    22.589275    19.205163    7732.6998    6852.9862    7319.7954    5789.2901    463.75216    69.001646   -430.37341   -4349.9271 
38194000    74.607213   -5247.4171   -5098.1935   -5247.4171            0    6492.0253    17.866246     22.57447    19.175229    7733.7733    7793.4116    6602.8171    5079.8473    37.409893    6.7019443   -16.660609   -4365.9635 
38195000    73.608117    -5244.073   -5096.8477    -5244.073            0    6637.9336    17.770479    22.739227    19.121151    7726.6076    7710.8182     6504.744    5698.2386   -145.60873   -112.02864   -917.25048   -4348.8545 
38196000    70.969045   -5246.0343   -5104.0875   -5246.0343            0    7002.8544    17.751029    22.846303    19.066166    7732.1955    7006.7243    6599.1431     7402.696   -244.46547   -45.205074    134.42377   -4314.4026 
38197000     67.63761   -5232.6331   -5097.3495   -5232.6331            0    6702.4355    17.772822    22.815813    19.061431    7729.4365    5984.4105    6466.7058    7656.1903     486.6614    85.143578     104.9851   -4341.8114 
38198000    71.581181   -5244.8579   -5101.6867   -5244.8579            0    6349.1697    17.809117    22.782546    19.060614    7733.5968    5107.6342    6682.7684    7257.1064    274.67921    508.70495    1269.9551   -4385.5855 
38199000    74.462322   -5242.1466   -5093.2127   -5242.1466            0     6907.471    17.817086     22.68178    19.122453    7727.8273    6785.9753    7493.6817    6442.7561   -626.97507     504.1766    1026.7296   -4314.7239 
38200000     71.00961   -5245.4697   -5103.4417   -5245.4697            0    7266.4741    17.895118    22.618034    19.082424    7723.6568    6270.9892    7094.2181    8434.2151    90.557196    131.11895    183.43975   -4284.9343 
38201000    71.414112   -5242.7969   -5099.9599   -5242.7969            0    7393.6882    17.863712    22.538582    19.159313    7713.9749    7069.5562    7352.5499    7758.9586    1045.2629   -164.91153   -712.19963   -4268.1669 
38202000    72.972845   -5247.4404   -5101.4857   -5247.4404            0    6685.7708    17.874005    22.584694    19.131577    7723.0146    6166.0518    6745.1512    7146.1094   -227.98885   -490.28512   -365.55966   -4348.4523 
38203000    67.171614   -5241.8753   -5107.5238   -5241.8753            0    6790.0613    17.810337    22.721387    19.093872    7726.8233    6740.7233     6707.989    6921.4717    615.10862   -99.557596    1094.9286   -4342.3668 
38204000    68.506396   -5246.5401   -5109.5189   -5246.5401            0    6842.8153    17.803905    22.789068    19.053384    7730.6134    6654.9146    6330.4479    7543.0834    990.51921    17.107075    386.25487   -4338.0389 
38205000    70.032035   -5248.9593   -5108.8865   -5248.9593            0    6507.5659    17.909049    22.649751     19.05782    7730.5284    5393.6541    6399.1942    7729.8493   -373.23187      29.7663   -70.169615   -4375.2117 
38206000    69.714034   -5245.0697    -5105.633   -5245.0697            0    6927.2315     17.87019    22.523808    19.207766    7731.2167    7388.2842    6912.1541    6481.2561   -388.27616    123.74515   -463.55847   -4324.5748 
38207000    70.298958   -5240.6388   -5100.0322   -5240.6388            0    6961.4692    17.852751    22.552229      19.1741    7719.8634    6805.4457    6966.9831    7111.9788   -358.01058   -83.154464    33.632789   -4316.2662 
38208000    73.123114   -5238.1209   -5091.8656   -5238.1209            0    7046.8588    17.868934    22.544313    19.158098    7717.7025    6667.5709    7492.6797    6980.3257   -217.72323   -289.40006   -1180.5353    -4298.708 
38209000    73.002599   -5247.0787   -5101.0645   -5247.0787            0    6861.0566     17.94518    22.610902    19.072994    7738.9953    6403.5777    6823.2541    7356.3382    656.35985   -108.82287     741.9336   -4326.6892 
38210000    71.261599   -5237.1593   -5094.6273   -5237.1593            0    6974.8965    17.811109    22.716841     19.10129    7728.6135    6450.6257    7260.9711    7213.0927   -289.71749   -471.60535    474.82748   -4308.4595 
38211000     71.46136   -5242.1204   -5099.1889   -5242.1204            0    6487.6471    17.886665    22.725322    19.041824    7740.1249    5353.2672    6543.7404    7565.9337    458.24899    157.77404    295.56737   -4366.8517 
38212000    73.298675   -5247.3963   -5100.7899   -5247.3963            0    7077.3415    17.769628    22.756465    19.131213    7736.1635    7585.1982    6656.2871    6990.5393   -10.165195   -465.97493    32.563157   -4302.2959 
38213000    70.190632   -5239.1969    -5098.807   -5239.1969            0    7174.0312    17.751376    22.715325    19.154316    7723.5618    7315.8712    7092.1212    7114.1013   -680.46806    454.11191   -767.86458   -4290.7225 
38214000    69.725514   -5241.4283   -5101.9686   -5241.4283            0    6084.6017    17.785779    22.709376    19.163847    7740.3529     6606.509    6047.2417    5600.0544   -1420.1502   -794.94534   -840.51841   -4415.1077 
38215000    69.399463   -5248.7818   -5109.9743   -5248.7818            0    7636.8024    17.871337    22.640961    19.044442     7705.843    6987.6927    7743.4623    8179.2522   -491.42116    340.80333   -360.59085   -4251.7366 
38216000    72.714154   -5248.4521   -5103.0148   -5248.4521            0    6345.5274    17.854088    22.649343     19.17825    7755.3652    6011.8691    6282.7074    6742.0057   -689.77898    269.92392   -400.36431     -4385.31 
38217000    66.124694   -5241.4595    -5109.202   -5241.4595            0    8016.5098    17.826467    22.593969    19.124467    7702.7736    8134.2648    7637.8925    8277.3721    819.66758   -502.32693    1011.4076   -4208.6509 
38218000    71.254484   -5236.0277   -5093.5099   -5236.0277            0    7266.9058    17.818985    22.700301    19.082636    7718.8559     7856.409    7051.4915    6892.8169    160.41077    26.467422    383.86651   -4275.4627 
38219000     68.58029   -5237.5186   -5100.3495   -5237.5186            0    6434.2485     17.79557     22.80416    19.062167    7735.6756    6874.8467    5967.9801    6459.9188    221.89904    599.24789   -375.00068   -4374.4576 
38220000    71.019881   -5249.8998   -5107.8512   -5249.8998            0    6979.9384    17.818484    22.701776    19.098034    7725.3695    7677.0119    6895.3337    6367.4696    640.24174    211.46234    413.19329   -4321.4454 
38221000    70.785761   -5245.2895   -5103.7092   -5245.2895            0    6672.5861    17.753486    22.841078    19.061029    7729.4141    7248.2482    5523.3905    7246.1194    414.78685   -952.76418    422.88077   -4351.5381 
38222000     68.36691   -5249.1248   -5112.3825   -5249.1248            0    6320.7794    17.822048    22.708866    19.131835    7743.0076    6796.9144    6104.1688    6061.2549    986.04064    39.980718    1199.2998   -4398.6159 
38223000    69.088956   -5245.9793   -5107.7928   -5245.9793            0    6614.6018    17.715281    22.783695    19.147822    7728.4358    8153.1684    6148.9594    5541.6775   -716.21096   -214.57247    375.13233   -4362.2524 
38224000    71.297022   -5241.7359    -5099.133   -5241.7359            0    7229.3729    17.804444    22.660773    19.129259     7717.938    6829.7087    8041.1828    6817.2273   -235.98954    1134.4173   -58.641779   -4285.4078 
38225000    72.144026   -5250.8307   -5106.5337   -5250.8307            0     6281.997    17.767966    22.672469    19.222804    7743.7851    7382.5099    6386.4729    5077.0083    29.994971   -132.20248    190.75944   -4397.0754 
38226000    70.191075   -5241.2768   -5100.8859   -5241.2768            0    7316.9599    17.754076    22.593587    19.236725    7716.3937    7888.7842    8090.6346     5971.461   -126.02041    518.23077    260.72749   -4277.4668 
38227000    74.748121   -5236.4127   -5086.9072   -5236.4127            0    5713.5981    17.817832    22.665013    19.214711    7759.6957    5675.5218    5404.9941    6060.2785   -329.34183   -509.40271    -167.3068   -4440.3153 
38228000    74.759876   -5245.8566   -5096.3276   -5245.8566            0      5943.09    17.845424    22.727791    19.140095    7762.9749    4693.5718    6419.6274    6716.0708   -450.10087   -433.13211   -486.57291   -4423.4805 
38229000    75.074696    -5247.047   -5096.8883    -5247.047            0    6826.2654     17.79357    22.767792    19.076054    7728.0969     6887.838    7373.1723    6217.7859   -103.04394    796.05696   -137.52363   -4327.5247 
38230000    75.819522   -5238.9206   -5087.2722   -5238.9206            0    6383.6168    17.680545    22.816405    19.166533    7731.9037    7224.1784    5955.8826    5970.7895   -71.263985   -325.19687   -302.29781   -4367.4436 
38231000    77.341325   -5249.6837   -5094.9915   -5249.6837            0    5897.4408    17.828476    22.695529    19.140625    7744.8081    5979.3466    6001.1355    5711.8403    40.439246    216.55981    136.43889   -4428.8751 
38232000    73.428108   -5245.2426   -5098.3773   -5245.2426            0    7192.2512    17.764736    22.652415    19.198217    7725.6345    7748.1784    7487.9184    6340.6569   -412.68045    112.93378    -254.2584    -4288.023 
38233000    68.866969   -5243.7542   -5106.0118   -5243.7542            0    6136.0232      17.8517    22.580303    19.218163      7746.78    5400.6475    6670.2096    6337.2125    544.62893    499.27267    574.84947    -4412.771 
38234000    73.702351   -5240.8049   -5093.3911   -5240.8049            0    7508.8936    17.781621      22.6407    19.143883     7707.104      8562.77    6747.3809    7216.5299    57.929575   -413.44921     350.9298   -4249.3899 
38235000    67.976892   -5243.0932    -5107.131   -5243.0932            0    7040.0919    17.780416    22.743244    19.132075    7736.7119    6978.8365    6818.1943     7323.245    68.732347   -688.13531    113.51988   -4312.7833 
38236000     69.93934   -5244.5721   -5104.6848   -5244.5721            0    6275.8054    17.905113    22.704284    19.027348    7735.0503    6262.2173    5857.3696    6707.8293    665.22614    424.19396   -834.98003   -4396.7251 
38237000    68.265865   -5241.5007   -5104.9605   -5241.5007            0    6509.0816    17.809804    22.677793     19.15291    7735.6125    5204.3902    7185.0529    7137.8018   -285.83929    62.406285   -714.24653   -4370.6321 
38238000    68.303604    -5230.027   -5093.4114    -5230.027            0    7560.0164    17.844549     22.68312    19.074027    7720.5949    8340.7576    7126.3632    7212.9285     -634.884    408.57947   -808.24963   -4242.1765 
38239000    72.781455   -5244.6919   -5099.1199   -5244.6919            0    6249.5998    17.733702    22.779897    19.167643    7743.1892    6563.6404    6018.6049    6166.5542   -457.09983   -8.9027861    270.06394   -4393.3747 
38240000    73.250685   -5242.5762   -5096.0658   -5242.5762            0    6732.9861    17.943924    22.493273    19.178031    7740.5905    6309.8982    7260.6693    6628.3906    127.10227    237.39383    423.51402   -4335.9886 
38241000    67.281719   -5239.1764   -5104.6047   -5239.1764            0    6779.7292    17.901453    22.509298    19.189823    7732.5228    7038.0784    6440.8689    6860.2402   -1627.1452   -361.93984    248.57483   -4340.0484 
38242000    68.671187   -5240.8841   -5103.5332   -5240.8841            0    7166.3166     17.91651    22.498026    19.180672    7731.4621    7189.0728    7245.5114    7064.3656   -555.15862   -887.33345   -64.141225    -4295.492 
38243000    73.105952   -5238.8282   -5092.6073   -5238.8282            0    6669.3226    17.893436    22.661062    19.076182    7735.0918    6026.9308     6359.875    7621.1621    141.60676   -454.86158   -27.026954   -4340.2518 
38244000    73.240752   -5242.5137   -5096.0231   -5242.5137            0    6704.1446     17.86703    22.651035    19.118014    7737.1885    6575.0116    6400.8339    7136.5881   -134.18744    -618.6389   -943.13185   -4339.5345 
38245000    75.769329   -5237.6611   -5086.1131   -5237.6611            0    8943.5338    17.760032    22.617879    19.143579    7689.8657    8096.2069    9354.8157    9379.5787   -327.25155    725.10581   -301.94625   -4083.1064 
38246000    72.250333   -5249.5143   -5105.0047   -5249.5143            0    5808.6152    17.795189     22.76067    19.164172    7762.0729    7106.5896    5527.0691    4792.1869   -1091.5445    -202.5065   -582.24783   -4447.4586 
38247000    71.410962   -5246.2901   -5103.4594   -5246.2901            0    6726.9566    17.858292    22.713688    19.061587    7731.9071    7293.9353    6159.1136    6727.8208   -25.503929    281.55813   -55.289831   -4344.9147 
38248000    72.722574    -5239.923   -5094.4689    -5239.923            0    7045.3765    17.817005    22.783573    19.015667    7719.1255    7135.8498    6189.2687    7811.0109     1000.393   -723.55799    512.96336   -4301.3319 
38249000    72.869224   -5245.7855   -5100.0381   -5245.7855            0    8320.1627    17.800167    22.597501    19.064431    7668.4633    7393.5903    8131.9445    9434.9532   -508.55199   -66.996204    141.27073   -4169.5388 
38250000     74.49478   -5238.8339   -5089.8352   -5238.8339            0    6423.3532    17.781514    22.639055    19.203165    7730.3624    6372.7494    6341.9073     6555.403   -420.60363   -438.40098    673.47371   -4365.6701 
Loop time of 417.337 on 64 procs for 250000 steps with 1008 atoms

Performance: 103.513 ns/day, 0.232 hours/ns, 599.036 timesteps/s
196.2% CPU use with 32 MPI tasks x 2 OpenMP threads

MPI task timing breakdown:
Section |  min time  |  avg time  |  max time  |%varavg| %total
---------------------------------------------------------------
Pair    | 35.089     | 39.985     | 44.084     |  32.8 |  9.58
Bond    | 0.89371    | 1.2119     | 1.3728     |   9.3 |  0.29
Kspace  | 201.29     | 208.25     | 214.2      |  24.1 | 49.90
Neigh   | 0.53432    | 0.6008     | 0.66       |   5.2 |  0.14
Comm    | 65.14      | 70.521     | 75.772     |  40.6 | 16.90
Output  | 0.44698    | 0.44733    | 0.44881    |   0.0 |  0.11
Modify  | 83.776     | 85.609     | 86.742     |   7.6 | 20.51
Other   |            | 10.72      |            |       |  2.57

Nlocal:        31.5000 ave          36 max          28 min
Histogram: 2 4 4 7 0 6 2 5 1 1
Nghost:        2966.88 ave        2987 max        2941 min
Histogram: 2 0 3 1 5 6 5 3 6 1
Neighs:        10799.5 ave       12343 max        9606 min
Histogram: 2 4 4 7 4 2 2 4 2 1

Total # of neighbors = 345584
Ave neighs/atom = 342.84127
Ave special neighs/atom = 2.0000000
Neighbor list builds = 1511
Dangerous builds = 0

unfix		3
unfix		2
unfix		1

write_data	data.final.${pid}
write_data	data.final.0
System init for write_data ...
PPPM initialization ...
  extracting TIP4P info from pair style
  using 12-bit tables for long-range coulomb (../kspace.cpp:340)
  G vector (1/distance) = 0.37955113
  grid = 24 27 32
  stencil order = 5
  estimated absolute RMS force accuracy = 0.0024423886
  estimated relative force accuracy = 7.3551808e-06
  using double precision FFTW3
  3d grid and FFT values/proc = 5355 672
Last active /omp style is kspace_style pppm/tip4p/omp
WARNING: Not all mixed pair coeffs generated from mixing. Use write_data with 'pair ij' option to store all pair coeffs. (../write_data.cpp:312)

write_restart   restart.lmp.${pid}
write_restart   restart.lmp.0
System init for write_restart ...
PPPM initialization ...
  extracting TIP4P info from pair style
  using 12-bit tables for long-range coulomb (../kspace.cpp:340)
  G vector (1/distance) = 0.37955113
  grid = 24 27 32
  stencil order = 5
  estimated absolute RMS force accuracy = 0.0024423886
  estimated relative force accuracy = 7.3551808e-06
  using double precision FFTW3
  3d grid and FFT values/proc = 5355 672
Last active /omp style is kspace_style pppm/tip4p/omp
Total wall time: 0:06:57
