LAMMPS (30 Jul 2021)
  using 1 OpenMP thread(s) per MPI task
package omp 0
using multi-threaded neighbor list subroutines
echo both

include		in.partitions
variable        pid world 0
include		in.temp
variable	temperature equal 270
variable	melttemp equal 450.0
variable	tempDamp equal 100.0
include		in.pressure
variable        pressure equal 0
variable        pressureDamp equal 1000.0 # This is 1 ps
include		in.seed
variable        seed world 745823

units		real
atom_style	full



include 	in.box

read_data       ice.data
Reading data file ...
  orthogonal box = (0.0000000 0.0000000 0.0000000) to (18.207572 23.629178 22.213196)
  2 by 7 by 3 MPI processor grid
  reading atoms ...
  864 atoms
  reading velocities ...
  864 velocities
  scanning bonds ...
  2 = max bonds/atom
  scanning angles ...
  1 = max angles/atom
  reading bonds ...
  576 bonds
  reading angles ...
  288 angles
Finding 1-2 1-3 1-4 neighbors ...
  special bond factors lj:    0        0        0       
  special bond factors coul:  0        0        0       
     2 = max # of 1-2 neighbors
     1 = max # of 1-3 neighbors
     1 = max # of 1-4 neighbors
     2 = max # of special neighbors
  special bonds CPU = 0.026 seconds
  read_data CPU = 0.103 seconds
include 	in.setup
variable	out_freq equal 500
variable	out_freq2 equal 500

timestep	1.0

neigh_modify    delay 5 every 1

include		in.tip4p
# This is TIP4P/Ice

# create groups ###
group ox type 2
288 atoms in group ox
group hy type 1
576 atoms in group hy

# set charges - beside manually ###
set group ox charge -1.1794
Setting atom values ...
  288 settings made for charge
set group hy charge 0.5897
Setting atom values ...
  576 settings made for charge

# ### TIP3P Potential Parameters ###
pair_style lj/cut/tip4p/long 2 1 1 1 0.1577 8.5
pair_coeff 1 1*2 0.000 0.000
pair_coeff 2 2 0.21084 3.1668
bond_style  harmonic
bond_coeff  1 450 0.9572
angle_style harmonic
angle_coeff 1 55 104.52
kspace_style pppm/tip4p 1.0e-5
pair_modify tail yes

thermo          ${out_freq}
thermo          500
thermo_style 	custom step temp pe etotal epair emol press lx ly lz xy xz yz vol pxx pyy pzz pxy pxz pyz cella cellb cellc cellalpha cellbeta cellgamma

restart 	${out_freq} restart.lmp.${pid} restart2.lmp.${pid}
restart 	500 restart.lmp.${pid} restart2.lmp.${pid}
restart 	500 restart.lmp.0 restart2.lmp.${pid}
restart 	500 restart.lmp.0 restart2.lmp.0

include         in.dump
dump            myDump all atom ${out_freq2} dump.water.${pid}
dump            myDump all atom 500 dump.water.${pid}
dump            myDump all atom 500 dump.water.0
dump_modify     myDump append yes


timer           timeout 23:50:00 every 1000
New timer settings: style=normal  mode=nosync  timeout=23:50:00


fix 		0 all shake 1e-6 200 0 b 1 a 1
       0 = # of size 2 clusters
       0 = # of size 3 clusters
       0 = # of size 4 clusters
     288 = # of frozen angles
  find clusters CPU = 0.019 seconds
fix             1 all nph aniso ${pressure} ${pressure} ${pressureDamp}
fix             1 all nph aniso 0 ${pressure} ${pressureDamp}
fix             1 all nph aniso 0 0 ${pressureDamp}
fix             1 all nph aniso 0 0 1000
fix             2 all temp/csvr ${temperature} ${temperature} ${tempDamp} ${seed}
fix             2 all temp/csvr 270 ${temperature} ${tempDamp} ${seed}
fix             2 all temp/csvr 270 270 ${tempDamp} ${seed}
fix             2 all temp/csvr 270 270 100 ${seed}
fix             2 all temp/csvr 270 270 100 745823
velocity        all create ${temperature} ${seed}
velocity        all create 270 ${seed}
velocity        all create 270 745823

run             500000
PPPM initialization ...
  extracting TIP4P info from pair style
  using 12-bit tables for long-range coulomb (../kspace.cpp:340)
  G vector (1/distance) = 0.37089722
  grid = 24 27 25
  stencil order = 5
  estimated absolute RMS force accuracy = 0.0032495733
  estimated relative force accuracy = 9.7859934e-06
  using double precision FFTW3
  3d grid and FFT values/proc = 4032 480
Last active /omp style is kspace_style pppm/tip4p/omp
Neighbor list info ...
  update every 1 steps, delay 5 steps, check yes
  max neighbors/atom: 2000, page size: 100000
  master list distance cutoff = 10.8154
  ghost atom cutoff = 10.8154
  binsize = 5.4077, bins = 4 5 5
  1 neighbor lists, perpetual/occasional/extra = 1 0 0
  (1) pair lj/cut/tip4p/long/omp, perpetual
      attributes: half, newton on, omp
      pair build: half/bin/newton/omp
      stencil: half/bin/3d
      bin: standard
Per MPI rank memory allocation (min/avg/max) = 9.274 | 9.285 | 9.299 Mbytes
Step Temp PotEng TotEng E_pair E_mol Press Lx Ly Lz Xy Xz Yz Volume Pxx Pyy Pzz Pxy Pxz Pyz Cella Cellb Cellc CellAlpha CellBeta CellGamma 
       0          270   -5396.4194   -4933.6487   -5396.4194            0   -6889.0119    18.207572    23.629178    22.213196            0            0            0    9556.7825   -3635.4126   -8502.8055   -8528.8176   -2826.4388   -6493.7441    2632.7342    18.207572    23.629178    22.213196           90           90           90 
     500    262.43913   -4251.4717     -3801.66   -4251.4717            0   -1193.1041    18.202597    23.579465    22.234761            0            0            0     9543.326   -1823.9265   -1961.5452    206.15936    213.52532    411.88074    972.09769    18.202597    23.579465    22.234761           90           90           90 
    1000     269.6853   -4212.5789   -3750.3475   -4212.5789            0    788.50358    18.141084    23.491357    22.021529            0            0            0    9384.6657    1104.2437    1689.9128   -428.64575   -34.217722    206.17179   -588.03382    18.141084    23.491357    22.021529           90           90           90 
    1500    258.20012   -4208.4554   -3765.9092   -4208.4554            0    835.44716    18.154515    23.553368    22.060233            0            0            0    9432.9554     1751.081   -1207.7209    1962.9814   -83.453633    756.96512   -501.06046    18.154515    23.553368    22.060233           90           90           90 
    2000    281.59057   -4216.3819   -3733.7453   -4216.3819            0   -504.85277    18.140058    23.627816    22.319764            0            0            0    9566.4731   -304.83902    451.56024   -1661.2795     29.24546    -319.5628   -227.28841    18.140058    23.627816    22.319764           90           90           90 
    2500    271.07958   -4193.8732   -3729.2521   -4193.8732            0   -650.25355    18.256885    23.745399    22.174903            0            0            0    9613.1976   -1851.9222   -1421.7936    1322.9552    749.82876   -67.464696   -615.98218    18.256885    23.745399    22.174903           90           90           90 
    3000    268.43764   -4201.0244   -3740.9315   -4201.0244            0   -1071.4446    18.152348    23.608904    22.235269            0            0            0    9529.0808   -1518.9269   -1818.5669     123.1599    1082.2996   -292.25692    776.72199    18.152348    23.608904    22.235269           90           90           90 
    3500    270.30251   -4238.8053    -3775.516   -4238.8053            0    1463.3495    18.062971    23.383616     22.15349            0            0            0    9357.1374    2148.0707    1367.2122    874.76567    685.15174    172.70337    791.06859    18.062971    23.383616     22.15349           90           90           90 
    4000    246.51851   -4213.5201   -3790.9958   -4213.5201            0    221.56581    18.191392    23.485027     22.05848            0            0            0    9423.9413   -220.84443     1024.808    -139.2661   -927.63297   -1149.4094    465.84651    18.191392    23.485027     22.05848           90           90           90 
    4500     270.5664   -4230.8279   -3767.0864   -4230.8279            0   -734.10078    18.206345    23.645357    22.222908            0            0            0    9566.8624    247.15352   -1187.0126   -1262.4432    413.78019   -181.47678     967.3373    18.206345    23.645357    22.222908           90           90           90 
    5000    272.11021   -4190.7192   -3724.3317   -4190.7192            0   -1316.1894    18.208959    23.656565    22.335079            0            0            0    9621.0903   -853.34196   -779.16292   -2316.0635   -763.90843    433.78933    34.832726    18.208959    23.656565    22.335079           90           90           90 
    5500    265.74079   -4245.8853   -3790.4147   -4245.8853            0    196.35686    18.104379    23.583274    22.174699            0            0            0    9467.7211   -1075.4785    1240.0215    424.52755   -798.52603     444.5284    627.40346    18.104379    23.583274    22.174699           90           90           90 
    6000    272.65895   -4203.9971   -3736.6689   -4203.9971            0    1708.0599      18.0869    23.492721    22.128914            0            0            0    9402.8078    2205.6159    813.41525    2105.1487   -739.96801    206.24148   -20.759475      18.0869    23.492721    22.128914           90           90           90 
    6500    270.83733   -4233.0698   -3768.8639   -4233.0698            0    440.34999    18.165693    23.407366    22.114241            0            0            0    9403.2193    86.227868    969.16595    265.65614    138.04006    139.84778    611.97097    18.165693    23.407366    22.114241           90           90           90 
    7000    267.23549   -4173.7334   -3715.7009   -4173.7334            0   -1870.0211    18.246023    23.678517    22.273246            0            0            0    9622.9056   -2185.9399   -2281.1516   -1142.9719   -549.42255   -239.61297   -130.43938    18.246023    23.678517    22.273246           90           90           90 
    7500    276.36709   -4228.7132   -3755.0295   -4228.7132            0   -1043.1042    18.141827    23.715445    22.229661            0            0            0    9564.1229   -175.69867   -715.39646   -2238.2175    126.84795   -702.56143      235.523    18.141827    23.715445    22.229661           90           90           90 
    8000    281.25745   -4222.0153   -3739.9496   -4222.0153            0    540.09812    18.096961     23.58813     22.12644            0            0            0    9445.1906   -151.89843    76.428024    1695.7648    880.63384    276.29892    1436.7334    18.096961     23.58813     22.12644           90           90           90 
    8500    271.97991   -4222.9755   -3756.8113   -4222.9755            0     1481.335    18.132343    23.407368    22.119775            0            0            0    9388.3056    1467.3003    545.06026    2431.6446   -822.84914    614.21865   -372.36703    18.132343    23.407368    22.119775           90           90           90 
    9000    289.63739   -4219.4293   -3723.0007   -4219.4293            0     403.6098    18.112195    23.583388     22.17361            0            0            0    9471.3889    360.33795     892.3579   -41.866455    266.57448    344.54362    494.80124    18.112195    23.583388     22.17361           90           90           90 
    9500    287.17894   -4220.3524   -3728.1375   -4220.3524            0    973.15061    18.146744    23.607358    22.081819            0            0            0    9459.7781     710.4144    941.84018    1267.1973     656.5707   -173.59957    710.46085    18.146744    23.607358    22.081819           90           90           90 
   10000    270.35372   -4192.7365   -3729.3594   -4192.7365            0   -769.43426    18.220465    23.491072    22.301072            0            0            0    9545.2658    -695.6729   -335.37631   -1277.2536     -146.001   -97.422712   -143.90619    18.220465    23.491072    22.301072           90           90           90 
   10500    283.61334   -4170.6832   -3684.5796   -4170.6832            0   -1508.6908    18.236237    23.938561    22.116633            0            0            0    9655.0001   -1587.4556   -3557.6534    619.03646   -1564.8901   -597.75361   -272.44893    18.236237    23.938561    22.116633           90           90           90 
   11000    278.33002   -4212.0326   -3734.9845   -4212.0326            0    -1123.617    18.077294    23.785316    22.217141            0            0            0    9552.7963   -803.50564   -966.65154   -1600.6938    341.84642   -688.98413    378.06199    18.077294    23.785316    22.217141           90           90           90 
   11500    256.93598   -4213.9929   -3773.6134   -4213.9929            0   -91.208763    18.194588    23.232845    22.347529            0            0            0    9446.5697    74.942518    188.30141   -536.87022   -88.062817   -410.46787    24.208131    18.194588    23.232845    22.347529           90           90           90 
   12000    291.61651   -4206.4637    -3706.643   -4206.4637            0    551.33712    18.208736    23.594211    22.014562            0            0            0    9457.9128    586.69097    186.04992    881.27046    -124.5321    115.58539    543.16073    18.208736    23.594211    22.014562           90           90           90 
   12500    275.11221   -4196.5548   -3725.0219   -4196.5548            0    610.80448    18.053734    23.692813    22.163247            0            0            0    9480.1902    1838.2146   -824.50162    818.70045   -225.48469    277.43514   -51.004295    18.053734    23.692813    22.163247           90           90           90 
   13000    284.55273   -4192.1792   -3704.4656   -4192.1792            0    83.869244    18.179579    23.465219    22.232951            0            0            0    9484.3058    1012.5745   -200.55423   -560.41254    325.63356   -871.83688    60.107048    18.179579    23.465219    22.232951           90           90           90 
   13500    268.48894   -4227.6785   -3767.4977   -4227.6785            0   -470.99164     18.27195    23.636339    22.121028            0            0            0    9553.6739   -1493.2768   -885.40251    965.70435    236.21171    303.01714   -633.98177     18.27195    23.636339    22.121028           90           90           90 
   14000    266.11495   -4211.4563   -3755.3443   -4211.4563            0   -204.84092    18.018078    23.642969    22.405682            0            0            0      9544.84    1137.8301    430.31245   -2182.6653    565.70115    -123.9387   -219.55748    18.018078    23.642969    22.405682           90           90           90 
   14500    259.21024   -4231.0572   -3786.7797   -4231.0572            0    -141.0723    18.162959     23.59376    22.130705            0            0            0    9483.7262   -848.79939   -707.57269    1133.1552    295.64937    -1.308878    218.13108    18.162959     23.59376    22.130705           90           90           90 
   15000    277.41814   -4211.9967   -3736.5115   -4211.9967            0   -188.31566    18.338754     23.48782      22.0045            0            0            0    9478.1604   -1646.9258    196.50135     885.4775   -624.90444   -351.98086   -134.52963    18.338754     23.48782      22.0045           90           90           90 
   15500     272.9947   -4214.3324   -3746.4288   -4214.3324            0     385.8616    17.927911    23.563616    22.471127            0            0            0    9492.8468     1513.874    1147.4637   -1503.7529    351.94947    380.51708    725.38733    17.927911    23.563616    22.471127           90           90           90 
   16000    284.33008   -4221.4179   -3734.0859   -4221.4179            0   -1224.3456      18.1712     23.85879     22.09718            0            0            0    9580.0743   -2324.5873   -1266.0768   -82.372827   -1451.1325    949.05946   -149.89234      18.1712     23.85879     22.09718           90           90           90 
   16500    288.28711    -4216.334   -3722.2198    -4216.334            0   -848.33626    18.436738    23.469536    22.115305            0            0            0    9569.3298   -2384.5394    -892.5902    732.12084    513.21448   -89.537567    217.10109    18.436738    23.469536    22.115305           90           90           90 
   17000    270.79267   -4204.7817   -3740.6523   -4204.7817            0    659.91165    18.067165    23.412819    22.414912            0            0            0    9481.5806    1196.5933    1352.4183   -569.27671    284.52583    555.76246    383.50625    18.067165    23.412819    22.414912           90           90           90 
   17500    284.42694   -4227.9826   -3740.4845   -4227.9826            0    -898.2528    18.085487    23.844535     22.09329            0            0            0    9527.5107   -1104.3556   -395.86178   -1194.5411   -410.13755   -85.140031    285.02622    18.085487    23.844535     22.09329           90           90           90 
   18000     250.9303   -4204.9339    -3774.848   -4204.9339            0     139.4333    18.208423    23.543857    22.137432            0            0            0    9490.2398   -1275.5691    219.89332    1473.9757   -413.76028   -577.23511    1145.0242    18.208423    23.543857    22.137432           90           90           90 
   18500      263.693   -4225.5956   -3773.6348   -4225.5956            0   -233.38004    18.262375    23.333387    22.293832            0            0            0     9499.916    270.68496    353.46899   -1324.2941    78.662127   -109.66568    57.914171    18.262375    23.333387    22.293832           90           90           90 
   19000    267.45448   -4205.1705   -3746.7627   -4205.1705            0   -966.56447    18.152241    23.930349    22.002746            0            0            0    9557.7609   -1194.6935   -1895.1445    190.14467    335.78369    8.3480721   -830.36119    18.152241    23.930349    22.002746           90           90           90 
   19500    280.28271    -4212.229    -3731.834    -4212.229            0   -157.50111    18.071153    23.632442    22.315544            0            0            0    9530.1982    1.5893219    150.93398   -625.02663   -436.79161   -29.018698    467.49143    18.071153    23.632442    22.315544           90           90           90 
   20000    260.47497   -4225.5015   -3779.0563   -4225.5015            0    934.26144    18.219082    23.149628    22.387373            0            0            0    9442.2097    2550.3186    1827.2921   -1574.8264   -1377.6944   -644.31571   -55.090097    18.219082    23.149628    22.387373           90           90           90 
   20500    284.87593   -4233.4542   -3745.1866   -4233.4542            0   -457.03463    18.228921    23.741395    21.940359            0            0            0    9495.3489   -585.90303   -2302.5749    1517.3741    1127.2321    496.49473     659.1954    18.228921    23.741395    21.940359           90           90           90 
   21000    265.32616   -4206.6447   -3751.8848   -4206.6447            0   -815.12548    18.048759    23.747336    22.226529            0            0            0    9526.5115   -403.47054   -1637.5969   -404.30906    578.48075    182.40118    1181.6866    18.048759    23.747336    22.226529           90           90           90 
   21500    258.26449   -4227.7799   -3785.1234   -4227.7799            0   -360.81793    18.197674    23.455177    22.310223            0            0            0    9522.6648    3.4038892    1140.8265   -2226.6842   -610.20985   -210.07396   -66.010009    18.197674    23.455177    22.310223           90           90           90 
   22000    275.95126   -4211.0707   -3738.0997   -4211.0707            0    101.41666    18.206336    23.661849    22.026705            0            0            0    9489.0073    -918.1734    416.24354    806.17982    246.74934   -178.03392    933.17645    18.206336    23.661849    22.026705           90           90           90 
   22500    260.43125   -4204.0806   -3757.7104   -4204.0806            0   -241.25289    18.016924    23.684042    22.280877            0            0            0     9507.553    292.66316   -755.66656   -260.75527   -1559.9202    449.57837    157.15224    18.016924    23.684042    22.280877           90           90           90 
   23000    269.73511   -4244.1391   -3781.8223   -4244.1391            0   -1219.7375    18.203151    23.458693     22.32566            0            0            0    9533.5506   -930.94463   -1489.5416   -1238.7261    62.601747    102.12504   -226.71922    18.203151    23.458693     22.32566           90           90           90 
   23500    273.49714   -4191.0941   -3722.3294   -4191.0941            0    -854.6065    18.366361    23.625867    22.029915            0            0            0    9559.2468   -1100.2423   -870.84754   -592.72962    496.55324   -5.4129466    579.93073    18.366361    23.625867    22.029915           90           90           90 
   24000    264.83574   -4142.8829   -3688.9635   -4142.8829            0    486.89386    18.010785    23.749432    22.260638            0            0            0    9521.8972    12.074192    1354.5288    94.078571   -419.30408   -189.84853    567.89213    18.010785    23.749432    22.260638           90           90           90 
   24500    276.49091   -4229.2757   -3755.3797   -4229.2757            0   -1027.9791    18.106415     23.53064    22.344822            0            0            0    9520.1348   -723.77568   -1417.5098   -942.65169   -680.98541   -1005.9885    425.13073    18.106415     23.53064    22.344822           90           90           90 
   25000    259.87069   -4171.5026   -3726.0932   -4171.5026            0   -942.08313    18.421166    23.513243    21.998415            0            0            0    9528.4233   -1282.6794   -1012.7998   -530.77016   -3.7958715    290.92851   -154.17444    18.421166    23.513243    21.998415           90           90           90 
   25500    267.22416   -4198.0216   -3740.0085   -4198.0216            0   -208.81872    17.958908    23.711875    22.361853            0            0            0    9522.5571    212.40763   -81.005241   -757.85855   -644.60567   -389.41656   -938.53813    17.958908    23.711875    22.361853           90           90           90 
   26000    276.91504   -4182.5819    -3707.959   -4182.5819            0   -733.06002    18.105657    23.758666    22.329239            0            0            0    9605.2854   -715.06476   -1452.7523   -31.363036   -1115.4973    329.57693   -50.900035    18.105657    23.758666    22.329239           90           90           90 
   26500    255.32704    -4218.061   -3780.4392    -4218.061            0   -790.02793    18.439941    23.526955    21.934997            0            0            0    9516.1838   -1828.7096    -728.9704    187.59621   -118.53858   -124.14443    572.31519    18.439941    23.526955    21.934997           90           90           90 
   27000    274.81832   -4178.8679   -3707.8387   -4178.8679            0    1087.6617    18.082157    23.453338    22.307355            0            0            0    9460.2579    1836.4932    989.98394    436.50796    528.01016   -433.59804   -432.58597    18.082157    23.453338    22.307355           90           90           90 
   27500    262.25172   -4186.8291   -3737.3386   -4186.8291            0    1138.8167    17.996062    23.611625    22.172926            0            0            0    9421.6371    637.77007    1434.5475    1344.1325   -350.43734    603.74882    411.56942    17.996062    23.611625    22.172926           90           90           90 
   28000    269.51296   -4226.6161   -3764.6801   -4226.6161            0   -338.80885    18.166763    23.583375    22.171793            0            0            0     9499.141   -1037.7745    325.97063   -304.62263   -290.66511    -805.4724   -831.97094    18.166763    23.583375    22.171793           90           90           90 
   28500    274.78169   -4215.0296   -3744.0632   -4215.0296            0   -1301.0255    18.229233     23.52889    22.297779            0            0            0    9563.8209   -3039.5278   -453.72893   -409.81979   -537.56651    296.05905    1243.3035    18.229233     23.52889    22.297779           90           90           90 
   29000    250.56941    -4202.121   -3772.6536    -4202.121            0   -2641.9845    18.205552    23.599141    22.357188            0            0            0    9605.4391   -2152.8315   -4033.4367   -1739.6853   -671.39807    51.324852   -153.94711    18.205552    23.599141    22.357188           90           90           90 
   29500    262.64995   -4185.2327   -3735.0597   -4185.2327            0    -508.6886    18.102046    23.848392    22.079163            0            0            0    9531.6784   -205.55221   -820.24835   -500.26525    -213.2193   -188.43103   -446.57421    18.102046    23.848392    22.079163           90           90           90 
   30000    292.46812   -4207.4995   -3706.2192   -4207.4995            0    716.59894    18.089803    23.353846    22.296443            0            0            0    9419.5001    371.44077    1280.7319    497.62418   -293.42186   -489.26551   -73.656599    18.089803    23.353846    22.296443           90           90           90 
   30500    256.73556   -4179.5194   -3739.4834   -4179.5194            0   -563.25266    18.341891    23.354244    22.159854            0            0            0    9492.4167    -1340.151   -71.985507   -277.62148   -42.774994    470.68554   -283.11894    18.341891    23.354244    22.159854           90           90           90 
   31000    266.73926   -4168.8889   -3711.7069   -4168.8889            0   -562.26924    18.111127    24.005736     22.04689            0            0            0    9585.3469   -469.62011   -1285.4635    68.275876     678.8952   -471.46934    204.40044    18.111127    24.005736     22.04689           90           90           90 
   31500    261.72072   -4192.5871   -3744.0068   -4192.5871            0   -150.16276    18.047004    23.657833    22.364177            0            0            0    9548.4524    657.29173   -192.22716   -915.55285   -79.057956   -507.56977   -37.806698    18.047004    23.657833    22.364177           90           90           90 
   32000    277.71275   -4209.9401     -3733.95   -4209.9401            0    19.964774     18.42697    23.369624    22.173676            0            0            0    9548.6801    -1731.298    666.48589    1124.7065    28.979885   -204.56263    501.92045     18.42697    23.369624    22.173676           90           90           90 
   32500    276.33577   -4211.4024   -3737.7723   -4211.4024            0    928.31087    18.176497    23.610695    22.011823            0            0            0    9446.5884   -16.224078    1398.0228    1403.1339   -749.76676    637.90238   -530.64418    18.176497    23.610695    22.011823           90           90           90 
   33000    265.85176   -4193.0939   -3737.4331   -4193.0939            0    1578.8052    17.919771    23.605264    22.270486            0            0            0    9420.4359    2642.2566    636.94349    1457.2155    723.35544    810.81355    307.30178    17.919771    23.605264    22.270486           90           90           90 
   33500    271.54236   -4224.7356   -3759.3213   -4224.7356            0    343.34952     18.22464    23.462327     22.14898            0            0            0    9470.7374    41.313216    1646.7597   -658.02439   -13.997943    127.78585   -290.97317     18.22464    23.462327     22.14898           90           90           90 
   34000    261.25656   -4229.6104   -3781.8256   -4229.6104            0    27.912435    18.317685    23.602577     22.10694            0            0            0    9557.8155   -776.41477   -151.43944    1011.5915   0.55400478   -441.31542    894.55619    18.317685    23.602577     22.10694           90           90           90 
   34500    262.03085   -4245.1987   -3796.0868   -4245.1987            0    80.909285    18.023618    23.614443    22.383254            0            0            0     9526.709     618.9377   -577.17729    200.96744    164.10971    282.07618   -485.48544    18.023618    23.614443    22.383254           90           90           90 
   35000    263.33125   -4237.8871   -3786.5464   -4237.8871            0     1165.761    18.153828    23.630471    21.965023            0            0            0    9422.6324    1200.7044    871.80928    1424.7693   -330.30724     316.9188    466.86613    18.153828    23.630471    21.965023           90           90           90 
   35500    268.69154   -4225.6359   -3765.1078   -4225.6359            0    2244.2706    18.281691    23.398404    21.980327            0            0            0    9402.3576    1976.1136    3158.7321    1597.9662    349.70938   -1192.5051    424.92539    18.281691    23.398404    21.980327           90           90           90 
   36000    264.73825   -4221.6764   -3767.9241   -4221.6764            0   -106.78766    18.013038    23.553606    22.452557            0            0            0     9525.991    472.48993   -320.91054   -471.94238    388.66074     250.9079    617.41551    18.013038    23.553606    22.452557           90           90           90 
   36500    272.37118   -4189.4989    -3722.664   -4189.4989            0   -771.15004    18.229618    23.846794    22.038977            0            0            0    9580.7383   -790.97192   -1402.5624    -119.9158    399.45308   -155.93801   -19.682779    18.229618    23.846794    22.038977           90           90           90 
   37000    276.00753    -4213.553   -3740.4855    -4213.553            0    26.383828    18.260581    23.598602    22.223443            0            0            0     9576.619    410.12291    6.7526192   -337.72404    916.88765    479.28147    10.521907    18.260581    23.598602    22.223443           90           90           90 
   37500    273.84303   -4217.6498   -3748.2922   -4217.6498            0    616.59066     18.06742    23.340861    22.424047            0            0            0    9456.4259    1492.0706    757.30394   -399.60257    -283.6541   -458.79578   -434.38173     18.06742    23.340861    22.424047           90           90           90 
   38000    278.96378   -4207.3838   -3729.2495   -4207.3838            0    792.02332    18.159306     23.79173    21.923961            0            0            0    9472.0568   -1228.8219    1269.6487    2335.2431   -1126.8226    283.90683    463.84916    18.159306     23.79173    21.923961           90           90           90 
   38500    275.40043   -4217.2282   -3745.2013   -4217.2282            0    -507.4767    18.220181    23.629594    22.224152            0            0            0    9568.2862   -1434.5883   0.15231216   -87.994098   -333.58995    743.53058    313.23438    18.220181    23.629594    22.224152           90           90           90 
   39000    265.85708   -4204.9647   -3749.2948   -4204.9647            0   -686.86454    18.208403     23.56391    22.377233            0            0            0    9601.2015    127.00095   -298.00882   -1889.5857    1180.8915   -310.92034    343.88032    18.208403     23.56391    22.377233           90           90           90 
   39500    269.93221   -4197.9318   -3735.2772   -4197.9318            0     -1454.07    18.274604     23.82268     22.16204            0            0            0    9648.2449   -3262.3246   -906.43199   -193.45347    322.99004    49.941627    51.270105    18.274604     23.82268     22.16204           90           90           90 
   40000    270.91731   -4219.5617   -3755.2187   -4219.5617            0   -900.36127    18.143522    23.624924    22.333885            0            0            0    9573.1817   -671.63231   -1637.3141   -392.13741    827.47401   -174.31573    647.99501    18.143522    23.624924    22.333885           90           90           90 
   40500     266.5027   -4236.2244   -3779.4479   -4236.2244            0    99.710715     18.14972    23.490715    22.279906            0            0            0    9499.0352    242.81045    411.78962   -355.46792    841.19951   -246.85744     103.2447     18.14972    23.490715    22.279906           90           90           90 
   41000    263.96559   -4192.8582   -3740.4303   -4192.8582            0    1766.1412    18.361544    23.676804    21.782986            0            0            0    9469.9936    1093.1993    2665.3437    1539.8806   -142.16284   -819.57897    793.42108    18.361544    23.676804    21.782986           90           90           90 
   41500    276.07833   -4213.9937   -3740.8049   -4213.9937            0    41.651421    18.091599    23.631925    22.406059            0            0            0    9579.4712    650.98618    -47.11768   -478.91424   -547.75978     -863.848   -1018.0535    18.091599    23.631925    22.406059           90           90           90 
   42000    279.81575   -4228.3913   -3748.7967   -4228.3913            0   -1036.1623    18.186365    23.565341    22.447729            0            0            0    9620.3763   -1175.0307   -54.263254   -1879.1928    821.85848    -285.3501    491.37553    18.186365    23.565341    22.447729           90           90           90 
   42500    272.43558   -4214.3993    -3747.454   -4214.3993            0   -145.76411    18.372446    23.747789    21.925875            0            0            0    9566.3683   -89.237716   -955.70545    607.65084   -395.02977    163.64114   -326.00641    18.372446    23.747789    21.925875           90           90           90 
   43000    279.27921   -4211.5162   -3732.8412   -4211.5162            0    782.05538    18.113574    23.527458    22.363767            0            0            0    9530.6848    1094.2652    1550.1064   -298.20551    238.22385   -773.28611   -359.69145    18.113574    23.527458    22.363767           90           90           90 
   43500    273.25465   -4227.4659   -3759.1167   -4227.4659            0    248.45813    18.119608    23.462826    22.251426            0            0            0     9459.909    1101.9048    27.494679   -384.02513     214.7178   -191.64723   -220.13985    18.119608    23.462826    22.251426           90           90           90 
   44000    286.17719   -4237.4465   -3746.9486   -4237.4465            0    682.69526    18.274693     23.61182    21.969221            0            0            0    9479.6914    102.21752   -205.17933    2151.0476   -316.50957   -39.073725   -371.34696    18.274693     23.61182    21.969221           90           90           90 
   44500    278.24816   -4207.1806   -3730.2727   -4207.1806            0   -702.47153    18.039054    23.569183    22.565106            0            0            0    9593.9104    722.93118   -728.56507   -2101.7807   -620.76703     418.1807   -153.03443    18.039054    23.569183    22.565106           90           90           90 
   45000    257.34066   -4234.1124   -3793.0393   -4234.1124            0   -541.65533    18.180963    23.692639    22.143801            0            0            0    9538.5531   -708.09403   -829.49941   -87.372546   -407.02365   -273.68922    370.07012    18.180963    23.692639    22.143801           90           90           90 
   45500    264.28455   -4231.7586   -3778.7839   -4231.7586            0   -182.11777    18.374797    23.598029    21.826482            0            0            0    9464.1587    -2137.667    1622.1757   -30.861997   -222.74957   -406.02027    8.5875318    18.374797    23.598029    21.826482           90           90           90 
   46000    266.86925   -4200.0078    -3742.603   -4200.0078            0    511.83365    18.026227    23.379624    22.511352            0            0            0    9487.3281   -707.21683    1995.4074    247.31036   -185.07605    560.93437   -592.70171    18.026227    23.379624    22.511352           90           90           90 
   46500    269.30501   -4219.3347   -3757.7551   -4219.3347            0   -585.65968     18.24088    23.753402    22.199359            0            0            0     9618.604   -283.10705   -1661.0642    187.19227    125.22014    633.63826    547.71687     18.24088    23.753402    22.199359           90           90           90 
   47000    278.07827   -4233.5997   -3756.9831   -4233.5997            0   -1017.5387    18.233668     23.73528    22.158325            0            0            0    9589.7064    -574.2345   -463.05626   -2015.3252   -281.25471    85.021318    639.24683    18.233668     23.73528    22.158325           90           90           90 
   47500    270.49899   -4196.2631   -3732.6371   -4196.2631            0    937.35039    18.097442    23.474326    22.433752            0            0            0    9530.4242     1492.324    743.09973    576.62747    87.827463    242.31954   -403.21972    18.097442    23.474326    22.433752           90           90           90 
   48000    274.73119   -4212.1968   -3741.3169   -4212.1968            0    1262.3309    18.218742    23.615905    22.019581            0            0            0      9473.97   -66.420127    2095.8196    1757.5931      287.995    65.648506    156.66137    18.218742    23.615905    22.019581           90           90           90 
   48500    278.94369   -4206.8522   -3728.7522   -4206.8522            0    561.88757    18.151589    23.691218    22.176616            0            0            0    9536.6824    973.35395   -261.00759    973.31636     -452.737   -279.01028    467.60537    18.151589    23.691218    22.176616           90           90           90 
   49000    272.59768   -4186.8304   -3719.6074   -4186.8304            0    141.82909    18.169227    23.518231    22.476594            0            0            0    9604.4305    1220.4711    520.90237   -1315.8862    190.74102    -971.4533    713.56668    18.169227    23.518231    22.476594           90           90           90 
   49500    299.81932   -4175.3967   -3661.5167   -4175.3967            0    -1447.126    18.458878    23.736872    22.065534            0            0            0     9668.147   -2725.2038   -1428.1315   -188.04285    283.23636    685.46627    119.02478    18.458878    23.736872    22.065534           90           90           90 
   50000    264.12919   -4200.2067   -3747.4983   -4200.2067            0   -525.78906     18.09602    23.738116    22.285665            0            0            0    9573.1509   -187.97552   -479.38048   -910.01119     332.2156   -537.09802    26.039776     18.09602    23.738116    22.285665           90           90           90 
   50500    263.83317   -4186.3403   -3734.1393   -4186.3403            0   -189.62621    18.099853    23.613204    22.401195            0            0            0    9574.1703   -20.947804    52.652749   -600.58359    111.85871    632.96027    933.27863    18.099853    23.613204    22.401195           90           90           90 
   51000    274.11122   -4197.5886   -3727.7714   -4197.5886            0   -318.92906    18.303605     23.58948    22.112167            0            0            0    9547.4261     91.07492   -427.84508   -620.01703   -193.76863    506.68753    89.059271    18.303605     23.58948    22.112167           90           90           90 
   51500    284.86175   -4232.1045   -3743.8612   -4232.1045            0    523.28582    18.127537    23.567475    22.226902            0            0            0    9495.7834    2143.8186   -224.88633   -349.07478    207.76739   -216.00622   -102.35119    18.127537    23.567475    22.226902           90           90           90 
   52000    274.06457   -4238.9239   -3769.1866   -4238.9239            0    1256.6768    18.085597    23.541287    22.293671            0            0            0     9491.714    -58.14202    1197.6418    2630.5307     856.7309    184.21325    60.246623    18.085597    23.541287    22.293671           90           90           90 
   52500    273.02053   -4192.4897   -3724.5418   -4192.4897            0   -283.12039    18.398826    23.660287    21.983254            0            0            0    9569.7832   -715.75974   -123.33032   -10.271091   -27.040942    559.05299   -144.98039    18.398826    23.660287    21.983254           90           90           90 
   53000    273.89984   -4225.9051   -3756.4501   -4225.9051            0    -1079.341    18.170045    23.685771    22.349695            0            0            0    9618.6722   -2467.4976    -283.5818   -486.94354    51.985292    218.93495   -52.557707    18.170045    23.685771    22.349695           90           90           90 
   53500    272.38532   -4218.4851    -3751.626   -4218.4851            0  -0.15776979    17.955505    23.673165     22.47212            0            0            0    9552.0814    665.03332   -180.69783    -484.8088    174.30005   -177.53528   -132.09672    17.955505    23.673165     22.47212           90           90           90 
   54000    275.80121   -4191.9687   -3719.2548   -4191.9687            0    -91.48475     18.44636     23.53711    21.973183            0            0            0    9540.1851   -574.70519   -1192.6577    1492.9086    543.52994   -110.91034   -325.81669     18.44636     23.53711    21.973183           90           90           90 
   54500    260.26896   -4235.8726   -3789.7805   -4235.8726            0    267.32731    18.130796    23.485174    22.283969            0            0            0    9488.6232    406.02395    813.77945   -417.82148   -692.27523   -140.33266    54.303706    18.130796    23.485174    22.283969           90           90           90 
   55000    279.50435   -4227.4536   -3748.3927   -4227.4536            0    1150.7357    18.033417    23.633284    22.179369            0            0            0    9452.6003    927.87207    1347.4463    1176.8888    294.66768    13.535718    427.27309    18.033417    23.633284    22.179369           90           90           90 
   55500     259.8786   -4216.4357   -3771.0127   -4216.4357            0    350.28442    18.199078    23.618133    22.120509            0            0            0    9508.0196    685.42876    119.18622    246.23829    265.72423    441.71988     65.32673    18.199078    23.618133    22.120509           90           90           90 
   56000    287.90741   -4202.3221   -3708.8587   -4202.3221            0   -141.94895    18.246742    23.554721    22.193713            0            0            0    9538.7897   -935.35659    119.23185    390.27788    761.64174    195.74374   -60.084274    18.246742    23.554721    22.193713           90           90           90 
   56500    269.81089   -4199.3688   -3736.9222   -4199.3688            0   -250.17864    18.101958    23.680893    22.269057            0            0            0    9546.0889    1080.8622   -1316.7721   -514.62602   -372.08016   -68.817584   -749.49776    18.101958    23.680893    22.269057           90           90           90 
   57000     273.9083    -4229.985   -3760.5155    -4229.985            0    487.93191    18.194203    23.582555    22.199725            0            0            0    9525.1424    827.43039   -592.89481    1229.2601  -0.95300094   -240.29813    456.89891    18.194203    23.582555    22.199725           90           90           90 
   57500    271.23045   -4211.8588   -3746.9791   -4211.8588            0    -492.2433    18.325018    23.558974    22.160717            0            0            0    9567.1942   -625.49665   -159.79638   -691.43686   -636.61965   -602.99485   -788.13927    18.325018    23.558974    22.160717           90           90           90 
   58000    258.08258   -4184.8402   -3742.4955   -4184.8402            0   -175.54987    18.009796    23.638981     22.28924            0            0            0    9489.2699    1230.1738   -77.604657   -1679.2187   -220.91933    555.14089    133.46476    18.009796    23.638981     22.28924           90           90           90 
   58500    270.29723   -4202.0664   -3738.7862   -4202.0664            0     1102.628    18.104712     23.61501    22.078795            0            0            0    9439.6332    1907.7441    88.775404    1311.3647    1215.6961   -640.42477    759.49859    18.104712     23.61501    22.078795           90           90           90 
   59000    265.28698   -4186.9356   -3732.2428   -4186.9356            0      273.433    18.374221    23.374744    22.144898            0            0            0    9511.0723    857.83015    332.59398   -370.12513   -477.66066    735.34684   -745.37197    18.374221    23.374744    22.144898           90           90           90 
   59500     259.0337   -4178.3112   -3734.3364   -4178.3112            0   -1081.6314    18.090658    23.837453    22.397792            0            0            0    9658.7167   -55.034241   -624.61698   -2565.2429   -40.120496   -60.546208    471.46236    18.090658    23.837453    22.397792           90           90           90 
   60000    260.18264   -4222.9232   -3776.9791   -4222.9232            0   -1586.0875    18.012622    23.920287    22.183216            0            0            0     9558.018    -1352.132   -1901.3258   -1504.8048   -96.652917   -337.01035   -188.40059    18.012622    23.920287    22.183216           90           90           90 
   60500     260.5337   -4215.3279   -3768.7821   -4215.3279            0    1184.5846    18.250819    23.323425    22.104528            0            0            0      9409.27    765.84715    364.10963     2423.797    410.61068    230.31692    111.80802    18.250819    23.323425    22.104528           90           90           90 
   61000    267.59106   -4203.8717   -3745.2298   -4203.8717            0    1171.5379    18.111301    23.469046    22.208434            0            0            0    9439.8048     3195.467    884.93953   -565.79283    373.04892    304.74977   -8.2640006    18.111301    23.469046    22.208434           90           90           90 
   61500    275.86784   -4209.5734   -3736.7453   -4209.5734            0    1232.8745    18.031424    23.683257    22.138426            0            0            0    9454.0564    1009.8769    51.259558    2637.4869   -627.40358    -145.1807   -403.26388    18.031424    23.683257    22.138426           90           90           90 
   62000     277.1193   -4193.5725   -3718.5995   -4193.5725            0   -651.41786    18.267118    23.590185    22.186735            0            0            0    9560.8121    -1196.986    893.58223   -1650.8498    387.91841   -13.254912   -238.04087    18.267118    23.590185    22.186735           90           90           90 
   62500    281.40211   -4224.8985   -3742.5849   -4224.8985            0    -1226.423    18.368403    23.427692    22.254924            0            0            0    9576.9456   -1802.2185   -491.93336    -1385.117    180.96073   -225.73028    100.26384    18.368403    23.427692    22.254924           90           90           90 
   63000    276.93473   -4170.9674   -3696.3107   -4170.9674            0   -40.926634    17.960042    23.890184    22.255388            0            0            0    9549.0908    447.82458   -1248.6729    678.06846    112.88609   -650.80649   -190.82072    17.960042    23.890184    22.255388           90           90           90 
   63500    266.15152   -4225.0504   -3768.8758   -4225.0504            0    226.04114    18.154657    23.586372    22.235625            0            0            0    9521.3504    -246.2627   -252.53856    1176.9247    690.06411   -173.35464    366.93926    18.154657    23.586372    22.235625           90           90           90 
   64000    278.69936    -4200.089   -3722.4078    -4200.089            0    523.19829    18.457806    23.291845    22.135262            0            0            0    9516.3114    550.69494     1152.574   -133.67406    627.16022   -143.87336   -111.11662    18.457806    23.291845    22.135262           90           90           90 
   64500    267.27604   -4226.8292   -3768.7272   -4226.8292            0    55.039336    17.980153    23.845659    22.228838            0            0            0    9530.5832     522.0572   -2372.5496    2015.6104    32.604037    420.40576    392.39972    17.980153    23.845659    22.228838           90           90           90 
   65000    267.72933    -4241.804   -3782.9251    -4241.804            0    442.16941    18.068813     23.73393     22.17046            0            0            0    9507.6675   -694.53534    525.53274    1495.5108    330.97926    414.39299   -143.25454    18.068813     23.73393     22.17046           90           90           90 
   65500    271.40595     -4219.85   -3754.6695     -4219.85            0   -244.54512    18.410163    23.299043    22.244916            0            0            0    9541.7161   -2116.7253    1910.0222   -526.93226    -410.1064    157.14937    233.65022    18.410163    23.299043    22.244916           90           90           90 
   66000    285.54328   -4203.9309   -3714.5194   -4203.9309            0   -1072.9663    18.251333    23.781387    22.136664            0            0            0    9608.2425   -1348.5921   -2054.0795    183.77282    60.641945    285.23381    563.59209    18.251333    23.781387    22.136664           90           90           90 
   66500      267.232   -4178.0969   -3720.0704   -4178.0969            0    521.33343    17.901234    23.784174    22.288827            0            0            0     9489.826    1975.1886   -1441.2583      1030.07   -591.34667     161.8754   -252.65758    17.901234    23.784174    22.288827           90           90           90 
   67000    261.03942   -4222.9331   -3775.5205   -4222.9331            0    604.56698     18.23138     23.53683    22.064205            0            0            0    9467.9463     193.6936   -268.85802    1888.8653   -395.42623   -40.935915    354.30601     18.23138     23.53683    22.064205           90           90           90 
   67500    278.50916    -4240.692   -3763.3369    -4240.692            0    1760.0923    18.207822    23.478176     22.06033            0            0            0     9430.492     1714.526    1615.1344    1950.6166    333.12783    70.434567    790.11235    18.207822    23.478176     22.06033           90           90           90 
   68000    262.35144   -4201.5893   -3751.9279   -4201.5893            0   -135.58116    18.093185    23.632852    22.269171            0            0            0    9522.1544    172.42702   -100.71527   -478.45522    221.27777   -123.00716   -312.88729    18.093185    23.632852    22.269171           90           90           90 
   68500     272.3753   -4201.8084   -3734.9664   -4201.8084            0   -954.92593    18.244382     23.62287    22.218385            0            0            0    9575.7833   -663.99409   -875.03506   -1325.7486   -838.25577   -425.51652    863.65758    18.244382     23.62287    22.218385           90           90           90 
   69000    265.21707   -4244.0149    -3789.442   -4244.0149            0   -811.00683    18.280104    23.583314    22.143546            0            0            0    9546.2032   -1199.4569   -173.82913   -1059.7344   -1069.2823    935.12753   -228.59736    18.280104    23.583314    22.143546           90           90           90 
   69500    247.98464   -4183.6994   -3758.6622   -4183.6994            0   -606.58185    18.198063    23.630348    22.359645            0            0            0    9615.2413   -974.13536    686.33598   -1531.9462    1170.5735   -235.78872    590.77059    18.198063    23.630348    22.359645           90           90           90 
   70000    264.48685   -4203.9021   -3750.5807   -4203.9021            0   -756.57474    17.998208    23.846288    22.292611            0            0            0    9567.7759   -533.41378   -438.79054   -1297.5199    -42.92949    -261.8539    429.49776    17.998208    23.846288    22.292611           90           90           90 
   70500    258.29749   -4200.4172   -3757.7041   -4200.4172            0    1142.0945    18.246299    23.481379    22.052446            0            0            0     9448.332    816.10652    1655.2377    954.93936   -429.72216   -807.45871   -909.22785    18.246299    23.481379    22.052446           90           90           90 
   71000    260.11201   -4204.6405   -3758.8174   -4204.6405            0    1031.8956    18.251714    23.375056    22.106309            0            0            0    9431.3219     545.6181     2504.866    45.202665   -662.13767    366.16672    206.35344    18.251714    23.375056    22.106309           90           90           90 
   71500    273.23793   -4223.4496   -3755.1291   -4223.4496            0   -197.34082    17.959981    23.791045    22.259948            0            0            0    9511.3804    1018.5412   -1557.4275    -53.13616    273.86165   -487.79708   -10.923492    17.959981    23.791045    22.259948           90           90           90 
   72000    283.75316   -4166.6309   -3680.2877   -4166.6309            0   -490.00233    18.215757    23.691019    22.196717            0            0            0    9578.9896     -905.159   -1206.4009    641.55294    691.48589   -522.43757   -249.73349    18.215757    23.691019    22.196717           90           90           90 
   72500    269.26879   -4196.2496   -3734.7321   -4196.2496            0   -505.93239    18.361062     23.41337    22.163487            0            0            0    9527.9575   -1887.3913    486.15753   -116.56342   -1012.7413    137.42669    327.32715    18.361062     23.41337    22.163487           90           90           90 
   73000    245.60824   -4193.5396   -3772.5755   -4193.5396            0    198.39975    17.987381    23.554586    22.392189            0            0            0    9487.2417    337.58398    194.94548    62.669791   -278.78195      -241.22   -335.94334    17.987381    23.554586    22.392189           90           90           90 
   73500    282.09979   -4206.9728   -3723.4635   -4206.9728            0    1570.7523    17.836833    23.898784    22.028434            0            0            0    9390.2505    2493.6916    1806.8077    411.75773    -979.6069   -257.07501    120.53858    17.836833    23.898784    22.028434           90           90           90 
   74000    280.63568   -4237.3386   -3756.3386   -4237.3386            0    301.71618    18.384086    23.435747    22.022792            0            0            0    9488.4055   -498.45779    149.27666    1254.3297    168.40401    194.44568    41.333828    18.384086    23.435747    22.022792           90           90           90 
   74500    283.05882   -4219.5827   -3734.4296   -4219.5827            0   -411.55107    18.176789     23.49804    22.344867            0            0            0    9543.9152    176.53115   -220.59735    -1190.587    452.84558   -470.42027     371.3286    18.176789     23.49804    22.344867           90           90           90 
   75000    274.07376   -4210.7262   -3740.9732   -4210.7262            0    757.99971    18.011785    23.715559    22.240634            0            0            0    9500.2992    807.37893    531.96064    934.65956   -583.17239    670.41669    1354.3247    18.011785    23.715559    22.240634           90           90           90 
   75500    255.20544   -4207.7859   -3770.3725   -4207.7859            0    909.16913    18.330277    23.591153    21.905926            0            0            0    9472.8315    98.165294    562.09598    2067.2461    166.16963    449.75593   -534.85663    18.330277    23.591153    21.905926           90           90           90 
   76000    251.60731   -4180.7818   -3749.5355   -4180.7818            0    400.60576    18.225287    23.322081    22.367272            0            0            0     9507.245   -166.47517    832.54864     535.7438    443.95505   -182.09699    284.51518    18.225287    23.322081    22.367272           90           90           90 
   76500     250.0811   -4245.3336   -3816.7032   -4245.3336            0   -266.17948    17.966817    23.796355    22.243103            0            0            0    9509.9219    725.83868   -67.014681   -1457.3625   -677.13853    514.43051     648.5754    17.966817    23.796355    22.243103           90           90           90 
   77000    260.28315   -4231.9105   -3785.7941   -4231.9105            0   -508.10644    18.258435    23.724292    22.049786            0            0            0    9551.2713   -377.73418    -1708.426    561.84086   -407.94851    -340.3955     590.7935    18.258435    23.724292    22.049786           90           90           90 
   77500    269.94875   -4207.4978   -3744.8149   -4207.4978            0   -791.18673    18.287233    23.430009    22.360158            0            0            0    9580.6574   -877.00426   -771.76507   -724.79086    400.84714   -306.72435   -260.63284    18.287233    23.430009    22.360158           90           90           90 
   78000    283.41655   -4181.2997   -3695.5334   -4181.2997            0   -208.82799    18.064773    23.701589    22.241247            0            0            0    9522.8971    -322.4357    474.44164   -778.48991    394.09022    233.70565    661.71652    18.064773    23.701589    22.241247           90           90           90 
   78500    251.95752   -4214.7009   -3782.8543   -4214.7009            0   -425.32534    18.153771    23.764279    22.022566            0            0            0    9500.7833   -589.08797   -1304.9155    618.02742    -268.8467    766.03982    706.25911    18.153771    23.764279    22.022566           90           90           90 
   79000    259.40131   -4207.1868   -3762.5818   -4207.1868            0    -339.6114    18.245123    23.310652    22.348837            0            0            0    9505.0883   -216.55069    90.175782   -892.45928   -295.41425    37.901865    123.26166    18.245123    23.310652    22.348837           90           90           90 
   79500    277.32079   -4200.2419   -3724.9236   -4200.2419            0     102.6033    18.127074    23.619049    22.212655            0            0            0    9510.2206    1258.8492    84.696302   -1035.7356   -166.00711   -711.12566    99.713659    18.127074    23.619049    22.212655           90           90           90 
   80000    279.63658   -4193.6567   -3714.3692   -4193.6567            0   -137.60963    18.042144    23.871537    21.986207            0            0            0    9469.3209    575.46106   -977.99483    -10.29511    820.19643    611.65353   -235.45793    18.042144    23.871537    21.986207           90           90           90 
   80500    277.03244   -4210.7152   -3735.8911   -4210.7152            0    1050.0169      18.1935    23.127658    22.366896            0            0            0     9411.387    1903.7615    1520.0328   -273.74362    41.285008   -470.84902    80.568703      18.1935    23.127658    22.366896           90           90           90 
   81000    268.53237   -4208.4177   -3748.1624   -4208.4177            0    100.20465    18.275245    23.473381    22.136025            0            0            0    9495.9511   -615.48326   -37.041308    953.13852    327.81776   -1151.0352    369.75276    18.275245    23.473381    22.136025           90           90           90 
   81500    274.34653    -4236.524   -3766.3034    -4236.524            0   -263.57151    18.031775    23.954658    22.008754            0            0            0    9506.5713   -353.97304   -489.41986    52.678385    80.565644    697.90735   -731.44225    18.031775    23.954658    22.008754           90           90           90 
   82000     254.2233   -4208.3387   -3772.6086   -4208.3387            0   -260.93244    18.085181    23.519125    22.279833            0            0            0    9476.6741    582.49722   -1065.1682    -300.1263    695.25404   -454.68909   -3.6417154    18.085181    23.519125    22.279833           90           90           90 
   82500    292.57904     -4194.07   -3692.5995     -4194.07            0     160.2857      18.1914    23.504563    22.153294            0            0            0    9472.3252   -50.685437    935.24732   -403.70478   -429.21304     294.1554   -756.76413      18.1914    23.504563    22.153294           90           90           90 
   83000    265.42245   -4206.9427   -3752.0177   -4206.9427            0    1226.4297    18.153276    23.507405    22.046988            0            0            0    9408.2529    2085.3177    542.24997    1051.7213   -34.796956   -400.82319    268.47182    18.153276    23.507405    22.046988           90           90           90 
   83500    288.68729   -4237.4539   -3742.6538   -4237.4539            0   -99.091179    17.979827     23.62557    22.283569            0            0            0     9465.696    758.23668   -110.45159   -945.05863   -1018.9269    61.967616   -81.471846    17.979827     23.62557    22.283569           90           90           90 
   84000    283.13546   -4190.3962   -3705.1117   -4190.3962            0   -206.98248    18.261485    23.447826      22.1869            0            0            0    9500.2556   -529.44587    180.16859   -271.67015   -405.68559   -397.31502    252.94866    18.261485    23.447826      22.1869           90           90           90 
   84500    265.42201   -4208.1453   -3753.2211   -4208.1453            0    163.44461     18.40889    23.513766    21.942696            0            0            0    9498.1664   -801.15955    724.61381    566.87957   -82.739587   -135.64548   -766.96316     18.40889    23.513766    21.942696           90           90           90 
   85000    263.90151    -4199.786   -3747.4678    -4199.786            0    961.18302     17.90891    23.639388    22.337461            0            0            0    9456.6909    131.18406     1132.589     1619.776   -287.57264   -269.04241   -197.87827     17.90891    23.639388    22.337461           90           90           90 
   85500    283.45413   -4198.9181   -3713.0874   -4198.9181            0    232.55582     18.20273    23.662246    22.071123            0            0            0    9506.4186   -576.49395    572.70819    701.45321   -342.29866    75.535683   -241.92324     18.20273    23.662246    22.071123           90           90           90 
   86000     279.2132   -4219.7657   -3741.2039   -4219.7657            0    346.52397    18.342994    23.468917     22.02156            0            0            0    9480.0661   -699.78451    463.12484    1276.2316    120.65247   -211.79834   -260.99468    18.342994    23.468917     22.02156           90           90           90 
   86500    266.88165   -4227.0277   -3769.6017   -4227.0277            0   -600.86582    18.027357    23.573327    22.520193            0            0            0    9570.2893   -154.71901   -504.17618   -1143.7023   -979.62936     71.06341   -272.55374    18.027357    23.573327    22.520193           90           90           90 
   87000    268.16625   -4232.0831   -3772.4553   -4232.0831            0   -1516.3192    18.231685    23.785256    22.005135            0            0            0    9542.4231   -2860.9152   -1553.0801   -134.96226    302.56861   -180.17165    287.64774    18.231685    23.785256    22.005135           90           90           90 
   87500     278.1482   -4222.6599   -3745.9235   -4222.6599            0   -106.54818    18.270757    23.545789    22.090714            0            0            0    9503.4119    -965.1824   -737.90095    1383.4388   -1092.1573   -832.83735   -21.346821    18.270757    23.545789    22.090714           90           90           90 
   88000      276.744   -4188.6241   -3714.2943   -4188.6241            0    658.55313    18.129777    23.486881    22.381283            0            0            0    9530.2168    798.22257   -350.65285    1528.0897   -838.71514   -64.662283    240.47024    18.129777    23.486881    22.381283           90           90           90 
   88500    261.26358   -4206.4257   -3758.6289   -4206.4257            0    1052.0567    18.074513    23.758785    22.043364            0            0            0    9466.0483     1879.397    983.33165    293.44142   -616.57264   -756.83826   -116.27554    18.074513    23.758785    22.043364           90           90           90 
   89000    263.57362   -4247.6658   -3795.9096   -4247.6658            0    801.39694    18.157309    23.469132    22.135112            0            0            0    9432.5744   -337.57335     1539.793    1201.9712    669.67549   -3.3362183   -9.7655261    18.157309    23.469132    22.135112           90           90           90 
   89500    256.09194   -4223.7403   -3784.8075   -4223.7403            0   -1028.4729    18.321192    23.217807    22.485347            0            0            0    9564.7695    53.210888    -123.5353   -3015.0944    75.152382    220.89669   -16.337254    18.321192    23.217807    22.485347           90           90           90 
   90000    267.22705   -4224.4123   -3766.3943   -4224.4123            0   -811.04737    18.082537    24.075566    22.003128            0            0            0    9579.0028   -1767.0459   -2043.4311     1377.335    262.84439    775.85434    363.96596    18.082537    24.075566    22.003128           90           90           90 
   90500    262.96454   -4196.2207   -3745.5084   -4196.2207            0    542.50946    18.072426    23.719067    22.240656            0            0            0    9533.7035    876.31275    359.63467    391.58096   -206.52356    61.253825    29.251358    18.072426    23.719067    22.240656           90           90           90 
   91000     273.9812   -4238.9762   -3769.3818   -4238.9762            0     240.5344    18.256012    23.324912    22.226787            0            0            0    9464.6073   -439.73113    1637.1663   -475.83192    701.50441    996.52459   -326.10544    18.256012    23.324912    22.226787           90           90           90 
   91500    248.88273   -4236.4693   -3809.8929   -4236.4693            0   -510.10706    18.168462    23.623462    22.118721            0            0            0    9493.3985    156.36821   -1749.1643    62.474858    1209.5525   -936.89792   -326.39389    18.168462    23.623462    22.118721           90           90           90 
   92000     289.5956   -4240.3125   -3743.9555   -4240.3125            0   -315.58223    17.927822    23.804267    22.285399            0            0            0    9510.4869    1063.9967   -919.56013   -1091.1832   -504.86373    150.77666    670.54641    17.927822    23.804267    22.285399           90           90           90 
   92500    282.74278   -4263.2121   -3778.6007   -4263.2121            0   -81.035536    18.352342    23.415232    22.103019            0            0            0    9498.2059   -929.88699    645.44316    41.337229    10.510995    348.92114    315.70843    18.352342    23.415232    22.103019           90           90           90 
   93000    264.68412     -4224.55   -3770.8905     -4224.55            0    -802.9822    18.346041    23.381742    22.237266            0            0            0    9538.9509      -977.86   -278.62343   -1152.4632    -402.1229   -938.11904   -402.11088    18.346041    23.381742    22.237266           90           90           90 
   93500    264.70552   -4224.0587   -3770.3625   -4224.0587            0    -548.3389    17.881686    23.874761     22.26027            0            0            0    9503.3765     336.4374   -1556.8483   -424.60581   -603.04886    269.45539    6.0167633    17.881686    23.874761     22.26027           90           90           90 
   94000    265.60043   -4230.4904   -3775.2604   -4230.4904            0    107.19434    18.206447    23.681727     22.02762            0            0            0     9497.431   -512.39999    179.46445    654.51857   -415.21903   -656.09911    184.03608    18.206447    23.681727     22.02762           90           90           90 
   94500    272.03186   -4222.9914   -3756.7381   -4222.9914            0     862.7188    18.385226    23.283597    22.167298            0            0            0    9489.2478   -492.90341    1672.9764    1408.0834    375.38344    923.29135    463.22919    18.385226    23.283597    22.167298           90           90           90 
   95000    260.46021   -4237.4232   -3791.0034   -4237.4232            0    765.09758    18.032461    23.564032    22.233544            0            0            0     9447.422    1431.0038    1999.1033   -1134.8144   -20.913047    -280.4369   -381.41628    18.032461    23.564032    22.233544           90           90           90 
   95500     268.2094   -4216.6313   -3756.9296   -4216.6313            0    24.054257    18.143062    23.785583    22.100412            0            0            0    9537.2849    384.38014   -2434.1653    2121.9479   -528.06038    278.28373    159.63017    18.143062    23.785583    22.100412           90           90           90 
   96000    281.09545    -4214.021    -3732.233    -4214.021            0   -417.90273    18.223835    23.468078    22.327689            0            0            0    9549.0699    -126.0032   -12.013775   -1115.6912   -1173.1125    420.76962   -774.89237    18.223835    23.468078    22.327689           90           90           90 
   96500     286.8873   -4205.9939   -3714.2789   -4205.9939            0    811.54093    18.159796    23.517742    22.194406            0            0            0    9478.7293    138.99226    8.7455522     2286.885    477.29473   -79.935073   -158.88871    18.159796    23.517742    22.194406           90           90           90 
   97000    269.73092    -4209.955   -3747.6454    -4209.955            0    96.501217    18.095434    23.776954    22.079343            0            0            0    9499.7319   -477.83268     179.6574    587.67893   -207.06126    10.187238    379.26205    18.095434    23.776954    22.079343           90           90           90 
   97500     270.5897   -4201.3169   -3737.5354   -4201.3169            0   -245.10805    18.233832      23.4061    22.348192            0            0            0    9537.8264   -1250.9451    220.39794    295.22299    198.61241   -502.78071   -656.85187    18.233832      23.4061    22.348192           90           90           90 
   98000    253.69334   -4214.6322   -3779.8105   -4214.6322            0    577.25497    18.235204    23.426684    22.202993            0            0            0    9484.9046   -1147.6854    1906.1124     973.3379   -893.08019     18.91845     554.5394    18.235204    23.426684    22.202993           90           90           90 
   98500    271.60356   -4215.3968   -3749.8776   -4215.3968            0   -415.97158    18.058097    23.976427    22.015845            0            0            0    9532.1711   -537.02186   -1935.8507    1224.9578    338.99114   -300.93026   -1045.3699    18.058097    23.976427    22.015845           90           90           90 
   99000     257.9802   -4193.5808   -3751.4116   -4193.5808            0   -644.64055      18.1496    23.366108    22.446763            0            0            0    9519.3471    -563.6624   -444.51492   -925.74434     395.6731   -445.27675    838.54629      18.1496    23.366108    22.446763           90           90           90 
   99500    280.35386   -4170.9441   -3690.4271   -4170.9441            0       878.47    18.365981    23.307779    22.186281            0            0            0    9497.2863   -888.59603    1720.1729    1803.8332   -867.01673   -372.00759   -659.70804    18.365981    23.307779    22.186281           90           90           90 
  100000    273.67279   -4225.8545   -3756.7887   -4225.8545            0    137.70283     18.13402    23.828299    21.970944            0            0            0    9493.7075    249.18003   -784.81478    948.74324    452.71894     85.09299   -16.635769     18.13402    23.828299    21.970944           90           90           90 
  100500    260.45368   -4186.3105   -3739.9018   -4186.3105            0   -515.38137    17.988643    23.665157    22.405019            0            0            0    9537.9071   -151.79411   -2202.8178    808.46782    347.39332   -169.57367    330.57449    17.988643    23.665157    22.405019           90           90           90 
  101000    275.42185   -4248.1212   -3776.0576   -4248.1212            0   -35.025517    18.265875     23.49176    22.162202            0            0            0    9509.7467   -1789.1326    983.27786    700.77818   -629.30484    57.460471    576.05496    18.265875     23.49176    22.162202           90           90           90 
  101500     267.6779    -4202.899   -3744.1083    -4202.899            0   -323.76151    18.281456    23.614445    22.131059            0            0            0    9554.1207    712.88504     -2091.92    407.75047   -380.71332    499.39134     145.0957    18.281456    23.614445    22.131059           90           90           90 
  102000    270.44923    -4200.694   -3737.1533    -4200.694            0    278.43508    18.012652    23.602952    22.259967            0            0            0    9463.8642     942.3129   -242.42968    135.42201     -864.548   -382.25612   -144.45314    18.012652    23.602952    22.259967           90           90           90 
  102500    257.58798    -4213.949   -3772.4521    -4213.949            0    1039.3672    18.158647    23.510773    22.110335            0            0            0    9439.4285    1752.1061    686.61465    679.38077   -665.05951   -59.174519     706.9651    18.158647    23.510773    22.110335           90           90           90 
  103000    279.03398   -4219.9063   -3741.6516   -4219.9063            0    1949.0774     18.19644    23.500331    22.101789            0            0            0    9451.2194    2810.8567    2464.4491    571.92649   -112.54178   -704.88891    280.32347     18.19644    23.500331    22.101789           90           90           90 
  103500    270.07871   -4228.1415   -3765.2358   -4228.1415            0    708.68202    18.082734    23.508762    22.188787            0            0            0    9432.5133    1091.9435    678.84402    355.25849   -36.317848    490.71102    688.26386    18.082734    23.508762    22.188787           90           90           90 
  104000    264.77004   -4197.8473   -3744.0405   -4197.8473            0    23.940176    18.205553    23.663802    22.161467            0            0            0    9547.4395   -1448.1582    175.56124    1344.4175   -1363.3227   -64.173908    124.90593    18.205553    23.663802    22.161467           90           90           90 
  104500    281.94097   -4225.7175   -3742.4803   -4225.7175            0    -418.8082    18.213282    23.492169    22.207962            0            0            0    9502.1099   -1232.2689   -482.02717    457.87145    80.232274    237.53492    422.42578    18.213282    23.492169    22.207962           90           90           90 
  105000    271.01975   -4183.2871   -3718.7685   -4183.2871            0    362.20695    18.092787    23.650036    22.184675            0            0            0    9492.7132    446.67527    808.51173   -168.56615   -128.28231     61.09041   -386.07833    18.092787    23.650036    22.184675           90           90           90 
  105500    286.21492   -4197.4381   -3706.8756   -4197.4381            0      758.287    18.078664    23.734209    21.965123            0            0            0    9424.8561    963.76799   -12.999782    1324.0928   -237.04703    -243.1487     647.3753    18.078664    23.734209    21.965123           90           90           90 
  106000    258.62985   -4212.0339   -3768.7512   -4212.0339            0    705.36226    18.223254    23.218925    22.317541            0            0            0    9443.0957   -795.23708    1239.2001    1672.1237   -787.01278    355.90861    464.22249    18.223254    23.218925    22.317541           90           90           90 
  106500    256.24108   -4189.8184   -3750.6299   -4189.8184            0   -414.03088    18.255542    23.571334    22.138096            0            0            0    9526.1882    54.487176    232.14159   -1528.7214    590.38552   -59.892248    334.15695    18.255542    23.571334    22.138096           90           90           90 
  107000    257.34921   -4210.3507   -3769.2629   -4210.3507            0   -788.03462    18.103216    23.968615     21.99307            0            0            0    9542.9911    430.98386   -1315.1006   -1479.9872   -157.36369    146.48866    613.34653    18.103216    23.968615     21.99307           90           90           90 
  107500    273.13532   -4206.2081   -3738.0635   -4206.2081            0   -789.36353     18.18116    23.435877    22.448928            0            0            0    9565.2955   -1750.3802   -526.76293   -90.947507    274.86079   -106.03048    244.53632     18.18116    23.435877    22.448928           90           90           90 
  108000    260.87689   -4180.9084   -3733.7744   -4180.9084            0   -590.64101    18.255912    23.526294      22.1527            0            0            0    9514.4505   -149.81708    266.46137   -1888.5673   -373.83861   -52.053377    719.58898    18.255912    23.526294      22.1527           90           90           90 
  108500    281.38977   -4197.4079   -3715.1155   -4197.4079            0    1931.7313    18.096644    23.742726    21.958393            0            0            0    9434.7239    1581.9299   -192.85452    4406.1186   -247.46624    231.83137   -14.708427    18.096644    23.742726    21.958393           90           90           90 
  109000    268.20433   -4210.8443   -3751.1513   -4210.8443            0    512.81126    18.049645    23.434337    22.391782            0            0            0    9471.3087    718.70991    549.07908    270.64478   -675.72471   -2.3185688   -584.30954    18.049645    23.434337    22.391782           90           90           90 
  109500    277.10775   -4217.0189   -3742.0657   -4217.0189            0   -587.96812    18.298745    23.599802    22.132025            0            0            0    9557.6429   -1579.0228   -1162.3818    977.50021    1229.3993    487.48707    296.64934    18.298745    23.599802    22.132025           90           90           90 
  110000    277.27727    -4223.753   -3748.5092    -4223.753            0   -910.79592    18.237901    23.706086    22.147492            0            0            0    9575.4517   -2367.9321    -719.9417    355.48598    -370.9887    127.79998    543.91202    18.237901    23.706086    22.147492           90           90           90 
  110500    266.51789   -4223.1038   -3766.3013   -4223.1038            0   -56.491083    18.109186    23.552828    22.314105            0            0            0    9517.4687    150.62431   -307.63129   -12.466266   -497.94591   -555.57602   -285.38191    18.109186    23.552828    22.314105           90           90           90 
  111000    272.61575   -4212.9301    -3745.676   -4212.9301            0   -901.57219    18.226964    23.554405    22.246301            0            0            0    9550.8999   -895.38112    -423.8936   -1385.4418    -1045.279    462.37672    134.32488    18.226964    23.554405    22.246301           90           90           90 
  111500    269.12089    -4196.576    -3735.312    -4196.576            0   -246.37926    18.109291     23.72086    22.109427            0            0            0    9497.5013    182.21457   -652.87303   -268.47933   -511.83121   -22.467733    983.99068    18.109291     23.72086    22.109427           90           90           90 
  112000    260.38615   -4198.5571   -3752.2642   -4198.5571            0   -401.43712    18.172134    23.390672    22.312092            0            0            0    9483.9429     -918.702   -801.48934       515.88   -736.85979   -729.87383   -101.76804    18.172134    23.390672    22.312092           90           90           90 
  112500    271.68034    -4247.763   -3782.1122    -4247.763            0   -1050.4844    18.393233    23.338664    22.304503            0            0            0     9574.732   -1159.3539   -457.19074   -1534.9086   -400.20629    1104.2016    80.324368    18.393233    23.338664    22.304503           90           90           90 
  113000    252.73531   -4205.6887   -3772.5091   -4205.6887            0   -441.53004    18.094232    23.931654    21.948897            0            0            0    9504.4192   -271.39152   -1712.5684    659.36978   -1156.2004    663.03662    1033.9809    18.094232    23.931654    21.948897           90           90           90 
  113500    267.56884   -4206.3727   -3747.7689   -4206.3727            0   -174.35166    18.044623    23.622148    22.249378            0            0            0    9483.8584   -530.75951   -265.53595    273.24049   -397.83148    12.869957    169.68299    18.044623    23.622148    22.249378           90           90           90 
  114000    286.92311   -4219.9066   -3728.1302   -4219.9066            0    152.27754    18.333007    23.278411    22.123442            0            0            0    9441.4723    115.97397   -427.14585     768.0045    162.19295    42.272586   -112.42757    18.333007    23.278411    22.123442           90           90           90 
  114500    273.55002   -4205.6543   -3736.7989   -4205.6543            0    -1211.637    18.103655    23.767265    22.150016            0            0            0    9530.5843   -849.35116   -1672.9382   -1112.6218   -224.34972    280.29464   -83.168806    18.103655    23.767265    22.150016           90           90           90 
  115000    269.40826    -4192.742   -3730.9855    -4192.742            0   -218.89716    18.060831    23.742296    22.294016            0            0            0    9559.7989   -39.615262    141.23278     -758.309   -192.50963   -549.08191     94.97236    18.060831    23.742296    22.294016           90           90           90 
  115500     272.0194   -4208.0602   -3741.8282   -4208.0602            0    234.05978    18.362728    23.252323    22.135622            0            0            0    9451.3814    356.57647    650.72464   -305.12177    206.62962   -92.332685   -225.02287    18.362728    23.252323    22.135622           90           90           90 
  116000    267.09663   -4229.1002   -3771.3057   -4229.1002            0     1194.777    18.150543    23.500244    22.105865            0            0            0    9429.0837    718.37805      634.031    2231.9219   -1259.7401    178.04673   -118.44513    18.150543    23.500244    22.105865           90           90           90 
  116500    275.75834   -4212.3046   -3739.6642   -4212.3046            0    808.66483    17.832414    23.903973    22.211372            0            0            0    9467.9422    2432.4532    227.16431   -233.62304      490.427   -1032.2697    793.36809    17.832414    23.903973    22.211372           90           90           90 
  117000    260.13825   -4236.8769   -3791.0088   -4236.8769            0    -1201.192    18.301862    23.449877    22.163739            0            0            0    9512.1537   -1083.3724    -1424.848   -1095.3556   -664.95711   -235.36741    39.063364    18.301862    23.449877    22.163739           90           90           90 
  117500    258.61947   -4220.1137   -3776.8488   -4220.1137            0   -1103.0135     18.26605    23.460052    22.234084            0            0            0    9527.8048   -523.53045   -1186.6175   -1598.8924   -162.24604    223.95822   -149.97922     18.26605    23.460052    22.234084           90           90           90 
  118000    270.25552   -4234.8587     -3771.65   -4234.8587            0   -52.726196    18.022454    23.735453     22.19449            0            0            0    9494.1616    896.62533    46.021406   -1100.8253    311.20566    233.91413    377.15665    18.022454    23.735453     22.19449           90           90           90 
  118500    262.61108   -4194.2471   -3744.1407   -4194.2471            0    127.51584    18.197284    23.587377    22.173559            0            0            0    9517.4727    -364.8631   -939.06177    1686.4724    267.21676    106.92806    163.35118    18.197284    23.587377    22.173559           90           90           90 
  119000     271.4396   -4220.5795   -3755.3413   -4220.5795            0    563.64454    18.282416    23.407471    22.202703            0            0            0    9501.5383     162.5702    1284.3706    243.99287     249.3486   -277.73074    693.40748    18.282416    23.407471    22.202703           90           90           90 
  119500    274.32626   -4208.1097   -3737.9239   -4208.1097            0   -439.26863    18.035078    23.742249    22.261176            0            0            0    9532.0871    1743.9301   -2680.4492    -381.2868   -731.96123    1071.4568    761.23994    18.035078    23.742249    22.261176           90           90           90 
  120000    272.15373   -4220.7284   -3754.2662   -4220.7284            0   -1027.3643    18.086843     23.86622    22.167573            0            0            0    9568.9565   -730.11474   -727.22584   -1624.7522   -100.06799    398.64174   -304.35209    18.086843     23.86622    22.167573           90           90           90 
  120500    284.85112   -4219.8322   -3731.6071   -4219.8322            0   -1232.0297     18.39251    23.283852    22.246323            0            0            0     9526.954   -2724.2337    114.16688   -1086.0224   -897.26413       85.118    400.10064     18.39251    23.283852    22.246323           90           90           90 
  121000    261.34581   -4213.2076   -3765.2699   -4213.2076            0   -551.51385    18.217234    23.565387    22.127233            0            0            0    9499.1365   -704.25201    383.53892   -1333.8284    429.51125   -417.53737   -197.38855    18.217234    23.565387    22.127233           90           90           90 
  121500    255.69471    -4197.898   -3759.6461    -4197.898            0    67.166628    17.962624    23.830537    22.074273            0            0            0    9449.0908    71.335015   -255.93211    386.09698   -593.97006    11.409486   -463.38671    17.962624    23.830537    22.074273           90           90           90 
  122000     287.1432   -4208.8713   -3716.7177   -4208.8713            0    423.15377     18.24794      23.3881    22.209052            0            0            0    9478.4819   -144.96696     1465.979   -51.550674    256.70105   0.71511211    -922.1095     18.24794      23.3881    22.209052           90           90           90 
  122500    276.26368   -4181.1577   -3707.6512   -4181.1577            0   -699.82017    18.243768    23.552435    22.232929            0            0            0    9553.1595   -1316.9507   -605.33955   -177.17027   -383.27798   -515.65833    228.68177    18.243768    23.552435    22.232929           90           90           90 
  123000    259.46609   -4210.2697   -3765.5537   -4210.2697            0    1229.6948    17.931082    23.888808    22.041711            0            0            0    9441.6149    3214.8366    1090.1205   -615.87282    353.89713    1075.3271   -286.34487    17.931082    23.888808    22.041711           90           90           90 
  123500    271.90871   -4220.5802    -3754.538   -4220.5802            0    18.910493     18.19917    23.405695     22.38004            0            0            0    9533.0964    655.95752   -887.39234     288.1663   -328.69307     377.0391     996.3601     18.19917    23.405695     22.38004           90           90           90 
  124000    272.57488   -4195.1048   -3727.9208   -4195.1048            0   -1015.2138    18.406268     23.48365    22.169033            0            0            0    9582.4834     -1266.05   -1067.6121   -711.97946   -417.96251    -271.9693   -40.144315    18.406268     23.48365    22.169033           90           90           90 
  124500    281.75259   -4223.9544   -3741.0401   -4223.9544            0    552.29942    18.113937    23.793021    22.090242            0            0            0    9520.5693     457.1143   -618.57861    1818.3626    139.41189     348.1027     64.14282    18.113937    23.793021    22.090242           90           90           90 
  125000    275.82998   -4161.1851   -3688.4219   -4161.1851            0    1062.6114    18.090231    23.513673    22.317178            0            0            0     9493.008    1266.2619     1975.372   -53.799654    96.266772    710.82995    359.95144    18.090231    23.513673    22.317178           90           90           90 
  125500    283.80676   -4223.0277   -3736.5926   -4223.0277            0   -507.36786     18.29907    23.546053    22.199986            0            0            0    9565.3269   -1056.4889    13.623856    -479.2385   -1278.0253   -1258.0945    209.35146     18.29907    23.546053    22.199986           90           90           90 
  126000    295.55519   -4239.7954   -3733.2239   -4239.7954            0    385.96825    18.066447      23.6778    22.163348            0            0            0    9480.8975    289.96168   -45.860504    913.80356    913.46508    191.91856   -76.091683    18.066447      23.6778    22.163348           90           90           90 
  126500      270.696   -4269.0638   -3805.1001   -4269.0638            0    535.02842    17.953992    23.625755    22.298156            0            0            0    9458.3566    1588.6594     450.4013   -433.97541   -485.55504   -19.249552   -558.34649    17.953992    23.625755    22.298156           90           90           90 
  127000    274.34388   -4194.7275   -3724.5115   -4194.7275            0   -567.98918    18.513567    23.364333     22.16391            0            0            0    9587.1574   -348.99833   -1374.9752    20.005971     818.3388    402.76758   -279.00786    18.513567    23.364333     22.16391           90           90           90 
  127500    272.24519     -4202.84    -3736.221     -4202.84            0   -810.60502    18.255572    23.730409    22.180249            0            0            0     9608.754   -1729.1546   -619.00163   -83.658852   -612.50004   -155.51583   -135.92303    18.255572    23.730409    22.180249           90           90           90 
  128000    278.26546   -4235.5796   -3758.6422   -4235.5796            0    -24.01601    18.022086    23.825371     22.21522            0            0            0     9538.835   -709.82398   -548.26648    1186.0424    -1058.625   -276.74336   -639.12544    18.022086    23.825371     22.21522           90           90           90 
  128500    266.82026   -4221.1496   -3763.8288   -4221.1496            0    792.54075    18.235717    23.485327    22.176986            0            0            0    9497.7772    696.23526    577.14696      1104.24   -1159.9781    559.45408   -280.52241    18.235717    23.485327    22.176986           90           90           90 
  129000    278.73621   -4200.7209   -3722.9766   -4200.7209            0   -519.17002    18.155249    23.584014    22.209076            0            0            0     9509.341   -1363.0601   -785.82723    591.37726    1137.8281   -556.22154    -124.0756    18.155249    23.584014    22.209076           90           90           90 
  129500    275.25643   -4210.3153   -3738.5352   -4210.3153            0   -1205.0687    18.094592    23.786905    22.294356            0            0            0    9595.8105   -769.97292   -2526.5161   -318.71701      525.829   -37.005896   -840.37384    18.094592    23.786905    22.294356           90           90           90 
  130000     256.7515   -4217.6573   -3777.5941   -4217.6573            0   -764.86946    18.412672    23.622356      21.9903            0            0            0    9564.6963   -1235.1938   -1317.4313    258.01678    596.91786   -214.75245    181.58636    18.412672    23.622356      21.9903           90           90           90 
  130500    270.99687   -4194.7288   -3730.2495   -4194.7288            0    238.79409    18.454268     23.17025    22.204918            0            0            0    9494.6011     -897.404     1864.446   -250.65974    38.026106    787.74175     190.5742    18.454268     23.17025    22.204918           90           90           90 
  131000    266.02144    -4237.602   -3781.6504    -4237.602            0    1372.8168    17.885809    23.586013     22.32939            0            0            0     9419.763    2539.8283    384.30004     1194.322   -741.97809   -123.24304   -21.899838    17.885809    23.586013     22.32939           90           90           90 
  131500    264.67755     -4204.06   -3750.4117     -4204.06            0    739.78047    18.098399    23.762325    22.034697            0            0            0    9476.2425    1364.8704    1.9249084    852.54607   -633.85732   -107.74653   -6.5190964    18.098399    23.762325    22.034697           90           90           90 
  132000    268.40169   -4175.3765   -3715.3451   -4175.3765            0   -127.22992    18.263109    23.424508    22.246011            0            0            0      9516.94    540.61814    1868.0327   -2790.3406    759.49228   -332.95105   -445.31686    18.263109    23.424508    22.246011           90           90           90 
  132500    277.27287    -4192.661   -3717.4247    -4192.661            0   -462.43249     18.15743    23.668114    22.261831            0            0            0    9567.0688    586.93307    -1156.155    -818.0755   -552.86103    171.99941    672.98057     18.15743    23.668114    22.261831           90           90           90 
  133000    270.99728   -4200.9246   -3736.4446   -4200.9246            0   -1531.4005    18.167086    23.797242    22.098256            0            0            0    9553.6629   -1366.7977   -1928.9361   -1298.4677    53.947965   -357.74933   -282.88091    18.167086    23.797242    22.098256           90           90           90 
  133500    272.34983   -4193.4366   -3726.6383   -4193.4366            0   -247.81656      18.3054    23.420656    22.283469            0            0            0    9553.4687    64.133152    440.60834   -1248.1912   -136.36191    185.46177    264.74256      18.3054    23.420656    22.283469           90           90           90 
  134000     255.6403   -4231.8287     -3793.67   -4231.8287            0    -792.9838    18.226652    23.345133    22.428498            0            0            0    9543.4066    -1562.326    296.42702   -1113.0524   -243.48191   -999.15802   -57.980405    18.226652    23.345133    22.428498           90           90           90 
  134500     267.8509   -4203.9746   -3744.8873   -4203.9746            0    23.636372     18.03622    23.941901    21.928258            0            0            0    9469.0913     1336.078   -781.12796    -484.0409    711.08914    3.8082126    545.10581     18.03622    23.941901    21.928258           90           90           90 
  135000    254.12291   -4229.2144   -3793.6565   -4229.2144            0    1145.6279    18.123632    23.520745    22.184369            0            0            0    9456.7819    566.49441   -67.576213    2937.9654   -1694.4393    856.85788    641.37409    18.123632    23.520745    22.184369           90           90           90 
  135500    270.34256   -4222.5531   -3759.1952   -4222.5531            0   -749.61893    18.311028    23.369182    22.362536            0            0            0    9569.2365   -103.32955    950.80827   -3096.3355   -41.883019   -271.23776    569.00135    18.311028    23.369182    22.362536           90           90           90 
  136000    269.17694   -4202.9953   -3741.6353   -4202.9953            0    261.49066    18.129201    23.840419    21.993422            0            0            0    9505.7276    1165.2194   -55.829971   -324.91747   -632.16521   -412.19071    487.62027    18.129201    23.840419    21.993422           90           90           90 
  136500    268.13972   -4191.8994   -3732.3171   -4191.8994            0   -443.81347    18.135202    23.600035    22.248091            0            0            0    9521.9914   -1471.9955    345.08169   -204.52663   -473.45682    279.27436   -301.20582    18.135202    23.600035    22.248091           90           90           90 
  137000    259.58127   -4208.4052   -3763.4918   -4208.4052            0   -508.92919     18.20927    23.342422    22.416866            0            0            0    9528.2545   -714.17937    449.48703   -1262.0952   -867.26222    332.59085    106.12747     18.20927    23.342422    22.416866           90           90           90 
  137500    276.08042   -4162.3293   -3689.1369   -4162.3293            0    20.215153    18.243377    23.758758    21.963963            0            0            0    9520.0597    73.681488    -536.6036    523.56757    265.46871   -354.86376    993.31227    18.243377    23.758758    21.963963           90           90           90 
  138000    274.86626   -4207.9067   -3736.7954   -4207.9067            0    338.41193    18.138926     23.59251    22.259684            0            0            0    9525.8715    594.30022    290.92892    130.00666   -160.06155    -253.3143    202.54579    18.138926     23.59251    22.259684           90           90           90 
  138500    270.75875   -4203.9909   -3739.9196   -4203.9909            0   -136.23709    18.211064    23.546858    22.319956            0            0            0    9571.0951   -391.86541    1386.6539   -1403.4997    362.99973   -352.47525    485.31649    18.211064    23.546858    22.319956           90           90           90 
  139000    251.27569   -4242.7746   -3812.0967   -4242.7746            0   -118.36531    18.175981    23.657854    22.103936            0            0            0    9504.7965   -448.18838   -1241.2322    1334.3247    784.46851    -427.1629   -297.73797    18.175981    23.657854    22.103936           90           90           90 
  139500     270.4066   -4202.4957   -3739.0281   -4202.4957            0    -143.5349    18.215608    23.682248    22.134919            0            0            0    9548.7057    543.03188   -1200.4757    226.83912    855.03432   -635.86461   -396.56063    18.215608    23.682248    22.134919           90           90           90 
  140000    269.15156   -4199.6351   -3738.3185   -4199.6351            0   -262.58575    18.208951    23.398082    22.429536            0            0            0    9556.2053    600.24283   -328.03471   -1059.9654    338.71062    96.061618   -54.540395    18.208951    23.398082    22.429536           90           90           90 
  140500    276.55922   -4193.4367   -3719.4236   -4193.4367            0   -1586.0954    18.277698     23.74945    22.061319            0            0            0    9576.4938   -2490.7667   -2834.6634    567.14371   -253.15756    230.71645    -369.2748    18.277698     23.74945    22.061319           90           90           90 
  141000    265.90086   -4230.2455   -3774.5005   -4230.2455            0   -733.59073    18.141776    23.763208    22.167515            0            0            0    9556.5667   -553.40782    -1734.953    87.588657   -741.33719   -203.40641   -266.67727    18.141776    23.763208    22.167515           90           90           90 
  141500    268.96037   -4221.2655   -3760.2766   -4221.2655            0   -627.17238    18.183633    23.336864    22.536771            0            0            0    9563.4559   -1044.9735    1487.2259   -2323.7695    12.311026    159.33261    663.70429    18.183633    23.336864    22.536771           90           90           90 
  142000    268.47031    -4218.853   -3758.7041    -4218.853            0    581.67168    18.350829     23.58659    21.911955            0            0            0    9484.2279    193.56436     598.9009     952.5498    -714.5626   -241.92051     640.7755    18.350829     23.58659    21.911955           90           90           90 
  142500    276.04489    -4199.207   -3726.0755    -4199.207            0    720.03252    18.035719    23.840219    22.146624            0            0            0    9522.5055    2400.0595   -77.598258   -162.36367    547.66697    412.50838   -109.63527    18.035719    23.840219    22.146624           90           90           90 
  143000    268.92315   -4210.4931    -3749.568   -4210.4931            0    121.96979    18.116721    23.474828    22.438702            0            0            0    9542.8866   -697.43116    972.39873    90.941801    754.70225   -735.58871    240.56069    18.116721    23.474828    22.438702           90           90           90 
  143500    261.64571   -4198.5465   -3750.0947   -4198.5465            0   -401.22285      18.3697     23.57789    22.073886            0            0            0    9560.6145   -1396.2376    -227.8417    420.41073   -200.12622    356.97457    1032.4712      18.3697     23.57789    22.073886           90           90           90 
  144000    273.17985   -4217.8256   -3749.6047   -4217.8256            0    218.23653    18.082295    23.657832    22.277887            0            0            0    9530.2108     452.1709    505.68806   -303.14938   -709.32744   -139.17386   -250.49595    18.082295    23.657832    22.277887           90           90           90 
  144500    278.55277   -4225.6464   -3748.2165   -4225.6464            0    178.30366    18.079546    23.667679    22.240425            0            0            0    9516.6978    182.43127   -384.11122    736.59092    208.44649    160.30992   -345.47142    18.079546    23.667679    22.240425           90           90           90 
  145000    276.64878   -4191.6724   -3717.5058   -4191.6724            0    939.90346    18.389005    23.371922    21.992477            0            0            0    9452.0671    80.525146      2296.87    442.31525   -149.97072    198.51211    1299.2647    18.389005    23.371922    21.992477           90           90           90 
  145500    271.03343   -4182.2158   -3717.6738   -4182.2158            0    -783.7838    18.320021    23.551682    22.344093            0            0            0    9640.7457   -1605.3733   -246.98637   -498.99178   -469.44501    416.46065    233.25874    18.320021    23.551682    22.344093           90           90           90 
  146000    254.63375   -4205.6303   -3769.1968   -4205.6303            0    -1275.942    18.024451    23.912285    22.399542            0            0            0    9654.3325   -1404.0111   -1849.0653   -574.74961    34.319385   -214.65984   -544.98301    18.024451    23.912285    22.399542           90           90           90 
  146500    268.01494   -4214.0978   -3754.7294   -4214.0978            0    83.321267    18.314298    23.602976    22.201921            0            0            0    9597.2675   -341.15011   -251.14117    842.25508    1195.1755   -629.84139   -266.67816    18.314298    23.602976    22.201921           90           90           90 
  147000    267.59981   -4235.9761   -3777.3192   -4235.9761            0    839.52359    18.243824    23.491149    22.192508            0            0            0    9511.0077    9.8832619    622.83005    1885.8574   -130.15915   -458.85835    265.99685    18.243824    23.491149    22.192508           90           90           90 
  147500    273.17943   -4222.0999   -3753.8797   -4222.0999            0    724.20661     18.01995    23.689343     22.16008            0            0            0    9459.7122    508.99321   -67.189547    1730.8162    405.37324   -334.44331    -235.0604     18.01995    23.689343     22.16008           90           90           90 
  148000    266.09828   -4234.7805   -3778.6971   -4234.7805            0   -452.60826    18.246225    23.524596    22.192407            0            0            0    9525.7592    804.62521     185.5616   -2348.0116    474.51268    693.08973   -628.88415    18.246225    23.524596    22.192407           90           90           90 
  148500     264.4227   -4207.4015   -3754.1901   -4207.4015            0   -615.54197    18.389461    23.411822    22.279893            0            0            0    9592.1793   -1053.2719    166.90907    -960.2631    711.97557   -575.28383    702.43242    18.389461    23.411822    22.279893           90           90           90 
  149000    285.44619   -4189.3569   -3700.1119   -4189.3569            0   -1587.8532    18.097474     23.96159    22.357532            0            0            0    9695.2151   -2212.9157   -1183.4633   -1367.1807   -1070.6214   -104.55238    11.690256    18.097474     23.96159    22.357532           90           90           90 
  149500    268.57282   -4171.9665   -3711.6419   -4171.9665            0   -98.316047    18.156497    23.713928    22.209363            0            0            0    9562.5048    1371.5993   -396.07292   -1270.4745    441.63602    206.20183    387.55562    18.156497    23.713928    22.209363           90           90           90 
  150000     260.1599   -4209.9579   -3764.0527   -4209.9579            0   -281.30196    18.262568    23.409144     22.13829            0            0            0    9464.3647   -1509.4076   -154.32954     819.8313    483.81538    207.70882    403.39602    18.262568    23.409144     22.13829           90           90           90 
  150500    268.08234    -4222.874   -3763.3901    -4222.874            0    115.33873    18.117245    23.597394    22.227223            0            0            0    9502.5771   -926.71909    334.57577    938.15951     925.9894   -375.63074    140.07992    18.117245    23.597394    22.227223           90           90           90 
  151000    271.76814   -4188.2598   -3722.4586   -4188.2598            0   -829.54783    18.153975    23.816114    22.127924            0            0            0    9567.1658    1027.9372   -2121.9116    -1394.669    496.43841   -255.34394   -225.39749    18.153975    23.816114    22.127924           90           90           90 
  151500     272.5867   -4217.6468   -3750.4425   -4217.6468            0   -1671.8153    18.414978    23.447909    22.325687            0            0            0    9640.0691   -1805.6874   -2154.0919   -1055.6666    904.68378    693.07649   -513.94685    18.414978    23.447909    22.325687           90           90           90 
  152000    244.31774   -4177.9523      -3759.2   -4177.9523            0   -2120.3902     18.23369    23.687051    22.480395            0            0            0    9709.3357   -3319.0143   -725.79461   -2316.3618      1022.41   -64.218524   -113.26459     18.23369    23.687051    22.480395           90           90           90 
  152500    257.07717   -4218.8971   -3778.2756   -4218.8971            0   -604.34923    17.993917    23.846502    22.076184            0            0            0    9472.7137   -1151.2809   -645.81027   -15.956482   -458.12775    578.83222   -132.76219    17.993917    23.846502    22.076184           90           90           90 
  153000    270.80419   -4215.7357   -3751.5866   -4215.7357            0    1155.0828    18.154338    23.399942    22.135338            0            0            0    9403.3229    889.83987    1529.4419    1045.9667     1230.272    390.65221   -538.49116    18.154338    23.399942    22.135338           90           90           90 
  153500    268.39428    -4206.555   -3746.5363    -4206.555            0   -25.597241    18.231375    23.500292    22.245148            0            0            0    9530.7701   -376.90734     103.3292    196.78642    1026.2228   -662.24772   -622.15543    18.231375    23.500292    22.245148           90           90           90 
  154000    260.30446   -4215.0033   -3768.8504   -4215.0033            0    -1044.843    18.097793    23.802056    22.193977            0            0            0    9560.3815   -57.563565   -378.97339    -2697.992   -234.95629    777.66281    616.00045    18.097793    23.802056    22.193977           90           90           90 
  154500    280.68386   -4260.0123   -3778.9298   -4260.0123            0    443.29801    18.185545    23.462385    22.239691            0            0            0    9489.1476    427.88089    438.84291    463.17023   -216.19355   -1051.8995    -133.0475    18.185545    23.462385    22.239691           90           90           90 
  155000     259.9985   -4207.6077   -3761.9792   -4207.6077            0    619.27532    18.252293    23.295141    22.224187            0            0            0    9449.4962    1104.1552    289.48006    464.19068     570.4484    459.50987   -256.13566    18.252293    23.295141    22.224187           90           90           90 
  155500    258.49581   -4207.4855   -3764.4325   -4207.4855            0    855.34985    17.954108    23.901293    21.976491            0            0            0    9430.6923    1533.1548    303.40826    729.48649   -211.67202   -336.20302   -666.89479    17.954108    23.901293    21.976491           90           90           90 
  156000    256.10933   -4225.2913   -3786.3287   -4225.2913            0   -119.22386    18.119139     23.57424    22.240873            0            0            0    9500.0763   -819.62743    809.74975   -347.79389   -939.90742    1113.4616    5.2189131    18.119139     23.57424    22.240873           90           90           90 
  156500    265.04073   -4215.7111   -3761.4403   -4215.7111            0   -1252.1458    18.378242    23.351107    22.299168            0            0            0    9569.7392   -2286.5806   -1937.1308    467.27411   -1073.1986    259.55973    307.56922    18.378242    23.351107    22.299168           90           90           90 
  157000    258.59534   -4218.7192   -3775.4957   -4218.7192            0   -734.20422    18.156815    23.734051    22.194673            0            0            0     9564.456   -754.70334    -642.5298   -805.37952   -777.99535   -323.36482    271.23304    18.156815    23.734051    22.194673           90           90           90 
  157500     265.2258   -4249.9042   -3795.3162   -4249.9042            0    193.71837    18.030661    23.718496     22.18083            0            0            0    9485.8573    425.53951   -243.59663    399.21222    339.39808   -28.778736   -138.48461    18.030661    23.718496     22.18083           90           90           90 
  158000    271.25722   -4219.6422   -3754.7166   -4219.6422            0    854.70056    18.263344      23.3613    22.164873            0            0            0    9456.7643    346.56706    1221.0226    996.51199   -2184.4526    107.83163    -1028.628    18.263344      23.3613    22.164873           90           90           90 
  158500     277.9174   -4238.6732   -3762.3323   -4238.6732            0    379.22079    18.270339    23.514159    22.031713            0            0            0    9465.0811   -957.75268    1101.0943    994.32077    664.67155   -48.750356   -85.130407    18.270339    23.514159    22.031713           90           90           90 
  159000    263.01972   -4212.2551   -3761.4483   -4212.2551            0     851.4639    17.955517    23.790823    22.159795            0            0            0    9466.1441    1358.0665   -696.32033    1892.6455   -322.23226    486.06387    398.68073    17.955517    23.790823    22.159795           90           90           90 
  159500    267.46466   -4198.9963   -3740.5711   -4198.9963            0   -397.12244    18.225068    23.561281    22.294887            0            0            0    9573.5571   -748.92287     981.5323   -1423.9767   -228.96934    331.23449    1.8810707    18.225068    23.561281    22.294887           90           90           90 
  160000    271.33785     -4179.08   -3714.0162     -4179.08            0   -1452.2576    18.401441    23.474056    22.221174            0            0            0    9598.5795    -2272.432   -1461.1539   -623.18694   -638.82324    253.93331    348.38962    18.401441    23.474056    22.221174           90           90           90 
  160500    269.88236    -4206.821   -3744.2519    -4206.821            0   -1086.4662    18.053712    23.745985    22.318613            0            0            0    9568.0602   -1121.7451   -1712.1628   -425.49058    195.89148    137.97465   -417.61297    18.053712    23.745985    22.318613           90           90           90 
  161000    251.54684    -4208.835   -3777.6923    -4208.835            0    404.32037     18.07558    23.736831    22.077742            0            0            0    9472.6095   -446.60283   -618.69501     2278.259    -66.14341    37.198951   -385.66629     18.07558    23.736831    22.077742           90           90           90 
  161500    261.28021   -4215.1073   -3767.2819   -4215.1073            0    416.82139    18.289287    23.277482    22.175984            0            0            0    9440.9496   -565.56001    753.64929    1062.3749   -220.83935    328.44556     517.8296    18.289287    23.277482    22.175984           90           90           90 
  162000    267.36189   -4216.7481    -3758.499   -4216.7481            0    38.289167    18.059573    23.546137    22.306697            0            0            0    9485.5478    522.18278   -739.78051    332.46524    1300.7331    25.035531    16.210746    18.059573    23.546137    22.306697           90           90           90 
  162500    263.41854   -4212.3578   -3760.8675   -4212.3578            0    503.95101    18.023008    23.933412    22.038762            0            0            0    9506.4659   -18.795322    570.29915     960.3492   -40.705724   -288.36267   -1025.8961    18.023008    23.933412    22.038762           90           90           90 
  163000    276.76322   -4216.7505   -3742.3878   -4216.7505            0    -1246.054    18.472977    23.397521    22.194909            0            0            0    9593.1249   -1942.8939   -1552.4722   -242.79595    8.0515911    299.50604   -73.643935    18.472977    23.397521    22.194909           90           90           90 
  163500    255.89595   -4225.5167   -3786.9198   -4225.5167            0    36.895945    18.157604     23.43152    22.312103            0            0            0    9492.9129    -652.5211    1059.2472    -296.0383   -299.12277   -194.72433    357.07941    18.157604     23.43152    22.312103           90           90           90 
  164000    272.25818   -4220.3571   -3753.7159   -4220.3571            0    516.97165    18.041981    23.782419    22.066717            0            0            0    9468.4297    1058.3282   -159.31297    651.89974   -487.47478    95.287297    89.948029    18.041981    23.782419    22.066717           90           90           90 
  164500    267.64088   -4208.0552   -3749.3279   -4208.0552            0    1244.5038    18.077845    23.544125    22.118766            0            0            0    9414.3453    579.22166    1739.3029    1414.9867   -90.418734     112.6332    177.81815    18.077845    23.544125    22.118766           90           90           90 
  165000    264.42956    -4207.084   -3753.8608    -4207.084            0    624.67939     18.13235    23.425125    22.159499            0            0            0    9412.3042    798.49436    174.12118    901.42262    496.73315   -761.41019   -309.49837     18.13235    23.425125    22.159499           90           90           90 
  165500    265.04982   -4204.2532   -3749.9669   -4204.2532            0    561.41811    18.160785    23.559761    22.134373            0            0            0     9470.496   -477.76118    864.87833    1297.1372   -47.040471   -646.34711    73.502748    18.160785    23.559761    22.134373           90           90           90 
  166000    271.91515   -4191.4374   -3725.3841   -4191.4374            0   -1784.3755    18.152664    23.750435    22.237973            0            0            0    9587.5385   -1226.1236   -1917.4908   -2209.5122   -631.92796    139.13721    643.06377    18.152664    23.750435    22.237973           90           90           90 
  166500    256.11967   -4213.2606   -3774.2802   -4213.2606            0   -2238.3499    18.280889    23.505924    22.389609            0            0            0    9621.0204   -1775.7798   -1783.3947   -3155.8752   -675.71019    -113.4193    494.07416    18.280889    23.505924    22.389609           90           90           90 
  167000    258.01119   -4232.3002   -3790.0778   -4232.3002            0   -438.39407     18.43541    23.219721    22.162974            0            0            0    9487.1948   -617.98272   -240.46332   -456.73618    70.917065    114.27496   -30.186819     18.43541    23.219721    22.162974           90           90           90 
  167500    272.65502   -4245.2714   -3777.9501   -4245.2714            0    318.42848    17.952763    23.736252      22.0757            0            0            0    9407.1471    632.27516     1373.934   -1050.9237    252.00531    25.885039    373.22737    17.952763    23.736252      22.0757           90           90           90 
  168000     275.4856   -4196.8373   -3724.6644   -4196.8373            0    1569.3046     18.01279    23.525269    22.167387            0            0            0    9393.5577    1369.9005    1450.6104     1887.403   -56.293815    312.99926   -616.35814     18.01279    23.525269    22.167387           90           90           90 
  168500    274.17863   -4208.1207   -3738.1879   -4208.1207            0    456.45238    18.292504    23.405371    22.190515            0            0            0    9500.7102    420.42716    1332.9319   -384.00192     234.7559   -792.70507   -31.576598    18.292504    23.405371    22.190515           90           90           90 
  169000     273.3584    -4189.116    -3720.589    -4189.116            0    -998.9213    18.237417    23.775816    22.200022            0            0            0    9626.1401   -826.07207   -1577.1974   -593.49443   -1182.4657   -407.53803   -451.80212    18.237417    23.775816    22.200022           90           90           90 
  169500    268.66704   -4219.7828   -3759.2967   -4219.7828            0   -964.52551    18.097009    23.743402    22.307954            0            0            0    9585.3834    290.06396   -1079.6057   -2104.0348   -1074.4233     709.0575    197.89857    18.097009    23.743402    22.307954           90           90           90 
  170000    283.02918   -4202.3115   -3717.2092   -4202.3115            0   -338.03626    18.266616    23.474094    22.294873            0            0            0    9559.8688   -2040.0699   -1279.8802    2305.8413   -146.56815   -21.710389    -549.5702    18.266616    23.474094    22.294873           90           90           90 
  170500    261.19483   -4250.7051   -3803.0261   -4250.7051            0    1004.1892    18.196093    23.518517    22.066023            0            0            0    9443.0469    28.796831    1561.1655    1422.6053   -181.49461   -920.73462   -754.74125    18.196093    23.518517    22.066023           90           90           90 
  171000    262.36975   -4213.6753   -3763.9825   -4213.6753            0    1295.9705    17.869388    23.773595    22.193648            0            0            0    9428.2961     1832.128    1784.6676    271.11581   -259.73549   -264.25583    214.45822    17.869388    23.773595    22.193648           90           90           90 
  171500    268.23562   -4218.1682   -3758.4215   -4218.1682            0   -628.35715    18.295302     23.49382    22.266371            0            0            0    9570.6769   -1176.5827    -487.7206   -220.76819   -166.51569    79.421494    1071.6489    18.295302     23.49382    22.266371           90           90           90 
  172000    274.86429   -4229.5811   -3758.4731   -4229.5811            0   -1171.6571    18.471016    23.422917    22.098058            0            0            0     9560.616   -2367.6262   -1404.0375    256.69233   -45.013014    348.84215   -834.26398    18.471016    23.422917    22.098058           90           90           90 
  172500    283.90672   -4210.9037   -3724.2973   -4210.9037            0   -18.318535    17.951268    23.785699    22.337652            0            0            0    9537.8081    1662.7609   -1777.1938    59.477337     224.1163    266.87914    570.47891    17.951268    23.785699    22.337652           90           90           90 
  173000    267.37838   -4228.0592   -3769.7818   -4228.0592            0   -339.76853    18.142322    23.632424    22.166092            0            0            0    9503.6464    711.73154   -622.90298   -1108.1341    1141.4022    139.12052   -307.48006    18.142322    23.632424    22.166092           90           90           90 
  173500     261.3514   -4192.9246   -3744.9772   -4192.9246            0     1257.006    18.305613    23.428196     22.02108            0            0            0    9444.1253    1063.4987    401.94396    2305.5754   -1348.9181    559.09267    1079.7404    18.305613    23.428196     22.02108           90           90           90 
  174000     272.9462   -4231.7569   -3763.9364   -4231.7569            0   -77.984439    18.007696    23.638889    22.275672            0            0            0    9482.3508    553.58168    161.59818   -949.13318     610.1532    -295.5795    546.63671    18.007696    23.638889    22.275672           90           90           90 
  174500    270.16411     -4196.24    -3733.188     -4196.24            0    805.71066    18.051982    23.661162    22.245022            0            0            0    9501.5355    2097.9828     491.0206   -171.87145   -111.18449    65.305489   -567.65506    18.051982    23.661162    22.245022           90           90           90 
  175000    279.12164   -4226.9307   -3748.5258   -4226.9307            0   -579.24179    18.534939    23.396997    22.117481            0            0            0    9591.5094   -283.91356   -751.53164   -702.28017    171.84198   -299.31604   -281.81757    18.534939    23.396997    22.117481           90           90           90 
  175500    255.76932   -4242.7278    -3804.348   -4242.7278            0   -1156.7077    18.056379    23.668278    22.394839            0            0            0    9570.7343     205.2795   -1937.3125   -1738.0899   -24.142392   -298.44932   -139.88714    18.056379    23.668278    22.394839           90           90           90 
  176000    265.58758   -4231.4576   -3776.2496   -4231.4576            0   -420.14187     18.04392    23.714835    22.203336            0            0            0     9500.998   -635.18151   -11.734414   -613.50967   -787.66675   -451.79006    718.67252     18.04392    23.714835    22.203336           90           90           90 
  176500    273.90464   -4233.8287   -3764.3655   -4233.8287            0   -240.50647    18.236817    23.474144    22.154439            0            0            0    9484.1749   -472.47592   -620.55125    371.50775     912.7087   -376.01403    268.19756    18.236817    23.474144    22.154439           90           90           90 
  177000    271.68902   -4199.8092   -3734.1435   -4199.8092            0    2054.5464     18.10572    23.409367    22.174102            0            0            0    9398.3477    2102.5402    1936.3921    2124.7071    715.92403   -737.36406    228.96915     18.10572    23.409367    22.174102           90           90           90 
  177500    272.70529    -4224.303   -3756.8955    -4224.303            0   -490.98329    18.142448    23.686263    22.134839            0            0            0    9511.9332   -265.24805   -500.07852    -707.6233    435.33229   -32.384474    288.67315    18.142448    23.686263    22.134839           90           90           90 
  178000      275.778   -4212.3626   -3739.6885   -4212.3626            0   -1689.2655    18.199789    23.624289    22.361241            0            0            0    9614.3733    159.44192   -2621.4656   -2605.7727    484.89452   -398.79228    122.48506    18.199789    23.624289    22.361241           90           90           90 
  178500    263.91338   -4236.5677   -3784.2292   -4236.5677            0   -1472.2428    18.306615    23.571431    22.234355            0            0            0    9594.4154   -3192.6202    599.76713   -1823.8752     152.2656   -382.16932    447.37944    18.306615    23.571431    22.234355           90           90           90 
  179000      258.936    -4193.569   -3749.7616    -4193.569            0   -11.923741    18.189245    23.753928    22.046107            0            0            0    9525.3739   -931.45008   -1241.2471     2136.926   -1106.5593   -434.11284   -207.73038    18.189245    23.753928    22.046107           90           90           90 
  179500    265.74407   -4227.3348   -3771.8586   -4227.3348            0    1356.5926    18.066035    23.418419    22.232329            0            0            0    9406.0086    1546.2468    883.99781    1639.5333   -662.22012    836.51895     177.8861    18.066035    23.418419    22.232329           90           90           90 
  180000    270.36343   -4221.0925   -3757.6988   -4221.0925            0    1378.0131    18.133115    23.379457    22.191743            0            0            0      9408.02    1967.5217    2512.2178   -345.70021   -147.23402    -573.1387    -939.6983    18.133115    23.379457    22.191743           90           90           90 
  180500    277.15332   -4222.7925   -3747.7612   -4222.7925            0   -412.34801    18.248043    23.737031    22.115654            0            0            0    9579.4924    612.28023   -907.96434   -941.35992   -307.60359   -441.14017   -32.348237    18.248043    23.737031    22.115654           90           90           90 
  181000    270.10462   -4206.6761   -3743.7261   -4206.6761            0     -536.298    18.146617    23.649018    22.392659            0            0            0    9609.8024   -240.80422   -269.97905   -1098.1107   -90.476935    166.31435    33.232245    18.146617    23.649018    22.392659           90           90           90 
  181500    258.17014   -4193.8391   -3751.3443   -4193.8391            0   -13.382341    18.244679    23.541554    22.216656            0            0            0    9542.2337   -535.54081   -1107.3992     1602.793   -761.39035   -437.47276    173.39758    18.244679    23.541554    22.216656           90           90           90 
  182000    285.80703   -4213.2784   -3723.4149   -4213.2784            0    1200.1119    18.227722    23.576018    22.001888            0            0            0    9455.0276     445.5107    1740.6264    1414.1985    218.31576    567.30486    663.67828    18.227722    23.576018    22.001888           90           90           90 
  182500    277.38112   -4223.8235   -3748.4017   -4223.8235            0    570.34401    18.032549    23.541499    22.406585            0            0            0    9511.8916    944.10431    606.77843    160.14928   -725.23302   -532.57744    93.949805    18.032549    23.541499    22.406585           90           90           90 
  183000    275.72703   -4237.7088   -3765.1221   -4237.7088            0   -887.05649    18.253706    23.586128    22.274603            0            0            0    9589.9794   -1600.4686   -299.47343   -761.22749    404.60373   -817.44075   -382.88954    18.253706    23.586128    22.274603           90           90           90 
  183500    270.12678   -4214.7756   -3751.7875   -4214.7756            0   -467.45068    18.354618    23.646675    21.905899            0            0            0    9507.7228   -1168.0202    934.21021   -1168.5421     100.7768    585.51576    327.31842    18.354618    23.646675    21.905899           90           90           90 
  184000    268.10356   -4230.4582   -3770.9379   -4230.4582            0   -510.25518    17.966211    23.599959    22.502746            0            0            0     9541.206    -743.4148    4.1934917   -791.54422   -123.45296    -947.4916    103.81684    17.966211    23.599959    22.502746           90           90           90 
  184500    285.29863   -4206.5104   -3717.5184   -4206.5104            0    449.59702    18.152976    23.618922    22.186338            0            0            0    9512.4751    391.43341    471.53417    485.82347    -207.1147    72.971836    324.37544    18.152976    23.618922    22.186338           90           90           90 
  185000    258.35797   -4183.5416   -3740.7249   -4183.5416            0    74.295894    18.466177    23.550881    21.900773            0            0            0    9524.5308    -1705.103    571.34567     1356.645   -928.96129     366.2812   -115.18956    18.466177    23.550881    21.900773           90           90           90 
  185500     270.3778   -4199.8443    -3736.426   -4199.8443            0   -120.06862    17.926995    23.565324    22.550656            0            0            0    9526.6476     192.2752    -434.3887   -118.09236   -304.17303   -679.85558    354.77398    17.926995    23.565324    22.550656           90           90           90 
  186000    269.84603   -4174.9561   -3712.4492   -4174.9561            0    107.17737    18.095077     23.80285     22.07224            0            0            0    9506.8318   -940.95318    1338.2618   -75.776543    1622.7765   -36.944143    6.5441364    18.095077     23.80285     22.07224           90           90           90 
  186500    256.99212   -4221.2367    -3780.761   -4221.2367            0   -14.840561     18.28364    23.580445    22.063929            0            0            0    9512.5621   -235.58117    1283.6356   -1092.5761   -87.748553    6.8440221   -518.43247     18.28364    23.580445    22.063929           90           90           90 
  187000    271.93138   -4226.8827   -3760.8017   -4226.8827            0    -1302.979    18.168324    23.541749    22.367287            0            0            0    9566.8046   -2187.4893   -224.47978   -1496.9678   -29.383985    117.93548   -53.007851    18.168324    23.541749    22.367287           90           90           90 
  187500    267.60742   -4209.1049   -3750.4349   -4209.1049            0   -1421.8055    18.094401    23.815143    22.168613            0            0            0    9552.9153   -801.99694   -1451.4774   -2011.9422    468.94416   -63.982953   -290.31639    18.094401    23.815143    22.168613           90           90           90 
  188000    282.09666   -4209.3813   -3725.8773   -4209.3813            0     543.9481    18.343018    23.448808    22.079705            0            0            0    9496.9647   -517.20173     1678.081      470.965   -198.32854    387.45448   -702.46452    18.343018    23.448808    22.079705           90           90           90 
  188500     266.6721   -4196.6757   -3739.6089   -4196.6757            0    1021.9372    17.997186    23.205095    22.454347            0            0            0    9377.5281    685.44607    1054.5407    1325.8247    905.03291   -1.9599133    91.232294    17.997186    23.205095    22.454347           90           90           90 
  189000    249.85771   -4202.2184   -3773.9708   -4202.2184            0   -251.84987      17.8967    24.001847     22.10237            0            0            0    9494.1585   -69.999649   -1963.2092    1277.6593    84.151519    561.66371    5.8279703      17.8967    24.001847     22.10237           90           90           90 
  189500    261.61235    -4218.299   -3769.9044    -4218.299            0   -1369.6863    18.309931    23.741921    22.124894            0            0            0    9617.9776    -1923.012    -1898.355   -287.69188   -225.08678   -273.13001   -288.57091    18.309931    23.741921    22.124894           90           90           90 
  190000      282.784   -4190.1329   -3705.4508   -4190.1329            0   -699.72904    18.233692    23.396036    22.408344            0            0            0    9559.3125   -1195.9046   -78.157138   -825.12536    125.82527     69.08408    -30.94453    18.233692    23.396036    22.408344           90           90           90 
  190500    277.00756   -4189.3786   -3714.5971   -4189.3786            0    1320.6586    18.072833    23.699925    22.097159            0            0            0    9464.7607     1345.793    1206.2577     1409.925   -655.50159   -223.19252    -1169.165    18.072833    23.699925    22.097159           90           90           90 
  191000     269.1728   -4196.2436   -3734.8906   -4196.2436            0    894.55732    18.115284    23.635547    22.057218            0            0            0    9444.1206    1041.8115   -564.64962    2206.5101    -662.3592    -260.2159    342.05776    18.115284    23.635547    22.057218           90           90           90 
  191500    265.05475   -4206.1013   -3751.8065   -4206.1013            0    630.62158    18.128242    23.322259    22.311425            0            0            0    9433.0824    1941.1522    741.42556   -790.71304    334.10101    695.33505    341.00792    18.128242    23.322259    22.311425           90           90           90 
  192000     275.4689   -4206.7663   -3734.6221   -4206.7663            0    -32.01682    18.175444    23.620074    22.094575            0            0            0    9485.3186    447.79002    43.420521     -587.261    105.16996   -355.39203    111.34847    18.175444    23.620074    22.094575           90           90           90 
  192500    289.85366   -4195.7349   -3698.9356   -4195.7349            0   -289.17127    18.147583    23.870242    22.043257            0            0            0    9548.8569   -1152.4182    772.91039   -488.00602    825.33067   -59.279894    669.38351    18.147583    23.870242    22.043257           90           90           90 
  193000    270.04129   -4192.6643   -3729.8228   -4192.6643            0     385.8708    18.085703    23.281523    22.490031            0            0            0    9469.7134    382.80299    2385.6037   -1610.7943     204.9147   -590.43264   -8.1455557    18.085703    23.281523    22.490031           90           90           90 
  193500    261.17277    -4207.474   -3759.8328    -4207.474            0   -138.32345    18.400458    23.608792    21.921905            0            0            0    9523.1515   -2199.8558    283.18065    1501.7049    408.23794   -261.37778    267.46663    18.400458    23.608792    21.921905           90           90           90 
  194000    282.13924   -4228.5198   -3744.9428   -4228.5198            0     129.8964    18.097904    23.743827    22.084387            0            0            0    9489.9594    533.09527   -745.44914    602.04306    1104.3757   -461.43002    263.40424    18.097904    23.743827    22.084387           90           90           90 
  194500    276.44089   -4212.5799   -3738.7697   -4212.5799            0    105.27945      18.0475    23.550071    22.416384            0            0            0    9527.4093   -28.522668    742.94245   -398.58142   -92.199284   -267.06541   -703.41338      18.0475    23.550071    22.416384           90           90           90 
  195000     268.7505   -4225.7122   -3765.0831   -4225.7122            0   -669.50489    18.290209    23.711937    22.020092            0            0            0    9550.0319   -1567.6148   -874.72275    433.82291   -1018.2238   -642.52383   -233.72198    18.290209    23.711937    22.020092           90           90           90 
  195500    272.32883   -4185.6831   -3718.9209   -4185.6831            0    588.37051     18.23069     23.58657    22.117053            0            0            0    9510.3206    1275.4535    1073.0791   -583.42109    645.75079    410.54765    583.94513     18.23069     23.58657    22.117053           90           90           90 
  196000    270.55533    -4191.987   -3728.2644    -4191.987            0    858.87637     18.09004    23.465603    22.237206            0            0            0    9439.5535     323.6322    1788.3389    464.65802   -594.10035    324.37394    523.17505     18.09004    23.465603    22.237206           90           90           90 
  196500    277.67212   -4205.5166   -3729.5961   -4205.5166            0   -199.72831    18.223261    23.712354    22.156535            0            0            0    9574.2027    207.76203   -667.12986   -139.81712    -49.90255   -213.27239    346.26796    18.223261    23.712354    22.156535           90           90           90 
  197000    270.41331   -4213.5086   -3750.0294   -4213.5086            0   -49.403567    18.246259     23.56542    22.183182            0            0            0    9538.3411   -234.22625    208.30618   -122.29064    331.78828   -679.58144    306.20368    18.246259     23.56542    22.183182           90           90           90 
  197500    273.81847   -4221.5477   -3752.2322   -4221.5477            0   -549.30992    18.046479     23.61688    22.349429            0            0            0    9525.3609   -70.041432   -586.70204   -991.18628   -262.52054   -254.58759    317.53862    18.046479     23.61688    22.349429           90           90           90 
  198000    273.97426   -4209.5741   -3739.9916   -4209.5741            0    -1052.069    18.052481    23.934817    22.107751            0            0            0    9552.3801   -1489.9018   -1698.2921    31.987003    772.14304    303.37613   -99.655787    18.052481    23.934817    22.107751           90           90           90 
  198500    273.95905    -4219.059   -3749.5026    -4219.059            0    334.98844    18.436877     23.54254     21.91278            0            0            0    9511.2621   -342.15141    771.47108    575.64565    1032.2726   -830.52625   -118.09789    18.436877     23.54254     21.91278           90           90           90 
  199000    284.92009    -4210.473   -3722.1297    -4210.473            0    449.21955    18.159594    23.258164    22.435303            0            0            0    9475.7478    334.69158    609.19339    403.77367    171.86458    647.44702   -89.193206    18.159594    23.258164    22.435303           90           90           90 
  199500    263.59596     -4187.57   -3735.7756     -4187.57            0    453.87426    17.995873    23.881098    22.118295            0            0            0    9505.5849   -321.87171   -838.65336    2522.1478   -1034.7792    407.14234   -361.99943    17.995873    23.881098    22.118295           90           90           90 
  200000    267.95897   -4199.2206   -3739.9481   -4199.2206            0    123.13618    18.222563    23.560363    22.163658            0            0            0    9515.5275    1006.2561     672.5191   -1309.3666    486.61606     1308.191    833.51143    18.222563    23.560363    22.163658           90           90           90 
  200500      254.496    -4208.774   -3772.5766    -4208.774            0    385.63139    18.248129    23.383723    22.312506            0            0            0    9520.9519     514.9695    776.47981   -134.55514    235.13917   -142.02742    749.41962    18.248129    23.383723    22.312506           90           90           90 
  201000    269.55018   -4223.3607    -3761.361   -4223.3607            0   -425.94323    18.136444    23.791881    22.101336            0            0            0    9536.7293   -812.99076   -801.68765    336.84872   -1069.6517    184.80241    404.57517    18.136444    23.791881    22.101336           90           90           90 
  201500    269.27804   -4206.5691   -3745.0357   -4206.5691            0    508.71676    18.030383    23.649446    22.181556            0            0            0    9458.4051    1107.6327    1554.2059   -1135.6883    313.39757   -90.713464     156.3817    18.030383    23.649446    22.181556           90           90           90 
  202000    270.89754   -4179.6467   -3715.3376   -4179.6467            0   -360.51928    18.269163    23.111559    22.440066            0            0            0    9474.8434   -62.163737    1211.3986   -2230.7927   -142.01066    97.447559    420.99308    18.269163    23.111559    22.440066           90           90           90 
  202500    267.92398   -4206.3979   -3747.1853   -4206.3979            0   -577.97908    18.326662    23.794825    21.913544            0            0            0    9556.0515   -1026.5388   -1522.9038    815.50534    1164.6854    503.53095   -209.33338    18.326662    23.794825    21.913544           90           90           90 
  203000    253.87131   -4221.7017   -3786.5749   -4221.7017            0   -486.11775    18.033864    23.744973    22.248684            0            0            0    9527.1893   -656.87513    260.75658   -1062.2347   -754.97798   -331.54496    180.95974    18.033864    23.744973    22.248684           90           90           90 
  203500    282.84271    -4226.606   -3741.8233    -4226.606            0   -1226.4004    18.222087    23.519602    22.244213            0            0            0    9533.3416   -1977.5316   -286.31142   -1415.3582    261.47111    823.58312     52.99036    18.222087    23.519602    22.244213           90           90           90 
  204000    256.43556   -4200.8949   -3761.3731   -4200.8949            0    780.28087    18.266654    23.486954    22.079419            0            0            0    9472.6905     521.4521    1102.1572    717.23328    556.85255   -1210.3652    661.31932    18.266654    23.486954    22.079419           90           90           90 
  204500     270.8528   -4232.8619   -3768.6295   -4232.8619            0     268.4811    17.958812    23.729475     22.33508            0            0            0    9518.1653    715.93319   -1145.9833    1235.4934    303.61861   -955.14667    647.76319    17.958812    23.729475     22.33508           90           90           90 
  205000    251.33969   -4212.9512   -3782.1636   -4212.9512            0   -716.78328    18.193478    23.715039    22.240886            0            0            0    9596.0312   -1355.1705   -11.149276   -784.03011   -420.99875    -596.8905   -16.575541    18.193478    23.715039    22.240886           90           90           90 
  205500    287.65696   -4213.1292   -3720.0951   -4213.1292            0    99.696037    18.385869    23.426947    22.089292            0            0            0    9514.4053   -794.83365    481.94974    611.97202   -559.44569   -640.55097   -51.286253    18.385869    23.426947    22.089292           90           90           90 
  206000    259.01369   -4213.9053   -3769.9647   -4213.9053            0    398.08772    17.980917    23.595152    22.280263            0            0            0    9452.6796     1019.085   -790.72336    965.90156    927.25125    552.30596   -306.47977    17.980917    23.595152    22.280263           90           90           90 
  206500    274.97516   -4215.1332   -3743.8351   -4215.1332            0    285.00373     18.06807    23.848723    21.994461            0            0            0    9477.4222    178.51507    99.894892    576.60123    437.88719    585.64476   -650.29798     18.06807    23.848723    21.994461           90           90           90 
  207000    279.10412   -4220.8135   -3742.4385   -4220.8135            0    215.45135    18.348685    23.268859     22.15435            0            0            0    9458.8654   -194.88724   -664.00468     1505.246    663.57415    667.51821    271.84367    18.348685    23.268859     22.15435           90           90           90 
  207500    268.94892   -4212.9355   -3751.9662   -4212.9355            0   -46.169937    18.139238    23.489559    22.392774            0            0            0    9541.1738   -159.79256    833.43007   -812.14732   -428.87366    673.03178    774.29829    18.139238    23.489559    22.392774           90           90           90 
  208000     271.9177   -4198.1598   -3732.1022   -4198.1598            0    446.87786    18.151764      23.8289     22.05242            0            0            0    9538.4782    1178.3401   -681.83085    844.12431    347.71612   -947.71476   -58.483499    18.151764      23.8289     22.05242           90           90           90 
  208500    265.42155    -4221.868   -3766.9445    -4221.868            0   -85.833007    18.201293    23.469989    22.271094            0            0            0    9513.8584    391.17203    613.69747   -1262.3685    342.32691    729.05129   -53.762495    18.201293    23.469989    22.271094           90           90           90 
  209000    268.38178   -4228.6624   -3768.6653   -4228.6624            0    1714.6415    18.160438    23.398469    22.221235            0            0            0    9442.3902    1053.1054    2480.9849     1609.834   -593.75003   -991.28094    517.46838    18.160438    23.398469    22.221235           90           90           90 
  209500    269.58245   -4204.8699   -3742.8148   -4204.8699            0   -136.59458    18.170846    23.776381    22.062323            0            0            0    9531.7387   -23.780891    143.22497   -529.22783      57.3114   -900.62975    167.31014    18.170846    23.776381    22.062323           90           90           90 
  210000      265.078   -4173.7251   -3719.3905   -4173.7251            0   -475.47147    18.144994      23.6535    22.490042            0            0            0    9652.5599   -114.83246   -599.01007   -712.57186    -190.7506   -361.82326    38.249942    18.144994      23.6535    22.490042           90           90           90 
  210500    283.52753   -4205.8222   -3719.8657   -4205.8222            0   -801.52533    18.464914    23.523713    22.157271            0            0            0    9624.3065   -1879.4859   -730.90355    205.81345   -561.33173   -962.35773    703.94495    18.464914    23.523713    22.157271           90           90           90 
  211000    267.11183   -4224.9417   -3767.1212   -4224.9417            0   -812.88026    18.191184    23.706559    22.099612            0            0            0    9530.4658   -59.286523   -942.53052   -1436.8237   -420.48184    89.630396   -52.219787    18.191184    23.706559    22.099612           90           90           90 
  211500    275.29738   -4219.3194   -3747.4692   -4219.3194            0     920.1821     17.99988    23.572066    22.352493            0            0            0    9484.0368    811.77084    1628.7639    320.01153    516.57847    -994.8535    891.63791     17.99988    23.572066    22.352493           90           90           90 
  212000     278.0686   -4229.6112   -3753.0112   -4229.6112            0   -56.564679    18.293347    23.538095    22.089273            0            0            0    9511.4318    201.90901   -266.32496   -105.27808   -476.55418    762.03535   -793.90737    18.293347    23.538095    22.089273           90           90           90 
  212500    281.93408   -4194.4182   -3711.1928   -4194.4182            0    376.39178    18.243856    23.557169     22.08559            0            0            0    9491.8035    1491.7404   -517.64469    155.07959    457.08757   -16.080605      769.201    18.243856    23.557169     22.08559           90           90           90 
  213000    280.20606   -4196.9001   -3716.6365   -4196.9001            0    780.39097    17.856235    23.724237    22.478367            0            0            0    9522.4105    1401.7952    1077.6363   -138.25858   -168.72806   -173.68247    472.86051    17.856235    23.724237    22.478367           90           90           90 
  213500    256.49588   -4195.6508   -3756.0256   -4195.6508            0   -1219.0174    18.331257    23.677275     22.16399            0            0            0    9619.9302    423.30443   -551.50666   -3528.8501   -168.73199    122.30961    44.346894    18.331257    23.677275     22.16399           90           90           90 
  214000    263.77271   -4198.9202   -3746.8228   -4198.9202            0   -635.43722    18.456775    23.562027    22.060694            0            0            0    9593.7334   -1593.8335   -1915.1304    1602.6522   -118.91497    -627.0574    502.55462    18.456775    23.562027    22.060694           90           90           90 
  214500    260.00838   -4197.3783   -3751.7329   -4197.3783            0    120.86231    18.052474    23.579434    22.388296            0            0            0    9529.9618    1517.9786   -799.49286   -355.89879   -241.35602    -920.4301   -369.96681    18.052474    23.579434    22.388296           90           90           90 
  215000    248.06425   -4250.2758   -3825.1022   -4250.2758            0    1049.1782    18.133102    23.649817     22.10279            0            0            0    9478.6607    435.70734    1169.5921    1542.2353   -253.94615   -79.980719    369.90773    18.133102    23.649817     22.10279           90           90           90 
  215500    275.03949   -4211.6511   -3740.2429   -4211.6511            0   -735.40295    18.321882    23.464312    22.205688            0            0            0    9546.4548    -809.7268   -428.49452   -967.98754     -606.086    266.20554    126.19269    18.321882    23.464312    22.205688           90           90           90 
  216000    268.09558   -4211.0868   -3751.5801   -4211.0868            0    88.704001    18.104848    23.616578    22.382404            0            0            0    9570.1464      352.567   -93.264648    6.8096469    1102.3093    343.74229    170.04292    18.104848    23.616578    22.382404           90           90           90 
  216500    269.45108   -4195.0057   -3733.1758   -4195.0057            0   -443.31291    18.139519    23.790964    22.221824            0            0            0    9589.9761   -362.56549   -1846.2407    878.86749   -330.41524   -239.41183    185.21902    18.139519    23.790964    22.221824           90           90           90 
  217000     270.4031   -4231.8917     -3768.43   -4231.8917            0   -790.85715    18.486447    23.518798    22.053457            0            0            0    9588.3808   -2449.6233    157.14164   -80.089819   -1793.1228    337.80309     313.6923    18.486447    23.518798    22.053457           90           90           90 
  217500    276.53715   -4198.4451   -3724.4699   -4198.4451            0    -785.0744    18.049085    23.514677    22.568077            0            0            0    9578.3072   -450.19297   -13.921481   -1891.1088   -511.73188   -585.34211    665.42224    18.049085    23.514677    22.568077           90           90           90 
  218000    272.14923   -4204.6478   -3738.1933   -4204.6478            0   -72.365438     18.01115    23.924092    22.092048            0            0            0    9519.4726   -697.57241   -1252.4854    1732.9615   -44.082604   -354.54732    782.11613     18.01115    23.924092    22.092048           90           90           90 
  218500    277.17342   -4209.5836   -3734.5179   -4209.5836            0    673.17966    18.245725    23.499889      22.0699            0            0            0     9462.967   -221.23731    1330.9308    909.84552   -44.140063    130.41181    604.47955    18.245725    23.499889      22.0699           90           90           90 
  219000     271.8615   -4182.3876   -3716.4263   -4182.3876            0    21.835297    18.222913    23.489635     22.33541            0            0            0    9560.6629   -527.93068    317.16543    276.27114     1242.044   -767.61638    -702.2648    18.222913    23.489635     22.33541           90           90           90 
  219500    263.43402   -4176.1428   -3724.6259   -4176.1428            0   -521.08201    18.062806     23.84604    22.229133            0            0            0    9574.6742   -837.16684   -187.28472   -538.79446    304.92748    778.87913   -242.98711    18.062806     23.84604    22.229133           90           90           90 
  220000    262.82468   -4236.9699   -3786.4974   -4236.9699            0   -94.484128    18.228547    23.513935    22.178999            0            0            0    9506.4702     619.9826     420.0967   -1323.5317    312.24794    91.002777    216.47736    18.228547    23.513935    22.178999           90           90           90 
  220500    259.80136   -4229.7315   -3784.4409   -4229.7315            0   -442.88025    18.249201    23.405969    22.295004            0            0            0    9523.0931   -619.97961    90.690446   -799.35158    -513.2517   -802.86861   -780.34318    18.249201    23.405969    22.295004           90           90           90 
  221000    276.46317   -4222.5725   -3748.7241   -4222.5725            0   -648.19187    18.003967    23.986838    22.103616            0            0            0    9545.6285   -620.52245   -1278.2236   -45.829548     704.6304    691.81974    626.76525    18.003967    23.986838    22.103616           90           90           90 
  221500    256.54847   -4248.5758   -3808.8605   -4248.5758            0   -328.08927    18.096334    23.705248    22.069253            0            0            0    9467.2257   -616.12003   -378.66091    10.513129   -1010.8775   -534.79964   -76.348323    18.096334    23.705248    22.069253           90           90           90 
  222000    263.74216    -4227.976    -3775.931    -4227.976            0    373.17515    18.302649    23.100313    22.266179            0            0            0    9414.0718     -830.333    594.72114    1355.1373   -138.58166   -433.90661    72.357941    18.302649    23.100313    22.266179           90           90           90 
  222500    286.13963   -4222.6997   -3732.2662   -4222.6997            0    1228.7672    18.073844    23.687092    22.040304            0            0            0    9435.8241    1228.3527   -781.91447    3239.8634    905.43681   -204.88332    426.27422    18.073844    23.687092    22.040304           90           90           90 
  223000    255.12008   -4203.5885   -3766.3215   -4203.5885            0     875.8998    17.988406    23.760524    22.109011            0            0            0    9449.7002    2120.5903    219.54304    287.56608     310.2274   -13.673295    98.458868    17.988406    23.760524    22.109011           90           90           90 
  223500    277.59638    -4205.889   -3730.0983    -4205.889            0   -1112.8734    18.334573    23.344907    22.392119            0            0            0    9584.2503   -2763.8204   -348.64318   -226.15665    215.63207    402.27037    793.30588    18.334573    23.344907    22.392119           90           90           90 
  224000    271.24263   -4196.0874   -3731.1868   -4196.0874            0   -1146.2167    18.282511    23.688906    22.219672            0            0            0     9623.177   -959.92835   -1899.1417   -579.58019     -792.999    17.662792   -93.695944    18.282511    23.688906    22.219672           90           90           90 
  224500    267.67625   -4232.2541   -3773.4661   -4232.2541            0     155.6022    17.973642    23.856192    22.095409            0            0            0    9474.1282    11.987877    351.19467    103.62406    1113.3195   -685.36394   -108.71564    17.973642    23.856192    22.095409           90           90           90 
  225000    259.60576   -4208.8826   -3763.9272   -4208.8826            0     1043.006    18.129717    23.345063    22.273498            0            0            0    9427.0217     588.7561    2177.7801    362.48177    794.35545   -18.803875   -88.604801    18.129717    23.345063    22.273498           90           90           90 
  225500    291.26997   -4201.8094   -3702.5827   -4201.8094            0   -25.860743    18.373452    23.471249    22.109865            0            0            0     9534.832   -444.89003   -282.05604    649.36384   -416.30837    40.878861     292.2522    18.373452    23.471249    22.109865           90           90           90 
  226000    287.41713   -4233.4734   -3740.8503   -4233.4734            0   -1386.4301    18.076671    23.927287    22.266102            0            0            0     9630.661   -548.23406   -3171.4367   -439.61944    283.63354    402.40972   -212.29111    18.076671    23.927287    22.266102           90           90           90 
  226500    282.78142   -4237.6543   -3752.9766   -4237.6543            0   -563.12537    18.153798    23.651051    22.326058            0            0            0     9585.836   -761.78568    457.88185   -1385.4723    898.67092   -366.12022    793.10917    18.153798    23.651051    22.326058           90           90           90 
  227000    286.74943   -4175.5928   -3684.1141   -4175.5928            0    72.646635    18.339944     23.48092    22.121573            0            0            0    9526.4069    1065.2717    511.00296   -1358.3348   -600.49601   -215.01362    278.21572    18.339944     23.48092    22.121573           90           90           90 
  227500    294.79047   -4245.8691   -3740.6083   -4245.8691            0    404.71513    18.069144    23.533982    22.225446            0            0            0     9451.124   -289.19156    767.39069    735.94624   -472.69868    91.221834    141.62745    18.069144    23.533982    22.225446           90           90           90 
  228000    282.37014   -4207.5254   -3723.5526   -4207.5254            0    521.75809    17.993457    23.787046    22.157431            0            0            0    9483.6278    1901.4493   -848.57028    512.39521    864.72687   -609.88537   -327.64647    17.993457    23.787046    22.157431           90           90           90 
  228500    281.82529   -4202.9279    -3719.889   -4202.9279            0    147.62178    18.317467    23.534472    22.008963            0            0            0     9487.886   -1082.6205     438.8463    1086.6396    252.40584   -147.22042    51.325479    18.317467    23.534472    22.008963           90           90           90 
  229000    274.36611    -4203.743   -3733.4888    -4203.743            0   -567.26273    18.139901    23.338083    22.400336            0            0            0    9483.1933    374.74051    -293.2565   -1783.2722    497.46658    -144.7478    230.68125    18.139901    23.338083    22.400336           90           90           90 
  229500    271.20161   -4224.7284   -3759.8981   -4224.7284            0    273.88691     17.95559    23.923495    22.074182            0            0            0     9482.196    1732.1801   -1875.2551    964.73567   -243.42433     60.93234    550.71916     17.95559    23.923495    22.074182           90           90           90 
  230000     275.5893   -4180.8636   -3708.5129   -4180.8636            0    269.16432    18.190895    23.631965    22.033512            0            0            0    9471.9113     1087.104    399.35411   -678.96518   -54.389806   -97.708107   -140.90477    18.190895    23.631965    22.033512           90           90           90 
  230500    278.63441   -4211.5699        -3734   -4211.5699            0    852.78086    18.136322     23.22597    22.287949            0            0            0    9388.4346    1385.9797    1639.1405   -466.77759    489.76063   -1046.9692   -413.10839    18.136322     23.22597    22.287949           90           90           90 
  231000    271.61271   -4196.8714   -3731.3365   -4196.8714            0    306.30247    18.089516    23.684411    22.179139            0            0            0    9502.4197    557.56233    407.81507   -46.470003   -942.69632   -339.71398    173.88188    18.089516    23.684411    22.179139           90           90           90 
  231500    278.28954    -4197.601   -3720.6222    -4197.601            0     518.7681    18.166574    23.679529     22.10147            0            0            0    9507.5204   -132.25965     1163.143    525.42097   -309.95751   -372.82305    936.96471    18.166574    23.679529     22.10147           90           90           90 
  232000    275.73838    -4212.088   -3739.4819    -4212.088            0    -823.8139    18.258739    23.398236    22.290691            0            0            0    9523.0798   -1603.3351    -770.1958   -97.910815   -524.70564   -398.91942   -36.302893    18.258739    23.398236    22.290691           90           90           90 
  232500    270.17554   -4212.4194   -3749.3478   -4212.4194            0    -751.0528    18.048562    23.804098    22.298405            0            0            0    9580.0576    -58.44968   -1041.5874   -1153.1213    92.522095   -84.570277   -268.57338    18.048562    23.804098    22.298405           90           90           90 
  233000    266.67781   -4201.5006    -3744.424   -4201.5006            0   -1330.8372    18.216299    24.029536    22.017771            0            0            0     9637.822   -2019.8575   -2477.2035    504.54939    401.26547    241.76239    220.64235    18.216299    24.029536    22.017771           90           90           90 
  233500    276.03043   -4233.1053   -3759.9986   -4233.1053            0    308.83088    18.311102    23.272765    22.310566            0            0            0    9507.6471    1100.8894    1227.9547   -1402.3515    1758.0669   -216.30195    247.06468    18.311102    23.272765    22.310566           90           90           90 
  234000    273.58625    -4193.506   -3724.5885    -4193.506            0    320.91954    18.172888    23.510066    22.241779            0            0            0    9502.7065   -1220.4946    2110.3265    72.926743    245.06307    428.09492   -245.64013    18.172888    23.510066    22.241779           90           90           90 
  234500    278.17258   -4214.6779   -3737.8997   -4214.6779            0    598.20609    18.072883    23.771713    22.098738            0            0            0    9494.1349   -171.13613    1574.1423    391.61208    66.097431   -170.49248   -129.89351    18.072883    23.771713    22.098738           90           90           90 
  235000    260.57012   -4209.9749   -3763.3666   -4209.9749            0   -458.02858      18.2817    23.414123    22.211073            0            0            0     9507.449     30.09827   -117.47509   -1286.7089    356.72332    815.30592    303.89843      18.2817    23.414123    22.211073           90           90           90 
  235500    270.30529   -4245.7788   -3782.4848   -4245.7788            0   -189.41554     18.19376     23.48562      22.2052            0            0            0    9488.0978   -1257.9593   -305.31912     995.0318   -999.26668    148.57943      680.769     18.19376     23.48562      22.2052           90           90           90 
  236000    262.87537   -4194.0516   -3743.4922   -4194.0516            0    229.73484     17.93749    23.869806     22.21409            0            0            0    9511.2827    571.42686     106.1065    11.671158   -107.30648   -78.024436    445.73357     17.93749    23.869806     22.21409           90           90           90 
  236500    271.07666   -4244.6921   -3780.0759   -4244.6921            0    319.53685    18.376084    23.478328    21.997769            0            0            0    9490.7117    613.03366     141.4741    204.10278    540.60677   -910.96898    -156.8604    18.376084    23.478328    21.997769           90           90           90 
  237000    261.24079   -4184.7479   -3736.9902   -4184.7479            0    399.04305    18.228918    23.276666    22.319029            0            0            0    9470.1517    488.88738     1555.261   -847.01922   -41.255643   -900.51166    382.66055    18.228918    23.276666    22.319029           90           90           90 
  237500    259.38354   -4225.8797   -3781.3052   -4225.8797            0    1001.5218    17.856085    23.757244    22.150045            0            0            0    9396.3006    51.219712    1494.8517    1458.4941   -620.67346   -69.652583   -1354.5253    17.856085    23.757244    22.150045           90           90           90 
  238000    274.21998   -4209.5357   -3739.5321   -4209.5357            0    681.30785    18.186844    23.617925    22.002168            0            0            0    9450.7124    1498.3172    90.112072    455.49432   -223.94762   -300.60027    385.68316    18.186844    23.617925    22.002168           90           90           90 
  238500     271.0704   -4209.7416   -3745.1362   -4209.7416            0   -39.053347    18.304426    23.314407    22.175051            0            0            0    9463.3545   -1157.7029    843.63395    196.90892   -56.151875   -1176.2487    609.88035    18.304426    23.314407    22.175051           90           90           90 
  239000    262.55113   -4217.9953   -3767.9916   -4217.9953            0   -211.06059    17.960834     23.76812    22.162187            0            0            0    9460.9324    1771.4635   -998.68962   -1405.9556   -18.941486    645.42857    90.476695    17.960834     23.76812    22.162187           90           90           90 
  239500    281.00534    -4202.048   -3720.4144    -4202.048            0   -819.22357     18.09072    23.706674    22.331206            0            0            0    9577.2019    947.67168   -415.92732   -2989.4151   -188.18271    199.33391   -444.33543     18.09072    23.706674    22.331206           90           90           90 
  240000     263.5431   -4187.0663   -3735.3625   -4187.0663            0   -768.79409    18.381575    23.373657    22.157185            0            0            0    9519.7159   -1814.0338    -852.9617    360.61322   -668.12211    61.729044    287.33578    18.381575    23.373657    22.157185           90           90           90 
  240500    267.10741   -4188.4995   -3730.6865   -4188.4995            0    364.40618    18.133213    23.581655    22.098514            0            0            0    9449.5715    634.67724   -25.728216    484.26953    99.706729    108.28145   -186.60646    18.133213    23.581655    22.098514           90           90           90 
  241000    252.52112   -4209.1703   -3776.3577   -4209.1703            0    13.152707    18.053495    23.623886    22.217311            0            0            0     9475.543   -90.979557    97.280604    33.157075    447.39864    111.04971    11.449445    18.053495    23.623886    22.217311           90           90           90 
  241500    290.04491   -4209.5813   -3712.4542   -4209.5813            0    393.36071    18.202425    23.477482    22.087205            0            0            0    9438.9032    335.90488    291.87466    552.30259   -3.6364262    119.54184    718.64015    18.202425    23.477482    22.087205           90           90           90 
  242000    276.51189   -4199.8754   -3725.9435   -4199.8754            0   -513.88711    18.266376    23.593806    22.108977            0            0            0    9528.3794   -982.94113   -315.47053   -243.24966   -397.71052    358.18133     500.3183    18.266376    23.593806    22.108977           90           90           90 
  242500    269.46316   -4171.4451   -3709.5945   -4171.4451            0    118.67311    17.866845    23.717423    22.426208            0            0            0    9503.2295    610.01218    16.628435   -270.62128   -1171.6557   -747.20522   -131.92595    17.866845    23.717423    22.426208           90           90           90 
  243000     285.2209   -4204.0561   -3715.1972   -4204.0561            0   -723.23739    18.205663    23.588674    22.238477            0            0            0    9550.2573   -778.05869   -706.31044   -685.34304   -103.01523     26.57031    263.19927    18.205663    23.588674    22.238477           90           90           90 
  243500    268.67399   -4204.0218   -3743.5238   -4204.0218            0   0.56994802    18.483567    23.418596     21.85891            0            0            0    9461.8303   -3031.3631    1108.2593    1924.8136    611.77646    178.84865    88.963457    18.483567    23.418596     21.85891           90           90           90 
  244000    269.54902   -4206.8139   -3744.8161   -4206.8139            0   -421.09944    17.970975    23.585092    22.367006            0            0            0    9480.1905   -745.42873    19.936675   -537.80626    289.20121   -173.67041   -535.66394    17.970975    23.585092    22.367006           90           90           90 
  244500    271.10366   -4190.9803   -3726.3179   -4190.9803            0   -40.978166    18.157136    23.640143     22.10785            0            0            0    9489.5135    674.45697   -168.15189   -629.23957    -129.7335   -567.05358    932.51855    18.157136    23.640143     22.10785           90           90           90 
  245000    281.26715    -4185.446   -3703.3637    -4185.446            0   -291.87923     18.32472    23.524225    21.971944            0            0            0    9471.5523    -1070.086   -105.72348    300.17183    17.754092   -140.34544   -42.380401     18.32472    23.524225    21.971944           90           90           90 
  245500    275.23377   -4195.6779   -3723.9366   -4195.6779            0    2113.9266    17.936239    23.306427    22.338903            0            0            0    9338.3239    2043.8397    2542.2971    1755.6431      627.857   -585.58491   -40.563532    17.936239    23.306427    22.338903           90           90           90 
  246000    268.59027   -4201.9527   -3741.5982   -4201.9527            0    529.10332    18.121492    23.630765     22.01015            0            0            0    9425.2899    853.48902    242.73826    491.08268   -113.92655   -662.76961     380.0461    18.121492    23.630765     22.01015           90           90           90 
  246500    277.48423   -4229.9192   -3754.3207   -4229.9192            0    616.54295    18.122536    23.511193    22.125239            0            0            0    9427.1762   -364.50543    180.96767    2033.1666    147.73412   -601.83048    271.47752    18.122536    23.511193    22.125239           90           90           90 
  247000    269.37555   -4216.8502   -3755.1498   -4216.8502            0   -1230.1044    18.053957    23.533555    22.484816            0            0            0    9553.2088    633.65521   -1548.2961   -2775.6724    64.177079    719.31943    959.04511    18.053957    23.533555    22.484816           90           90           90 
  247500    268.84921   -4201.1595   -3740.3611   -4201.1595            0   -1448.5934    18.301398    23.895248    21.951581            0            0            0    9599.7874   -1796.8853   -1371.9446   -1176.9503    377.98008    -85.45045    178.56021    18.301398    23.895248    21.951581           90           90           90 
  248000    279.61543    -4198.156   -3718.9048    -4198.156            0    440.06874    18.225698    23.529937    21.997815            0            0            0    9433.7529     311.2486    349.31179    659.64582    106.94154      518.288   -669.51261    18.225698    23.529937    21.997815           90           90           90 
  248500    255.91558   -4233.6755    -3795.045   -4233.6755            0    2369.2522     17.93216    23.233436    22.295819            0            0            0    9289.0106    2846.7521    2637.7838    1623.2208   -325.92695   -634.24289   -237.04539     17.93216    23.233436    22.295819           90           90           90 
  249000    258.50198   -4208.2264   -3765.1629   -4208.2264            0   -100.32343    18.116697    23.603798    22.079932            0            0            0    9441.8838   -75.279439   -306.54285    80.851996    232.39701    425.10985   -121.14286    18.116697    23.603798    22.079932           90           90           90 
  249500    268.82199    -4204.274   -3743.5223    -4204.274            0   -1496.5206    18.251184    23.669818    22.148995            0            0            0    9568.4147   -1465.9069   -1112.0491   -1911.6059   -367.97817   -481.90851   -189.24172    18.251184    23.669818    22.148995           90           90           90 
  250000    283.20717   -4202.1271   -3716.7197   -4202.1271            0   -1741.5419    18.179647    23.632245    22.364886            0            0            0    9608.5337   -928.57187   -342.97975   -3953.0742    1213.0462    222.88693    540.32505    18.179647    23.632245    22.364886           90           90           90 
  250500    276.35895   -4199.4892   -3725.8194   -4199.4892            0   -430.25968    18.246491    23.540825    22.184242            0            0            0    9528.9631   -940.42404    -577.9502     227.5952    20.370994   -325.81199    53.189243    18.246491    23.540825    22.184242           90           90           90 
  251000    280.89632    -4176.292   -3694.8453    -4176.292            0    767.23251    18.170119    23.570472    22.083585            0            0            0      9457.92   -1079.0959    421.39322    2959.4003   -957.18994   -411.52517    486.04265    18.170119    23.570472    22.083585           90           90           90 
  251500    253.55154   -4175.4721   -3740.8935   -4175.4721            0   -551.42498    18.069946    23.768153    22.223787            0            0            0    9544.8774    223.19627   -1737.4253   -140.04587   -202.35171   -415.87836    417.15012    18.069946    23.768153    22.223787           90           90           90 
  252000    271.31344   -4230.3306   -3765.3086   -4230.3306            0    -812.4386    18.265643    23.445507    22.366637            0            0            0    9578.4512    -1738.019    751.88081   -1451.1776    156.53068     261.6618    331.62322    18.265643    23.445507    22.366637           90           90           90 
  252500    268.79109   -4198.6889   -3737.9902   -4198.6889            0   -1335.6469    18.366968    23.530985    22.122594            0            0            0    9561.2273   -1189.9678    -1544.084    -1272.889    657.35728    251.67584     589.6355    18.366968    23.530985    22.122594           90           90           90 
  253000    287.64426   -4225.2789   -3732.2665   -4225.2789            0    710.41876    17.991893    23.752684    22.148586            0            0            0    9465.3255     1402.232   -380.29298    1109.3173    345.71433    708.86778   -321.72926    17.991893    23.752684    22.148586           90           90           90 
  253500    291.37791   -4216.9359   -3717.5241   -4216.9359            0    920.51093     18.07194    23.409924    22.232404            0            0            0     9405.702    1535.4586    1492.4512   -266.37704   -1396.6099   -777.57693    102.68932     18.07194    23.409924    22.232404           90           90           90 
  254000    277.65565   -4191.7055   -3715.8132   -4191.7055            0    671.69281    18.301834    23.466004    22.131435            0            0            0    9504.8077    527.18912   -75.023267    1562.9126    100.35898    463.48676   -1185.2507    18.301834    23.466004    22.131435           90           90           90 
  254500    279.35538   -4207.4498   -3728.6442   -4207.4498            0    177.16654    18.075041    23.675435    22.210379            0            0            0    9504.5864   -785.67893    939.05988    378.11867    1548.6378   -1099.5417    170.25832    18.075041    23.675435    22.210379           90           90           90 
  255000     259.8005   -4232.8643   -3787.5751   -4232.8643            0    -1353.561    18.162423    23.679156    22.259368            0            0            0    9573.1054   -1785.8505   -1318.9043   -955.92817    267.19476   -26.361643   -334.57712    18.162423    23.679156    22.259368           90           90           90 
  255500    267.46081   -4229.8833   -3771.4647   -4229.8833            0      171.937    18.497389    23.292824    21.984949            0            0            0    9472.3563   -1765.8049    2186.9049    94.711043    -325.7077   -284.75522   -23.551906    18.497389    23.292824    21.984949           90           90           90 
  256000    283.56143    -4200.342   -3714.3275    -4200.342            0    1211.8988    18.013686    23.524642     22.21738            0            0            0    9414.9591    2620.3371    589.27266    426.08661   -25.293917   -631.41665   -328.53155    18.013686    23.524642     22.21738           90           90           90 
  256500    280.00487   -4194.5811   -3714.6623   -4194.5811            0    1625.9079    18.019427     23.65376    22.156963            0            0            0    9443.9007    869.57203    2201.6291    1806.5225    330.34858   -129.30562    99.153707    18.019427     23.65376    22.156963           90           90           90 
  257000    266.86899   -4220.7017   -3763.2974   -4220.7017            0   -299.50531    18.258079      23.5976    22.180932            0            0            0    9556.5847   -295.46418    11.016652   -614.06841    303.81151     33.71333    377.08152    18.258079      23.5976    22.180932           90           90           90 
  257500     260.5186    -4204.532    -3758.012    -4204.532            0   -919.99179    18.220741    23.460443    22.264854            0            0            0    9517.4824   -1040.3158   -1328.3244   -391.33518    571.48314    523.75991   -188.69246    18.220741    23.460443    22.264854           90           90           90 
  258000    286.16527   -4223.5445    -3733.067   -4223.5445            0    122.15529    18.034932    23.710096    22.224845            0            0            0    9503.5655    1929.3905   -51.523171   -1511.4015   -609.98922   -1372.5448      977.264    18.034932    23.710096    22.224845           90           90           90 
  258500    284.13994   -4195.2769   -3708.2708   -4195.2769            0    1254.1927    18.141881    23.557043    22.173331            0            0            0    9476.1961    1481.5671    1506.5099    774.50103    -206.7799   -82.177511    -574.4417    18.141881    23.557043    22.173331           90           90           90 
  259000    254.31527   -4229.9154   -3794.0277   -4229.9154            0    656.21464    18.355415    23.279951     22.10286            0            0            0     9444.843    465.96241    2031.5687   -528.88721   -628.20083    1081.6144    361.08588    18.355415    23.279951     22.10286           90           90           90 
  259500    272.88023   -4220.9272   -3753.2198   -4220.9272            0   -205.94631    18.031416    23.712914    22.249147            0            0            0    9513.2332    730.27964    740.30094   -2088.4195   -717.87077    113.55473   -990.00308    18.031416    23.712914    22.249147           90           90           90 
  260000    255.89512    -4208.577   -3769.9816    -4208.577            0   -1761.9202    18.059057    23.962133    22.279618            0            0            0    9641.1378   -109.33598    -3550.655   -1625.7697    93.625667    233.42107   -457.27063    18.059057    23.962133    22.279618           90           90           90 
  260500    261.43545   -4169.3652   -3721.2738   -4169.3652            0   -1815.1408    18.423023    23.475644    22.287773            0            0            0    9639.2907   -2337.0719   -763.69377   -2344.6566   -415.03044    663.41488   -101.88786    18.423023    23.475644    22.287773           90           90           90 
  261000     258.8065   -4215.4941   -3771.9086   -4215.4941            0    304.71138    18.154379    23.533988    22.173323            0            0            0    9473.4399    1143.6994   -579.32652    349.76121    241.47844   -15.200671   -249.43502    18.154379    23.533988    22.173323           90           90           90 
  261500    260.91073   -4216.2092   -3769.0171   -4216.2092            0    1253.9705    18.025004    23.701728    22.047458            0            0            0    9419.1974    1436.2548   -81.506903    2407.1636    244.87927   -761.19504    110.28487    18.025004    23.701728    22.047458           90           90           90 
  262000    266.74174   -4213.8084   -3756.6222   -4213.8084            0    853.78862    18.127845    23.489386    22.170669            0            0            0    9440.5354    723.92764    627.09187    1210.3463   -608.92255   -4.4216615    510.23946    18.127845    23.489386    22.170669           90           90           90 
  262500    265.17822     -4196.15   -3741.6436     -4196.15            0   -623.29147    18.290791    23.460581    22.237302            0            0            0     9542.306    142.56651   -967.18762   -1045.2533   -397.04579   -471.81595    23.043768    18.290791    23.460581    22.237302           90           90           90 
  263000    264.47903   -4183.4048   -3730.0968   -4183.4048            0    51.019274    18.104102    23.856947    22.160134            0            0            0    9571.1524    83.745389   -866.78616     936.0986    112.36834    592.53967    805.98622    18.104102    23.856947    22.160134           90           90           90 
  263500    280.69771   -4176.0094   -3694.9031   -4176.0094            0    517.85117    18.147368    23.539705    22.271517            0            0            0    9514.0291     826.3099    986.19869   -258.95507   -80.017943    -486.0438   -32.443871    18.147368    23.539705    22.271517           90           90           90 
  264000     277.8374   -4203.4977   -3727.2939   -4203.4977            0     1806.027    18.299694    23.217622    22.036217            0            0            0    9362.6459    1551.6494    946.41053     2920.021   -260.54074     510.9306    513.95204    18.299694    23.217622    22.036217           90           90           90 
  264500    270.42449   -4238.7452   -3775.2469   -4238.7452            0    535.61793    18.073036    23.643675    22.190534            0            0            0    9482.3032    1108.1625    1087.3474   -588.65608   -57.984947    565.52453    1421.2737    18.073036    23.643675    22.190534           90           90           90 
  265000    275.59104   -4197.8235   -3725.4699   -4197.8235            0    -1362.211    18.052758    23.879878    22.242112            0            0            0    9588.5222   -1753.9554   -1085.0147   -1247.6628   -104.00607    544.34174   -792.27143    18.052758    23.879878    22.242112           90           90           90 
  265500    261.43854   -4231.5194   -3783.4227   -4231.5194            0   -100.34914    18.256629     23.48759    22.214018            0            0            0    9525.4646   -63.009281   -1022.1511    784.11292   -198.97133     695.5186    675.10566    18.256629     23.48759    22.214018           90           90           90 
  266000    269.22397   -4233.1979   -3771.7572   -4233.1979            0    1276.4483    18.153647    23.504082    22.170073            0            0            0    9459.6335      2071.36    618.70626    1139.2785     826.2739    -349.6893    -369.2721    18.153647    23.504082    22.170073           90           90           90 
  266500    283.92252   -4208.2612   -3721.6278   -4208.2612            0    783.11247    18.063279    23.590125    22.167529            0            0            0    9445.9166    1748.5826    351.89432     248.8605   -1638.5616    382.39945    1056.6528    18.063279    23.590125    22.167529           90           90           90 
  267000    278.96479   -4250.4593   -3772.3232   -4250.4593            0     1462.962    18.162112    23.461603    22.115267            0            0            0    9423.5866    598.18149    1318.6155    2472.0891   -132.13325    271.67113    374.32483    18.162112    23.461603    22.115267           90           90           90 
  267500    272.02186   -4197.7596   -3731.5235   -4197.7596            0     334.9853     18.17127    23.469192    22.188495            0            0            0    9462.6174    159.40265    1077.2986   -231.74539   -985.99393   -595.45813   -439.32935     18.17127    23.469192    22.188495           90           90           90 
  268000    266.77501   -4191.9719   -3734.7286   -4191.9719            0   -1150.3359    18.148341    23.870775    22.239098            0            0            0    9634.3106   -1155.9091   -1089.5505    -1205.548    270.92382   -580.79278   -270.54106    18.148341    23.870775    22.239098           90           90           90 
  268500    257.12358   -4213.8111   -3773.1101   -4213.8111            0   -905.33652    18.217899    23.559949    22.245851            0            0            0    9548.2033   -1415.5868   -1363.5049    63.082169   -35.028833   -77.147534   -833.09202    18.217899    23.559949    22.245851           90           90           90 
  269000    263.60402   -4203.9769   -3752.1687   -4203.9769            0    337.38328    18.277262    23.373858    22.303706            0            0            0    9528.3688    101.45338   -785.87406    1696.5705   -194.26574   -317.32905    150.66259    18.277262    23.373858    22.303706           90           90           90 
  269500    279.21403   -4208.1234   -3729.5601   -4208.1234            0   -538.95958    18.142549    23.901382    21.949003            0            0            0    9517.7899   -1408.7565    671.51069   -879.63291   -285.66168    29.110276   -426.23505    18.142549    23.901382    21.949003           90           90           90 
  270000    269.41811   -4190.1078   -3728.3344   -4190.1078            0    1141.0176    17.970627    23.577219     22.26395            0            0            0    9433.1778    807.75666    2390.8914    224.40475   -1325.3524   -957.17531    369.88187    17.970627    23.577219     22.26395           90           90           90 
  270500    275.63416   -4216.9766   -3744.5491   -4216.9766            0    680.66879    18.279023    23.284663     22.21898            0            0            0    9456.8616   -913.69544    1868.9947    1086.7071    -763.8545   -845.22602    195.92318    18.279023    23.284663     22.21898           90           90           90 
  271000    271.98129   -4226.6139   -3760.4473   -4226.6139            0   -466.67322    18.221233    23.680837    22.003311            0            0            0    9494.2979   -902.12507   -948.05542    450.16081   -408.33757    80.634018   -151.32214    18.221233    23.680837    22.003311           90           90           90 
  271500    280.37067   -4228.5265   -3747.9808   -4228.5265            0   -703.18514    18.008365    23.720364    22.308081            0            0            0    9529.2309   -114.46022   -576.89957   -1418.1956    1562.8225   -579.55306   -269.44513    18.008365    23.720364    22.308081           90           90           90 
  272000    284.92072   -4194.6151   -3706.2707   -4194.6151            0    601.95744    18.296698    23.338691    22.270454            0            0            0    9509.9512   -1117.0082     2248.159    674.72148    731.14882    424.29663     584.9043    18.296698    23.338691    22.270454           90           90           90 
  272500    274.00504   -4179.5756   -3709.9403   -4179.5756            0    1204.3743    18.214368    23.596481    21.930022            0            0            0    9425.4136    2312.6505    269.94976    1030.5227     220.3535   -422.82826   -20.987807    18.214368    23.596481    21.930022           90           90           90 
  273000    263.03673   -4197.8061   -3746.9701   -4197.8061            0    709.12836    17.862356    23.814534    22.266654            0            0            0    9471.8713    522.38005   -567.59484    2172.5999   -564.81431     240.5732    -741.1807    17.862356    23.814534    22.266654           90           90           90 
  273500    278.54715   -4231.0629   -3753.6426   -4231.0629            0    292.78976     18.17646    23.410678    22.359336            0            0            0    9514.4171   -722.30015     657.4647    943.20474    910.61108    203.67586    1146.3858     18.17646    23.410678    22.359336           90           90           90 
  274000    278.18581   -4177.0935   -3700.2925   -4177.0935            0    34.687972     18.49244    23.466959    21.998264            0            0            0    9546.3961   -443.39904     1966.889    -1419.426    211.01781    489.20606    -349.9496     18.49244    23.466959    21.998264           90           90           90 
  274500    288.83997   -4205.5654   -3710.5036   -4205.5654            0   -518.06033    17.989135     23.84427    22.347053            0            0            0    9585.4959    1048.4614   -1663.8124   -938.82997   -600.21119     192.6529   -287.60374    17.989135     23.84427    22.347053           90           90           90 
  275000    258.79393   -4187.0566   -3743.4927   -4187.0566            0   -53.817352    18.139454    23.518617    22.289614            0            0            0    9509.0809    273.54644    389.86194   -824.86044   -1027.1109   -1017.9132    260.44238    18.139454    23.518617    22.289614           90           90           90 
  275500    264.36044   -4225.2079   -3772.1032   -4225.2079            0    964.30581    18.291071    23.495265    21.998192            0            0            0    9453.8012   -192.05507    708.88092    2376.0916   -189.00025    326.10243    345.99276    18.291071    23.495265    21.998192           90           90           90 
  276000    278.36867   -4182.1785   -3705.0642   -4182.1785            0    264.99233    18.074134    23.638393     22.21529            0            0            0    9491.3377     900.8985    572.43926   -678.36076    2042.8607   -207.11184   -732.27373    18.074134    23.638393     22.21529           90           90           90 
  276500    263.61738   -4185.9899   -3734.1587   -4185.9899            0   -473.91497    18.127734    23.642569    22.299199            0            0            0    9557.1293    849.01656   -1493.7067   -777.05481    459.59995   -1156.6265    8.9582762    18.127734    23.642569    22.299199           90           90           90 
  277000    281.16416   -4205.9326   -3724.0269   -4205.9326            0   -1433.6504    18.436029    23.416277    22.265393            0            0            0    9612.0401   -2587.7614   -997.20688   -715.98308    702.47687    399.20897   -275.07692    18.436029    23.416277    22.265393           90           90           90 
  277500    281.79051   -4202.1792   -3719.1999   -4202.1792            0   -401.53216    18.066897    23.743372    22.187468            0            0            0    9517.7373    1048.3335   -242.59765   -2010.3324    202.74369   -803.33814   -132.21292    18.066897    23.743372    22.187468           90           90           90 
  278000    269.50883    -4194.595   -3732.6661    -4194.595            0    18.878547    17.917529    23.824276    22.192234            0            0            0    9473.2466    1541.2045   -425.26478   -1059.3041    969.95019    496.84428   -153.39523    17.917529    23.824276    22.192234           90           90           90 
  278500    263.56034   -4191.9345   -3740.2011   -4191.9345            0   -1029.4638    18.622786    23.052049    22.093519            0            0            0    9484.6016   -2717.8337    38.225951   -408.78353   -57.944585    116.65995    342.03207    18.622786    23.052049    22.093519           90           90           90 
  279000    265.82157   -4213.8866   -3758.2775   -4213.8866            0   -1647.0104    18.269795    23.498829    22.389648            0            0            0    9612.2963   -1761.0635   -1451.4334   -1728.5345    13.789674    -472.5296   -358.01049    18.269795    23.498829    22.389648           90           90           90 
  279500    256.96337    -4192.461   -3752.0345    -4192.461            0   -189.81057    18.097942    23.796475    22.159263            0            0            0    9543.2684     285.4578     -847.265   -7.6245188   -342.07228    366.46782    557.13473    18.097942    23.796475    22.159263           90           90           90 
  280000     265.3058   -4209.6279   -3754.9028   -4209.6279            0   -431.63633    18.186947    23.500595    22.197531            0            0            0    9487.3148    465.90891    249.14364   -2009.9615    -421.4468   -260.87891    35.754608    18.186947    23.500595    22.197531           90           90           90 
  280500    266.98467   -4190.9768   -3733.3742   -4190.9768            0    898.72325    18.183416    23.473542    22.104698            0            0            0    9434.9299    1521.8058    1734.3964   -560.03245    313.59037    262.45103    1081.3333    18.183416    23.473542    22.104698           90           90           90 
  281000    281.91483   -4208.3255   -3725.1332   -4208.3255            0    220.63137    18.088971    23.688048    22.144427            0            0            0    9488.7189    1406.5385   -921.00767    176.36332    262.43766   -340.34229    6.8559983    18.088971    23.688048    22.144427           90           90           90 
  281500    284.17164   -4204.3562   -3717.2957   -4204.3562            0    -713.6052    18.246509    23.634503    22.246177            0            0            0     9593.601   -1297.5808   -438.19588   -405.03895    739.59822     -221.639   -304.61016    18.246509    23.634503    22.246177           90           90           90 
  282000    270.10577   -4198.7471   -3735.7951   -4198.7471            0    -958.9685    18.280516    23.460549     22.40763            0            0            0    9609.9812   -733.02534   -1707.0027    -436.8775   -579.08927   -741.72537   -29.236863    18.280516    23.460549     22.40763           90           90           90 
  282500    271.59214   -4211.9357    -3746.436   -4211.9357            0   -37.165075    18.061045    23.806341    22.095683            0            0            0    9500.4236      989.664   -1451.0157     349.8565    -19.85305   -660.90103   -309.15213    18.061045    23.806341    22.095683           90           90           90 
  283000    264.87299   -4237.0903   -3783.1071   -4237.0903            0    666.20974    18.122901    23.672558    22.107718            0            0            0    9484.5517    231.34269    -145.4402    1912.7267   -353.19317   -517.39771    285.04234    18.122901    23.672558    22.107718           90           90           90 
  283500    262.32443   -4220.4813   -3770.8662   -4220.4813            0    232.97793    18.276827    23.191573    22.297553            0            0            0    9451.2274   -1517.5352    1782.4908    433.97817   -27.177909   -655.67169    594.43546    18.276827    23.191573    22.297553           90           90           90 
  284000    259.20797   -4207.4922   -3763.2186   -4207.4922            0   -1218.3206    18.235744    23.832436    22.061928            0            0            0    9588.1622   -757.97804   -1856.2499   -1040.7338   -622.12704   -396.23108   -38.683408    18.235744    23.832436    22.061928           90           90           90 
  284500    292.03011   -4173.2234   -3672.6937   -4173.2234            0   -1366.8879    18.090754    23.969495    22.312884            0            0            0    9675.4522   -1285.9485   -922.30527   -1892.4098   -252.74696   -661.14263    485.98944    18.090754    23.969495    22.312884           90           90           90 
  285000    281.14456   -4231.0532   -3749.1811   -4231.0532            0    202.31192    18.229442    23.393152    22.309029            0            0            0    9513.5541    -1026.205    153.17101    1479.9697   -29.303233    709.74001    464.31345    18.229442    23.393152    22.309029           90           90           90 
  285500    268.69075   -4195.7676   -3735.2409   -4195.7676            0    169.23017    18.175711    23.605113    22.151177            0            0            0     9503.735       1571.6   -145.34068   -918.56878    432.36967    940.24551    151.23883    18.175711    23.605113    22.151177           90           90           90 
  286000     251.5687   -4208.8553   -3777.6751   -4208.8553            0    49.862861    18.026614    23.630798    22.195126            0            0            0    9454.7526    1627.9633   -447.58264   -1030.7921    590.01366    822.34037    405.64309    18.026614    23.630798    22.195126           90           90           90 
  286500    278.60389   -4199.8558   -3722.3383   -4199.8558            0   -67.429997    18.213851    23.504541    22.178956            0            0            0    9494.9933   -712.55082    35.820265    474.44056   -231.69229   -740.83051    144.86729    18.213851    23.504541    22.178956           90           90           90 
  287000    280.92292    -4245.023   -3763.5308    -4245.023            0   -161.46249    18.274374    23.552079    22.175375            0            0            0    9544.2704   -1128.0382    53.479443    590.17126   -78.393148    342.54999    253.19068    18.274374    23.552079    22.175375           90           90           90 
  287500    281.52092   -4206.7335   -3724.2163   -4206.7335            0    -1824.285    18.200621    23.812624    22.295934            0            0            0     9663.159   -1155.9449   -1834.3458   -2482.5641   -478.36417   -225.12229    629.47617    18.200621    23.812624    22.295934           90           90           90 
  288000    236.11751   -4216.8057   -3812.1084   -4216.8057            0   -1208.9577    18.180903    23.639957    22.268496            0            0            0    9570.9057   -1273.4634   -1256.2168   -1097.1929    720.79175    414.73882   -128.21593    18.180903    23.639957    22.268496           90           90           90 
  288500    241.26655   -4212.9373   -3799.4147   -4212.9373            0    1357.3591    18.206838    23.478736    22.056903            0            0            0    9428.7423    628.87991    1251.1986    2191.9987   -258.18924   -228.73619   -78.751531    18.206838    23.478736    22.056903           90           90           90 
  289000    276.92298   -4192.6336   -3717.9971   -4192.6336            0    1537.8655     18.05112    23.537427    22.093885            0            0            0    9387.1822    1891.0156    797.65927    1924.9217    56.305893    642.89803   -1115.5825     18.05112    23.537427    22.093885           90           90           90 
  289500    270.96485   -4234.0411   -3769.6166   -4234.0411            0    745.21041    18.049338    23.498883    22.155821            0            0            0    9397.1539    2784.4145    166.82062   -715.60383    1851.0121   -676.09686   -396.28165    18.049338    23.498883    22.155821           90           90           90 
  290000    276.11318   -4193.6993   -3720.4508   -4193.6993            0   -1214.4647    18.293053    23.597846    22.160245            0            0            0    9566.0603   -1474.2393   -1509.0987   -660.05617   -111.21242   -274.24535    921.11965    18.293053    23.597846    22.160245           90           90           90 
  290500    269.62517   -4228.9551   -3766.8268   -4228.9551            0   -605.75179    18.155618    23.540558    22.228106            0            0            0    9500.1456   -2301.9454   -774.73645    1259.4265   -220.57134    381.38726    596.40459    18.155618    23.540558    22.228106           90           90           90 
  291000     275.8835   -4178.9359    -3706.081   -4178.9359            0   -390.13159    18.122056    23.645858     22.16061            0            0            0    9496.0777   -10.745309   -1059.5021   -100.14733    -1078.333   -979.97357   -401.18535    18.122056    23.645858     22.16061           90           90           90 
  291500    279.89154   -4202.8331   -3723.1086   -4202.8331            0    1401.5527    18.181789    23.364245    22.215583            0            0            0    9437.2639    1127.5196    2516.0426     561.0959     398.0802    114.17042   -459.79569    18.181789    23.364245    22.215583           90           90           90 
  292000    269.26915   -4231.4243   -3769.9062   -4231.4243            0    1.5138159    18.145235    23.574302    22.135787            0            0            0     9468.832   -629.60975   -358.43048    992.58167    504.04806    30.662992    565.32791    18.145235    23.574302    22.135787           90           90           90 
  292500    262.51595   -4212.2672   -3762.3239   -4212.2672            0    66.742957    18.048905    23.706147     22.17416            0            0            0    9487.6572    475.30878   -65.848922   -209.23099   -947.39007    600.23336    82.676254    18.048905    23.706147     22.17416           90           90           90 
  293000      247.285   -4232.1962   -3808.3582   -4232.1962            0   -2688.5303     18.31972    23.517653    22.326522            0            0            0    9619.0875   -1698.2645    -3391.994   -2975.3323   -203.50401    420.04592   -71.365074     18.31972    23.517653    22.326522           90           90           90 
  293500    267.15987   -4189.7685   -3731.8656   -4189.7685            0   -1101.6712    18.350682    23.454919    22.311998            0            0            0    9603.3913   -1915.2307    146.94904   -1536.7319   -109.45248    778.84634    331.26303    18.350682    23.454919    22.311998           90           90           90 
  294000    261.40779   -4208.8612   -3760.8172   -4208.8612            0   -429.54814    18.002789      23.7445    22.136295            0            0            0    9462.5407   -690.14293   -122.63156   -475.86992   -172.74783   -63.888699    245.27779    18.002789      23.7445    22.136295           90           90           90 
  294500      274.157   -4208.4025   -3738.5068   -4208.4025            0    452.80291    18.126447    23.598172    22.133292            0            0            0     9467.538   -71.349195    1004.8221    424.93578    495.08845    387.18746   -597.29722    18.126447    23.598172    22.133292           90           90           90 
  295000    272.56916   -4202.0332    -3734.859   -4202.0332            0    676.98512    18.280178    23.348225    22.266635            0            0            0    9503.6156   -63.114881    828.05045    1266.0198     957.8103    265.21563    104.75829    18.280178    23.348225    22.266635           90           90           90 
  295500    262.75909   -4180.0723   -3729.7122   -4180.0723            0    17.585731    18.140755    23.832172    22.095417            0            0            0    9552.5907    1643.3293   -1188.7272   -401.84489   -335.89722   -835.28179    -429.3198    18.140755    23.832172    22.095417           90           90           90 
  296000    265.81533    -4215.307   -3759.7087    -4215.307            0   -118.44886    18.081959    23.628124    22.328939            0            0            0    9539.8778    332.22594   -574.39907   -113.17345    1006.1681    38.915693    -184.2318    18.081959    23.628124    22.328939           90           90           90 
  296500    260.74508   -4211.7218   -3764.8137   -4211.7218            0    623.67362    18.270071    23.357331    22.151681            0            0            0    9453.0105   -999.33785    1628.6958    1241.6629   -40.112181   -261.38993   -138.80894    18.270071    23.357331    22.151681           90           90           90 
  297000    272.96408   -4223.1794   -3755.3283   -4223.1794            0    680.63449    18.162131    23.741591    21.924498            0            0            0    9453.7975    1953.2299   -596.16225     684.8358   -381.49841    437.35474    101.42254    18.162131    23.741591    21.924498           90           90           90 
  297500    281.20599   -4195.7286   -3713.7512   -4195.7286            0   -830.40649    17.851373    23.762628    22.490259            0            0            0    9540.2672    645.39872   -1972.2663   -1164.3519   -1059.2826    379.91529   -86.404224    17.851373    23.762628    22.490259           90           90           90 
  298000    270.27044   -4205.5466   -3742.3123   -4205.5466            0   -908.34198    18.324744    23.390339     22.27938            0            0            0    9549.4319   -863.77567    238.34813   -2099.5984    597.16724    767.66065    32.247385    18.324744    23.390339     22.27938           90           90           90 
  298500    268.97995   -4214.7482   -3753.7257   -4214.7482            0    -1052.035    18.368639     23.57915    22.022394            0            0            0    9538.2712   -1462.4945   -378.92454   -1314.6859    100.29748    291.94653    561.57944    18.368639     23.57915    22.022394           90           90           90 
  299000    259.22813   -4197.2649   -3752.9568   -4197.2649            0   -247.80433    17.933713    23.707856    22.330139            0            0            0    9494.1024   -277.27837    637.19626   -1103.3309    -1955.922   -150.50598   -735.10855    17.933713    23.707856    22.330139           90           90           90 
  299500    267.62051   -4205.0305   -3746.3381   -4205.0305            0    424.65546    18.165351    23.587238    22.111746            0            0            0    9474.2297    107.48929    1069.9603    96.516761    446.87145   -246.26118   -52.922071    18.165351    23.587238    22.111746           90           90           90 
  300000    276.70876   -4239.8876   -3765.6183   -4239.8876            0    34.582246    18.287091    23.450674    22.121694            0            0            0    9486.7693     49.49272    1128.5563   -1074.3022    1555.5546    679.62813   -519.24459    18.287091    23.450674    22.121694           90           90           90 
  300500     262.6169   -4219.2331   -3769.1167   -4219.2331            0   -45.101451     17.93779    23.528068    22.430656            0            0            0    9466.6689    1333.3887   -16.104902   -1452.5882    41.050542   -490.01077     265.7903     17.93779    23.528068    22.430656           90           90           90 
  301000    265.47823    -4221.287   -3766.2664    -4221.287            0    134.02002     18.19905    23.767322    21.862882            0            0            0    9456.6296   -438.46417    573.48541    267.03882    931.57529    920.65085    400.56876     18.19905    23.767322    21.862882           90           90           90 
  301500     288.0711   -4234.2136   -3740.4696   -4234.2136            0    623.72058    18.250016    23.446927    22.052213            0            0            0    9436.2917   -21.309256    424.75381    1467.7172   -1218.8798   -145.23307    28.202228    18.250016    23.446927    22.052213           90           90           90 
  302000    278.32316   -4220.8001   -3743.7637   -4220.8001            0    268.82676    18.034519    23.387636       22.441            0            0            0    9465.2717    185.60423    156.70068    464.17538    302.69651     1365.269   -89.052722    18.034519    23.387636       22.441           90           90           90 
  302500    253.99666   -4213.1662   -3777.8246   -4213.1662            0    652.11398    18.186262    23.678119    22.066244            0            0            0     9502.088    418.04278    421.56222    1116.7369   -450.77648    170.17857   -71.131126    18.186262    23.678119    22.066244           90           90           90 
  303000    265.60112   -4178.5924   -3723.3612   -4178.5924            0    433.14578    18.144737     23.56179    22.201109            0            0            0    9491.4733    622.76561    551.00596    125.66576    986.93251   -332.40125   -323.00955    18.144737     23.56179    22.201109           90           90           90 
  303500    286.15751   -4233.8643   -3743.4001   -4233.8643            0   -685.96256      18.1421    23.557059    22.332266            0            0            0    9544.2419   -368.40199   -1308.4239   -381.06176    11.573101    355.10966    126.68224      18.1421    23.557059    22.332266           90           90           90 
  304000    262.48354   -4226.3804   -3776.4926   -4226.3804            0   -26.624915    18.278545    23.649849    21.999052            0            0            0    9509.8565   -344.65654   -692.68121      957.463    161.81577    417.24113   -308.60256    18.278545    23.649849    21.999052           90           90           90 
  304500    284.59819   -4209.4455   -3721.6539   -4209.4455            0    143.91921    18.047303    23.556002    22.402123            0            0            0    9523.6421    1344.1813   -764.62381   -147.79988   -633.35395    1232.9174   -87.632231    18.047303    23.556002    22.402123           90           90           90 
  305000    272.24719    -4214.532   -3747.9097    -4214.532            0    317.55302    18.001065    23.520642    22.436244            0            0            0    9499.4293     1995.988    114.86657   -1158.1955   -699.45484   -834.72941   -595.06284    18.001065    23.520642    22.436244           90           90           90 
  305500    263.51581   -4191.5723   -3739.9152   -4191.5723            0   -425.66592    18.396432    23.687473     21.89338            0            0            0    9540.3686   -1423.8907   -475.76358    622.65651   -907.91173   -914.08997    933.04905    18.396432    23.687473     21.89338           90           90           90 
  306000    251.59814   -4182.2023   -3750.9717   -4182.2023            0   -1268.7245     18.11148    23.602495    22.452916            0            0            0    9598.0855   -343.67888   -1330.4094   -2132.0853    276.34838   -572.87422   -52.202349     18.11148    23.602495    22.452916           90           90           90 
  306500    281.50027   -4223.5431   -3741.0613   -4223.5431            0     86.36981    18.123339    23.567874     22.18324            0            0            0    9475.0954    77.206054    125.05993    56.843449    127.59124    1173.7314    1012.3879    18.123339    23.567874     22.18324           90           90           90 
  307000    264.26581   -4187.8666   -3734.9241   -4187.8666            0    843.43739    18.199209    23.572106    21.934385            0            0            0    9409.7127    1992.8652    645.33147   -107.88451    3.6958412   -216.27142    265.42499    18.199209    23.572106    21.934385           90           90           90 
  307500    252.79193   -4186.0733   -3752.7966   -4186.0733            0    158.93114    18.116205    23.488038    22.324495            0            0            0    9499.3876   -1393.8487    953.14358    917.49852   -417.59764    985.35729    149.40864    18.116205    23.488038    22.324495           90           90           90 
  308000    269.93737   -4203.7454    -3741.082   -4203.7454            0   -571.96556    18.160211     23.71473    22.237157            0            0            0     9576.754   -479.50831   -1041.4343   -194.95406   -687.33946   -919.93548   -47.760728    18.160211     23.71473    22.237157           90           90           90 
  308500    271.38189   -4187.9894   -3722.8501   -4187.9894            0    -1305.415    18.291474    23.648515    22.108337            0            0            0     9563.319   -151.16967    -2263.877   -1501.1983   -328.12747    727.85133    101.07701    18.291474    23.648515    22.108337           90           90           90 
  309000    271.28616   -4196.0328   -3731.0576   -4196.0328            0   -1384.6795    18.201085    23.508884    22.429259            0            0            0    9597.1925   -1400.7667   -1011.7693   -1741.5025    671.36584   -196.38709    -223.5386    18.201085    23.508884    22.429259           90           90           90 
  309500    269.57358   -4185.4135   -3723.3736   -4185.4135            0    214.19981    17.970718    23.791112    22.100376            0            0            0    9448.8693     390.8968   -187.13893    438.84156    168.70127     417.0666    173.02135    17.970718    23.791112    22.100376           90           90           90 
  310000    279.35075    -4207.876   -3729.0784    -4207.876            0    1586.1794    18.244679    23.626651     21.90448            0            0            0    9442.1593    334.55897     1596.462    2827.5171    251.18147   -134.21657    364.25097    18.244679    23.626651     21.90448           90           90           90 
  310500    291.96524    -4179.406   -3678.9876    -4179.406            0    494.38997    18.249023    23.118574    22.502991            0            0            0    9493.8186   -1250.7568    1935.7314     798.1953   -681.55709    318.85943     108.9912    18.249023    23.118574    22.502991           90           90           90 
  311000     271.0773   -4209.6304   -3745.0132   -4209.6304            0   -374.34293    18.103094    23.812726    22.188813            0            0            0    9565.2429    -810.9256     492.9896    -805.0928   -164.63695    -238.5538      400.106    18.103094    23.812726    22.188813           90           90           90 
  311500    263.42029   -4213.6338   -3762.1404   -4213.6338            0    521.26469    18.109739    23.708952    21.987788            0            0            0    9440.7414   -299.81241    247.00985    1616.5966   -367.60728     53.52527     119.1245    18.109739    23.708952    21.987788           90           90           90 
  312000    268.52292   -4192.1428   -3731.9037   -4192.1428            0    125.17506    18.186006    23.369063    22.319088            0            0            0    9485.3872    759.67279    417.84947    -801.9971    357.91286   -54.901683   -227.76656    18.186006    23.369063    22.319088           90           90           90 
  312500    259.57563   -4211.3915   -3766.4877   -4211.3915            0   -309.03397    18.182343    23.664804    22.172861            0            0            0    9540.5738    115.67034   -29.276078   -1013.4962     1371.378    750.09953   -538.15648    18.182343    23.664804    22.172861           90           90           90 
  313000    273.78545   -4207.6857   -3738.4268   -4207.6857            0   -1032.9157    18.124856    23.782237    22.187641            0            0            0    9563.9744    113.45007   -1037.5633    -2174.634   -1542.8508    642.23588   -421.53492    18.124856    23.782237    22.187641           90           90           90 
  313500    255.04715   -4193.3773   -3756.2353   -4193.3773            0   -766.73388    18.187905    23.414856    22.505483            0            0            0    9584.3464    -673.8284   -2125.2424    498.86913    50.276847   -446.86354   -294.86943    18.187905    23.414856    22.505483           90           90           90 
  314000    298.14364   -4223.1047   -3712.0967   -4223.1047            0    41.061505    18.234946    23.577107    22.117561            0            0            0    9508.9427    301.13223   -83.074451    -94.87326    675.66561     596.7319   -159.02781    18.234946    23.577107    22.117561           90           90           90 
  314500    265.57231   -4191.6168   -3736.4349   -4191.6168            0   -513.96666    18.074877    23.892051    22.068086            0            0            0    9530.0122   -711.77624   -497.46986   -332.65387    609.93732    608.89592   -667.01801    18.074877    23.892051    22.068086           90           90           90 
  315000    273.07153   -4210.1142   -3742.0789   -4210.1142            0   -242.77734    18.197389    23.403091    22.474347            0            0            0    9571.2662   -328.90063    386.30295   -785.73435    244.02836   -229.66778     255.3027    18.197389    23.403091    22.474347           90           90           90 
  315500     273.9414   -4181.2104   -3711.6842   -4181.2104            0   -908.45638    18.373452    23.607961    22.081045            0            0            0    9577.8684    -1497.182   -645.53382   -582.65335    981.57769   -319.22749    213.20168    18.373452    23.607961    22.081045           90           90           90 
  316000    280.76568   -4191.9925   -3710.7697   -4191.9925            0    809.23423    18.009654     23.72115    22.158353            0            0            0    9466.2634    2807.6203   -18.716926   -361.20069   -957.00225   -520.33225   -469.45977    18.009654     23.72115    22.158353           90           90           90 
  316500    272.44678   -4188.0533   -3721.0889   -4188.0533            0     784.5298    18.097104    23.460627    22.265775            0            0            0    9453.3671    865.02466   -114.24284    1602.8076    890.19338   -1052.9771    810.62987    18.097104    23.460627    22.265775           90           90           90 
  317000       272.75   -4235.3379   -3767.8537   -4235.3379            0   -8.4303095     18.33592    23.510999    22.132079            0            0            0    9541.0458   -2122.3106    826.83932    1270.1803   -1320.4445    111.88258   -313.55742     18.33592    23.510999    22.132079           90           90           90 
  317500    266.84075   -4249.5805   -3792.2246   -4249.5805            0   -664.66064    18.088919    23.584821    22.362476            0            0            0     9540.367   -77.615621    405.13191   -2321.4982     239.4317    150.31483   -223.56985    18.088919    23.584821    22.362476           90           90           90 
  318000    268.28653   -4220.2245   -3760.3906   -4220.2245            0   -15.035572    18.086208    23.743963    22.204418            0            0            0    9535.4264   -565.96311    1118.3618   -597.50537  -0.57492565   -269.90315    717.43845    18.086208    23.743963    22.204418           90           90           90 
  318500    260.55065   -4201.2806   -3754.7057   -4201.2806            0    290.30322    18.394823    23.477055     21.95129            0            0            0    9479.8024    -1749.462    793.42249    1826.9492    1194.2501   -157.18135   -246.45604    18.394823    23.477055     21.95129           90           90           90 
  319000    269.35446   -4175.7277   -3714.0634   -4175.7277            0     1093.253    17.941066    23.319443    22.498505            0            0            0    9412.8272    1136.2941    1983.9051    159.55978   -168.72532    178.33733   -289.07965    17.941066    23.319443    22.498505           90           90           90 
  319500    267.10494   -4210.4392   -3752.6305   -4210.4392            0    578.81834    18.020495     23.78008    22.030095            0            0            0    9440.5305     1760.329    562.82134   -586.69531   -260.14412    219.82043    7.2658183    18.020495     23.78008    22.030095           90           90           90 
  320000    264.91836   -4205.7497   -3751.6887   -4205.7497            0   -1082.5912    18.283745    23.608041    22.093256            0            0            0    9536.4085   -1777.2432   -547.51291   -923.01737   -259.56063   -554.37365   -467.01078    18.283745    23.608041    22.093256           90           90           90 
  320500     268.6451   -4218.5408   -3758.0923   -4218.5408            0   -1121.1007    18.196358    23.447728     22.44203            0            0            0    9575.1893   -581.24782    -58.11785   -2723.9364   -353.54678    400.71535    -1012.744    18.196358    23.447728     22.44203           90           90           90 
  321000    255.08606   -4218.8813   -3781.6725   -4218.8813            0   -253.71573    18.120482    23.840265    22.077582            0            0            0    9537.4509    1816.3411   -1540.3076   -1037.1807    607.86299    638.80433   -289.34748    18.120482    23.840265    22.077582           90           90           90 
  321500    276.03941   -4236.0629   -3762.9408   -4236.0629            0     214.9853    18.122368    23.502279    22.181962            0            0            0    9447.6734    1484.0838     655.1246   -1494.2525    365.41283   -1058.8376   -4.0441273    18.122368    23.502279    22.181962           90           90           90 
  322000     269.1952    -4201.924   -3740.5326    -4201.924            0    1118.8062    18.162041    23.273088    22.248469            0            0            0    9404.1337    363.97859     643.1148    2349.3252   -52.713804    1065.7617    173.84692    18.162041    23.273088    22.248469           90           90           90 
  322500    273.13006   -4220.5273   -3752.3917   -4220.5273            0    377.55715    18.117366     23.82378    22.039225            0            0            0    9512.6616   -190.53152    -530.3056    1853.5086    633.06999   -372.45205    392.93329    18.117366     23.82378    22.039225           90           90           90 
  323000    284.44236   -4210.4501   -3722.9256   -4210.4501            0   -425.99286    18.128024    23.742096    22.152788            0            0            0    9534.4997   -335.99552   -1009.5396    67.556526   -654.73635   -398.25917     388.0212    18.128024    23.742096    22.152788           90           90           90 
  323500    269.25098    -4204.942    -3743.455    -4204.942            0    257.55109    18.205555    23.244992    22.329617            0            0            0    9449.6253    160.43986     1984.851   -1372.6376   -288.10832    244.84524    43.829056    18.205555    23.244992    22.329617           90           90           90 
  324000    258.44245   -4221.5235    -3778.562   -4221.5235            0    1576.2555    18.103089    23.718604     21.91143            0            0            0    9408.3301    1316.4486    386.31027    3026.0075   -451.18723   -705.55851   -274.11203    18.103089    23.718604     21.91143           90           90           90 
  324500    270.69635   -4192.6815   -3728.7172   -4192.6815            0    453.39451    17.935286    23.697391    22.217028            0            0            0    9442.6699    2763.4687    -1718.831     315.5459    509.46143   -408.16042   -216.39679    17.935286    23.697391    22.217028           90           90           90 
  325000    280.64145   -4217.7287   -3736.7188   -4217.7287            0   -1610.1157    18.296323    23.321145    22.412384            0            0            0    9563.1673   -2094.0601   -144.24794   -2592.0392    338.97522   -241.91069   -327.55293    18.296323    23.321145    22.412384           90           90           90 
  325500    262.11964   -4182.6568   -3733.3927   -4182.6568            0   -872.31564    18.273668    23.746751     21.97676            0            0            0    9536.6007    379.77759   -1971.8623   -1024.8622   -383.26804   -108.24292   -57.488166    18.273668    23.746751     21.97676           90           90           90 
  326000    257.64142    -4207.214   -3765.6254    -4207.214            0    156.16924    18.001969     23.63206    22.274676            0            0            0    9476.1735    985.34767    773.75916   -1290.5991    622.76923   -1277.1714    461.14747    18.001969     23.63206    22.274676           90           90           90 
  326500    271.84474   -4208.0712   -3742.1387   -4208.0712            0   -759.16054    18.151812    23.402297    22.243391            0            0            0    9448.8609   -484.05788    84.250983   -1877.6747   -29.349091   -228.90452    68.983555    18.151812    23.402297    22.243391           90           90           90 
  327000    272.85378   -4177.4986   -3709.8365   -4177.4986            0   -375.18799    18.290367    23.632046    22.009616            0            0            0    9513.4099   -692.44361   -1216.9467    783.82635   -238.87913   -833.43345   -458.82958    18.290367    23.632046    22.009616           90           90           90 
  327500    255.58049   -4201.2374   -3763.1811   -4201.2374            0    -261.8722    17.832978    23.855444     22.33916            0            0            0    9503.3829    1667.9651   -458.79241   -1994.7893   -575.68569    143.42353   -6.7610704    17.832978    23.855444     22.33916           90           90           90 
  328000     269.1154   -4200.8616    -3739.607   -4200.8616            0   -3.6255082    18.275253    23.446219     22.22058            0            0            0    9521.1979     -1493.06   -612.50216    2094.6856   -69.329439   -421.24568    559.60448    18.275253    23.446219     22.22058           90           90           90 
  328500    280.66789    -4196.653   -3715.5978    -4196.653            0   -529.69456    18.450511    23.361405    22.069394            0            0            0    9512.5678   -1585.2335    -199.6646    195.81443   -125.76912   -519.63201   -663.27344    18.450511    23.361405    22.069394           90           90           90 
  329000    275.81147   -4213.0546   -3740.3232   -4213.0546            0   -699.82041    17.947738    23.695948    22.339719            0            0            0    9500.8293    716.80002    -1240.213   -1576.0483   -998.96022    -686.9835    437.78545    17.947738    23.695948    22.339719           90           90           90 
  329500    260.34269   -4216.4481   -3770.2296   -4216.4481            0    642.27124    18.131846    23.660332    22.147145            0            0            0    9501.2471    409.70375     756.2072    760.90278   -438.59633     670.5527   -166.04772    18.131846    23.660332    22.147145           90           90           90 
  330000    259.94698   -4199.7099   -3754.1696   -4199.7099            0    21.593987    18.351496    23.484215    22.118635            0            0            0    9532.4786   -765.16568    28.933461    801.01418   -17.408328    -89.78129    130.41799    18.351496    23.484215    22.118635           90           90           90 
  330500     273.8836   -4214.5678   -3745.1407   -4214.5678            0   -875.30706    18.031066    23.681282    22.389964            0            0            0    9560.4871   -1112.3831   -357.68385   -1155.8542   -104.34481   -672.64127   -692.02328    18.031066    23.681282    22.389964           90           90           90 
  331000    254.94542   -4207.8112   -3770.8435   -4207.8112            0   -627.91354    18.102348    23.674593    22.189384            0            0            0    9509.6091   -901.64749   -723.49973    -258.5934   -391.36606   -63.144294    410.60419    18.102348    23.674593    22.189384           90           90           90 
  331500     269.6643   -4208.8842   -3746.6888   -4208.8842            0   -651.14348    18.392995    23.502929    22.115786            0            0            0    9560.4168   -1156.2376   -535.59926    -261.5936    224.76119   -343.05675   -338.89919    18.392995    23.502929    22.115786           90           90           90 
  332000    281.41822   -4198.4605   -3716.1193   -4198.4605            0    -861.4974    18.170961    23.497635    22.437772            0            0            0     9580.359   -918.02353   -635.14093   -1031.3277    368.02304    53.126872    259.00636    18.170961    23.497635    22.437772           90           90           90 
  332500    275.60386   -4163.3393   -3690.9637   -4163.3393            0   -1196.6402    18.069488    23.931181    22.242576            0            0            0    9618.2276     509.4632   -2069.8851   -2029.4988    915.60517    626.20841   -711.39716    18.069488    23.931181    22.242576           90           90           90 
  333000    267.11065   -4204.1389   -3746.3204   -4204.1389            0    686.60909    18.317562    23.523701    21.965407            0            0            0    9464.8245    362.86066    886.39293     810.5737    815.22142   -492.52269    1108.8646    18.317562    23.523701    21.965407           90           90           90 
  333500    292.15761   -4195.0807   -3694.3326   -4195.0807            0    1312.4518     18.13803    23.291521    22.348397            0            0            0    9441.3556     815.1904    2252.3113    869.85369    794.35757   -23.203118    824.65572     18.13803    23.291521    22.348397           90           90           90 
  334000    288.97107   -4234.2713   -3738.9848   -4234.2713            0    433.68411    18.010629    23.722259    22.149031            0            0            0    9463.2358    1610.2306    304.91684   -614.09508   -6.2039816    217.41754   -196.35771    18.010629    23.722259    22.149031           90           90           90 
  334500    264.36894   -4192.7031   -3739.5838   -4192.7031            0   -1864.6814    18.235347    23.851048    22.076878            0            0            0    9601.9435   -2016.7605   -1967.4303   -1609.8536    50.779051    209.39882    517.89772    18.235347    23.851048    22.076878           90           90           90 
  335000     262.7398   -4232.6084   -3782.2814   -4232.6084            0    157.92167    18.241718    23.121152    22.453119            0            0            0    9470.0412    173.00321     112.5322    188.22961   -241.85875   -535.76261   -92.323829    18.241718    23.121152    22.453119           90           90           90 
  335500    289.09251   -4205.2341   -3709.7394   -4205.2341            0    116.52668    18.150561     23.73685    22.069504            0            0            0    9508.3618    803.89629   -869.71262    415.39638   -1003.9464    481.32792   -869.07473    18.150561     23.73685    22.069504           90           90           90 
  336000    289.88496   -4182.9632   -3686.1103   -4182.9632            0    333.38516    18.014437    23.851919    22.029392            0            0            0    9465.5648    651.64407   -1111.8664    1460.3778   -64.774523   -10.242849    774.64981    18.014437    23.851919    22.029392           90           90           90 
  336500    287.87493   -4235.0798    -3741.672   -4235.0798            0   -201.30321     18.18753    23.335082    22.382275            0            0            0    9499.2052   -495.62182    1259.1336   -1367.4214   -358.50051    153.21687    230.39646     18.18753    23.335082    22.382275           90           90           90 
  337000    276.02988   -4223.7351   -3750.6293   -4223.7351            0    511.34187    18.223362     23.61725    22.026113            0            0            0    9479.7238    -761.0656    1263.2725    1031.8187    622.37367    669.79395    1376.6361    18.223362     23.61725    22.026113           90           90           90 
  337500    263.57069   -4189.4411   -3737.6899   -4189.4411            0    31.222225    18.035133    23.673307    22.146351            0            0            0    9455.4124    1031.8527    -722.5367   -215.64934   -1242.9514    371.88823   -248.69832    18.035133    23.673307    22.146351           90           90           90 
  338000    256.40271   -4218.1997   -3778.7343   -4218.1997            0   -177.92141    18.176041    23.389905    22.292389            0            0            0    9477.2941   -458.78542   -469.27763    394.29883    687.98501    383.90907    180.89148    18.176041    23.389905    22.292389           90           90           90 
  338500     264.1808   -4196.5869   -3743.7901   -4196.5869            0   -715.58237    18.349179    23.645318     22.00098            0            0            0    9545.6128    -684.8702   -110.15729   -1351.7196    -115.9751    39.858992    -628.8574    18.349179    23.645318     22.00098           90           90           90 
  339000    268.72008    -4195.691    -3735.114    -4195.691            0   -762.13007     17.89038    23.879645       22.378            0            0            0    9560.2381   -477.41187   -834.50558   -974.47274    288.08089   -632.48637   -180.03525     17.89038    23.879645       22.378           90           90           90 
  339500    259.94754   -4209.6286   -3764.0874   -4209.6286            0    315.50591    18.094066     23.41747    22.291651            0            0            0    9445.3572    679.90872    711.44028   -444.83128   -901.69687    -223.7451    150.50641    18.094066     23.41747    22.291651           90           90           90 
  340000    278.01924   -4202.1565    -3725.641   -4202.1565            0    1583.8905    18.332121    23.355544    21.912045            0            0            0     9381.788    397.55189    1861.7974    2492.3221   -1269.0984   -642.76596   -409.38361    18.332121    23.355544    21.912045           90           90           90 
  340500    271.40531   -4172.7804    -3707.601   -4172.7804            0    135.92249    18.084262    23.625579    22.257187            0            0            0    9509.4085    429.18977    382.18316   -403.60546   -324.71551   -1213.4505    166.53072    18.084262    23.625579    22.257187           90           90           90 
  341000    288.81657   -4231.5264   -3736.5046   -4231.5264            0   -802.44079    18.120808    23.662333    22.219171            0            0            0    9527.1496   -958.77112   -344.82766   -1103.7236   -962.33593    110.54712   -278.73304    18.120808    23.662333    22.219171           90           90           90 
  341500    266.88356   -4230.4952   -3773.0659   -4230.4952            0    554.87897    18.342415    23.473661    22.059986            0            0            0    9498.2278   -420.80519    631.90062    1453.5415   -186.57715    538.58342    623.92054    18.342415    23.473661    22.059986           90           90           90 
  342000    261.59089   -4212.1906   -3763.8327   -4212.1906            0   -429.11418    18.046578    23.632265    22.282941            0            0            0    9503.2627    159.12571    447.50739   -1893.9756    144.60687   -339.22224    87.889354    18.046578    23.632265    22.282941           90           90           90 
  342500    254.69297   -4206.1361    -3769.601   -4206.1361            0    693.26794    17.983274    23.781391     22.19069            0            0            0    9490.2321    401.88774    1023.0183    654.89784   -80.238792     231.4948   -41.683393    17.983274    23.781391     22.19069           90           90           90 
  343000    265.98126   -4210.8709   -3754.9881   -4210.8709            0    149.70451    18.425938    23.335664    22.055527            0            0            0    9483.4686   -411.08749   -929.22531    1789.4263   -193.65627   -172.92176    515.43907    18.425938    23.335664    22.055527           90           90           90 
  343500    260.07354   -4217.8418   -3772.0846   -4217.8418            0    2055.9932    18.090119    23.416133    22.366394            0            0            0    9474.4189    1336.6392    3430.1405       1401.2    609.38545   -460.69118   -144.33987    18.090119    23.416133    22.366394           90           90           90 
  344000     274.2585   -4227.7501   -3757.6804   -4227.7501            0    407.87938    18.005262    23.865019    22.198175            0            0            0    9538.4652    1434.5698   -635.84027    424.90861   -766.16668   -261.13718    758.82107    18.005262    23.865019    22.198175           90           90           90 
  344500    268.25075   -4231.0347   -3771.2621   -4231.0347            0    177.30063    18.349039    23.578868    22.018508            0            0            0     9526.298   -757.43457    216.46389    1072.8726    441.10019    531.48107    23.234761    18.349039    23.578868    22.018508           90           90           90 
  345000    273.33484   -4219.4651   -3750.9785   -4219.4651            0    271.12907    18.225665    23.416911    22.340527            0            0            0    9534.6861   -1654.8696    370.58094    2097.6758     438.0725    183.33679    72.300363    18.225665    23.416911    22.340527           90           90           90 
  345500     254.5392   -4196.7627   -3760.4912   -4196.7627            0    382.52853    17.987303    23.849819    22.143973            0            0            0    9499.6301    2049.1041   -1348.1363    446.61778   -736.30994   -813.09826    286.30238    17.987303    23.849819    22.143973           90           90           90 
  346000    268.35923   -4217.4856    -3757.527   -4217.4856            0   -35.343388     18.25946    23.599857    22.084539            0            0            0     9516.684   -147.05337    76.054834   -35.031631   -293.70565   -301.45329    87.730976     18.25946    23.599857    22.084539           90           90           90 
  346500    259.63503   -4228.4749   -3783.4694   -4228.4749            0   -1067.7685    18.268269    23.346413    22.347732            0            0            0    9531.2753   -1109.9947   -186.46276    -1906.848   -740.03775    -286.9376    778.32414    18.268269    23.346413    22.347732           90           90           90 
  347000    284.41404   -4231.2398   -3743.7639   -4231.2398            0   -254.11448    18.039011     23.80123    22.243237            0            0            0    9550.1485   -660.65521    476.53065   -578.21888   -790.04908   -577.03107   -1445.0293    18.039011     23.80123    22.243237           90           90           90 
  347500    264.53848   -4198.8051   -3745.3952   -4198.8051            0   -506.88871    18.264544     23.81681    22.105261            0            0            0    9615.8585   -1052.7969    -1521.422    1053.5527   -549.18832   -36.149418   -1134.0891    18.264544     23.81681    22.105261           90           90           90 
  348000    248.63635   -4206.6506   -3780.4964   -4206.6506            0   -611.92392    18.302458    23.290692     22.45544            0            0            0    9572.2357   -799.21131   -376.45877   -660.10167   -928.59551   -105.00866    1070.0221    18.302458    23.290692     22.45544           90           90           90 
  348500    251.43512   -4202.2437   -3771.2925   -4202.2437            0   -484.63039    18.190141    23.786574     22.10791            0            0            0    9565.6757    981.85804   -1197.4567   -1238.2925   -1012.5875    612.18098    39.188578    18.190141    23.786574     22.10791           90           90           90 
  349000    246.30857   -4233.7746   -3811.6102   -4233.7746            0   -286.73188    18.078881     23.79514    22.170804            0            0            0    9537.6472   -1302.4032    708.37692   -266.16939   -239.76976   -688.31855   -622.33435    18.078881     23.79514    22.170804           90           90           90 
  349500    277.47788   -4191.1214   -3715.5338   -4191.1214            0   -922.51084    18.309779    23.308649    22.507189            0            0            0    9605.5327   -1616.6967    332.99077   -1483.8266   -16.042619   -556.85095    392.40469    18.309779    23.308649    22.507189           90           90           90 
  350000     274.3988   -4198.6038   -3728.2937   -4198.6038            0    1486.7295    18.258797    23.472739    22.077708            0            0            0    9462.1519    687.94246   -244.57103     4016.817   -1372.6419    76.743495    144.11109    18.258797    23.472739    22.077708           90           90           90 
  350500     280.5781   -4203.5627   -3722.6615   -4203.5627            0    124.13823    18.026852    23.758474    22.052395            0            0            0    9444.8315    1457.6419   -582.03838   -503.18882   -1048.1879    978.00238   -708.80257    18.026852    23.758474    22.052395           90           90           90 
  351000    268.19454   -4188.1282   -3728.4519   -4188.1282            0    377.36921    18.107621    23.601095    22.314737            0            0            0    9536.4193     22.61612    580.35211    529.13941    37.016979    497.07132    545.62085    18.107621    23.601095    22.314737           90           90           90 
  351500    276.17888   -4206.2128   -3732.8517   -4206.2128            0   -8.6717416     18.30537    23.510712    22.158853            0            0            0     9536.556    93.277089    1511.2256    -1630.518   -557.90893     625.2192    299.90828     18.30537    23.510712    22.158853           90           90           90 
  352000     272.2479   -4202.7529   -3736.1293   -4202.7529            0   -1376.4992    18.252282    23.635969    22.254058            0            0            0    9600.6318   -1790.5172   -1414.8536   -924.12667   -1143.9529    111.96956    395.41803    18.252282    23.635969    22.254058           90           90           90 
  352500    266.55909   -4224.9403   -3768.0671   -4224.9403            0   -889.04793    17.945298    23.749644    22.337932            0            0            0    9520.3029   -307.42385    -133.4166   -2226.3033   -258.11712     -360.702    501.16301    17.945298    23.749644    22.337932           90           90           90 
  353000    264.69462   -4230.5731   -3776.8956   -4230.5731            0    293.54603    18.251133    23.527307    21.942399            0            0            0    9422.0664   -76.803174   -47.599152    1005.0404    5.5569867       147.82    463.12366    18.251133    23.527307    21.942399           90           90           90 
  353500    270.03055   -4260.3325   -3797.5094   -4260.3325            0    1847.6121    18.176171    23.257485    22.239028            0            0            0    9401.1493     410.8295    2542.3059    2589.7008    121.06392    662.36883    220.62862    18.176171    23.257485    22.239028           90           90           90 
  354000    269.19236   -4205.2734   -3743.8869   -4205.2734            0   -169.40057    18.015655    23.738352    22.235357            0            0            0    9509.2164   -463.21297    44.890569   -89.879317    415.50504   -214.35157    81.061639    18.015655    23.738352    22.235357           90           90           90 
  354500    277.05525   -4206.0869   -3731.2237   -4206.0869            0    676.11054    18.148811     23.58614    22.178106            0            0            0    9493.5689     1718.328    873.15398   -563.15038   -795.50515   -459.25466    470.80544    18.148811     23.58614    22.178106           90           90           90 
  355000    278.80733   -4209.1524   -3731.2862   -4209.1524            0   -345.56798    18.305817    23.452319    22.166556            0            0            0    9516.4097   -1273.4601    778.33366   -541.57747    677.26008   -36.009678     232.6441    18.305817    23.452319    22.166556           90           90           90 
  355500    255.83134   -4196.9015   -3758.4154   -4196.9015            0     67.98076    18.031229    23.691561    22.096401            0            0            0    9439.3166   -587.20053    214.72577    576.41704    433.59795    795.03136    1068.6389    18.031229    23.691561    22.096401           90           90           90 
  356000    268.51602   -4199.6709   -3739.4436   -4199.6709            0    401.16927    17.916865    23.807641    22.205897            0            0            0    9472.1093   -50.670552   -77.821251    1331.9996    1248.3738    454.99517   -12.466265    17.916865    23.807641    22.205897           90           90           90 
  356500    259.80334   -4207.2331    -3761.939   -4207.2331            0   -949.79898    18.496399    23.205512    22.194246            0            0            0    9526.1787   -1420.9943   -65.913458   -1362.4892   -556.96248    21.024094    28.718235    18.496399    23.205512    22.194246           90           90           90 
  357000    268.56919   -4192.9453   -3732.6269   -4192.9453            0   -921.34337    18.249738    23.593417    22.200958            0            0            0    9559.1483   -2520.5989   -778.62638    535.19514   -482.16593   -626.59979   -54.861885    18.249738    23.593417    22.200958           90           90           90 
  357500    273.26193   -4162.4723   -3694.1107   -4162.4723            0   -552.29042    17.945134    23.857992    22.216818            0            0            0    9511.7942   -1009.7461   -335.69948   -311.42564    -1425.504    249.41349    9.8871684    17.945134    23.857992    22.216818           90           90           90 
  358000    260.32578   -4201.2422   -3755.0528   -4201.2422            0    609.54145    18.220783    23.392881     22.14845            0            0            0      9440.48    1081.9506    969.43258   -222.75884   -543.62997   -52.636058    532.67256    18.220783    23.392881     22.14845           90           90           90 
  358500    277.07186   -4218.4139   -3743.5222   -4218.4139            0    -391.2919    18.306355    23.492771    22.101623            0            0            0    9505.1786   -1321.3842   -267.66033    415.16884   -1591.9464     94.73042    210.82832    18.306355    23.492771    22.101623           90           90           90 
  359000    262.27404   -4200.7608   -3751.2321   -4200.7608            0    578.07776    17.831069    23.823056    22.305232            0            0            0     9475.052    2291.7961    797.45878   -1355.0216   -1080.1232      -289.71    530.46471    17.831069    23.823056    22.305232           90           90           90 
  359500    268.52044    -4189.369   -3729.1341    -4189.369            0    97.559617    18.306529    23.497608    22.106546            0            0            0    9509.3443   -90.355118       410.85   -27.816031   -273.53999    136.63003    696.56151    18.306529    23.497608    22.106546           90           90           90 
  360000    266.50726   -4200.2222   -3743.4379   -4200.2222            0   -1043.8327    18.347638     23.40331    22.185134            0            0            0    9526.1959   -2135.3464    59.694559   -1055.8464   -793.80166    357.78296    -43.24591    18.347638     23.40331    22.185134           90           90           90 
  360500    275.63781   -4221.6126   -3749.1788   -4221.6126            0    557.59456    17.962166    23.637968    22.273265            0            0            0    9456.9858    1130.6888   -176.58535    718.68024   -149.53663   -770.63184     172.0381    17.962166    23.637968    22.273265           90           90           90 
  361000     263.5897    -4198.121   -3746.3373    -4198.121            0    678.71328    18.083303     23.58537    22.146732            0            0            0    9445.6121    398.72708    336.03196    1301.3808   -880.26885    -556.1295    394.74926    18.083303     23.58537    22.146732           90           90           90 
  361500    267.47859   -4195.5886   -3737.1394   -4195.5886            0   -175.85216     18.23075    23.491262    22.240824            0            0            0    9524.9289   -166.79173    449.38387    -810.1486    1216.8758     253.7258    -625.2411     18.23075    23.491262    22.240824           90           90           90 
  362000    258.14651   -4191.7693    -3749.315   -4191.7693            0   -581.99407    18.122105    23.625324    22.194153            0            0            0    9502.2178   -244.37351   -700.73128   -800.87743   -504.07938   -892.28477   -220.97016    18.122105    23.625324    22.194153           90           90           90 
  362500    259.43147   -4174.0769   -3729.4202   -4174.0769            0   -362.09598    18.107602    23.696835    22.171662            0            0            0    9513.7016    55.185989   -601.42951   -540.04441   -814.25229   -104.86578   -413.50269    18.107602    23.696835    22.171662           90           90           90 
  363000    274.96886   -4197.6733    -3726.386   -4197.6733            0     747.1735    18.232093    23.285274    22.217603            0            0            0    9432.2452   -281.68748    721.56761    1801.6404   -1409.9197    620.49641    129.85259    18.232093    23.285274    22.217603           90           90           90 
  363500    285.48418    -4190.205   -3700.8949    -4190.205            0    1238.6397    18.123929    23.424186    22.176479            0            0            0    9414.7649    1856.0277    1066.6923     793.1992   -1188.6217    530.28022    1292.9799    18.123929    23.424186    22.176479           90           90           90 
  364000    269.01067   -4194.9909   -3733.9158   -4194.9909            0   -195.64066    17.982249    23.872642    22.170929            0            0            0    9517.6203    235.14815   -1161.0805     339.0104    781.76333    256.59356    78.101624    17.982249    23.872642    22.170929           90           90           90 
  364500    273.37863   -4226.8992   -3758.3376   -4226.8992            0   -1574.7464    18.354061    23.365759    22.336214            0            0            0    9579.0321   -2445.3407   -653.81209   -1625.0865    1913.7548   -225.50015    407.10291    18.354061    23.365759    22.336214           90           90           90 
  365000    264.38277   -4200.4009   -3747.2579   -4200.4009            0   -146.92606    18.305617    23.514845    22.186147            0            0            0    9550.1097   -203.76971   -189.58694   -47.421525   -1746.1532    -235.5275   -56.361665    18.305617    23.514845    22.186147           90           90           90 
  365500    269.64675   -4216.9889   -3754.8236   -4216.9889            0     445.7172    17.986334    23.822735    22.048028            0            0            0    9447.2198    985.07414   -870.86202    1222.9395    -686.9941    101.73097   -22.602452    17.986334    23.822735    22.048028           90           90           90 
  366000    280.17615   -4195.8493   -3715.6369   -4195.8493            0    246.43595    18.103334    23.477291    22.298109            0            0            0    9477.0811    2547.7313   -248.85344     -1559.57    1082.7612   -112.05553   -385.41405    18.103334    23.477291    22.298109           90           90           90 
  366500    267.45546   -4215.4578   -3757.0483   -4215.4578            0   -76.339176    18.387153    23.378693    22.067922            0            0            0    9486.2848   -1041.8729    122.20155    690.65377    128.33422   -820.69754     108.8046    18.387153    23.378693    22.067922           90           90           90 
  367000    261.22694    -4209.838    -3762.104    -4209.838            0   -676.14676    18.079532    23.697171    22.178356            0            0            0    9501.9566   -95.848657   -278.12179   -1654.4698    -588.1121    67.256833   -151.85786    18.079532    23.697171    22.178356           90           90           90 
  367500    263.51928    -4175.422    -3723.759    -4175.422            0    126.90961    18.051747    23.581308    22.286523            0            0            0    9487.0119    789.12066    114.67341   -523.06524   -1140.9867    1507.1908    254.92487    18.051747    23.581308    22.286523           90           90           90 
  368000    276.58778   -4204.8894   -3730.8274   -4204.8894            0   -169.54188    18.290587    23.524006     22.08736            0            0            0    9503.4815   -557.94364   -272.52578    321.84378    284.10739   -980.73251    371.59732    18.290587    23.524006     22.08736           90           90           90 
  368500    278.51767   -4224.4229   -3747.0532   -4224.4229            0   -32.955639    18.148365     23.51029    22.239235            0            0            0    9488.8884   -672.39796    900.98741   -327.45637    636.20936   -58.736706    213.92333    18.148365     23.51029    22.239235           90           90           90 
  369000    273.28907   -4201.4134   -3733.0053   -4201.4134            0    1061.4511    17.896574    23.807944    22.195843            0            0            0     9457.219    11.357218    1918.0002    1254.9959    1184.4907   -581.94582    -11.02913    17.896574    23.807944    22.195843           90           90           90 
  369500    274.80268   -4219.1103   -3748.1079   -4219.1103            0    1793.6243    18.302279     23.47046    21.909178            0            0            0    9411.3703    870.51055     1127.844    3382.5185   -1380.6295   -987.09263    607.87166    18.302279     23.47046    21.909178           90           90           90 
  370000    262.09994   -4177.6694   -3728.4391   -4177.6694            0   -6.0678892    18.279137    23.348492     22.31409            0            0            0    9523.4367   -621.12841    1264.1414   -661.21663   -505.98344    316.21894    -443.4808    18.279137    23.348492     22.31409           90           90           90 
  370500    252.93149    -4210.494   -3776.9781    -4210.494            0   -1202.1574    18.009275    23.781755    22.302414            0            0            0    9551.9495   -716.33114   -2033.3291   -856.81207    929.03485    47.725552    146.01017    18.009275    23.781755    22.302414           90           90           90 
  371000    250.32883   -4185.6111    -3756.556   -4185.6111            0    283.37169    18.156185    23.631719    22.048902            0            0            0    9460.3433    1095.9573    172.06599    -417.9082   -394.33413   -743.90765   -27.344235    18.156185    23.631719    22.048902           90           90           90 
  371500    274.43753    -4234.791   -3764.4145    -4234.791            0    238.29973    18.191364    23.326005    22.268261            0            0            0    9449.1322    776.29541    182.27409   -243.67031   -680.38123   -1396.4149    453.17881    18.191364    23.326005    22.268261           90           90           90 
  372000    273.93164   -4222.0133   -3752.5038   -4222.0133            0    1009.2001    18.025531    23.717817    22.008036            0            0            0    9409.0131    1896.2539    379.31382    752.03263   -78.283504    1209.4167    979.12397    18.025531    23.717817    22.008036           90           90           90 
  372500    257.07174   -4215.6085   -3774.9963   -4215.6085            0    925.04289    18.002775    23.760878    22.092984            0            0            0    9450.5333    1150.0083   -473.84628    2098.9667   -1287.8303    138.86321    464.82152    18.002775    23.760878    22.092984           90           90           90 
  373000    251.52935   -4234.4668   -3803.3541   -4234.4668            0    52.737503    18.313262    23.125017    22.435674            0            0            0    9501.3849   -269.43715    660.62267   -232.97301    38.994579   -198.61566     492.5124    18.313262    23.125017    22.435674           90           90           90 
  373500    267.43468    -4218.508   -3760.1341    -4218.508            0     136.6156    18.254983    23.614927    22.057633            0            0            0    9508.8271   -533.71403    854.01896    89.541865   -730.89759   -260.35292     25.37806    18.254983    23.614927    22.057633           90           90           90 
  374000    265.05525   -4173.9251   -3719.6295   -4173.9251            0   -114.67227    18.019744    23.792174    22.137985            0            0            0    9491.1938    36.903865   -116.00269   -264.91799    366.77537    317.72629    204.23317    18.019744    23.792174    22.137985           90           90           90 
  374500    277.69269   -4160.2066   -3684.2508   -4160.2066            0    315.88334    18.179432    23.412724    22.330521            0            0            0    9504.5403    1317.4511    380.22222   -750.02334    289.28746    5.9848852    -294.8893    18.179432    23.412724    22.330521           90           90           90 
  375000    283.65311   -4187.9979   -3701.8262   -4187.9979            0    617.64244    18.220528    23.517251      22.0384            0            0            0    9443.3824    219.15861    1874.8362   -241.06744     288.0934   -504.64206    625.05489    18.220528    23.517251      22.0384           90           90           90 
  375500    272.06182   -4217.7953   -3751.4906   -4217.7953            0    374.37632    17.946508    23.723764    22.249567            0            0            0     9472.947    1482.0111    65.789297   -424.67147    286.08706   -51.563285    762.63366    17.946508    23.723764    22.249567           90           90           90 
  376000    273.85915   -4184.4738   -3715.0886   -4184.4738            0   -1116.9941    18.214541    23.612221    22.346105            0            0            0    9610.7418   -604.41304   -550.31552   -2196.2537    -268.4227   -235.72108   -177.47599    18.214541    23.612221    22.346105           90           90           90 
  376500    272.08092    -4177.205   -3710.8676    -4177.205            0   -825.47854    18.559356     23.54115    21.947711            0            0            0    9589.1434   -841.21335   -1700.7228    65.500536   -641.85786    693.59137     708.3847    18.559356     23.54115    21.947711           90           90           90 
  377000    248.80003   -4211.2029   -3784.7681   -4211.2029            0   -439.62222    17.949416    23.634759    22.447095            0            0            0    9522.7337    1459.7841   -1114.5344   -1664.1163   -864.78534    256.40241     237.9459    17.949416    23.634759    22.447095           90           90           90 
  377500    262.83797   -4221.9718   -3771.4766   -4221.9718            0   -482.56259    18.061397    23.623797    22.214321            0            0            0    9478.3791   -701.18368    185.88617   -932.39026   -18.039342   -85.987928     1138.128    18.061397    23.623797    22.214321           90           90           90 
  378000    260.63023   -4193.3035   -3746.5922   -4193.3035            0    -28.03406    18.328887     23.52739    22.028839            0            0            0    9499.5157   -1275.0076    252.47502    938.43044   -592.72207    224.72595    2.8430815    18.328887     23.52739    22.028839           90           90           90 
  378500    253.20679   -4209.6306   -3775.6428   -4209.6306            0    525.99749    18.041606    23.434003    22.340192            0            0            0    9445.1438    2537.0123   -652.32247   -306.69734   -53.458736   -350.31512    245.38001    18.041606    23.434003    22.340192           90           90           90 
  379000     263.3934   -4205.1308   -3753.6836   -4205.1308            0   -406.93811    18.154244    23.684342    22.057729            0            0            0     9484.191   -1182.9645   -693.57507    655.72528    69.306928   -798.58617    420.01073    18.154244    23.684342    22.057729           90           90           90 
  379500    274.95601   -4241.8283   -3770.5631   -4241.8283            0   -93.918361    18.252108    23.462876    22.132329            0            0            0    9478.1021   -1335.6813    1825.0649   -771.13866    501.10764    121.34924    413.71538    18.252108    23.462876    22.132329           90           90           90 
  380000    270.51958   -4243.4698   -3779.8085   -4243.4698            0    379.12867    18.087698    23.358954    22.449309            0            0            0    9485.0514    433.72388     2485.931   -1782.2689   -372.56181    624.76441     975.4103    18.087698    23.358954    22.449309           90           90           90 
  380500    271.65748   -4195.7104   -3730.0988   -4195.7104            0    787.32045    18.110395    23.972075    21.795479            0            0            0    9462.3709   -362.09789   -59.752512    2783.8118    392.85503    -130.4076    365.59728    18.110395    23.972075    21.795479           90           90           90 
  381000    262.62927    -4208.894   -3758.7564    -4208.894            0   -217.00184     18.12876    23.526504    22.265948            0            0            0    9496.5683   -1137.3451   -143.50959    629.84915    1282.4708    113.14318   -677.01461     18.12876    23.526504    22.265948           90           90           90 
  381500     275.0052   -4166.5521   -3695.2026   -4166.5521            0   -882.57204    18.269374    23.356265    22.384088            0            0            0    9551.3874      15.9649   -1542.3286   -1121.3524     747.8783   -87.591673    -110.1842    18.269374    23.356265    22.384088           90           90           90 
  382000    268.02092   -4211.5735   -3752.1949   -4211.5735            0    -917.0162    18.180174    23.824813     22.00091            0            0            0    9529.4573   -1075.9563   -886.07194    -789.0204    858.67835    856.02937   -752.44425    18.180174    23.824813     22.00091           90           90           90 
  382500    273.35641   -4188.7043   -3720.1808   -4188.7043            0    168.91237     18.07296     23.59931    22.268965            0            0            0    9497.9227   -629.51357    728.57702    407.67367    -417.4407    227.89374    923.52929     18.07296     23.59931    22.268965           90           90           90 
  383000    268.97239   -4188.0732   -3727.0637   -4188.0732            0    949.21303    18.225516    23.346344    22.296026            0            0            0    9486.9404    217.75469     1985.289    644.59535     265.1456   -1007.7307    510.75468    18.225516    23.346344    22.296026           90           90           90 
  383500    279.36952   -4171.8254   -3692.9956   -4171.8254            0    503.36389    18.305551    23.692741    21.918295            0            0            0    9506.1546   -892.01182   -37.337257    2439.4408   -486.16908    669.76126   -159.53048    18.305551    23.692741    21.918295           90           90           90 
  384000    269.27109   -4233.1381   -3771.6166   -4233.1381            0   -43.436699    17.923971    23.630133    22.420655            0            0            0    9496.1745    1643.7052   -8.0475227   -1765.9678   -207.64797   -733.09495    801.01285    17.923971    23.630133    22.420655           90           90           90 
  384500    261.31837   -4199.3873   -3751.4965   -4199.3873            0    -90.63681    18.264811    23.674053    22.085676            0            0            0    9549.8926    451.73363   -281.57063   -442.07342    668.24008   -274.51195    122.10033    18.264811    23.674053    22.085676           90           90           90 
  385000     280.0405   -4233.5577   -3753.5778   -4233.5577            0   -585.83427    18.368778    23.559646    22.088282            0            0            0    9558.9671   -1659.0481    352.95319    -451.4079   -560.76934    85.571773    844.82902    18.368778    23.559646    22.088282           90           90           90 
  385500    270.41623   -4207.7241     -3744.24   -4207.7241            0    724.50502    17.954451    23.575783    22.430412            0            0            0    9494.5746    505.24724   -330.06652    1998.3344   -119.44802    500.24532    -148.5907    17.954451    23.575783    22.430412           90           90           90 
  386000    273.42842   -4207.4867   -3738.8397   -4207.4867            0   -129.89512    18.173641    23.720857      22.0747            0            0            0    9516.2782   -999.20456    1322.2726   -712.75338   -1334.4604    596.46056     248.0903    18.173641    23.720857      22.0747           90           90           90 
  386500    269.88522   -4205.0489   -3742.4748   -4205.0489            0   -64.854719    18.399246    23.518153    22.044849            0            0            0    9539.1648   -1600.2593    712.02521    693.66994   -85.471681    803.31296    72.136687    18.399246    23.518153    22.044849           90           90           90 
  387000    259.70731   -4195.9192   -3750.7898   -4195.9192            0   -39.389057    18.075014    23.473681    22.440645            0            0            0    9521.2767    429.16216   -702.28741    154.95808   -314.44148   -948.73739    189.11284    18.075014    23.473681    22.440645           90           90           90 
  387500     278.8008   -4212.3462   -3734.4911   -4212.3462            0   -515.54687    18.169912    23.852311    22.135353            0            0            0    9593.3379   -1861.2818   -389.99367    704.63481   -558.37044     188.9727   -179.80598    18.169912    23.852311    22.135353           90           90           90 
  388000    264.27634   -4229.8196    -3776.859   -4229.8196            0   -734.87958    18.291718    23.562915    22.104731            0            0            0     9527.276   -1938.0643   -902.86056    636.28612   -437.53873    166.39326      545.528    18.291718    23.562915    22.104731           90           90           90 
  388500    252.01929   -4235.2973   -3803.3449   -4235.2973            0    1068.1336    18.146455    23.414793    22.293231            0            0            0    9472.2929    1119.3593    1503.3173    581.72406   -968.54607   -728.51667    914.47636    18.146455    23.414793    22.293231           90           90           90 
  389000    270.31951   -4227.6044    -3764.286   -4227.6044            0    40.363937    18.090112    23.773468     21.97362            0            0            0    9450.0782    404.91629   -1658.7353    1374.9108    566.69793    625.98033   -619.15581    18.090112    23.773468     21.97362           90           90           90 
  389500    275.29712    -4242.961   -3771.1111    -4242.961            0    852.66671    18.134476     23.46934    21.986175            0            0            0    9357.4079    473.82134    1946.2474    137.93138   -24.837093    261.49772    364.24395    18.134476     23.46934    21.986175           90           90           90 
  390000    250.83956   -4233.4422   -3803.5118   -4233.4422            0   -481.73647     18.17885    23.223285    22.488805            0            0            0    9494.1574    -447.1758   -628.11431    -369.9193    710.39109   -129.37525   -510.55451     18.17885    23.223285    22.488805           90           90           90 
  390500    276.96067   -4201.8013   -3727.1002   -4201.8013            0   -1074.8525    18.208297    23.938686    22.049709            0            0            0     9611.087   -2305.2538   -2779.4147    1860.1109    274.43889   -342.47754    19.059276    18.208297    23.938686    22.049709           90           90           90 
  391000    255.03085   -4186.0244   -3748.9102   -4186.0244            0    687.85305    18.093808    23.711739    22.129573            0            0            0    9494.3758    1183.7708    1657.6127   -777.82438   -129.74018    608.51655   -525.11574    18.093808    23.711739    22.129573           90           90           90 
  391500    275.30493   -4194.7598   -3722.8966   -4194.7598            0    952.26775    18.151182    23.464336    22.263535            0            0            0    9482.1602    763.84494    1400.9615    691.99683    447.44215   -126.70972    308.22656    18.151182    23.464336    22.263535           90           90           90 
  392000      255.494    -4255.201    -3817.293    -4255.201            0    126.51217    18.174537    23.595838    22.075763            0            0            0    9467.0455    197.97145   -607.21031    788.77536   -186.98223   -599.49525    336.30844    18.174537    23.595838    22.075763           90           90           90 
  392500    263.79619    -4222.827   -3770.6893    -4222.827            0     374.3419    18.083615    23.634121    22.133029            0            0            0     9459.443    784.75541   -84.427548    422.69785   -60.478891   -342.55056    144.72837    18.083615    23.634121    22.133029           90           90           90 
  393000    262.37457   -4177.0955   -3727.3945   -4177.0955            0    1807.0675    18.186418    23.483643    22.028744            0            0            0    9408.1101    819.52635    1548.4153    3053.2608   -541.80418   -332.57465      825.866    18.186418    23.483643    22.028744           90           90           90 
  393500    272.35887   -4177.8004   -3710.9866   -4177.8004            0    -404.5069    18.173265    23.416105       22.417            0            0            0    9539.4891   -514.29312   -627.19451   -72.033069    -177.9762   -259.00581    347.06305    18.173265    23.416105       22.417           90           90           90 
  394000    261.74973   -4214.9991    -3766.369   -4214.9991            0   -630.26348    18.195071    23.826595    22.151888            0            0            0     9603.433   -1039.9405   -1664.7172    813.86724    98.799721   -498.38573    1051.7242    18.195071    23.826595    22.151888           90           90           90 
  394500    278.57245   -4231.9476    -3754.484   -4231.9476            0   -1054.4114    18.275405    23.580818    22.255398            0            0            0    9590.9414   -422.47498    -622.7859   -2117.9734    125.24407   -491.08257   -896.37703    18.275405    23.580818    22.255398           90           90           90 
  395000    272.00329   -4209.5517   -3743.3474   -4209.5517            0    412.27494    18.205548    23.378788    22.274028            0            0            0    9480.3529    1267.5538     230.2444   -260.97333    -579.8777    659.18494    614.86841    18.205548    23.378788    22.274028           90           90           90 
  395500    259.92166    -4235.609   -3790.1122    -4235.609            0    1028.6461    18.069793    23.675639    21.902323            0            0            0    9370.1181    1985.5008    340.05771    760.37996   -1566.8745   -757.83201    -327.6283    18.069793    23.675639    21.902323           90           90           90 
  396000    267.00293   -4227.5909    -3769.957   -4227.5909            0    287.48877    18.106049    23.607877    22.187443            0            0            0    9483.9199    997.00813   -708.91897    574.37715    485.01407   -323.70606    194.01332    18.106049    23.607877    22.187443           90           90           90 
  396500    267.27829    -4236.857   -3778.7511    -4236.857            0   -431.30486    18.184541    23.566312    22.290431            0            0            0    9552.3985    -1300.072    50.383396   -44.225957    698.56278    59.144201   -313.83106    18.184541    23.566312    22.290431           90           90           90 
  397000    258.08574   -4227.9892   -3785.6391   -4227.9892            0   -674.12307    18.217089    23.647587    22.113246            0            0            0    9526.1697   -968.41426   -942.96345    -110.9915   -14.716258    145.67091    1045.7571    18.217089    23.647587    22.113246           90           90           90 
  397500    262.12334   -4195.4939   -3746.2234   -4195.4939            0    433.71082    18.117489    23.625823     22.15256            0            0            0    9482.1951    1211.4677   -148.34419    238.00896   -344.68469    590.53627     182.8286    18.117489    23.625823     22.15256           90           90           90 
  398000    267.97426   -4212.7283   -3753.4296   -4212.7283            0    719.03413    18.089441    23.486128    22.251832            0            0            0    9453.7119    580.47221    1005.4776    571.15253    732.40881     226.2756   -332.19587    18.089441    23.486128    22.251832           90           90           90 
  398500    277.97007   -4186.4241    -3709.993   -4186.4241            0   -1007.9573    18.357557     23.58206    22.155868            0            0            0    9591.4745   -1856.7438   -1082.0417   -85.086606    84.061899   -389.30915   -617.95835    18.357557     23.58206    22.155868           90           90           90 
  399000    261.35988   -4254.3187   -3806.3568   -4254.3187            0   -20.844293    18.149354    23.664759    22.142087            0            0            0    9510.0288   -1097.1361   -1437.9305    2472.5337    830.76358   -311.56522   -440.33039    18.149354    23.664759    22.142087           90           90           90 
  399500    286.78304   -4268.9498   -3777.4135   -4268.9498            0    -259.5982    17.938528    23.562331    22.326125            0            0            0    9436.6624    529.92688   -655.76281   -652.95865   -361.48289    797.57333      589.813    17.938528    23.562331    22.326125           90           90           90 
  400000     275.4847   -4225.6819   -3753.5105   -4225.6819            0    426.61151     18.37955    23.418826    21.966085            0            0            0    9454.8067      53.4778    765.59675    460.75996    661.54549   -693.95198   -335.92148     18.37955    23.418826    21.966085           90           90           90 
  400500    283.89959   -4218.9918   -3732.3976   -4218.9918            0    534.26019    18.214181     23.52904    22.142829            0            0            0    9489.5795   -1277.1872    1301.5795    1578.3882   -247.93744   -238.21306    1148.3329    18.214181     23.52904    22.142829           90           90           90 
  401000    262.35666   -4206.9386   -3757.2683   -4206.9386            0   -336.45627    17.915009    23.779999    22.362183            0            0            0    9526.7122    722.90519   -1203.1912   -529.08278   -891.15378   -455.32321   -151.79482    17.915009    23.779999    22.362183           90           90           90 
  401500    281.28915   -4217.1513   -3735.0313   -4217.1513            0   -782.04045    18.377218    23.658079    22.057041            0            0            0    9589.7327   -1157.2807    -521.1694   -667.67122  -0.52746392    101.79251    264.22379    18.377218    23.658079    22.057041           90           90           90 
  402000    271.87005   -4198.5319   -3732.5559   -4198.5319            0   -896.24305    18.338503    23.508055    22.231995            0            0            0    9584.2694   -1810.6575   -43.938756    -834.1329   -299.77225   -199.88733     421.5464    18.338503    23.508055    22.231995           90           90           90 
  402500    281.98327   -4225.2018   -3741.8921   -4225.2018            0   -108.57706    18.056197    23.681462    22.309568            0            0            0     9539.507    206.21115     1846.719   -2378.6613    854.49264    300.47286    131.07377    18.056197    23.681462    22.309568           90           90           90 
  403000    266.86889    -4203.265   -3745.8608    -4203.265            0    794.62179     18.17252    23.670092    22.107679            0            0            0    9509.5123    1012.3209   -546.40547    1917.9499   -68.554751   -261.43586   -595.99665     18.17252    23.670092    22.107679           90           90           90 
  403500     257.3553   -4197.4054   -3756.3072   -4197.4054            0   -340.06411     18.26969    23.492775    22.202804            0            0            0    9529.5708   -7.1965389   -1031.6622    18.666404   -1305.4358   -581.80119     1034.932     18.26969    23.492775    22.202804           90           90           90 
  404000    256.58114   -4225.3045   -3785.5332   -4225.3045            0     -1379.39    18.076538     23.73065    22.452371            0            0            0    9631.3486   -543.24753   -1107.1514   -2487.7712   -429.27191   -51.580545   -303.96299    18.076538     23.73065    22.452371           90           90           90 
  404500     264.0675   -4214.1538   -3761.5512   -4214.1538            0   -588.56757    18.058917    23.899867    22.186703            0            0            0    9575.9078    170.66412    -554.6828    -1381.684   -365.74989    321.85793    867.22361    18.058917    23.899867    22.186703           90           90           90 
  405000    265.35738   -4202.4598   -3747.6464   -4202.4598            0   -274.31354    18.435173    23.374055    22.083823            0            0            0    9516.0246   -2375.0512    202.85304    1349.2575    1031.3481    294.12974    629.61238    18.435173    23.374055    22.083823           90           90           90 
  405500    268.92821   -4176.0347   -3715.1009   -4176.0347            0    477.28981    18.124238     23.53156    22.256463            0            0            0     9492.194    1877.3055    682.06387      -1127.5    38.127084   -579.25691   -90.723621    18.124238     23.53156    22.256463           90           90           90 
  406000    272.06872   -4190.6425    -3724.326   -4190.6425            0    407.51792     18.01537    23.740791    22.199252            0            0            0    9494.6007    979.98664    369.65022    -127.0831    234.90708   -53.159239   -557.96377     18.01537    23.740791    22.199252           90           90           90 
  406500    285.29861   -4209.1468   -3720.1548   -4209.1468            0   -1321.7431    18.327539    23.587579    22.212464            0            0            0    9602.4986   -891.60393   -1772.8015   -1300.8239    448.77394   -728.65281   -780.08017    18.327539    23.587579    22.212464           90           90           90 
  407000    265.50055   -4226.1331   -3771.0742   -4226.1331            0   -1733.5896     18.29323    23.554806     22.40844            0            0            0    9655.6506   -1506.0549   -1715.7413   -1978.9725   -586.16102    1011.0816   -239.14114     18.29323    23.554806     22.40844           90           90           90 
  407500    275.45805   -4205.8233   -3733.6976   -4205.8233            0   -160.17491    18.114083    23.768153    22.197368            0            0            0    9556.8168    237.00261    229.10718   -946.63451   -239.57156    397.43561   -130.27824    18.114083    23.768153    22.197368           90           90           90 
  408000     264.7924   -4203.2446   -3749.3995   -4203.2446            0    1305.9181    18.173778    23.545245    22.090257            0            0            0    9452.5547    195.77061    1961.4192    1760.5645    552.81094   -719.04186    89.192352    18.173778    23.545245    22.090257           90           90           90 
  408500     262.0261   -4201.6429   -3752.5391   -4201.6429            0    898.27504    18.287205    23.130275    22.297744            0            0            0      9431.68   -512.67048     2277.887    929.60858    138.29506    -168.0128    144.89837    18.287205    23.130275    22.297744           90           90           90 
  409000    273.63993   -4189.0444   -3720.0349   -4189.0444            0   -1039.3461     18.10488    23.911465    22.185724            0            0            0     9604.515     857.7007    -2924.705   -1051.0338     379.2637   -247.34796    530.48024     18.10488    23.911465    22.185724           90           90           90 
  409500     264.1513   -4184.7431   -3731.9969   -4184.7431            0   -1053.6645    18.049009    23.934484    22.230933            0            0            0    9603.6239    149.87918   -2720.4424   -590.43023    285.50309    339.95395   -651.46927    18.049009    23.934484    22.230933           90           90           90 
  410000    272.97728   -4222.6508   -3754.7771   -4222.6508            0    -775.4912    18.297587    23.332843    22.311254            0            0            0     9525.449     -1584.54    764.87422   -1506.8078   -415.75743   -188.95057    -314.5111    18.297587    23.332843    22.311254           90           90           90 
  410500     260.3904   -4216.2713    -3769.971   -4216.2713            0   -564.23398    18.200277    23.675021     22.14766            0            0            0    9543.2479   -288.83254   -1279.4811   -124.38835   -449.43646    404.58785    294.57464    18.200277    23.675021     22.14766           90           90           90 
  411000     290.5075   -4216.2092   -3718.2893   -4216.2092            0    1022.2213    17.939153    23.752561    22.123572            0            0            0    9426.8726    622.70998    71.706455    2372.2474    1055.6951   -475.80372    424.26242    17.939153    23.752561    22.123572           90           90           90 
  411500    267.38784   -4201.9268   -3743.6332   -4201.9268            0    880.21755     18.16608    23.341219    22.245823            0            0            0    9432.6397    1058.0656    607.60265    974.98443   -724.34775    419.70293   -102.22647     18.16608    23.341219    22.245823           90           90           90 
  412000    267.94719   -4194.3042   -3735.0519   -4194.3042            0   -806.01303    18.365554      23.5127    22.064146            0            0            0    9527.8225   -599.01372   -1994.5746     175.5492    255.26279   -58.068605   -503.32995    18.365554      23.5127    22.064146           90           90           90 
  412500     266.9504   -4178.5457   -3721.0018   -4178.5457            0   -879.06245    17.988141    23.858129    22.244311            0            0            0    9546.4438   -42.573994   -1524.2762   -1070.3372    108.81709    250.30699    281.44615    17.988141    23.858129    22.244311           90           90           90 
  413000    270.59123   -4255.1133   -3791.3292   -4255.1133            0    765.26517    18.074449    23.509197    22.269947            0            0            0    9462.8517    1285.0183    1467.8604   -457.08317   -436.03845   -66.263066    270.47012    18.074449    23.509197    22.269947           90           90           90 
  413500    260.44937   -4212.3563    -3765.955   -4212.3563            0    891.36236     18.32826    23.452865    22.106013            0            0            0    9502.2739   -553.10777    1879.4044    1347.7904    728.97866   -313.12097    -27.04324     18.32826    23.452865    22.106013           90           90           90 
  414000    274.49383   -4247.7238   -3777.2508   -4247.7238            0    1137.1116    18.021513    23.563147     22.17599            0            0            0    9416.8912    1110.6852    336.11275    1964.5368    699.93498   -603.24471     441.7572    18.021513    23.563147     22.17599           90           90           90 
  414500    270.22768   -4241.5215   -3778.3605   -4241.5215            0    1235.6724    18.039118    23.625541    22.181537            0            0            0    9453.4143    577.50301    1670.4487    1459.0656    678.28034   -383.81672    505.23316    18.039118    23.625541    22.181537           90           90           90 
  415000    264.42933   -4213.9062   -3760.6834   -4213.9062            0   -272.04492    18.274972    23.579984    22.205239            0            0            0    9568.7606    515.69154   -1146.1543   -185.67201   -283.08355   -525.32532   -1009.6483    18.274972    23.579984    22.205239           90           90           90 
  415500    272.72904    -4210.111   -3742.6628    -4210.111            0    57.660628     18.19857    23.582941    22.198195            0            0            0    9526.9281   -291.59204    768.34373   -303.76981   -5.8828217    685.73342   -36.532091     18.19857    23.582941    22.198195           90           90           90 
  416000     277.1193   -4215.0866   -3740.1136   -4215.0866            0    558.64139    18.011684    23.677652    22.306163            0            0            0    9513.0076    1258.3023    376.16993    41.451902   -953.64304   -1061.5557    964.65278    18.011684    23.677652    22.306163           90           90           90 
  416500    286.54866   -4230.7788   -3739.6442   -4230.7788            0    1516.9663     18.15459    23.577531    21.969406            0            0            0    9403.7938     925.3389    2893.9411    731.61894    458.09429   -56.989943    -276.3359     18.15459    23.577531    21.969406           90           90           90 
  417000    263.13151    -4201.346   -3750.3476    -4201.346            0    1182.0249    18.295361    23.347513    22.126806            0            0            0    9451.4914    1146.1036    2774.6784   -374.70718    -337.5352    262.06518   -119.89406    18.295361    23.347513    22.126806           90           90           90 
  417500    271.31796    -4180.681   -3715.6513    -4180.681            0    -667.2828    17.995216    23.646926    22.446506            0            0            0    9551.6962   -153.83058   -843.43075   -1004.5871    102.82131   -298.63923   -76.977983    17.995216    23.646926    22.446506           90           90           90 
  418000    261.49461   -4211.3461   -3763.1533   -4211.3461            0   -36.566745    18.119129    23.790896    22.065275            0            0            0    9511.6849    -338.4535   -383.58662    612.33989    -989.2479    404.26719   -648.99097    18.119129    23.790896    22.065275           90           90           90 
  418500     277.6636   -4193.7961   -3717.8902   -4193.7961            0    779.22385    18.364656    23.292717    22.081764            0            0            0    9445.7558    -128.0288    2032.2504    433.44993   -419.63444   -387.36139   -141.28292    18.364656    23.292717    22.081764           90           90           90 
  419000    267.11093   -4194.7351   -3736.9161   -4194.7351            0   -310.72574    18.049963    23.608807    22.384495            0            0            0    9538.8861    1488.8249   -50.223796   -2370.7783    489.35954   -624.53302    -7.049099    18.049963    23.608807    22.384495           90           90           90 
  419500    290.86965   -4222.4078   -3723.8671   -4222.4078            0    88.708477    17.983952    23.920491    22.218527            0            0            0     9558.076    1449.2123     295.6786   -1478.7655    724.08549    651.38802    358.96464    17.983952    23.920491    22.218527           90           90           90 
  420000    267.59346   -4211.8388   -3753.1928   -4211.8388            0    474.32464    18.499634    23.364185    22.013531            0            0            0    9514.8834    -1262.667    441.35124    2244.2897   -450.11937   -838.22948    406.34519    18.499634    23.364185    22.013531           90           90           90 
  420500    279.20533   -4205.8298   -3727.2814   -4205.8298            0   -256.69968     18.29081    23.319313    22.382063            0            0            0    9546.6012   -638.45919    472.75491   -604.39476   -429.10809    158.13165   -68.392734     18.29081    23.319313    22.382063           90           90           90 
  421000    279.44769   -4163.1522   -3684.1885   -4163.1522            0    372.71563    17.886412    23.872472    22.287823            0            0            0    9516.7414    924.55998    536.65858   -343.07167    1416.7638    -781.3056    331.62532    17.886412    23.872472    22.287823           90           90           90 
  421500    278.16547   -4213.1163   -3736.3502   -4213.1163            0   -442.58295    18.307408    23.596537    22.122184            0            0            0    9556.5939   -259.83838   -519.63481   -548.27566   -104.72159    53.831354    -536.3927    18.307408    23.596537    22.122184           90           90           90 
  422000    270.33876   -4201.7706   -3738.4192   -4201.7706            0   -1532.2914    18.263716    23.509267    22.326565            0            0            0    9586.2811   -928.60792   -2271.2363   -1397.0301   -248.53987   -565.06877    475.05192    18.263716    23.509267    22.326565           90           90           90 
  422500    254.66205   -4209.1458   -3772.6638   -4209.1458            0   -1573.5133    18.102055    23.715461    22.309242            0            0            0    9577.3263   -985.34826   -1748.6164   -1986.5752    13.788479   -444.14126   -522.22338    18.102055    23.715461    22.309242           90           90           90 
  423000    274.84886   -4195.0661   -3723.9846   -4195.0661            0   -527.91743    18.202194    23.697411    22.134079            0            0            0    9547.4211   -1132.3005   -793.58233    342.13051   -1203.6154   -205.67048   -223.48782    18.202194    23.697411    22.134079           90           90           90 
  423500    262.32581   -4192.2588   -3742.6413   -4192.2588            0    167.45467    18.325186    23.303171    22.310156            0            0            0    9527.2166   -141.50777    1164.1334   -520.26158   -896.83994   -1308.1271    216.34462    18.325186    23.303171    22.310156           90           90           90 
  424000    256.00179   -4216.9763    -3778.198   -4216.9763            0   -839.47124    18.042972    23.733831    22.275167            0            0            0    9538.8696   -300.77195   -1415.9645   -801.67726    608.18068    573.83521   -100.54596    18.042972    23.733831    22.275167           90           90           90 
  424500     269.1546   -4179.3762   -3718.0544   -4179.3762            0   -463.30076    18.037227    23.888798    22.150911            0            0            0    9544.5544    74.534044   -1115.4945   -348.94182   -356.11528   -34.516135   -185.29498    18.037227    23.888798    22.150911           90           90           90 
  425000    291.62093   -4198.6963    -3698.868   -4198.6963            0   -238.40686    18.366468    23.235491    22.271555            0            0            0    9504.4726    -1665.056    165.69492    784.14044   -501.16333    337.87566   -662.66161    18.366468    23.235491    22.271555           90           90           90 
  425500    260.85005   -4200.3474   -3753.2593   -4200.3474            0    -119.0921    18.223594    23.608814    22.150483            0            0            0    9529.9669   -921.35154    -536.1806    1100.2559    560.18722   -454.51432   -152.07598    18.223594    23.608814    22.150483           90           90           90 
  426000    277.25025   -4231.4943   -3756.2968   -4231.4943            0    685.70757     18.01446    23.849434    22.128724            0            0            0    9507.2668   -221.79372    261.33057    2017.5859    363.49731   -455.81835   -149.25313     18.01446    23.849434    22.128724           90           90           90 
  426500    272.90041   -4217.0528   -3749.3108   -4217.0528            0    282.50336    18.258078    23.395214    22.249694            0            0            0    9503.9938   -863.68081    2469.5108   -758.31989    1329.5143   -861.17015    1014.4007    18.258078    23.395214    22.249694           90           90           90 
  427000    274.70665    -4232.447   -3761.6092    -4232.447            0   -871.04995    18.335271    23.478201    22.089943            0            0            0    9509.2608   -2362.6074   -1574.7115     1324.169   -212.25184    -81.74186     -23.3289    18.335271    23.478201    22.089943           90           90           90 
  427500     268.7827   -4181.2283   -3720.5439   -4181.2283            0   -707.41949    17.998496    23.981266    22.252693            0            0            0    9604.8568    307.28001    -2358.125   -71.413512    695.41559    376.18399    373.13608    17.998496    23.981266    22.252693           90           90           90 
  428000    271.17114   -4204.5973   -3739.8193   -4204.5973            0    -852.2772    18.215204    23.441979    22.351433            0            0            0    9544.0716    316.54878   -579.14495   -2294.2354    338.50251   -70.038546    49.247761    18.215204    23.441979    22.351433           90           90           90 
  428500    283.08755   -4197.3553   -3712.1529   -4197.3553            0    867.81161    18.421369    23.394678    21.936282            0            0            0    9453.7036   -1929.6448    2313.2577    2219.8219    82.008099     74.37246    639.78516    18.421369    23.394678    21.936282           90           90           90 
  429000    260.93576   -4199.0342   -3751.7993   -4199.0342            0    892.69043    17.982363    23.658613    22.257684            0            0            0    9469.2593    270.10666    850.94078    1557.0238    269.76075   -59.713035     526.3765    17.982363    23.658613    22.257684           90           90           90 
  429500      270.841    -4210.499   -3746.2868    -4210.499            0   -335.83992    18.080072    23.637216    22.286648            0            0            0    9524.4787   -470.40998   -304.13406   -232.97572    486.95829    90.854969   -675.17546    18.080072    23.637216    22.286648           90           90           90 
  430000    265.08358   -4232.8281   -3778.4839   -4232.8281            0    28.427063    18.359704    23.476901    22.009545            0            0            0    9486.7513   -1691.9992     1506.056    271.22443    113.88837     -98.4733    386.61733    18.359704    23.476901    22.009545           90           90           90 
  430500    262.21588   -4211.5121   -3762.0831   -4211.5121            0    1306.6559    18.084385    23.635916    22.214514            0            0            0    9495.3939    2115.5629     390.0722    1414.3325   -554.72102    196.57288    96.794621    18.084385    23.635916    22.214514           90           90           90 
  431000    274.35609   -4191.2304   -3720.9934   -4191.2304            0    -399.2402    18.098132    23.641954    22.340313            0            0            0    9558.8658    728.01842   -500.32465   -1425.4144   -436.12181    436.09476    346.77891    18.098132    23.641954    22.340313           90           90           90 
  431500    273.14824   -4209.8483   -3741.6815   -4209.8483            0   -533.27455    18.452292    23.490144    21.990027            0            0            0    9531.5112   -2411.2228   -183.64551    995.04462     465.0462   -232.94306    36.460687    18.452292    23.490144    21.990027           90           90           90 
  432000    271.73589   -4212.6847   -3746.9387   -4212.6847            0    720.59535    18.002403    23.594012    22.328625            0            0            0    9484.0591    1506.3736   -518.73562     1174.148    1538.2452   -572.34029    587.75044    18.002403    23.594012    22.328625           90           90           90 
  432500    273.26503   -4221.4562   -3753.0892   -4221.4562            0    1775.7535    17.762406    23.755287     22.27149            0            0            0    9397.4786     3480.151    827.77396    1019.3355    6.2330193   -276.81318    170.73237    17.762406    23.755287     22.27149           90           90           90 
  433000     274.1336   -4214.0708   -3744.2152   -4214.0708            0   -619.28149    18.414509    23.549243     22.00245            0            0            0    9541.3128   -1817.2455   -199.18012    158.58116   -8.6208955    45.231451    189.06367    18.414509    23.549243     22.00245           90           90           90 
  433500    271.57025   -4224.9943   -3759.5322   -4224.9943            0   -820.08185    18.205273    23.565958    22.334612            0            0            0    9582.1001   -449.66016   -1016.0033   -994.58213   -828.11692   -501.23244   -543.34629    18.205273    23.565958    22.334612           90           90           90 
  434000    267.06814   -4193.4293   -3735.6837   -4193.4293            0   -518.60735    17.993581    23.733149    22.308866            0            0            0    9526.8753    576.45801   -1459.1038   -673.17623   -397.31671    422.44075   -699.36458    17.993581    23.733149    22.308866           90           90           90 
  434500     274.0293   -4184.5701   -3714.8933   -4184.5701            0    570.88872    18.298113    23.617687      22.0528            0            0            0    9530.3183    982.86832    108.98538    620.81246    17.109999    148.12279    823.04405    18.298113    23.617687      22.0528           90           90           90 
  435000    265.67038   -4212.7267   -3757.3768   -4212.7267            0    391.08541    18.203041    23.365823    22.357977            0            0            0    9509.4968    114.81179    1391.6401   -333.19564    349.98497   -136.15041   -18.983259    18.203041    23.365823    22.357977           90           90           90 
  435500    259.17794   -4255.1517   -3810.9296   -4255.1517            0   -401.60312    17.949857    23.820793    22.195861            0            0            0    9490.5025    378.67954   -1818.6204    235.13149     155.5156   -10.107173   -554.68062    17.949857    23.820793    22.195861           90           90           90 
  436000    262.52649     -4230.73   -3780.7686     -4230.73            0    62.878538    18.294486    23.611517    22.020058            0            0            0    9511.7964    73.460519    597.75977   -482.58468    458.21672   -68.188989    149.55024    18.294486    23.611517    22.020058           90           90           90 
  436500     261.3332   -4185.3624   -3737.4462   -4185.3624            0   -717.64722    18.348397    23.155997    22.440873            0            0            0    9534.5757   -1546.8786    -228.7903   -377.27277    1083.9766   -263.35981    65.905836    18.348397    23.155997    22.440873           90           90           90 
  437000    278.06925   -4219.2863   -3742.6851   -4219.2863            0    184.96315    18.005261    23.804317    22.191789            0            0            0    9511.4657    1808.0663    225.17486   -1478.3517   -12.400723    382.17945     373.3593    18.005261    23.804317    22.191789           90           90           90 
  437500    277.89569   -4216.3026   -3739.9989   -4216.3026            0    555.29713    18.133498     23.76648    22.087416            0            0            0     9519.001   -9.2139386    95.171672    1579.9337   -25.372864   -427.33909   -659.06041    18.133498     23.76648    22.087416           90           90           90 
  438000    274.05357    -4242.451   -3772.7325    -4242.451            0    985.15004    18.215411    23.344093    22.242541            0            0            0     9458.023    1240.7077    1914.5888   -199.84639   -317.38747   -496.09014    258.63755    18.215411    23.344093    22.242541           90           90           90 
  438500    288.19846   -4224.5402   -3730.5779   -4224.5402            0    1273.8685    18.132741    23.591359    22.106839            0            0            0    9456.7756    1415.8845    693.07138    1712.6497    999.87759    432.34659    680.96805    18.132741    23.591359    22.106839           90           90           90 
  439000    282.76473   -4192.2375   -3707.5884   -4192.2375            0    1044.8577    18.124845    23.585075    22.184642            0            0            0    9483.3984    1782.1676    242.43179    1109.9738    434.22756   -519.24257    1145.8909    18.124845    23.585075    22.184642           90           90           90 
  439500     271.3573   -4199.6737   -3734.5766   -4199.6737            0    74.863161    18.154451    23.480792    22.192975            0            0            0    9460.4411   -883.37689    653.31603    454.65035   -699.06476    176.34838   -462.78991    18.154451    23.480792    22.192975           90           90           90 
  440000    265.79194    -4207.847   -3752.2887    -4207.847            0   -351.43645    18.191163    23.640109    22.190255            0            0            0    9542.7214   -1655.9143    1086.3093   -484.70436    818.30492   -495.79756    618.60128    18.191163    23.640109    22.190255           90           90           90 
  440500    254.10441   -4239.4246   -3803.8983   -4239.4246            0   -826.03443    18.149136    23.635259    22.278276            0            0            0    9556.4784   -1483.1844   -690.28462   -304.63431   -425.20233    108.98129    367.28347    18.149136    23.635259    22.278276           90           90           90 
  441000    249.22448   -4229.9094   -3802.7472   -4229.9094            0   -722.86079     18.25795    23.402819    22.329774            0            0            0    9541.2332   -1100.7668   -150.32843   -917.48717   -883.08647     459.5496    357.11084     18.25795    23.402819    22.329774           90           90           90 
  441500    258.89799   -4246.9938   -3803.2515   -4246.9938            0    53.705376    18.182169    23.706648    21.932478            0            0            0    9453.7376    227.51887   -515.36133    448.95858    312.96585    565.22625    328.73982    18.182169    23.706648    21.932478           90           90           90 
  442000    264.60752   -4201.5859   -3748.0577   -4201.5859            0    1103.6421    17.952409    23.680248    22.219168            0            0            0    9445.7571     1959.217   -362.70487    1714.4142    404.42844    279.19491    513.93385    17.952409    23.680248    22.219168           90           90           90 
  442500    270.89635   -4221.8677   -3757.5606   -4221.8677            0    975.10745    18.134992    23.256913    22.326484            0            0            0     9416.506    1501.8356    1854.4767   -430.98993    -348.8093    369.55715    97.643707    18.134992    23.256913    22.326484           90           90           90 
  443000    283.84925   -4226.6227   -3740.1148   -4226.6227            0   -244.77987    18.313895     23.58251    22.034062            0            0            0    9516.2385   -1530.9712    93.151217    703.48043   -858.47495    904.50432   -350.27583    18.313895     23.58251    22.034062           90           90           90 
  443500    280.20358   -4217.3795   -3737.1201   -4217.3795            0   -1156.1296    18.129831     23.82551    22.308611            0            0            0    9636.2596     -1384.13   -2372.5862     288.3275    889.60219   -460.68027     3.741315    18.129831     23.82551    22.308611           90           90           90 
  444000    268.23204   -4238.4453   -3778.7047   -4238.4453            0   -355.57698    18.167217     23.59084    22.226499            0            0            0    9525.8312    403.39274    706.57282   -2176.6965    1222.3295    241.27488    133.05495    18.167217     23.59084    22.226499           90           90           90 
  444500    248.89875   -4230.5315   -3803.9275   -4230.5315            0   -2.7967726    18.250204    23.500243    22.196498            0            0            0     9519.728   -270.82248    197.66228    64.769884   -491.24765   -247.56235    286.26055    18.250204    23.500243    22.196498           90           90           90 
  445000    262.78508   -4216.9842   -3766.5796   -4216.9842            0   -927.97783    18.109693    23.702838    22.295153            0            0            0    9570.2195    555.52896   -805.48852   -2533.9739    -38.00226    549.09817    21.242644    18.109693    23.702838    22.295153           90           90           90 
  445500    277.33007   -4196.8443   -3721.5101   -4196.8443            0     304.2228    18.169239    23.596725    22.115702            0            0            0    9481.7655   -791.94374    828.22851    876.38362   -360.11037    -112.1412    278.80095    18.169239    23.596725    22.115702           90           90           90 
  446000    272.33134   -4197.9418   -3731.1752   -4197.9418            0    1281.7888    18.197781    23.320656    22.281587            0            0            0    9455.9531     1851.161    428.90094    1565.3043   -51.218966   -481.27329    336.15858    18.197781    23.320656    22.281587           90           90           90 
  446500    278.76661   -4216.6039   -3738.8075   -4216.6039            0    627.95389    18.076731    23.738645    22.134131            0            0            0     9498.134    658.54641   -1822.3345    3047.6498   -1092.9847    80.180989   -246.65964    18.076731    23.738645    22.134131           90           90           90 
  447000     262.8137   -4169.1136   -3718.6599   -4169.1136            0   -242.85229    18.095745    23.844671    22.146031            0            0            0    9555.7268   -198.65075   -1345.3308    815.42464   -701.59001   -568.80577   -100.69591    18.095745    23.844671    22.146031           90           90           90 
  447500    265.08134   -4171.6948   -3717.3545   -4171.6948            0    734.52024    18.322468    23.253567    22.414052            0            0            0    9549.7921    -1589.066    2443.7575    1348.8692    326.04378     594.3322    187.23077    18.322468    23.253567    22.414052           90           90           90 
  448000    266.44324   -4208.3251   -3751.6505   -4208.3251            0   -604.48148    18.277882    23.732216    22.104105            0            0            0    9588.2004   -1140.8703   -428.55629   -244.01785    1143.5671   -78.422059   -547.19796    18.277882    23.732216    22.104105           90           90           90 
  448500    262.92556   -4228.8734   -3778.2279   -4228.8734            0    272.51889    17.980876     23.88849    22.138209            0            0            0    9509.1574    1443.6515   -1307.7884    681.69354    40.886918   -975.22724    748.04509    17.980876     23.88849    22.138209           90           90           90 
  449000    277.88911   -4239.7244    -3763.432   -4239.7244            0    120.65376    18.209164    23.362508    22.364928            0            0            0    9514.3029    215.48376    1098.8738   -952.39634    88.112659    622.02295   -97.135357    18.209164    23.362508    22.364928           90           90           90 
  449500    272.73009   -4200.7391    -3733.289   -4200.7391            0     110.1947    18.377222    23.535146    22.013056            0            0            0    9520.8799   -22.378173    214.36776    138.59451     464.6104    63.281641    233.85429    18.377222    23.535146    22.013056           90           90           90 
  450000    261.53942   -4219.9517    -3771.682   -4219.9517            0    654.68409     17.99695    23.736582    22.237101            0            0            0    9499.3797    1352.3179    1097.4858   -485.75142   -1666.2598    133.09309    240.40387     17.99695    23.736582    22.237101           90           90           90 
  450500    276.09302   -4231.1849   -3757.9709   -4231.1849            0    778.25085    18.025236    23.539737    22.296574            0            0            0     9460.644     1674.506   -472.22643     1132.473   -671.36405   -600.15221    -81.75763    18.025236    23.539737    22.296574           90           90           90 
  451000    272.70678   -4234.3126   -3766.9025   -4234.3126            0     432.3475    18.382559    23.454074    21.944295            0            0            0    9461.1924    618.63796   -175.82226    854.22681    573.16173    167.69106    254.65889    18.382559    23.454074    21.944295           90           90           90 
  451500    271.45456   -4208.5816   -3743.3177   -4208.5816            0    44.714671    18.116167     23.70171    22.232737            0            0            0    9546.3843   -269.94735   -666.77822    1070.8696    369.11738     350.2769    762.05115    18.116167     23.70171    22.232737           90           90           90 
  452000    275.92122   -4216.7407   -3743.8211   -4216.7407            0   -576.10898    17.974293    23.696867    22.398132            0            0            0    9540.1355    456.30649   -1476.4524     -708.181   -400.02876   -106.88705    -320.7345    17.974293    23.696867    22.398132           90           90           90 
  452500    263.25716   -4196.5142   -3745.3005   -4196.5142            0   -372.79446    18.394544    23.464983    22.049246            0            0            0    9517.0642   -1390.2564    523.23158   -251.35852     325.6437   -140.54954    438.53819    18.394544    23.464983    22.049246           90           90           90 
  453000    263.90287    -4223.792   -3771.4715    -4223.792            0    107.75233    18.148384    23.535356    22.228718            0            0            0    9494.5229    1436.0033   -198.11158   -914.63473   -281.72257   -29.566864   -323.79316    18.148384    23.535356    22.228718           90           90           90 
  453500    266.65338   -4187.5349   -3730.5001   -4187.5349            0    99.771423    17.724803    23.834866    22.321364            0            0            0     9430.069    887.68829    313.05346   -901.42748   -897.53735   -363.39202   -18.446994    17.724803    23.834866    22.321364           90           90           90 
  454000    288.97871   -4173.4838   -3678.1842   -4173.4838            0   -588.29218    18.521407    23.526055    21.884358            0            0            0    9535.7946   -3465.0699   -1396.2267    3096.4201   -26.504591    22.587921    290.55124    18.521407    23.526055    21.884358           90           90           90 
  454500    261.10509   -4184.1781   -3736.6529   -4184.1781            0   -1349.5301     18.38848    23.417525    22.253484            0            0            0    9582.6328   -1261.3286   -1268.4292   -1518.8325    37.294239    428.50068     487.3697     18.38848    23.417525    22.253484           90           90           90 
  455000    277.66208   -4223.0113    -3747.108   -4223.0113            0    574.72618    17.990906    23.697753    22.197856            0            0            0     9463.924    1535.1556    1184.8915   -995.86862    1073.5995    155.47385    334.65648    17.990906    23.697753    22.197856           90           90           90 
  455500     254.7371   -4222.6551   -3786.0445   -4222.6551            0   -174.75552    18.222217    23.592335    22.077239            0            0            0    9491.1076   -175.08536    460.07858   -809.25977   -312.15859   -979.63988    514.33488    18.222217    23.592335    22.077239           90           90           90 
  456000     270.9643     -4225.13   -3760.7064     -4225.13            0   -232.27994    18.260398    23.492091    22.240701            0            0            0    9540.7033   -978.08723    1112.6262   -831.37881   -196.69667    202.25245    517.69814    18.260398    23.492091    22.240701           90           90           90 
  456500    273.32035   -4233.0085   -3764.5468   -4233.0085            0   -907.74975    18.123465    23.787134    22.169502            0            0            0    9557.3899    200.45118   -2262.8067   -660.89376   -150.85108   -187.27335    531.74762    18.123465    23.787134    22.169502           90           90           90 
  457000    274.14887   -4241.5136   -3771.6319   -4241.5136            0    194.15384    18.079579    23.769851    22.141199            0            0            0    9515.1562   -1000.5272      951.127    631.86168   -758.34396    -994.1872   -887.12336    18.079579    23.769851    22.141199           90           90           90 
  457500    267.47407   -4200.9757   -3742.5344   -4200.9757            0    960.24141    18.318081    23.093492    22.394322            0            0            0    9473.4356    1090.1684    491.80238    1298.7534     586.3575    -555.4848    398.98705    18.318081    23.093492    22.394322           90           90           90 
  458000    277.42457    -4230.208   -3754.7117    -4230.208            0    1076.4935    18.201481    23.738112    21.975866            0            0            0    9495.0857    2181.6388    529.88611     517.9556   -433.71717    502.00618    228.28386    18.201481    23.738112    21.975866           90           90           90 
  458500     268.7953   -4210.1521   -3749.4461   -4210.1521            0   -162.96079    18.017571    23.798294    22.165878            0            0            0    9504.4505    258.26292   -1346.0348    598.88952    255.39103    223.52762    182.15465    18.017571    23.798294    22.165878           90           90           90 
  459000    275.16861   -4225.2434   -3753.6138   -4225.2434            0    267.90585    18.224295    23.385277    22.331403            0            0            0    9517.2014    497.04443    435.40551   -128.73238    1345.9742   -760.41862    203.92901    18.224295    23.385277    22.331403           90           90           90 
  459500    259.09162   -4258.7592    -3814.685   -4258.7592            0   -397.27379     18.29612    23.638209     22.00674            0            0            0    9517.6404   -1390.0905    248.73025   -50.461091    1093.9957   -404.43254    201.09817     18.29612    23.638209     22.00674           90           90           90 
  460000    272.77028   -4174.7055   -3707.1865   -4174.7055            0    722.93302    17.931012    23.740197     22.18054            0            0            0    9441.9399    1744.5588   -576.84855    1001.0889   -1264.0433   -915.41013    417.45928    17.931012    23.740197     22.18054           90           90           90 
  460500    276.15955   -4212.1866   -3738.8586   -4212.1866            0    650.30266    18.183037    23.360832    22.291637            0            0            0     9468.838    -146.4408    1188.0668      909.282   -330.08806    187.29173   -525.86699    18.183037    23.360832    22.291637           90           90           90 
  461000    268.50916     -4198.29   -3738.0745     -4198.29            0   -237.74538    18.380556    23.555939    22.078238            0            0            0    9559.2424    -453.7976   -613.76307    354.32451   -868.72068   -452.62244   -111.30541    18.380556    23.555939    22.078238           90           90           90 
  461500    267.63601   -4202.9898   -3744.2708   -4202.9898            0    -913.6936    17.975403    23.912476    22.254312            0            0            0    9565.7133   -541.45364   -1337.7595   -861.86769   -329.01176    1139.3908    441.52554    17.975403    23.912476    22.254312           90           90           90 
  462000    273.79198   -4186.0497   -3716.7796   -4186.0497            0   -1009.1478    18.126466     23.60391    22.404438            0            0            0    9585.8615   -947.45613    490.76862   -2570.7559   -173.48951   -147.67889    50.492068    18.126466     23.60391    22.404438           90           90           90 
  462500    286.26556   -4199.0842   -3708.4348   -4199.0842            0    264.38084    18.382295    23.306505    22.120614            0            0            0    9477.0696   -903.12314     1621.571    74.694609    725.76293   -191.02248     547.7296    18.382295    23.306505    22.120614           90           90           90 
  463000    277.78649   -4226.2433   -3750.1267   -4226.2433            0   -321.87944    18.075749    23.638517    22.156849            0            0            0    9467.2648   -994.98797   -872.70582    902.05546   -136.95234    6.0819428   -434.26867    18.075749    23.638517    22.156849           90           90           90 
  463500     281.5713   -4204.6228   -3722.0193   -4204.6228            0   -226.67291    18.016781    23.748796    22.235735            0            0            0    9514.1565   -712.21681   -437.59854    469.79663   -76.311298    327.86862     519.2281    18.016781    23.748796    22.235735           90           90           90 
  464000    282.73891   -4214.2518    -3729.647   -4214.2518            0    52.203287    18.297692    23.386236    22.195612            0            0            0    9497.8161     -158.837    495.48163   -180.03478    365.26044   -250.41862     46.20024    18.297692    23.386236    22.195612           90           90           90 
  464500    258.17519   -4243.9044   -3801.4009   -4243.9044            0    1515.8031     18.08383    23.533042    22.104982            0            0            0    9407.1625    2144.7213    1594.6524    808.03562   -863.89773    1252.5095   -88.188676     18.08383    23.533042    22.104982           90           90           90 
  465000    268.76036    -4223.447   -3762.8009    -4223.447            0    2132.1077    17.864071    23.596318    22.108339            0            0            0    9319.2461    2667.7997    2003.1865    1725.3369    834.93433    410.65745      5.19385    17.864071    23.596318    22.108339           90           90           90 
  465500    272.01575   -4223.7624   -3757.5367   -4223.7624            0   -335.43621    18.229873     23.39877    22.203223            0            0            0    9470.9315    62.070644   -547.55181   -520.82747    172.99949   -751.54177    160.61607    18.229873     23.39877    22.203223           90           90           90 
  466000    263.18366   -4202.3983   -3751.3105   -4202.3983            0   -520.28943    18.317934    23.577422    22.232832            0            0            0    9602.1302    -337.0278   -732.78683   -491.05367   -882.55629   -106.93289    686.83465    18.317934    23.577422    22.232832           90           90           90 
  466500    270.14212   -4232.1859   -3769.1716   -4232.1859            0    -1029.386    18.106378    23.714345    22.266123            0            0            0    9560.6479   -370.73682    -1110.544   -1606.8773    649.29952    421.13012    1025.7829    18.106378    23.714345    22.266123           90           90           90 
  467000      271.448   -4207.3833   -3742.1308   -4207.3833            0    498.16456    18.148227    23.533891    22.242665            0            0            0    9499.8068    72.938857    954.20811    467.34672    313.19399   -38.864743    364.82755    18.148227    23.533891    22.242665           90           90           90 
  467500    281.93788   -4236.8401   -3753.6082   -4236.8401            0    1258.1467     18.21306    23.516123    22.130223            0            0            0     9478.387    428.99855    1719.2434    1626.1981   -1213.5258   -146.91771    1301.7848     18.21306    23.516123    22.130223           90           90           90 
  468000    259.84607   -4214.6099   -3769.2426   -4214.6099            0    688.20352    18.070688    23.653037    22.225385            0            0            0    9499.7217    791.61182     2226.629   -953.63022    372.86157   -107.43457   -38.565491    18.070688    23.653037    22.225385           90           90           90 
  468500    277.06688    -4239.315   -3764.4318    -4239.315            0   -1925.6001    18.046503    23.678106    22.581503            0            0            0    9649.2342    138.44541   -1722.9679   -4192.2779    100.81992    324.38537    89.126999    18.046503    23.678106    22.581503           90           90           90 
  469000    280.27394    -4212.647    -3732.267    -4212.647            0   -1217.6039    18.457973    23.579359    22.044534            0            0            0    9594.3802   -1766.6339   -710.31649   -1175.8612    659.67144   -722.54673    261.99582    18.457973    23.579359    22.044534           90           90           90 
  469500    268.71096   -4207.6131   -3747.0517   -4207.6131            0    794.90636    18.109715    23.490681    22.243266            0            0            0    9462.4978    675.98706    1720.6854   -11.953409   -715.82076    495.08105   -231.32736    18.109715    23.490681    22.243266           90           90           90 
  470000     278.2627    -4212.381   -3735.4482    -4212.381            0    1081.1783    17.997878    23.606923    22.171026            0            0            0    9419.9039    1221.2588   -574.71695    2596.9931   -1029.9112    629.56648    200.64023    17.997878    23.606923    22.171026           90           90           90 
  470500    288.57431   -4260.1069   -3765.5004   -4260.1069            0    868.17891    18.213755    23.459389    22.043545            0            0            0    9418.8443    2307.4689    762.33756   -465.26974    1285.4749    579.45883    892.04003    18.213755    23.459389    22.043545           90           90           90 
  471000    278.07741   -4169.2454   -3692.6302   -4169.2454            0   -496.07692    18.244682    23.555785    22.268104            0            0            0    9570.1145   -1566.2315    186.62481   -108.62402   -297.54216    266.03193    355.64974    18.244682    23.555785    22.268104           90           90           90 
  471500     274.5986   -4186.2264   -3715.5738   -4186.2264            0   -470.93872    18.096051    23.774567    22.306733            0            0            0    9596.9312   -455.68172   -1177.1874    220.05292   -320.26679   -221.49403    -104.2286    18.096051    23.774567    22.306733           90           90           90 
  472000    294.54119   -4200.4416   -3695.6081   -4200.4416            0    1155.7403    18.240259    23.506843    22.078615            0            0            0    9466.6675    1758.9528    105.62896    1602.6391   -313.44311    248.23086    548.29343    18.240259    23.506843    22.078615           90           90           90 
  472500    274.33136    -4195.773   -3725.5784    -4195.773            0     679.7649    18.222171    23.341845    22.293954            0            0            0      9482.49    744.51224   -226.41013    1521.1926   -159.21978   -503.51029      592.236    18.222171    23.341845    22.293954           90           90           90 
  473000       263.05   -4193.6179   -3742.7592   -4193.6179            0     1219.796     17.93411     23.84115    22.082802            0            0            0    9441.9395     1582.131   -851.14325    2928.4002    836.18084   -172.46363   -165.96555     17.93411     23.84115    22.082802           90           90           90 
  473500     273.8484   -4218.9519   -3749.5851   -4218.9519            0    1296.6669    18.210156    23.670655     21.85457            0            0            0    9420.3319   -108.08529    1142.4182    2855.6677   -1181.6375   -429.98376    823.06279    18.210156    23.670655     21.85457           90           90           90 
  474000    268.41445   -4226.9118   -3766.8586   -4226.9118            0    511.16118    18.303367    23.053301    22.382383            0            0            0    9444.3143    530.48167    2206.7121   -1203.7103   -373.43759    512.50045    92.981055    18.303367    23.053301    22.382383           90           90           90 
  474500    274.65217   -4207.8345     -3737.09   -4207.8345            0   -140.21365    18.140099    23.787324    22.185579            0            0            0    9573.1749    495.99652   -844.07977   -72.557705   -256.09281    342.46146   -313.24152    18.140099    23.787324    22.185579           90           90           90 
  475000    281.90525   -4218.9385   -3735.7625   -4218.9385            0   -396.89169    18.103199     23.71064    22.225163            0            0            0    9539.8941    624.13676    -408.9473   -1405.8645   -4.9058979   -230.60069    341.56449    18.103199     23.71064    22.225163           90           90           90 
  475500    255.75179   -4230.4008    -3792.051   -4230.4008            0   -616.85795    18.253553    23.393687    22.291976            0            0            0     9519.073    740.85042   -1340.3016   -1251.1227     777.5203    493.78602    140.37203    18.253553    23.393687    22.291976           90           90           90 
  476000    279.60744   -4207.9806    -3728.743   -4207.9806            0    526.26137     18.16592    23.715996    22.070991            0            0            0    9508.6881    1501.0811   -758.14536    835.84843    708.96581   -834.58532    -163.7473     18.16592    23.715996    22.070991           90           90           90 
  476500    260.40202   -4228.9815   -3782.6613   -4228.9815            0    1136.4915    17.993483    23.832895    22.036095            0            0            0     9449.888    1628.4408   -379.39258    2160.4261   -108.11035   -297.95076    256.67824    17.993483    23.832895    22.036095           90           90           90 
  477000    271.33113    -4186.833   -3721.7807    -4186.833            0   -206.06414    18.284543    23.256803    22.463305            0            0            0    9552.2961    950.84492   -301.57747   -1267.4599   -517.81562   -287.80604    125.21596    18.284543    23.256803    22.463305           90           90           90 
  477500    279.23261   -4203.7604   -3725.1653   -4203.7604            0   -1415.2184    18.327203    23.746261    22.169268            0            0            0    9648.1221   -2550.2065   -1938.4559    243.00742   -362.17919    272.49468   -267.42334    18.327203    23.746261    22.169268           90           90           90 
  478000    271.47821   -4211.3669   -3746.0625   -4211.3669            0    83.089266    18.056109    23.753287    22.112119            0            0            0    9483.7097    673.02761   -225.32142   -198.43839     702.9457   -812.95944    14.486905    18.056109    23.753287    22.112119           90           90           90 
  478500    261.15718   -4184.8485    -3737.234   -4184.8485            0   -221.90307    18.191146    23.441489    22.361947            0            0            0    9535.7503   -904.99487    1434.5167   -1195.2311   -549.48921   -36.019752   -495.10252    18.191146    23.441489    22.361947           90           90           90 
  479000    267.95467   -4210.8811    -3751.616   -4210.8811            0   -358.01193    18.247935    23.681297    22.098262            0            0            0    9549.4273   -818.98423   -1444.9352    1189.8837   -667.63235    100.53058   -339.45172    18.247935    23.681297    22.098262           90           90           90 
  479500    243.99899   -4243.6228   -3825.4169   -4243.6228            0   -259.88981    17.962097    23.848531    22.146869            0            0            0     9487.046    1550.3945   -1228.5333   -1101.5307   -923.82837     143.8339   -229.89619    17.962097    23.848531    22.146869           90           90           90 
  480000    263.49758   -4211.2531   -3759.6272   -4211.2531            0    485.32398    18.186987    23.354497    22.384052            0            0            0    9507.5799    631.18412    831.09597   -6.3081569   -575.69996   -484.67062    1057.4152    18.186987    23.354497    22.384052           90           90           90 
  480500    277.27551   -4199.6679   -3724.4272   -4199.6679            0   -183.96854    18.405265    23.470475    21.978035            0            0            0    9494.0783   -1248.4411    596.42255    100.11294   -591.02217   -139.71968     273.4421    18.405265    23.470475    21.978035           90           90           90 
  481000    255.84211   -4224.5561   -3786.0515   -4224.5561            0    1171.0783    17.995463     23.76734    22.120463            0            0            0    9461.0167    382.53603    839.79126    2290.9076   -177.69363   -141.74553    41.989219    17.995463     23.76734    22.120463           90           90           90 
  481500    264.85868   -4234.0804   -3780.1216   -4234.0804            0   -657.72754    18.130004    23.550017    22.352327            0            0            0    9543.5924   -471.36784   -1172.3989   -329.41586    845.18637    14.421685   -266.20674    18.130004    23.550017    22.352327           90           90           90 
  482000     250.6892   -4218.3802   -3788.7075   -4218.3802            0    545.88788    18.357883    23.445145    21.987565            0            0            0    9463.5189   -520.03247     1122.141    1035.5551    142.17482    30.019869    33.842593    18.357883    23.445145    21.987565           90           90           90 
  482500    276.36118   -4201.5819   -3727.9083   -4201.5819            0    535.76752    17.941436    23.771357    22.144112            0            0            0    9444.2928    604.63052    460.43027    542.24179    211.11754    341.50256   -948.04455    17.941436    23.771357    22.144112           90           90           90 
  483000    250.28874   -4199.6632   -3770.6768   -4199.6632            0         1944    17.926638    23.487564    22.250821            0            0            0    9368.7759    2653.8274    2497.7947      680.378   -243.29472     8.372839   -655.91949    17.926638    23.487564    22.250821           90           90           90 
  483500    277.05997   -4211.6071   -3736.7358   -4211.6071            0   -489.46909    18.372178    23.508361    22.137416            0            0            0    9561.1452   -1538.1549    152.84852   -83.100875   -214.83452   -341.21974    786.91744    18.372178    23.508361    22.137416           90           90           90 
  484000    265.04518   -4212.7567   -3758.4783   -4212.7567            0    49.514566    18.147501    23.579366    22.220439            0            0            0    9508.2715    683.66901   -887.90641     352.7811   -1397.4808   -189.99513   -843.08958    18.147501    23.579366    22.220439           90           90           90 
  484500    279.92366   -4215.1931   -3735.4136   -4215.1931            0    1178.9737    18.039497    23.594575    22.192307            0            0            0    9445.8064    1524.2042    66.886172    1945.8306    -672.9907   -165.33732    204.98064    18.039497    23.594575    22.192307           90           90           90 
  485000    280.82816   -4212.7652   -3731.4354   -4212.7652            0    843.26065    18.131108    23.562773     22.02561            0            0            0    9409.7628   -909.65457    1648.6607    1790.7758   -181.46787    140.07845    70.032999    18.131108    23.562773     22.02561           90           90           90 
  485500    269.97728   -4183.9307   -3721.1989   -4183.9307            0    708.57397    18.167963    23.345905    22.246838            0            0            0    9435.9411    608.00645    1882.7075   -364.99208   -354.80782     250.3359    547.88155    18.167963    23.345905    22.246838           90           90           90 
  486000     276.2168   -4226.3287   -3752.9025   -4226.3287            0   -1319.5578    18.124104    23.705215    22.268839            0            0            0    9567.4898   -501.45774   -2197.6454   -1259.5703   -557.05243   -97.787953    182.74954    18.124104    23.705215    22.268839           90           90           90 
  486500    263.19045   -4218.4871   -3767.3876   -4218.4871            0   -922.73523    18.194489    23.894653    22.109804            0            0            0    9612.2595   -665.36239   -2554.6232    451.77994    713.90295    226.65642   -386.59376    18.194489    23.894653    22.109804           90           90           90 
  487000    273.36495   -4184.4406   -3715.9024   -4184.4406            0    750.25809    18.212299    23.353983    22.300652            0            0            0    9485.1301   -115.31324    2143.1967    222.89083   -1762.5217   -457.94294    567.11305    18.212299    23.353983    22.300652           90           90           90 
  487500    260.64255   -4200.1525   -3753.4201   -4200.1525            0    1302.3931    18.157244    23.458672    22.093785            0            0            0    9410.7337    1437.7425    2004.7615     464.6754   -4.9387188   -75.519247   -358.63071    18.157244    23.458672    22.093785           90           90           90 
  488000    281.95682   -4208.9357   -3725.6714   -4208.9357            0    3.0633172    17.999896    23.777472    22.195405            0            0            0    9499.4563    447.95563   -242.94307   -195.82261    423.26741    172.10852   -684.97276    17.999896    23.777472    22.195405           90           90           90 
  488500    281.24927   -4211.8052   -3729.7536   -4211.8052            0   -828.05807    18.224148    23.520387    22.294686            0            0            0    9556.3723   -748.21292   -909.42487   -826.53642   -723.65656   -434.97087    578.47432    18.224148    23.520387    22.294686           90           90           90 
  489000    264.70887   -4231.9256   -3778.2237   -4231.9256            0    -1220.506    18.324816    23.526309     22.10229            0            0            0    9528.6353   -463.01552   -2133.0458   -1065.4568    15.348654    260.81941   -620.35583    18.324816    23.526309     22.10229           90           90           90 
  489500    270.86714   -4195.9069   -3731.6498   -4195.9069            0    1151.1247    17.921802    23.885071    22.065354            0            0            0    9445.3731    1780.1999    134.25363    1538.9206   -40.593669   -512.38254   -1075.0495    17.921802    23.885071    22.065354           90           90           90 
  490000    261.49182   -4180.9124   -3732.7244   -4180.9124            0    1434.1531    17.996688    23.575783    22.256338            0            0            0    9443.0527    2297.1543   -204.57528    2209.8803    -340.2596    179.52119    488.43773    17.996688    23.575783    22.256338           90           90           90 
  490500     253.7241   -4187.3457   -3752.4713   -4187.3457            0   -930.20458    18.480576    23.271881    22.200144            0            0            0    9547.7883   -1774.4797   -800.80196   -215.33206   -426.25585    -542.7377   -403.96091    18.480576    23.271881    22.200144           90           90           90 
  491000    273.67574   -4205.4811   -3736.4103   -4205.4811            0   -163.65453    18.030261     23.75172     22.25877            0            0            0     9532.312    1514.6446    -1188.965   -816.64317   -794.15756   -597.13369   -540.67771    18.030261     23.75172     22.25877           90           90           90 
  491500    269.76491   -4202.3029    -3739.935   -4202.3029            0    364.22243     18.08768    23.692553    22.240252            0            0            0    9530.9115   -346.77957    201.20585     1238.241   -137.08712   -316.96489   -129.68411     18.08768    23.692553    22.240252           90           90           90 
  492000    265.64438   -4182.8901   -3727.5848   -4182.8901            0    1296.1438    18.257387    23.350289    22.145559            0            0            0    9440.9901    685.85864    2609.6207    592.95218   -506.60673   -396.19186    377.06476    18.257387    23.350289    22.145559           90           90           90 
  492500    257.65488   -4215.0868   -3773.4751   -4215.0868            0   -321.95189    18.108184    23.633917    22.107631            0            0            0    9461.3438   -692.91153    188.11349   -461.05762     885.4569   -22.599779    56.906267    18.108184    23.633917    22.107631           90           90           90 
  493000    263.52592   -4208.4807   -3756.8063   -4208.4807            0   -313.51095    17.926475    23.726687    22.216113            0            0            0    9449.3093    618.84319    157.30275   -1716.6788    730.97648    32.748875   -400.78836    17.926475    23.726687    22.216113           90           90           90 
  493500    262.58996   -4205.7941   -3755.7239   -4205.7941            0   -779.93691    18.361433    23.351701    22.201141            0            0            0    9519.1989   -639.30566   -1605.2075     -95.2976   -83.808385    663.13375   -548.74071    18.361433    23.351701    22.201141           90           90           90 
  494000    275.59184   -4213.8494   -3741.4945   -4213.8494            0   -396.88229    18.283521    23.520524    22.203878            0            0            0    9548.5109   -1286.3016    1099.2574   -1003.6026   -326.02381   -164.58006     239.8793    18.283521    23.520524    22.203878           90           90           90 
  494500    269.54708   -4183.6378   -3721.6433   -4183.6378            0     26.15983    17.979637    23.921264     22.19904            0            0            0    9547.7103   -294.52219   -1213.0447    1586.0463    -437.1581    -249.5452    134.05728    17.979637    23.921264     22.19904           90           90           90 
  495000    275.85723   -4220.1972   -3747.3873   -4220.1972            0    340.23236    18.156488    23.564702    22.168131            0            0            0    9484.6843    478.37844    273.77483    268.54381   -814.13507    -334.9311    36.257334    18.156488    23.564702    22.168131           90           90           90 
  495500    249.57573   -4216.7966   -3789.0323   -4216.7966            0    249.26911    18.206869    23.444145    22.141286            0            0            0    9450.8854    154.87932   -7.8270797    600.75507     139.6924    153.20583    412.87869    18.206869    23.444145    22.141286           90           90           90 
  496000    275.91219    -4202.371    -3729.467    -4202.371            0   -12.852863     18.07871    23.759831    22.145962            0            0            0    9512.7337   -762.19831   -283.60995    1007.2497    216.52929    67.826384    48.105123     18.07871    23.759831    22.145962           90           90           90 
  496500    276.29503   -4201.8596   -3728.2994   -4201.8596            0   -289.76055     18.16069     23.60221    22.228189            0            0            0    9527.7222      182.904    997.46384   -2049.6495    876.17408   -579.41733    399.48479     18.16069     23.60221    22.228189           90           90           90 
  497000    256.49193   -4195.8891   -3756.2707   -4195.8891            0    449.36484    18.209246    23.176767     22.36071            0            0            0    9436.9224    -1211.079    331.13105    2228.0425   -774.41103    428.27687   -738.55055    18.209246    23.176767     22.36071           90           90           90 
  497500    256.71071   -4208.3129   -3768.3196   -4208.3129            0    1706.6422    18.025984    23.852937    21.905343            0            0            0    9418.6982    1520.4296    1701.8517    1897.6455   -22.759415   -1022.7594    275.53389    18.025984    23.852937    21.905343           90           90           90 
  498000    260.08737   -4201.1898   -3755.4089   -4201.1898            0    1054.4292    18.014209    23.693791    22.113942            0            0            0    9438.7812    3250.1601   -674.00356    587.13112    35.618967    236.05353   -324.31617    18.014209    23.693791    22.113942           90           90           90 
  498500    274.92319   -4199.7483   -3728.5393   -4199.7483            0   -1468.9095    18.306599    23.219549    22.316595            0            0            0    9486.1371   -2131.3697   -1008.5691   -1266.7898   -267.20123    196.31942    63.163292    18.306599    23.219549    22.316595           90           90           90 
  499000    264.62602   -4204.1586   -3750.5986   -4204.1586            0   -217.13493    18.191328    23.671519    22.094863            0            0            0    9514.4096   -1215.4622   -94.118499     658.1759    281.81912    195.33497    402.82875    18.191328    23.671519    22.094863           90           90           90 
  499500    271.54066   -4202.8316   -3737.4202   -4202.8316            0    93.369514    18.057031    23.780139    22.171512            0            0            0    9520.4187    753.53115   -581.65778    108.23517   -919.32209    339.11792    102.60028    18.057031    23.780139    22.171512           90           90           90 
  500000    258.23773    -4208.519   -3765.9083    -4208.519            0    920.33161     18.17289    23.448501    22.153195            0            0            0    9440.0751    357.43675    1371.2133    1032.3448    139.78224   -38.974692    548.01902     18.17289    23.448501    22.153195           90           90           90 
Loop time of 2878.14 on 42 procs for 500000 steps with 864 atoms

Performance: 15.010 ns/day, 1.599 hours/ns, 173.723 timesteps/s
96.1% CPU use with 42 MPI tasks x 1 OpenMP threads

MPI task timing breakdown:
Section |  min time  |  avg time  |  max time  |%varavg| %total
---------------------------------------------------------------
Pair    | 46.361     | 63.488     | 91.352     | 121.3 |  2.21
Bond    | 0.57402    | 0.60832    | 0.70121    |   5.3 |  0.02
Kspace  | 1439.7     | 1468.2     | 1488.2     |  32.2 | 51.01
Neigh   | 8.6568     | 9.1426     | 9.4833     |   5.6 |  0.32
Comm    | 355.74     | 389.54     | 422.11     |  75.0 | 13.53
Output  | 31.383     | 31.461     | 31.668     |   1.3 |  1.09
Modify  | 785.31     | 802.76     | 824.79     |  28.9 | 27.89
Other   |            | 113        |            |       |  3.93

Nlocal:        20.5714 ave          24 max          14 min
Histogram: 1 1 0 1 5 7 3 9 4 11
Nghost:        2042.64 ave        2125 max        1961 min
Histogram: 8 4 2 4 0 5 7 0 6 6
Neighs:        4913.36 ave        6476 max        3177 min
Histogram: 1 1 4 5 7 10 6 4 3 1

Total # of neighbors = 206361
Ave neighs/atom = 238.84375
Ave special neighs/atom = 2.0000000
Neighbor list builds = 7367
Dangerous builds = 0


write_restart   restart.equil
System init for write_restart ...
PPPM initialization ...
  extracting TIP4P info from pair style
  using 12-bit tables for long-range coulomb (../kspace.cpp:340)
  G vector (1/distance) = 0.37125196
  grid = 24 27 25
  stencil order = 5
  estimated absolute RMS force accuracy = 0.0032077991
  estimated relative force accuracy = 9.6601917e-06
  using double precision FFTW3
  3d grid and FFT values/proc = 4032 480
Last active /omp style is kspace_style pppm/tip4p/omp
write_data   	water.equil.data nocoeff
System init for write_data ...
PPPM initialization ...
  extracting TIP4P info from pair style
  using 12-bit tables for long-range coulomb (../kspace.cpp:340)
  G vector (1/distance) = 0.37125196
  grid = 24 27 25
  stencil order = 5
  estimated absolute RMS force accuracy = 0.0032077991
  estimated relative force accuracy = 9.6601917e-06
  using double precision FFTW3
  3d grid and FFT values/proc = 4032 480
Last active /omp style is kspace_style pppm/tip4p/omp
Total wall time: 0:47:59
