#include		in.partitions
include		in.temp
variable        temperature equal 257.00
variable	tempDamp equal 100.0
include		in.pressure
variable        pressure equal 1122.7
variable        pressureDamp equal 1000.0 # This is 1 ps
include		in.seed
variable        seed equal 745823

units		real
atom_style	full
read_restart	restart.lmp.${pid}
read_restart	restart.lmp.1
Reading restart file ...
  restart file = 30 Jul 2021, LAMMPS = 30 Jul 2021
  restoring atom style full from restart
  orthogonal box = (0.090031587 1.1975766 0.10983833) to (18.117541 22.431601 22.103357)
  2 by 4 by 4 MPI processor grid
  restoring pair style lj/cut/tip4p/long/omp from restart
  restoring bond style harmonic/omp from restart
  restoring angle style harmonic/omp from restart
  864 atoms
  576 bonds
  288 angles
Finding 1-2 1-3 1-4 neighbors ...
  special bond factors lj:    0        0        0       
  special bond factors coul:  0        0        0       
     2 = max # of 1-2 neighbors
     1 = max # of 1-3 neighbors
     1 = max # of 1-4 neighbors
     2 = max # of special neighbors
  special bonds CPU = 0.002 seconds
  read_restart CPU = 0.006 seconds
include 	in.setup
variable	out_freq equal 1000
variable	out_freq2 equal 10000
variable	out_freq3 equal 1000

timestep	2.0

neigh_modify    delay 7 every 1

include		in.tip4p
# This is TIP4P/Ice

# create groups ###
group ox type 2
288 atoms in group ox
group hy type 1
576 atoms in group hy

# set charges - beside manually ###
set group ox charge -1.1794
Setting atom values ...
  288 settings made for charge
set group hy charge 0.5897
Setting atom values ...
  576 settings made for charge

# ### TIP3P Potential Parameters ###
pair_style lj/cut/tip4p/long/omp 2 1 1 1 0.1577 8.5
pair_coeff 1 1*2 0.000 0.000
pair_coeff 2 2 0.21084 3.1668
bond_style  harmonic
bond_coeff  1 450 0.9572
angle_style harmonic
angle_coeff 1 55 104.52
kspace_style pppm/tip4p/omp 1.0e-5
pair_modify tail yes

thermo          ${out_freq}
thermo          1000
thermo_style    custom step temp pe etotal epair emol press lx ly lz vol pxx pyy pzz pxy pxz pyz enthalpy

restart 	${out_freq3} restart.lmp.${pid} restart2.lmp.${pid}
restart 	1000 restart.lmp.${pid} restart2.lmp.${pid}
restart 	1000 restart.lmp.1 restart2.lmp.${pid}
restart 	1000 restart.lmp.1 restart2.lmp.1


include         in.dump
dump            myDump all atom ${out_freq2} dump.water.${pid}
dump            myDump all atom 10000 dump.water.${pid}
dump            myDump all atom 10000 dump.water.1
dump            myDump2 all dcd ${out_freq2} dump.dcd
dump            myDump2 all dcd 10000 dump.dcd
dump_modify     myDump append yes
dump_modify     myDump2 append yes


variable natoms 	equal  "count(all)"                        # NUMBER ATOMS
variable H      	equal  "enthalpy/v_natoms"                 # ENTHALPY-per-atom
variable Vol      	equal  "vol/v_natoms"                 # volume-per-atom
fix AVG all 		ave/time ${out_freq} 1 ${out_freq} v_Vol v_H file vol_enthalpy.dat
fix AVG all 		ave/time 1000 1 ${out_freq} v_Vol v_H file vol_enthalpy.dat
fix AVG all 		ave/time 1000 1 1000 v_Vol v_H file vol_enthalpy.dat


timer           timeout 23:50:00 every 1000
New timer settings: style=normal  mode=nosync  timeout=23:50:00

fix 		1 all shake 1e-6 200 0 b 1 a 1
       0 = # of size 2 clusters
       0 = # of size 3 clusters
       0 = # of size 4 clusters
     288 = # of frozen angles
  find clusters CPU = 0.001 seconds
fix             2 all nph iso ${pressure} ${pressure} ${pressureDamp}
fix             2 all nph iso 1122.7 ${pressure} ${pressureDamp}
fix             2 all nph iso 1122.7 1122.7 ${pressureDamp}
fix             2 all nph iso 1122.7 1122.7 1000
fix             3 all temp/csvr ${temperature} ${temperature} ${tempDamp} ${seed}
fix             3 all temp/csvr 257 ${temperature} ${tempDamp} ${seed}
fix             3 all temp/csvr 257 257 ${tempDamp} ${seed}
fix             3 all temp/csvr 257 257 100 ${seed}
fix             3 all temp/csvr 257 257 100 745823

run             250000
PPPM initialization ...
  extracting TIP4P info from pair style
  using 12-bit tables for long-range coulomb (../kspace.cpp:340)
  G vector (1/distance) = 0.37227437
  grid = 24 25 25
  stencil order = 5
  estimated absolute RMS force accuracy = 0.0032152779
  estimated relative force accuracy = 9.6827138e-06
  using double precision FFTW3
  3d grid and FFT values/proc = 4116 672
Last active /omp style is kspace_style pppm/tip4p/omp
Neighbor list info ...
  update every 1 steps, delay 7 steps, check yes
  max neighbors/atom: 2000, page size: 100000
  master list distance cutoff = 10.8154
  ghost atom cutoff = 10.8154
  binsize = 5.4077, bins = 4 4 5
  1 neighbor lists, perpetual/occasional/extra = 1 0 0
  (1) pair lj/cut/tip4p/long/omp, perpetual
      attributes: half, newton on, omp
      pair build: half/bin/newton/omp
      stencil: half/bin/3d
      bin: standard
Per MPI rank memory allocation (min/avg/max) = 10.19 | 10.20 | 10.22 Mbytes
Step Temp PotEng TotEng E_pair E_mol Press Lx Ly Lz Volume Pxx Pyy Pzz Pxy Pxz Pyz Enthalpy 
 2500000    256.95752   -3874.8309   -3434.4145   -3874.8309            0    1001.0141    18.027509    21.234025    21.993519    8419.0438    678.72492    1087.2234    1237.0939    1290.8119     116.2293    90.259162   -3311.5068 
 2501000    265.07591   -3917.9126   -3463.5815   -3917.9126            0    757.76133    18.022415    21.228024    21.987304    8411.9086    1412.3624    415.56243    445.35916     214.8908   -105.24966    568.94459   -3370.6201 
 2502000    258.32032   -3893.2058   -3450.4536   -3893.2058            0    979.46315     17.97142    21.167959     21.92509    8340.7048   -776.87909    1322.4238    2392.8448    338.86451    232.96441    1354.3229   -3331.3111 
 2503000    249.55624   -3876.8446   -3449.1138   -3876.8446            0    2253.8222    17.869418    21.047814    21.800648    8199.4897    2498.1372    1929.9338    2333.3956    -581.0803   -16.762014    506.47451   -3179.5991 
 2504000    240.46201     -3897.56   -3485.4164     -3897.56            0    2695.9309    17.919279    21.106544    21.861479    8268.3189    3989.6074    2644.2408    1453.9447   -744.35614   -543.07208    404.50957   -3160.3277 
 2505000    258.96717    -3875.149   -3431.2881    -3875.149            0    2186.3878    17.970284     21.16662    21.923704     8339.123    2813.1961    566.16313    3179.8043    398.88855    1622.9164    870.02238    -3165.385 
 2506000    271.11208   -3915.8701   -3451.1933   -3915.8701            0    2283.8709    17.899794    21.083593    21.837707    8241.3755    1208.8161    2057.1567      3585.64    266.78279   -132.29597    1115.3314   -3176.6902 
 2507000    262.19887   -3893.1771   -3443.7772   -3893.1771            0    936.36453    17.945067    21.136919     21.89294    8304.0673    1944.0512   -125.54485    990.58729   -1231.1334    778.49619    691.59465   -3330.3775 
 2508000    273.81489   -3911.8998   -3442.5905   -3911.8998            0    1705.7649    17.891708    21.074069    21.827842    8230.2114    2003.9766    778.06726    2335.2509    1316.3474    679.94334    791.69693   -3237.8489 
 2509000    254.42307   -3863.4784    -3427.406   -3863.4784            0    1861.8435    17.959071    21.153413    21.910025    8323.5231    2783.5956    1457.4656    1344.4693    -805.7978    452.51368     533.2194   -3201.3967 
 2510000    265.50079   -3895.1834   -3440.1241   -3895.1834            0   -779.72613     18.12551    21.349457     22.11308    8557.0941   -1226.1199   -1329.3561    216.29762    666.66489   -595.07735    831.52701   -3537.4312 
 2511000      252.762   -3869.2942   -3436.0688   -3869.2942            0    2240.1677    18.008216      21.2113    21.969982    8392.0425    2319.8564     1880.343    2520.3037   -552.45355   -1089.9033    188.99979   -3161.8961 
 2512000    266.49641   -3862.7482   -3405.9825   -3862.7482            0    804.17812    18.066473    21.279918    22.041054    8473.7507    1780.6278    911.10488   -279.19828    420.06582   -320.95536   -177.81268   -3306.6014 
 2513000      255.528   -3856.7055   -3418.7393   -3856.7055            0    909.66806    18.101995    21.321759    22.084391    8523.8324    1239.0233   -376.90226    1866.8832    349.49263    963.98858    586.43479   -3305.6572 
 2514000    251.42249   -3902.8109   -3471.8814   -3902.8109            0    1529.4251    17.951327    21.144293    21.900578     8312.761    1815.0445    1706.8955    1066.3354     1048.708   -115.29296   -299.80313   -3286.4644 
 2515000     249.8695    -3876.597   -3448.3292    -3876.597            0      1992.84    18.041293     21.25026    22.010335    8438.3696    2133.3869    894.51572    2950.6175   -260.45381    390.52721    -982.0784   -3203.0804 
 2516000    251.22451   -3855.1824   -3424.5922   -3855.1824            0    1426.2832    17.884184    21.065206    21.818663    8219.8325    2727.9436    1145.9265    404.97961    1393.3728   -74.850425   -514.40165   -3253.6125 
 2517000    266.04349   -3896.3125   -3440.3231   -3896.3125            0    1509.5237    17.889955    21.072004    21.825703    8227.7926    1560.4014    1352.7917     1615.378    1473.8549    298.48675   -6.0099571   -3259.1894 
 2518000    236.37462   -3887.6734   -3482.5354   -3887.6734            0    1691.4182     17.93535    21.125474    21.881086    8290.5853    2560.1656     2385.332      128.757    811.35668    69.756642    1667.4736   -3278.0265 
 2519000    258.46589   -3873.8532   -3430.8515   -3873.8532            0    1482.9905    17.916976    21.103831    21.858669    8265.1306    164.26705    2563.2199    1721.4846    662.28039    1287.3123   -862.80754   -3252.0941 
 2520000    247.58375    -3873.146   -3448.7959    -3873.146            0    649.55591    17.948986    21.141534    21.897721    8309.5082    512.19906    249.28482    1187.1839    452.28897   -406.10533   -226.21314   -3370.0791 
 2521000    252.27328   -3901.5024   -3469.1147   -3901.5024            0    1478.0195    17.906547    21.091547    21.845945    8250.7062    618.78922    368.57869    3446.6906   -337.72632   -192.72839    177.04771   -3291.2674 
 2522000    257.40948   -3862.7049   -3421.5139   -3862.7049            0    1541.3321    17.761609    20.920829    21.669121    8051.9763    1879.7545    725.16165    2019.0801    101.25496   -413.40391   -116.29011   -3240.5155 
 2523000    243.78438   -3879.6655   -3461.8274   -3879.6655            0    196.55138     17.87672    21.056414    21.809556    8209.5447    60.277658      609.938   -80.561518   -257.80557    254.18418    -641.8612   -3438.2948 
 2524000    265.21014   -3829.2542   -3374.6931   -3829.2542            0    3507.9012    17.866483    21.044357    21.797068    8195.4502    1183.9879    5287.2703    4052.4454    311.59067    308.47514    247.67514   -2955.4209 
 2525000    248.84874   -3850.1447   -3423.6265   -3850.1447            0    217.49738    17.843012    21.016711    21.768433    8163.1932   -100.60799    1059.5508   -306.45063   -503.44673   -1415.2564     867.8539    -3397.733 
 2526000    253.83817     -3852.46   -3417.3901     -3852.46            0    2176.5751    17.812136    20.980344    21.730765      8120.89    2093.1805    1592.2301    2844.3147    154.15753   -417.05191   -319.19074   -3159.6077 
 2527000    256.63584   -3832.2059   -3392.3408   -3832.2059            0    2177.9049    17.832767    21.004644    21.755934    8149.1401    548.18451    4544.8139    1440.7162    529.52911    -190.7709   -756.31333   -3133.5037 
 2528000    251.12099   -3870.1868    -3439.774   -3870.1868            0    33.457647    17.884068     21.06507    21.818521    8219.6725   -967.07541    585.39183    482.05652    435.34548   -481.27727    125.26536   -3435.7632 
 2529000    245.91929   -3877.6005   -3456.1033   -3877.6005            0    1320.7706    17.848477    21.023149    21.775101    8170.6969    1925.2198    1384.9699    652.12206   -279.20684    399.01723   -253.57201   -3298.7186 
 2530000    269.17593   -3879.1753    -3417.817   -3879.1753            0    1479.8442    17.904731    21.089408     21.84373    8248.1958    1245.1818    1252.9714    1941.3793   -14.867961    548.12164     -131.261   -3239.8043 
 2531000    263.15806   -3847.3264   -3396.2824   -3847.3264            0    1660.6378    17.906146    21.091074    21.845456    8250.1516     2685.846    1398.5922    897.47509   -566.72535    420.40225    1336.8932   -3196.4745 
 2532000    270.26046   -3886.8116   -3423.5944   -3886.8116            0    1816.4872    17.928034    21.116855    21.872159    8280.4428    2424.0518    1484.2102    1541.1995    10.977537   -290.56522   -231.94656   -3204.2322 
 2533000    256.82989   -3892.7839   -3452.5863   -3892.7839            0    1355.0199    17.896033    21.079163    21.833119    8236.1819    522.64316    2172.4093    1370.0071   -1707.6199     189.3192   -173.04017   -3289.8263 
 2534000    254.25343   -3910.8507    -3475.069   -3910.8507            0    534.36006    17.854354     21.03007     21.78227    8178.7697    909.48201    1590.5145    -896.9163   -421.38591   -44.207507    1531.7191   -3411.3311 
 2535000    256.08304   -3917.6957   -3478.7781   -3917.6957            0    654.82086    17.940008     21.13096    21.886768    8297.0459   -307.47382    241.90034    2030.0361   -1085.5995    204.23182    99.636674   -3399.5422 
 2536000    262.82702   -3917.7374   -3467.2609   -3917.7374            0    3942.2998    17.804501    20.971351     21.72145    8110.4514     4047.478     3303.313    4476.1083    716.61002    516.98381    375.81968   -3000.9554 
 2537000    260.66886   -3884.2551   -3437.4776   -3884.2551            0    2649.3309    17.754209    20.912113    21.660093    8041.9167    1822.5497    4155.7203    1969.7226    811.57077   -306.84135    -224.1267   -3126.7558 
 2538000     252.5916   -3890.7064   -3457.7731   -3890.7064            0    786.81622    17.950674    21.143523     21.89978     8311.853   -438.53245    1365.9605    1433.0206   -878.76983    1680.0681   -188.03747   -3362.3953 
 2539000     258.4496   -3887.2886   -3444.3148   -3887.2886            0    76.850761    18.015372    21.219728    21.978711    8402.0499    3.7188558   -483.30628     710.1397    74.368525   -15.030598    63.333556   -3434.8979 
 2540000    248.66055   -3898.5551   -3472.3594   -3898.5551            0   -236.04518    18.043326    21.252655    22.012816    8441.2237   -995.83368    -438.5919    726.29003    504.00272    1.8924143   -491.51829   -3501.4182 
 2541000    248.21472   -3886.1735   -3460.7419   -3886.1735            0    1390.1426    17.986526    21.185752     21.94352    8361.7557    1220.4687    1688.6005    1261.3587    773.32476    157.44011   -706.18849   -3291.2173 
 2542000    256.86109   -3910.7555   -3470.5043   -3910.7555            0    717.44019    17.927298    21.115989    21.871261    8279.4234    594.23102   -25.945824    1584.0354    489.24816   -302.54618   -196.84449   -3383.8757 
 2543000    255.06169   -3866.7655   -3429.5985   -3866.7655            0   -451.90577    17.968997    21.165105    21.922135    8337.3326    949.49599   -1344.0123   -961.20099    572.88479    38.752894   -292.67197   -3484.5464 
 2544000    261.37303   -3882.8632   -3434.8788   -3882.8632            0    2082.4485     17.90776    21.092976    21.847426    8252.3838    3772.2365     1586.317    888.79207   -1442.1387   -606.39269     1.114658   -3184.2508 
 2545000    235.95838   -3923.7298   -3519.3052   -3923.7298            0    1750.7608    17.958979    21.153305    21.909912    8323.3947    2127.6561    1406.7955    1717.8309     359.9402   -345.18885   -758.31624   -3306.7835 
 2546000    265.33868   -3906.4305    -3451.649   -3906.4305            0    2034.1062    18.001384    21.203253    21.961647     8382.495   -90.530817    3650.1636    2542.6857    878.60379   -1265.4177    328.22415   -3202.9794 
 2547000    259.52863   -3929.6174   -3484.7942   -3929.6174            0     1554.807    17.997473    21.198646    21.956875    8377.0322    1491.3799    2190.4682    982.57268    1314.5321   -991.29944     336.7469   -3294.8428 
 2548000    252.20328   -3903.1691   -3470.9013   -3903.1691            0    509.14723    17.981061    21.179314    21.936852    8354.1354    435.10655    1487.8146   -395.47949    864.81414    695.96731   -388.58582   -3408.8686 
 2549000    258.09729   -3896.9078   -3454.5379   -3896.9078            0    846.46949      18.0259    21.232129    21.991556    8416.7897    2743.9028   -1177.8465    973.35209   -537.78097    918.44818    259.31086   -3350.6336 
 2550000     254.8727   -3917.1861    -3480.343   -3917.1861            0   -405.47547     17.99977    21.201352    21.959678    8380.2404   -753.53231    457.55093   -920.44503    130.93651   -420.47282   -691.98102   -3529.8991 
 2551000    253.19066    -3871.613   -3437.6529    -3871.613            0    1205.5526     17.95835    21.152565    21.909146    8322.5214    1990.2488    434.87328    1191.5357   -210.22105    377.98761   -907.85733   -3291.3284 
 2552000    262.80561   -3916.8472   -3466.4074   -3916.8472            0    1434.2022    17.983886    21.182642    21.940298    8358.0735    1364.7626    774.96714     2162.877   -232.54703   -1116.0059   -811.55941   -3291.5869 
 2553000    248.85925   -3893.8838   -3467.3476   -3893.8838            0   -1131.3038    18.019434    21.224513    21.983667    8407.7347    86.740002   -1409.0827   -2071.5686    1192.3981    -589.9844   -766.79219    -3606.066 
 2554000    257.25137     -3885.15     -3444.23     -3885.15            0    382.24354    18.040917    21.249817    22.009876    8437.8421    2154.9977   -608.21918   -400.04794    413.53594    346.29391   -1407.8142   -3397.1921 
 2555000    249.18106   -3885.9135   -3458.8257   -3885.9135            0    691.67117      17.9499    21.142611    21.898836    8310.7782    520.50344    1167.5768    386.93324      283.441    258.70683   -270.54191   -3374.9922 
 2556000    264.98148    -3867.465   -3413.2959    -3867.465            0    1774.9634    17.955343    21.149022    21.905476    8318.3404    3572.8881   -1287.0301    3039.0321    756.97148    -52.57795    -1466.474   -3197.9671 
 2557000    254.36755    -3877.376   -3441.3987    -3877.376            0    1749.4685    17.904606    21.089261    21.843578    8248.0241    1428.1154    1100.8101      2719.48    1363.8135     449.4425   -34.873233   -3230.9569 
 2558000    255.03215   -3885.3989   -3448.2825   -3885.3989            0    155.02349    18.079308    21.295037    22.056714    8491.8245    312.93645   -431.79428     583.9283    756.58926   -82.898401    903.11496   -3429.0837 
 2559000    254.38531   -3864.8976   -3428.8899   -3864.8976            0    1444.2547    17.897016     21.08032    21.834317     8237.538    207.19847    1395.2108    2730.3549    -653.9614     1074.324    611.02773   -3255.3829 
 2560000    243.71678   -3893.4778   -3475.7556   -3893.4778            0     370.4467    17.931689    21.121162    21.876619    8285.5094     964.0311    534.33469   -387.02568    1678.0765    842.77633   -580.02498   -3430.9924 
 2561000    249.27964   -3866.3822   -3439.1255   -3866.3822            0   -209.43399    17.930345    21.119578    21.874979    8283.6458   -916.37567    211.80311    76.270591   -191.49528    1644.8432   -397.06716   -3464.4269 
 2562000    256.24668   -3883.6889   -3444.4909   -3883.6889            0     723.7184    18.037995    21.246376    22.006312    8433.7439    832.97943    960.81262    377.36315    349.41377   -374.87089   -16.177274   -3355.4753 
 2563000    266.20094   -3882.6168   -3426.3575   -3882.6168            0    1687.3875    17.947419    21.139689    21.895809    8307.3324    996.69663    1925.7716    2139.6943    323.89215    1095.4703    353.11298   -3221.9239 
 2564000    249.65193    -3894.663   -3466.7681    -3894.663            0    263.70205    17.993807    21.194328    21.952403    8371.9148   -775.32505    1125.6217    440.80951    982.29695   -337.97137   -191.48052   -3434.5712 
 2565000     243.3961   -3911.5887   -3494.4161   -3911.5887            0   -144.99147    17.998762    21.200164    21.958448    8378.8324   -136.89042    210.01244   -508.09642   -29.794422   -543.71411   -965.47659   -3512.1336 
 2566000    263.59676   -3866.1505   -3414.3547   -3866.1505            0    2072.6862    17.942673    21.134099     21.89002    8300.7444    1676.6172     2552.934    1988.5075     507.3916    125.77036   -1687.9402   -3163.4398 
 2567000    240.47168   -3919.2511   -3507.0908   -3919.2511            0    1227.7158    18.051356    21.262113    22.022612    8452.4981    1123.2306    1742.0713    817.84554   -97.637929    381.82895   -982.29397    -3355.749 
 2568000    258.67399   -3909.4182   -3466.0598   -3909.4182            0    1227.2677    17.914551    21.100975    21.855711    8261.7755    1134.6893    1361.0549    1186.0589     501.5872    18.288451   -995.10511   -3318.1869 
 2569000    247.82665   -3936.0844    -3511.318   -3936.0844            0    2408.2867    18.066777    21.280277    22.041426    8474.1796    3142.5551    1295.1515    2787.1535   -619.69829   -193.94932    267.40968   -3213.6845 
 2570000    259.31261   -3908.1078   -3463.6549   -3908.1078            0    348.71729    18.062602    21.275359    22.036332    8468.3059     1469.921   -755.96689    332.19772     555.1788   -693.94002    81.017867   -3420.5877 
 2571000      255.126   -3902.0762    -3464.799   -3902.0762            0    997.37242    17.993414    21.193865    21.951923    8371.3651    2052.9845    890.63105    48.501709    281.55752    769.47452    805.57557    -3343.032 
 2572000    270.40364   -3854.2521   -3390.7895   -3854.2521            0   -682.08336    18.142415    21.369368    22.133703    8581.0582   -668.00043   -1435.0539    56.804214   -498.06659   -788.47791   -1054.2439   -3476.1494 
 2573000    242.41425   -3920.0428   -3504.5531   -3920.0428            0    1922.4668    18.041994    21.251085     22.01119    8439.3534     559.2999    2746.6172    2461.4834   -270.88285    -219.6858   -434.48072   -3267.9372 
 2574000    255.53742   -3905.6977   -3467.7153   -3905.6977            0    337.93106    18.125994    21.350027    22.113671    8557.7795   -353.70035    792.05292     575.4406    -1066.309   -218.08645    45.930684   -3425.5394 
 2575000     254.4477   -3876.1169   -3440.0023   -3876.1169            0    2573.0012    17.955581    21.149302    21.905766     8318.671    2150.2786    1557.0183    4011.7066    59.644532   -1489.7931    1576.4649   -3127.8476 
 2576000    238.74139   -3849.4514   -3440.2568   -3849.4514            0    1736.9129    17.979291     21.17723    21.934693    8351.6686    2058.5154     969.9703    2182.2529   -216.70516   -279.47959    472.56162   -3228.6999 
 2577000    251.30376   -3895.5833   -3464.8572   -3895.5833            0    1623.8017    17.861127    21.038048    21.790533    8188.0814    16.909913    1395.2432    3459.2519   -563.10709   -750.63541   -109.52577   -3270.9513 
 2578000    256.66356   -3838.4237   -3398.5111   -3838.4237            0     792.8541    17.966488    21.162149    21.919073    8333.8394    1750.0141    434.68916    193.85904   -638.28023    985.99488    105.28282   -3302.1473 
 2579000    256.06861   -3904.0413   -3465.1485   -3904.0413            0    1246.0788    18.021883    21.227398    21.986655    8411.1638    2166.9919    415.39271    1155.8519   -1053.2716    1162.4439   -1054.8204   -3312.2942 
 2580000    271.38047   -3865.9437   -3400.8068   -3865.9437            0     87.01889    18.012282    21.216089    21.974942    8397.7275   -140.41433    864.51951    -463.0485    1177.8557   -355.88616   -678.15023   -3390.1494 
 2581000    259.56766   -3918.1268   -3473.2367   -3918.1268            0    2219.3476    17.853428     21.02898    21.781141    8177.4984    1948.9872    2003.5962    2705.4593   -421.35728   -558.01294     542.1363   -3208.5564 
 2582000    264.60369   -3943.1327    -3489.611   -3943.1327            0   -310.06926    17.908905    21.094324    21.848822    8253.9656   -1680.0202    1412.7776   -662.96514    156.48722    315.85314    651.98025   -3526.9358 
 2583000    252.54443   -3925.8695    -3493.017   -3925.8695            0    602.94764    18.019322    21.224382    21.983531     8407.579    583.66602    553.68554    671.49135   -550.18914   -859.73781    718.90739    -3419.086 
 2584000    267.79638   -3884.2557   -3425.2619   -3884.2557            0   -267.63608    18.046199    21.256039    22.016321    8445.2559   -1032.2071   -91.228015    320.52691    957.60062    343.93704    357.82501   -3458.2254 
 2585000    249.00294   -3891.7685    -3464.986   -3891.7685            0    969.53797    17.947317    21.139569    21.895685    8307.1912    613.54988    1059.8638    1235.2003     584.1391    -84.04971    677.18713   -3347.5247 
 2586000    269.26619   -3912.1306   -3450.6175   -3912.1306            0    1621.8588    17.894469    21.077321     21.83121    8234.0221    406.29826    2679.4435    1779.8346    -679.5389   -1207.6275    -899.8746    -3255.857 
 2587000    265.57635   -3932.4504   -3477.2617   -3932.4504            0    663.42462    17.906884    21.091944    21.846356    8251.1716    721.75593   -223.72659    1492.2445    617.15059    252.88456   -1639.7877   -3397.4285 
 2588000    255.04343   -3858.2658   -3421.1301   -3858.2658            0     2554.632     17.87951    21.059702    21.812961    8213.3902    2259.7049     2232.129    3172.0622   -369.45651    1379.8143   -107.47808   -3115.1264 
 2589000    255.41457   -3941.3627   -3503.5909   -3941.3627            0    2542.8584    17.904654    21.089317    21.843636    8248.0895     1447.861    2260.8285    3919.8857    100.01856    -110.0712    265.05307   -3197.7106 
 2590000    255.09068   -3896.1411   -3458.9244   -3896.1411            0    2147.2387     17.96498    21.160373    21.917233    8331.7416    928.32052     3046.805    2466.5905     358.8985   -261.38587    552.96615   -3198.0136 
 2591000    238.33723   -3900.8356   -3492.3337   -3900.8356            0    1233.6856    17.863963    21.041389    21.793993    8191.9824    1799.6877   -474.62617    2375.9953    672.87123   -650.32239     72.21518   -3344.9432 
 2592000    263.70025   -3906.2039   -3454.2307   -3906.2039            0    1344.9821    17.908664    21.094041    21.848529    8253.6334    2393.4428    942.75633     698.7471    565.02337    1149.4066    722.43676   -3292.3341 
 2593000    247.70445   -3896.9765   -3472.4195   -3896.9765            0    1011.5632    18.028653    21.235372    21.994915    8420.6465    593.40669    719.18684    1722.0961    599.07284    332.61143   -655.82863    -3348.193 
 2594000    252.39113   -3910.5211   -3477.9314   -3910.5211            0    1853.3485    17.980889    21.179112    21.936642    8353.8956    2072.3037    1545.6995    1942.0422   -408.20255    250.97975   -749.70819   -3252.1324 
 2595000    262.58589   -3939.8829   -3489.8197   -3939.8829            0    1196.3498    17.911178    21.097002    21.851596    8257.1099    973.72595    1804.5888    810.73457   -213.15583   -279.09727   -915.88287   -3345.7534 
 2596000    267.99884   -3904.5163   -3445.1754   -3904.5163            0   -141.07001    18.026994    21.233417     21.99289    8418.3214    77.025199    395.05593   -895.29116    1241.6859   -623.50193    251.51244   -3462.4949 
 2597000    254.17513   -3889.6173   -3453.9699   -3889.6173            0    811.80775    17.977747    21.175412     21.93281    8349.5182    477.03877   -213.70817    2172.0926    94.833053   -173.20344    784.61737   -3355.1167 
 2598000    252.03818   -3918.8057   -3486.8209   -3918.8057            0    762.85367    18.005944    21.208624     21.96721    8388.8669    902.84743   -491.61448    1877.3281   -947.19605    433.00298    545.65425   -3393.4911 
 2599000    264.24263    -3925.652   -3472.7492    -3925.652            0   -1168.3691    18.039109    21.247687    22.007671    8435.3057   -1099.5047    991.25664   -3396.8592   -106.15242   -1263.5217     129.2901   -3616.4823 
 2600000    262.66266   -3946.0494   -3495.8546   -3946.0494            0    1354.1645    17.966842    21.162566    21.919505    8334.3326    554.76914    2053.2715     1454.453   -235.62379   -357.87455    213.59058   -3331.2591 
 2601000    259.97123   -3947.9269   -3502.3451   -3947.9269            0    1221.8189    17.859947    21.036659    21.789094     8186.459    673.40389    2773.7002    218.35255   -1113.5447   -614.79755   -20.271099   -3356.4708 
 2602000    253.52984   -3908.9817   -3474.4403   -3908.9817            0    1241.6205    17.884703    21.065818    21.819296     8220.549    1091.3815    1610.4197    1023.0603   -583.68792   -802.17513    426.75937   -3325.5845 
 2603000    259.99085    -3936.452   -3490.8365    -3936.452            0   -139.14803    17.949586    21.142242    21.898453    8310.3423   -1634.0148    113.80583    1102.7649   -882.49956   -368.38749   -58.979931    -3507.701 
 2604000    254.67062   -3922.4579   -3485.9612   -3922.4579            0   -94.326263    17.875366     21.05482    21.807904    8207.6797    1691.2756    -626.1582   -1348.0961    -796.0351   -965.15568   -234.88753   -3497.2521 
 2605000    273.19018   -3912.5392   -3444.3006   -3912.5392            0   -138.30323    17.963031    21.158078    21.914856    8329.0302    104.73922   -36.354775   -483.29413     288.4279   -413.06959   -1318.4619   -3461.1003 
 2606000    234.65918   -3905.3876   -3503.1898   -3905.3876            0     986.1471    17.996684    21.197717    21.955913    8375.9311    352.02262    1185.3944    1421.0243    1013.5961   -411.17816    714.14847   -3382.7276 
 2607000     258.5819   -3931.8438   -3488.6433   -3931.8438            0    422.65484     18.00329    21.205497    21.963971    8385.1571    777.17425    944.12656    -453.3363    980.34152   -326.93615    209.79973   -3436.9573 
 2608000     255.7749   -3905.8655   -3467.4761   -3905.8655            0    1876.7188    17.972465     21.16919    21.926366    8342.1608    1742.5784    1989.9845    1897.5933     34.85622   -963.51002   -1407.3858    -3239.151 
 2609000    251.75655   -3900.9531    -3469.451   -3900.9531            0     2592.017    17.887564    21.069187    21.822786    8224.4937    2072.6578    1636.9638    4066.4294   -712.73253    1099.2975    1203.6821   -3158.5494 
 2610000    260.85991   -3896.6087   -3449.5037   -3896.6087            0    1671.9709    17.941145    21.132299    21.888155     8298.623    2866.9864    1679.3283    469.59804   -225.10578   -592.18348   -216.50766   -3247.1503 
 2611000    270.62271   -3908.0087   -3444.1706   -3908.0087            0     634.2453    17.999299    21.200797    21.959103    8379.5825     1975.877   -63.953099   -9.1879837      869.146    763.80607   -685.11541    -3366.661 
 2612000     259.2482   -3895.6795    -3451.337   -3895.6795            0    805.23643    17.984522    21.183391    21.941075    8358.9608    1617.8769   -685.64995    1483.4824    749.68404   -363.42249    309.63774   -3353.1732 
 2613000    252.90025   -3910.9835   -3477.5211   -3910.9835            0    36.906166    17.846471    21.020785    21.772653    8167.9415   -420.76281   -189.67261    721.15392    -1490.862    708.57012    1063.2808   -3473.1248 
 2614000    265.83987   -3891.0327   -3435.3922   -3891.0327            0    1497.9424      17.8769    21.056627    21.809776    8209.7931    1541.5899    2040.1459    912.09131    222.49142    1555.0708   -820.69265   -3256.0415 
 2615000    265.30751   -3884.1513   -3429.4233   -3884.1513            0    714.03395    17.862629    21.039818    21.792366    8190.1482    774.32971    38.815199    1328.9569    2274.3901   -304.92766   -110.74538   -3344.1356 
 2616000    243.34722   -3884.3745   -3467.2857   -3884.3745            0    1492.0688    17.907621    21.092812    21.847256    8252.1911    124.12936    1204.6726    3147.4043   -1491.8321   -1041.7895    281.05214   -3287.7156 
 2617000    241.45582    -3899.785    -3485.938    -3899.785            0    2180.4469    17.857786    21.034113    21.786458    8183.4881    1840.9602     3688.107    1012.2735   -290.11516   -662.04263   -868.76194   -3225.7065 
 2618000     246.8827   -3866.6103   -3443.4618   -3866.6103            0     1118.841    17.823132    20.993295     21.74418    8135.9388     932.8939    167.94646    2255.6826    813.09772   -1171.2037   -527.21871   -3310.7065 
 2619000    255.56203   -3876.7871   -3438.7625   -3876.7871            0    1887.8541    17.898348    21.081889    21.835942    8239.3775    1027.4404    1359.5605    3276.5614    79.115438    115.45735   -468.54659   -3211.9125 
 2620000    247.39984   -3876.1798   -3452.1449   -3876.1798            0    953.23958    17.857815    21.034147    21.786492    8183.5274    -655.3413     3312.241    202.81903    -143.6112    1063.1119    746.00446   -3338.3773 
 2621000    271.51261   -3918.5583    -3453.195   -3918.5583            0    596.26425    17.804057    20.970828    21.720908    8109.8444   -57.165475     1033.483    812.47526   -1333.6468    895.24111   -708.45975   -3382.6726 
 2622000     270.1653   -3880.3864   -3417.3323   -3880.3864            0    1573.4458    17.870939    21.049605    21.802503     8201.583    524.24557    1499.9557    2696.1361    446.74119   -445.98544    15.278115   -3229.1299 
 2623000    247.71784   -3890.7912   -3466.2113   -3890.7912            0    832.66216    17.758716    20.917421    21.665592    8048.0422    668.58745    227.15209    1602.2469    205.49448   -1102.0739    111.69373   -3368.4797 
 2624000    257.20241   -3835.6702   -3394.8341   -3835.6702            0    2051.6784     17.79537    20.960595    21.710309    8097.9787    2424.0972    2363.1334    1367.8046    944.44245   -1338.5432   -252.70189   -3152.5294 
 2625000    274.57574   -3865.8431   -3395.2297   -3865.8431            0    250.05658    17.776214    20.938032    21.686939    8071.8557    741.03955   -1075.5777    1084.7079    423.87806   -1024.9483   -443.09678   -3365.7931 
 2626000      261.086   -3890.0583   -3442.5658   -3890.0583            0     1332.969    17.758025    20.916608    21.664749    8047.1037    1593.2946    1549.6309    855.98146   -363.17151    261.25346   -725.80774   -3286.1302 
 2627000    261.61186   -3884.4605   -3436.0667   -3884.4605            0    2486.1305    17.777505    20.939553    21.688514    8073.6145    3497.7017    2980.1565    980.53338    797.73355    662.41992   -1203.5138   -3143.3363 
 2628000    257.03428   -3907.7153   -3467.1673   -3907.7153            0    299.10018    17.775883    20.937643    21.686536    8071.4054    171.58279    1207.9208   -482.20308    226.24544    754.23487   -217.34175   -3431.9593 
 2629000    273.56832   -3913.7721   -3444.8854   -3913.7721            0    247.83096    17.861689    21.038711    21.791219     8188.855   -428.98413   -430.23443    1602.7115    1232.7889    513.34188    584.22201   -3415.2879 
 2630000    247.06825   -3932.7658   -3509.2993   -3932.7658            0    643.17769    17.863958    21.041383    21.793987    8191.9755   -1.9921532    75.086425    1856.4388    528.55924   -995.74265   -167.08112   -3432.4578 
 2631000    252.86416   -3936.2036   -3502.8031   -3936.2036            0     737.7843    17.811434    20.979516    21.729907    8119.9287    962.14004    671.24001    579.97286   -203.75679   -567.40747    379.05824   -3415.4341 
 2632000    249.36833    -3856.511   -3429.1022    -3856.511            0    1704.1983    17.825572    20.996169    21.747156    8139.2801    939.65638    1416.6731    2756.2655    -50.02863    1185.3767   -347.19764   -3226.8087 
 2633000    243.10579   -3862.0826   -3445.4076   -3862.0826            0    346.53528    17.847296    21.021757     21.77366    8169.0749   -25.233786    206.30626    858.53338    524.97085   -826.23543    18.371827   -3404.1222 
 2634000    253.12601   -3918.9948   -3485.1455   -3918.9948            0    628.78355    17.817186    20.986292    21.736925    8127.7987    1362.1661   -397.83014    922.01474   -151.01295   -447.73572    1212.3878   -3410.6123 
 2635000    242.15152   -3908.6073   -3493.5679   -3908.6073            0   -767.84553    17.874384    21.053664    21.806707     8206.328   -46.872697   -1970.7135   -285.95045    -6.766479   -950.26815    426.20002   -3585.4643 
 2636000    247.55788   -3864.3188    -3440.013   -3864.3188            0    1540.0744    17.732092    20.886062    21.633111    8011.9003    1171.6703    2600.2106    848.34214    10.773149     165.7226    249.60003   -3260.0625 
 2637000    243.24815    -3896.003    -3479.084    -3896.003            0    703.58908    17.822534    20.992591     21.74345    8135.1197    338.59476    307.57708    1464.5954   -554.73875   -149.56548    784.32396   -3395.6085 
 2638000    264.91785   -3895.2283   -3441.1682   -3895.2283            0    91.567974    17.818393    20.987714    21.738398    8129.4511   -432.75074    367.13259    340.32207   -1382.9698   -654.15168    535.23348   -3430.3119 
 2639000    241.18005   -3905.8857   -3492.5113   -3905.8857            0   -541.53926    17.807275    20.974617    21.724833     8114.242   -530.14794   -842.64399   -251.82584   -120.71086    -727.1247   -77.820802   -3556.5959 
 2640000    245.36776   -3866.8785   -3446.3266   -3866.8785            0    544.73727    17.807691    20.975107    21.725341    8114.8106    907.09321    902.92329    -175.8047    172.25968   -185.30029     346.5808    -3381.859 
 2641000    263.04023   -3925.3159   -3474.4739   -3925.3159            0     1900.169    17.796277    20.961664    21.711417     8099.218    3281.0012    1613.3563    806.14954    151.90617   -866.56929   -605.82949   -3250.0283 
 2642000    242.11385   -3861.4552   -3446.4804   -3861.4552            0    1328.9247    17.905145    21.089896    21.844235    8248.7688    2249.3786    1302.7117    434.68385   -468.84868    381.51238     84.30612   -3286.6109 
 2643000    236.30433   -3866.5426    -3461.525   -3866.5426            0   -613.40174    17.973077     21.16991    21.927111    8343.0119   -23.003688   -1017.7993   -799.40221    492.01068    325.36343   -259.65133   -3536.1602 
 2644000    252.98446   -3892.5332   -3458.9264   -3892.5332            0    1087.1409    17.964991    21.160386    21.917246    8331.7564    1029.6221    712.59478    1519.2059   -881.21112   -506.15503    1285.8273   -3326.8278 
 2645000    268.39289    -3868.069   -3408.0528    -3868.069            0    859.50631    17.951855    21.144913    21.901221    8313.4933    1144.0221    2254.0676    -819.5707    -1187.661   -340.59781   -480.60408    -3303.843 
 2646000    253.28925   -3894.5416   -3460.4125   -3894.5416            0    1811.0255    17.937444     21.12794     21.88364    8293.4893    227.72665    1135.3144    4070.0354   -1175.7086    116.94537   -974.30792   -3241.3653 
 2647000     241.9232   -3902.9317   -3488.2837   -3902.9317            0    978.73589    17.991986    21.192182     21.95018     8369.372     917.2023    1606.6178     412.3876    376.02863   -697.63105    500.70886   -3368.8204 
 2648000    252.37164   -3932.7411   -3500.1847   -3932.7411            0    2029.6548    17.959616    21.154055     21.91069     8324.281    1417.5641    3103.4579    1567.9424    465.19234    370.62403   -781.31005   -3253.7824 
 2649000    264.10275   -3889.0476   -3436.3845   -3889.0476            0    978.06752    18.015666    21.220074     21.97907    8402.4615   -237.51286    443.49078    2728.2246   -42.069032    59.599141    -882.5481   -3316.5309 
 2650000    255.31047   -3913.0172   -3475.4238   -3913.0172            0    1424.4581    17.919937    21.107319    21.862281    8269.2292    1020.1874    974.58966    2278.5972    1050.6818   -866.62477   -1254.0235   -3303.6367 
 2651000    259.39625   -3880.3301   -3435.7338   -3880.3301            0     1083.884    17.993132    21.193533    21.951579     8370.972    1539.3446    87.417346    1624.8902    371.79215    449.26342    964.84467   -3303.4111 
 2652000    238.35372   -3901.2452   -3492.7151   -3901.2452            0    1282.6415    17.936158    21.126425    21.882071    8291.7058    1420.8637    738.31474     1688.746    1459.2418   -273.09523   -273.79604   -3337.6104 
 2653000    256.57037   -3879.7887   -3440.0359   -3879.7887            0   -257.19075    18.072645    21.287189    22.048585    8482.4389    202.15713   -418.64419   -555.08519    657.70159   -499.25677    905.98362   -3471.8524 
 2654000    241.58256   -3878.6234   -3464.5592   -3878.6234            0    649.03677    17.915066    21.101581    21.856338    8262.4871   -13.323782    936.02881    1024.4053    165.25345    442.40453    240.97264   -3386.3503 
 2655000    261.39895   -3900.4792   -3452.4503   -3900.4792            0    1754.6412    17.962575    21.157541      21.9143    8328.3964    1402.8016    1603.2739     2257.848   -42.893706    1248.5773    529.56711   -3239.3296 
 2656000    235.76566   -3900.4087   -3496.3144   -3900.4087            0   -90.855972    17.950952     21.14385    21.900119    8312.2392   -430.13318    1226.7957   -1069.2305   -612.88403    185.17996    1658.0371   -3507.3284 
 2657000    249.99106   -3899.4092   -3470.9331   -3899.4092            0    1465.7265    17.927915    21.116716    21.872014    8280.2783    2147.7505    441.42824    1808.0006    1.9747731    451.04554   -211.68743   -3293.9329 
 2658000    262.88388   -3910.5143   -3459.9403   -3910.5143            0    2117.5759    17.958163    21.152344    21.908917    8322.2611    3372.4545    1485.5176    1494.7557    660.57817    1070.4492   -582.65681   -3202.9266 
 2659000     244.8318   -3870.7342   -3451.1008   -3870.7342            0    2178.5309    17.883324    21.064194    21.817614    8218.6473    3745.6866    1423.0519    1366.8544    916.79055   -315.68645   -655.54035   -3189.9809 
 2660000    261.49937    -3851.511   -3403.3101    -3851.511            0    1842.0865    17.938619    21.129324    21.885074     8295.119    2870.8611     2604.277    51.121454    956.60534     1088.683   -42.354944   -3180.4622 
 2661000    242.66111   -3883.2563   -3467.3434   -3883.2563            0   -351.65233    18.009901    21.213284    21.972037    8394.3979    1569.5105    -1189.285   -1435.1825     726.3016   -294.87011    524.79912    -3510.394 
 2662000    251.67565    -3889.219   -3457.8556    -3889.219            0    1031.7144    18.012942    21.216866    21.975747    8398.6508    978.72171    812.79276    1303.6286    -829.4386   -74.260925   -89.143878   -3331.4853 
 2663000    250.17682   -3866.6821   -3437.8876   -3866.6821            0    301.13975    17.939451    21.130304    21.886089    8296.2733    450.50087    8.5610923    444.35728    306.26882    964.38686    982.10433   -3401.4519 
 2664000    259.06969   -3860.8101   -3416.7735   -3860.8101            0    1080.4132       17.905    21.089725    21.844058    8248.5676    1207.7609    2023.4336    10.045153    1549.8664   -382.60168    -503.1954   -3286.8032 
 2665000     256.5729   -3875.4939   -3435.7367   -3875.4939            0    1188.6085    17.888227    21.069969    21.823595    8225.4089    1260.3019    1097.3186     1208.205   -892.09087    14.662075   -316.12258   -3293.1522 
 2666000    273.10445     -3902.23   -3434.1383     -3902.23            0     425.5301    17.920509    21.107992    21.862979    8270.0207     717.5827    526.49054    32.517046   -106.78082    121.21472    899.18381   -3382.8152 
 2667000    252.97925   -3913.5264   -3479.9286   -3913.5264            0    1376.4291    17.867931    21.046063    21.798834    8197.4427    734.39847    2239.1388    1155.7499    477.64586    774.90531    973.03227   -3315.3747 
 2668000    263.74076   -3855.8279   -3403.7853   -3855.8279            0    321.58827      17.9311    21.120468    21.875901    8284.6929    156.43108    539.07542    269.25831    884.94816   -1121.8785    862.36405   -3364.9298 
 2669000    254.86662   -3844.7891   -3407.9564   -3844.7891            0    1048.1841    17.954836    21.148425    21.904858    8317.6364    1136.4616    587.14054    1420.9502    1629.3594   -416.44076   -1171.7398   -3280.8073 
 2670000     268.3659   -3888.0705   -3428.1005   -3888.0705            0    708.01446    17.927036    21.115681    21.870942     8279.061   -418.61471    1398.7438    1143.9143   -1218.1427   -261.01607   -698.78459   -3342.6137 
 2671000    252.31593   -3870.3364   -3437.8755   -3870.3364            0    355.56609    17.808877    20.976504    21.726788     8116.432   -549.64532    1102.3922    513.95141    348.41701   -336.77287    960.94021   -3395.7872 
 2672000    255.56902   -3867.6273   -3429.5908   -3867.6273            0   -119.17195    18.025745    21.231946    21.991366    8416.5716   -434.96003    885.86546   -808.42127    194.53412    1136.2622   -1044.3695   -3444.2188 
 2673000    257.05883   -3903.1442   -3462.5542   -3903.1442            0    2257.2643    17.819849    20.989428    21.740174    8131.4429    2865.3679    1674.0797    2232.3454   -176.19401    1480.3294    1039.2944    -3194.868 
 2674000    233.17502   -3882.5977   -3482.9437   -3882.5977            0    1197.4091    17.891996    21.074408    21.828193    8230.6085     1595.059    1513.6318     483.5366   -801.65605    622.06054    1378.5894   -3339.2127 
 2675000    259.94861   -3910.5278   -3464.9848   -3910.5278            0    1971.9442    17.888126     21.06985    21.823472    8225.2693    1664.4322    1672.6503    2578.7501    595.81119    1751.6113   -4.1158137    -3228.436 
 2676000    258.15237   -3930.9041   -3488.4398   -3930.9041            0    2099.7921    17.783927    20.947116    21.696349    8082.3668    1132.0586     3283.259    1884.0588    68.120809   -16.747572   -163.41786   -3240.9309 
 2677000    252.73765   -3880.3552   -3447.1715   -3880.3552            0    944.74272    17.868138    21.046307    21.799087    8197.7279    1165.4167    1388.2221    280.58931   -1993.9449    338.70234   -1022.1075   -3334.2224 
 2678000    253.96562   -3891.8862   -3456.5978   -3891.8862            0    527.47159    17.983857    21.182609    21.940264    8358.0342   -357.96494    1381.8562    558.52351   -1151.2864    948.07425    572.77097   -3392.3026 
 2679000    242.50823   -3870.5414   -3454.8906   -3870.5414            0    115.81791    17.857408    21.033668    21.785996    8182.9681   -410.02604    125.19571    632.28405   -1357.2614    -533.0958   -799.55497   -3441.0689 
 2680000     249.5969    -3903.656   -3475.8554    -3903.656            0    827.70205    17.846177    21.020439    21.772294     8167.538   -432.48756    2552.4566     363.1371    1820.9529    66.372196   -335.64989   -3377.2636 
 2681000    271.31624   -3925.3311   -3460.3044   -3925.3311            0    1754.1264    17.860901    21.037782    21.790258    8187.7712     2386.745    1264.1391    1611.4953    1170.8799   -324.64701   -453.31474   -3250.8437 
 2682000    257.17568   -3882.7211   -3441.9308   -3882.7211            0    2025.4052    17.920598    21.108097    21.863087    8270.1437    3382.2236    1671.9022    1022.0899    -852.9645   -838.19231    554.80585   -3197.6435 
 2683000    232.96351   -3917.3769   -3518.0854   -3917.3769            0    1664.7274     17.94391    21.135555    21.891528    8302.4605    2309.3955    2621.6807    63.105813    -959.9206   -537.76186    14.910653   -3316.5154 
 2684000      246.152   -3926.3988   -3504.5027   -3926.3988            0    1757.0357    17.934874    21.124913    21.880504    8289.9246    1667.6643    1152.8796    2450.5632     1615.916   -271.83675    1684.2194    -3292.077 
 2685000    251.69903   -3899.1164   -3467.7128   -3899.1164            0    1013.7152    17.902624    21.086926    21.841159    8245.2847    849.24363     623.3513    1568.5506   -1390.1682   -982.47101   -201.61576   -3345.8146 
 2686000     257.3599   -3871.6894   -3430.5833   -3871.6894            0   -540.84228    17.959702    21.154156    21.910794    8324.4003    166.64345   -2205.9036    416.73329   -1118.9585    20.833606   -372.39138   -3496.2431 
 2687000    257.48827   -3913.1464   -3471.8203   -3913.1464            0    726.01716    17.959553    21.153981    21.910613    8324.1932     1730.967    760.15488   -313.07042   -1101.1701   -652.59903    505.38603    -3383.682 
 2688000    270.20961   -3876.7737   -3413.6437   -3876.7737            0    1749.5775    17.939606    21.130486    21.886277    8296.4881   -692.29204    3364.1212    2576.9034    -1220.262    1132.8671    85.022944   -3201.9522 
 2689000    247.05691    -3930.307   -3506.8599    -3930.307            0    879.82557    17.910631    21.096358    21.850928    8256.3532    236.38054    405.74491    1997.3513    931.74462    119.21558   -1107.4305   -3400.9197 
 2690000    266.60438    -3871.953   -3415.0022    -3871.953            0    605.49565    17.876394    21.056031    21.809159    8209.0966    555.68366    911.28064    349.52265    577.54822   -263.49444    334.57762   -3342.5115 
 2691000    258.15306   -3895.4983   -3453.0327   -3895.4983            0   -47.234495    17.882835    21.063617    21.817016    8217.9723    1351.1613   -403.61982   -1089.2449   -691.17796    579.22893    261.79123   -3458.6938 
 2692000     257.2934   -3886.8382   -3445.8461   -3886.8382            0    2693.7249    17.883228     21.06408    21.817496    8218.5143    3008.2804    2134.7445    2938.1498    354.76666   -528.15588    67.582668     -3122.98 
 2693000    261.98584   -3911.6832   -3462.6484   -3911.6832            0    244.54782    17.933325    21.123088    21.878614    8287.7763   -180.75722   -1061.1956    1975.5963    1353.5331    360.58376   -851.12266   -3433.0903 
 2694000    264.89935   -3897.8981   -3443.8697   -3897.8981            0    1495.9105    17.860548    21.037367    21.789827     8187.286    738.33873    2375.2344    1374.1583    383.53268    473.78641   -1188.1087   -3265.2533 
 2695000    263.35094   -3935.2435    -3483.869   -3935.2435            0    409.20898    17.918517    21.105646    21.860548    8267.2628     732.1565    848.07286   -352.60243    -497.8805   -1313.1467   -482.38352   -3434.5308 
 2696000    254.00036   -3918.8351   -3483.4872   -3918.8351            0   -265.58566    17.911264    21.097103    21.851701    8257.2288    622.74185   -1218.5318   -200.96707    267.59967    770.59177   -186.84254   -3515.4699 
 2697000    249.82335   -3906.7405   -3478.5519   -3906.7405            0    2425.4004    17.865574    21.043286    21.795958    8194.1985    1829.3489    2326.8295    3120.0229   -214.00272    694.79924     1642.513   -3188.7069 
 2698000    253.63159   -3903.1144   -3468.3986   -3903.1144            0    733.45187    17.942536    21.133938    21.889852     8300.554    2069.7085     568.7639   -438.11675    1013.5062    464.75607   -574.54765   -3379.6105 
 2699000    264.69057   -3901.9565   -3448.2859   -3901.9565            0    3878.1977     17.83404    21.006143    21.757487    8150.8853    3249.2829    3881.6624    4503.6479   -566.60489     755.8385   -1148.0805   -2987.2756 
 2700000    255.36797   -3905.4939   -3467.8019   -3905.4939            0    1529.0663    17.837244    21.009918    21.761396    8155.2799    1977.6409    1651.8068    957.75122   -395.78089    1492.0009    220.73551   -3285.9403 
 2701000     259.7753   -3900.9078   -3455.6618   -3900.9078            0    1315.0213    17.910982    21.096771    21.851356    8256.8384    692.30704    2664.5673    588.18966    376.81292    1381.6603    740.80089   -3297.3102 
 2702000    254.37302   -3885.5183   -3449.5316   -3885.5183            0    953.72809    17.865476     21.04317    21.795838    8194.0637    1621.1244   -673.02428    1913.0841    1095.8777   -235.08183     505.4402   -3335.5592 
 2703000      251.386   -3905.1453   -3474.2783   -3905.1453            0    1695.7458    17.760579    20.919617    21.667865    8050.5765    2782.4227    969.59531    1335.2194    1025.7038   -950.55254   -1011.1148   -3275.1818 
 2704000    249.56352   -3915.4132   -3487.6699   -3915.4132            0    738.35934     17.93179     21.12128    21.876742    8285.6491    392.01382    825.16212    997.90207   -415.98056    499.11077    -1151.086   -3398.4483 
 2705000    250.57616   -3915.1203   -3485.6413   -3915.1203            0    -3.429903    17.950946    21.143844    21.900113    8312.2315    1029.1664    24.230436   -1063.6865    1120.2338    394.47181   -1117.5162   -3486.0571 
 2706000    254.30488   -3917.3926   -3481.5228   -3917.3926            0    1190.8789    17.854949    21.030772    21.782996    8179.5884    782.32669    1346.9104    1443.3996    896.21777    170.36529    -1560.158   -3339.4617 
 2707000    251.16302    -3868.359   -3437.8741    -3868.359            0    359.06504    17.818633    20.987996     21.73869    8129.7784    273.98258    123.39935    679.81319   -1190.2706    780.54704   -291.60063   -3395.3018 
 2708000    250.79291   -3854.6541   -3424.8036   -3854.6541            0    1128.4686     17.80351    20.970184    21.720241    8109.0974    523.18156    1227.1596    1635.0647   -755.76635   -302.95253    461.87683   -3291.3477 
 2709000    262.26788   -3912.1748   -3462.6566   -3912.1748            0    636.41869    17.832644    21.004499    21.755784     8148.972    684.06202   -1215.3836    2440.5777    899.25272   -1373.6129    877.91955   -3387.0218 
 2710000    249.08331   -3876.8888   -3449.9685   -3876.8888            0     1663.455    17.910419    21.096108    21.850669    8256.0596    2578.9599    1031.7388    1379.6664   -634.97491    -550.6984   -1185.9431   -3249.6783 
 2711000    253.73392   -3879.2435   -3444.3523   -3879.2435            0    1602.1775    17.909302    21.094792    21.849307    8254.5153    1119.9279    1750.0823    1936.5223     1032.775   -12.211357    643.76917   -3251.4763 
 2712000    260.36952   -3908.2338   -3461.9694   -3908.2338            0    1257.7777    17.955924    21.149707    21.906185    8319.1481    698.66743    1570.6849    1503.9807   -983.95175    145.69126   -371.44982   -3309.3679 
 2713000    262.80077   -3892.0695    -3441.638   -3892.0695            0    1683.4642    17.890712    21.072896    21.826627    8228.8373    2166.5709    2536.4367    347.38491   -701.20937   -467.70755    355.62069   -3239.6069 
 2714000    257.34244   -3903.4898   -3462.4136   -3903.4898            0    101.96405    17.947823    21.140164    21.896302     8307.893    333.55396   -359.64761    331.98579    289.99121   -756.58455    427.00855   -3450.0595 
 2715000    254.97479   -3948.5445   -3511.5264   -3948.5445            0    818.01866    17.924553    21.112756    21.867913    8275.6211    1294.6091    3676.8968   -2517.4499   -652.29523    980.45744   -987.20045   -3412.7985 
 2716000    254.97663   -3900.6491   -3463.6279   -3900.6491            0    2002.2675    17.938484    21.129164    21.884908    8294.9312    1889.0519    1598.6903    2519.0603   -1161.4752   -230.52024   -1232.5463   -3221.4075 
 2717000    243.90658   -3895.0325    -3476.985   -3895.0325            0    1805.7705    17.935716    21.125904    21.881531    8291.0918    2407.9643    2232.1547    777.19232   -860.90367   -2211.8655   -207.27085   -3258.6365 
 2718000    256.24195   -3860.9373   -3421.7474   -3860.9373            0    1234.8633     17.88043    21.060785    21.814083    8214.6583     91.76566    816.93822    2795.8862   -926.52112   -649.41843    441.31587   -3273.8079 
 2719000    265.24549   -3882.3564   -3427.7347   -3882.3564            0    653.66739    17.959749    21.154212    21.910852    8324.4657    2065.9045    418.62382   -523.52611   -496.25978    375.42332    169.96201    -3348.377 
 2720000    244.09556   -3909.0087   -3490.6372   -3909.0087            0    2365.2119    17.950155    21.142911    21.899147    8311.1323    1728.2951    2839.3513    2527.9894   -77.421751   -58.588958   -127.86551   -3203.9515 
 2721000    248.91196   -3911.2954   -3484.6688   -3911.2954            0    843.38358    18.061534    21.274102     22.03503    8466.8044    525.06075    147.16209    1857.9279    475.08682   -159.17945   -160.93494   -3380.5281 
 2722000    249.93242   -3926.3789   -3498.0033   -3926.3789            0     263.2291    18.000145    21.201794    21.960135    8380.7642    1369.0904   -713.99348    134.59038    903.71803    215.16738   -589.91723   -3465.8301 
 2723000    248.78885   -3912.9802   -3486.5646   -3912.9802            0    1289.8582    17.933514    21.123311    21.878845    8288.0389    1148.8036    2655.2853    65.485552    1400.0679    122.29386   -1202.9726   -3330.6562 
 2724000    258.70333   -3909.6768   -3466.2681   -3909.6768            0    235.05418    17.995574    21.196409    21.954558    8374.3801    799.11211    45.082712   -139.03229    970.22246    672.08356   -955.31411   -3437.5605 
 2725000    245.80742   -3892.8727   -3471.5672   -3892.8727            0    831.51971    18.103849    21.323943    22.086654    8526.4521   -497.96636    963.70239    2028.8231   -1428.8333   -470.92243   -323.36122    -3368.168 
 2726000    241.95817   -3864.1609   -3449.4529   -3864.1609            0   -1876.3672    18.139411     21.36583    22.130039     8576.797   -1294.3852   -216.02598   -4118.6905    1254.8664   -783.34957   -677.42578    -3684.156 
 2727000    271.85917   -3865.2138   -3399.2565   -3865.2138            0    1545.1064    18.070405    21.284551    22.045852    8479.2858    1660.5514    2314.3964    660.37133    -405.9531    23.436629   -217.11414   -3208.1861 
 2728000    252.70414    -3858.572   -3425.4458    -3858.572            0    807.01554    18.026195    21.232477    21.991916    8417.2031    1095.0752    1034.0709    291.90052   -122.53024    831.48138   -1348.1179   -3326.3796 
 2729000    252.04736   -3855.0903   -3423.0898   -3855.0903            0    2063.7264    17.993942    21.194487    21.952567    8372.1028      1787.48    2781.1728    1622.5262   -1314.3686   -952.91636    289.67758   -3171.1118 
 2730000     258.5799   -3851.6664   -3408.4693   -3851.6664            0     1842.385     18.09082    21.308596    22.070758    8508.0559     863.5652    709.11202    3954.4778    -713.5531    112.36268    19.974367   -3179.8638 
 2731000    264.21413   -3874.6226   -3421.7686   -3874.6226            0    1760.8145    18.025741    21.231942    21.991362     8416.567    922.96853    2699.5364    1659.9386   -334.53971   -72.552885    1076.7584   -3205.6339 
 2732000    265.34007   -3913.3558    -3458.572   -3913.3558            0    996.62894    18.019597    21.224705    21.983866    8407.9635    762.96472    606.26836    1620.6537   -131.14381    906.03569    945.21205   -3336.3638 
 2733000    247.83832   -3889.2433   -3464.4569   -3889.2433            0    743.39394    18.007018    21.209888     21.96852    8390.3673    680.17273    912.98807    637.02101     497.4913   -706.83991     794.1056   -3373.4916 
 2734000    245.08776   -3868.4206   -3448.3486   -3868.4206            0    1364.1563    17.949363    21.141978     21.89818    8310.0317    706.47297    720.14933    2665.8466   -442.64234   -1180.9271    446.06641    -3283.022 
 2735000    252.60777   -3925.4908   -3492.5297   -3925.4908            0    1434.3065     17.97663    21.174095    21.931446    8347.9607    1544.6032    1313.4918    1444.8244    398.31043    389.93666    622.04298    -3317.908 
 2736000    256.96928   -3875.7501   -3435.3135   -3875.7501            0    2476.3353    17.800985    20.967209     21.71716    8105.6466    3447.8347    2674.8402     1306.331   -571.05387    783.14945      149.258   -3142.5796 
 2737000    262.01342   -3898.3643   -3449.2822   -3898.3643            0    1831.5303    17.854374    21.030094    21.782294    8178.7975     2106.486    928.68691    2459.4179   -692.81234    31.733889    549.62476   -3230.8184 
 2738000    261.22677   -3875.1124   -3427.3787   -3875.1124            0    940.90471    17.864126    21.041581    21.794192    8192.2071    1708.3965    42.647306    1071.6703   -349.49853   -224.79535    -823.1193   -3314.9641 
 2739000    244.94688   -3868.4807   -3448.6501   -3868.4807            0   -687.93707    17.948697    21.141195    21.897369    8309.1077   -1426.4301   -829.83078     192.4497   -556.23473    75.728123    154.94845   -3532.0142 
 2740000    251.64815   -3861.5943    -3430.278   -3861.5943            0    1967.1727    17.884508    21.065588    21.819058    8220.2792    2449.5831    884.46741    2567.4677      1216.51   -1707.2972   -153.87436   -3194.4448 
 2741000    262.21932     -3903.72   -3454.2851     -3903.72            0    348.25926    17.888175    21.069907    21.823532    8225.3371    711.22009    180.62293    152.93475   -814.42343   -1520.1527   -884.29673   -3412.5085 
 2742000    266.50499   -3884.5455    -3427.765   -3884.5455            0   -352.86418    17.914109    21.100454    21.855171    8261.1635   -141.33857   -172.70035   -744.55361     915.7629   -649.44755    155.31909   -3470.2783 
 2743000    258.33422   -3848.9396   -3406.1636   -3848.9396            0    872.70628    17.933047    21.122761    21.878276    8287.3918    467.21419    890.50051    1260.4042    1315.8181   -68.303457    22.427972   -3300.6856 
 2744000    273.79158   -3927.1023   -3457.8329   -3927.1023            0    1249.2677    17.854797    21.030592     21.78281    8179.3786    716.94292    971.74266    2059.1175     -1010.34    332.30158    18.345403   -3308.8104 
 2745000    273.46026   -3901.4538   -3432.7523   -3901.4538            0    1097.6174    17.935386    21.125515    21.881129     8290.634    1106.1316    655.21018    1531.5103   -174.11609   -1197.4544   -76.783987   -3300.0389 
 2746000    261.45391   -3901.9878   -3453.8648   -3901.9878            0    147.17317    17.850633    21.025688    21.777731    8173.6585   -622.79856    794.01272    270.30536   -1623.2618    616.26813   -246.87947   -3436.3211 
 2747000    245.29319    -3872.507   -3452.0829    -3872.507            0    183.95712    17.956287    21.150134    21.906628    8319.6526   -365.73256   -994.20246    1911.8064    893.44195     1001.133   -24.286464   -3429.7627 
 2748000    269.23157   -3885.3321   -3423.8784   -3885.3321            0    819.15872    17.984595    21.183478    21.941164    8359.0631    1568.4221   -369.46949    1258.5236    226.29576   -1087.2381   -801.05529   -3324.0161 
 2749000    247.27608   -3906.3708    -3482.548   -3906.3708            0    420.06658    18.025636    21.231819    21.991234    8416.4201    1419.6706   -489.65093    330.18008   -5.1458483    -496.9788   -112.15294    -3430.987 
 2750000    260.61044   -3879.1113   -3432.4339   -3879.1113            0    2599.8358    17.888578    21.070382    21.824023    8225.8924    1799.4422         3214    2786.0651   -538.20097    994.54136   -727.75967   -3120.5415 
Loop time of 390.763 on 64 procs for 250000 steps with 864 atoms

Performance: 110.553 ns/day, 0.217 hours/ns, 639.774 timesteps/s
191.7% CPU use with 32 MPI tasks x 2 OpenMP threads

MPI task timing breakdown:
Section |  min time  |  avg time  |  max time  |%varavg| %total
---------------------------------------------------------------
Pair    | 26.784     | 28.5       | 29.835     |  14.8 |  7.29
Bond    | 0.91339    | 1.0355     | 1.4798     |   9.5 |  0.27
Kspace  | 189.02     | 192.38     | 196.09     |  14.2 | 49.23
Neigh   | 3.6709     | 3.9237     | 4.255      |   7.5 |  1.00
Comm    | 69.72      | 74.335     | 77.655     |  21.4 | 19.02
Output  | 0.62991    | 0.63071    | 0.63268    |   0.1 |  0.16
Modify  | 70.497     | 72.285     | 75.501     |  16.2 | 18.50
Other   |            | 17.68      |            |       |  4.52

Nlocal:        27.0000 ave          35 max          19 min
Histogram: 1 2 5 3 3 6 7 1 2 2
Nghost:        2297.69 ave        2355 max        2232 min
Histogram: 2 1 2 2 6 8 3 3 3 2
Neighs:        7504.97 ave        9783 max        5357 min
Histogram: 2 4 4 1 5 5 3 4 2 2

Total # of neighbors = 240159
Ave neighs/atom = 277.96181
Ave special neighs/atom = 2.0000000
Neighbor list builds = 13176
Dangerous builds = 0

unfix		3
unfix		2
unfix		1

write_data	data.final.${pid}
write_data	data.final.1
System init for write_data ...
PPPM initialization ...
  extracting TIP4P info from pair style
  using 12-bit tables for long-range coulomb (../kspace.cpp:340)
  G vector (1/distance) = 0.37291505
  grid = 24 25 25
  stencil order = 5
  estimated absolute RMS force accuracy = 0.00314213
  estimated relative force accuracy = 9.462431e-06
  using double precision FFTW3
  3d grid and FFT values/proc = 4116 672
Last active /omp style is kspace_style pppm/tip4p/omp
WARNING: Not all mixed pair coeffs generated from mixing. Use write_data with 'pair ij' option to store all pair coeffs. (../write_data.cpp:312)

write_restart   restart.lmp.${pid}
write_restart   restart.lmp.1
System init for write_restart ...
PPPM initialization ...
  extracting TIP4P info from pair style
  using 12-bit tables for long-range coulomb (../kspace.cpp:340)
  G vector (1/distance) = 0.37291505
  grid = 24 25 25
  stencil order = 5
  estimated absolute RMS force accuracy = 0.00314213
  estimated relative force accuracy = 9.462431e-06
  using double precision FFTW3
  3d grid and FFT values/proc = 4116 672
Last active /omp style is kspace_style pppm/tip4p/omp
Total wall time: 0:06:30
