LAMMPS (30 Jul 2021)
  using 1 OpenMP thread(s) per MPI task
package omp 0
using multi-threaded neighbor list subroutines
echo both

include		in.partitions
variable        pid world 0
include		in.temp
variable        temperature equal 259.01
variable	tempDamp equal 100.0
include		in.pressure
variable        pressure equal 8875.0
variable        pressureDamp equal 1000.0 # This is 1 ps
include		in.seed
variable        seed world 745823

units		real
atom_style	full

read_restart	restart.lmp.${pid}
read_restart	restart.lmp.0
Reading restart file ...
  restart file = 30 Jul 2021, LAMMPS = 30 Jul 2021
  restoring atom style full from restart
  orthogonal box = (0.047036763 0.070211288 0.11121095) to (19.952964 19.929790 20.588787)
  4 by 4 by 4 MPI processor grid
  restoring pair style lj/cut/tip4p/long/omp from restart
  restoring bond style harmonic/omp from restart
  restoring angle style harmonic/omp from restart
  972 atoms
  648 bonds
  324 angles
Finding 1-2 1-3 1-4 neighbors ...
  special bond factors lj:    0        0        0       
  special bond factors coul:  0        0        0       
     2 = max # of 1-2 neighbors
     1 = max # of 1-3 neighbors
     1 = max # of 1-4 neighbors
     2 = max # of special neighbors
  special bonds CPU = 1.999 seconds
  read_restart CPU = 2.367 seconds
include 	in.setup
variable	out_freq equal 1000
variable	out_freq2 equal 10000
variable	out_freq3 equal 1000

timestep	2.0

neigh_modify    delay 7 every 1

include		in.tip4p
# This is TIP4P/Ice

# create groups ###
group ox type 2
324 atoms in group ox
group hy type 1
648 atoms in group hy

# set charges - beside manually ###
set group ox charge -1.1794
Setting atom values ...
  324 settings made for charge
set group hy charge 0.5897
Setting atom values ...
  648 settings made for charge

# ### TIP3P Potential Parameters ###
pair_style lj/cut/tip4p/long/omp 2 1 1 1 0.1577 8.5
pair_coeff 1 1*2 0.000 0.000
pair_coeff 2 2 0.21084 3.1668
bond_style  harmonic
bond_coeff  1 450 0.9572
angle_style harmonic
angle_coeff 1 55 104.52
kspace_style pppm/tip4p/omp 1.0e-5
pair_modify tail yes

thermo          ${out_freq}
thermo          1000
thermo_style    custom step temp pe etotal epair emol press lx ly lz vol pxx pyy pzz pxy pxz pyz enthalpy

restart 	${out_freq3} restart.lmp.${pid} restart2.lmp.${pid}
restart 	1000 restart.lmp.${pid} restart2.lmp.${pid}
restart 	1000 restart.lmp.0 restart2.lmp.${pid}
restart 	1000 restart.lmp.0 restart2.lmp.0


include         in.dump
dump            myDump all atom ${out_freq2} dump.water.${pid}
dump            myDump all atom 10000 dump.water.${pid}
dump            myDump all atom 10000 dump.water.0
dump            myDump2 all dcd ${out_freq2} dump.dcd
dump            myDump2 all dcd 10000 dump.dcd
dump_modify     myDump append yes
dump_modify     myDump2 append yes


variable natoms 	equal  "count(all)"                        # NUMBER ATOMS
variable H      	equal  "enthalpy/v_natoms"                 # ENTHALPY-per-atom
variable Vol      	equal  "vol/v_natoms"                 # volume-per-atom
fix AVG all 		ave/time ${out_freq} 1 ${out_freq} v_Vol v_H file vol_enthalpy.dat
fix AVG all 		ave/time 1000 1 ${out_freq} v_Vol v_H file vol_enthalpy.dat
fix AVG all 		ave/time 1000 1 1000 v_Vol v_H file vol_enthalpy.dat


timer           timeout 02:55:00 every 1000
New timer settings: style=normal  mode=nosync  timeout=02:55:00

fix 		1 all shake 1e-6 200 0 b 1 a 1
       0 = # of size 2 clusters
       0 = # of size 3 clusters
       0 = # of size 4 clusters
     324 = # of frozen angles
  find clusters CPU = 0.461 seconds
fix             2 all nph aniso ${pressure} ${pressure} ${pressureDamp}
fix             2 all nph aniso 8875 ${pressure} ${pressureDamp}
fix             2 all nph aniso 8875 8875 ${pressureDamp}
fix             2 all nph aniso 8875 8875 1000
fix             3 all temp/csvr ${temperature} ${temperature} ${tempDamp} ${seed}
fix             3 all temp/csvr 259.01 ${temperature} ${tempDamp} ${seed}
fix             3 all temp/csvr 259.01 259.01 ${tempDamp} ${seed}
fix             3 all temp/csvr 259.01 259.01 100 ${seed}
fix             3 all temp/csvr 259.01 259.01 100 745823


run             250000
PPPM initialization ...
  extracting TIP4P info from pair style
  using 12-bit tables for long-range coulomb (../kspace.cpp:340)
  G vector (1/distance) = 0.37198208
  grid = 24 24 24
  stencil order = 5
  estimated absolute RMS force accuracy = 0.0035340878
  estimated relative force accuracy = 1.06428e-05
  using double precision FFTW3
  3d grid and FFT values/proc = 2197 216
Last active /omp style is kspace_style pppm/tip4p/omp
Neighbor list info ...
  update every 1 steps, delay 7 steps, check yes
  max neighbors/atom: 2000, page size: 100000
  master list distance cutoff = 10.8154
  ghost atom cutoff = 10.8154
  binsize = 5.4077, bins = 4 4 4
  1 neighbor lists, perpetual/occasional/extra = 1 0 0
  (1) pair lj/cut/tip4p/long/omp, perpetual
      attributes: half, newton on, omp
      pair build: half/bin/newton/omp
      stencil: half/bin/3d
      bin: standard
Per MPI rank memory allocation (min/avg/max) = 9.225 | 9.226 | 9.228 Mbytes
Step Temp PotEng TotEng E_pair E_mol Press Lx Ly Lz Volume Pxx Pyy Pzz Pxy Pxz Pyz Enthalpy 
19500000    262.39049   -4666.0477   -4160.0055   -4666.0477            0    8524.2214    19.905927    19.859578    20.477576    8095.2635    7251.6129     9897.962    8423.0893   -1160.4683   -65.243515   -624.92707   -3153.6265 
19501000    254.63793   -4707.3895   -4216.2989   -4707.3895            0     7966.467    19.657003    20.115841    20.503984    8107.6269    10755.851    6457.7094    6685.8405    182.02956   -782.06623    7.1828481   -3274.3325 
19502000    261.24735   -4712.7984   -4208.9609   -4712.7984            0    7267.9544    19.991262    19.897348    20.466352    8140.9639     9139.478    5666.6795    6997.7055   -59.702207   -1407.3013   -316.36274    -3346.054 
19503000    266.69738   -4735.0352   -4220.6869   -4735.0352            0    7402.6579    19.978647    20.074208    20.300727    8141.7183    7031.3957    7330.1005    7846.4777    279.16605   -1268.4885   -440.22944   -3341.7056 
19504000    251.87828     -4735.26   -4249.4915     -4735.26            0    7298.3054    19.842801    19.884874     20.49722    8087.6207     7649.149    6958.2298    7287.5373   -347.79467    793.39418   -1743.5774   -3388.6589 
19505000    257.21455   -4690.3658   -4194.3059   -4690.3658            0    8198.7146    19.847812     19.80248    20.605744    8098.7973    9242.4785    7813.2926    7540.3728    317.93624    595.66939    695.11131    -3225.934 
19506000    272.09406   -4698.3002    -4173.544   -4698.3002            0    8778.8458    19.480642    19.950197    20.680826    8037.4508    10762.075    8340.2377    7234.2249    42.654023    754.59669    221.13373   -3144.5054 
19507000    257.46759   -4688.2521   -4191.7042   -4688.2521            0    8872.1869    20.051037     19.80096    20.225975    8030.3143    10578.395    7556.2012    8481.9649    408.57192     980.2718   -85.982178   -3152.6478 
19508000    254.89503   -4677.1574   -4185.5709   -4677.1574            0    10755.438    19.682377    19.921481    20.346977    7978.0925    9386.0729    11920.779    10959.461    -907.6137    1249.4646   -1438.6125    -2934.151 
19509000    265.35033   -4696.1892   -4184.4388   -4696.1892            0    7035.8765    19.888395    19.806205    20.647852    8133.4704     5197.455    7834.3407     8075.834    115.70291    617.79414     301.2473   -3349.8549 
19510000    259.24253   -4694.0351   -4194.0641   -4694.0351            0    7889.4689    19.981472      19.8468    20.619161    8176.9051     6242.834    10550.094    6875.4789   -1197.5058    47.725354   -517.87125    -3253.231 
19511000    259.42717   -4714.5575   -4214.2304   -4714.5575            0    8697.5356      19.7538    20.095046    20.332507    8071.0601    9610.7365    6540.7954    9941.0748   -184.65993   -1582.6417    452.15084   -3190.4597 
19512000    265.84478   -4675.0422   -4162.3382   -4675.0422            0    8438.3507    19.803601    19.745047    20.661797    8079.2382    7021.5787    9227.2716    9066.2019    148.82498    112.96749    1457.9456   -3168.0692 
19513000    267.45296   -4682.2783   -4166.4727   -4682.2783            0    6384.0863    19.805165    19.946845    20.657334    8160.6916    6301.7918    5868.8514    6981.6155   -839.84958   -954.55394    309.24948   -3406.6687 
19514000     255.9212   -4707.5455     -4213.98   -4707.5455            0    7455.5298    19.700377    20.260286    20.282362     8095.406    6346.4003    7913.3438    8106.8453    246.88888    246.70249    525.28113   -3333.7563 
19515000    251.01653   -4690.4686   -4206.3622   -4690.4686            0    7584.4198    20.055078    19.862542    20.482341    8159.0345    7585.3126    7159.8179    8008.1289   -88.533809    563.76422   -91.872563   -3303.8833 
19516000    269.06113   -4709.4276   -4190.5205   -4709.4276            0    8935.5613     20.22047    19.639699     20.32803    8072.7475    7347.1439    10376.805    9082.7351    162.28694    595.96681    1481.1626   -3138.5124 
19517000    260.65726   -4707.8881   -4205.1886   -4707.8881            0    9869.2652    19.783905     19.90737    20.511315    8078.2893    11184.771    8735.1221    9687.9024    214.08397    744.37017   -916.63354   -3042.4553 
19518000    250.74678     -4720.02   -4236.4337     -4720.02            0    7045.1864    20.071465     19.68217    20.489647    8094.4346    7127.9499    7650.8538    6356.7554    823.13365   -439.27318   -261.42691   -3404.7563 
19519000     265.4547   -4715.5796   -4203.6279   -4715.5796            0    9323.4543    19.838151    19.806458    20.565071    8080.4999    9433.2931    9234.4621    9302.6076   -342.02373   -271.03324    567.68609   -3104.8979 
19520000    254.66976   -4709.6744   -4218.5223   -4709.6744            0    7921.0969    20.044429    19.692491    20.521629    8100.3944    7106.4251     9357.219    7299.6465   -728.74189    1242.3688    275.17777   -3282.7561 
19521000    251.41862   -4716.1098   -4231.2278   -4716.1098            0    10842.071    19.728796     19.81211    20.588064    8047.2375    8839.3639    14144.281    9542.5693    1263.0084    937.05044   -1645.8232   -2958.7947 
19522000    262.13285   -4699.8937   -4194.3485   -4699.8937            0    8297.6801    19.872248    19.990853    20.273865      8054.06    8695.7763    7284.8369    8912.4271    125.20925    1087.9233    1817.3322   -3219.7013 
19523000    253.21685   -4709.3565   -4221.0066   -4709.3565            0    9793.8109     19.68988    19.748272    20.690657    8045.3781    10974.295    9686.4649    8720.6724   -586.89535    359.19993   -406.97807   -3071.8636 
19524000    274.56312   -4685.2489   -4155.7309   -4685.2489            0    9544.5453    20.027884    19.667993    20.547982    8094.0201     8866.684    10047.901    9719.0509   -183.97333     1917.877     1482.378   -3029.0643 
19525000    289.25419   -4733.0726   -4175.2216   -4733.0726            0    8662.4509    19.943248    19.773105    20.413439     8049.834    8917.7046    8463.1923    8606.4559    923.13169    122.73834    1988.0925   -3158.2622 
19526000    271.85814   -4687.7715   -4163.4703   -4687.7715            0    8123.2477    19.813194    19.790516    20.530037    8050.1013     7601.464    9145.3636    7622.9155   -134.88515    1270.3107   -1381.2712   -3209.7809 
19527000     265.8854   -4687.3517   -4174.5694   -4687.3517            0    8956.2272    19.860406    19.756072    20.625584    8092.7288    7591.2542    10024.957    9252.4702   -616.42026    1499.1905    270.77119   -3117.5183 
19528000    260.47801   -4713.2577    -4210.904   -4713.2577            0    9706.4809    19.746611    19.805817    20.388321    7973.8266     9982.163    8668.8358    10468.444   -49.323473    1318.3187    532.03265   -3082.1365 
19529000    254.62106   -4695.2696   -4204.2115   -4695.2696            0    7608.4325    19.586865    20.019727    20.740972    8133.0265    8020.5292    7414.0291    7390.7394   -682.82756    -123.3165   -512.66231   -3301.7612 
19530000    271.13663   -4704.0829   -4181.1731   -4704.0829            0    9493.7466    19.904929       19.725    20.560974    8072.7468    8921.7835    9644.9013     9914.555   -603.66083    791.53643   -1825.4115   -3063.4484 
19531000    256.10019   -4647.2591   -4153.3483   -4647.2591            0    10930.303    19.969457    19.788604    20.335136    8035.7884    8831.3044    13561.966    10397.637    211.09457    554.62104    137.13192   -2872.3854 
19532000    265.39125   -4702.2764   -4190.4471   -4702.2764            0    8031.9858    19.787928    19.959722    20.530916     8108.922    7493.4946    9006.0999    7596.3627     -96.5009    542.27958   -214.31809    -3240.582 
19533000    253.53076    -4687.721   -4198.7656    -4687.721            0    9958.4321    20.068753    19.577166    20.529525    8065.8311    8822.0676    11784.243    9268.9855    163.87593     1387.631    467.01179   -3027.3366 
19534000     246.0304   -4698.3477   -4223.8574   -4698.3477            0    9306.2743    19.542161    19.978688    20.617019    8049.4354    9526.4895    8823.2931    9569.0403    317.90247     581.7884    245.34431   -3131.3682 
19535000    248.17022   -4732.0761   -4253.4589   -4732.0761            0    8167.6698    20.026994     19.67913    20.447884    8058.7935    6366.9594    10057.798    8078.2521   -472.03755    1150.1559    1467.4524   -3293.5189 
19536000    255.23189   -4715.5896   -4223.3535   -4715.5896            0    9260.6282    19.725138    19.907682    20.438573    8025.8547     10485.39    7423.4618     9873.033   -173.72684   -616.67805    -488.9734   -3139.4075 
19537000    265.44028   -4721.0802   -4209.1563   -4721.0802            0    7660.5666    19.811144    19.717656    20.719891    8093.7966    7024.6449     9237.995    6719.0599   -457.02069    668.72491    89.523007   -3304.9051 
19538000    267.17825   -4703.1132   -4187.8375   -4703.1132            0    9659.7255    19.902337    19.927396    20.382578    8083.7661    9873.4082    10213.164    8892.6042   -112.05374    881.25295    1439.0696   -3049.0193 
19539000    246.54008   -4702.2259   -4226.7527   -4702.2259            0    9280.5022    19.954184    19.795115    20.444185     8075.358    9556.5022    8272.2066    10012.798    330.65551   -373.38991    953.48249   -3133.7804 
19540000    250.02227   -4695.3416   -4213.1526   -4695.3416            0    8285.6459    19.909193    19.895837    20.579642    8151.8032    8541.4206    7959.7316    8355.7855    145.78701   -39.148728     783.4122   -3228.1079 
19541000     256.2253   -4674.5844   -4180.4324   -4674.5844            0    10144.934    19.881845     19.68107    20.534091    8034.9076    11596.005    8787.2254    10051.573   -142.70729    1640.5333    528.40477     -2991.64 
19542000    264.40247   -4714.6179   -4204.6955   -4714.6179            0    8791.4416    19.607233    19.949676    20.670664    8085.4941    10492.337    7131.3741    8750.6134    269.50326   -289.83612   -458.85525   -3168.0207 
19543000    257.82831   -4678.6563   -4181.4127   -4678.6563            0    7764.1204    19.914793    19.899834    20.463572    8109.7356     7289.478    7611.0093    8391.8738   -375.80304    1375.3992   -174.47125   -3263.1333 
19544000    244.41567   -4691.7163   -4220.3401   -4691.7163            0     9547.413     19.71414    19.880326    20.379822    7987.3318    8169.8721    10250.355    10222.012    20.904301    200.07209   -438.27653   -3108.1902 
19545000    249.60848   -4724.7779    -4243.387   -4724.7779            0    7958.1967    19.763368    19.737824     20.72654    8085.1304    8215.8676    8277.7503    7380.9723   -301.43258    790.07007     919.4954   -3305.0095 
19546000    246.07624   -4692.4164   -4217.8377   -4692.4164            0     7384.267    19.995598    19.621563    20.576117    8072.9342    9111.4902    6034.1618    7007.1491   -199.47391    1325.3094   -826.09675   -3348.4476 
19547000    261.95831   -4713.9517   -4208.7431   -4713.9517            0    9886.4394    19.866123    19.986492    20.287762    8055.3391     11214.56    8947.2505    9497.5081   -255.24888    948.25084   -487.42194   -3047.2955 
19548000    250.34578   -4719.8271   -4237.0142   -4719.8271            0    8385.1192    19.754721    19.758368    20.610897    8044.8672    8963.4817    7400.1595    8791.7164    -552.8672   -164.18266   -1.8179019   -3253.2205 
19549000    245.84105   -4674.9606   -4200.8355   -4674.9606            0    9141.5574    19.825166    19.857424    20.685463    8143.3852    11036.983    6843.7964    9543.8929   -204.29432    140.17159   -1201.4552   -3115.1574 
19550000    253.21334   -4714.6984   -4226.3551   -4714.6984            0    8356.9825    19.872767    19.873323    20.473518    8085.7684    6647.4396    8280.7851    10142.723   -559.16522    256.12134    436.32277   -3240.8777 
19551000    272.74546   -4655.9279   -4129.9153   -4655.9279            0    8267.6209    20.035326    19.791199    20.396597    8087.7224    8702.0416    8355.6363    7745.1848   -142.83706    352.37009    147.46703   -3154.7401 
19552000    238.38648   -4686.6327   -4226.8843   -4686.6327            0    10003.967    19.851322    19.835444    20.520324    8080.0786    10272.902     9491.581    10247.417    298.97392   -202.20626   -1116.3376   -3048.0203 
19553000     254.6742    -4736.924   -4245.7633    -4736.924            0    7224.6939    19.738158    20.169972    20.541254    8177.8445    9582.5076    4864.2918    7227.2822   -384.49654    521.93306    249.23348   -3384.1068 
19554000    266.13843   -4693.5493    -4180.279   -4693.5493            0    9532.1937    19.834295    19.639309    20.701352    8063.8359    9867.4815    9202.8842    9526.2155    31.761437   -49.015198   -503.21759   -3059.2665 
19555000     258.9758     -4700.61   -4201.1534     -4700.61            0    8501.5254    19.803986    19.798671    20.632735    8089.9426    6635.3358     9410.369    9458.8713   -138.54577     1441.532   -1499.7177   -3198.1135 
19556000    283.39885   -4702.1257   -4155.5671   -4702.1257            0    8560.5771    20.071788    19.734889    20.382541    8073.8206    7970.5367    9023.8594    8687.3351   -627.40455   -260.31647    1288.6614    -3147.573 
19557000    253.80268   -4725.1476   -4235.6678   -4725.1476            0    8857.1422    19.800603    19.772095    20.679529     8096.023    10027.119    7558.7922    8985.5154    278.64452    583.69043    775.20173   -3189.8856 
19558000    263.31655   -4717.8406   -4210.0125   -4717.8406            0    7125.1421    20.031685    19.853443    20.470351     8141.016    6577.2262    6781.1759    8017.0243    1116.5535    1505.6034   -797.27057    -3364.056 
19559000    252.99785   -4697.7218   -4209.7942   -4697.7218            0    9137.0503    19.916632    19.808423    20.495898    8085.9816    10517.642     8204.789    8688.7196   -560.66347    127.96246   -450.80039   -3132.3007 
19560000    253.44666   -4703.1066   -4214.3134   -4703.1066            0    7596.2796    19.936941    19.944744     20.49861    8151.0091    7812.7915    7581.3527    7394.6946    97.014325   -734.93597   -173.94926   -3311.3125 
19561000    257.04563   -4693.6875   -4197.9534   -4693.6875            0    8395.6643    19.978449     20.00264    20.427439    8163.2484    7358.4425     9313.681    8514.8692    -673.8438    821.96812   -684.49499   -3198.4277 
19562000    270.26679    -4675.429   -4154.1967    -4675.429            0    8616.2706     19.92276    19.835702    20.512362    8106.1151       9867.7    7864.2986    8116.8131  -0.25872168   -177.02022    308.86919   -3135.5866 
19563000    263.38973   -4677.5185   -4169.5492   -4677.5185            0     10912.12    19.853689    19.831929     20.34299     8009.787    11847.356    9506.7717    11382.232    365.75338   -756.21293    3.8152232   -2894.8551 
19564000    254.15249   -4700.5897   -4210.4352   -4700.5897            0    8128.1347    19.891639    19.937398    20.494977     8128.052    7278.4919    9328.6945    7777.2177    263.03689    230.40009    235.80923   -3246.9318 
19565000    255.55362   -4707.6626    -4214.806   -4707.6626            0    9650.5392    19.694369    20.056885    20.488981     8093.305      11595.1    7554.3167    9802.2006   -851.76884   -822.63775   -753.63086   -3075.7282 
19566000    271.41647   -4685.3558   -4161.9063   -4685.3558            0    8675.8092    20.082604    19.913145    20.296703    8116.8097    9360.0904      7626.44    9040.8971   -960.66362   -736.36157   -391.71974   -3134.9044 
19567000    245.41168   -4691.5081   -4218.2111   -4691.5081            0    9465.2553    19.927247    19.717249    20.525631    8064.7359    11847.734    8273.8596    8274.1723   -17.088026    240.74536    177.34611   -3104.9465 
19568000    254.15938   -4696.3834   -4206.2156   -4696.3834            0    9691.6056    19.845665    19.641881    20.624621    8039.6045    9759.2276    8985.7269    10329.862   -955.09296   -115.31601    1301.9417   -3069.8808 
19569000    250.16024   -4726.0128   -4243.5578   -4726.0128            0    7896.1951    19.629785    19.981966    20.526089    8051.1882    7385.4405    7432.7006    8870.4441   -501.92477    1605.3985    1617.6338   -3316.3998 
19570000    268.82827   -4707.8272   -4189.3693   -4707.8272            0    8329.1939     19.98064    20.082822    20.187489    8100.5862    7322.0823    8829.4349    8836.0647   -131.24601   -593.27154   -515.02283   -3205.3688 
19571000     261.0164   -4702.0441    -4198.652   -4702.0441            0     8693.924    20.014619    19.882258    20.296938    8076.8791    6422.7219    10402.938    9256.1115    239.61461   -1157.0488    1178.0048   -3174.5686 
19572000    266.38829   -4653.0038   -4139.2516   -4653.0038            0    7995.1979    19.790605    19.866428    20.627058     8109.912    7699.3893     7964.063    8322.1415    -215.4579    371.37854    1572.3638   -3193.6216 
19573000     263.3641   -4749.5449   -4241.6251   -4749.5449            0    9593.1859    19.693837    20.030737    20.509413    8090.5956    11563.739    8935.3341    8280.4843   -901.74074    -555.8023    365.86834    -3109.696 
19574000    243.00949   -4699.2438   -4230.5795   -4699.2438            0    8943.7141    19.867264    19.860331    20.470585    8077.0874    8328.7813    8863.5032    9638.8578   -205.35403   -800.03178   -1664.6642   -3177.0455 
19575000    251.81028   -4692.0132   -4206.3759   -4692.0132            0    11693.458    19.454325    19.856001    20.604528    7959.2222    12658.381    10279.418    12142.575      174.797   -856.13678   -446.48877   -2849.0333 
19576000    258.38379   -4702.9431   -4204.6283   -4702.9431            0    8405.1417    19.749537    19.857492    20.610229    8082.8425    7608.2723    9511.0532    8096.0997    182.91517    479.32525    592.43624   -3213.8304 
19577000    254.62533   -4738.6859   -4247.6196   -4738.6859            0    7786.6625    19.838962    19.919522    20.347345    8040.9174    7506.7489    7240.3204    8612.9181    265.41181     396.3571   -208.87041   -3334.4891 
19578000    261.84554   -4675.8371   -4170.8459   -4675.8371            0     9185.079     19.90869    19.951279    20.433986    8116.4575    10415.124    8221.1247    8918.9883   -408.61875    296.48687    232.89326   -3083.6062 
19579000    260.36559   -4725.5511   -4223.4142   -4725.5511            0    10187.683    19.753113    19.735443    20.631016    8042.7216     11033.18    10270.948    9258.9218    85.989065    -546.5911   -88.016386   -3028.4515 
19580000    267.42607   -4696.7678   -4181.0142   -4696.7678            0    9515.4596     19.92937     19.88437    20.434952    8098.0236    10863.721    8327.1556    9355.5023    384.20982   -1055.4057   -115.81154   -3057.2254 
19581000    262.08217   -4704.5803   -4199.1327   -4704.5803            0    8991.7346    19.996703    20.115494    20.256259    8147.9498    8553.6451    9030.2618    9391.2967    532.52299    912.18895   -1561.6342   -3130.6495 
19582000     264.5213   -4747.1927   -4237.0411   -4747.1927            0    8059.0933    19.922652    19.870809    20.377115    8066.8765     7301.958    7759.7829     9115.539    573.71936    1890.8734   -1107.9823    -3288.912 
19583000    266.37173   -4701.4746   -4187.7543   -4701.4746            0    9628.4633    19.964922     19.94206    20.213676    8047.9065    10813.616    8187.1026    9884.6716   -158.23225   -450.37843   -321.99258   -3057.6571 
19584000     262.8415   -4663.8732   -4156.9613   -4663.8732            0    8828.7891    19.690734    19.853444    20.582195    8046.1746    10005.152    7893.7713    8587.4436   -517.82163    145.99771     117.1664   -3120.9452 
19585000    257.22561   -4726.6072   -4230.5259   -4726.6072            0    8850.1286    20.051823    19.739624    20.526691    8124.7817    5804.3091    11557.074    9189.0027     623.4465   -1781.7241    18.755541     -3181.86 
19586000    251.49475   -4713.9537   -4228.9249   -4713.9537            0    8464.9791    19.873583    19.968515    20.527604    8146.2964     9484.157    6597.6049    9313.1754   -133.06291   -960.58532   -172.76016   -3223.2399 
19587000    265.90596   -4725.2973   -4212.4753   -4725.2973            0    9579.9396     19.78553    19.633479    20.603632    8003.6621    8942.1919    10613.412    9184.2144   -507.21652    314.88829    668.15484   -3094.2549 
19588000     256.2356    -4690.168   -4195.9961    -4690.168            0    8998.6024    19.639967    19.889601    20.547073    8026.3259    9044.8076    8641.6386    9309.3609   -473.87136   -333.51416   -343.02114   -3142.6581 
19589000    240.95054   -4709.6299   -4244.9365   -4709.6299            0    9232.0092    19.795643    19.863457    20.301924    7982.9178    11166.426    5631.9116     10897.69   -397.13092   -1320.5336     1105.809   -3170.1213 
19590000     246.2384   -4689.4827   -4214.5913   -4689.4827            0    9198.8298    20.000419    19.743098    20.444986    8073.1159    10013.779    8522.6992    9060.0107   -161.64496    566.96899    552.92145   -3131.5384 
19591000    251.20906    -4701.596   -4217.1182    -4701.596            0    8967.5309    19.587086    19.981032    20.645387    8079.9891    10252.842    8224.8031    8424.9474     578.9257    344.34417   -614.15381   -3160.3992 
19592000    249.25639   -4684.5408   -4203.8289   -4684.5408            0    9072.9572    19.996783    19.745284    20.294417    8013.0913    8249.9082    9626.8179    9342.1453   -159.47235     469.0474    1071.4299   -3143.5385 
19593000    261.54966   -4683.2855    -4178.865   -4683.2855            0    8482.3932    19.891513    19.890517    20.456703    8093.7452    9055.3568    6737.4456    9654.3771   -261.15637   -1256.0704    1722.6145    -3177.612 
19594000    264.31626   -4715.8073   -4206.0511   -4715.8073            0    9586.4774    19.903322    19.757348    20.668451    8127.5963    10156.016    10612.713    7990.7032    402.24214    -1.287319    -113.4223   -3069.7405 
19595000    246.66664   -4725.1562   -4249.4389   -4725.1562            0    8366.2365    19.837559    19.930316    20.535256    8119.0003    10971.152    6406.9171    7720.6406   -407.39414    537.43083   -595.30512   -3258.8154 
19596000     271.2243   -4707.1816   -4184.1028   -4707.1816            0    11196.504    19.984664    19.795091    20.248531    8010.2835    10790.341    11715.438    11083.734    133.22684   -91.349258   -229.29871   -2876.1074 
19597000    249.98344   -4687.2686   -4205.1546   -4687.2686            0    6929.9644    19.929504    19.995817    20.467153    8156.2981    7744.5254     5995.898    7049.4698   -104.24991    337.58983    5.9086194   -3380.8267 
19598000    263.50531    -4716.586   -4208.3938    -4716.586            0    6587.6377    19.964239    19.956009    20.302837    8088.7827    3745.2844    9059.3267    6958.3019   -281.24818   -399.08512   -820.42826   -3431.2726 
19599000    258.99906   -4705.9915     -4206.49   -4705.9915            0    8735.5982    19.844398    19.828505    20.487301    8061.4404    9009.7336    9289.2258    7907.8351   -284.89947   -103.13783    71.705072   -3179.4646 
19600000    261.18547   -4702.7762   -4199.0581   -4702.7762            0    9483.1624     19.77689    19.885777    20.419457    8030.5398    9989.3412    9301.3834    9158.7627   -153.69804   -932.67039    730.11868   -3088.4168 
19601000    261.45746   -4754.0603   -4249.8176   -4754.0603            0    8594.9205    20.005779    19.602971    20.553152    8060.3853    10241.782    7809.1033    7733.8761   -742.32165    1028.4576    582.17138   -3239.4637 
19602000     247.9395   -4691.3695   -4213.1973   -4691.3695            0    7154.5194    19.804407    19.978324     20.54471    8128.6969    8841.6235    6006.3053    6615.6294    326.96163    1283.8047    1222.2647   -3365.0383 
19603000    268.04371   -4699.4708   -4182.5259   -4699.4708            0    8396.0086    19.664379    20.076548     20.42632    8064.1649    6851.5782    9622.0183    8714.4294    307.52189    1784.3141   -554.51732   -3195.0917 
19604000    261.44288    -4686.714   -4182.4995    -4686.714            0    9358.9443    19.909508    19.719689    20.579313    8079.6299    10040.224    8666.5942     9370.015    299.95933    909.68333    1471.2839   -3079.7059 
19605000    268.99583   -4676.6478   -4157.8667   -4676.6478            0    8599.4484    19.837989    19.769402    20.635023    8092.7504    8590.1594    9180.9805    8027.2055   -49.478628    292.43887    659.34245   -3142.9214 
19606000    244.96277   -4707.8706   -4235.4393   -4707.8706            0    8958.9948    20.033329     20.02754    20.198162     8103.872    6885.4944    8866.3521    11125.138    187.69416    433.28923   -855.39231   -3176.6056 
19607000    263.90461   -4715.8789   -4206.9167   -4715.8789            0    6741.2314    20.016667    19.746581    20.555805    8124.9026    5013.4655     9459.669    5750.5596   -114.55753    161.10993   -916.21189   -3408.1255 
19608000     266.0075   -4690.2077   -4177.1898   -4690.2077            0    9216.5192    19.673793    19.848986    20.628103    8055.3743    10428.613    7866.1783    9354.7661    238.12384    1172.8736    683.97039   -3094.4389 
19609000    257.65177   -4689.7742   -4192.8711   -4689.7742            0    9539.6724    19.919585    19.721136    20.487609    8048.2878    10416.027    9360.3283     8842.662    55.990145    284.33435    68.621781   -3073.1423 
19610000     267.6703   -4692.2915   -4176.0668   -4692.2915            0    8769.2753    19.975389    19.689695     20.52787    8073.8027    9258.6096    8505.4313     8543.785    482.51088    -365.5723    697.89281    -3143.501 
19611000    270.34083   -4687.7485   -4166.3735   -4687.7485            0    9883.8498     19.84718    19.950859    20.272394    8027.2249    10874.414    8956.5054    9820.6297    296.63388    294.92267   -475.17388   -3009.2827 
19612000    257.01039   -4681.7307   -4186.0646   -4681.7307            0    9799.5837    19.868803    19.605247    20.621356    8032.6942    8599.6333    11606.155    9192.9628    895.48179    484.97811   -673.87951    -3038.057 
19613000    255.47541   -4727.9078    -4235.202   -4727.9078            0    9058.1875    19.893517    19.913647    20.370815    8069.9488     8186.105    10387.933    8600.5243    101.09148    1023.0834   -228.78099   -3169.1264 
19614000    260.67964   -4685.0329   -4182.2903   -4685.0329            0    11226.818    19.861436    19.716114    20.442926    8005.2525    11053.817    11171.041    11455.594   -237.45897   -795.92228    417.35155   -2871.5773 
19615000    250.48258   -4695.7838   -4212.7071   -4695.7838            0    7441.0132    19.951043    19.731485    20.691754    8145.5923    9819.1583     7731.585    4772.2962    -306.6617   -291.11294    854.13118   -3328.7511 
19616000    249.01532   -4715.3106   -4235.0636   -4715.3106            0    8239.8495    19.869743    20.069191    20.306479    8097.6077    9663.3195    6862.2883    8193.9407   -738.70421   -264.10215    121.49895   -3261.9761 
19617000    248.17819   -4714.1912   -4235.5587   -4714.1912            0    7976.2299    19.880947     19.87825    20.489137    8097.2748    8309.6874    8377.9669    7241.0353    1300.5721    245.28783    219.67013   -3293.6422 
19618000    253.77341   -4718.3969   -4228.9735   -4718.3969            0    8150.2025    19.924465    19.708013    20.686755    8123.1012    8030.8808    9558.4944    6861.2323     504.2832    153.77571   -1215.1653   -3263.4426 
19619000    248.67485   -4718.1616   -4238.5712   -4718.1616            0    7834.6796    19.931806     19.85662    20.551786    8133.9511     7156.744    7934.1695    8413.1253   -529.20021    943.94316   -1215.8269   -3309.1797 
19620000    264.58247   -4727.1711   -4216.9015   -4727.1711            0    8559.2918     19.70337    19.967504     20.61172    8109.2097    8621.0461    8043.1166    9013.7128    470.66408    721.49227   -747.35062   -3204.6411 
19621000    250.75113   -4727.6467   -4244.0521   -4727.6467            0    8123.8245    20.061379    19.657026    20.631224    8135.8623    10785.342    5618.6591    7967.4721    357.80349    1740.5846    -1084.768   -3280.1342 
19622000    257.10254   -4681.9493   -4186.1054   -4681.9493            0    7572.8377      19.8464       20.115    20.362726    8129.0108     7010.414    5910.8379    9797.2611    94.233918    1051.1875    1250.8533   -3288.3206 
19623000    258.06921   -4692.4493   -4194.7411   -4692.4493            0    8178.4186    19.885031    19.769411    20.462866    8044.2667     7391.616    8618.3164    8525.3234     62.36343   -110.66173    656.27936   -3235.2705 
19624000    268.91786   -4721.8133   -4203.1826   -4721.8133            0    7611.9111    19.888565    19.899493    20.514345    8119.0106    7726.3508    8393.6341    6715.7482   -368.59028    1511.0485   -501.69331   -3301.8757 
19625000    251.33082   -4659.9541   -4175.2414   -4659.9541            0    10359.407    20.171421    19.763382    20.324096    8102.3126    9858.1931    11176.102    10043.925   -373.05727     452.0105   -2455.0754   -2951.1334 
19626000    242.24504   -4704.8167   -4237.6267   -4704.8167            0    8729.2076    19.911669    19.977677    20.336007    8089.4376    8476.7818    10066.356    7644.4848    714.69391    301.92732    1349.9729   -3207.7884 
19627000    249.38621   -4693.9819   -4213.0196   -4693.9819            0    7986.6297    20.173126    19.905526    20.200864    8111.7922    7033.3815    8216.7919    8709.7158    444.68073   -682.34559   -292.76404    -3268.184 
19628000    249.02802   -4702.3589   -4222.0874   -4702.3589            0    8362.8667    19.965288    19.723225     20.66851    8138.8429    8701.5859    8543.0605    7843.9537   -518.74366    350.71767    1197.8001   -3229.4429 
19629000    266.57634   -4672.0804   -4157.9656   -4672.0804            0    9269.1204    19.911017    19.754359    20.537854     8078.141    8311.6776    11527.894    7967.7897   -726.80254   -513.09395   -210.74728   -3065.9575 
19630000    248.20479   -4715.5935   -4236.9097   -4715.5935            0    10577.136    19.558623    20.080389    20.356739    7995.0028     10425.63    11306.943    9998.8331    370.34284   -717.74908   -15.913538   -3003.6271 
19631000    259.64456   -4749.7411   -4248.9948   -4749.7411            0    7811.0577    19.879592    19.850814      20.5276    8100.7263    6399.8403    9681.0781    7352.2547   -117.40512   -498.05107     1425.222   -3326.1903 
19632000    266.91083   -4682.6373   -4167.8773   -4682.6373            0    7583.0961    19.895078    19.707451    20.547955    8056.4684    7643.8607    7186.3761    7919.0515    102.58393   -120.45095   -43.220866    -3276.899 
19633000    282.13147   -4712.4771   -4168.3629   -4712.4771            0    9129.2035    19.877501    19.772765    20.444593    8035.4028    11613.194    6433.0291    9341.3869    51.560258   -149.61035   -1081.2363   -3098.5288 
19634000    252.08356   -4719.4937   -4233.3293   -4719.4937            0    6480.1155    19.985825    20.015438    20.393014    8157.7164    5382.8584    6965.4071    7092.0812   -1237.5939    -660.4433   -1035.7053   -3462.3775 
19635000    259.19034   -4714.9658   -4215.0955   -4714.9658            0    8734.5364    19.909899    19.748012    20.451097    8040.9814    8739.1916    7804.5444    9659.8731   -1031.2234    288.15642    894.19059   -3190.8011 
19636000    258.76633   -4688.6922   -4189.6395   -4688.6922            0    10188.624    19.580303    19.916725    20.525047    8004.2658    11638.767    9617.4902    9309.6144     313.7194   -636.18418    364.30167   -3000.2806 
19637000    256.61051   -4719.2329   -4224.3379   -4719.2329            0     9305.915    19.699512    19.847136    20.594062    8051.8433    10662.775     8855.594    8399.3763    284.25375    1287.8879    539.36265   -3131.5641 
19638000     252.7583   -4703.0176    -4215.552   -4703.0176            0    8046.7307    19.927421    19.787138    20.372524    8033.0211    9139.7986    6731.4224    8268.9711   -1201.2661    -5.876178   -892.88875   -3272.8504 
19639000    246.11296   -4737.9085   -4263.2589   -4737.9085            0    7558.1464    19.789552     20.01868     20.53478    8135.0725     9024.727     5455.953    8193.7594    156.24379    445.23134     85.34485   -3366.5477 
19640000    269.24377   -4706.1986   -4186.9393   -4706.1986            0    10087.285    20.094331    19.624921    20.431818    8057.2801     6915.636    12515.649    10830.569    165.45308   -86.096775   -1990.5445   -3001.6111 
19641000    249.16598   -4695.8936    -4215.356   -4695.8936            0    9195.5711    19.625478    20.051852    20.544583    8084.8519    10371.634    8167.6117    9047.4676    215.16046   -1945.8487    1449.3007   -3131.1129 
19642000    254.69259   -4692.3355   -4201.1394   -4692.3355            0    10219.318    19.866867    19.621163    20.627912    8040.9879    9643.2188    11284.759    9729.9761    461.32178   -730.65176    -739.5661   -3002.7245 
19643000    250.55039   -4706.8567   -4223.6492   -4706.8567            0    6751.9646    19.846626    20.089956    20.402905    8135.0025    8602.6922    4645.5476     7007.654     240.0862    70.472638   -640.57331   -3422.5916 
19644000    253.85374   -4683.6998   -4194.1215   -4683.6998            0     9941.493    19.671353         19.9    20.490743    8021.3048    9310.2442     11151.26     9362.975    396.93062    313.12378   -567.67222   -3031.1408 
19645000    250.37752   -4692.8145   -4209.9404   -4692.8145            0     7580.008    19.888774    19.772932    20.632757    8114.0251    9114.8884    7322.2544    6302.8813    564.26131   -272.53353    788.38112   -3312.9621 
19646000    255.63167   -4720.0605   -4227.0533   -4720.0605            0    7197.8496    20.168772    19.633575     20.36967    8066.0854     8376.316    6779.5939     6437.639   -576.89091   -540.38121   -349.66948   -3380.3301 
19647000    248.32282   -4722.0407   -4243.1292   -4722.0407            0    6867.2671    19.927989    19.987629    20.424083    8135.1828    6662.2653    6859.5318    7080.0041   -583.56606    1634.5052    331.12131    -3428.374 
19648000    248.37634   -4709.4487    -4230.434   -4709.4487            0    9051.5721    20.061872    19.713335    20.454404    8089.4387    6864.3593    11572.014    8718.3433     564.0323   -82.157718   -584.85874   -3162.5643 
19649000    283.18015   -4722.9785   -4176.8418   -4722.9785            0    8985.6205    19.631548    19.980907    20.524997    8051.0557    9511.6981    9096.4553    8348.7081    117.77601    1486.2736    1206.7299   -3121.7826 
19650000    259.00659   -4710.1654   -4210.6494   -4710.1654            0    7557.3639    19.906526    19.772982    20.503872    8070.5571    6515.2032    8222.3813    7934.5071    14.481682   -215.20724    379.79426   -3321.1417 
19651000    276.03497   -4709.6083   -4177.2516   -4709.6083            0     8017.121    19.968474    19.865263    20.465092     8118.072    8074.9862    8215.7251    7760.6516    244.33116     65.26681    21.035021   -3228.0746 
19652000    274.16354   -4721.3765   -4192.6291   -4721.3765            0     9883.149    19.919731    19.804477    20.548123    8106.2317    9353.3151    10423.882    9872.2504    318.28409    337.51059    1049.4466   -3024.2326 
19653000    253.22673   -4704.6514   -4216.2824   -4704.6514            0    9210.7361    19.871713    19.837056    20.484382     8074.867    4542.5798    13460.628    9629.0001    482.58334   -697.91667    1614.0141   -3131.5924 
19654000    251.82219   -4691.1269   -4205.4666   -4691.1269            0     8904.855      19.6843    20.082669    20.371917    8053.2892    7378.5543    8809.2859    10526.725    359.60069    73.903483    724.88298   -3159.6007 
19655000    258.92879    -4703.992   -4204.6261    -4703.992            0    9515.5131    19.884078     19.65175    20.537575    8025.1995    9069.1629    10853.981    8623.3953    1153.4583    790.05577   -732.65056   -3090.9371 
19656000    248.47407   -4716.6238   -4237.4207   -4716.6238            0    7636.7096    19.856294    19.931836    20.397951    8072.9459    7635.9262    6663.0432    8611.1594    439.72244    491.23156   -326.64283   -3338.3078 
19657000    278.69146   -4734.5996   -4197.1197   -4734.5996            0    7824.4444    19.854547    19.787422    20.442676    8031.3203    9383.0239    6492.1364     7598.173    477.90728    642.47506   -1267.9571   -3280.6537 
19658000    248.83365   -4717.7554   -4237.8588   -4717.7554            0    6677.9996    19.651022    20.085523    20.511283    8095.8253    7496.7064    6874.0202    5663.2721    547.71817    2521.6116   -725.08637    -3449.392 
19659000    251.59994   -4715.8706    -4230.639   -4715.8706            0     8567.302    19.871159    19.415232    20.946254    8081.1307    8179.8814     11254.65    6267.3744   -105.15203   -280.39155    489.91844   -3220.9396 
19660000    271.42369   -4721.6987   -4198.2353   -4721.6987            0    10157.051    19.749915     19.82581    20.530081    8038.7186    11004.936    9742.3008    9723.9175   -598.29868    880.91257    810.98662   -3007.4584 
19661000    254.67663   -4717.7903    -4226.625   -4717.7903            0    9335.3035    19.927016    19.867182    20.348562    8055.8665    7524.5535    10061.401    10419.955    170.62122     167.4905   -1137.3224   -3129.8524 
19662000     246.4615   -4686.1505   -4210.8288   -4686.1505            0    6121.6904    19.858374    20.212889     20.42963    8200.3535    7678.3333    4655.9444    6030.7935    157.81384    301.88337   -191.33103   -3478.7129 
19663000    265.69858   -4700.4682   -4188.0462   -4700.4682            0    10850.932    19.698042    19.732415    20.595757    8005.3635    10585.088    9943.3737    12024.335   -674.57001   -1329.1117   -507.54544   -2921.1997 
19664000    247.93631    -4700.734   -4222.5679    -4700.734            0    8532.1462    19.687875      19.9557    20.503493    8055.5215    8760.5827    7462.5548    9373.3013   -34.886675   -372.48125   -1312.5607   -3220.1985 
19665000    262.12618   -4720.3869   -4214.8545   -4720.3869            0    8963.0672    20.014509    19.858968    20.404842    8110.2616    8338.3231    8971.3582    9579.5203   -265.35781   -434.10012   -37.388354   -3154.7043 
19666000    256.09854   -4683.8571   -4189.9496   -4683.8571            0    8815.7675    19.663081    20.051014    20.531577    8094.8765     10108.58    6249.0406    10089.682   -432.13221    200.46017   -362.56643      -3149.2 
19667000     256.8671   -4700.6989   -4205.3091   -4700.6989            0    8919.7072    19.758983    19.577241    20.818548     8053.163    11053.391    8749.7597    6955.9703   -176.68993    -1386.629   -872.63017   -3157.7152 
19668000    273.25589   -4695.3049    -4168.308   -4695.3049            0     9172.481    19.986983    19.697609    20.405993     8033.753    9160.3134    8486.1288    9871.0007    62.237366    157.37712    444.96177    -3093.623 
19669000    276.26869   -4710.5082   -4177.7008   -4710.5082            0    8448.0254    19.924095    19.911217    20.474752       8122.6    10989.414    6382.4659    7972.1965   -56.665283   -1175.3256    317.48357   -3176.9495 
19670000    255.66237   -4681.8378   -4188.7715   -4681.8378            0    11638.296    19.858267    19.701325    20.467377     8007.537    11606.374    12739.176    10569.339   -30.065303    2041.1551    13.618674   -2829.6313 
19671000    270.48552   -4725.4522   -4203.7981   -4725.4522            0    7762.3475    19.878812    19.827291      20.6558    8141.3386    5538.6012    10673.967    7074.4742    92.317155   -659.39759   -659.64906   -3282.1507 
19672000    257.96196   -4716.8456   -4219.3443   -4716.8456            0    8742.4537    19.890166    19.858148    20.426079     8067.931    7787.6719    9706.9347    8732.7545    240.86289    1515.3223    627.99862   -3190.6853 
19673000    256.13746   -4727.0301   -4233.0475   -4727.0301            0    8527.5736    19.770356    19.934886    20.533848    8092.7958     9481.814    8104.4808    7996.4261   -708.16006   -642.81489    989.49703   -3226.5795 
19674000    260.30523   -4704.7541   -4202.7335   -4704.7541            0    9754.7107    19.715052    19.879837    20.617826    8080.7864    11855.731    8746.7355    8661.6661   -36.008375   -964.57648    321.15578   -3053.1411 
19675000    250.66719   -4702.0807    -4218.648   -4702.0807            0    9456.7779     20.17778    19.791003    20.264182    8092.2682    10023.807    7759.8768    10586.649   -601.05511    375.53894    582.89325   -3102.5834 
19676000    245.22886   -4708.2046   -4235.2601   -4708.2046            0    9795.4229    19.759992    19.940835    20.513007    8082.7556    10026.626     9834.034    9525.6086   -13.780137   -556.31172   -102.51493   -3080.5884 
19677000    256.20393   -4691.5714   -4197.4605   -4691.5714            0    11139.528    19.811214    19.802378    20.504427    8044.0743    13166.097    10492.241     9760.247    389.26331   -1017.8139    852.82451   -2890.6315 
19678000     260.2762   -4708.4861   -4206.5216   -4708.4861            0    7478.9426    19.893386    19.989711    20.342784     8089.573    7538.9337    6898.0897    7999.8044   -241.16957    1472.4236    47.279391   -3324.1699 
19679000    263.10847   -4667.2493   -4159.8225   -4667.2493            0    10123.698    20.026023    19.609446    20.375118    8001.2931    10857.459     10110.57    9403.0647     546.2862    1151.6504    176.32423   -2978.4815 
19680000    264.86809   -4705.9469   -4195.1265   -4705.9469            0    8151.8974    20.142767    19.858537    20.344994    8138.1173    6557.8976    9400.8833    8496.9113   -425.55779    753.98269    413.17058   -3227.6097 
19681000    263.74572    -4722.369   -4213.7132    -4722.369            0    8929.0074    19.625447    19.891558     20.69152    8077.5707    10726.835    7666.1311     8394.056   -145.59347    1795.8153    1142.0007   -3161.8486 
19682000    259.29632   -4718.3059   -4218.2311   -4718.3059            0     8318.779    20.106127    19.809968    20.422976    8134.5066    8246.3719    8667.9183    8042.0467   -109.62708    1222.7897    -438.5067   -3231.3458 
19683000    255.10416   -4730.9833   -4238.9934   -4730.9833            0    7729.2978    19.764364    19.953846    20.582826    8117.3539    10219.154    5496.3393       7472.4    639.58903    599.46702   -935.50081   -3323.9738 
19684000    250.31747   -4720.9014   -4238.1431   -4720.9014            0    8499.9136     19.89588    19.862325    20.546494    8119.5316    7895.5985    8154.1553     9449.987   -116.60272   -457.54962   -1078.2226   -3231.6255 
19685000    264.94122   -4690.7352   -4179.7738   -4690.7352            0    11500.898    19.961397     19.98179    20.183638    8050.5354    10954.646    10798.657     12749.39    359.35205    414.41262   -387.90846   -2829.4672 
19686000    267.70565   -4698.4078   -4182.1149   -4698.4078            0    7247.0373    19.897317    20.028739    20.427391    8140.6861    6443.8236    7468.7315    7828.5566    64.327448   -1774.3083   -739.84183   -3321.7209 
19687000    235.47085   -4675.7495   -4221.6242   -4675.7495            0    8200.8064    19.746435    19.840678    20.588795    8066.3325    10760.828    6568.9429    7272.6489    110.54158   -986.09024    -230.7163    -3256.888 
19688000    267.09348   -4710.3118   -4195.1995   -4710.3118            0    8681.5922    19.990373    19.709278    20.514789    8082.7412    6941.5378     9105.559    9997.6797    437.50259    -50.85752   -573.28906   -3171.8265 
19689000    245.54553   -4707.6963   -4234.1411   -4707.6963            0    9921.7389    19.849087    19.897314    20.328209    8028.4944    11733.863    7869.7507    10161.603   -128.86432   -1415.1289   -2032.1978    -3072.431 
19690000    270.67035   -4694.4174   -4172.4069   -4694.4174            0    7780.9838    19.874335    19.901339    20.482903    8101.5185    8009.8236    6244.5859    9088.5419   -141.30237     1058.515    -1154.678   -3253.0654 
19691000    251.37609   -4676.0674   -4191.2675   -4676.0674            0    9649.2497    19.695041    19.687781    20.699419    8026.2339    9526.2958    10246.108    9175.3456    469.67693   -15.686351   -1117.2929   -3061.7805 
19692000    258.35521   -4690.7021   -4192.4423   -4690.7021            0    9894.1936    19.677342    19.994495     20.49875    8064.9977    10597.595    9337.6319     9747.354    1202.7066    -287.8786    -2281.356   -3028.6901 
19693000    263.47185   -4709.6124   -4201.4847   -4709.6124            0    8658.0844    19.915717    19.934381    20.294367    8057.0158    6760.4535    9334.5448    9879.2547    256.28156    299.89251    946.72514   -3184.1312 
19694000    260.66105   -4677.9065   -4175.1998   -4677.9065            0    9719.2034    19.782216    19.735718    20.659733    8065.8949    8066.5005    11066.809      10024.3   -34.613202    36.150456    1946.5126   -3031.9026 
19695000    254.59368   -4697.2866   -4206.2812   -4697.2866            0    8629.3557    19.776025    20.104341    20.449439    8130.3688    9064.2598    8288.8447    8534.9625   -622.10379    -1092.738    64.792721   -3183.0719 
19696000     259.7591   -4701.5278   -4200.5606   -4701.5278            0    11435.491    19.878287    19.805716    20.398607    8031.0071     9838.179    12515.803    11952.491    677.05691   -176.90092    60.478828   -2861.1901 
19697000      253.497   -4693.3055   -4204.4152   -4693.3055            0    9918.3758    19.793268     19.91087    20.354228    8021.6252    11222.752    9674.1246     8858.251    1270.4322   -856.57135    421.25851   -3044.0924 
19698000    272.20874   -4728.9551   -4203.9776   -4728.9551            0    8206.2656    20.161401    19.674998    20.431723    8104.7646    8705.6703     8178.649    7734.4773    196.67673    695.86342   -276.92638   -3233.9997 
19699000    262.91518   -4689.3791    -4182.325   -4689.3791            0     7949.387    19.563306    20.038924     20.63911    8091.1006    8582.6187    8933.3572    6332.1852   -353.67486    201.34264    41.735089   -3244.2942 
19700000    253.19276   -4700.3186   -4212.0151   -4700.3186            0    8953.1019    20.132579    19.555063    20.442853    8048.2253    9052.4693     7997.062    9809.7746   -167.11633    1229.9985   -1362.3247   -3161.1438 
19701000    242.41946   -4665.6816   -4198.1553   -4665.6816            0    10694.767    19.500062    19.995105    20.527465    8003.7772     10377.93    9987.1736    11719.198    308.87637   -436.18848   -863.39998   -2949.7885 
19702000     252.0594   -4682.5345   -4196.4167   -4682.5345            0    8265.2092    19.867704    19.560811    20.697028    8043.4528    7764.8097    10029.943    7000.8747    467.48152   -1174.5554    35.037904   -3226.8622 
19703000    248.47989   -4712.0721   -4232.8577   -4712.0721            0    9599.5084    19.602098    19.766994    20.678639     8012.446    10992.047    9131.8982    8674.5797     -782.784    -524.2089    399.58241   -3111.1234 
19704000    252.50927   -4720.5189   -4233.5335   -4720.5189            0    8064.8897    20.040503    19.991937    20.270262    8121.2498    8702.2036    8309.3574    7183.1083   -175.01145    50.701544    -1472.187   -3278.3272 
19705000    248.58188   -4716.6035   -4237.1924   -4716.6035            0     9987.437    19.786433    20.021536    20.326082    8052.2745    8177.9542    11698.557      10085.8    85.873152    279.82712   -1333.6835   -3064.3261 
19706000    253.32459   -4724.3608   -4235.8031   -4724.3608            0    8826.6996    19.868882    19.676006    20.708222     8095.677    9849.1589    8458.2178    8172.7222   -116.62393   -365.39228    491.42326   -3193.6598 
19707000    260.02356   -4707.1224   -4205.6451   -4707.1224            0    7775.7321    20.077549    19.673564    20.428163     8069.062     8985.336    7641.8436    6700.0167    218.72982     1202.479   -138.23682   -3290.6048 
19708000      274.169   -4722.0536   -4193.2956   -4722.0536            0    8525.0545    19.877022    19.809287    20.430943    8044.6763     7759.368    7988.7928    9827.0027    595.52461    1692.1617     -241.283   -3193.1076 
19709000    258.05834   -4702.3419   -4204.6547   -4702.3419            0    8633.2404    19.787903    19.651347     20.69966    8049.2476    7891.5227    10198.755    7809.4438    687.31469    1732.7034   -96.519953   -3191.1984 
19710000    274.12374   -4712.5078   -4183.8371   -4712.5078            0    8509.8411    19.898502    19.919869    20.469886    8113.7619    10295.802    6630.2975     8603.424   -330.35487   -79.809467    685.14695     -3176.86 
19711000    256.08326   -4703.3526   -4209.4745   -4703.3526            0     9109.401    19.891865    19.811653    20.517434    8085.7303    9815.1245     9816.712    7696.3667   -631.36836   -242.70929    1592.2712   -3135.2749 
19712000     261.4547   -4720.6355   -4216.3981   -4720.6355            0    8425.1616      20.0156    19.721618    20.612518    8136.5857    8203.5427    9753.8807    7318.0613    274.78006    1302.7648    2199.0952   -3216.6368 
19713000    254.94641   -4665.9361   -4174.2505   -4665.9361            0     8705.939    19.883955    19.803733    20.445585    8050.9914    10909.581    6653.9853    8554.2509   -411.91718    254.29686    524.41046   -3152.0387 
19714000    258.05418   -4675.2943   -4177.6151   -4675.2943            0    10227.444     19.74961    19.572528    20.649244    7981.9612    10559.135    11502.364    8620.8321    325.09691     155.6025   -427.14923   -2987.0515 
19715000    264.40051     -4768.82   -4258.9014     -4768.82            0    9243.9229     19.89566    19.988526    20.315263    8079.0737    9406.5148    8348.1587    9977.0952    624.66279    1062.3842   -256.78652   -3169.7361 
19716000    255.44568   -4709.2382   -4216.5898   -4709.2382            0    9007.6586    20.072939    19.684479    20.334792    8034.7918    8146.8341    9088.0411    9788.1005    859.67289    440.65871   -1524.9844   -3161.0796 
19717000    245.10192   -4716.1769   -4243.4772   -4716.1769            0    8357.0974    19.708267      20.1773    20.462062    8136.9356    10157.928    6713.1607    8200.2033    873.79514   -799.86123   -80.582523     -3251.75 
19718000    264.50012   -4704.2487   -4194.1379   -4704.2487            0    8654.0892    19.898599    19.858913    20.588284    8135.7596    7217.9693    10107.171     8637.127   -169.91993   -394.40108    39.075279   -3167.3155 
19719000    257.07412   -4689.7615   -4193.9724   -4689.7615            0    8831.8339    19.754727    19.895543    20.593718    8093.9701    8605.4328     9909.562     7980.507   -874.62306    400.29811   -1209.1676   -3151.4429 
19720000    251.74603   -4718.1481   -4232.6347   -4718.1481            0    8893.8358    19.858486    20.086073    20.268693    8084.7561    7296.4999    8871.1869     10513.82    21.084247    1815.4075     1349.169   -3183.9814 
19721000     257.0587   -4701.8866   -4206.1273   -4701.8866            0     8899.562    19.946202    19.743163    20.482672    8066.0993    8924.2654    8811.2539    8963.1667   -431.10206   -15.827146    510.83603   -3159.2203 
19722000    261.49687   -4730.4333   -4226.1146   -4730.4333            0     8357.462    19.799059    19.653079    20.690873    8051.0772    10007.867    8403.2544    6661.2648   -169.16029   -454.25718    1121.4727   -3244.8089 
19723000    263.24447   -4735.5844   -4227.8953   -4735.5844            0    8318.6757    20.098589    19.958903    20.218765    8110.6727    6266.6047    8624.4539    10064.968   -487.01107    115.32448    780.36925   -3243.9137 
19724000    260.33006   -4706.5944    -4204.526   -4706.5944            0    9738.8859    19.802703     19.82654    20.598952    8087.5415    11586.028    8437.6709    9192.9585   -13.503526    585.99042    750.96076    -3055.839 
19725000     249.5034   -4708.7475   -4227.5592   -4708.7475            0    9559.7353     19.82754     19.82793    20.477613    8050.5498    9554.8884    9693.9124    9430.4053    -172.4799   -203.04078   -1800.5539   -3105.1602 
19726000    265.77737   -4717.9524   -4205.3784   -4717.9524            0    10568.364     19.91891    19.872008    20.351437    8055.6834    11394.253    9769.3091    10541.529   -392.98764   -1007.2188   -574.69482    -2963.766 
19727000    277.82588   -4683.9636    -4148.153   -4683.9636            0    10199.303    19.778505    20.024852    20.491054    8115.7206    8946.6546    10764.366    10886.887   -431.96291    1342.8119     249.6159   -2940.9691 
19728000    259.67188   -4675.7465   -4174.9475   -4675.7465            0    9193.7487    20.051302    19.760592    20.375849    8073.4331    7493.7448    9799.8352    10287.666   -522.00196   -793.81738    769.79624   -3092.4503 
19729000    257.53559   -4688.8695   -4192.1905   -4688.8695            0    9984.7836     19.84319    19.791969    20.461684    8036.0359    10188.757    10367.188    9398.4059    -746.6403   -783.26957   -14.610812   -3022.0004 
19730000    266.76003   -4684.4604   -4169.9912   -4684.4604            0    7855.0977    19.992116    20.005951    20.240521    8095.4249     5678.954    9558.2456    8328.0934    287.85755    1192.1948   -2030.1715   -3242.5912 
19731000    272.28878   -4704.4076   -4179.2757   -4704.4076            0    8408.6476    19.889572     19.86476    20.509107    8103.1804    9778.4016    7350.4575    8097.0837    1361.2622    279.34413   -361.66183   -3185.5706 
19732000    265.80454   -4711.8039   -4199.1775   -4711.8039            0    7488.7835    20.221456    19.538057    20.382368    8052.8279    4943.8147    9706.8837    7815.6521   -751.98172   -97.117023   -1147.2989    -3319.678 
19733000    260.21463    -4726.194   -4224.3482    -4726.194            0    7286.9816    19.685617    19.979185    20.696382    8139.9402    8361.6984    6287.3235    7211.9229    102.72666   -510.62694   -495.75552   -3359.2911 
19734000    262.91879   -4697.2834   -4190.2224   -4697.2834            0    9861.6057    20.042194    19.559092    20.566583    8062.2468    9521.1886    10767.831    9295.7976   -1079.2319    223.61897   -346.22114   -3030.6987 
19735000    259.25082   -4720.5529   -4220.5658   -4720.5529            0    9578.3025    19.573454    20.029273     20.40092    7998.0184    11246.396     7648.072    9840.4392    333.71838    1445.7988    808.36957   -3103.3249 
19736000    247.41339   -4700.5205    -4223.363   -4700.5205            0    8395.3393    19.941208    19.669948    20.588872    8075.8311    6419.2506     11996.11    6770.6575    946.11389    822.77401    397.78382   -3234.5791 
19737000    261.44841   -4703.4675   -4199.2423   -4703.4675            0    9181.1857      19.9546    19.704239    20.498112     8059.657    9597.4595    9167.3735    8778.7242    765.16579    387.66535    979.63417   -3120.0689 
19738000    254.08165   -4682.9202   -4192.9024   -4682.9202            0    8351.7118    19.700774    19.790768    20.822239    8118.4544    7981.0194    9770.6021    7303.5139   -1035.1122    776.37743    920.38436   -3204.0653 
19739000    246.58588    -4678.783   -4203.2213    -4678.783            0    8956.4094    19.833709    19.795529    20.471114    8037.3435    8497.9591     9121.275     9249.994    831.62457    1467.9641   -344.76159   -3153.3832 
19740000    265.93953   -4707.0124   -4194.1257   -4707.0124            0    8295.6932    19.785495    20.018686    20.424062    8089.5545    6011.2285    10656.914    8218.9374    10.959347    806.91675   -116.83051   -3215.4176 
19741000    249.81896   -4710.3874   -4228.5905   -4710.3874            0    8790.8933    19.777862    19.766789    20.647641    8072.0884    8510.2823    9912.7358    7949.6616    768.98482    337.43295   -459.88851   -3193.6991 
19742000    270.46501   -4718.9178   -4197.3033   -4718.9178            0    9657.4592    20.080952     19.97738    20.058834     8046.898    8623.0156    9433.6896    10915.672   -589.99253     300.8624    -1427.291   -3063.9449 
19743000    253.55068   -4678.4935   -4189.4997   -4678.4935            0    8441.6802    19.866693    19.977292    20.476415    8126.7355    9143.0525     8278.336     7903.652    165.08942   -1233.0898    374.62139   -3188.9909 
19744000    259.40906   -4690.9625   -4190.6703   -4690.9625            0     9159.723    20.039014     19.56535    20.508267    8040.6829    7792.5143    11155.648    8531.0063    377.72924    801.86219   -1216.3047   -3116.5543 
19745000     269.5612   -4688.6171   -4168.7457   -4688.6171            0    6298.8501    19.787593    19.872548    20.657517    8123.1532    7588.0854    4651.5389    6656.9261    604.38458    2113.1478    55.335113   -3422.5344 
19746000    269.28848    -4710.593   -4191.2475    -4710.593            0    8044.2666    20.003198    19.685408    20.636421    8126.0265    7523.3568    7665.1134    8944.3294    86.855915    543.05175    233.27887   -3237.9234 
19747000    248.98659   -4681.9445    -4201.753   -4681.9445            0    9611.7251    19.826851     19.95143    20.358884    8053.4458    11014.815    7800.0065    10020.354   -317.89681   -63.709663     63.92664   -3072.8439 
19748000     269.1267   -4711.4033   -4192.3699   -4711.4033            0    7315.4066     20.09912    19.705017    20.577299    8149.7112     7432.372    7266.4674    7247.3802    465.54649    1233.5976    550.34028   -3322.8959 
19749000    256.01113   -4711.1331   -4217.3941   -4711.1331            0     8853.628    19.777836    19.881698    20.555988     8082.963    9482.6891     9868.977    7209.2179   -192.97757   -95.135937   -21.963652   -3173.7132 
19750000    258.09861   -4663.7101   -4165.9453   -4663.7101            0    9505.9062    19.890717    19.749195    20.559538     8076.314    8993.0266    10190.353    9334.3387   -66.033597    2205.3704    79.325849   -3046.2944 
Loop time of 496.489 on 64 procs for 250000 steps with 972 atoms

Performance: 87.011 ns/day, 0.276 hours/ns, 503.535 timesteps/s
99.0% CPU use with 64 MPI tasks x 1 OpenMP threads

MPI task timing breakdown:
Section |  min time  |  avg time  |  max time  |%varavg| %total
---------------------------------------------------------------
Pair    | 20.948     | 29.001     | 38.139     |  79.5 |  5.84
Bond    | 0.27319    | 0.28071    | 0.29718    |   1.0 |  0.06
Kspace  | 205.22     | 220.63     | 237.63     |  54.1 | 44.44
Neigh   | 3.3087     | 4.0496     | 4.7552     |  22.2 |  0.82
Comm    | 91.509     | 106.28     | 120.96     |  72.3 | 21.41
Output  | 1.5434     | 1.5469     | 1.5571     |   0.4 |  0.31
Modify  | 123.02     | 128.03     | 131.45     |  23.4 | 25.79
Other   |            | 6.676      |            |       |  1.34

Nlocal:        15.1875 ave          19 max          12 min
Histogram: 11 9 6 0 5 11 0 11 8 3
Nghost:        2299.00 ave        2316 max        2274 min
Histogram: 1 2 4 6 7 11 11 10 7 5
Neighs:        4858.89 ave        6976 max        3431 min
Histogram: 10 3 8 10 11 8 8 3 2 1

Total # of neighbors = 310969
Ave neighs/atom = 319.92695
Ave special neighs/atom = 2.0000000
Neighbor list builds = 7650
Dangerous builds = 0

unfix		3
unfix		2
unfix		1

write_data	data.final.${pid}
write_data	data.final.0
System init for write_data ...
PPPM initialization ...
  extracting TIP4P info from pair style
  using 12-bit tables for long-range coulomb (../kspace.cpp:340)
  G vector (1/distance) = 0.37201398
  grid = 24 24 24
  stencil order = 5
  estimated absolute RMS force accuracy = 0.0035321665
  estimated relative force accuracy = 1.0637015e-05
  using double precision FFTW3
  3d grid and FFT values/proc = 2197 216
Last active /omp style is kspace_style pppm/tip4p/omp
WARNING: Not all mixed pair coeffs generated from mixing. Use write_data with 'pair ij' option to store all pair coeffs. (../write_data.cpp:312)

write_restart   restart.lmp.${pid}
write_restart   restart.lmp.0
System init for write_restart ...
PPPM initialization ...
  extracting TIP4P info from pair style
  using 12-bit tables for long-range coulomb (../kspace.cpp:340)
  G vector (1/distance) = 0.37201398
  grid = 24 24 24
  stencil order = 5
  estimated absolute RMS force accuracy = 0.0035321665
  estimated relative force accuracy = 1.0637015e-05
  using double precision FFTW3
  3d grid and FFT values/proc = 2197 216
Last active /omp style is kspace_style pppm/tip4p/omp
Total wall time: 0:08:21
