LAMMPS (30 Jul 2021)
  using 1 OpenMP thread(s) per MPI task
package omp 0
using multi-threaded neighbor list subroutines
echo both

include		in.partitions
variable        pid world 0
include		in.temp
variable        temperature equal 248.44
variable	tempDamp equal 100.0
include		in.pressure
variable        pressure equal 4375.0
variable        pressureDamp equal 1000.0 # This is 1 ps
include		in.seed
variable        seed world 745823

units		real
atom_style	full
read_restart	restart.lmp.${pid}
read_restart	restart.lmp.0
Reading restart file ...
  restart file = 30 Jul 2021, LAMMPS = 30 Jul 2021
  restoring atom style full from restart
  orthogonal box = (0.39344428 1.5549567 0.48000110) to (17.814128 22.074221 21.733195)
  4 by 4 by 4 MPI processor grid
  restoring pair style lj/cut/tip4p/long/omp from restart
  restoring bond style harmonic/omp from restart
  restoring angle style harmonic/omp from restart
  864 atoms
  576 bonds
  288 angles
Finding 1-2 1-3 1-4 neighbors ...
  special bond factors lj:    0        0        0       
  special bond factors coul:  0        0        0       
     2 = max # of 1-2 neighbors
     1 = max # of 1-3 neighbors
     1 = max # of 1-4 neighbors
     2 = max # of special neighbors
  special bonds CPU = 1.140 seconds
  read_restart CPU = 1.509 seconds
include 	in.setup
variable	out_freq equal 1000
variable	out_freq2 equal 10000
variable	out_freq3 equal 1000

timestep	2.0

neigh_modify    delay 7 every 1

include		in.tip4p
# This is TIP4P/Ice

# create groups ###
group ox type 2
288 atoms in group ox
group hy type 1
576 atoms in group hy

# set charges - beside manually ###
set group ox charge -1.1794
Setting atom values ...
  288 settings made for charge
set group hy charge 0.5897
Setting atom values ...
  576 settings made for charge

# ### TIP3P Potential Parameters ###
pair_style lj/cut/tip4p/long/omp 2 1 1 1 0.1577 8.5
pair_coeff 1 1*2 0.000 0.000
pair_coeff 2 2 0.21084 3.1668
bond_style  harmonic
bond_coeff  1 450 0.9572
angle_style harmonic
angle_coeff 1 55 104.52
kspace_style pppm/tip4p/omp 1.0e-5
pair_modify tail yes

thermo          ${out_freq}
thermo          1000
thermo_style    custom step temp pe etotal epair emol press lx ly lz vol pxx pyy pzz pxy pxz pyz enthalpy

restart 	${out_freq3} restart.lmp.${pid} restart2.lmp.${pid}
restart 	1000 restart.lmp.${pid} restart2.lmp.${pid}
restart 	1000 restart.lmp.0 restart2.lmp.${pid}
restart 	1000 restart.lmp.0 restart2.lmp.0


include         in.dump
dump            myDump all atom ${out_freq2} dump.water.${pid}
dump            myDump all atom 10000 dump.water.${pid}
dump            myDump all atom 10000 dump.water.0
dump            myDump2 all dcd ${out_freq2} dump.dcd
dump            myDump2 all dcd 10000 dump.dcd
dump_modify     myDump append yes
dump_modify     myDump2 append yes


variable natoms 	equal  "count(all)"                        # NUMBER ATOMS
variable H      	equal  "enthalpy/v_natoms"                 # ENTHALPY-per-atom
variable Vol      	equal  "vol/v_natoms"                 # volume-per-atom
fix AVG all 		ave/time ${out_freq} 1 ${out_freq} v_Vol v_H file vol_enthalpy.dat
fix AVG all 		ave/time 1000 1 ${out_freq} v_Vol v_H file vol_enthalpy.dat
fix AVG all 		ave/time 1000 1 1000 v_Vol v_H file vol_enthalpy.dat


timer           timeout 23:50:00 every 1000
New timer settings: style=normal  mode=nosync  timeout=23:50:00

fix 		1 all shake 1e-6 200 0 b 1 a 1
       0 = # of size 2 clusters
       0 = # of size 3 clusters
       0 = # of size 4 clusters
     288 = # of frozen angles
  find clusters CPU = 0.058 seconds
fix             2 all nph iso ${pressure} ${pressure} ${pressureDamp}
fix             2 all nph iso 4375 ${pressure} ${pressureDamp}
fix             2 all nph iso 4375 4375 ${pressureDamp}
fix             2 all nph iso 4375 4375 1000
fix             3 all temp/csvr ${temperature} ${temperature} ${tempDamp} ${seed}
fix             3 all temp/csvr 248.44 ${temperature} ${tempDamp} ${seed}
fix             3 all temp/csvr 248.44 248.44 ${tempDamp} ${seed}
fix             3 all temp/csvr 248.44 248.44 100 ${seed}
fix             3 all temp/csvr 248.44 248.44 100 745823

run             250000
PPPM initialization ...
  extracting TIP4P info from pair style
  using 12-bit tables for long-range coulomb (../kspace.cpp:340)
  G vector (1/distance) = 0.37368683
  grid = 24 24 25
  stencil order = 5
  estimated absolute RMS force accuracy = 0.0031362267
  estimated relative force accuracy = 9.4446535e-06
  using double precision FFTW3
  3d grid and FFT values/proc = 2730 288
Last active /omp style is kspace_style pppm/tip4p/omp
Neighbor list info ...
  update every 1 steps, delay 7 steps, check yes
  max neighbors/atom: 2000, page size: 100000
  master list distance cutoff = 10.8154
  ghost atom cutoff = 10.8154
  binsize = 5.4077, bins = 4 4 4
  1 neighbor lists, perpetual/occasional/extra = 1 0 0
  (1) pair lj/cut/tip4p/long/omp, perpetual
      attributes: half, newton on, omp
      pair build: half/bin/newton/omp
      stencil: half/bin/3d
      bin: standard
Per MPI rank memory allocation (min/avg/max) = 9.237 | 9.242 | 9.248 Mbytes
Step Temp PotEng TotEng E_pair E_mol Press Lx Ly Lz Volume Pxx Pyy Pzz Pxy Pxz Pyz Enthalpy 
13750000    259.74609   -3918.0308   -3472.8349   -3918.0308            0    3613.1323    17.420684    20.519264    21.253194    7597.1585    3318.8161    3721.4807    3799.1001   -394.52345   -114.67205   -1251.4143   -3072.5115 
13751000     245.0091   -3911.7893   -3491.8521   -3911.7893            0    3489.9649    17.358829    20.446407     21.17773    7516.5203    4529.9742    3154.9295    2784.9909   -1356.1571    281.03019    995.31955   -3109.2796 
13752000    240.19516   -3906.3287   -3494.6424   -3906.3287            0    4110.5652    17.370137    20.459727    21.191526    7531.2195    4175.4727    4203.8322    3952.3908   -812.18188   -458.88776    204.16124    -3043.158 
13753000    239.32773   -3893.4798   -3483.2802   -3893.4798            0    6319.7568    17.240993    20.307613    21.033972    7364.4862    5735.9287    8130.1367    5093.2051   -564.91372    775.97929    384.73988   -2804.5164 
13754000    238.76666   -3961.3846   -3552.1467   -3961.3846            0     3858.585     17.29402    20.370071    21.098664     7432.646     3084.317     4646.894    3844.5439   -1108.2008    496.31001    -344.8504   -3133.8857 
13755000    252.55725   -3897.4996   -3464.6251   -3897.4996            0    2336.8078    17.403041    20.498483    21.231669    7574.0996    2959.8038    2025.3254    2025.2942    986.37616   -1468.2491   -682.43543   -3206.5002 
13756000     249.7339   -3881.9414    -3453.906   -3881.9414            0    6229.7333    17.277053    20.350086    21.077964     7410.791    7473.4898    5245.6984    5970.0118    -80.43263   -1219.8735    427.76268    -2780.604 
13757000    259.71752   -3918.5977   -3473.4507   -3918.5977            0    6380.3199    17.268429    20.339929    21.067443    7399.6998    7661.1799    6359.4368     5120.343    251.39618    284.21801    675.68821   -2784.9056 
13758000    249.92356   -3881.5654    -3453.205   -3881.5654            0    3215.2501    17.340421    20.424726    21.155273    7492.6341    1958.1853     2585.875    5101.6901   -569.55425   -1013.6892   -1223.8253   -3101.8669 
13759000    267.07815   -3895.5747   -3437.8119   -3895.5747            0    4117.9105    17.421257    20.519939    21.253893     7597.908    3806.0475    5469.0225    3078.6616     307.7518   -430.53597   -657.96124   -2981.5157 
13760000    239.56905   -3874.9168   -3464.3036   -3874.9168            0    5768.1477    17.417308    20.515288    21.249075    7592.7424    5973.2092    5035.9025    6295.3315   -690.82302   -85.824881    214.78223    -2825.583 
13761000     259.1761   -3924.9714   -3480.7524   -3924.9714            0    3139.3025    17.451027    20.555005    21.290212    7636.9257    4271.1197     3177.702    1969.0859   -817.69412   -194.05802    644.74497   -3131.1071 
13762000    262.38159   -3886.7258   -3437.0127   -3886.7258            0    5583.4939    17.390444    20.483646    21.216301    7557.6645    4726.0733    7254.9673    4769.4413    530.53161    672.22341   -990.97016   -2821.5956 
13763000    260.25059   -3913.5645   -3467.5039   -3913.5645            0    4698.2003    17.309211    20.387965    21.117197    7452.2503    2793.3545    6446.7366    4854.5097    766.28897   -772.61862    56.772225   -2956.8874 
13764000    236.04747   -3926.1201   -3521.5428   -3926.1201            0     4908.449    17.254054    20.322996    21.049905    7381.2348    2902.5469    6820.5599    5002.2402    1315.9782     -484.562   -312.01578   -2993.1594 
13765000    244.01615   -3920.7149   -3502.4796   -3920.7149            0    3204.0673    17.402644    20.498016    21.231185    7573.5815    3567.5475    2692.6657    3351.9887    1306.5857   -177.02649    1476.4023    -3148.581 
13766000     257.7784   -3929.1994   -3487.3761   -3929.1994            0    4158.5264    17.345703    20.430946    21.161717    7499.4821    5012.9235    3520.8399    3941.8159    361.00377    1760.2651    696.66039   -3032.5487 
13767000    244.06685   -3889.6873   -3471.3651   -3889.6873            0    5332.5636    17.388485    20.481339    21.213911    7555.1109    5288.5152    5398.7156      5310.46   -335.67716   -111.19386    196.45587   -2883.8043 
13768000    242.25753   -3925.2789   -3510.0578   -3925.2789            0    4380.5538    17.354185    20.440938    21.172065    7510.4897    3177.3091    4840.3737    5123.9787   -656.36288   -1393.8406   -792.04651   -3030.2435 
13769000    253.79545   -3908.5574   -3473.5607   -3908.5574            0    4018.4829     17.34128    20.425738    21.156321    7493.7476    3086.4193    4141.8208    4827.2087   -224.53742   -858.18866    1178.4816   -3034.3863 
13770000    244.92189   -3939.1076   -3519.3199   -3939.1076            0    4152.8831    17.289496    20.364742    21.093145    7426.8146     4027.679    3130.0935    5300.8769   -733.16714   -1849.9744    1538.3041   -3069.5108 
13771000     252.1696   -3947.1456   -3514.9355   -3947.1456            0    5109.3616    17.293381    20.369319    21.097884    7431.8224    4848.9128    7858.0096    2621.1625   -952.89636   -313.85328    -96.52362   -2961.1548 
13772000    257.55014   -3901.6783   -3460.2462   -3901.6783            0    5297.6805    17.355388    20.442355    21.173533    7512.0522    6550.0695    5754.7223    3588.2497   -848.08402    2066.6565   -519.53709   -2879.8557 
13773000    240.98812    -3917.377   -3504.3317    -3917.377            0    7440.1889    17.337347    20.421104    21.151523    7488.6494    6633.2518    8286.7509    7400.5639    227.32629    878.92224   -50.477239   -2691.7569 
13774000    270.64794   -3911.2098   -3447.3285   -3911.2098            0    5034.1291    17.338394    20.422338      21.1528    7490.0064    4780.2021    3883.5172    6438.6681      63.1201   -636.88504   -635.39371   -2897.4301 
13775000    242.86397   -3918.0931   -3501.8326   -3918.0931            0    2522.1183    17.414458    20.511931    21.245598    7589.0163    2531.3605    2056.8604    2978.1339    283.48234   -689.11928   -1339.2405   -3222.6895 
13776000    259.19881    -3914.635   -3470.3771    -3914.635            0    5361.1183    17.348932    20.434751    21.165657     7503.672     3465.245    5795.3349     6822.775    -304.6619   -2138.8401    458.18139   -2883.6919 
13777000    259.33663   -3921.0745   -3476.5804   -3921.0745            0    4440.3623    17.382449    20.474229    21.206548    7547.2461    2415.8945    5732.3065     5172.886     717.9221    178.57394    97.235601   -2987.8348 
13778000    254.92693   -3956.9823   -3520.0463   -3956.9823            0    2632.3198      17.3447    20.429766    21.160494     7498.182    2539.4755    2499.4137    2858.0701     355.7078    780.83568    -335.2725   -3232.1934 
13779000    238.16075   -3940.7261   -3532.5267   -3940.7261            0    4906.6214    17.292621    20.368424    21.096958    7430.8429    2038.6779    6986.6191    5694.5673   -204.87537   -400.84348   -1008.6297   -3000.7902 
13780000    258.66951   -3921.4845   -3478.1338   -3921.4845            0    4367.3406    17.329665    20.412056    21.142151    7478.6995    5467.2391    4510.4461    3124.3368   -204.19279   -88.896186   -850.03485   -3001.7916 
13781000    252.38515    -3867.127   -3434.5475    -3867.127            0    4773.5568    17.336698     20.42034    21.150731    7487.8088    3670.2309    5954.0623    4696.3773    -304.6275   -559.01394    1296.6714   -2913.2655 
13782000    258.21382   -3900.4443   -3457.8746   -3900.4443            0      3101.63    17.345153    20.430299    21.161046    7498.7691    2504.3245    2950.0968    3850.4687    678.93052   -795.55755    917.59643   -3118.6746 
13783000    257.07737   -3908.5719   -3467.9501   -3908.5719            0    4373.5547    17.336562     20.42018    21.150565    7487.6324    3726.2764    3503.0036    5891.3841   -255.19781   -2301.1821    900.57129   -2990.3604 
13784000    239.48369   -3934.0579    -3523.591   -3934.0579            0     5280.978    17.276491    20.349424    21.077278    7410.0679     6214.675    3703.8663    5924.3925   -1278.4111   -143.18715    543.56016   -2952.8851 
13785000    233.42204   -3930.7504    -3530.673   -3930.7504            0    3922.1816    17.254011    20.322946    21.049853    7381.1804    2826.4744    3425.6105    5514.4599   -508.27794    -207.9395   -377.96295   -3108.4621 
13786000     242.9527   -3935.8506    -3519.438   -3935.8506            0     3058.834    17.302962    20.380603    21.109573    7444.1811    3514.5188    2005.0713    3656.9119    2129.8826    1838.5452   -118.18899   -3187.3534 
13787000    252.57621   -3905.6705   -3472.7635   -3905.6705            0    4047.6501    17.268595    20.340124    21.067646    7399.9131     6342.607    3037.3646    2762.9787   -832.28372   -34.429292    18.119603   -3035.9405 
13788000    257.20816   -3913.2768   -3472.4308   -3913.2768            0    4809.7558    17.303088    20.380753    21.109727    7444.3446     6790.301    4510.4661    3128.5003   -121.31116    -133.1221    229.34167   -2950.2447 
13789000     250.4037   -3905.5241   -3476.3407   -3905.5241            0    6278.5858    17.295938    20.372331    21.101005    7435.1201    7418.3153    5567.4783    5849.9638   -68.595819   -487.64048   -295.07721   -2795.5311 
13790000    246.11247   -3913.6702   -3491.8419   -3913.6702            0    3289.1239    17.322448    20.403555    21.133346    7469.3597    4235.1727    2591.7903    3040.4088    1389.9906   -1420.5659   -22.679197   -3133.5479 
13791000     247.0352   -3922.9723   -3499.5625   -3922.9723            0    4460.2373    17.292911    20.368765    21.097311    7431.2161    4466.5109    4238.1494    4676.0515   -274.84354   -688.98857    597.97019   -3016.1768 
13792000    238.45636   -3937.8743   -3529.1683   -3937.8743            0    3180.1252    17.361958    20.450094    21.181549    7520.5868    2998.1224     2583.937    3958.3163    364.70882   -337.76173     1151.508    -3180.372 
13793000     255.9508   -3950.5372   -3511.8463   -3950.5372            0    5806.4927    17.324462    20.405927    21.135803    7471.9649    7080.2573    5326.8206    5012.4002   -591.49354    1083.0297    447.11582   -2879.1073 
13794000    238.88985   -3917.7455   -3508.2965   -3917.7455            0    4885.1215    17.277016    20.350042    21.077919    7410.7434    4440.2194     4231.588    5983.5571    1144.5231    206.03744   -671.47548   -2980.3219 
13795000    234.98302    -3966.533   -3563.7802    -3966.533            0    2743.9689    17.320923    20.401759    21.131485    7467.3871    2537.9858     3007.159    2686.7617     1085.005   -265.86758    578.33117   -3264.9505 
13796000    258.57399    -3939.302    -3496.115    -3939.302            0    5618.2793    17.282913    20.356989    21.085114    7418.3353    5939.7629    8558.9174    2356.1576   -190.27859   -1413.3266     1511.159   -2888.2801 
13797000    236.96413   -3923.0177   -3516.8693   -3923.0177            0     5673.681    17.198556    20.257627    20.982198    7310.2386    5575.4529    7197.8376    4247.7524   -720.86411    197.40955    404.67303   -2911.9849 
13798000    256.49735   -3941.4424   -3501.8147   -3941.4424            0     3581.346    17.290906    20.366403    21.094865    7428.6317    5265.2256    4768.0246    710.78765    231.77639   -108.64793   -885.27242   -3113.8154 
13799000    244.00296   -3899.5619   -3481.3492   -3899.5619            0    2014.7662    17.374242    20.464562    21.196535    7536.5606    1717.7261    2669.7143    1656.8583   -126.29244    171.12528    164.49756   -3259.9002 
13800000    242.75195    -3929.033   -3512.9645    -3929.033            0    2333.8563    17.275294    20.348014    21.075818    7408.5275     2634.244    1843.9999    2523.3251    212.41722    10.636302    60.763865   -3260.8012 
13801000    239.63294   -3907.9208   -3497.1982   -3907.9208            0    2572.1859     17.44008    20.542111    21.276857    7622.5631    2636.6767    3341.2317    1738.6492   -388.81605    1028.2016    350.20876   -3211.2553 
13802000    245.98344   -3927.7928   -3506.1856   -3927.7928            0    3621.3245    17.362306    20.450504    21.181973     7521.039    2913.2312    4230.0613    3720.6809   -532.37556   -142.24838   -16.019786   -3108.9747 
13803000    241.59338   -3932.7824   -3518.6996   -3932.7824            0    2901.9327    17.332189    20.415029     21.14523     7481.968    4150.1569    2936.5888    1619.0522   -776.26336     631.0351   -70.458433   -3202.0499 
13804000    249.92002   -3890.7581   -3462.4037   -3890.7581            0    2608.1386     17.36378     20.45224    21.183772    7522.9548    2338.4313    1816.4021    3669.5825   -100.30155    85.524757   -1380.2813   -3176.2529 
13805000    254.32434   -3931.5018   -3495.5986   -3931.5018            0    3554.7034    17.358015    20.445449    21.176738    7515.4632    1598.1948    2646.2347    6419.6807   -493.36007    660.74771    -344.9019   -3105.9842 
13806000    255.05482   -3899.7976   -3462.6423   -3899.7976            0    5594.8196    17.443507    20.546147    21.281037    7627.0565    4691.2645    6332.7793     5760.415   -33.714891    947.74704    225.52614   -2840.3149 
13807000    251.17478   -3923.3863   -3492.8813   -3923.3863            0    3689.8849    17.504145    20.617571    21.355016    7706.8746    4806.6123    4076.1566    2186.8857   -620.02111    1263.3702   -597.56186   -3078.1498 
13808000    245.99624   -3910.1163   -3488.4872   -3910.1163            0    3595.0092    17.284874    20.359298    21.087506    7420.8602    2448.5316     2841.097    5495.3988    987.30076    290.04949    1522.0526    -3099.415 
13809000    256.80116   -3911.2783   -3471.1299   -3911.2783            0    2138.3389    17.396769    20.491096    21.224017    7565.9136    3571.2758    2005.8592    837.88178   -1130.1067   -1287.4909   -58.920845   -3235.1833 
13810000    246.73045   -3950.4796   -3527.5921   -3950.4796            0    3883.4163    17.396207    20.490434    21.223332    7565.1803    2618.9628    4552.8649    4478.4211   -549.80689   -235.07925     93.19538   -3099.1332 
13811000    245.37454   -3902.2523   -3481.6887   -3902.2523            0    3976.1101    17.320275    20.400996    21.130695    7466.5489    2525.5948    4342.1178    5060.6176    807.76686   -661.17752    405.54635   -3048.7223 
13812000    250.87793   -3902.4496   -3472.4534   -3902.4496            0    2912.7967    17.430229    20.530507    21.264838    7609.6529    3098.6581    1434.2172    4205.5147    735.32758    123.58369    585.15059   -3149.1942 
13813000     252.0554   -3878.8135   -3446.7992   -3878.8135            0    4398.6881    17.397697    20.492189     21.22515    7567.1248    4479.2875    5223.0578    3493.7189    151.84607    1431.2445   -31.812464   -2961.3654 
13814000    248.50924   -3906.5294   -3480.5931   -3906.5294            0    5435.1481    17.393645    20.487416    21.220206    7561.8379    5765.7105    6894.9133    3644.8203    -6.904056    327.25404   -1042.3798    -2881.196 
13815000    250.89404   -3946.8623   -3516.8385   -3946.8623            0    5332.2197    17.358822    20.446399    21.177722    7516.5111    3847.6675    6339.4423    5809.5493    1622.6765    350.77856     422.6742   -2932.3174 
13816000    250.52305   -3878.2606   -3448.8727   -3878.2606            0    2348.2747    17.448289    20.551779    21.286871    7633.3309    1755.3005    4293.1711    996.35259    111.30023   -148.54907    388.81795   -3187.4526 
13817000     237.6672   -3923.8889   -3516.5355   -3923.8889            0    5689.0407    17.329196    20.411504    21.141579    7478.0927    4569.0337    5018.3835    7479.7048   -577.60181   -799.68565   -1021.0868   -2896.0869 
13818000    244.70506   -3911.2477   -3491.8316   -3911.2477            0    4730.8195    17.350283    20.436341    21.167304    7505.4243    6162.7465    4168.4744    3861.2377   -619.50946   -236.17577    923.59487   -2974.0012 
13819000    232.03649   -3913.8288   -3516.1262   -3913.8288            0    3068.2268    17.420059    20.518529    21.252431    7596.3411    4542.8078    428.17032    4233.7022    1331.8488    654.59031    229.28938   -3176.2132 
13820000    253.65501   -3922.4205   -3487.6645   -3922.4205            0     5812.742     17.36666    20.455631    21.187284    7526.6978    5255.8183    6075.3431    6107.0647     173.9567    297.03822   -451.41909   -2849.6047 
13821000     244.9422   -3899.0389   -3479.2163   -3899.0389            0    6205.3059    17.295419    20.371719    21.100371      7434.45    5395.4314    7462.8432    5757.6432   -511.27691   -1017.1841   -567.42076   -2806.4133 
13822000     279.0505   -3900.4555   -3422.1725   -3900.4555            0    5094.3463    17.319186    20.399714    21.129367    7465.1413    5553.4156    4873.5711    4856.0524    725.33787   -566.81116     487.0751   -2867.5438 
13823000    246.56013   -3931.3875   -3508.7919   -3931.3875            0    4110.2714    17.338798    20.422813    21.153293    7490.5297    4229.4237    4697.5317    3403.8589   -1230.8987   -177.47798    236.54777   -3059.7789 
13824000    243.91012   -3920.2215   -3502.1679   -3920.2215            0    3899.8554    17.318361    20.398742     21.12836    7464.0743    5719.5578    1395.8505     4584.158    69.231843    1489.2263   -204.24276   -3077.6458 
13825000    249.69874   -3907.2611    -3479.286   -3907.2611            0    6599.8986     17.30865    20.387303    21.116512    7451.5248    6432.3023    6703.9113    6663.4823    1424.8468    331.49225    1969.7037   -2762.0563 
13826000    246.59668   -3917.2971   -3494.6388   -3917.2971            0    5420.9715    17.373526    20.463718    21.195661    7535.6285    6736.5788    4494.8219    5031.5139   -850.28075    1073.4148    1547.6084   -2898.8773 
13827000    252.35549   -3950.3613   -3517.8327   -3950.3613            0    6125.8519    17.280994    20.354728    21.082772    7415.8635    6838.7382    4178.8864    7359.9311    1019.1768   -580.70369   -807.49026   -2855.3049 
13828000    256.97704   -3876.9695   -3436.5196   -3876.9695            0    2925.8783    17.396468    20.490741     21.22365    7565.5204    1945.8298    3682.5187    3149.2865    531.79045   -761.46164   -1733.6761   -3113.6918 
13829000    247.16431   -3903.9691   -3480.3379   -3903.9691            0    4025.8021    17.316229     20.39623    21.125759    7461.3179    4647.2534    3873.8889    3556.2641    959.42555   -1486.2729    199.47791   -3042.2676 
13830000    263.22788   -3881.4895   -3430.3259   -3881.4895            0    5556.7024    17.285733     20.36031    21.088554    7421.9663    5717.4808    6692.7609    4259.8653   -434.53455   -189.98008    93.626348   -2828.8586 
13831000    243.96254   -3884.1423   -3465.9989   -3884.1423            0    2462.2166    17.368882    20.458248    21.189995    7529.5871    2068.6122    2634.9025     2683.135    57.447018   -379.30574   -161.41023   -3195.6197 
13832000    240.50412   -3896.3827   -3484.1669   -3896.3827            0    3915.7513    17.227073    20.291216    21.016989    7346.6619    2211.9524    4647.0314    4888.2701    596.06122    1467.3242   -244.28469   -3064.6195 
13833000    232.53844   -3884.9217   -3486.3587   -3884.9217            0    3165.1031    17.266799    20.338008    21.065454    7397.6037    3729.2244    2479.5259    3286.5591    1157.7031    -1662.123    635.18137    -3144.887 
13834000    257.42665   -3883.1918   -3441.9713   -3883.1918            0    4877.3048     17.33823    20.422144      21.1526    7489.7935    7153.0355     3000.055     4478.824    1632.7884    1248.6074    150.73608   -2909.2186 
13835000    248.94577   -3901.3159   -3474.6314   -3901.3159            0    1653.3611    17.364489    20.453075    21.184636    7523.8758    2339.6095    1362.5789    1257.8949    122.35774    1270.4441   -190.52071   -3293.2114 
13836000    266.99507   -3943.5201   -3485.8997   -3943.5201            0    4905.4418    17.234915    20.300454    21.026557    7356.7002    6232.6937     2697.904    5785.7277   -316.26085   -1108.5878    1401.1521   -2959.5952 
13837000    249.06369   -3928.1104   -3501.2237   -3928.1104            0    4472.9428    17.260228    20.330269    21.057438    7389.1618    5114.8292    2048.3346    6255.6647   -305.87893   -986.90798   -1391.2468   -3019.2044 
13838000    250.79866   -3887.1133    -3457.253   -3887.1133            0    4714.2697    17.340109    20.424357    21.154892    7492.2287    3638.2364    5616.7213    4887.8513     127.6124    799.02785    532.23792   -2942.1414 
13839000    233.53419   -3929.2578   -3528.9881   -3929.2578            0    5686.7015    17.286752    20.361511    21.089797    7423.2796    6477.4207      5301.44    5281.2439    210.86642   -682.22118    441.28837   -2913.3406 
13840000    239.15687   -3889.3264   -3479.4197   -3889.3264            0    4520.7764    17.255006    20.324118    21.051067    7382.4575    2867.7107    3497.5949    7197.0235    164.93588    472.15106    566.09886   -2992.6877 
13841000    228.38228   -3899.1283   -3507.6889   -3899.1283            0    3056.2553    17.340294    20.424576    21.155119    7492.4697    3193.1302    3658.3063    2317.3293    99.659596    -1252.579   -1309.7375   -3173.7319 
13842000    246.87115    -3901.297   -3478.1683    -3901.297            0    5881.3325    17.279127    20.352529    21.080494    7413.4602    5787.4263    5011.8767    6844.6944   -1960.6079    1398.6988   -888.37307    -2842.292 
13843000    247.68021   -3941.1633   -3516.6479   -3941.1633            0    3094.2468    17.337131     20.42085    21.151259    7488.3698    3949.8791    1620.4755    3712.3859   -40.228108   -407.25774   -208.23933   -3178.7246 
13844000    246.76119   -3932.6495   -3509.7093   -3932.6495            0     6831.875    17.267108    20.338373    21.065832    7398.0015    6996.5241     6886.607     6612.494    270.26651    770.11895   -678.10539   -2772.6028 
13845000    231.43613   -3931.2604   -3534.5868   -3931.2604            0    4686.6246    17.246857     20.31452    21.041126    7372.0028    4442.0396    4651.3369    4966.4974   -492.52017   -488.79059     84.10486   -3030.7133 
13846000     256.6245   -3933.3627   -3493.5171   -3933.3627            0    5302.1378    17.292017    20.367712     21.09622    7430.0639    6398.1956    3107.3673    6400.8507   -434.79992    1329.7068    576.58097   -2918.9782 
13847000    248.62369   -3923.1751   -3497.0426   -3923.1751            0    3559.5491     17.28502     20.35947    21.087684    7421.0478    1905.0096     3490.442    5283.1957    1429.4635    271.50997   -702.52971   -3111.7984 
13848000    239.46007   -3931.4331   -3521.0067   -3931.4331            0    5649.4566    17.245352    20.312747     21.03929    7370.0733    4890.5428    5170.9714    6886.8556     2007.661    315.42789   -783.41578   -2913.7751 
13849000    237.27969   -3905.3446   -3498.6553   -3905.3446            0    2576.5809    17.364351    20.452912    21.184468    7523.6969    915.28533    2530.4917    4283.9658   -664.22481    1281.6332    403.73209   -3215.9389 
13850000      248.461   -3934.6085   -3508.7549   -3934.6085            0    7707.3483    17.162132    20.214724    20.937761    7263.8905    7965.4828    8253.2479    6903.3141    443.85894    851.30932   -364.15818   -2692.2662 
13851000    241.16627   -3938.1105   -3524.7598   -3938.1105            0    4155.5909    17.262777    20.333271    21.060547    7392.4357    5907.4207    2011.8824    4547.4696    587.50526    -618.0853    1027.5812    -3076.741 
13852000    255.32019   -3909.1787   -3471.5686   -3909.1787            0    4649.9691    17.294147     20.37022    21.098818    7432.8094    6450.3224    3113.0433    4386.5415    342.08805   -77.624434    1276.3853   -2967.5124 
13853000    248.94688   -3908.2831   -3481.5967   -3908.2831            0    5020.5772    17.260253    20.330298    21.057468    7389.1939    4816.8493    3669.6585    6575.2238    129.30456    181.26011    192.63392   -2940.5602 
13854000    256.11461   -3917.6951   -3478.7235   -3917.6951            0    5107.3129    17.278389     20.35166    21.079594    7412.5102    6325.2822    2832.4651    6164.1916     1732.187   -271.68126    424.38531   -2926.6032 
13855000    248.15675   -3869.1401   -3443.8079   -3869.1401            0    4489.6415    17.321784    20.402774    21.132536    7468.5014     5854.866    2939.4458    4674.6128    756.96782   -871.15908    140.90798   -2954.7942 
13856000    240.65118   -3897.3669    -3484.899   -3897.3669            0    2605.2483    17.293185    20.369088    21.097645    7431.5695    5632.7769    1767.2537    415.71427    151.79544    668.50296    305.04642   -3202.5374 
13857000    241.76604    -3909.382   -3495.0033    -3909.382            0    2811.6605    17.271996     20.34413    21.071795    7404.2857    3849.6808    3242.3271    1342.9735   -759.80124   -442.31312   -801.12578   -3191.3892 
13858000    233.49809   -3881.4288   -3481.2211   -3881.4288            0    2370.8894     17.32338    20.404653    21.134483    7470.5656    3102.5931    1509.9881    2500.0871   -523.72477    1443.7298    2234.8592   -3222.9114 
13859000    243.04522   -3911.2838   -3494.7126   -3911.2838            0     4612.902    17.336688    20.420328    21.150718    7487.7952    3568.2091    6205.2822    4065.2147   -643.26277   -997.52518     1940.791   -2990.9753 
13860000    244.77435   -3925.8656   -3506.3308   -3925.8656            0    4066.6132    17.282676     20.35671    21.084825    7418.0299    3809.4873    3445.0092    4945.3431    50.348539   -71.599749    780.24288   -3066.3868 
13861000    242.13436   -3908.8402   -3493.8302   -3908.8402            0     3761.593    17.292972    20.368837    21.097385    7431.2949     3978.485     2726.478     4579.816   -1384.4937    527.45994    1106.8559    -3086.157 
13862000    235.07199   -3885.1774   -3482.2721   -3885.1774            0    3526.9522    17.290363    20.365764    21.094203    7427.9322    3188.4897    4426.9599    2965.4069   -807.90533   -645.38046    939.59585   -3100.2017 
13863000    242.69671   -3918.3269   -3502.3531   -3918.3269            0    4154.3542    17.229852    20.294489    21.020379    7350.2176     4107.437    5179.9169    3175.7086    120.34599   -2240.2243    358.35095   -3057.0255 
13864000    245.67907   -3881.0653   -3459.9798   -3881.0653            0    4852.6018    17.255496    20.324695    21.051665     7383.086    5375.6673    3418.0143    5764.1236   -1022.9792   -1507.2075    695.35413   -2937.4771 
13865000    262.05915    -3940.648   -3491.4875    -3940.648            0    5036.4669    17.246415    20.313998    21.040585    7371.4352    2907.3311    5457.9189    6744.1506     776.2186    436.73427    5.7366309   -2950.0431 
13866000     252.6459   -3952.7627   -3519.7363   -3952.7627            0    4675.2427    17.189639    20.247124    20.971319    7298.8739    3569.0577    4179.6222    6277.0482     279.0616   -321.91311   -1009.5729   -3022.0727 
13867000    239.72906   -3944.7966   -3533.9092   -3944.7966            0    3526.9462    17.263493    20.334114    21.061421    7393.3558    3945.4378    3847.5415    2787.8592   -514.80814    1798.0347    1625.4441    -3153.618 
13868000    236.15357   -3919.4199   -3514.6608   -3919.4199            0    3614.3935    17.227146    20.291302    21.017078    7346.7554    3243.3634    3159.8839    4439.9333    1362.2683    650.52415    1723.0416    -3127.397 
13869000    246.94581   -3899.9308   -3476.6742   -3899.9308            0    6851.1237    17.125916    20.172067    20.893578    7218.0025    6495.5731    8567.0629     5490.735    128.00387    1167.8773   -744.14999   -2755.4758 
13870000    248.41934   -3939.0671   -3513.2849   -3939.0671            0    4280.3479    17.198909    20.258043    20.982629    7310.6886    4253.7118    3784.7224    4802.6096    -316.6351   -1789.0514   -124.29791   -3056.9189 
13871000    245.81551   -3924.3161   -3502.9968   -3924.3161            0    4969.2127    17.196038    20.254662    20.979127    7307.0287    4192.0391     4898.312     5817.287   -629.36567   -197.36348     832.3938     -2973.45 
13872000    255.86916   -3895.1148   -3456.5638   -3895.1148            0    3863.2671    17.238884    20.305128    21.031398    7361.7833     5954.601    3691.7697    1943.4305   -351.79981     -1271.36    476.21501   -3041.7877 
13873000    248.99691   -3948.3874   -3521.6153   -3948.3874            0    3931.0073    17.248517    20.316475    21.043151    7374.1319    3658.2592     4418.464    3716.2987   -672.84864    373.40294    143.26695   -3098.8584 
13874000    246.29876   -3891.7351   -3469.5875   -3891.7351            0    4804.2539    17.205671    20.266008    20.990879    7319.3152    4346.7963      5529.24    4536.7255   -338.98057    -285.1789    927.72733   -2956.7588 
13875000     259.4173   -3906.6598   -3462.0274   -3906.6598            0    4545.1132    17.362605    20.450856    21.182338    7521.4274    4810.0174    5087.6566    3737.6655     1395.682   -115.19156    202.61617   -2963.4634 
13876000    254.20535   -3930.6367   -3494.9374   -3930.6367            0    4521.3104    17.360098    20.447902    21.179279    7518.1694    3916.5777    4168.8679    5478.4857    1447.4231     101.8588    -914.9023   -2999.1993 
13877000    250.11275   -3911.6753   -3482.9906   -3911.6753            0     5985.541    17.310812    20.389849     21.11915    7454.3173    6626.1376    4829.8691    6500.6163    718.91776   -1304.7295   -245.44997   -2832.2811 
13878000    247.54802   -3921.2612   -3496.9724   -3921.2612            0    3768.2281    17.286359    20.361047    21.089318    7422.7728    2369.5626    4487.4606    4447.6609    349.41013   -131.54801    818.14534   -3089.0484 
13879000    257.60436   -3923.9254   -3482.4004   -3923.9254            0    4576.7522    17.378271    20.469308     21.20145    7541.8046    3781.1372    5837.8109    4111.3084    -825.0092    568.47311    2126.4882   -2979.0057 
13880000    237.90305   -3926.6212   -3518.8635   -3926.6212            0    4711.6792    17.312289     20.39159    21.120953    7456.2267    3905.5128    4678.7141    5550.8106   -1203.1073    743.05617   -754.10699   -3006.5088 
13881000    243.13054   -3936.9863   -3520.2688   -3936.9863            0     3826.793    17.365215     20.45393    21.185522    7524.8195    3652.0636    3557.4246    4270.8908   -246.42602   -160.74126   -821.22524   -3100.3098 
13882000    255.89225   -3907.9155   -3469.3249   -3907.9155            0    4700.3019    17.376147    20.466806    21.198858    7539.0395    6302.3809    4348.0049    3450.5199    31.191374   -572.60365   -1008.3767   -2952.5307 
13883000    234.60731   -3902.4768   -3500.3679   -3902.4768            0    4948.5235    17.390851    20.484126    21.216798    7558.1956    4362.8526    4473.8941     6008.824   -846.37714    891.69069    148.79081   -2954.8994 
13884000    240.52121   -3949.5278   -3537.2826   -3949.5278            0    4851.8269    17.288526      20.3636    21.091961    7425.5644    5261.7305    5553.1374    3740.6127    194.77298   -710.50827   -230.39299   -3011.8577 
13885000    238.43177    -3956.295   -3547.6311    -3956.295            0    3876.6844    17.317578    20.397819    21.127404    7463.0614    4636.1269    3180.6323     3813.294    818.61376   -102.74878    18.653271   -3125.6885 
13886000     240.3844   -3929.5914   -3517.5807   -3929.5914            0    3866.1201    17.393971      20.4878    21.220603     7562.263    3303.3081    4734.9737    3560.0786    -1291.985   -619.15756    315.20765   -3091.1947 
13887000    242.88684   -3939.5881   -3523.2883   -3939.5881            0    3073.8413    17.383097    20.474992    21.207338    7548.0896    3635.0999    1201.0873    4385.3366    580.16193   -493.45099    46.832257   -3184.9164 
13888000    251.68582   -3912.8952   -3481.5143   -3912.8952            0    4261.9678      17.3464    20.431768    21.162568     7500.387    4622.7765    3526.9416    4636.1854    798.37705    57.850388    1303.9268    -3015.317 
13889000    247.83372   -3975.8707   -3551.0922   -3975.8707            0    2979.6895    17.332252    20.415103    21.145307    7482.0493     3421.087    2334.4926    3183.4889   -530.82893    -130.7021    784.55802   -3225.9544 
13890000    251.67996   -3924.9851   -3493.6143   -3924.9851            0    3543.0653    17.258677    20.328442    21.055546    7387.1705    3328.7778    2826.0125    4474.4057   -339.67432   -590.75991    1359.1998   -3111.9046 
13891000    242.62913   -3935.2596   -3519.4015   -3935.2596            0     5891.311    17.240674    20.307236    21.033582    7364.0766    5837.4991    5916.5965    5919.8373    446.78635    68.147076   -472.97202   -2886.6895 
13892000    241.51163   -3950.9141   -3536.9715   -3950.9141            0    2507.6392    17.358808    20.446383    21.177705    7516.4932    2913.2236    1481.5928    3128.1011   -496.16249    29.583592   -504.35577   -3262.0832 
13893000    235.17448   -3923.0375   -3519.9565   -3923.0375            0    3672.7145    17.301005    20.378299    21.107186    7441.6564    4416.7543    3591.1796    3010.2097    212.34735    152.22404    445.29914   -3121.3607 
13894000    240.92462    -3926.377   -3513.4404    -3926.377            0    5859.9245    17.268274    20.339746    21.067254    7399.5005    6475.2014    4534.9434    6569.6286    -109.4036   -858.76796    340.32179   -2881.0718 
13895000    257.58695   -3918.0852   -3476.5899   -3918.0852            0    6559.7581    17.215838    20.277983    21.003282    7332.2974    6055.0146    6316.4005    7307.8591   -450.91415   -121.60313   -1994.6838   -2775.1285 
13896000    247.08398   -3943.4839   -3519.9904   -3943.4839            0    4882.0749    17.290751    20.366221    21.094676    7428.4324     5678.316    3784.9361    5182.9728   -1607.3355    1066.5084   -1810.8379   -2991.0856 
13897000    243.42814   -3950.5857   -3533.3582   -3950.5857            0    4653.1969    17.308585    20.387227    21.116434    7451.4417    4983.2971    3408.8534    5567.4401   -73.282627   -1441.2699   -804.42257   -3027.6877 
13898000    237.12536   -3952.5328   -3546.1081   -3952.5328            0    5717.3928     17.28795    20.362921    21.091258    7424.8221    6877.8481    4760.9801    5513.3504   -1292.4857   -452.11593   -578.02584   -2927.0092 
13899000    255.97437   -3917.9644   -3479.2331   -3917.9644            0    4917.7688     17.43039    20.530697    21.265035    7609.8643    5655.4651    4999.7577    4098.0836   -132.06477    926.16725   -1607.3766    -2933.449 
13900000    242.58935   -3954.4196   -3538.6298   -3954.4196            0    4243.3775    17.306346    20.384589    21.113702    7448.5498    4766.2087    3779.8448    4184.0791    -130.8571    102.14717   -1219.3549    -3077.674 
13901000    254.25943   -3944.1416   -3508.3496   -3944.1416            0    3136.5583    17.372536    20.462553    21.194454    7534.3411    2211.9096    3888.7853    3308.9799   -1734.5893    592.12067   -310.27538   -3163.7026 
13902000    230.79534   -3948.1295   -3552.5542   -3948.1295            0    3675.9831    17.326079    20.407833    21.137776    7474.0583    3255.2997    5158.0859    2614.5637   -490.89901   -796.17862    146.42168   -3151.8666 
13903000    256.01158   -3964.9603   -3526.1652   -3964.9603            0    3470.4716    17.362741    20.451016    21.182504    7521.6041    4771.1973     3338.354    2301.8637    1080.6966   -557.02331   -798.42765   -3145.4722 
13904000    235.88638    -3960.329   -3556.0278    -3960.329            0    5082.4704    17.390178    20.483333    21.215977    7557.3176      7051.92     3280.194    4915.2972    1778.2891   -990.96737     -1679.23   -2995.8596 
13905000    246.89809   -3947.2522   -3524.0773   -3947.2522            0    3867.8395    17.332722    20.415657    21.145881    7482.6585     4234.403    2880.5421    4488.5734   -230.95034   -33.604109   -601.62899    -3101.992 
13906000    236.67482   -3967.1936    -3561.541   -3967.1936            0    4834.2971    17.245455    20.312868    21.039415     7370.205    5982.2908    4975.0956    3545.5048   -227.96844   -1923.7252   -174.18528   -3041.9175 
13907000    246.34599   -3951.3356    -3529.107   -3951.3356            0    5388.9739    17.269443    20.341123     21.06868    7401.0033    5969.1764    5076.7935    5120.9517   -1496.3957    245.45606    666.38062   -2947.4425 
13908000    246.13524   -3938.6655   -3516.7981   -3938.6655            0     7093.804    17.192065    20.249981    20.974279     7301.964    4994.5719    6258.9838    10027.856    51.582717    851.32787   -546.13905   -2761.3672 
13909000     247.2097    -3932.373   -3508.6641    -3932.373            0    4162.3879    17.324295    20.405731    21.135599    7471.7495    4697.7597    3577.8935    4211.5105   -828.25112    1755.4135   -397.15414   -3055.0978 
13910000     256.0435   -3920.1497      -3481.3   -3920.1497            0     3678.264    17.376792    20.467566    21.199646    7539.8797    4471.4741    1437.2431    5126.0748    -1333.963    937.99436   -350.59734   -3076.8328 
13911000    227.19175   -3947.5837   -3558.1848   -3947.5837            0    4118.4824    17.344001    20.428942    21.159641    7497.2753    2767.1196    3740.4333    5847.8942    1022.7179    -806.3629   -803.56781   -3107.8696 
13912000    247.48335   -3954.2285   -3530.0505   -3954.2285            0    4359.9447    17.319014    20.399511    21.129157    7464.9186    5251.0251    4410.3332    3418.4759   -691.54084    964.77721   -740.78814   -3055.3913 
13913000    253.22518   -3945.6617   -3511.6424   -3945.6617            0    4633.9528    17.332264    20.415118    21.145322    7482.0656    4302.4192     4941.975    4657.4641    33.431214    1544.8711    -393.7295   -3005.9936 
13914000    252.35693   -3943.3103   -3510.7792   -3943.3103            0    6274.6742    17.298663     20.37554    21.104329    7438.6347    5474.2882    6187.2046    7162.5298   -205.81897   -203.09306   -1599.5394    -2830.072 
13915000    252.29804   -3943.0991   -3510.6689   -3943.0991            0    3163.7533    17.413219    20.510472    21.244087    7587.3965    3892.3345    3263.5902    2335.3353   -199.44095    689.98982    179.41079   -3160.5857 
13916000    252.38186   -3919.5688   -3486.9949   -3919.5688            0    3825.9816    17.327864    20.409935    21.139953    7476.3678    2553.7521    4943.6684    3980.5243    1326.6922   -1163.8899    -933.7953   -3069.8284 
13917000    247.17617   -3963.9254   -3540.2739   -3963.9254            0    3855.6153    17.317601    20.397847    21.127433    7463.0922    4164.2405    4001.2725     3401.333   -210.28371    250.53651   -849.91489   -3120.6228 
13918000    269.50122   -3927.9629    -3466.047   -3927.9629            0    5786.2702    17.278335    20.351597    21.079529    7412.4414     7499.953    5150.7806    4708.0769    -634.8447   -972.51441    -1358.097   -2840.5347 
13919000    253.47446   -3928.0249   -3493.5783   -3928.0249            0    3767.0027    17.379596    20.470869    21.203067    7543.5305    2635.1996    3964.4103    4701.3981   -423.71497   -1372.6827   -990.28567   -3079.1528 
13920000    243.16042   -3920.8108   -3504.0421   -3920.8108            0    4135.2037    17.380688    20.472154    21.204398    7544.9515    5308.8607    2629.9481    4466.8022    992.20065    -1183.783   -273.99044   -3049.0234 
13921000    254.74941   -3962.0043   -3525.3725   -3962.0043            0    3605.1873    17.460821     20.56654    21.302161    7649.7907    3770.8285    2750.9406    4293.7926    1050.1067    -388.9901   -664.38209   -3123.1622 
13922000    259.66373    -3960.573   -3515.5183    -3960.573            0    4522.9419    17.417361     20.51535    21.249139    7592.8115    4866.8155    4872.6836    3829.3264    683.53208   -1097.9993   -204.64577   -3014.6777 
13923000    241.79277   -3935.9111   -3521.4865   -3935.9111            0    4710.9234    17.312498    20.391836    21.121207    7456.4963    4595.1183    5906.6165    3631.0353    790.31813    602.89737   -1665.6932   -3009.1955 
13924000    239.65334   -3950.7614   -3540.0038   -3950.7614            0    4720.6623    17.373125    20.463247    21.195172    7535.1074    6748.5463    3622.4778    3790.9629    1401.7437    926.99122    1006.0579   -3021.2417 
13925000    256.52471   -3945.3165   -3505.6419   -3945.3165            0    3643.9952    17.372486    20.462494    21.194393    7534.2758    5988.6945    3071.5744    1871.7167    259.78959    580.29806    505.33277   -3105.2409 
13926000    239.46049   -3935.6708   -3525.2437   -3935.6708            0    5299.1009    17.323746    20.405085     21.13493    7471.0396    4153.4101    4541.5107     7202.382    417.81015   -432.20153    1556.0126   -2947.8672 
13927000    248.50101    -3901.095   -3475.1728    -3901.095            0    4096.6262    17.283906    20.358158    21.086324    7419.6129    3082.0222    5271.5786     3936.278    28.079426   -321.87235    394.30025   -3031.8873 
13928000    250.00747   -3913.4518   -3484.9475   -3913.4518            0    4724.6036    17.376371    20.467069    21.199132    7539.3309    4338.0238    4437.6191    5398.1678    954.75133   -492.28384    1169.3809   -2965.4613 
13929000    245.26308   -3906.7873   -3486.4147   -3906.7873            0    2352.1867    17.365487    20.454249    21.185853    7525.1725     6328.893   -579.50493     1307.172   -515.04567   -21.436617    131.84235   -3228.2695 
13930000    238.41761   -3897.2068   -3488.5672   -3897.2068            0    4739.7971    17.304949    20.382945    21.111998    7446.7468     6900.192    4337.4372    2981.7622    139.89401    1128.6311    231.82477   -2973.8102 
13931000    252.56607   -3915.1488   -3482.2592   -3915.1488            0    4961.5249    17.308113    20.386671    21.115857    7450.8316    2986.6371    6476.5304    5421.4072   -1564.9392    389.82848   -1615.7981   -2943.1264 
13932000    241.90016    -3864.447   -3449.8385    -3864.447            0    4685.9491    17.357374    20.444694    21.175956     7514.631    3163.9464    5303.7542    5590.1468    886.68357   -1210.9309    577.07072   -2936.2904 
13933000     240.9046   -3922.3906   -3509.4884   -3922.3906            0     4319.211    17.359299    20.446961    21.178304    7517.1313    4547.2208    4410.7309    3999.6812    430.59383     259.6488    640.43659   -3035.9748 
13934000    244.90034   -3932.5636   -3512.8128   -3932.5636            0     3121.373    17.292324    20.368073    21.096595    7430.4596    4202.2242      3343.18    1818.7148     108.6892    729.20978   -282.05397   -3174.5632 
13935000    262.87442   -3921.2603   -3470.7026   -3921.2603            0    4188.8036    17.356022    20.443101    21.174306    7512.8746    5662.9349    3993.5874    2909.8884    23.966972    1520.2331   -1098.9721   -3011.7456 
13936000    247.08902   -3888.0047   -3464.5026   -3888.0047            0    4490.5715    17.332605     20.41552    21.145738    7482.5072    4652.9368    5884.4759    2934.3019   -431.30494    3.6544875   -973.55254   -2974.4703 
13937000    248.80227   -3931.2042   -3504.7656   -3931.2042            0    3426.9254    17.340355    20.424647    21.155192    7492.5478    2749.5769    3215.7146    4315.4848    107.49893    580.15433   -1170.2559   -3130.3016 
13938000    254.59683   -3897.9506   -3461.5803   -3897.9506            0    2902.6512    17.371887    20.461788    21.193661    7533.4957    4419.1163    2903.5383    1385.2988   -813.67427    2295.4498    52.690735   -3142.6709 
13939000    235.70355   -3909.0845   -3505.0966   -3909.0845            0    3549.4323    17.343723    20.428615    21.159302    7496.9151    4046.6005    5334.8889    1266.8075    507.50204    -467.4176   -429.15858   -3117.0201 
13940000    266.18684   -3896.7467   -3440.5116   -3896.7467            0    5769.3174    17.265559    20.336548    21.063941    7396.0103    7467.2402    4389.7763    5450.9357    809.75306    1468.7984    -716.7065   -2818.2144 
13941000    248.27285   -3912.7454   -3487.2143   -3912.7454            0    3548.8302    17.368122    20.457353    21.189068    7528.5989    3170.6858    4674.9769    2800.8278    1174.2299   -114.04669    556.51788   -3097.5637 
13942000    251.30945   -3883.6093   -3452.8735   -3883.6093            0    4283.3936    17.324671    20.406174    21.136059    7472.2364    3934.1525    4761.8552     4154.173   -31.912108   -678.17889    -966.4021   -2986.0911 
13943000    250.59911   -3887.5697   -3458.0514   -3887.5697            0    3925.0789    17.380998     20.47252    21.204777    7545.3559    3161.4818    3264.4131    5349.3419   -528.30338    548.91638    832.14587   -3026.1307 
13944000    255.78077   -3904.5244   -3466.1249   -3904.5244            0    3833.3569    17.342843    20.427579    21.158228    7495.7742    3298.0197    4806.4785    3395.5725    879.97018    865.37646   -746.91526   -3047.0693 
13945000    246.18617   -3907.8117   -3485.8571   -3907.8117            0    4511.2187    17.265582    20.336575    21.063969    7396.0397    3239.6973    4953.4903    5340.4686   -1407.6333    1153.4642    440.07049   -2999.2605 
13946000    247.94646   -3909.2681   -3484.2964   -3909.2681            0    4004.6207     17.32425    20.405678    21.135545    7471.6916    3576.5331    5008.3896    3428.9395    792.16713    1113.1772    848.70937   -3047.9251 
13947000    249.69907   -3915.8324   -3487.8568   -3915.8324            0    6351.7271    17.282546    20.356556    21.084665    7417.8618     6123.165    5204.2607    7727.7555   -567.94689     547.2863    -718.1223   -2800.7148 
13948000    255.38513   -3945.0423   -3507.3209   -3945.0423            0    3194.9352    17.327427    20.409421    21.139421     7475.803    3601.3255    3662.6138    2320.8662     1283.926    579.99879   -290.38086   -3158.9869 
13949000    262.65456   -3939.5404   -3489.3594   -3939.5404            0    2542.7185    17.397889    20.492415    21.225384    7567.3748    3890.7374    3212.6983    524.71993    135.05568    129.66613   -472.26562   -3208.7389 
13950000    248.55947    -3930.175   -3504.1526    -3930.175            0    4069.1222    17.287924    20.362891    21.091227    7424.7887    4860.7888    5198.9986    2147.5791   -1161.2194   -368.77524   -828.71315   -3063.5361 
13951000    244.90175   -3936.4144   -3516.6612   -3936.4144            0    4091.9764    17.407262    20.503455    21.236819    7579.6122    3942.1558    4397.7036    3936.0699    724.45463   -30.429061    1024.0917   -3064.3306 
13952000    254.48992   -3946.9584   -3510.7714   -3946.9584            0    4953.9107    17.392626    20.486216    21.218963    7560.5097     4725.602    5453.4639    4682.6662     999.9988   -356.31048    156.28108   -2964.5419 
13953000    244.92309     -3962.14   -3542.3502     -3962.14            0    5729.0737    17.300004    20.377119    21.105964    7440.3642    5205.8584     6301.501    5679.8616    151.58853     1168.429    115.92338   -2920.6879 
13954000    239.67742   -3938.9363   -3528.1374   -3938.9363            0    2737.2766    17.391214    20.484553    21.217241    7558.6687    3961.4097    1579.1976    2671.2224   -535.41321    52.750636   -326.80506   -3226.3925 
13955000    240.63012    -3945.679   -3533.2472    -3945.679            0    5273.1746    17.349368    20.435264    21.166188    7504.2371    5673.0844    5620.5633     4525.876    51.466176    52.403434    675.34036   -2956.1425 
13956000    246.32837   -3937.9614    -3515.763   -3937.9614            0    4105.2703    17.424177    20.523379    21.257455    7601.7296    3779.9062    4252.2802    4283.6246    382.22956   -957.26524   -732.14166   -3060.6387 
13957000    251.77549   -3943.6481   -3512.1135   -3943.6481            0     4052.766    17.404207    20.499857    21.233092    7575.6223    4495.3941    2195.2519    5467.6521    935.15412   -1536.3437   -128.02224    -3064.353 
13958000    250.52611   -3903.3213   -3473.9281   -3903.3213            0    4127.7277    17.322989    20.404193    21.134006    7470.0595    3969.0237    5264.8553    3149.3042   -1422.9329    88.092724   -174.00251   -3024.2404 
13959000    244.93928   -3908.2298   -3488.4123   -3908.2298            0    6397.0196    17.227147    20.291304    21.017079     7346.757    5130.1801    7172.9994    6887.8793    218.51863   -685.79908    187.07551   -2803.0042 
13960000    274.59456    -3942.279   -3471.6333    -3942.279            0    4172.8014    17.363496    20.451905    21.183425    7522.5855    3345.8266    4198.5791    4973.9985   -921.40557    1069.7073    85.958589   -3013.8386 
13961000    256.89481   -3953.2397   -3512.9308   -3953.2397            0    4875.5056    17.350361    20.436434    21.167401    7505.5267    5934.8473    4497.8062    4193.8632   -174.90696   -2851.1003   -457.48552    -2979.256 
13962000    248.62865   -3921.3598   -3495.2188   -3921.3598            0    5636.2076    17.309383    20.388167    21.117407    7452.4723    7144.1538    4594.3736    5170.0953    1206.9539    -981.8759    367.99999   -2882.6382 
13963000    257.82805   -3912.5726   -3470.6641   -3912.5726            0    5868.2848    17.191301    20.249082    20.973347     7300.991    6279.0125    6509.5788    4816.2632     841.1034    1861.2074   -389.48386   -2845.8241 
13964000    244.49535    -3926.061   -3507.0043    -3926.061            0    3994.0792    17.340299    20.424582    21.155125    7492.4762    3047.1828    3587.7963    5347.2584   -10.408984    495.74779   -283.89944    -3070.571 
13965000     232.2817   -3961.2243   -3563.1014   -3961.2243            0    4894.5152    17.367504    20.456625    21.188314    7527.7952    6071.3306    4221.0671    4391.1478    331.14219   -1054.6748    565.39046   -3025.7562 
13966000    233.92083   -3916.7302   -3515.7979   -3916.7302            0    4648.8919    17.357327    20.444639    21.175899    7514.5702    4386.1628    4053.9209     5506.592    1157.8986   -462.52624   -464.93146   -3006.3151 
13967000    239.34019   -3950.3781   -3540.1572   -3950.3781            0    4843.3253    17.326976    20.408889    21.138871    7475.2192    5693.5141    4351.8737     4484.588   -443.88751    352.49416    691.76245   -3012.1456 
13968000    243.20721   -3913.3148    -3496.466   -3913.3148            0    6899.5539     17.26568     20.33669    21.064089    7396.1661    6328.1854    6403.9319    7966.5444    1100.2546   -26.436895   -713.23549   -2752.2422 
13969000    246.62223    -3919.047   -3496.3449    -3919.047            0    5005.2101    17.403199     20.49867    21.231863    7574.3066    3134.5843    6244.5341    5636.5118   -1157.8066   -757.82987   -94.358643   -2943.4519 
13970000    242.66514   -3948.4151   -3532.4953   -3948.4151            0    4352.7494     17.36105    20.449024     21.18044    7519.4062     3281.043    7270.9235    2506.2818     915.0167   -727.47136   -441.59471   -3055.1605 
13971000    253.40103   -3924.9952   -3490.6745   -3924.9952            0    4886.1795    17.282421    20.356409    21.084513     7417.701    3266.1222    5582.7511     5809.665    325.29956   -1061.9988    1662.1119   -2962.0898 
13972000    242.23719   -3947.4089   -3532.2227   -3947.4089            0    4384.6484    17.317732    20.398001    21.127592    7463.2609    5286.0923    3927.7036    3940.1494   -430.59616   -1011.1377    206.97974     -3054.98 
13973000    240.92776   -3957.4838   -3544.5419   -3957.4838            0    3526.6701    17.371424    20.461243    21.193097    7532.8942    2681.9219    3509.4373     4388.651    617.24799    1934.3969    -635.7105   -3157.1036 
13974000    252.68404   -3949.8721   -3516.7803   -3949.8721            0    4428.6074    17.330859    20.413463    21.143608    7480.2459    4944.1059    2601.5835    5740.1328    200.29568   -506.20172    567.52475   -3033.6559 
13975000    253.32513   -3973.1045   -3538.9139   -3973.1045            0    2470.5541    17.371579    20.461425    21.193285    7533.0952     3275.597    1508.6847    2627.3806   -577.08664   -1457.0856   -135.13022   -3267.4927 
13976000    260.68887   -3954.3091   -3507.4973   -3954.3091            0    5218.7001     17.30026    20.377421    21.106276     7440.694    6102.0428    6085.8074    3468.2502   -295.48925   -372.46149    311.86482   -2941.1906 
13977000     254.7809   -3884.6415   -3447.9557   -3884.6415            0    3715.5687    17.352847    20.439361    21.170433    7508.7525    5044.4584    3110.9537    2991.2939   -81.847737    535.35129   -951.32752   -3041.0733 
13978000    257.87412   -3914.5783   -3472.5909   -3914.5783            0    5127.2968    17.333516    20.416592    21.146849    7483.6865    5957.5664    5348.9423    4075.3816     1179.825    115.94994   -389.06946    -2912.988 
13979000    246.71543   -3923.0657   -3500.2039   -3923.0657            0     4401.887    17.430633    20.530984    21.265332    7610.1831    4538.0856    3577.4946    5090.0807   -363.33487    495.02522     631.1708   -3011.6529 
13980000    243.83568   -3902.0123   -3484.0863   -3902.0123            0    2984.3875    17.423438    20.522509    21.256554    7600.7629    3725.8761    1814.2354    3413.0509   -84.697827    51.422339   -18.056686    -3153.269 
13981000    248.79074   -3943.7553   -3517.3365   -3943.7553            0    2747.4446    17.494132    20.605776      21.3428     7693.656    2661.3313    3790.6849    1790.3175   -862.01175   -382.11491    1865.8173    -3209.062 
13982000    245.44514   -3925.0832   -3504.3986   -3925.0832            0    5191.6371     17.34857    20.434324    21.165215    7503.2023    6364.7765    4689.7433    4520.3916   -1960.1998    1368.1784    1822.5632   -2936.2959 
13983000    247.02448   -3957.3456   -3533.9541   -3957.3456            0    4082.1781    17.353795    20.440478    21.171589    7509.9828    4557.6556    4963.9199    2724.9587   -279.18944   -1457.3298   -1182.4449    -3086.852 
13984000    251.37465   -3930.5492   -3499.7016   -3930.5492            0    4739.3719    17.402605     20.49797    21.231138    7573.5305    3604.2754    4840.9308    5772.9095   -142.81402   -217.71458    136.56067   -2976.2277 
13985000    253.84307   -3965.7373    -3530.659   -3965.7373            0    5959.2977    17.320307    20.401034    21.130734    7466.5906    4913.5376    6614.2125    6350.1431    1576.7201    -1137.706    -1536.968   -2881.7357 
13986000    243.23506   -3935.1833   -3518.2867   -3935.1833            0    3944.9192    17.393931    20.487753    21.220556    7562.2118    4362.6171    2538.2907    4933.8499   -53.141764   -1183.5669    2056.4503    -3083.213 
13987000    260.26183   -3942.1928    -3496.113   -3942.1928            0    3718.9103    17.334376    20.417605    21.147898    7484.8003    3560.2176    3196.5018    4400.0114   -284.48341   -34.020346    1067.4714   -3090.1637 
13988000    244.81594   -3897.5136   -3477.9075   -3897.5136            0    4594.2992    17.304732    20.382689    21.111733    7446.4665    5790.8145    2833.4528    5158.6304    664.72728   -537.81163   -256.56227   -2978.9708 
13989000    252.87924   -3920.8648   -3487.4385   -3920.8648            0     3606.691    17.322672    20.403819    21.133619    7469.6496    3250.4325    3349.5505    4220.0901   -1014.4237   -330.56935   -337.63362   -3094.5357 
13990000    254.38283   -3934.2981   -3498.2946   -3934.2981            0    3939.3404    17.374341    20.464679    21.196656    7536.6895    2691.6998    3634.2413      5492.08   -671.75455   -178.00357   -1257.7964   -3065.3025 
13991000      254.788   -3957.6994   -3521.0014   -3957.6994            0    4789.6025    17.265512    20.336492    21.063884    7395.9499    6586.3731    4678.9814     3103.453   -237.61985   -1405.5986    188.45879   -3004.3837 
13992000    250.49437   -3924.3199   -3494.9811   -3924.3199            0     4221.011    17.352159    20.438551    21.169593    7507.8594    4093.3725    4776.2493    3793.4112   -448.52299    -312.5174   -1384.9516   -3032.8039 
13993000    250.19088   -3888.7565   -3459.9379   -3888.7565            0    2942.1993    17.345023    20.430146    21.160887    7498.6005    3615.6237    3174.5551    2036.4191    514.11042   -569.80124   -2165.3615   -3138.1808 
13994000    246.71472   -3905.1387   -3482.2781   -3905.1387            0    4781.8492     17.32248    20.403594    21.133386    7469.4019     5239.193    4882.8051    4223.5495   -52.049607   -459.42754    1548.6588   -2961.3742 
13995000    250.90818   -3893.6201   -3463.5721   -3893.6201            0    5105.9157    17.297409    20.374063    21.102799    7437.0168    5333.3187    6624.1161    3360.3122    -1845.291   -1030.2409   -312.83407    -2909.778 
13996000    244.00453   -3924.1874    -3505.972   -3924.1874            0    3320.9997    17.373537    20.463732    21.195675    7535.6435    3191.9578    3255.9942     3515.047    30.482582   -43.021958   -724.64641   -3140.9953 
13997000    243.91345   -3918.9016   -3500.8423   -3918.9016            0    3104.7994    17.340885    20.425272     21.15584    7493.2356    4342.8477    1197.3881    3774.1622   -1330.8276    447.14623   -1215.9928   -3161.5462 
13998000     250.5349    -3884.559   -3455.1507    -3884.559            0    5785.6952    17.279831    20.353359    21.081354    7414.3673    5865.7943    5000.4458    6490.8455     140.6753    104.01204     -919.607    -2829.538 
13999000    238.56768   -3920.5778    -3511.681   -3920.5778            0     3587.314    17.360298    20.448138    21.179523     7518.429    4525.7457    3848.2286    2387.9677    493.76721   -109.41501   -439.74562   -3118.3371 
14000000    243.68035   -3861.2159   -3443.5561   -3861.2159            0    5612.5654    17.293551    20.369518    21.098091     7432.041    4708.3277    4922.3364    7207.0323   -1440.8507     1468.762   -1129.8616   -2835.2174 
Loop time of 486.876 on 64 procs for 250000 steps with 864 atoms

Performance: 88.729 ns/day, 0.270 hours/ns, 513.478 timesteps/s
99.1% CPU use with 64 MPI tasks x 1 OpenMP threads

MPI task timing breakdown:
Section |  min time  |  avg time  |  max time  |%varavg| %total
---------------------------------------------------------------
Pair    | 20.492     | 25.295     | 29.861     |  48.3 |  5.20
Bond    | 0.27317    | 0.28203    | 0.2917     |   0.9 |  0.06
Kspace  | 208.33     | 219.1      | 234        |  36.7 | 45.00
Neigh   | 4.6312     | 5.6583     | 7.0987     |  26.3 |  1.16
Comm    | 95.189     | 108.03     | 119.95     |  54.2 | 22.19
Output  | 1.0528     | 1.0539     | 1.056      |   0.1 |  0.22
Modify  | 116.03     | 120.93     | 125.11     |  18.5 | 24.84
Other   |            | 6.523      |            |       |  1.34

Nlocal:        13.5000 ave          18 max           8 min
Histogram: 1 3 3 3 6 15 14 9 5 5
Nghost:        2157.41 ave        2217 max        2105 min
Histogram: 3 6 7 12 7 10 7 6 4 2
Neighs:        4152.75 ave        5910 max        2539 min
Histogram: 4 1 7 13 11 9 10 4 2 3

Total # of neighbors = 265776
Ave neighs/atom = 307.61111
Ave special neighs/atom = 2.0000000
Neighbor list builds = 12505
Dangerous builds = 0

unfix		3
unfix		2
unfix		1

write_data	data.final.${pid}
write_data	data.final.0
System init for write_data ...
PPPM initialization ...
  extracting TIP4P info from pair style
  using 12-bit tables for long-range coulomb (../kspace.cpp:340)
  G vector (1/distance) = 0.37429027
  grid = 24 24 25
  stencil order = 5
  estimated absolute RMS force accuracy = 0.0030687064
  estimated relative force accuracy = 9.2413181e-06
  using double precision FFTW3
  3d grid and FFT values/proc = 2730 288
Last active /omp style is kspace_style pppm/tip4p/omp
WARNING: Not all mixed pair coeffs generated from mixing. Use write_data with 'pair ij' option to store all pair coeffs. (../write_data.cpp:312)

write_restart   restart.lmp.${pid}
write_restart   restart.lmp.0
System init for write_restart ...
PPPM initialization ...
  extracting TIP4P info from pair style
  using 12-bit tables for long-range coulomb (../kspace.cpp:340)
  G vector (1/distance) = 0.37429027
  grid = 24 24 25
  stencil order = 5
  estimated absolute RMS force accuracy = 0.0030687064
  estimated relative force accuracy = 9.2413181e-06
  using double precision FFTW3
  3d grid and FFT values/proc = 2730 288
Last active /omp style is kspace_style pppm/tip4p/omp
Total wall time: 0:08:09
