LAMMPS (30 Jul 2021)
  using 1 OpenMP thread(s) per MPI task
package omp 0
using multi-threaded neighbor list subroutines
echo both

include		in.partitions
variable        pid world 0
include		in.temp
variable        temperature equal 298.01
variable	tempDamp equal 100.0
include		in.pressure
variable        pressure equal 14750.0
variable        pressureDamp equal 1000.0 # This is 1 ps
include		in.seed
variable        seed world 745823

units		real
atom_style	full
read_restart	restart.lmp.${pid}
read_restart	restart.lmp.0
Reading restart file ...
  restart file = 30 Jul 2021, LAMMPS = 30 Jul 2021
  restoring atom style full from restart
  orthogonal box = (0.73578811 1.9581925 0.89765977) to (17.471784 21.670985 21.315536)
  4 by 4 by 4 MPI processor grid
  restoring pair style lj/cut/tip4p/long/omp from restart
  restoring bond style harmonic/omp from restart
  restoring angle style harmonic/omp from restart
  864 atoms
  576 bonds
  288 angles
Finding 1-2 1-3 1-4 neighbors ...
  special bond factors lj:    0        0        0       
  special bond factors coul:  0        0        0       
     2 = max # of 1-2 neighbors
     1 = max # of 1-3 neighbors
     1 = max # of 1-4 neighbors
     2 = max # of special neighbors
  special bonds CPU = 2.074 seconds
  read_restart CPU = 2.503 seconds
include 	in.setup
variable	out_freq equal 1000
variable	out_freq2 equal 10000
variable	out_freq3 equal 1000

timestep	2.0

neigh_modify    delay 7 every 1

include		in.tip4p
# This is TIP4P/Ice

# create groups ###
group ox type 2
288 atoms in group ox
group hy type 1
576 atoms in group hy

# set charges - beside manually ###
set group ox charge -1.1794
Setting atom values ...
  288 settings made for charge
set group hy charge 0.5897
Setting atom values ...
  576 settings made for charge

# ### TIP3P Potential Parameters ###
pair_style lj/cut/tip4p/long/omp 2 1 1 1 0.1577 8.5
pair_coeff 1 1*2 0.000 0.000
pair_coeff 2 2 0.21084 3.1668
bond_style  harmonic
bond_coeff  1 450 0.9572
angle_style harmonic
angle_coeff 1 55 104.52
kspace_style pppm/tip4p/omp 1.0e-5
pair_modify tail yes

thermo          ${out_freq}
thermo          1000
thermo_style    custom step temp pe etotal epair emol press lx ly lz vol pxx pyy pzz pxy pxz pyz enthalpy

restart 	${out_freq3} restart.lmp.${pid} restart2.lmp.${pid}
restart 	1000 restart.lmp.${pid} restart2.lmp.${pid}
restart 	1000 restart.lmp.0 restart2.lmp.${pid}
restart 	1000 restart.lmp.0 restart2.lmp.0


include         in.dump
dump            myDump all atom ${out_freq2} dump.water.${pid}
dump            myDump all atom 10000 dump.water.${pid}
dump            myDump all atom 10000 dump.water.0
dump            myDump2 all dcd ${out_freq2} dump.dcd
dump            myDump2 all dcd 10000 dump.dcd
dump_modify     myDump append yes
dump_modify     myDump2 append yes


variable natoms 	equal  "count(all)"                        # NUMBER ATOMS
variable H      	equal  "enthalpy/v_natoms"                 # ENTHALPY-per-atom
variable Vol      	equal  "vol/v_natoms"                 # volume-per-atom
fix AVG all 		ave/time ${out_freq} 1 ${out_freq} v_Vol v_H file vol_enthalpy.dat
fix AVG all 		ave/time 1000 1 ${out_freq} v_Vol v_H file vol_enthalpy.dat
fix AVG all 		ave/time 1000 1 1000 v_Vol v_H file vol_enthalpy.dat


timer           timeout 23:50:00 every 1000
New timer settings: style=normal  mode=nosync  timeout=23:50:00

fix 		1 all shake 1e-6 200 0 b 1 a 1
       0 = # of size 2 clusters
       0 = # of size 3 clusters
       0 = # of size 4 clusters
     288 = # of frozen angles
  find clusters CPU = 1.319 seconds
fix             2 all nph iso ${pressure} ${pressure} ${pressureDamp}
fix             2 all nph iso 14750 ${pressure} ${pressureDamp}
fix             2 all nph iso 14750 14750 ${pressureDamp}
fix             2 all nph iso 14750 14750 1000
fix             3 all temp/csvr ${temperature} ${temperature} ${tempDamp} ${seed}
fix             3 all temp/csvr 298.01 ${temperature} ${tempDamp} ${seed}
fix             3 all temp/csvr 298.01 298.01 ${tempDamp} ${seed}
fix             3 all temp/csvr 298.01 298.01 100 ${seed}
fix             3 all temp/csvr 298.01 298.01 100 745823

run             250000
PPPM initialization ...
  extracting TIP4P info from pair style
  using 12-bit tables for long-range coulomb (../kspace.cpp:340)
  G vector (1/distance) = 0.37542761
  grid = 24 24 24
  stencil order = 5
  estimated absolute RMS force accuracy = 0.0030304853
  estimated relative force accuracy = 9.1262166e-06
  using double precision FFTW3
  3d grid and FFT values/proc = 2535 216
Last active /omp style is kspace_style pppm/tip4p/omp
Neighbor list info ...
  update every 1 steps, delay 7 steps, check yes
  max neighbors/atom: 2000, page size: 100000
  master list distance cutoff = 10.8154
  ghost atom cutoff = 10.8154
  binsize = 5.4077, bins = 4 4 4
  1 neighbor lists, perpetual/occasional/extra = 1 0 0
  (1) pair lj/cut/tip4p/long/omp, perpetual
      attributes: half, newton on, omp
      pair build: half/bin/newton/omp
      stencil: half/bin/3d
      bin: standard
Per MPI rank memory allocation (min/avg/max) = 9.239 | 9.242 | 9.244 Mbytes
Step Temp PotEng TotEng E_pair E_mol Press Lx Ly Lz Volume Pxx Pyy Pzz Pxy Pxz Pyz Enthalpy 
19500000    310.16266   -3707.1854   -3175.5772   -3707.1854            0     14941.58    16.735996    19.712793    20.417876    6736.1274    15238.952    14087.392    15498.397   -170.24354    336.02205   -1194.4406   -1707.7237 
19501000    291.01459   -3733.1978   -3234.4087   -3733.1978            0    11986.403    16.769809     19.75262    20.459128    6777.0384    12061.816    13053.275    10844.118    2904.8953    26.183515   -3.2545507   -2049.7188 
19502000    310.84859   -3776.8566   -3244.0728   -3776.8566            0    13287.901    16.640369    19.600157    20.301211    6621.3181    13172.275    12645.337    14046.092   -1012.2662   -1063.2046   -3215.3605   -1960.9248 
19503000    299.60769   -3792.2172   -3278.6999   -3792.2172            0    13569.982    16.764028    19.745811    20.452075    6770.0323    13494.403    13379.828    13835.714   -489.92298   -693.98122   -160.61684   -1938.8816 
19504000    277.58754   -3757.3737   -3281.5981   -3757.3737            0    13903.828    16.725917    19.700921     20.40558    6723.9643    13499.918    13953.732    14257.833   -151.96625    1183.4618   -643.26311   -1918.1593 
19505000    308.16267   -3705.8012    -3177.621   -3705.8012            0    13975.768     16.65143    19.613185    20.314705    6634.5302     14486.86    13701.101    13739.342    -305.3256    2096.5622    1943.8574   -1825.3562 
19506000    287.64944   -3704.0812   -3211.0599   -3704.0812            0    14782.458    16.723682    19.698289    20.402853    6721.2697    15381.192    14695.183        14271   -679.48216   -1058.0104    226.23203   -1762.0416 
19507000    309.52929   -3743.0449   -3212.5223   -3743.0449            0    13858.056    16.697084     19.66696    20.370404    6689.2513    11877.037    14400.076    15297.054   -219.83887   -771.18801   -1282.0107   -1860.5876 
19508000    294.65865   -3709.7766   -3204.7418   -3709.7766            0    18074.043    16.682184    19.649409    20.352226    6671.3593    17342.561    19550.651    17328.917   -279.74601   -2658.8995    131.67337    -1446.229 
19509000    309.85654   -3724.3271   -3193.2436   -3724.3271            0    16158.674    16.686379    19.654351    20.357344    6676.3936     16971.28    16077.248    15427.494   -347.65839   -146.42525    896.08636   -1619.9002 
19510000    294.14294   -3722.5973   -3218.4464   -3722.5973            0    15497.925    16.712013    19.684544    20.388617    6707.2095    14917.118    14691.245    16885.413    1791.6198   -413.20078   -804.38132   -1702.4739 
19511000    295.58853   -3717.2504   -3210.6218   -3717.2504            0    14690.781    16.762371    19.743859    20.450054    6768.0252    14798.585     16650.87    12622.888     -2084.54    2108.2693   -991.63741   -1760.5726 
19512000    311.09283   -3703.8806   -3170.6782   -3703.8806            0    15427.362    16.748394    19.727396    20.433002    6751.1086    16319.276    14571.123    15391.687    1043.4861    254.76161   -860.92555   -1651.7311 
19513000     304.3839   -3716.3015    -3194.598   -3716.3015            0    16913.374    16.676554    19.642777    20.345357    6664.6064    16876.419    16966.143     16897.56   -1428.1639   -481.71446   -577.83576   -1550.6781 
19514000    285.48204   -3737.3091   -3248.0027   -3737.3091            0    15131.671    16.696649    19.666447    20.369873    6688.7281    15250.766    16703.768     13440.48    764.91112    224.02752   -1336.8698   -1771.9348 
19515000    302.39561   -3758.2399   -3239.9442   -3758.2399            0    12734.486    16.747463    19.726299    20.431865    6749.9823    14739.516    11614.266    11849.675      -451.01    1697.6217   -361.41225   -1986.3414 
19516000    299.47456    -3710.089   -3196.7998    -3710.089            0    16877.093    16.677977    19.644454    20.347093    6666.3129    17868.207     15642.15    17120.922    1288.2816   -900.88444    1462.3383   -1555.9863 
19517000     302.6258   -3724.9215   -3206.2313   -3724.9215            0    13984.908    16.715126    19.688211    20.392415    6710.9591    12538.165    15071.165    14345.393    2253.1208   -144.07512    1161.6406    -1837.494 
19518000    299.34936   -3780.1742   -3267.0996   -3780.1742            0    15242.855    16.671071    19.636319    20.338667    6658.0349    14585.169    14291.633    16851.764   -1464.6117   -1386.2323    603.67222   -1787.0091 
19519000    310.70782   -3726.8767   -3194.3341   -3726.8767            0    15843.899    16.680366    19.647268    20.350008    6669.1783    16293.059    13946.022    17292.617    1520.6549    1842.0205    2591.8716   -1653.3069 
19520000    289.37678   -3713.8282   -3217.8463   -3713.8282            0    16041.692    16.660184    19.623496    20.325385    6644.9992    18491.173    16107.397    13526.507    1324.6945    448.72465   -1240.9889   -1663.2379 
19521000    295.40869   -3752.8988   -3246.5784   -3752.8988            0     13874.96    16.708045     19.67987    20.383776    6702.4335     13705.64    13184.285    14734.954   -754.56097    147.32608    2521.7635   -1890.3272 
19522000    303.93004   -3732.0224   -3211.0967   -3732.0224            0    13763.434    16.698387    19.668495    20.371994    6690.8176    14157.791    14945.439    12187.073    900.92122    830.45879   -518.92837   -1868.0785 
19523000    283.64389   -3756.4206   -3270.2647   -3756.4206            0    13464.761    16.647454    19.608502    20.309855    6629.7789    13492.485    13189.712    13712.085    172.00176   -2306.4234    1191.0266   -1968.3768 
19524000    302.33202   -3720.0123   -3201.8256   -3720.0123            0    12720.918    16.771315    19.754394    20.460966    6778.8648    12507.925    12279.042    13375.787    1001.7824     1072.942    112.95408   -1944.2001 
19525000    297.01584   -3747.0268   -3237.9518   -3747.0268            0    12065.369    16.740638    19.718261     20.42354    6741.7344    12098.542    11356.526     12741.04    1016.3235    732.44741   -1000.1084   -2051.6692 
19526000    295.16223   -3684.8027   -3178.9048   -3684.8027            0    13577.831    16.788654    19.774817    20.482119    6799.9111    11600.751    15164.294    13968.447   -96.250986    165.06795    1366.7201    -1832.395 
19527000    311.23007   -3728.2206   -3194.7829   -3728.2206            0    14029.929    16.688393    19.656723    20.359801    6678.8114    11678.058    15501.886    14909.843    659.12239   -1002.4154    831.18784   -1828.2171 
19528000    289.17224   -3732.3528   -3236.7215   -3732.3528            0    12938.374    16.744105    19.722344    20.427769    6745.9234    12250.274    12833.209     13731.64    1093.8791    43.130815   -743.13498   -1963.8135 
19529000    304.31667   -3764.9779   -3243.3896   -3764.9779            0     12215.27    16.730138    19.705892    20.410729    6729.0559    12909.087    10644.498    13092.225    389.74687    -479.2427    1260.3753   -2044.6272 
19530000    304.87257   -3690.5037   -3167.9625   -3690.5037            0    15412.502    16.728165    19.703569    20.408322    6726.6757    15586.056    17032.083    13619.367    1181.6294    1000.4265    1767.8285   -1655.9705 
19531000    305.06226   -3707.8198   -3184.9535   -3707.8198            0     13780.61     16.75067    19.730077    20.435778    6753.8612    14447.408    13986.598    12907.824   -644.60896      875.969    679.40036   -1827.5891 
19532000    288.42458   -3697.9657   -3203.6159   -3697.9657            0    14211.893    16.722461    19.696851    20.401364    6719.7977    16599.427    12044.898    13991.355    872.11794    1538.2302   -1441.2866    -1810.831 
19533000    296.46501   -3728.9658   -3220.8349   -3728.9658            0    14648.781    16.709595    19.681695    20.385666    6704.2982    15643.039    12854.706    15448.598   -1880.3503    3166.1654    884.18661   -1788.5457 
19534000    292.56686   -3761.0795   -3259.6299   -3761.0795            0    12255.776    16.729216    19.704806    20.409604    6727.9435    14600.894    10953.849    11212.586     945.6082   -496.59295   -276.39122   -2057.0913 
19535000    286.59502   -3745.6273   -3254.4132   -3745.6273            0    15395.914    16.675554      19.6416    20.344137    6663.4083     15765.24    16806.446    13616.055   -1008.2917    -254.1822    421.67405   -1758.2541 
19536000    292.52415   -3742.9073   -3241.5309   -3742.9073            0    14376.039    16.729305    19.704911    20.409713    6728.0511    13478.764    13545.097    16104.255   -1062.0199   -845.91962    1918.4145   -1830.9292 
19537000    292.31669   -3712.8823   -3211.8615   -3712.8823            0    16593.329    16.630393    19.588406    20.289041    6609.4168    16166.451    17750.782    15862.755    2131.5622     -418.647   -513.03635   -1612.4045 
19538000    290.01172   -3709.5405   -3212.4703   -3709.5405            0     14348.94    16.701342    19.671975    20.375598    6694.3699    14962.142    13107.248     14977.43    1071.4415   -319.66057   -1626.0288   -1811.5759 
19539000    291.21106   -3725.1971   -3226.0714   -3725.1971            0    13379.504    16.739437    19.716846    20.422074    6740.2833    14523.949    13615.047    11999.516    12.795016   -687.93706    895.75968   -1910.8645 
19540000    295.51541   -3748.4688   -3241.9655   -3748.4688            0    14202.477    16.701157    19.671757    20.375373    6694.1478     13451.57    12316.662    16839.198  -0.80348464    962.18347   -2908.0087   -1855.4164 
19541000     295.0768   -3759.0005    -3253.249   -3759.0005            0    12933.412    16.715732    19.688925    20.393154    6711.6887    14167.496     13962.56    10670.179    499.48871    557.51516    -150.1527   -1987.2866 
19542000    288.09787   -3736.7403   -3242.9504   -3736.7403            0    15030.346      16.6999    19.670276    20.373839    6692.6355    15140.653     15330.32    14620.066   -983.94488    1279.3206   -2237.0353   -1775.9101 
19543000    300.69399    -3749.071   -3233.6918    -3749.071            0    13558.155    16.730191    19.705955    20.410794    6729.1204    11636.006    13468.002    15570.458    624.39865      798.152   -306.24959   -1903.1307 
19544000    314.11859   -3726.1944   -3187.8059   -3726.1944            0    18184.804    16.608957    19.563157    20.262888     6583.891    19250.058     15885.49    19418.863    656.50566    70.354034    221.16034   -1441.7139 
19545000    295.56253   -3785.0615   -3278.4775   -3785.0615            0    15898.821    16.657223    19.620008    20.321773    6641.4574    17195.716    16475.725    14025.021    992.03325    373.71706   -110.62399   -1738.5361 
19546000    303.59371   -3717.3418   -3196.9926   -3717.3418            0    15590.499     16.71724      19.6907    20.394993    6713.5045    15656.267    14674.468    16440.761    383.87577   -2268.8545    1492.1493   -1670.5334 
19547000    280.18798   -3713.2884   -3233.0558   -3713.2884            0    13954.601    16.743212    19.721292    20.426679    6744.8438    13057.461    15321.717    13484.624   -950.51487     2385.465    -390.1815   -1860.3888 
19548000    306.52023   -3718.4199   -3193.0547   -3718.4199            0    15546.487    16.681573     19.64869     20.35148    6670.6261    16152.419    15952.819    14534.222    802.96764   -1238.9375    1033.4219   -1680.6266 
19549000    309.93372   -3706.3077   -3175.0919   -3706.3077            0    15226.583    16.635853    19.594838    20.295702    6615.9287    16949.587    15125.741    13604.422   -1939.3234   -1754.7212    486.37427   -1705.9317 
19550000    288.84898   -3718.4727   -3223.3954   -3718.4727            0    17755.872    16.648173    19.609348    20.310732    6630.6376    14764.657    21282.485    17220.473   -434.20754   -1959.8993    -460.4392    -1506.384 
19551000    297.75015   -3705.1261   -3194.7925   -3705.1261            0    13014.261    16.757262    19.737841     20.44382    6761.8377        12629    14056.918    12356.866   -1065.5205    -310.5074    1033.2403   -1911.3981 
19552000    297.13413   -3726.4339   -3217.1562   -3726.4339            0    16123.742    16.687677     19.65588    20.358927    6677.9516     16860.45    15095.055    16415.721    -1085.942   -1556.2244     155.3256   -1646.8476 
19553000    277.20087   -3696.2962   -3221.1834   -3696.2962            0    17245.208    16.677135    19.643462    20.346066    6665.3037    19237.015    17418.759    15079.849    763.81501    751.29374   -887.85524   -1544.8351 
19554000    300.45846   -3727.8114   -3212.8359   -3727.8114            0    9976.0294     16.78538    19.770961    20.478124    6795.9336    11215.376     7680.226    11032.486   -454.08678    442.39766    342.54382   -2224.0945 
19555000    295.91149    -3698.783   -3191.6008    -3698.783            0    15413.241    16.626961    19.584364    20.284854    6605.3256    15055.827    16809.715    14374.182    -1125.469   -1840.3098    783.56358    -1706.814 
19556000    324.19388    -3748.366   -3192.7088    -3748.366            0     14077.53    16.718921    19.692681    20.397045     6715.531    14704.231    13823.881    13704.479   -682.42549   -310.30624    1477.9365   -1813.9677 
19557000    301.40443   -3716.8124   -3200.2155   -3716.8124            0    16756.979    16.656323    19.618948    20.320675    6640.3804     17810.29    15003.816    17456.832   -519.09933    250.73526   -2132.4634   -1577.4171 
19558000    290.26187   -3713.4479    -3215.949   -3713.4479            0    14638.936    16.725659    19.700617    20.405264    6723.6527    13708.459    15124.499    15083.848    1292.0093    377.16406    549.49354   -1780.4904 
19559000    306.48391   -3756.3172   -3231.0143   -3756.3172            0    12628.566    16.739757    19.717223    20.422464    6740.6696    13817.249    12444.342    11624.105   -808.62444    1355.3288    540.61301   -1989.5537 
19560000    291.27288   -3733.3999   -3234.1681   -3733.3999            0    12973.979    16.703098    19.674043    20.377741    6696.4816    13945.958    12347.961    12628.019   -2803.7325    413.55034    2241.4235   -1967.1123 
19561000     299.5737   -3753.0995   -3239.6404   -3753.0995            0    12964.344    16.731614    19.707631     20.41253    6730.8372    12462.051    12947.852    13483.128   -264.46106   -1700.1019    951.77594   -1967.0298 
19562000    292.37903    -3683.218   -3182.0904    -3683.218            0    14439.225    16.709952    19.682117    20.386103     6704.729    11713.837    15106.393    16497.445    1550.0053    448.03382   -2808.9691   -1770.1999 
19563000    310.07856   -3708.7453   -3177.2813   -3708.7453            0    13597.372     16.71349    19.686284    20.390419    6708.9886    14266.982    13685.071    12840.064   -192.72534   -615.99284    447.55108   -1846.8638 
19564000     307.2086   -3755.0171    -3228.472   -3755.0171            0    16701.866    16.680876    19.647869     20.35063    6669.7901    20549.141    13850.023    15706.433    752.65105    553.61825   -1281.2451   -1603.8474 
19565000    289.52956   -3752.3791   -3256.1354   -3752.3791            0    12994.613    16.678508    19.645079     20.34774    6666.9494    12813.359    15163.553    11006.927   -509.62242   -801.58763    636.81805   -1992.6611 
19566000    299.73795   -3695.3386    -3181.598   -3695.3386            0    16333.489    16.713394    19.686171    20.390302    6708.8731    17152.328    15823.439    16024.699   -868.32451    -167.3307    -881.2438   -1583.4963 
19567000    295.67357    -3788.307   -3281.5326    -3788.307            0    11887.727    16.765223    19.747218    20.453532    6771.4794    13507.373    11557.869     10597.94    239.53987    384.88622    -1355.698   -2107.5592 
19568000     308.2717   -3725.4758   -3197.1087   -3725.4758            0    16535.718    16.661989    19.625622    20.327588    6647.1599    17058.706    16039.728    16508.722    1628.4089   -547.94106   -1241.2559   -1594.1029 
19569000    285.86134   -3725.5719   -3235.6153   -3725.5719            0    16154.252    16.676979    19.643278    20.345875    6665.1159    15689.099     17364.19    15409.467   -1250.3828    1126.9683   -552.26193   -1665.3593 
19570000    300.86253   -3730.1075   -3214.4394   -3730.1075            0    13002.365    16.796609    19.784187    20.491824    6809.5818     14166.03    13180.919    11660.145    451.68036   -137.87058    697.32832   -1923.1646 
19571000    296.95705    -3708.753   -3199.7788    -3708.753            0    14553.597    16.678288     19.64482    20.347472    6666.6854    13233.051    13920.173    16507.568   -1993.4588    364.35801    108.96507   -1784.7796 
19572000    315.95051   -3680.6946   -3139.1662   -3680.6946            0    15785.231    16.750581    19.729972     20.43567    6753.7536    15607.531    15400.939    16347.221     340.4258    794.59518    265.64609   -1584.3752 
19573000    290.34711   -3736.1755   -3238.5305   -3736.1755            0    12719.191    16.710643     19.68293    20.386945    6705.5598    11594.892    14823.644    11739.038   -837.99214   -18.307883    2464.4428   -1994.6736 
19574000    292.76463   -3722.8913   -3221.1028   -3722.8913            0    15777.761    16.693502     19.66274    20.366033    6684.9465    15428.596    16797.833    15106.853   -2904.4391    1402.7666    1321.2469   -1682.8801 
19575000    298.74795   -3706.2008    -3194.157   -3706.2008            0    14925.369    16.647707      19.6088    20.310164    6630.0817    15951.442     15272.94    13551.724    1238.0479    1002.6774    1672.2249   -1750.9792 
19576000    278.01179    -3685.829   -3209.3264    -3685.829            0    17134.338    16.671887    19.637281    20.339663    6659.0132    17685.956    17923.054    15794.004   -204.97545   -483.05853    745.60011   -1545.3272 
19577000    287.57307   -3751.3701   -3258.4797   -3751.3701            0    14342.577    16.730782    19.706652    20.411515    6729.8339     14404.93    12375.009    16247.793    57.492925   -1036.7251    647.85266   -1850.7884 
19578000    306.83866   -3707.4235   -3181.5125   -3707.4235            0     12944.14    16.715365    19.688492    20.392706    6711.2464    11516.036    14807.736    12508.648    1897.5751    938.08799    197.27611   -1914.5835 
19579000    307.05632   -3756.1911   -3229.9071   -3756.1911            0    14065.401    16.705106    19.676408     20.38019    6698.8964    13646.251    14947.907    13602.044   -1637.3361   -605.61777     586.3499   -1855.7662 
19580000    314.81847   -3710.2189   -3170.6309   -3710.2189            0    14377.226    16.746571    19.725248    20.430777     6748.904    15001.457    13604.438    14525.783    1104.8385    1599.3968   -217.80857   -1755.5403 
19581000     294.8561   -3723.7351   -3218.3618   -3723.7351            0     15159.28    16.665145     19.62934    20.331438    6650.9378    17647.643    13269.833    14560.363   -65.302058    781.39825   -1466.2046   -1747.9556 
19582000    299.17915   -3747.2415   -3234.4587   -3747.2415            0    13442.838    16.693743    19.663024    20.366328    6685.2365    11206.805    15089.548    14032.161   -1515.0094    530.51763   -760.67977    -1923.818 
19583000    290.45009   -3729.9297   -3232.1082   -3729.9297            0    13914.382    16.729929    19.705646    20.410474    6728.8039    13675.882    14702.819    13364.445     454.9521    245.23212    689.62817   -1866.6523 
19584000    313.38661   -3690.6448   -3153.5109   -3690.6448            0    13686.605    16.750124    19.729433    20.435112    6753.2003    14761.165    14853.429     11445.22    435.88952    682.32909    519.17339   -1805.5377 
19585000    302.31348    -3742.847   -3224.6921    -3742.847            0    14583.226    16.684795    19.652485    20.355411    6674.4925    15011.901    13586.675    15151.102    1157.0013   -828.39778   -421.22791   -1805.1517 
19586000     294.1061   -3751.4451   -3247.3573   -3751.4451            0     14391.14     16.78729     19.77321    20.480454    6798.2533    14042.171     14351.01    14780.238     443.5262   -1417.0946    897.08156   -1820.5398 
19587000    301.06835   -3748.8257   -3232.8049   -3748.8257            0    15274.956     16.73116    19.707096    20.411976    6730.2892    15085.804    14463.397    16275.669    -664.5026   -1077.6895   -199.29766   -1733.5012 
19588000    311.33985   -3745.9476   -3212.3217   -3745.9476            0    13599.991    16.766411    19.748618    20.454982    6772.9197     13013.61    13316.504    14469.858    891.97521     238.4271   -1497.8266   -1868.9679 
19589000    295.61723   -3766.1941   -3259.5163   -3766.1941            0    15777.743    16.693015    19.662166    20.365439    6684.3611    16368.986    15446.396    15517.846   -1383.1873   -2037.6032    748.01218   -1721.4301 
19590000    291.51703   -3726.8211   -3227.1709   -3726.8211            0    17251.181    16.632447    19.590826    20.291546    6611.8658    17535.415     18415.99    15802.136   -107.62763   -1593.8216   -351.89863   -1563.6864 
19591000    282.11654   -3728.3729   -3244.8348   -3728.3729            0    17192.549    16.623389    19.580157    20.280496    6601.0696    14534.046    18189.572     18854.03   -2184.2732   -1479.5828    1239.7049   -1589.7111 
19592000    300.90283   -3732.1112   -3216.3741   -3732.1112            0    15990.369    16.669687     19.63469     20.33698    6656.3777    17165.195    17095.049    13710.863     576.9861    1412.8842   -654.98359    -1664.086 
19593000     295.4571   -3787.7282   -3281.3248   -3787.7282            0    13860.323    16.696272    19.666003    20.369413     6688.275    14417.871    13278.975    13884.123    567.48843    -1078.647    1127.8885   -1929.3664 
19594000    305.54512   -3785.0245   -3261.3306   -3785.0245            0    12794.205    16.696138    19.665846     20.36925    6688.1145    10785.124    15698.576    11898.916   -1394.3461    2954.6076    2147.4625   -2013.3929 
19595000    294.52389   -3755.4174   -3250.6135   -3755.4174            0    14130.633    16.674242    19.640055    20.342536    6661.8354    13700.239    14005.967    14685.691   -502.62325   -249.05514    1711.2034   -1877.7372 
19596000     311.7782   -3733.9717   -3199.5946   -3733.9717            0    12782.721    16.698775    19.668951    20.372467    6691.2837    13676.976    14032.591    10638.597   -2241.5401    97.590623   -756.51491   -1952.1862 
19597000    314.72256   -3751.1949   -3211.7712   -3751.1949            0    15282.165    16.691651     19.66056    20.363775    6682.7234    13303.521    15611.174    16931.802   -247.10323    78.176208    1690.4512   -1722.3612 
19598000    293.36378   -3778.9878   -3276.1723   -3778.9878            0    12889.681    16.684344    19.651953    20.354861    6673.9507    12940.636    12134.419    13593.988     650.8775    210.88946    462.82544   -2021.5845 
19599000    297.40765   -3743.9276   -3234.1811   -3743.9276            0    13765.831    16.716305      19.6896    20.393853     6712.379    14487.875     12177.53    14632.087   -571.34986     549.7027    2063.5012   -1886.6004 
19600000    300.23855    -3733.037   -3218.4384    -3733.037            0    14011.626    16.674762    19.640667    20.343171    6662.4588    14626.575    14149.824     13258.48    421.18157     326.2706    1749.8514    -1856.997 
19601000    297.02333   -3780.1856   -3271.0978   -3780.1856            0    13815.765    16.714947       19.688    20.392197    6710.7432    14044.076    12558.113    14845.107    1317.0681    822.49079    99.142298   -1918.9584 
19602000    321.03911   -3736.2371   -3185.9871   -3736.2371            0    14095.725    16.720633    19.694697    20.399133    6717.5933    13000.226    15717.276    13569.671    440.74904   -204.95688   -258.61709   -1805.0401 
19603000    296.23233   -3750.5733   -3242.8412   -3750.5733            0    15560.104    16.669205    19.634121    20.336391    6655.7993    16653.889    14868.865     15157.56    904.72919   -197.54486   -1056.6722   -1732.4529 
19604000    302.85644   -3772.7782   -3253.6926   -3772.7782            0    13098.416    16.670211    19.635306    20.337618    6657.0047    14030.004    11117.723    14147.519   -1485.9193   -523.79623   -651.22435   -1982.0253 
19605000    308.39884   -3742.1617   -3213.5767   -3742.1617            0    15602.083    16.603867    19.557162    20.256679      6577.84    16517.808    13580.566    16707.875    1535.5192   -1927.0232   -1615.9416   -1716.8525 
19606000    283.20343   -3750.0331   -3264.6321   -3750.0331            0    14882.296    16.644418    19.604926    20.306151    6626.1527    14662.148    15541.098    14443.642    763.27273     655.9397    -1116.106   -1826.4719 
19607000    293.88689   -3770.3067   -3266.5946   -3770.3067            0    14082.969    16.691751    19.660678    20.363898    6682.8439    14853.698    14554.267    12840.942   -849.53723    -473.2259    663.18865   -1894.0343 
19608000    287.59338   -3719.0812   -3226.1559   -3719.0812            0    11119.023    16.727212    19.702446    20.407159    6725.5262    10158.717    13223.065    9975.2878   -1814.6658    846.13939   -100.40194   -2135.5477 
19609000    305.19448   -3747.0349    -3223.942   -3747.0349            0    15010.673    16.677745     19.64418     20.34681    6666.0346    12678.165    15611.352    16742.501    54.314831    -752.9799     570.3661   -1764.6452 
19610000    287.09142    -3708.616   -3216.5511    -3708.616            0    11940.243    16.755378    19.735622    20.441522    6759.5577    10256.602    12602.169    12961.958    1030.5784   -577.02538   -719.24135   -2039.4675 
19611000    325.06193   -3767.2137   -3210.0687   -3767.2137            0    16297.373    16.689332    19.657828    20.360946    6679.9379     16565.39    16765.285    15561.444    408.76384    1224.9381    493.88479   -1622.3779 
19612000    295.04474   -3745.2949   -3239.5983   -3745.2949            0    13893.999    16.750243    19.729573    20.435257    6753.3444     13248.61    14575.689    13857.699   -1456.0329   -209.04875   -444.65444     -1871.17 
19613000    286.78731   -3724.6365   -3233.0928   -3724.6365            0     13881.91    16.677414    19.643791    20.346406    6665.6377    13666.707    13232.243    14746.781   -901.52142    1688.5427    1400.4358   -1883.6117 
19614000    308.50478   -3704.3353   -3175.5686   -3704.3353            0    15985.675    16.735283    19.711953    20.417007    6735.2668    15127.039    15005.316     17824.67    2813.9591   -1394.0804   -853.62744   -1605.3444 
19615000    298.06712   -3716.2782   -3205.4014   -3716.2782            0    14021.228    16.742777     19.72078    20.426149    6744.3187    14717.694    14886.213    12459.776    1049.2034    1168.4567    -1020.039   -1826.2879 
19616000    301.62337   -3756.1621   -3239.1899   -3756.1621            0    14498.077    16.701509    19.672171    20.375802    6694.5702    15914.801    13250.354    14329.076   -1310.0447   -1807.0213    1841.0806   -1823.6928 
19617000    287.88247   -3744.5475   -3251.1268   -3744.5475            0    14870.084    16.709136    19.681155    20.385106    6703.7458    12612.854    18311.389     13686.01   -1248.2918     268.9165    209.58275   -1797.3195 
19618000    283.00427   -3691.1071   -3206.0475   -3691.1071            0    15279.466    16.672864    19.638431    20.340855    6660.1834     14417.77    16728.206    14692.422   -240.90628    697.38871    1664.4501   -1721.9233 
19619000    305.86331   -3706.8713   -3182.6321   -3706.8713            0    17673.141    16.622513    19.579125    20.279428    6600.0263     16508.44    17497.811    19013.171    225.23057    1545.1286   -223.21654   -1481.5107 
19620000    280.20712   -3751.7562   -3271.4908   -3751.7562            0    12418.942    16.712398    19.684998    20.389087    6707.6738    11975.041    13108.914    12172.871   -1830.6964   -396.15744    382.60092   -2056.6135 
19621000    298.02895   -3784.3828   -3273.5714   -3784.3828            0    14869.418    16.645935    19.606713    20.308002    6627.9651    15451.016     15650.62    13506.619   -557.28969   -1791.3692   -358.33949   -1836.2626 
19622000    306.02919   -3730.8681   -3206.3445   -3730.8681            0    14859.487     16.67591    19.642019    20.344571    6663.8345    15554.322    14716.713    14307.425   -1499.2376    608.56978    214.30373   -1762.2224 
19623000     291.1576   -3779.8662   -3280.8321   -3779.8662            0    12099.869    16.742293     19.72021    20.425559    6743.7339    9487.5217    13695.091    13116.996   -1788.4793    42.979051    142.38591   -2090.8046 
19624000     306.2245   -3731.6619   -3206.8036   -3731.6619            0    14824.898    16.703156    19.674111    20.377811    6696.5508    14753.763    14642.094    15078.835    332.77891    1533.3609    1537.8081   -1758.9696 
19625000    311.94726   -3692.1877   -3157.5208   -3692.1877            0    15989.441    16.697356     19.66728    20.370736     6689.578    15825.363    14610.273    17532.686   -70.946188    712.43186   -1737.2125   -1597.5809 
19626000    314.47244   -3754.8377   -3215.8427   -3754.8377            0    14721.626    16.664243    19.628277    20.330338     6649.858    13911.283    13460.202    16793.393    269.06149    -372.1054   -192.29769   -1788.1195 
19627000    298.03428   -3683.1924   -3172.3718   -3683.1924            0    17518.523    16.630457    19.588482    20.289119    6609.4928    17542.339    17699.094    17314.136   -1181.5306   -324.19221   -1715.8959   -1483.7146 
19628000    303.65015   -3749.2727   -3228.8268   -3749.2727            0    16429.172    16.652408    19.614337    20.315898    6635.6991    18125.298    18063.219        13099    332.12416    1905.1496    2658.8652   -1638.8958 
19629000    308.29293   -3721.3053   -3192.9018   -3721.3053            0        14127      16.7246     19.69937    20.403973    6722.3762    15006.364    14045.437    13329.199    1610.3612    1643.4622    -364.1613   -1807.9054 
19630000    277.98951   -3714.7828   -3238.3183   -3714.7828            0    16274.722    16.638481    19.597933    20.298908    6619.0648    16662.285    15968.135    16193.747   -883.09049   -1397.2156    306.49375   -1667.2824 
19631000     287.2438   -3730.6604   -3238.3344   -3730.6604            0    17046.033    16.659774    19.623013    20.324885     6644.509    18818.602    17542.117    14777.381    752.64726   -1540.8839    219.33558   -1586.5167 
19632000    313.41732   -3756.6585    -3219.472   -3756.6585            0    11984.879    16.783371    19.768594    20.475673    6793.4931    12444.951    11691.506     11818.18   -1669.0642    2154.2675    -804.6813   -2032.0566 
19633000    285.58618   -3752.9679   -3263.4829   -3752.9679            0    12669.439    16.771031    19.754059    20.460618    6778.5194    12918.348    13477.865    11612.102   -253.73237    1727.5742   -1524.8078   -2011.0107 
19634000    295.96449   -3775.1808   -3267.9078   -3775.1808            0    13485.598    16.708122    19.679961     20.38387     6702.526    11292.532    13714.391    15449.871    1285.8088    960.62531   -748.30841   -1949.6978 
19635000     280.7694   -3762.9888   -3281.7596   -3762.9888            0    13320.148    16.745874    19.724428    20.429927    6748.0619    13046.974    11818.053    15095.418   -248.54973   -632.20197     844.2047   -1970.8764 
19636000    298.33148   -3739.7473   -3228.4173   -3739.7473            0    15749.639     16.68537    19.653162    20.356112    6675.1816    16235.285    15451.225    15562.407   -16.640334   -1041.7954    1401.9741   -1695.1793 
19637000    300.69401   -3758.9528   -3243.5736   -3758.9528            0    13217.443    16.667672    19.632316    20.334521    6653.9641    14007.678     12380.76    13263.892    185.06904    743.22613   -550.72623   -1960.9365 
19638000    306.69502   -3754.1581   -3228.4933   -3754.1581            0    15993.063     16.66336    19.627237    20.329261    6648.8012    16389.157    16041.216    15548.815    842.99483    96.834466   -377.13206   -1677.7109 
19639000    279.52255   -3728.2776   -3249.1855   -3728.2776            0    15153.498    16.668338    19.633101    20.335334    6654.7618    15478.985     11192.98     18788.53    790.13315   -493.90235   -55.729436   -1778.4949 
19640000    296.59882   -3738.8926   -3230.5324   -3738.8926            0    13560.854    16.699856    19.670225    20.373786    6692.5833    13035.515    12237.805    15409.242    -369.2873     447.1994    1370.0008   -1906.9325 
19641000     280.6859   -3741.9902   -3260.9042   -3741.9902            0    12403.433    16.783834    19.769139    20.476238    6794.0556    10531.313    14363.714    12315.271    262.05892   -576.09848    1930.6025   -2031.9183 
19642000    296.74747   -3740.8512   -3232.2362   -3740.8512            0    14256.828    16.699712    19.670055     20.37361    6692.4101    14762.096     13413.55    14594.839   -184.00551   -1677.7624    1107.2045   -1840.7422 
19643000    286.60769   -3694.0357      -3202.8   -3694.0357            0    14227.274    16.698397    19.668507    20.372006    6690.8296    15234.102    14092.104    13355.617    315.47569    934.85203    311.79188   -1814.5184 
19644000    286.51068   -3742.3835    -3251.314   -3742.3835            0     12923.67    16.735087    19.711722    20.416767    6735.0294    12461.538    11349.251     14960.22   -487.66632   -245.56084    682.72708    -1981.906 
19645000    316.78337   -3715.9985   -3173.0426   -3715.9985            0    19013.312    16.605652    19.559265    20.258857     6579.962    19557.978    18558.437    18923.521   -1980.9872    1776.9633    130.62616   -1348.4873 
19646000    296.35636   -3727.2211   -3219.2765   -3727.2211            0    14578.306    16.710408    19.682653    20.386658    6705.2768    15589.755    13820.963      14324.2   -1576.7178    385.04386    196.81481     -1793.67 
19647000    285.22663   -3755.8157    -3266.947   -3755.8157            0    14181.692    16.789053    19.775286    20.482605    6800.3952    15902.496    13670.624    12971.955   -657.09285   -887.42532    15.082787   -1860.4523 
19648000    298.97188   -3753.3615   -3240.9339   -3753.3615            0    16485.604    16.657135    19.619904    20.321665    6641.3516    14660.817    16395.814    18400.183   -1863.8027   -1088.9044    -327.9352   -1644.1828 
19649000    312.07382   -3714.7403   -3179.8564   -3714.7403            0    14549.024    16.708382    19.680267    20.384187    6702.8389    14839.585    15149.424    13658.063    430.95632    -132.2465    372.56704   -1757.6307 
19650000    294.03112   -3719.2525   -3215.2932   -3719.2525            0    16634.754    16.710598    19.682877    20.386891    6705.5062     15583.76    16850.771    17469.732   -820.12448   -1578.9427    594.55077   -1588.5318 
19651000    309.33236   -3746.6442   -3216.4591   -3746.6442            0    13260.057    16.731621     19.70764    20.412539    6730.8464    14174.951    11711.959    13893.261   -331.48755    -518.2396    104.13257   -1914.8189 
19652000    283.60293   -3778.1522   -3292.0665   -3778.1522            0    14373.602    16.757469    19.738085    20.444073    6762.0885    13331.827    15313.207    14475.773    1557.9881    327.46559    138.17506   -1874.5688 
19653000     310.1855    -3730.618   -3198.9707    -3730.618            0     13686.84    16.718945    19.692709    20.397074    6715.5598    13542.502    13643.949     13874.07    622.85904   -826.98333    910.21423   -1858.4876 
19654000    305.17401    -3799.681   -3276.6232    -3799.681            0    13022.119    16.714664    19.687667    20.391851    6710.4024    12903.989    12201.805    13960.563   -1420.8441   -2615.6548   -1324.1177   -2002.2222 
19655000    297.66607   -3754.6246   -3244.4352   -3754.6246            0    14913.587    16.618107    19.573935    20.274052    6594.7789    14368.702    14808.449     15563.61    76.300375   -493.20485   -665.16907   -1810.0749 
19656000    284.62927   -3800.5571   -3312.7123   -3800.5571            0    13152.892    16.654179    19.616423    20.318059    6637.8168    11644.138    12030.324    15784.214    1249.5452    2221.3355    589.95607   -2039.4367 
19657000    299.59295   -3815.8081    -3302.316   -3815.8081            0    13826.967    16.712411    19.685012    20.389102    6707.6887    13826.823    12195.669    15458.408   -574.52439   -1319.3352    438.67411   -1949.6964 
19658000    303.91315   -3770.0438    -3249.147   -3770.0438            0    14661.277    16.621797    19.578282    20.278554    6599.1733    12455.086    14810.172    16718.574    317.71501    241.65955   -473.40557   -1838.1138 
19659000    288.99648   -3759.2457   -3263.9156   -3759.2457            0    15089.815    16.696853    19.666687    20.370121     6688.973    14635.991    17675.382    12958.072   -237.23801    1099.7542   -74.071028   -1791.8768 
19660000    303.36955   -3727.0842   -3207.1192   -3727.0842            0    16308.587    16.704782    19.676027    20.379795    6698.5072    15861.914    17437.388    15626.459   -301.42343    1022.2275    26.219366   -1613.9194 
19661000     293.4797   -3797.4916   -3294.4774   -3797.4916            0     15998.57    16.672645    19.638174    20.340588    6659.9218    15847.597    16078.579    16069.534   -268.43308    1063.2113   -814.75571   -1740.5663 
19662000    288.73126   -3749.8849   -3255.0094   -3749.8849            0    12961.216    16.717925    19.691507    20.395829    6714.3302    11776.145    12411.583    14695.921    1197.4495   -41.427112    1431.0092   -1985.8261 
19663000    295.20549   -3745.6714   -3239.6992   -3745.6714            0    15617.723     16.70981    19.681948    20.385929    6704.5571    15337.378    15933.081    15582.709    515.88691   -849.54402    1264.1291   -1712.6126 
19664000     295.1966   -3757.5156   -3251.5588   -3757.5156            0     15752.74    16.685445    19.653251    20.356204    6675.2725    15969.127    15868.382     15420.71    166.13541    1360.2827   -1602.3717    -1717.998 
19665000    295.74716   -3709.9061   -3203.0056   -3709.9061            0    16051.095    16.584753    19.534648     20.23336    6555.1497    15334.775    15839.155    16979.355   -479.71123    136.30707   -167.09922   -1668.5187 
19666000    288.56303   -3703.9944   -3209.4072   -3703.9944            0    12971.133    16.726522    19.701634    20.406318    6724.6946    12688.632    12420.532    13804.235    -586.9121    173.86902    145.82816   -1937.2922 
19667000    282.45617   -3746.7553   -3262.6351   -3746.7553            0    14498.035    16.682383    19.649644    20.352469    6671.5982    14037.962    16680.465    12775.676    -539.2193   -1099.6623   -439.29624   -1851.9993 
19668000    315.58808   -3717.8696   -3176.9624   -3717.8696            0    14492.582    16.687146    19.655254    20.358279    6677.3141    15117.008    13001.047    15359.689    168.62752    422.37532   -1182.4181   -1765.6491 
19669000    296.63578   -3683.8115   -3175.3879   -3683.8115            0    15232.163     16.67003    19.635093    20.337398    6656.7882    15024.837    16317.328    14354.325   -512.59762   -990.69948   -1158.5891   -1696.6125 
19670000    304.65538   -3723.7756   -3201.6067   -3723.7756            0    15065.934     16.70371    19.674764    20.378487    6697.2178    16143.604     13222.56    15831.638   -85.871153   -1218.8924    1774.3219    -1730.086 
19671000    289.86732   -3713.7378   -3216.9151   -3713.7378            0    13661.303    16.745383     19.72385    20.429329    6747.4686    15800.072    14494.053    10689.785   -768.47075   -1149.6369   -1215.8755   -1872.5758 
19672000    290.92252   -3720.2694   -3221.6381   -3720.2694            0    14623.042    16.698626    19.668776    20.372285    6691.1046      12953.4    17989.387    12926.339   -368.03566   -693.08298    930.32899   -1794.6794 
19673000    289.32768   -3710.0845   -3214.1867   -3710.0845            0    15075.316     16.69602    19.665706    20.369105    6687.9722    12361.252     18075.97    14788.726   -34.241808   -3202.7082   -659.94507   -1743.7824 
19674000    298.41037   -3767.8552   -3256.3901   -3767.8552            0    13748.495    16.708227    19.680085    20.383998    6702.6524     12524.99    13457.872    15262.622    1406.9884    615.46042   -2345.5682   -1912.4567 
19675000    316.28445   -3719.1061   -3177.0053   -3719.1061            0     15950.87    16.681936    19.649117    20.351923    6671.0618    15477.178    17439.847    14935.584   -831.40948   -646.40699    1353.4414   -1625.1358 
19676000    297.55748   -3710.9057   -3200.9023   -3710.9057            0    17502.791    16.614929    19.570191    20.270174    6590.9956    19380.242    16686.901    16441.231   -480.33412   -573.17555    783.27679   -1518.4831 
19677000    303.27652   -3736.0785   -3216.2729   -3736.0785            0    12449.321    16.777523    19.761706    20.468539    6786.3946    13653.678     10301.28    13393.005   -581.38245    -36.25591    248.26546   -1984.1312 
19678000    306.74584    -3728.919   -3203.1672    -3728.919            0    12117.322    16.750361    19.729712    20.435401    6753.4871    12412.443    11564.095    12375.427   -1623.0637     -490.555    -2525.689   -2009.6997 
19679000    291.81229   -3729.7352   -3229.5789   -3729.7352            0    13134.083    16.787366      19.7733    20.480548    6798.3463    13726.869    11383.569     14291.81   -2503.7493   -1508.9358     826.1959   -1927.3752 
19680000     296.2822   -3746.0035   -3238.1859   -3746.0035            0    13491.615    16.699544    19.669857    20.373404    6692.2075    13486.164    13311.868    13676.811    74.903168    582.98304    292.98201   -1921.4181 
19681000     313.0003    -3736.338   -3199.8662    -3736.338            0     16807.57    16.656804    19.619515    20.321262     6640.956     18269.12    17418.124    14735.466    877.72401    1366.3756    453.34718   -1572.0273 
19682000    303.26657   -3704.2236   -3184.4351   -3704.2236            0    15936.725    16.673325    19.638975    20.341418    6660.7368    17216.099    15730.228    14863.847   -405.65725   -456.35615   -30.669312   -1636.3414 
19683000    286.19826   -3722.0273   -3231.4933   -3722.0273            0    16178.146    16.663503    19.627405    20.329434    6648.9714     15931.74    16315.339    16287.359   -555.81489   -589.45277    12.989329   -1662.7239 
19684000    292.19679   -3737.7212   -3236.9059   -3737.7212            0    16850.247    16.661053     19.62452    20.326446    6646.0395    15487.532    17124.487    17938.721   -333.91589    567.07249    93.122371   -1603.6845 
19685000    301.53417   -3738.9772    -3222.158   -3738.9772            0    13441.368    16.726752    19.701904    20.406598     6724.971    12807.484    14309.676    13206.946   -694.79295   -525.99912    2153.7666   -1903.8715 
19686000    311.97605   -3691.9287   -3157.2124   -3691.9287            0    17481.628    16.593802    19.545307    20.244399    6565.8852     17633.57    17350.779    17460.536   -1244.7143    3210.8239   -319.02667   -1483.2293 
19687000     279.1783    -3681.437   -3202.9349    -3681.437            0    14196.997     16.62262    19.579251    20.279558    6600.1538    12338.186    14983.433    15269.371   -1987.6105    589.15504    1430.0473   -1836.3821 
19688000    295.71103   -3683.2706    -3176.432   -3683.2706            0    17048.026    16.688754    19.657148    20.360241    6679.2443    14334.379    17142.364    19667.334    995.97187    694.01429    235.80734   -1515.7851 
19689000    285.28144   -3767.9369   -3278.9743   -3767.9369            0    13709.305    16.689823    19.658407    20.361546    6680.5283     13002.28    14668.819    13456.816   -1105.9871   -973.07256   -717.63288   -1943.2952 
19690000    313.25101   -3711.7736   -3174.8721   -3711.7736            0    14891.871    16.684368    19.651982    20.354891    6673.9801     17460.61    14408.896    12806.109   -1070.7236      293.442    1185.3792   -1725.3992 
19691000    308.35272   -3743.2902   -3214.7841   -3743.2902            0    12501.981    16.702221     19.67301     20.37667    6695.4263    12753.711    13968.885    10783.346    905.67829    1429.1938    251.97685   -1994.0167 
19692000    302.67771   -3765.7986   -3247.0193   -3765.7986            0    13551.328    16.704499    19.675693     20.37945    6698.1668    14242.827    14285.393    12125.763   -1219.2019    2089.3202    -1603.639   -1923.2458 
19693000    300.86087   -3760.5048   -3244.8396   -3760.5048            0    14929.201    16.731841    19.707899    20.412807    6731.1118    14208.401    14742.367    15836.835   -688.14489    783.63595    379.23187   -1779.2942 
19694000    309.44879   -3742.3649   -3211.9802   -3742.3649            0    13926.548    16.745086      19.7235    20.428966    6747.1093    15344.238    15133.736    11301.669     806.7299     -512.545    438.79113   -1841.6125 
19695000    292.61126   -3728.7808   -3227.2551   -3728.7808            0    15609.291    16.679666    19.646443    20.349153    6668.3383    14908.983    13757.646    18161.244   -785.10121   -117.93539    1955.7255   -1709.2379 
19696000    302.03817   -3757.8649   -3240.1819   -3757.8649            0     14191.31    16.665777    19.630084    20.332209    6651.6946    14627.367    14983.101    12963.463    610.36015    1866.9082   -135.95081   -1863.5092 
19697000    306.23486   -3734.4521    -3209.576   -3734.4521            0    17965.872    16.610553    19.565038    20.264836    6585.7902    17600.654    20367.579    15929.383    691.30855   -611.96307   -1975.3315    -1484.008 
19698000    318.82322    -3777.385    -3230.933    -3777.385            0    13730.597    16.715523    19.688678    20.392899    6711.4367    12779.571    15346.293    13065.927   -1219.0962    1884.3911    436.75219   -1886.9901 
19699000    288.91388   -3696.6411   -3201.4526   -3696.6411            0    13865.053    16.733525    19.709883    20.414862    6733.1445     11424.68    15600.543    14569.937    -450.1678    932.38655    280.22456   -1839.9597 
19700000    302.45335   -3727.2186   -3208.8239   -3727.2186            0    16093.353    16.622137    19.578682    20.278969    6599.5783    15047.894    17148.766      16083.4    787.73147    499.35491    109.22315   -1659.8696 
19701000    288.27768   -3728.4724   -3234.3744   -3728.4724            0    14470.368    16.717831    19.691396    20.395714    6714.2167    13071.234     16222.23    14117.641    1353.1805    2961.1009   -426.57437   -1817.4364 
19702000    304.68283   -3736.6986   -3214.4827   -3736.6986            0    14428.312    16.689706    19.658269    20.361402    6680.3868    13524.066    16128.526    13632.344    512.89584   -93.150455    285.34272   -1808.7815 
19703000    305.90116   -3795.7747   -3271.4706   -3795.7747            0    14017.277    16.626271    19.583551    20.284012    6604.5035    14767.948     14070.21    13213.673   -94.204247    1100.3508    354.38956   -1921.3277 
19704000     288.9108   -3745.5203   -3250.3371   -3745.5203            0    15507.257    16.624769    19.581782    20.282179    6602.7133    17086.614    15547.515    13887.641   -3278.0519    1379.5796    2541.0304   -1757.0844 
19705000    286.54826   -3723.2847   -3232.1508   -3723.2847            0    16405.625    16.632397    19.590767    20.291485    6611.8062     15945.38    15984.586    17286.908    358.91234   -374.35651    2518.8948   -1650.2153 
19706000    289.07273    -3701.268   -3205.8072    -3701.268            0    15079.444    16.704576    19.675784    20.379543    6698.2589    12425.263    15514.449     17298.62   -185.48944   -448.05872   -411.33436    -1732.738 
19707000    285.01768   -3682.2275   -3193.7169   -3682.2275            0    13952.052    16.728374    19.703815    20.408577    6726.9276    13747.781    12950.469    15157.907    -942.6961   -554.90783    1311.4597   -1824.9461 
19708000    312.09266   -3735.0298   -3200.1137   -3735.0298            0    14920.964    16.721085     19.69523    20.399685    6718.1386    16706.557    14287.679    13768.656    735.03817   -1624.0604   -1024.5916      -1738.2 
19709000    299.42261   -3762.4325   -3249.2324   -3762.4325            0    16126.392    16.691374    19.660234    20.363438     6682.391    16397.131    17798.791    14183.252    1027.8576   -298.51561    1288.9339   -1677.6217 
19710000    310.90208   -3747.0407   -3214.1652   -3747.0407            0    13097.199    16.752959    19.732772     20.43857      6756.63    13988.465    13250.355    12052.776   -127.32376    1612.9203   -416.63099   -1923.5867 
19711000    306.95451   -3762.6857   -3236.5762   -3762.6857            0    15466.584    16.665009     19.62918    20.331272    6650.7751    18662.412    13888.557    13848.784    856.37913   -112.02242    175.85402   -1736.3989 
19712000     305.1133   -3766.4739   -3243.5202   -3766.4739            0    16260.676    16.728776    19.704288    20.409067    6727.4126    16920.121    15524.995    16336.913    1048.6471    709.49721    577.69401    -1648.146 
19713000    308.55342   -3714.5186   -3185.6686   -3714.5186            0    17056.454    16.627244    19.584697    20.285198    6605.6623    15639.862    16106.263    19423.236   -2185.9936   -314.51622   -1937.0302   -1542.5043 
19714000    296.66616   -3779.5237    -3271.048   -3779.5237            0    12881.706    16.783576    19.768835    20.475923    6793.7422    12752.817    13277.305    12614.997    227.34139    1972.3384    636.83502   -1994.7316 
19715000    300.36833   -3806.9818   -3292.1608   -3806.9818            0    16482.056    16.648426    19.609647    20.311041    6630.9406    15348.423     16552.57    17545.175   -1029.7023     158.3464   -677.96787   -1698.2559 
19716000    286.33947   -3710.2124   -3219.4364   -3710.2124            0    15120.176    16.678341    19.644883    20.347537    6666.7495    14948.427    13042.359    17369.743   -157.46975   -1515.2585    813.22574   -1749.3364 
19717000    282.02613   -3732.6486   -3249.2655   -3732.6486            0    15451.241    16.625277    19.582381    20.282799     6603.319    17477.529    14077.289    14798.905    468.17734   -1042.3244   -509.60464   -1761.2702 
19718000     298.8948   -3738.8987   -3226.6032   -3738.8987            0    14483.621    16.688075    19.656348    20.359412     6678.429      15550.3    12375.272    15525.291    974.79686   -1679.5551   -316.49949    -1815.927 
19719000    301.49786   -3694.4096   -3177.6526   -3694.4096            0    13488.232    16.636809    19.595963    20.296868    6617.0688    12280.989    11675.373    16508.333    1502.0262    1263.1888   -1248.8219   -1875.9956 
19720000    290.52545   -3777.8632   -3279.9125   -3777.8632            0      14656.5    16.663191    19.627037    20.329054     6648.598    13954.649    14476.124    15538.725    135.36416   -982.81562    1262.8752   -1858.7746 
19721000    288.06009   -3753.9917   -3260.2665   -3753.9917            0    13598.302    16.727642    19.702953    20.407684     6726.045    13890.131    12921.531    13983.243   -387.60452   -470.02615     673.1402   -1926.3756 
19722000    283.33313   -3748.4876   -3262.8643   -3748.4876            0     15335.41    16.675079    19.641041    20.343558    6662.8388    14359.793    16191.612    15454.825   -539.58885   -71.303899    888.48362   -1772.7123 
19723000    303.30917   -3768.8072   -3248.9457   -3768.8072            0    15822.863    16.683998    19.651545    20.354438     6673.535    15013.124    16419.241    16036.224   -86.281404   -936.97322   -276.25138   -1708.9592 
19724000    306.55812    -3749.962   -3224.5319    -3749.962            0    14537.996    16.727222    19.702458    20.407172    6725.5383    15036.181    14365.558    14212.249    1482.1665   -1971.2296   -631.69891   -1798.5714 
19725000    295.53758     -3747.36   -3240.8188     -3747.36            0    17329.659    16.646984    19.607948    20.309282    6629.2176    16209.399    17514.803    18264.775    338.01563    1662.6356    333.88351   -1565.3814 
19726000    303.09918   -3748.5141   -3229.0124   -3748.5141            0    11606.048    16.786099    19.771807    20.479001    6796.8067    13003.507    10209.904    11604.734    -594.8646    -687.2072   -2542.8535   -2078.5692 
19727000    315.84324   -3672.1693   -3130.8248   -3672.1693            0    16750.942    16.700845    19.671389    20.374992     6693.772    18107.846    15667.306    16477.673    2998.5918   -49.918639    728.87482   -1495.5677 
19728000    304.39284    -3709.812   -3188.0931    -3709.812            0    15481.108    16.737932    19.715073    20.420238     6738.465    16564.656    14910.682    14967.986    1750.5748    899.30137    -1197.656   -1666.7089 
19729000    300.03608   -3706.9308   -3192.6792   -3706.9308            0    14582.205    16.703006    19.673935    20.377628    6696.3708    15763.088    13492.376     14491.15    1109.2957   -497.79912   -1679.6479   -1768.5855 
19730000    310.02713    -3736.574   -3205.1981    -3736.574            0     15531.61    16.729611    19.705271    20.410086    6728.4199    15421.504    13647.765    17525.561   -853.68346    1612.3486    198.94814   -1681.1262 
19731000    312.88359   -3753.6766   -3217.4048   -3753.6766            0     13619.56    16.707088    19.678743    20.382608    6701.2816    12358.114     14398.61    14101.955    687.25744    202.66435     340.0286   -1886.3473 
19732000    291.48266   -3719.6689   -3220.0776   -3719.6689            0    15498.973    16.681565     19.64868     20.35147    6670.6165    15223.442    16757.088     14516.39     35.82889   -289.27827    663.15054   -1712.2739 
19733000    294.86223   -3768.8035   -3263.4197   -3768.8035            0    12034.043    16.757003    19.737536    20.443505    6761.5247    14225.406    10636.812    11239.911   -190.37197   -1658.0311    100.93767    -2076.744 
19734000    298.50463   -3719.5867     -3207.96   -3719.5867            0    15228.437    16.696506    19.666278    20.369698    6688.5557    14256.606    16477.084     14951.62     1221.809    272.12378   -734.04343   -1722.4911 
19735000    287.86591   -3731.1771   -3237.7848   -3731.1771            0    18438.854    16.620664    19.576946    20.277171     6597.823    17011.559    21095.744    17209.258   -597.23233   -768.34214    491.35455   -1463.5525 
19736000    300.01537   -3715.2167   -3201.0006   -3715.2167            0    15101.934    16.714043    19.686935    20.391094    6709.6542    14317.916    14207.577    16780.309    2065.9236    784.91362   -456.36958   -1723.2246 
19737000    301.30858   -3721.4359   -3205.0033   -3721.4359            0    13878.394    16.741262    19.718996    20.424301    6742.4884    16266.695    14423.149    10945.339   -1679.6148   -41.746812    856.70672   -1840.3092 
19738000    302.97583   -3693.5029   -3174.2127   -3693.5029            0     16391.63    16.682334    19.649585    20.352408    6671.5384    16838.035    17453.584    14883.272   -1075.4837    1587.8005   -230.91735   -1579.3473 
19739000    308.95595   -3773.7845   -3244.2446   -3773.7845            0    10759.797    16.792029    19.778792    20.486236    6804.0123    11658.983      10766.1    9854.3096     202.5053    347.28801    442.20148   -2176.5548 
19740000    303.25484   -3732.2368   -3212.4684   -3732.2368            0    15177.267    16.723894    19.698538    20.403112    6721.5249    15762.302     15543.23    14226.269    529.89977     576.6335    147.53066   -1724.6933 
19741000    290.18559   -3754.0682      -3256.7   -3754.0682            0    12903.503    16.691391    19.660253    20.363458    6682.4105    12992.795     11118.66    14599.053    459.71725    1353.7575   -1287.2806   -1999.1749 
19742000    295.49459   -3698.5724   -3192.1047   -3698.5724            0    14501.599    16.691886    19.660837    20.364062    6683.0056    13475.305    15909.159    14120.332    822.99337    657.57469    2388.7103   -1778.7096 
19743000    306.23978   -3722.4052   -3197.5207   -3722.4052            0    14783.683    16.655566    19.618057    20.319751    6639.4753    15209.003    16038.149    13103.896   -2369.2179   -688.77222    729.94882   -1766.0176 
19744000    295.65031   -3690.1227   -3183.3882   -3690.1227            0     16970.24    16.606216    19.559929    20.259545    6580.6324     16266.86    18970.858        15673   -426.03785    1927.3521     317.5991   -1554.7242 
19745000    307.47704   -3737.2357   -3210.2306   -3737.2357            0    15105.539    16.668533     19.63333    20.335571    6654.9948    17120.233    15484.946    12711.439    816.66329   -822.05095    43.815829   -1744.1432 
19746000    289.57648   -3733.9154   -3237.5913   -3733.9154            0    14357.668    16.666211    19.630596    20.332739    6652.2145    14525.507    14685.921    13861.578   -1960.2859    1429.8061   -1148.5128   -1844.6717 
19747000    301.17958   -3755.7348   -3239.5233   -3755.7348            0    12087.849    16.723339    19.697884    20.402435    6720.8557    10427.457    13899.888    11936.203   -1629.8413    1260.8233    1057.7716   -2054.7111 
19748000    296.41424   -3737.5405   -3229.4966   -3737.5405            0    13381.362    16.766319    19.748509     20.45487    6772.8078      11737.8    14947.639    13458.646   -551.79974    2085.0104   -138.95294   -1907.7599 
19749000    295.30275   -3803.4075   -3297.2686   -3803.4075            0    14642.834    16.699786    19.670142      20.3737     6692.499    14332.932    15357.326    14238.245    1615.3557   -397.25884    814.63851   -1868.0807 
19750000    310.71468   -3748.2843   -3215.7299   -3748.2843            0    14818.154    16.702156    19.672933    20.376591    6695.3485    14695.119    14072.894    15686.448   -77.404405   -485.46309    1448.4794   -1768.8144 
Loop time of 511.773 on 64 procs for 250000 steps with 864 atoms

Performance: 84.412 ns/day, 0.284 hours/ns, 488.498 timesteps/s
99.1% CPU use with 64 MPI tasks x 1 OpenMP threads

MPI task timing breakdown:
Section |  min time  |  avg time  |  max time  |%varavg| %total
---------------------------------------------------------------
Pair    | 22.835     | 28.49      | 33.189     |  47.3 |  5.57
Bond    | 0.27645    | 0.28509    | 0.31162    |   1.3 |  0.06
Kspace  | 210.18     | 224.52     | 240.2      |  52.4 | 43.87
Neigh   | 6.5367     | 8.1567     | 10.521     |  45.4 |  1.59
Comm    | 107.87     | 126.53     | 138.21     |  82.4 | 24.72
Output  | 1.0754     | 1.0816     | 1.0903     |   0.6 |  0.21
Modify  | 116.58     | 118.56     | 120.38     |   7.8 | 23.17
Other   |            | 4.148      |            |       |  0.81

Nlocal:        13.5000 ave          19 max           7 min
Histogram: 3 0 2 5 12 22 6 7 2 5
Nghost:        2347.80 ave        2383 max        2312 min
Histogram: 3 4 5 10 12 10 7 3 5 5
Neighs:        4599.39 ave        7210 max        2337 min
Histogram: 2 4 7 12 15 8 8 4 1 3

Total # of neighbors = 294361
Ave neighs/atom = 340.69560
Ave special neighs/atom = 2.0000000
Neighbor list builds = 17244
Dangerous builds = 2

unfix		3
unfix		2
unfix		1

write_data	data.final.${pid}
write_data	data.final.0
System init for write_data ...
PPPM initialization ...
  extracting TIP4P info from pair style
  using 12-bit tables for long-range coulomb (../kspace.cpp:340)
  G vector (1/distance) = 0.37559349
  grid = 24 24 24
  stencil order = 5
  estimated absolute RMS force accuracy = 0.0030123208
  estimated relative force accuracy = 9.0715146e-06
  using double precision FFTW3
  3d grid and FFT values/proc = 2535 216
Last active /omp style is kspace_style pppm/tip4p/omp
WARNING: Not all mixed pair coeffs generated from mixing. Use write_data with 'pair ij' option to store all pair coeffs. (../write_data.cpp:312)

write_restart   restart.lmp.${pid}
write_restart   restart.lmp.0
System init for write_restart ...
PPPM initialization ...
  extracting TIP4P info from pair style
  using 12-bit tables for long-range coulomb (../kspace.cpp:340)
  G vector (1/distance) = 0.37559349
  grid = 24 24 24
  stencil order = 5
  estimated absolute RMS force accuracy = 0.0030123208
  estimated relative force accuracy = 9.0715146e-06
  using double precision FFTW3
  3d grid and FFT values/proc = 2535 216
Last active /omp style is kspace_style pppm/tip4p/omp
Total wall time: 0:08:37
