LAMMPS (30 Jul 2021)
  using 1 OpenMP thread(s) per MPI task
package omp 0
using multi-threaded neighbor list subroutines
echo both

include		in.partitions
variable        pid world 0
include		in.temp
variable        temperature equal 233.76
variable	tempDamp equal 100.0
include		in.pressure
variable        pressure equal 3375.0
variable        pressureDamp equal 1000.0 # This is 1 ps
include		in.seed
variable        seed world 745823

units		real
atom_style	full
read_restart	restart.lmp.${pid}
read_restart	restart.lmp.0
Reading restart file ...
  restart file = 30 Jul 2021, LAMMPS = 30 Jul 2021
  restoring atom style full from restart
  orthogonal box = (0.38320860 1.5429004 0.46751359) to (17.824364 22.086277 21.745682)
  4 by 4 by 4 MPI processor grid
  restoring pair style lj/cut/tip4p/long/omp from restart
  restoring bond style harmonic/omp from restart
  restoring angle style harmonic/omp from restart
  864 atoms
  576 bonds
  288 angles
Finding 1-2 1-3 1-4 neighbors ...
  special bond factors lj:    0        0        0       
  special bond factors coul:  0        0        0       
     2 = max # of 1-2 neighbors
     1 = max # of 1-3 neighbors
     1 = max # of 1-4 neighbors
     2 = max # of special neighbors
  special bonds CPU = 0.132 seconds
  read_restart CPU = 0.276 seconds
include 	in.setup
variable	out_freq equal 1000
variable	out_freq2 equal 10000
variable	out_freq3 equal 1000

timestep	2.0

neigh_modify    delay 7 every 1

include		in.tip4p
# This is TIP4P/Ice

# create groups ###
group ox type 2
288 atoms in group ox
group hy type 1
576 atoms in group hy

# set charges - beside manually ###
set group ox charge -1.1794
Setting atom values ...
  288 settings made for charge
set group hy charge 0.5897
Setting atom values ...
  576 settings made for charge

# ### TIP3P Potential Parameters ###
pair_style lj/cut/tip4p/long/omp 2 1 1 1 0.1577 8.5
pair_coeff 1 1*2 0.000 0.000
pair_coeff 2 2 0.21084 3.1668
bond_style  harmonic
bond_coeff  1 450 0.9572
angle_style harmonic
angle_coeff 1 55 104.52
kspace_style pppm/tip4p/omp 1.0e-5
pair_modify tail yes

thermo          ${out_freq}
thermo          1000
thermo_style    custom step temp pe etotal epair emol press lx ly lz vol pxx pyy pzz pxy pxz pyz enthalpy

restart 	${out_freq3} restart.lmp.${pid} restart2.lmp.${pid}
restart 	1000 restart.lmp.${pid} restart2.lmp.${pid}
restart 	1000 restart.lmp.0 restart2.lmp.${pid}
restart 	1000 restart.lmp.0 restart2.lmp.0


include         in.dump
dump            myDump all atom ${out_freq2} dump.water.${pid}
dump            myDump all atom 10000 dump.water.${pid}
dump            myDump all atom 10000 dump.water.0
dump            myDump2 all dcd ${out_freq2} dump.dcd
dump            myDump2 all dcd 10000 dump.dcd
dump_modify     myDump append yes
dump_modify     myDump2 append yes


variable natoms 	equal  "count(all)"                        # NUMBER ATOMS
variable H      	equal  "enthalpy/v_natoms"                 # ENTHALPY-per-atom
variable Vol      	equal  "vol/v_natoms"                 # volume-per-atom
fix AVG all 		ave/time ${out_freq} 1 ${out_freq} v_Vol v_H file vol_enthalpy.dat
fix AVG all 		ave/time 1000 1 ${out_freq} v_Vol v_H file vol_enthalpy.dat
fix AVG all 		ave/time 1000 1 1000 v_Vol v_H file vol_enthalpy.dat


timer           timeout 23:50:00 every 1000
New timer settings: style=normal  mode=nosync  timeout=23:50:00

fix 		1 all shake 1e-6 200 0 b 1 a 1
       0 = # of size 2 clusters
       0 = # of size 3 clusters
       0 = # of size 4 clusters
     288 = # of frozen angles
  find clusters CPU = 0.222 seconds
fix             2 all nph iso ${pressure} ${pressure} ${pressureDamp}
fix             2 all nph iso 3375 ${pressure} ${pressureDamp}
fix             2 all nph iso 3375 3375 ${pressureDamp}
fix             2 all nph iso 3375 3375 1000
fix             3 all temp/csvr ${temperature} ${temperature} ${tempDamp} ${seed}
fix             3 all temp/csvr 233.76 ${temperature} ${tempDamp} ${seed}
fix             3 all temp/csvr 233.76 233.76 ${tempDamp} ${seed}
fix             3 all temp/csvr 233.76 233.76 100 ${seed}
fix             3 all temp/csvr 233.76 233.76 100 745823

run             250000
PPPM initialization ...
  extracting TIP4P info from pair style
  using 12-bit tables for long-range coulomb (../kspace.cpp:340)
  G vector (1/distance) = 0.37358991
  grid = 24 24 25
  stencil order = 5
  estimated absolute RMS force accuracy = 0.0031471969
  estimated relative force accuracy = 9.47769e-06
  using double precision FFTW3
  3d grid and FFT values/proc = 2730 288
Last active /omp style is kspace_style pppm/tip4p/omp
Neighbor list info ...
  update every 1 steps, delay 7 steps, check yes
  max neighbors/atom: 2000, page size: 100000
  master list distance cutoff = 10.8154
  ghost atom cutoff = 10.8154
  binsize = 5.4077, bins = 4 4 4
  1 neighbor lists, perpetual/occasional/extra = 1 0 0
  (1) pair lj/cut/tip4p/long/omp, perpetual
      attributes: half, newton on, omp
      pair build: half/bin/newton/omp
      stencil: half/bin/3d
      bin: standard
Per MPI rank memory allocation (min/avg/max) = 9.237 | 9.241 | 9.249 Mbytes
Step Temp PotEng TotEng E_pair E_mol Press Lx Ly Lz Volume Pxx Pyy Pzz Pxy Pxz Pyz Enthalpy 
14500000    238.33126   -3945.1911   -3536.6994   -3945.1911            0    3722.0065    17.441155    20.543377    21.278169    7623.9727    2974.4242    4418.9935    3772.6018    74.221628   -341.09724    103.27615   -3122.8576 
14501000    228.14956   -3976.8064   -3585.7658   -3976.8064            0    2014.9589    17.462948    20.569046    21.304756    7652.5868    1777.9879    2986.7393    1280.1493   -324.78499   -14.628528    691.41792   -3360.8861 
14502000    239.74607   -3999.0345    -3588.118   -3999.0345            0    2728.9058    17.409556    20.506158    21.239618    7582.6096    3071.7589    3029.0846    2085.8737   -399.87156    526.92527    266.41252    -3286.343 
14503000    231.35569   -3995.6684   -3599.1327   -3995.6684            0    3607.4503    17.363437    20.451835    21.183352    7522.5082    4527.7543    1791.1217    4503.4749   -470.64131   -1447.3059    1313.9749   -3203.3663 
14504000    216.85451   -3967.9202    -3596.239   -3967.9202            0    2768.3842    17.391511    20.484903    21.217603     7559.056    2660.0634    2340.8646    3304.2247   -33.730896   -355.48238    1713.8591   -3291.0494 
14505000    234.85775   -3964.8138   -3562.2757   -3964.8138            0    2746.5777    17.430126    20.530386    21.264713    7609.5184    3442.1605    1829.7312    2967.8413   -829.90152    1425.3254    229.12992   -3257.4687 
14506000    234.71994   -3950.0793   -3547.7774   -3950.0793            0    3806.0644    17.417324    20.515307    21.249095    7592.7639    3796.5634    4210.5929     3411.037    954.41794    696.54085    435.88176   -3126.3217 
14507000    237.08861   -3952.8386   -3546.4769   -3952.8386            0     3902.086    17.360059    20.447857    21.179232     7518.119     4022.735    4501.9812    3181.5418   -240.15419    -324.1717    523.06993   -3118.6363 
14508000    235.70848   -3963.0704   -3559.0742   -3963.0704            0    2675.2152    17.525686    20.642944    21.381297    7735.3631    3125.9536     2118.845    2780.8471   -291.41827    1256.7111    977.28597   -3257.2769 
14509000    242.77137   -3944.8042   -3528.7024   -3944.8042            0    4677.6464    17.327742    20.409791    21.139805    7476.2103    5503.9793     4736.255    3792.7048    149.61707    624.59007   -1018.9534   -3018.6852 
14510000    237.45665   -3960.2543   -3553.2617   -3960.2543            0    2416.1881    17.443632    20.546295    21.281191    7627.2217    2964.9555    1864.8627     2418.746   -217.38105   -760.24057   -710.65908   -3284.4965 
14511000    227.75314   -3950.3245   -3559.9634   -3950.3245            0    3209.0721    17.442439     20.54489    21.279735    7625.6569    2651.1899    2007.4077    4968.6187   -551.71279    469.87928    -1120.004   -3203.0749 
14512000    244.73717   -3930.8556   -3511.3845   -3930.8556            0    3973.7615    17.461021    20.566776    21.302404    7650.0532    3076.1442    4055.7569    4789.3834    -664.0182    1403.7039   -587.37613   -3068.0392 
14513000    238.42851   -3935.2314   -3526.5731   -3935.2314            0    2878.4969     17.46073    20.566433     21.30205    7649.6712    3233.9955    3163.8219    2237.6735      910.557   -372.16785   -18.640063   -3205.4405 
14514000    225.35773   -3973.2417   -3586.9862   -3973.2417            0    4727.6596    17.410318    20.507055    21.240547    7583.6051    3711.7749    6010.4499    4460.7539    614.69892   -991.43597   -166.33821   -3064.1113 
14515000    229.41781   -3971.2399   -3578.0256   -3971.2399            0    2306.0982    17.501309     20.61423    21.351556    7703.1294    2694.0505    1837.4283    2386.8157    620.05851    242.52334   -798.30723   -3318.9534 
14516000    235.49035   -3965.6168   -3561.9944   -3965.6168            0    3060.5617    17.453355    20.557747    21.293052    7639.9821    1782.1205    3193.8243    4205.7402    392.43376   -265.78201    191.65736   -3220.9826 
14517000    237.32842   -3968.0482   -3561.2755   -3968.0482            0    3346.5575    17.440918    20.543097    21.277879    7623.6612    2454.5195    4122.4997    3462.6533   -395.09106   -1406.7078     3195.446   -3189.1942 
14518000    214.36747   -3966.3865   -3598.9679   -3966.3865            0    2904.0353    17.332413    20.415294    21.145504    7482.2584    1135.1219    3975.2991    3601.6849    1135.2022     459.3232    801.23465   -3282.0765 
14519000    229.18675   -3969.4213   -3576.6031   -3969.4213            0    4522.6533    17.347965    20.433611    21.164476    7502.4167    5220.9196    3648.3171    4698.7232     101.0396    855.15318   -83.163345   -3081.7567 
14520000    225.36364   -3984.3872   -3598.1216   -3984.3872            0    2578.6448    17.392894    20.486532     21.21929    7560.8589    2297.2407    2322.4503    3116.2434    1277.6528      379.414   -950.23382   -3313.7812 
14521000    245.29581   -4019.1597   -3598.7311   -4019.1597            0    4529.8729      17.3391    20.423169    21.153661    7490.9209     5756.606     2825.481    5007.5317    797.32946    243.95837   -220.30155   -3103.8542 
14522000    230.33024   -3954.4043   -3559.6261   -3954.4043            0    2901.3927    17.370081    20.459661    21.191459    7531.1472    2585.7159    3045.1377    3073.3244    12.588659   -225.88164   -1124.7103   -3240.9544 
14523000    232.86048   -4001.9429    -3602.828   -4001.9429            0    4432.9815    17.348363     20.43408    21.164963    7502.9337    5008.8466    4579.9742    3710.1236     779.4435   -210.14559    29.355883   -3117.7597 
14524000    250.18922   -3948.8633   -3520.0476   -3948.8633            0    4306.2866    17.377422    20.468308    21.200415    7540.7001    3568.8206    6456.3232    2893.7159    961.63608    1332.4967   -723.54533   -3046.4707 
14525000    243.20028   -3978.8603   -3562.0233   -3978.8603            0    1584.9786    17.431051    20.531475    21.265841    7610.7296    1579.4004    558.20799    2617.3276   -144.07749    104.15576    417.31186   -3386.0991 
14526000    241.29318    -3964.097   -3550.5288    -3964.097            0    2110.2661    17.471911    20.579603    21.315691    7664.3762    1694.1205    4281.9538    354.72409    28.680874   -113.22871   -224.94688   -3314.6494 
14527000    235.67027   -3946.5974   -3542.6666   -3946.5974            0    5018.4889     17.49908    20.611604    21.348836     7700.186    5333.5399    5640.4897     4081.437   -1327.8718    927.34923    517.92351   -2979.0937 
14528000    234.90523   -3982.6586    -3580.039   -3982.6586            0    3530.8064    17.513275    20.628324    21.366154    7718.9401    4052.8693    2949.4027    3590.1471   -59.598859   -806.37913    467.01043   -3182.5662 
14529000    233.33683   -4000.7041   -3600.7728   -4000.7041            0    3407.7602     17.43939    20.541298    21.276015    7621.6583    3746.3002    3318.3931    3158.5871     215.5024    969.61881    132.91684   -3221.9864 
14530000    243.41065   -3969.6544   -3552.4569   -3969.6544            0    4868.6203    17.386221    20.478672    21.211149    7552.1598    4641.2578    5133.7067    4830.8964   -200.49134    347.30677    313.33688   -3016.2246 
14531000    239.27078    -3947.448   -3537.3461    -3947.448            0    3074.1955    17.438931    20.540757    21.275455    7621.0559    2665.1793    3914.3585    2643.0487    115.85799    921.68254    1508.5006   -3195.6638 
14532000    242.97481   -3981.0492   -3564.5987   -3981.0492            0    4358.0969    17.411758    20.508751    21.242304    7585.4867     3627.376    4773.9016     4673.013    -315.2647      475.659    438.29647   -3082.4775 
14533000    245.04047   -3993.5698   -3573.5789   -3993.5698            0    3092.9388    17.446934    20.550184    21.285219    7631.5537    3585.5269    2816.4645    2876.8252    298.64391   -435.86893   -1085.4183   -3229.3398 
14534000    226.12608   -3995.2183    -3607.646   -3995.2183            0     4481.689    17.379979     20.47132    21.203534    7544.0291    3481.4313    4152.4304    5811.2053   -274.57638    768.98001    571.06973   -3114.5619 
14535000    235.19464   -4015.3447   -3612.2292   -4015.3447            0    4669.1115    17.364726    20.453354    21.184925    7524.1841    3687.6923    6496.8097    3822.8326   -13.028422    13.094461   -380.43559   -3099.8758 
14536000    221.54431   -3995.5898   -3615.8705   -3995.5898            0    4244.5689    17.347901    20.433536    21.164399    7502.3343     4894.501    2652.9654    5186.2402   -1323.8334   -812.13375    1227.4524   -3151.4558 
14537000    240.93505   -3991.9138   -3578.9594   -3991.9138            0    3368.0434    17.390515     20.48373    21.216388    7557.7572    3875.5838     3035.222    3193.3244   -764.65904    766.54681    1420.2246   -3207.7265 
14538000     233.4173   -3988.2541   -3588.1848   -3988.2541            0    3796.5902    17.408635    20.505072    21.238494    7581.4056    4365.4452    4523.6096    2500.7158    1212.0432    885.49177     465.3665   -3168.4071 
14539000     236.7131   -3981.2112    -3575.493   -3981.2112            0    5469.9881    17.305563    20.383668    21.112747    7447.5396    5916.5484    4703.5752    5789.8407    698.99329    49.938162   -126.78779   -2981.3717 
14540000    230.99173   -3988.8458   -3592.9338   -3988.8458            0    3426.8827    17.362982    20.451299    21.182797    7521.9169    3214.3115     3215.452    3850.8846    758.21733    1283.3751   -97.922047   -3217.0067 
14541000    220.18319   -3959.5588   -3582.1724   -3959.5588            0    3099.1526    17.453956    20.558455    21.293785    7640.7715    2442.1516    3312.7893    3542.5169    596.74906     87.63886    216.16159   -3236.8251 
14542000    234.18878   -3968.2962   -3566.9047   -3968.2962            0     3967.089    17.443525    20.546169     21.28106    7627.0811    4163.8839    2180.7925    5556.5906    -403.8438    -455.5339   -119.35379   -3125.6329 
14543000     227.8816   -3955.8443    -3565.263   -3955.8443            0    4054.2298    17.437965    20.539619    21.274276    7619.7897     3135.644    6503.1829    2523.8625    931.07582    1055.2297   -396.85996   -3114.7293 
14544000    236.23902   -3970.3833   -3565.4777   -3970.3833            0    3827.3481    17.384041    20.476104    21.208489    7549.3191    4335.7997    3840.4026    3305.8421     501.2744   -617.21102   -429.66539   -3144.0902 
14545000    230.18341   -4014.0082   -3619.4817   -4014.0082            0    3346.6003    17.383525    20.475496     21.20786    7548.6468    3166.8331    4884.3933    1988.5744    729.69104   -361.91696   -260.16483   -3251.0569 
14546000    249.10186   -3985.0314   -3558.0793   -3985.0314            0    4131.5335    17.379427    20.470669     21.20286    7543.3095    3863.5033    3312.4005    5218.6968    803.29716   -724.82901    766.51711   -3103.5634 
14547000    228.34248   -3978.6707   -3587.2995   -3978.6707            0    4463.9353    17.377828    20.468786     21.20091    7541.2282    6038.2951    4421.8856    2931.6254   -982.52391    1742.0759   -86.121586    -3096.351 
14548000    224.32708   -3943.2324   -3558.7435   -3943.2324            0    5622.3748    17.321252    20.402146    21.131887    7467.8125     4456.103    6462.1319    5948.8896   -202.03216    -23.02886    1030.0998   -2946.4085 
14549000    238.52798   -3974.6329   -3565.8041   -3974.6329            0    3892.3239    17.492993    20.604435    21.341411    7692.1536    2858.8463    3698.4014    5119.7239      743.398    -26.01575   -528.22336   -3129.1548 
14550000    243.81894   -3993.8759   -3575.9786   -3993.8759            0    4766.2904    17.408089     20.50443    21.237828    7580.6931    5540.2058    4703.6222    4055.0433   -886.03148     1154.702   -1474.1085   -3049.0336 
14551000     241.5014   -3970.3855   -3556.4604   -3970.3855            0    2611.7086    17.525715    20.642977    21.381332    7735.4011    2785.7895    1767.3856    3281.9507   -1249.4407    144.48289    228.77034    -3261.826 
14552000    233.95102   -3970.2225   -3569.2385   -3970.2225            0    3763.0435    17.514944    20.630291    21.368191    7721.1481    3804.1497    4830.1067    2654.8743    181.10645    851.06023    574.73387   -3145.5009 
14553000     225.7231   -3961.6978   -3574.8161   -3961.6978            0    4141.7087    17.525855    20.643142    21.381502    7735.5859    5067.8773    5228.4205    2128.8284   -9.8314058    118.69695    1008.0772   -3107.5668 
14554000     238.0752   -3947.4959   -3539.4432   -3947.4959            0     3022.876    17.540132    20.659958     21.39892    7754.5062    3106.2182    3016.3941    2946.0157    1931.1727    -1273.058   -2123.4074   -3197.5816 
14555000    227.13493   -3950.4328   -3561.1313   -3950.4328            0    3818.2299    17.523424    20.640279    21.378536    7732.3677    3284.0192    4690.1134    3480.5571    791.84745   -260.79527   -383.04262   -3130.5547 
14556000     244.1861   -3933.3691   -3514.8424   -3933.3691            0     2111.581    17.533684    20.652364    21.391054    7745.9578    1614.1508    2075.7183    2644.8741    13.148946    -46.72454   -26.518274   -3276.3038 
14557000    238.84181   -3959.0507    -3549.684   -3959.0507            0    2805.7722     17.56185     20.68554    21.425416     7783.347    1199.8168    4423.3285    2794.1714   -976.83386    41.785633   -413.79228   -3231.1948 
14558000    238.45577    -3963.798   -3555.0929    -3963.798            0    3911.7211    17.499149    20.611686    21.348921    7700.2776    4851.3439    3362.0419    3521.7777   -1236.4794   -117.86881    40.909759   -3115.8041 
14559000    230.97879   -3951.7053   -3555.8156   -3951.7053            0    3257.3401    17.548501    20.669816     21.40913     7765.611    2070.0949    5838.3499    1863.5755    287.52539   -112.24046    29.191886   -3186.9105 
14560000     231.8874   -3993.8067   -3596.3597   -3993.8067            0    3161.6098    17.442876    20.545403    21.280267     7626.229    3740.9185    3740.1607    2003.7504    902.19601   -729.58337    16.435755   -3244.7231 
14561000    221.42638   -3959.0623   -3579.5451   -3959.0623            0    3129.3464    17.522447    20.639129    21.377345     7731.075    4084.8121     2870.948     2432.279    1835.6019    1017.1231   -452.77238   -3226.7119 
14562000    224.28846   -3939.1084   -3554.6856   -3939.1084            0    2202.3083    17.545926    20.666783    21.405988    7762.1931    3352.8323    489.56842    2764.5243   -824.59975   -1623.9094   -478.03211   -3305.3763 
14563000    247.54616   -3956.8876   -3532.6019   -3956.8876            0    2878.6577    17.520835    20.637229    21.375378    7728.9407     4254.188    2098.0883    2283.6968   -448.81049   -2071.0275    64.814477   -3208.1234 
14564000    231.27079   -3957.1323    -3560.742   -3957.1323            0    696.92629    17.609561    20.741737    21.483623    7846.9553    2086.9462    -10.10178    13.934495     655.9045   -137.58856    284.76406   -3480.9859 
14565000    225.26432    -3988.243   -3602.1477    -3988.243            0    3385.1544    17.564761    20.688968    21.428967    7787.2179    3620.8677    3745.8782    2788.7172   -898.94175    27.351077    450.52751   -3217.7005 
14566000    236.75396   -3954.3254   -3548.5372   -3954.3254            0    2508.2706    17.610565    20.742919    21.484848    7848.2973    2629.3006    2426.4511      2469.06   -1237.6729    344.69376   -286.06213   -3261.4421 
14567000    221.67416   -4003.1991   -3623.2572   -4003.1991            0    1744.7094    17.551825    20.673731    21.413185    7770.0248    2267.1169    1987.0196    979.99161    426.40459    1113.2906    34.050374   -3425.5505 
14568000    226.17137   -3976.3217   -3588.6718   -3976.3217            0    3062.3951     17.47147    20.579084    21.315153    7663.7963    2155.8404    5639.4925    1391.8523    1371.3712    712.38352   -119.45991   -3246.3921 
14569000     218.6418   -3986.6878   -3611.9432   -3986.6878            0    1368.4737    17.512705    20.627653    21.365459    7718.1868    1548.0028    1461.6354    1095.7829    132.75772   -755.08981   -1824.1446   -3457.9053 
14570000    230.36118   -3967.8582    -3573.027   -3967.8582            0     1546.998    17.614295    20.747313    21.489399    7853.2856    3026.9943   -32.983931    1646.9836    829.21277    140.24938   -814.58513    -3395.846 
14571000    241.29599   -3988.3573   -3574.7842   -3988.3573            0     2787.968    17.496275    20.608301    21.345415    7696.4841     4284.283    1698.8777    2380.7433     1213.167   -133.20803   -2138.8485   -3261.8478 
14572000     236.7381   -3915.6646   -3509.9036   -3915.6646            0    5429.4952    17.490762    20.601807    21.338689     7689.211    6122.3882    3711.4574      6454.64   -883.76695    1749.3921   -1224.5399   -2901.0441 
14573000    234.52534   -4003.7417   -3601.7733   -4003.7417            0    3363.5933    17.413595    20.510915    21.244545    7587.8877    3065.2498    3089.5847    3935.9455   -1549.0931   -689.87284    918.74052   -3229.5528 
14574000    232.82172   -3974.8669   -3575.8184   -3974.8669            0    5260.2548    17.453833     20.55831    21.293635    7640.6099    5527.4227    5893.8872    4359.4546   -69.425298   -755.01329    183.08025   -2989.6658 
14575000    223.61037   -3951.2067   -3567.9462   -3951.2067            0    3429.1284    17.391882     20.48534    21.218055    7559.5391    4047.7787    3265.6706     2973.936   -582.12829   -175.39085   -196.86821   -3189.8912 
14576000    235.58238   -3968.8691    -3565.089   -3968.8691            0    2731.8973    17.434846    20.535946    21.270472    7615.7024    1701.2875    4822.9124    1671.4921    49.024967    193.61764    884.52957   -3261.6648 
14577000    229.34712   -3974.7666   -3581.6735   -3974.7666            0    2728.6955    17.392698    20.486301    21.219051    7560.6039    2562.4271    3134.4542    2489.2052    -992.8548   -1402.3079    355.56682   -3280.7975 
14578000    243.29778   -3936.9822   -3519.9781   -3936.9822            0    2116.1524    17.393945    20.487769    21.220572    7562.2292    3173.6082    2812.6896    362.15924    903.59706   -801.33551   -31.639637   -3286.5933 
14579000    236.10276   -3974.7241    -3570.052   -3974.7241            0    3268.8029    17.390762    20.484021    21.216689    7558.0791    2397.1412     3196.187    4213.0805   -577.22045    1408.6199   -563.07144   -3209.7422 
14580000    242.78771   -3947.2704   -3531.1406   -3947.2704            0    3944.1669    17.447393    20.550724    21.285778    7632.1551     3869.376    3266.5356     4696.589    1033.9367   -912.10036   -994.59236   -3092.1266 
14581000    236.98123   -3975.1746   -3568.9969   -3975.1746            0    3438.2434    17.390447    20.483649    21.216304     7557.668    5003.0282    3110.9139    2200.7882    544.79942   -41.253559    416.36024   -3190.0308 
14582000    230.72203    -3999.225   -3603.7753    -3999.225            0    2684.4866    17.465903    20.572527    21.308361    7656.4725   -270.65833      5104.97    3219.1482    574.49277   -1453.6744   -937.30927   -3304.0207 
14583000    224.48066   -3980.1074   -3595.3553   -3980.1074            0      4012.35    17.415611    20.513289    21.247004    7590.5233    3382.3402    6506.4313    2148.2784   -566.47109    763.76859   -1185.4684   -3151.1881 
14584000    248.60864   -3970.1393   -3544.0326   -3970.1393            0    3782.2469    17.474782    20.582985    21.319193    7668.1552    3220.4855    4779.8348    3346.4206     525.6577   -951.34126   -354.71468   -3121.0557 
14585000    237.91176    -3992.474   -3584.7014    -3992.474            0    2519.1342    17.395623    20.489746    21.222619    7564.4183     2020.865     3420.777    2115.7605   -562.84056   -169.22502    951.99343   -3306.7923 
14586000    228.35812   -3950.0083   -3558.6103   -3950.0083            0    5488.7955    17.392163    20.485671    21.218399    7559.9062    4443.3418    5482.4245    6540.6201   -79.710451    606.37179    832.71087   -2953.4515 
14587000    226.50904   -3980.5751   -3592.3464   -3980.5751            0    4183.0478    17.395337     20.48941    21.222271    7564.0461    5219.5638    3952.6175     3376.962    661.75044   -167.11513     751.7443   -3130.8983 
14588000    242.12257   -3948.7619   -3533.7721   -3948.7619            0    5850.9145    17.403207     20.49868    21.231872    7574.3171    4178.5354    5379.8517    7994.3565    834.58184    572.35693    1032.6668   -2887.4587 
14589000    225.20712   -3978.7929   -3592.7956   -3978.7929            0     3139.766    17.424592    20.523868    21.257962    7602.2731    4376.9214    2567.2129    2475.1637   -1362.4381     257.0771   -21.959914   -3244.6855 
14590000    237.93091   -3968.9234   -3561.1179   -3968.9234            0    4886.9934    17.338567    20.422542    21.153011    7490.2305    4691.7263    4945.9569    5023.2968   -356.37536    1182.4872    -589.7786   -3027.2758 
14591000    231.44216   -3977.6765   -3580.9925   -3977.6765            0    4035.6379    17.341037    20.425451    21.156024     7493.432    5128.5692    4726.7549    2251.5895   -952.12164   -410.67811    538.48774   -3139.9618 
14592000    234.25892   -3951.3766   -3549.8649   -3951.3766            0    2004.0637    17.390194    20.483352    21.215996    7557.3386    2542.2182    1620.0934    1849.8795   -536.05595   -436.88622     679.2506   -3328.9849 
14593000    225.51849    -3987.859    -3601.328    -3987.859            0     4887.927    17.366757    20.455745    21.187402    7526.8237    4627.1746    4901.0457    5135.5605    791.82149    467.77252     66.88783   -3064.7754 
14594000    242.54551    -3999.274   -3583.5593    -3999.274            0    2625.8369    17.368401    20.457682    21.189408    7528.9617    1248.1498    3336.8956    3292.4652    410.61643    1524.0922    855.70658   -3295.2367 
14595000    236.56083   -4005.2614   -3599.8042   -4005.2614            0    3588.8509    17.369738    20.459257     21.19104    7530.7009    3221.6236     3964.767    3580.1621    1227.9946   -221.14573    168.83277   -3205.6495 
14596000    233.33777   -3967.4755   -3567.5426   -3967.4755            0    5459.4111    17.347518    20.433084    21.163931    7501.8365    5995.1138    4978.1991    5404.9205    264.83215    26.212189    29.316313    -2970.247 
14597000    234.52362   -3981.9019   -3579.9364   -3981.9019            0    3800.6655    17.399932    20.494822    21.227877    7570.0417    3992.9608    4134.5179    3274.5178    76.420338    844.96503    1172.5717   -3160.3381 
14598000    225.88577   -3995.7127   -3608.5522   -3995.7127            0    3272.7044    17.441137    20.543356    21.278146    7623.9489    2876.9412    4187.4591     2753.713     656.6292    701.65415    93.993763   -3244.6685 
14599000    231.05174   -3971.5839   -3575.5691   -3971.5839            0     4018.238    17.449086    20.552718    21.287844    7634.3777    3861.1304    4804.0713    3389.5122    1286.1943    1452.7595   -46.030292   -3128.1802 
14600000    224.55644   -3989.4619   -3604.5798   -3989.4619            0    2092.3749    17.439838    20.541825    21.276561    7622.2452    1465.9288    1579.5505    3231.6454   -422.10153    665.38728    -1111.663   -3371.9859 
14601000    233.18335   -3995.9213    -3596.253   -3995.9213            0    3526.2203    17.350575    20.436686    21.167662    7505.8044    1562.0282    4852.0186     4164.614   -549.24728    200.02434    410.58246   -3210.2572 
14602000    248.82078   -3980.6635   -3554.1932   -3980.6635            0    2693.0748    17.449262    20.552926    21.288059    7634.6085    1868.6164    4171.9826    2038.6255    1060.8143    340.67458   -377.49769   -3254.3383 
14603000    236.40561   -3968.4823   -3563.2912   -3968.4823            0    2404.9297    17.413686    20.511021    21.244656    7588.0063     2288.846    3602.0866    1323.8566   -495.03782    369.38525   -183.44859   -3297.1538 
14604000    236.70497   -3975.1695   -3569.4652   -3975.1695            0    3132.3732    17.374243    20.464563    21.196536    7536.5618    4010.7978    4331.6409     1054.681   -1164.6725    861.40528   -874.61759   -3225.1766 
14605000     233.9642   -3948.7502   -3547.7436   -3948.7502            0    3584.9983    17.350967    20.437147    21.168139    7506.3126    4379.9331    3328.4633    3046.5984   -1194.3537    1759.1707    1116.5234   -3155.2871 
14606000    221.41781   -3967.0638   -3587.5612   -3967.0638            0    3195.8173     17.37877    20.469895    21.202058    7542.4538     2168.386    3835.5275    3583.5384   -818.60552   -907.66379   -1253.8335   -3236.0247 
14607000    224.23103   -3963.4935   -3579.1692   -3963.4935            0    4707.5636    17.400679    20.495701    21.228788    7571.0162    5052.7172    4621.9693    4448.0042    1080.9355    -60.85674    406.11664   -3059.3812 
14608000    223.50414    -3953.908   -3570.8295    -3953.908            0    3562.9677    17.470922    20.578438    21.314483    7663.0741    2020.0026    4465.5485    4203.3521   -512.63511   -658.89204   -293.64608   -3172.6391 
14609000    237.81436   -3987.1844   -3579.5787   -3987.1844            0    2999.0214    17.440234    20.542292    21.277045    7622.7649    2518.5486    2174.8231    4303.6925    826.80293   -1369.9053    229.22192   -3246.1769 
14610000    228.23657   -3967.7864   -3576.5967   -3967.7864            0    2409.3521    17.386215    20.478665    21.211142    7552.1523    3008.6305    2246.6973    1972.7284     430.7607    -184.9936    4.3181109   -3311.2297 
14611000    233.06373   -3968.0929   -3568.6297   -3968.0929            0     3263.899    17.424758    20.524063    21.258163    7602.4893     3817.154    2106.9191     3867.624   -991.91869   -1435.9795    72.425809   -3206.7465 
14612000    232.28424   -3976.1921   -3578.0649   -3976.1921            0     2281.895    17.531492    20.649782    21.388379    7743.0529    3017.5308     1882.567    1945.5872   -898.98463     408.5028   -507.65326   -3320.3831 
14613000    230.94515    -3982.851   -3587.0189    -3982.851            0    2582.8153    17.419449     20.51781    21.251687    7595.5426    2556.8394    3276.1897    1915.4169    234.17856   -634.86383   -187.25066   -3300.9122 
14614000    232.98789    -3952.881   -3553.5477    -3952.881            0     1911.962    17.501972    20.615011    21.352365    7704.0046    1555.6177    1820.5248    2359.7435   -1794.5674   -1451.5427    1916.7509   -3338.7292 
14615000    227.97116   -3949.4233   -3558.6885   -3949.4233            0    3520.7668    17.451533    20.555601     21.29083      7637.59     4755.222    2995.4353    2811.6431    -93.28991    -514.1145   -213.79677   -3166.5229 
14616000    230.79084   -3997.6487   -3602.0811   -3997.6487            0    3647.3356     17.45689    20.561911    21.297365    7644.6257    3167.7304    3828.6194    3945.6569    353.46289   -1147.8446     825.7919   -3195.4432 
14617000    236.61375   -4021.8779   -3616.3301   -4021.8779            0    3664.8578    17.376312    20.467001     21.19906    7539.2549    4031.3608    4038.3984    2924.8141    648.17851   -468.69744    1450.3451   -3213.3705 
14618000    227.28598   -3993.4304     -3603.87   -3993.4304            0    3872.9853    17.382299    20.474052    21.206364    7547.0496    5331.7253    3257.9866    3029.2442    1128.2208   -510.73578   -1245.2114   -3177.5861 
14619000    238.03548   -3980.5047     -3572.52   -3980.5047            0    5061.8251    17.395523    20.489629    21.222498    7564.2883    3827.4468    5282.4678    6075.5605    325.98525   -660.24953     1133.192   -3014.1127 
14620000    226.91372    -3987.544   -3598.6217    -3987.544            0    2471.8896    17.440837    20.543003    21.277781    7623.5558    3211.1946    1679.4395    2525.0347    1303.2406    992.88589   -551.16947   -3323.7927 
14621000     234.1633   -3995.3926   -3594.0447   -3995.3926            0    3967.3107    17.411181    20.508072    21.241601    7584.7331    5990.7594    4051.5012    1859.6715   -308.62279   -173.23868   -552.79256   -3155.1984 
14622000    236.26736   -3952.3985   -3547.4443   -3952.3985            0    2204.1872    17.446525    20.549702     21.28472    7631.0172    1717.2171    2824.1173    2071.2272    894.25369   -591.96467   -1396.9802   -3302.1391 
14623000    215.73329   -3971.1779   -3601.4184   -3971.1779            0    1553.6153    17.436827    20.538279    21.272889    7618.2985    975.13941    1600.5251    2085.1815    1002.0206   -402.74231   -1221.3959   -3428.8039 
14624000    244.21771   -3968.0116   -3549.4308   -3968.0116            0    2844.7427    17.450629    20.554536    21.289727    7636.4037    2940.3882    3363.0639    2230.7758    1290.1691   -124.62134   -133.96457   -3232.6144 
14625000    249.25857   -3955.7587    -3528.538   -3955.7587            0    2709.9815    17.359535    20.447239    21.178592    7517.4381    4618.6467    1741.0543    1770.2435   -458.89588   -338.83456   -262.21084   -3231.4315 
14626000    243.68196   -3978.1713   -3560.5087   -3978.1713            0    2982.8551    17.331212    20.413878    21.144038     7480.702    3348.4117    1397.2576     4202.896   -748.56072   -1755.5042    1321.5093   -3235.0841 
14627000    243.30961   -3983.4976   -3566.4733   -3983.4976            0    3537.4521    17.411153    20.508038    21.241565    7584.6955    4606.5586    2615.3109    3390.4868   -345.59899   -73.016874    564.14412    -3175.178 
14628000    234.45755    -3983.579   -3581.7268    -3983.579            0    4073.8764    17.368171    20.457412    21.189128    7528.6632    4422.9829    5321.8039    2476.8425    148.32447   -1170.6818   -1045.8305    -3134.424 
14629000    244.38436   -3972.2576   -3553.3912   -3972.2576            0    2511.3035    17.423984    20.523152     21.25722    7601.4775    2359.6249    3126.9707     2047.315   -1161.5932    694.16124   -267.60775   -3274.9887 
14630000    233.27173   -4001.8434   -3602.0236   -4001.8434            0    2641.1213     17.33661    20.420237    21.150624     7487.695    2766.1367    1858.3994    3298.8276   -314.79864    1632.1349    1198.4552   -3313.6122 
14631000    225.86542   -4000.2735   -3613.1479   -4000.2735            0    4259.7932    17.308266    20.386851    21.116044    7451.0288    3029.2023    5450.6157    4299.5615    927.41005   -616.98958   -1019.1253   -3150.2549 
14632000    230.84062   -3955.1637   -3559.5108   -3955.1637            0    2692.0211    17.411263    20.508168      21.2417    7584.8398    2902.9279    3008.2783     2164.857   -227.28121   -363.67416   -648.23566   -3261.7272 
14633000    234.70774   -3998.8242   -3596.5432   -3998.8242            0    2609.7872    17.470091    20.577459     21.31347     7661.981    1914.8992    1487.3012    4427.1614     354.6851    181.23899    146.24312     -3304.92 
14634000    224.20666   -4006.3624   -3622.0799   -4006.3624            0    3023.3098    17.469016    20.576194    21.312159    7660.5672    2907.8984    3571.5793    2590.4516    88.859067   -230.22827    132.99638   -3284.3111 
14635000    229.53107   -4011.2791   -3617.8707   -4011.2791            0    4483.7724     17.43094    20.531344    21.265706     7610.584    5459.4978    3695.4808    4296.3386   -203.06304    -973.7542    481.72463   -3120.2054 
14636000    228.62516   -3972.3257     -3580.47   -3972.3257            0    4621.3781    17.493389    20.604902    21.341894    7692.6765    3725.8223    5308.0372    4830.2748   -568.83534   -282.97333    411.14031   -3061.9986 
14637000    229.25432   -3989.7384   -3596.8043   -3989.7384            0    3965.3883    17.430142    20.530405    21.264732    7609.5393    2660.9512    3481.3924    5753.8215   -884.77013    2039.2098    237.93961   -3156.7361 
14638000    234.87841   -3978.5399   -3575.9663   -3978.5399            0    2080.7635    17.486513    20.596802    21.333505    7683.6085    1390.7238    1595.0086     3256.558   -761.16107    949.18577    486.86551   -3342.8011 
14639000    218.65742   -4009.6466   -3634.8753   -4009.6466            0    3693.4144     17.43812    20.539802    21.274466    7619.9931    3601.0828    3867.5871    3611.5734   -640.61211    1836.4775    188.58969   -3224.4269 
14640000    238.52856   -4005.5651   -3596.7353   -4005.5651            0    2764.3489    17.434834    20.535932    21.270457    7615.6865    2826.1727    2961.1545    2505.7193   -922.25711    671.23198    1050.3788   -3289.7074 
14641000    237.85424   -4022.0428   -3614.3688   -4022.0428            0    3325.1708    17.428438    20.528397    21.262653    7607.3072    2396.6551    3431.7078    4147.1496    595.31649   -169.84529    160.30985   -3245.4584 
14642000    227.89379    -3995.401   -3604.7988    -3995.401            0    3676.3168    17.447377    20.550705    21.285759    7632.1342    2789.9369    4174.3071    4064.7064     -1100.07   -1048.5178    776.45581   -3195.5996 
14643000    227.24553   -3988.7519   -3599.2609   -3988.7519            0    3188.3436    17.427821    20.527671    21.261901    7606.4994    2874.1333    3003.5298    3687.3678    923.45529   -285.47502    95.223625   -3245.5684 
14644000    239.80562   -4002.2535   -3591.2349   -4002.2535            0    3985.6624    17.422985    20.521975    21.256001      7600.17     4276.403    4583.3747    3097.2095    484.32337   -371.21017    372.83619   -3149.4613 
14645000     234.4102   -3946.3557   -3544.5847   -3946.3557            0    4490.2332     17.35982    20.447575     21.17894    7517.8081    2936.9632    4381.6314    6152.1049     861.2531   -659.64382    960.79499   -3052.2777 
14646000    224.47305    -3960.426   -3575.6869    -3960.426            0    2936.4789    17.439518    20.541449    21.276171    7621.8258    1596.5274    3319.0436    3893.8657   -503.69018   -232.28064    856.64732   -3249.2781 
14647000     217.9679   -3980.1125    -3606.523   -3980.1125            0    3392.5358    17.388236    20.481045    21.213607    7554.7854    2401.3776    3256.0773    4520.1526    899.75734   -158.22537    2818.0594   -3232.7375 
14648000    225.67089   -4011.6087   -3624.8165   -4011.6087            0    4121.8306    17.334248    20.417454    21.147742    7484.6346    2780.2906    5764.4711    3820.7302   -97.258415    596.29563    282.38718   -3174.8951 
14649000    241.47167   -3967.0234   -3553.1492   -3967.0234            0    3262.4612    17.374609    20.464994    21.196982    7537.0379    1607.6141    5287.2527    2892.5169    1050.2217    258.65241    1228.9633   -3194.5396 
14650000    227.66994   -3970.4875    -3580.269   -3970.4875            0    1697.3467    17.349323    20.435211    21.166134    7504.1795    1892.6902    1214.0303    1985.3196   -594.98797    580.94165   -117.86784   -3394.5101 
14651000    228.55324   -3943.1158   -3551.3834   -3943.1158            0    2994.3118     17.35119     20.43741    21.168411    7506.6016    1134.2475     3292.966     4555.722    17.287865    552.18206    135.99354   -3223.5778 
14652000    217.53073   -3962.9872   -3590.1469   -3962.9872            0    3376.9964    17.267193    20.338473    21.065935    7398.1109    5133.1798    2807.3198    2190.4897    208.64043     1852.399   -1030.5059   -3225.7898 
14653000    230.53472    -3955.124   -3559.9954    -3955.124            0    2117.9465    17.366049    20.454912    21.186539    7525.9035    2108.2104    1646.8573    2598.7719    1740.2203    1175.4219   -328.12938   -3327.5347 
14654000    234.54329   -3977.0727   -3575.0735   -3977.0727            0    5340.8454    17.276798    20.349786    21.077654    7410.4636    4095.3166    5082.9579    6844.2617    383.56797    1227.9502   -36.643048   -2997.8669 
14655000    236.59566   -3962.7958   -3557.2789   -3962.7958            0    4693.1741    17.285171    20.359648    21.087868    7421.2426    3703.3363    6033.1056    4343.0803    685.14756    271.51317   -316.48797    -3049.331 
14656000    214.14082   -3975.0853   -3608.0553   -3975.0853            0    2662.4553    17.418254    20.516402    21.250229    7593.9798    2846.4878    2520.5585    2620.3195    209.65016    1020.8372   -477.20426   -3313.1873 
14657000    220.60799    -3951.684   -3573.5694    -3951.684            0    3357.5332     17.44546    20.548447     21.28342    7629.6189    3305.1829    5009.1455    1758.2713     157.8255   0.16262773    325.94857   -3199.9761 
14658000    236.52864   -3974.8178   -3569.4158   -3974.8178            0    3797.4955     17.31772    20.397987    21.127578    7463.2458    3000.3694    4657.3274    3734.7898   -179.88071    1782.7884    1933.5806    -3156.082 
14659000    225.67688   -3956.0913   -3569.2889   -3956.0913            0    5252.9154    17.260352    20.330415    21.057589    7389.3212    5395.2579    6527.7879    3835.7005   -488.18022    162.69436   -117.26544   -3003.2049 
14660000    242.77895     -3950.06   -3533.9452     -3950.06            0     2867.623    17.387287    20.479927     21.21245    7553.5492    1158.2343    5212.1525     2232.482   -205.34001    561.28338    1063.0626   -3218.0456 
14661000    217.98212   -3975.8705   -3602.2566   -3975.8705            0     2210.624    17.521128    20.637574    21.375735    7729.3282    1012.1385    2841.7797    2777.9538   -1265.0084    1431.7918    774.24191   -3353.0655 
14662000    214.94942   -3944.0485   -3575.6326   -3944.0485            0    4213.5255    17.392209    20.485725    21.218455    7559.9661    4713.9045    2585.1412    5341.5308   -149.68715   -212.67911    1935.4404   -3111.0731 
14663000    238.52792   -3979.4082   -3570.5795   -3979.4082            0    3377.0267    17.344114    20.429075    21.159778    7497.4215    3046.0626    4891.1479    2193.8695   -1177.5211    567.71164    156.54039    -3201.328 
14664000    230.93173   -3961.4719   -3565.6628   -3961.4719            0    5703.2646    17.317683    20.397943    21.127533    7463.1974    7383.3095    5559.7449    4166.7394   -122.83067    554.86292   -1146.7624   -2944.9019 
14665000    223.70078   -3957.1583   -3573.7429   -3957.1583            0    2495.8513    17.498961    20.611465    21.348692    7700.0297    1974.7445    3036.1485    2476.6608   -228.53122    1672.9766   -247.72326   -3293.4662 
14666000    233.57259   -3951.9648   -3551.6294   -3951.9648            0     3089.938    17.427967    20.527843    21.262079    7606.6915    2292.4623    3058.1887     3919.163    -547.7544    831.17568    148.78041   -3208.8447 
14667000    227.47081   -3987.5459   -3597.6687   -3987.5459            0    1180.0225     17.53861    20.658166    21.397063    7752.4876   -298.61348    2800.2135    1038.4676   -604.60737    -822.1841   -43.033843   -3464.2529 
14668000    251.43762   -3965.8546   -3534.8991   -3965.8546            0    3509.7919    17.404009    20.499624    21.232851     7575.364    3238.6925    3107.4638    4183.2195   -1548.0947    -487.0827   -76.261004   -3147.1411 
14669000    245.47772   -3961.1318   -3540.3914   -3961.1318            0    3416.3519    17.409548    20.506148    21.239608    7582.5994     3209.371      2329.18    4710.5046   -227.59473    757.99943   -481.85996    -3162.596 
14670000    242.64349   -3989.7174   -3573.8348   -3989.7174            0    4100.4183    17.396439    20.490707    21.223615    7565.4834    3107.5578    3544.3556    5649.3413    276.67536     356.5086   -610.43788   -3121.4159 
14671000    232.25244   -3967.6495   -3569.5768   -3967.6495            0    3608.0892     17.35941    20.447093     21.17844    7517.2762    2479.5359    4607.8436    3736.8881    509.64169   -1093.5363   -241.85333   -3174.0156 
14672000    222.66105   -3960.3668   -3578.7334   -3960.3668            0    2265.0982    17.437279    20.538811    21.273439    7618.8904    3176.0723    2429.5196    1189.7027   -312.50748   -337.56833   -1107.2789   -3327.0499 
14673000    230.93047   -3981.2436   -3585.4367   -3981.2436            0    4881.4796    17.371202    20.460982    21.192826    7532.6054    5564.4395    4632.4256    4447.5738   -192.70915    -140.3177    -222.6538   -3049.1801 
14674000    223.79771   -3969.6495   -3586.0679   -3969.6495            0    2454.6248    17.464332    20.570677    21.306445    7654.4071    1626.1899    3508.5693    2229.1151    62.235712   -579.93581   -270.08891    -3312.054 
14675000    247.60974   -3967.5369   -3543.1422   -3967.5369            0    3233.5789    17.416042    20.513797     21.24753     7591.087    4271.7995    2590.5644    2838.3728   -398.20108   -390.90372   -1202.5533   -3185.1585 
14676000    227.40892   -3974.5449   -3584.7738   -3974.5449            0    3377.0841    17.482468    20.592038     21.32857    7678.2775     4236.573    2925.1467    2969.5327    820.22576    -1257.413   -732.64641   -3206.6085 
14677000    242.61405   -3964.8023   -3548.9701   -3964.8023            0    3969.6296     17.48975    20.600616    21.337454    7687.8767    4646.6632    4789.9474    2472.2782   -1708.1412    1088.1115    277.13687    -3103.896 
14678000    230.92587   -3957.7209   -3561.9218   -3957.7209            0      2351.52    17.636434    20.773389    21.516408    7882.9342    2266.1645    3349.0291    1439.3664    639.78031   -689.16705   0.57143301   -3291.5805 
14679000    231.46856   -3960.9684   -3564.2392   -3960.9684            0    1920.4822    17.587204    20.715404    21.456348    7817.1063    930.05014    3438.3362    1393.0602     183.5709    494.77668   -530.87252   -3345.2957 
14680000    221.75567   -3951.5274   -3571.4457   -3951.5274            0    4728.1784    17.493194    20.604672    21.341656    7692.4188     3670.894    6080.2249    4433.4161    372.69779    422.07581   -637.66938   -3041.0102 
14681000    236.49829   -3962.5575   -3557.2075   -3962.5575            0    3225.1642    17.522914    20.639678    21.377914    7731.6928    5158.8889    2460.4908    2056.1127   -198.34066   -1535.5229    547.54268   -3193.5418 
14682000    246.30484   -3951.5892   -3529.4311   -3951.5892            0    5007.5193    17.429574    20.529736     21.26404    7608.7958    5254.2528    5624.4515    4143.8535    440.01297   -100.56105    91.275711   -2973.7643 
14683000    223.69144   -3974.1083   -3590.7088   -3974.1083            0    2383.2998    17.535668    20.654701    21.393474    7748.5876    2185.8266    2815.5296    2148.5431   -487.12817   -73.422241   -363.31349   -3321.3835 
14684000    233.69054   -4005.0868   -3604.5492   -4005.0868            0    4963.4644    17.492416    20.603755    21.340707    7691.3925    4702.7632    5278.4518    4909.1781   -649.84364   -361.56206    366.45153   -3047.7921 
14685000    240.63132   -3988.0477   -3575.6139   -3988.0477            0    3542.9617    17.520565    20.636911    21.375048    7728.5835    2131.5932    4094.5068    4402.7851   -1466.9371    1635.3793    638.12261   -3176.2744 
14686000    230.10031   -3957.6393   -3563.2553   -3957.6393            0    1574.4158     17.49229    20.603607    21.340553     7691.226    1210.7005    2274.1104    1238.4365    126.14929   -429.59018   -318.17447   -3386.6552 
14687000    221.35177   -3963.4766   -3584.0872   -3963.4766            0    5115.4774    17.440255    20.542317     21.27707    7622.7922    5848.0658    3487.6315    6010.7349   -707.10325    749.49546    256.94393   -3015.3965 
14688000    238.32464   -3949.9796   -3541.4993   -3949.9796            0    4414.8874     17.56306    20.686965    21.426892    7784.9557    6123.7227    4418.2586    2702.6809    -713.7982   -333.23672   -1158.0015   -3040.2524 
14689000    232.97981   -3991.6296   -3592.3101   -3991.6296            0    3384.4947     17.52688    20.644349    21.382753    7736.9434     4766.821    1802.1194    3584.5436    164.84045    610.06184   -483.52599   -3210.4194 
14690000    232.65574   -3923.2502   -3524.4862   -3923.2502            0    4150.4242    17.473959    20.582015    21.318189    7667.0715    5619.6537    2348.7463    4482.8725    403.48536   -773.53777    249.57199   -3060.4008 
14691000    235.73985   -3953.4495   -3549.3995   -3953.4495            0      4166.25    17.459714    20.565237    21.300811    7648.3367    3728.9769    4364.7511    4405.0221   -517.21954     703.8696   -996.94253   -3084.6829 
14692000    225.80247   -3932.0323   -3545.0146   -3932.0323            0    3070.4563    17.471576    20.579208    21.315281    7663.9348    3343.1987    2986.4247    2881.7455    542.24786   -1066.8944   -1770.8433   -3201.8278 
14693000    242.57824   -3950.5765   -3534.8057   -3950.5765            0    5681.6679    17.402151    20.497435    21.230583    7572.9373    6619.7734     6090.784    4334.4463   -369.80453   -696.65015   -194.88747   -2907.3022 
14694000    234.78112   -3940.2217   -3537.8149   -3940.2217            0    2105.2138    17.419102    20.517402    21.251264    7595.0894    1173.0629     2478.813    2663.7656   -383.16371   -522.14677   -776.28979   -3304.6275 
14695000    231.52009   -3953.7665    -3556.949   -3953.7665            0    2250.5105    17.430173    20.530442    21.264771    7609.5804    2133.2355    1276.7647    3341.5312   -143.07294   -514.02519   -160.26979    -3307.192 
14696000    231.77697   -3947.5377   -3550.2799   -3947.5377            0    2461.4807    17.414822     20.51236    21.246042    7589.4921     3021.747     2707.377    1655.3182    117.11026    1236.5348    73.395539    -3277.831 
14697000    231.26812   -3950.9751   -3554.5895   -3950.9751            0    3204.5965    17.418476    20.516664      21.2505    7594.2704    2418.9258    4588.4886     2606.375   -1566.6729    698.66822    314.69779   -3199.6655 
14698000    240.62312   -3968.8148    -3556.395   -3968.8148            0    2147.3976    17.436874    20.538335    21.272946    7618.3602    1534.1945    3638.1526    1269.8457    373.95032    211.67278    152.42592   -3317.8063 
14699000    243.56875   -3976.3522   -3558.8837   -3976.3522            0    3377.7113    17.449117    20.552755    21.287882    7634.4183    2675.7903    4901.2463    2556.0973    -1348.308   -1353.8836     -838.596   -3182.8088 
14700000    232.30544   -3989.4517   -3591.2881   -3989.4517            0    3612.2827     17.42481    20.524124    21.258227    7602.5576    3998.8863     4220.975     2616.987   -1352.2386    309.05056    372.12724   -3190.7745 
14701000    230.45929   -3995.7347   -3600.7353   -3995.7347            0    4425.6585    17.472454    20.580243    21.316353    7665.0909    4577.9226    4640.4127    4058.6401   -232.63773    983.55801   -1553.9223   -3106.0021 
14702000    235.72805   -3981.6543   -3577.6245   -3981.6543            0    3216.8836    17.495359    20.607222    21.344297    7695.2755    2820.9593    3813.4829    3016.2084    1265.0497     58.64942   -446.53359   -3216.6011 
14703000    225.23746   -3983.5935   -3597.5442   -3983.5935            0    4234.6722     17.39972    20.494572    21.227618    7569.7646    5264.7619    3780.2277    3659.0271    624.40352    898.43176   -373.74094   -3130.0481 
14704000    222.13157   -3985.8259      -3605.1   -3985.8259            0    3636.2935    17.449292    20.552961    21.288096    7634.6482    3221.1875    5611.8946    2075.7982   -895.12719   -434.43953    532.52985   -3200.2224 
14705000     224.9233   -3987.1373   -3601.6265   -3987.1373            0    4435.1939    17.435035    20.536169    21.270702      7615.95    5045.1831    6361.9982    1898.4003   -212.10673     327.5396   -1253.3455   -3109.0059 
14706000    226.95186   -3985.3007    -3596.313   -3985.3007            0    3581.1877    17.432523    20.533209    21.267637    7612.6582    2411.8456    4674.0448    3657.6726    266.60419   -1887.8962   -11.920756   -3198.7195 
14707000    234.29573   -3982.0866   -3580.5118   -3982.0866            0    4022.0207    17.448002    20.551442    21.286522     7632.955    4590.7864    5178.9692    2296.3065    -1794.043   -732.16772   -233.94761   -3132.7852 
14708000    246.98691   -3961.3914   -3538.0643   -3961.3914            0    3446.4021    17.442333    20.544764    21.279605    7625.5172    3110.2317    4429.8439    2799.1309    604.08105    99.592356     57.99846   -3154.7887 
14709000    224.45631   -3946.4291   -3561.7186   -3946.4291            0    3601.3026    17.382952    20.474821    21.207161    7547.9007    3698.2645    4212.5904    2893.0528   -390.27408   -557.74344    -860.9449    -3165.293 
14710000    236.59054   -3957.4909   -3551.9828   -3957.4909            0     4117.081    17.437344    20.538888    21.273519    7618.9754    4416.2985    3422.4998    4512.4448      354.657   -224.16527     134.0345   -3094.5136 
14711000    239.98949   -4005.3889   -3594.0551   -4005.3889            0    3063.2526    17.473645    20.581646    21.317807    7666.6589    3418.9954     1615.399    4155.3633   -427.05932   -395.32398   -376.08142   -3251.5518 
14712000    226.88419   -3965.1539   -3576.2821   -3965.1539            0     4418.297    17.428106    20.528007    21.262249    7606.8734    5954.1525    2506.3414    4794.3973     -79.9864   -949.89837   -367.98744   -3086.1231 
14713000    241.61192   -3968.3863   -3554.2718   -3968.3863            0    3929.1764    17.431209    20.531662    21.266035    7610.9372    4573.0473    3002.3574    4212.1246   -1227.1953    734.90075   -173.06287   -3118.1422 
14714000    234.59974    -3982.473   -3580.3771    -3982.473            0    4637.4501    17.406436    20.502482    21.235811    7578.5331    5031.9047    4474.5936    4405.8519   -1451.9692   -1544.9611   -440.11834   -3067.8223 
14715000    213.86147   -3991.1238   -3624.5725   -3991.1238            0     3154.814    17.418681    20.516905     21.25075    7594.5383    3686.6418    3721.4885    2056.3117    709.82681    923.59966    285.93289   -3275.1499 
14716000    235.91598    -3968.452   -3564.1001    -3968.452            0    5780.3223    17.350485    20.436579    21.167551    7505.6867    6470.8643    5995.4686     4874.634   -832.19957    255.32242      -756.58   -2931.3702 
14717000    225.87321   -3970.7446   -3583.6057   -3970.7446            0    4056.2191    17.324377    20.405827    21.135699    7471.8552    4565.7542    3618.2902    3984.6129    545.39232   -68.826126    398.45115   -3141.6022 
14718000    230.62988   -3966.2579   -3570.9662   -3966.2579            0    3134.7725    17.367588    20.456724    21.188416    7527.9044    1686.9272    2470.0275    5247.3626    1616.6969   -652.76807    522.25663   -3226.8097 
14719000    234.51936   -3968.0008   -3566.0426   -3968.0008            0    2575.8044    17.437122    20.538626    21.273248    7618.6842    1867.9928    4148.4126    1711.0078    366.05775   -441.71384    2035.6505   -3279.8432 
14720000    232.63706   -3982.5564   -3583.8244   -3982.5564            0    5344.1792    17.253183    20.321971    21.048843    7380.1179    6198.2255    4521.1217    5313.1905   -1537.9823    1391.4708    1415.3541   -3008.6226 
14721000    240.18783   -3994.6969   -3583.0231   -3994.6969            0    1634.2105    17.406483    20.502538    21.235869    7578.5949    2322.2885    2177.2214     403.1215    478.82286   -389.38032    1406.8838   -3402.4003 
14722000    237.15153    -4003.411   -3596.9414    -4003.411            0    3824.6483    17.344609    20.429659    21.160383    7498.0644    5690.5255     3449.651    2333.7685    1207.0334    759.83322   -1486.9447   -3178.7101 
14723000    230.51593   -3984.8867   -3589.7903   -3984.8867            0    1896.6303    17.352363    20.438792    21.169843    7508.1247    2634.9823    1707.5562    1347.3524   -1406.8762    734.12156    753.24605   -3382.1125 
14724000    231.39061   -3966.6421   -3570.0465   -3966.6421            0    3164.3782    17.483987    20.593828    21.330424    7680.2797    2201.7148    3945.8396    3345.5802    980.06513   -573.99546   -692.13201   -3215.6076 
14725000     231.0983   -3970.3117   -3574.2172   -3970.3117            0    4086.0844    17.357972    20.445398    21.176685    7515.4071    4196.1476    4096.6924    3965.4133    70.473863    131.03166    187.94916   -3126.3639 
14726000    237.87491   -3981.7294   -3574.0199   -3981.7294            0     2806.395    17.381625    20.473259    21.205542    7546.1725    2908.8752     2155.919    3354.3908   -1328.2866    246.26373    759.29968   -3265.1672 
14727000    246.25749   -3962.7511   -3540.6742   -3962.7511            0    2350.6778    17.450488     20.55437    21.289554    7636.2178    1900.9186    1502.2513    3648.8637    -786.5809   -178.33042     148.3685   -3278.8876 
14728000    240.99861   -3963.6225   -3550.5592   -3963.6225            0    5274.5135      17.3461    20.431414    21.162201    7499.9975    6406.5126    5941.9945    3475.0335   -562.85876    -80.85271   -230.75782   -2973.6341 
14729000    231.63465   -3965.8451   -3568.8312   -3965.8451            0     3327.697    17.433854    20.534777    21.269261    7614.4023    3861.3399    3929.7112    2192.0399    345.15485    211.48309   -274.93817   -3199.2963 
14730000    228.67485   -3944.8619    -3552.921   -3944.8619            0    3089.6827    17.402882    20.498297    21.231476    7573.8924     4302.369    990.62772    3976.0513   -468.68168    542.10808   -684.21236   -3211.6425 
14731000    239.76007   -3976.8205     -3565.88   -3976.8205            0    3956.1454    17.383722    20.475728      21.2081     7548.904    3953.8178    3686.5916    4228.0268   -252.67829    665.31185    91.190218    -3130.336 
14732000     225.4872   -3969.6658   -3583.1885   -3969.6658            0     3379.039    17.405727    20.501648    21.234947    7577.6075    4235.8917    4419.4743    1481.7509     697.8544   -735.16816    518.83356   -3209.7654 
14733000    221.68436   -3967.7824    -3587.823   -3967.7824            0    3531.7614    17.344236    20.429219    21.159927    7497.5801    3995.5714    3045.0558    3554.6569    747.68633   -187.07264   -962.40509   -3201.6442 
14734000    237.80907   -3952.2256    -3544.629   -3952.2256            0    3390.0845    17.333711    20.416822    21.147087    7483.9387    4600.8125    4274.4786    1294.9623    734.80419     1585.574    1538.6635   -3174.6163 
14735000     230.9218   -3992.1222   -3596.3301   -3992.1222            0    1619.4797    17.430312    20.530605     21.26494    7609.7619    291.52371    1958.6515    2608.2638    187.18606     706.4421   -139.94472   -3416.5993 
14736000     239.0207   -3989.1874   -3579.5141   -3989.1874            0    2066.7495    17.349172    20.435033    21.165949    7503.9832    1424.5613    2027.9238    2747.7633   -1065.0966    456.53224    1182.0182   -3353.3334 
14737000    231.50165   -3970.8469    -3574.061   -3970.8469            0     2407.379    17.398477    20.493108    21.226101    7568.1423    2170.0255    2575.1456     2476.966    250.51943   -293.94124    562.70726   -3308.3499 
14738000    228.63193   -3960.0963    -3568.229   -3960.0963            0    2046.0221     17.41675    20.514631    21.248394    7592.0127    2437.6906    2203.1635    1497.2123   -200.47138    602.16821   -2186.0849   -3341.6899 
14739000    243.98629   -3993.6787   -3575.4946   -3993.6787            0    2562.7121    17.389808    20.482897    21.215525    7556.8355     1473.558    2423.9701    3790.6081    1200.9832    100.72552   -1107.7406   -3293.0614 
14740000    238.64463   -3972.5444   -3563.5156   -3972.5444            0     3165.668    17.379483    20.470735    21.202929    7543.3827    1061.5437    4830.9124    3604.5478   -457.60628    335.92342   -1635.5698   -3215.2526 
14741000     224.7957   -3967.4764   -3582.1842   -3967.4764            0    3372.8857    17.385036    20.477276    21.209703    7550.6158    1956.8875    3085.2205    5076.5493    1367.8342   -478.93844    1132.9037   -3210.7688 
14742000    230.82638   -3951.4265    -3555.798   -3951.4265            0    2818.3812      17.3661    20.454971    21.186601    7525.9693    1942.3811    3448.3084    3064.4542   -1091.8032    848.73647   -751.18461   -3246.4566 
14743000    239.87362   -3948.1802    -3537.045   -3948.1802            0    4456.6567    17.346167    20.431493    21.162283    7500.0841     6101.163    3675.3091    3593.4979   -1216.0303    402.27651    195.92006   -3049.5713 
14744000    238.01592   -3954.0958   -3546.1446   -3954.0958            0    5357.3342    17.341862    20.426423    21.157031    7494.5015    5528.2966     4469.913     6073.793    1622.4404   -67.412728   -38.043905   -2960.5901 
14745000    241.11037   -3950.5739    -3537.319   -3950.5739            0    3640.0083    17.392359    20.485901    21.218637    7560.1611     4511.802    2033.4292    4374.7938   -748.94378   -871.84979   -132.13539   -3135.9819 
14746000    226.89623   -3968.4092   -3579.5168   -3968.4092            0    3774.2203    17.366045    20.454907    21.186534    7525.8984    3776.4564    4092.0996    3454.1049   -69.389125   -894.16437    476.48205   -3165.2678 
14747000    220.99719   -3952.7776   -3573.9959   -3952.7776            0    3323.3543     17.31691    20.397033     21.12659    7462.1983    4032.3554    2539.6449    3398.0628    306.87695   -26.538869   -179.34051   -3212.3202 
14748000    240.37786   -3935.4364   -3523.4369   -3935.4364            0    4371.2501    17.432157    20.532778     21.26719    7612.1783    5194.9475    3681.3478    4237.4549    694.55879   -891.60897   -385.50494    -3038.159 
14749000    226.76548   -3975.3179   -3586.6496   -3975.3179            0    4329.7566    17.400395    20.495366    21.228441     7570.645    1372.4863    6202.7166    5414.0668   -310.41224    125.89984     1701.868   -3108.6008 
14750000    235.25996   -3941.9167   -3538.6891   -3941.9167            0    4025.3683    17.409359    20.505926    21.239378    7582.3522     5250.321     3339.216    3486.5679   -3.7562199    1071.4599    1526.0521   -3093.5606 
Loop time of 481.135 on 64 procs for 250000 steps with 864 atoms

Performance: 89.788 ns/day, 0.267 hours/ns, 519.604 timesteps/s
99.0% CPU use with 64 MPI tasks x 1 OpenMP threads

MPI task timing breakdown:
Section |  min time  |  avg time  |  max time  |%varavg| %total
---------------------------------------------------------------
Pair    | 19.908     | 24.623     | 30.51      |  49.4 |  5.12
Bond    | 0.27831    | 0.29532    | 0.30825    |   0.9 |  0.06
Kspace  | 210.48     | 219.45     | 229.03     |  29.1 | 45.61
Neigh   | 4.0474     | 4.5999     | 5.1458     |  16.0 |  0.96
Comm    | 100.85     | 110.92     | 121.11     |  46.3 | 23.05
Output  | 0.84709    | 0.84831    | 0.84954    |   0.0 |  0.18
Modify  | 108.73     | 113.32     | 119.75     |  25.2 | 23.55
Other   |            | 7.078      |            |       |  1.47

Nlocal:        13.5000 ave          20 max           9 min
Histogram: 6 6 11 9 11 8 7 4 1 1
Nghost:        2123.42 ave        2152 max        2083 min
Histogram: 3 2 2 7 5 7 15 13 8 2
Neighs:        4079.69 ave        5785 max        2514 min
Histogram: 2 5 7 8 14 11 6 4 3 4

Total # of neighbors = 261100
Ave neighs/atom = 302.19907
Ave special neighs/atom = 2.0000000
Neighbor list builds = 10657
Dangerous builds = 0

unfix		3
unfix		2
unfix		1

write_data	data.final.${pid}
write_data	data.final.0
System init for write_data ...
PPPM initialization ...
  extracting TIP4P info from pair style
  using 12-bit tables for long-range coulomb (../kspace.cpp:340)
  G vector (1/distance) = 0.37374048
  grid = 24 24 25
  stencil order = 5
  estimated absolute RMS force accuracy = 0.0031301697
  estimated relative force accuracy = 9.4264132e-06
  using double precision FFTW3
  3d grid and FFT values/proc = 2730 288
Last active /omp style is kspace_style pppm/tip4p/omp
WARNING: Not all mixed pair coeffs generated from mixing. Use write_data with 'pair ij' option to store all pair coeffs. (../write_data.cpp:312)

write_restart   restart.lmp.${pid}
write_restart   restart.lmp.0
System init for write_restart ...
PPPM initialization ...
  extracting TIP4P info from pair style
  using 12-bit tables for long-range coulomb (../kspace.cpp:340)
  G vector (1/distance) = 0.37374048
  grid = 24 24 25
  stencil order = 5
  estimated absolute RMS force accuracy = 0.0031301697
  estimated relative force accuracy = 9.4264132e-06
  using double precision FFTW3
  3d grid and FFT values/proc = 2730 288
Last active /omp style is kspace_style pppm/tip4p/omp
Total wall time: 0:08:02
