LAMMPS (30 Jul 2021)
Processor partition = 0
  using 1 OpenMP thread(s) per MPI task
using multi-threaded neighbor list subroutines
variable        pid world 0 1
variable        phase world IceII IceIII

shell cd ${phase}
shell cd IceII
include Restart.lmp
echo both
log log.lammps
#include		in.partitions
include		in.temp
variable        temperature equal 85.64
variable	tempDamp equal 100.0
include		in.pressure
variable        pressure equal 1168.8
variable        pressureDamp equal 1000.0 # This is 1 ps
include		in.seed
variable        seed equal 745823

units		real
atom_style	full
box tilt large
read_restart	restart.lmp.${pid}
read_restart	restart.lmp.0
Reading restart file ...
  restart file = 30 Jul 2021, LAMMPS = 30 Jul 2021
  restoring atom style full from restart
  triclinic box = (-10.593469 -9.2510408 0.10329032) to (12.573469 12.241039 21.756709) with tilt (-9.1472328 1.7777059 2.8169181)
  4 by 4 by 4 MPI processor grid
  restoring pair style lj/cut/tip4p/long/omp from restart
  restoring bond style harmonic/omp from restart
  restoring angle style harmonic/omp from restart
  1296 atoms
  864 bonds
  432 angles
Finding 1-2 1-3 1-4 neighbors ...
  special bond factors lj:    0        0        0       
  special bond factors coul:  0        0        0       
     2 = max # of 1-2 neighbors
     1 = max # of 1-3 neighbors
     1 = max # of 1-4 neighbors
     2 = max # of special neighbors
  special bonds CPU = 0.004 seconds
  read_restart CPU = 0.013 seconds
include 	in.setup
variable	out_freq equal 1000
variable	out_freq2 equal 10000
variable	out_freq3 equal 1000

timestep	2.0

neigh_modify    delay 7 every 1

include		in.tip4p
# This is TIP4P/Ice

# create groups ###
group ox type 2
432 atoms in group ox
group hy type 1
864 atoms in group hy

# set charges - beside manually ###
set group ox charge -1.1794
Setting atom values ...
  432 settings made for charge
set group hy charge 0.5897
Setting atom values ...
  864 settings made for charge

# ### TIP3P Potential Parameters ###
pair_style lj/cut/tip4p/long/omp 2 1 1 1 0.1577 8.5
pair_coeff 1 1*2 0.000 0.000
pair_coeff 2 2 0.21084 3.1668
bond_style  harmonic
bond_coeff  1 450 0.9572
angle_style harmonic
angle_coeff 1 55 104.52
kspace_style pppm/tip4p/omp 1.0e-5
pair_modify tail yes

thermo          ${out_freq}
thermo          1000
thermo_style    custom step temp pe etotal epair emol press lx ly lz vol pxx pyy pzz pxy pxz pyz enthalpy

restart 	${out_freq3} restart.lmp.${pid} restart2.lmp.${pid}
restart 	1000 restart.lmp.${pid} restart2.lmp.${pid}
restart 	1000 restart.lmp.0 restart2.lmp.${pid}
restart 	1000 restart.lmp.0 restart2.lmp.0


include         in.dump
dump            myDump all atom ${out_freq2} dump.water.${pid}
dump            myDump all atom 10000 dump.water.${pid}
dump            myDump all atom 10000 dump.water.0
dump            myDump2 all dcd ${out_freq2} dump.dcd
dump            myDump2 all dcd 10000 dump.dcd
dump_modify     myDump append yes
dump_modify     myDump2 append yes


variable natoms 	equal  "count(all)"                        # NUMBER ATOMS
variable H      	equal  "enthalpy/v_natoms"                 # ENTHALPY-per-atom
variable Vol      	equal  "vol/v_natoms"                 # volume-per-atom
fix AVG all 		ave/time ${out_freq} 1 ${out_freq} v_Vol v_H file vol_enthalpy.dat
fix AVG all 		ave/time 1000 1 ${out_freq} v_Vol v_H file vol_enthalpy.dat
fix AVG all 		ave/time 1000 1 1000 v_Vol v_H file vol_enthalpy.dat


timer           timeout 10:00:00 every 1000
New timer settings: style=normal  mode=nosync  timeout=10:00:00

fix 		1 all shake 1e-6 200 0 b 1 a 1
Finding SHAKE clusters ...
       0 = # of size 2 clusters
       0 = # of size 3 clusters
       0 = # of size 4 clusters
     432 = # of frozen angles
  find clusters CPU = 0.001 seconds
fix             2 all nph tri ${pressure} ${pressure} ${pressureDamp}
fix             2 all nph tri 1168.8 ${pressure} ${pressureDamp}
fix             2 all nph tri 1168.8 1168.8 ${pressureDamp}
fix             2 all nph tri 1168.8 1168.8 1000
fix             3 all temp/csvr ${temperature} ${temperature} ${tempDamp} ${seed}
fix             3 all temp/csvr 85.64 ${temperature} ${tempDamp} ${seed}
fix             3 all temp/csvr 85.64 85.64 ${tempDamp} ${seed}
fix             3 all temp/csvr 85.64 85.64 100 ${seed}
fix             3 all temp/csvr 85.64 85.64 100 745823


run             250000
PPPM initialization ...
  extracting TIP4P info from pair style
  using 12-bit tables for long-range coulomb (../kspace.cpp:340)
  G vector (1/distance) = 0.36854759
  grid = 30 40 32
  stencil order = 5
  estimated absolute RMS force accuracy = 0.0042499376
  estimated relative force accuracy = 1.2798561e-05
  using double precision FFTW3
  3d grid and FFT values/proc = 5168 640
Last active /omp style is kspace_style pppm/tip4p/omp
Neighbor list info ...
  update every 1 steps, delay 7 steps, check yes
  max neighbors/atom: 2000, page size: 100000
  master list distance cutoff = 10.8154
  ghost atom cutoff = 10.8154
  binsize = 5.4077, bins = 7 5 5
  1 neighbor lists, perpetual/occasional/extra = 1 0 0
  (1) pair lj/cut/tip4p/long/omp, perpetual
      attributes: half, newton on, omp
      pair build: half/bin/newton/tri/omp
      stencil: half/bin/3d/tri
      bin: standard
Setting up Verlet run ...
  Unit style    : real
  Current step  : 3750000
  Time step     : 2
  Walltime left : 9:59:59.93
Per MPI rank memory allocation (min/avg/max) = 9.436 | 9.441 | 9.446 Mbytes
Step Temp PotEng TotEng E_pair E_mol Press Lx Ly Lz Volume Pxx Pyy Pzz Pxy Pxz Pyz Enthalpy 
 3750000    88.973199   -6793.0159   -6564.1377   -6793.0159            0    1427.7795    23.166938     21.49208    21.653418     10781.36    1990.9884    645.10355    1647.2466    866.94488     243.4786    100.74649   -6339.6407 
 3751000    88.932931   -6810.2038   -6581.4292   -6810.2038            0    703.00829    23.383732    21.225232    21.737276    10788.757   -537.37843    1538.0339    1108.3694   -68.355805    489.40146    590.90123   -6470.8158 
 3752000    87.657173   -6801.5664   -6576.0737   -6801.5664            0    414.47327    23.189223    21.479536    21.688988     10803.15    867.82537   -839.80116    1215.3956   -169.96322    253.11301     406.5368   -6510.7722 
 3753000    87.153656   -6800.6186   -6576.4212   -6800.6186            0    2578.2442    23.343196    21.203852    21.662666    10722.276    1753.0582    3898.8469    2082.8275     139.5662   -93.160387    199.95173   -6173.2524 
 3754000    79.847464   -6793.9798   -6588.5771   -6793.9798            0    867.46391    23.210881    21.457284    21.674954    10795.048    1438.5764    15.869094    1147.9463    10.575425   -429.98465    76.264551   -6452.0082 
 3755000    82.956146   -6793.2713   -6579.8717   -6793.2713            0    891.66648    23.306237    21.390261    21.667375    10801.761    1232.7642   -20.982268    1463.2175   -196.24191   -696.62874     270.2685   -6439.4051 
 3756000     88.52083   -6797.6986   -6569.9842   -6797.6986            0    1686.4875    23.200671     21.40308    21.687702    10769.371    1833.1567    1314.3876    1911.9183     -1014.68    440.60811   -612.01052   -6305.1041 
 3757000    83.470912   -6796.9019    -6582.178   -6796.9019            0    1413.0835    23.227981    21.348502    21.709666    10765.446     1117.149    1359.0444    1763.0572    206.21719   -124.60821    338.88689   -6360.3197 
 3758000    86.236153   -6795.2783   -6573.4411   -6795.2783            0    804.10438    23.257111    21.420109    21.716742    10818.626    872.28721    1010.8789    529.14708    -284.7861   -771.23457    -203.0379   -6446.5706 
 3759000    86.718794   -6786.8025   -6563.7237   -6786.8025            0    653.42652    23.297555    21.387544    21.725583    10825.368    83.776847    1022.1468    854.35592   -298.15192    278.41589    317.40928   -6460.5627 
 3760000    85.810619   -6793.1542   -6572.4116   -6793.1542            0    1662.0996    23.163428    21.390778    21.715422    10759.639    1886.2931    1382.3644    1717.6413    310.69956    -183.3322    121.82922   -6311.5978 
 3761000    87.276152   -6802.0569   -6577.5443   -6802.0569            0    1573.3253     23.27191    21.310175    21.688726    10756.057    861.05779    2038.0489    1820.8694    635.14669    572.96997    236.32825    -6330.743 
 3762000    87.751887   -6787.3145   -6561.5781   -6787.3145            0    198.60863    23.258394     21.43031    21.711755     10821.89    469.32741    219.62044   -93.121967    518.29722    262.33081    62.561648   -6530.2325 
 3763000    87.044377   -6791.8387   -6567.9223   -6791.8387            0    665.78029    23.300777    21.342556    21.722167    10802.393   -165.08122    1059.7378    1102.6843    641.36668    300.00725    569.30918   -6463.0341 
 3764000    82.742565   -6801.9294   -6589.0792   -6801.9294            0    1256.5121    23.259009    21.318572    21.705415    10762.605    752.64344     2088.262    928.63078    96.457863    730.72328   -24.665418   -6391.8551 
 3765000    85.726967   -6796.2063   -6575.6789   -6796.2063            0    1098.1753    23.210644    21.353819    21.763161    10786.604    1151.4324    1150.9966    992.09697    -341.0096    429.69757    403.51034   -6402.9233 
 3766000    84.909913    -6795.934   -6577.5084    -6795.934            0    1262.4726    23.261416    21.314535      21.7423    10779.968    1386.5263    1345.4824    1055.4091     169.8164    279.57047   -22.914385   -6379.0291 
 3767000    88.001476   -6805.1056   -6578.7272   -6805.1056            0    1005.4984    23.227924    21.397601    21.696635    10783.701    886.06633    1134.1107    996.31804    317.60782   -62.804191     -61.9155   -6420.5932 
 3768000    86.136981   -6808.7142   -6587.1321   -6808.7142            0    1133.2902      23.2526     21.35609    21.700319    10776.044    1331.8959     1030.442    1037.5327   -570.00157    225.72986    195.70351   -6409.0269 
 3769000    85.812785   -6800.9807   -6580.2326   -6800.9807            0    1639.3379     23.29188    21.395275     21.61491    10771.492    1740.2167    1502.6868    1675.1103    -740.6068    35.894246   -385.93474   -6322.7071 
 3770000    84.837703   -6803.9292   -6585.6894   -6803.9292            0    702.86637    23.294613    21.432782    21.631084    10799.716     273.8597    657.63238    1177.1071   -51.938332    84.246266    124.89385    -6474.986 
 3771000    86.726006   -6812.6375   -6589.5401   -6812.6375            0     1004.196    23.260286    21.386172    21.644134    10766.842    954.69921    1174.2505    883.63822   -380.75204    167.06877    576.22839   -6431.8579 
 3772000    87.127917   -6798.1436   -6574.0124   -6798.1436            0    1715.0653     23.30181    21.369342     21.57569    10743.493    1914.4824     796.2854    2434.4279    -546.1834   -299.03138   -35.606172   -6305.2911 
 3773000    86.900845   -6807.1935   -6583.6463   -6807.1935            0    881.27753     23.24184    21.437586    21.667131    10795.625    1544.3128    516.32367    583.19613   -679.37142   -10.582694   -323.91887   -6444.8952 
 3774000    88.529453   -6782.6044   -6554.8678   -6782.6044            0    612.09378    23.300149    21.348829    21.747215    10817.737    783.13151    759.00633    294.14352   -146.67877    262.52971    378.03713   -6458.3005 
 3775000    87.571528   -6788.3585   -6563.0861   -6788.3585            0    1916.5539    23.132239    21.378073    21.745119    10753.454    2612.5877    1611.2775    1525.7964    763.65795    271.68623    137.18429   -6262.5166 
 3776000    85.820369   -6785.9906   -6565.2229   -6785.9906            0    1309.2912    23.284404    21.217906    21.821728    10780.944     1101.827    2317.5282    508.51847    523.12248    1079.5144   -679.90152   -6359.3643 
 3777000    87.460193   -6794.8655   -6569.8795   -6794.8655            0    1481.4022    23.162751    21.387563    21.749756    10774.716    1746.4019    1207.8671    1489.9376     489.8184   -140.19307   -64.436178   -6337.0946 
 3778000    81.468694   -6798.2202   -6588.6469   -6798.2202            0    1324.4738    23.316781    21.331601    21.682054    10784.312    1145.2508    1424.3688    1403.8016    375.35806   -100.51707   -82.185687   -6380.3362 
 3779000    85.030815    -6803.576   -6584.8394    -6803.576            0    1341.4266    23.217278    21.433269    21.627328    10762.238    755.69877      1620.88    1647.7009   -3.4795244    645.83922    285.99158   -6374.2942 
 3780000    88.064167   -6789.3646   -6562.8249   -6789.3646            0    2598.2747     23.28462    21.256209    21.657111     10719.03    2170.0737    3040.9596    2583.7909   -412.61364   -126.71389    129.30985   -6156.6468 
 3781000    88.692484   -6797.0515   -6568.8955   -6797.0515            0    282.95674    23.253626    21.416665    21.715223    10814.509   -39.005734    583.54211    304.33385    2.0880847   -161.23844    600.89188   -6524.2679 
 3782000    87.289982   -6795.1487   -6570.6005   -6795.1487            0    695.48534    23.324292    21.354302    21.707647    10812.014    390.67215    1268.4398    427.34409   -26.550217   -324.40302    347.31798   -6460.9349 
 3783000    87.117847   -6801.0878   -6576.9824   -6801.0878            0    1834.6877     23.19721    21.414799    21.629214    10744.606    2212.3406     1925.773    1365.9496   -135.56568   -711.46086     199.3846   -6289.4886 
 3784000    85.469239   -6802.5254    -6582.661   -6802.5254            0    1061.2292    23.249751    21.379397    21.678101     10775.44     1090.417    684.63015    1408.6404    518.88078    407.02725    352.22206   -6415.8902 
 3785000    86.661639   -6806.7152   -6583.7835   -6806.7152            0    1595.6844    23.285095    21.347066    21.639739    10756.432    1585.4671    1367.1659    1834.4204   -211.41512    404.48884   -1011.5916    -6333.466 
 3786000    88.343137    -6811.352   -6584.0947    -6811.352            0    1222.5651    23.228342    21.406381    21.670859    10775.504    1312.7827    993.73409    1361.1784   -201.16869    640.01113    -694.3323   -6391.9689 
 3787000    86.371966   -6795.7223   -6573.5357   -6795.7223            0    608.89235    23.323855    21.381188    21.666821    10805.064    121.83892    943.94118    760.89697    515.41911    94.793418   -735.50732    -6477.586 
 3788000    86.358017   -6800.1548   -6578.0041   -6800.1548            0    1894.6816    23.213209     21.43883     21.59798    10748.538    2138.6733    1127.3865     2417.985    544.38683   -664.46564    132.13172   -6281.0006 
 3789000    85.577539   -6797.1686   -6577.0256   -6797.1686            0    1361.7834    23.287245    21.307551    21.706484    10770.631    1346.7106    496.41586    2242.2238    168.58248   -201.35673    45.008875   -6363.1186 
 3790000    86.983255   -6807.2407   -6583.4816   -6807.2407            0    325.84029    23.222112    21.438411    21.758098    10832.164    469.08021    898.60789   -390.16722    485.18104   -60.665294   -588.08785   -6532.0067 
 3791000    83.582268   -6799.7619   -6584.7516   -6799.7619            0    945.94865    23.288753    21.316983    21.764695    10804.995    637.07028    1459.8685    740.90713   -438.83175     169.4466    83.041523   -6435.6892 
 3792000    83.997794   -6795.3048   -6579.2256   -6795.3048            0    2277.9526    23.181417    21.384595    21.657002    10735.922    2539.5049    2117.6559    2176.6971   -163.14019   -285.06328   -650.66872   -6222.5611 
 3793000    86.780634    -6795.143   -6571.9051    -6795.143            0    1055.8273    23.290647    21.389963    21.664783    10793.093    845.70953    1108.9794    1212.7929   -198.91253   -9.9000831   -691.88246   -6405.7114 
 3794000    88.158812   -6798.2913   -6571.5081   -6798.2913            0    828.39797    23.324273    21.466876     21.58746    10808.826   -110.46407    1224.2383    1371.4197    178.79281    599.38235   -609.20553   -6440.9231 
 3795000    79.716556   -6805.8579   -6600.7919   -6805.8579            0    1591.0371    23.310111    21.384415    21.581438    10757.766    791.27374    1958.9334    2022.9041    209.54324    90.042679   -67.197076   -6351.1726 
 3796000    85.849879   -6794.5966   -6573.7531   -6794.5966            0    1532.5453    23.273885    21.362572     21.65586    10767.078    1277.1762     1704.014    1616.4456   -241.35119     687.2464    14.843017   -6333.1024 
 3797000    86.505767   -6809.4489   -6586.9181   -6809.4489            0    984.18314    23.162639    21.438384    21.705196     10778.14    1714.3642    448.91729     789.2679   -417.70584    267.14747   -103.38578   -6432.2162 
 3798000    90.714032   -6802.0758   -6568.7195   -6802.0758            0    586.48763    23.338857    21.318229    21.729783    10811.504     716.2737    442.75174    600.43744    104.47058    403.73838    291.51173   -6476.2452 
 3799000    85.758773   -6789.7989   -6569.1897   -6789.7989            0    1679.1297    23.211719    21.408636    21.628903    10748.077    1457.9547    1827.4088    1752.0256    403.28506    220.98476    900.27984   -6305.9867 
 3800000    83.558241   -6789.2207   -6574.2722   -6789.2207            0    1172.1722      23.3763    21.295833    21.621036    10763.336   -14.285814    1483.8256    2046.9768    294.51883    298.86194    1277.8041   -6390.2738 
 3801000    90.714457   -6799.3335   -6565.9761   -6799.3335            0    495.22138    23.276724      21.4716    21.618567    10804.711    313.12684    736.16006    436.37722    441.56134    429.58702   -194.64388   -6487.9413 
 3802000    85.068636   -6803.8704   -6585.0365   -6803.8704            0    1239.1456    23.330349    21.372497     21.57948    10760.129    1036.3429    226.63625    2454.4576   -366.46129    171.32858    288.04141    -6390.583 
 3803000    82.594113   -6798.1931   -6585.7248   -6798.1931            0    1383.7283    23.235867    21.452474    21.606714     10770.23    2155.6432    343.29382    1652.2477    691.79782   -519.45824    169.56592   -6368.3788 
 3804000    88.504364   -6801.0571   -6573.3851   -6801.0571            0    1031.3184     23.28948    21.324251    21.729484     10791.53    1958.9925    451.96507    682.99771   -411.78227    354.93685    218.26253   -6411.0727 
 3805000    87.870086   -6799.4592   -6573.4188   -6799.4592            0     262.4724    23.203387    21.448878    21.770182    10834.729    1366.3287   -604.80488    25.893371    316.53559    296.34149    499.35651   -6531.9446 
 3806000    84.597104   -6782.6181   -6564.9972   -6782.6181            0    980.96216    23.245391    21.377698    21.751639    10809.106    1374.7021    1003.9752    564.20908   -912.54474    1075.6808   -327.21775   -6410.3586 
 3807000    87.592143   -6803.4248   -6578.0994   -6803.4248            0    1535.8286    23.205436    21.308624     21.79248    10775.856    2003.8495    1869.1291    734.50721   -457.78225   -256.85846    10.434097   -6336.7365 
 3808000     85.47223   -6800.0897   -6580.2175   -6800.0897            0    1202.8923     23.10756    21.424731     21.79409    10789.671    1754.6213    1191.8891    662.16662   -29.788915   -552.22775   -156.47727   -6390.9349 
 3809000    87.409109   -6800.8613   -6576.0067   -6800.8613            0    1485.0814    23.215859     21.31833    21.768876    10773.925    1730.3683    1793.8556     931.0203   -575.94934   -394.58204    197.43288   -6342.6609 
 3810000     82.95512   -6805.0229   -6591.6259   -6805.0229            0    564.27142    23.165389    21.430605    21.774885    10810.105     1217.772    518.95234    -43.91006   -770.03399    188.59371   -831.20288   -6502.6661 
 3811000    88.812226   -6809.0631   -6580.5991   -6809.0631            0    1007.7181    23.277686    21.358812    21.693573    10785.691    723.43347    1039.2745    1260.4464    80.458208   -230.02993     773.5498   -6422.0868 
 3812000    89.210478   -6802.0262   -6572.5376   -6802.0262            0    902.12825    23.233119    21.479173    21.599262     10778.64    1092.8048    441.53793     1172.042    201.28958   -110.88777    76.177095   -6430.7272 
 3813000    89.673397   -6790.2152   -6559.5359   -6790.2152            0    1632.8874    23.372482    21.309007    21.586984    10751.277    744.30312    2322.2373    1832.1218    382.00461    48.736078    5.8524781   -6303.5051 
 3814000    83.884086   -6797.8873   -6582.1006   -6797.8873            0     1393.199    23.288102    21.420989    21.599298      10774.9    1090.1072    982.77195    2106.7178    229.16883    17.614436   -255.32984   -6363.1721 
 3815000    81.077391   -6803.7219   -6595.1553   -6803.7219            0    755.41631    23.333431    21.381853    21.657672    10805.272    501.83837   -95.760513    1860.1711    146.22867   -179.44113    612.87533   -6476.1139 
 3816000    88.743758   -6795.9612   -6567.6733   -6795.9612            0    847.07013    23.189392    21.452127     21.70036      10795.1    1078.0076    970.13189    493.07093    500.41091   -126.43104   -559.60401   -6434.3144 
 3817000     81.32044    -6798.978   -6589.7862    -6798.978            0     1860.777    23.260651    21.268352     21.74424    10757.217    1937.2883    1951.9463    1693.0964   -371.41405    96.573138   -237.28737   -6297.8619 
 3818000    82.676882   -6798.0793    -6585.398   -6798.0793            0    1203.0276    23.127838    21.411952    21.766228    10778.901    882.58169    1475.0307    1251.4705    450.58766   -185.10198   -100.16248    -6396.283 
 3819000    82.575296    -6808.134   -6595.7141    -6808.134            0    720.96144    23.303792    21.281955    21.773468    10798.557    420.69401    1392.8858    349.30448    362.76214   -370.10933   -262.20955   -6482.1728 
 3820000    85.376224    -6802.971   -6583.3459    -6802.971            0    682.06479    23.161293    21.454831    21.762541    10814.277    1559.3733    267.76673    219.05433    499.99301   -1137.5654    232.44805   -6475.7739 
 3821000    88.032321    -6799.004   -6572.5462    -6799.004            0    1832.9936    23.280266     21.23107    21.746189    10748.379    1641.4016    2283.1638    1574.4155   -212.74445    80.855595  -0.27219634    -6285.217 
 3822000    89.478876    -6789.099     -6558.92    -6789.099            0    478.58159    23.112213    21.519962    21.777334    10831.478    1378.4251   -483.56938    540.88906    376.58155    157.44894     427.1391   -6483.3204 
 3823000    87.048905    -6812.893    -6588.965    -6812.893            0    1282.7705    23.303435    21.265093    21.742814    10774.646    1279.8422    1477.9444    1090.5249   -506.76031   -119.27298    44.728184   -6387.3941 
 3824000    83.653511   -6793.0196    -6577.826   -6793.0196            0    1751.3125    23.112497    21.471236    21.676583    10757.088    2199.7872    1612.7027    1441.4475    156.76071   -385.47749   -35.682662   -6303.0782 
 3825000    81.977862    -6788.531    -6577.648    -6788.531            0    1160.6259    23.341705    21.315154    21.684083    10788.526    1070.9824    1430.6601    980.23533     172.4351   -352.56684   -234.50012   -6395.0356 
 3826000    85.884594   -6801.7097   -6580.7769   -6801.7097            0    1134.1896    23.247629     21.49259    21.570091    10777.534    762.99597    1096.5444    1543.0285    246.61693    28.511865    152.35847   -6402.5058 
 3827000    85.379671   -6803.7983   -6584.1643   -6803.7983            0    1282.8968    23.378595    21.337209    21.563274    10756.494    1120.6643    1265.6228    1462.4031   -866.53918   -275.54961   -104.98984   -6382.9132 
 3828000    86.212535   -6785.2691   -6563.4926   -6785.2691            0    1398.4552    23.248591    21.464887    21.616134    10787.064    1041.2018    1169.6288    1984.5351    106.94858    355.07625   -185.61208     -6343.49 
 3829000    82.301259   -6798.2516   -6586.5366   -6798.2516            0    951.31168    23.346793    21.345907    21.677296    10803.064     1318.981    1049.2327    485.72135    404.40867   -207.07292    29.124644    -6436.656 
 3830000    87.861148   -6791.6621   -6565.6446   -6791.6621            0    981.52555    23.162105    21.481326    21.701031    10797.407    1305.5403    362.13246    1276.9039    83.435367   -289.09271    4.8667226   -6411.0847 
 3831000    81.889135     -6796.59   -6585.9352     -6796.59            0    1333.3211    23.267776    21.323819     21.73106    10782.036    1224.9946    1768.2939     1006.675     -756.392    179.85169    56.586574   -6376.2772 
 3832000    82.886149   -6795.6133   -6582.3937   -6795.6133            0    767.06241    23.180089    21.435995    21.739219    10801.963     593.8706    935.58195    771.73468   -300.20796    469.35937   -155.81953   -6461.5541 
 3833000    85.813534   -6800.8241    -6580.074   -6800.8241            0    1267.5616    23.286648    21.334975    21.696266     10779.14    1325.1588    1412.6835    1064.8426   -604.29685   -285.87713   -662.50866   -6380.8099 
 3834000    89.494182   -6790.0257   -6559.8073   -6790.0257            0    1182.0645    23.198212    21.444559    21.681978    10786.251    1384.6724     1035.282    1126.2391   -322.13678    58.606894   -664.12309    -6373.861 
 3835000    81.844893    -6792.692    -6582.151    -6792.692            0    1612.3632    23.256624    21.367349    21.679023    10773.009    2319.8325    947.74305    1569.5139   -443.78521   -214.72577    63.581547   -6328.8274 
 3836000    86.744744   -6806.6542   -6583.5086   -6806.6542            0    20.258055    23.213132    21.416173    21.771327     10823.32    555.26387   -309.10079   -185.38892   -60.975721    3.7746387    299.00775    -6580.311 
 3837000    83.717469   -6804.1321    -6588.774   -6804.1321            0    1430.5555    23.292874    21.294206    21.696302    10761.436     795.7506    2401.6529     1094.263   -331.53164    382.46905    202.20238   -6364.2562 
 3838000    85.199221   -6794.4961   -6575.3263   -6794.4961            0     1919.317     23.19715    21.394464    21.662324    10750.807    2364.8932    1343.5785    2049.4794    482.59659    75.819151    689.23066   -6274.3975 
 3839000    83.415061   -6808.9559   -6594.3758   -6808.9559            0    1072.8443    23.365432    21.317864    21.605582    10761.764    36.352352    1423.3283    1758.8523   -503.45871    1069.5242    2.1252925   -6425.9936 
 3840000    82.176447   -6795.7279    -6584.334   -6795.7279            0    1004.0316    23.282283    21.405799    21.632918    10781.324    650.85957    306.73489    2054.5005    1323.0813    -227.0773    691.96314   -6426.4655 
 3841000    86.435476   -6809.5705   -6587.2205   -6809.5705            0    2208.6657     23.22448      21.3092    21.649454    10714.209    1955.4047    1743.9079    2926.6844   -148.63992    909.55481    438.01071   -6242.1038 
 3842000    86.166006   -6799.6993   -6578.0425   -6799.6993            0     1481.905      23.2235    21.345668    21.725147    10769.614    2072.0371    1544.4273    829.25078   -26.382433    530.19126   -154.22843   -6345.2889 
 3843000    84.195744   -6795.6436   -6579.0552   -6795.6436            0    271.28528    23.260605    21.400681    21.739248    10821.641    9.4701637    -183.4875    987.87317    301.69587    497.61203    488.13018   -6536.2402 
 3844000    85.702943   -6795.4895   -6575.0239   -6795.4895            0    1412.4365     23.22727    21.345684    21.752725    10785.043    1663.0692    1832.4599    741.78047    185.41658   -541.49908    58.773706   -6352.8635 
 3845000    82.323564   -6805.7564   -6593.9841   -6805.7564            0    1342.2801    23.104967    21.376203    21.818485    10776.073    2213.9177    951.01539    861.90717   -458.72349    62.441524    13.539257   -6383.0341 
 3846000    87.892668   -6794.4436   -6568.3451   -6794.4436            0    1337.3087    23.186712    21.324184    21.840756    10798.894    1995.4278    1860.2958     156.2025   -423.57282    106.61661   -436.21275   -6357.7313 
 3847000    82.286175   -6793.7929   -6582.1167   -6793.7929            0    1675.5413    23.153729    21.412928    21.764296    10790.501    2082.1568    1679.7528    1264.7141   -238.56118   -171.88587    69.999456   -6318.4394 
 3848000    82.013826   -6805.2696    -6594.294   -6805.2696            0    1021.9909    23.241031    21.313253    21.779768    10788.434      1062.44    1134.4026    869.13012   -60.739464   -555.17106   -33.290952   -6433.4958 
 3849000    84.678069   -6793.7012    -6575.872   -6793.7012            0    1222.8996    23.201163    21.391778    21.745847    10792.771    985.11864    1430.7578    1252.8223    674.09258   -64.706185    -145.1773   -6383.3858 
 3850000    82.858822   -6801.2471   -6588.0978   -6801.2471            0    1248.4191    23.353969    21.317566    21.663704     10785.27    1031.1132    1286.1952    1427.9489    -172.4011   -68.866627     -536.482   -6391.7313 
 3851000    82.719776   -6801.8786   -6589.0871   -6801.8786            0    634.98776    23.237207    21.577777    21.531725    10796.164    663.69496   -187.85956    1429.1279    295.55048    761.19864   -447.22186   -6489.1076 
 3852000    84.703716   -6798.5428   -6580.6476   -6798.5428            0    1768.6296    23.350458     21.30094    21.597429    10742.274    1091.7176    2230.9398    1983.2314   -118.96862     102.2463    347.30311   -6303.5652 
 3853000    89.583984   -6800.5874   -6570.1381   -6800.5874            0    1003.8801    23.231227    21.461731     21.62505    10781.868    986.95307    510.54733    1514.1398   -281.28527    144.67097     55.36559   -6412.2855 
 3854000     87.19793   -6799.9925   -6575.6811   -6799.9925            0    177.84268    23.403549    21.301191    21.705685    10820.793   -438.49577    936.42833    35.595471   -746.72759    208.96609   -447.58971   -6547.6158 
 3855000    88.521813   -6801.5813   -6573.8643   -6801.5813            0    441.68248    23.212915    21.514492    21.654595    10814.609     419.0047   -452.47809    1358.5208    22.771942    255.63889    -479.0878   -6504.2022 
 3856000    86.784493   -6811.9046   -6588.6567   -6811.9046            0    1076.1554    23.323373    21.309008    21.694085    10781.916    963.02329    1579.1259    686.31698    4.3400134   -308.48854   -99.774884   -6419.4386 
 3857000    85.117857   -6802.0629   -6583.1024   -6802.0629            0    1246.6345    23.132356     21.46692     21.67437    10763.068    1587.0014    1149.7283    1003.1739    330.58582   -17.080878   -905.02546   -6387.4203 
 3858000    82.296778   -6793.0102   -6581.3067   -6793.0102            0    737.57931    23.280431    21.330085    21.771274    10811.039    2020.2701    80.204497    112.26333   -1341.0617   -371.65814   -179.08251   -6465.0141 
 3859000    83.141894   -6798.7791   -6584.9017   -6798.7791            0    1281.0335    23.121615    21.492009    21.723096    10794.858    1533.3767    942.91046    1366.8135   -266.95935    418.44549   -233.62772   -6383.2261 
 3860000    86.205399   -6807.6414   -6585.8833   -6807.6414            0    1046.3353    23.276814    21.318381    21.740644    10788.229    1075.2259    1921.2259    142.55404   -774.37911    351.34662   -140.12631   -6421.2578 
 3861000    84.845514   -6795.6211   -6577.3612   -6795.6211            0    1169.3331    23.230021    21.428278    21.660671    10782.234    2155.8047    464.20259    887.99205   -33.182654   -925.74551   -690.32909   -6393.4861 
 3862000    88.569142   -6805.5376   -6577.6989   -6805.5376            0    1007.7904    23.327285    21.394987     21.60654    10783.543    86.632874    1011.1295    1925.6086    33.397057    223.79451   -292.84278   -6419.2068 
 3863000    83.582937   -6791.9461   -6576.9341   -6791.9461            0    1452.7607    23.250846    21.411793    21.634932    10770.784    1437.1118    1548.1064     1373.064   -597.21422   -27.782902   -568.07497   -6348.7332 
 3864000    88.854377   -6801.5804   -6573.0079   -6801.5804            0    822.57235    23.257603    21.381918    21.683059    10782.815    758.32956    970.92114    738.46634   -644.23591    820.74772    243.06888   -6443.6532 
 3865000    85.491637   -6792.0728   -6572.1508   -6792.0728            0    1433.4337    23.265727    21.339778    21.690809    10769.171    34.061791    2879.0076    1387.2316    651.27681    1061.7274    202.16335   -6347.0195 
 3866000     84.51378    -6812.796   -6595.3894    -6812.796            0    1216.1036    23.264873     21.40734    21.637027    10776.084    897.53764    472.43061    2278.3425   -147.66466    878.91135    692.07999   -6404.2689 
 3867000     79.99229    -6807.053   -6601.2777    -6807.053            0    1220.6191    23.293755    21.389006    21.632594    10778.013    1364.9196    555.18505    1741.7526   -340.45553   -846.09417    145.00328   -6409.4131 
 3868000    86.134107   -6812.0852   -6590.5104   -6812.0852            0     765.5306    23.241161    21.399141    21.702187    10793.385    1277.7736    234.60348    784.21476    242.84577   -358.40855    111.89105   -6470.0079 
 3869000    84.899551   -6797.7525   -6579.3535   -6797.7525            0    1449.7865    23.229674    21.399801    21.656781    10765.811    1716.6495    1284.6008    1348.1091   -664.77727   -327.45851   -83.929883    -6351.725 
 3870000     84.94963   -6797.0928   -6578.5651   -6797.0928            0    1952.8088    23.180155    21.367299    21.689087    10742.547    1916.3758    2256.9905    1685.0602    -399.8669    238.89887   -633.03901   -6272.6204 
 3871000    86.529467   -6804.1106   -6581.5188   -6804.1106            0    1461.6234    23.262922    21.374828     21.65361    10767.062    1108.2551    1398.8524    1877.7627     379.6985   -121.95696    418.60928   -6352.0052 
 3872000    87.051807   -6791.1773   -6567.2418   -6791.1773            0    434.35805    23.225464    21.448608    21.705246    10812.552   -60.646673    507.14212    856.57871   -92.450497    239.12618   -327.15734   -6498.7479 
 3873000    82.565019   -6794.6046   -6582.2111   -6794.6046            0    883.50809    23.309248    21.307444    21.722244     10788.58    813.23106    726.50079    1110.7924    834.78088   -740.81532    387.07246   -6443.1996 
 3874000    85.940518   -6798.1141   -6577.0374   -6798.1141            0    1042.4357    23.226362    21.385603    21.729395    10793.202    846.46505    1211.4616    1069.3804    1218.2385   -39.197629   -475.30247   -6412.9499 
 3875000    87.616068    -6796.811    -6571.424    -6796.811            0    785.83539    23.276976    21.327695    21.745933    10795.643    346.21353    797.84123    1213.4514   -3.6961529    832.47545    698.65307   -6447.6994 
 3876000    87.865132   -6805.5984   -6579.5707   -6805.5984            0    1702.6842    23.162222    21.374072    21.702137    10744.099    1655.9171    1678.6953    1773.4404    252.91365    360.24678    403.32998   -6312.7743 
 3877000    88.001104   -6808.4177   -6582.0402   -6808.4177            0    1135.2553    23.321412    21.288594    21.680412    10763.893    688.19648    1354.6242    1362.9453    849.33314   -244.90151    941.75384   -6403.8274 
 3878000     80.94167   -6788.2052   -6579.9877   -6788.2052            0    565.77253    23.216329    21.435342    21.716094    10807.013    894.04322   -502.96101    1306.2354    68.830037    228.10419    150.02699   -6490.8167 
 3879000    89.157358   -6793.4876   -6564.1357   -6793.4876            0    1640.7792    23.263661    21.238278    21.798482    10770.196    1581.6425    2408.5105    932.18462   -139.39035   -57.395997   -161.51966   -6306.4148 
 3880000    78.107607   -6795.6967   -6594.7697   -6795.6967            0    1699.3042    23.102891    21.433292    21.717596    10753.924    2914.2739    1352.9239    830.71493    151.63372    -86.79903    103.58101   -6328.2594 
 3881000    80.606915   -6800.9046   -6593.5482   -6800.9046            0     1388.455    23.269284     21.28778    21.723074    10760.555    1848.3538    1087.0835    1229.9278   -280.83512   -132.70204    20.291788   -6375.6557 
 3882000    87.426123   -6793.5212   -6568.6228   -6793.5212            0    1885.0527    23.095144    21.451192    21.694771    10747.988    1920.2429    2064.1851    1670.7301    560.08309   -604.05657   -106.43315   -6273.1438 
 3883000    86.445881   -6796.3823   -6574.0055   -6796.3823            0    520.93064    23.392531    21.238301    21.765993    10813.728      743.398    919.02224    -99.62832   -654.49613   -625.00424   -172.04464    -6491.851 
 3884000    81.031803   -6800.0017   -6591.5524   -6800.0017            0    1193.8779    23.170254    21.402264    21.721531    10771.618    1239.3365     1142.903    1199.3942    733.26322   -408.35184    491.67323   -6404.0025 
 3885000    83.986881   -6807.3308   -6591.2797   -6807.3308            0    2168.8249    23.246784    21.253058    21.723218    10732.687    2255.3734     2326.315    1924.7864    225.46725    -388.7776    394.17091   -6251.8038 
 3886000    87.592341   -6795.8044   -6570.4784   -6795.8044            0    245.11564    23.168511    21.532891    21.662248    10806.971    1184.3957   -1376.6367    927.58795    276.25969   -772.22343   -409.98159   -6531.8461 
 3887000    86.095621   -6803.3532   -6581.8775   -6803.3532            0    749.85748    23.395135    21.248471    21.711958     10793.25    566.19917    1136.7485    546.62475   -192.02293   -179.63796   -446.37724   -6463.8436 
 3888000    86.202339   -6810.5624   -6588.8121   -6810.5624            0    1658.5347     23.17177    21.433063    21.636334    10745.513    1639.1208     1488.891    1847.5924    483.49055   -14.146109    7.8031286   -6328.8994 
 3889000    83.835959   -6800.0721   -6584.4092   -6800.0721            0    856.46504    23.465306    21.276993    21.612989    10790.742   -335.13248    1367.3038    1537.2238    137.11093    61.309172   -362.87267   -6449.6257 
 3890000    89.027458   -6810.4571   -6581.4393   -6810.4571            0    795.52396    23.258982    21.490462    21.555406     10774.39    698.49046   -354.11281    2042.1942    336.36408    336.27608    8.0932032   -6456.4359 
 3891000    86.889796   -6810.6912   -6587.1725   -6810.6912            0    1249.9405    23.340086    21.330578    21.618463    10762.914    1249.8769    1472.3979    1027.5469   -192.42362   -80.987183   -204.10436   -6390.9742 
 3892000    86.163012   -6800.4355   -6578.7864   -6800.4355            0      1114.32    23.216619     21.44221     21.66644    10785.892    1707.2813    136.91905    1498.7597    -471.9298    37.625957    65.467848   -6403.5025 
 3893000    83.575791   -6792.6429   -6577.6493   -6792.6429            0    1121.0552    23.275848    21.364431    21.746528     10814.01    1214.1037    1574.5312    574.53072   -280.73516   -201.23425   -512.14189   -6400.8463 
 3894000    87.807531   -6808.5442   -6582.6647   -6808.5442            0    884.14848    23.216862    21.405487    21.768556    10818.281    938.40794    1482.2696     231.7679    102.69279    222.16329   -89.061952   -6443.1695 
 3895000    84.450222    -6784.358   -6567.1149    -6784.358            0    1764.9578     23.21869    21.370274    21.732336    10783.363     1464.213    2158.6502    1672.0103   -54.207564   -380.88493    200.49834   -6289.5501 
 3896000    87.151739   -6809.0497   -6584.8572   -6809.0497            0    730.57527    23.180945    21.451569     21.71371    10797.525     1150.422     406.6878    634.61601   -1040.8159    -223.8079   -225.23898   -6469.8129 
 3897000    84.021274   -6804.8525   -6588.7129   -6804.8525            0    1311.0956    23.285224    21.382694     21.65851     10783.79    1339.7963    1039.7485    1553.7421    183.79974    -737.5321    582.57744   -6382.5162 
 3898000    83.354702   -6805.7767   -6591.3518   -6805.7767            0    1022.3005    23.269597    21.378347    21.672411    10781.277    654.59041    1110.4839    1301.8271   -395.17823    181.30983   -15.867139   -6430.6115 
 3899000    87.708162   -6792.5864   -6566.9625   -6792.5864            0    2121.5977    23.294531     21.30157    21.638131    10737.059    1847.9465     2622.651    1894.1955   -383.54155    381.13288   -303.51406   -6234.7436 
 3900000    84.417215   -6803.0451   -6585.8869   -6803.0451            0    835.24039    23.246528    21.393598    21.697742     10790.87    634.60452    913.15385     957.9628    29.228808      596.856    725.16064    -6454.442 
 3901000    88.147998   -6798.5732   -6571.8179   -6798.5732            0    708.33554    23.276776    21.369479    21.714866    10801.247     310.8661    1590.8745    223.26603      59.7944    485.21788   -590.47718   -6460.2373 
 3902000    82.666643   -6801.8706   -6589.2157   -6801.8706            0    1940.1549     23.19788    21.354474    21.701867    10750.639    1986.2014    1541.1078    2293.1555    407.76578    369.33971   -536.71084   -6285.0246 
 3903000    87.179957   -6791.3215   -6567.0563   -6791.3215            0    1289.0784    23.265664    21.360679    21.680632    10774.632    1311.6772    1748.8727    806.68511   -41.730424   -157.73766   -376.53194   -6364.4945 
 3904000    83.015992   -6792.4897   -6578.9361   -6792.4897            0      1402.98    23.215225     21.41808    21.673124    10776.432    1279.0148    1197.3671    1732.5581    45.294088    473.64729   -221.01489   -6358.4393 
 3905000    86.379995    -6812.444   -6590.2368    -6812.444            0    159.49594    23.300415    21.373868    21.750604    10832.236    50.811739     1100.593   -672.91695    521.16376   -532.42452   -791.21006   -6565.0401 
 3906000    81.291183   -6809.1502   -6600.0336   -6809.1502            0    1656.7566    23.225216    21.345858    21.699672    10757.876    1762.8475    1940.3795    1267.0428    215.40401   -252.92686   -123.53627   -6340.1008 
 3907000    84.337415   -6805.0807   -6588.1279   -6805.0807            0    942.74748    23.156655    21.437797    21.725801    10785.289    1416.5726    1097.2366    314.43324    227.86928   -361.10261   -260.02612   -6439.8409 
 3908000    84.385162   -6805.7928   -6588.7171   -6805.7928            0     612.5079    23.314689    21.348191     21.71113    10806.204     439.3247    932.80608    465.39292   -478.18645   -173.82429    50.679617   -6492.1875 
 3909000    85.092431   -6798.1847   -6579.2897   -6798.1847            0    1101.8444     23.20189    21.475377    21.632788    10778.955    1403.7285    465.60348    1436.2011    821.48663   -236.31291    292.68955   -6406.0797 
 3910000    85.403955   -6802.0101   -6582.3136   -6802.0101            0    1594.4383    23.299637    21.295741    21.671851    10753.205    1513.4657    1674.7243    1595.1248    9.2170277     162.7578     157.5477   -6332.2667 
 3911000    82.006897   -6801.8762   -6590.9185   -6801.8762            0    1194.0586     23.15694    21.460387     21.65906    10763.619    1538.0779    706.27465    1337.8231   -343.75199     370.7989    184.70599   -6403.4795 
 3912000    87.212133   -6803.2267   -6578.8788   -6803.2267            0    508.94945    23.371263    21.287707    21.723391    10807.835    945.78137    153.38271    427.68427   -69.893881   -207.32642   -197.46727   -6498.6576 
 3913000    86.192093   -6802.4913   -6580.7674   -6802.4913            0    1269.3255    23.181464    21.446853    21.690631    10783.919    1643.3184   -3.8617886      2168.52    618.75813    -666.8375    188.24099   -6381.1376 
 3914000    84.993452   -6807.0498   -6588.4094   -6807.0498            0    2179.0487     23.26993    21.220442      21.7357    10733.049    2074.9593    2565.9802    1896.2067    300.91574    71.987379   -105.64865   -6247.3217 
 3915000    86.399721   -6801.7532   -6579.4952   -6801.7532            0    1603.6552    23.139826    21.443573    21.681783    10758.513     2242.456    1491.0009    1077.5087    189.26349   -388.36767   -575.30179   -6327.8787 
 3916000    89.554188   -6799.4499   -6569.0772   -6799.4499            0    575.55433    23.324435    21.311282    21.746657    10809.689    394.82937    749.04313    582.79048    221.46559    342.69555    61.409485   -6478.3421 
 3917000    85.163757   -6802.1427   -6583.0641   -6802.1427            0    1374.5272    23.201581     21.45928    21.657256    10782.914    1451.2182    989.77046    1682.5929    315.31342   -32.925977   -582.89254   -6366.9091 
 3918000    86.956368   -6794.8278   -6571.1378   -6794.8278            0    343.81833    23.395758    21.293829    21.718705    10819.939   -185.73669    624.55676    592.63493   -120.05491   -487.85223    201.82182   -6516.8841 
 3919000    89.872405   -6793.3574   -6562.1661   -6793.3574            0    1621.0305    23.165022    21.451479    21.645714    10756.275    1836.0733    993.16407    2033.8542   -315.95436   -99.820671    391.94068   -6307.8763 
 3920000    85.193967   -6800.4867   -6581.3304   -6800.4867            0    1582.8985    23.312701    21.265366    21.705571    10760.604    1245.4042    2119.9704    1383.3209   -85.913807   -154.86934   -411.30793   -6332.9224 
 3921000    85.140328    -6797.119   -6578.1007    -6797.119            0    875.27389    23.158514    21.467441    21.719108    10797.742    1221.5716    772.87986     631.3702    225.81454   -65.716322    77.514329   -6440.2678 
 3922000    86.222111   -6800.6125   -6578.8113   -6800.6125            0    1325.4368     23.31521    21.317741    21.688294    10779.681    984.58072    1350.4149    1641.3147    56.925657   -412.47894    37.204799   -6370.4387 
 3923000    82.732304   -6797.6544   -6584.8306   -6797.6544            0    1380.0092     23.22568    21.464254    21.590783    10763.478     1125.562    648.15228    2366.3134    283.46194   -307.82744    526.23507   -6368.2047 
 3924000    83.089396   -6801.7988   -6588.0564   -6801.7988            0     1269.039    23.325716    21.342121    21.622473    10764.105    445.36065    1423.8852    1937.8711    207.94122    203.03935    -624.0588   -6388.8383 
 3925000    87.182856   -6801.1938   -6576.9212   -6801.1938            0    1184.4401    23.240699    21.413986    21.666235    10782.765    1643.2358    745.27267    1164.8118   -34.606846    533.16031    88.137822   -6390.6614 
 3926000    85.359207   -6808.8605   -6589.2791   -6808.8605            0    987.20944    23.272042    21.338175    21.716263    10783.925    603.09733    643.65173    1714.8793   -90.004949    391.79167    444.74939   -6434.0183 
 3927000    87.793774   -6791.0494   -6565.2052   -6791.0494            0    950.39363    23.211348    21.439699    21.664843    10781.386    978.68788    535.60723    1336.8858    643.93065    905.79018   -31.317464   -6415.7697 
 3928000    82.595376   -6784.7657   -6572.2941   -6784.7657            0     1602.163    23.274449    21.345983    21.695528    10778.685    1855.5321     1200.004    1750.9528    250.38221    -839.7336   -89.140991   -6320.4404 
 3929000    83.136845   -6793.3527   -6579.4882   -6793.3527            0      1430.56    23.261659    21.374402    21.670888    10774.854    1106.8164     1748.809    1436.0545    -14.57573    205.65946    46.014413   -6354.6898 
 3930000    82.922635    -6791.769   -6578.4556    -6791.769            0    688.91219    23.263153    21.401514    21.706156    10806.772    205.85794    1351.7224    509.15623    107.12518    239.47947   -936.69849   -6469.8791 
 3931000     87.49397   -6807.8702   -6582.7973   -6807.8702            0     1040.218    23.234705     21.36748    21.703865    10775.255    942.89671    1451.9707    725.78655   -899.26143   -187.62156   -436.94519   -6419.3312 
 3932000    85.867486   -6791.9775   -6571.0886   -6791.9775            0    1473.0544    23.273292    21.350382    21.670853     10768.11    1788.5961    1528.0705    1102.4964   -360.88289    142.16704   -282.11334   -6339.7575 
 3933000     83.26879   -6802.0191   -6587.8152   -6802.0191            0    1004.8483    23.251108    21.421984    21.649722    10783.399    1049.5125     667.0517    1297.9808    209.29958   -255.68555   -444.20809   -6429.7879 
 3934000     84.59618   -6803.8596   -6586.2411   -6803.8596            0    1406.2069    23.359658     21.29869    21.659353     10776.18    1299.3534    994.25744    1925.0099    385.87196   -862.93832   -412.83929   -6365.2423 
 3935000    85.258335   -6792.2221   -6572.9002   -6792.2221            0    1744.9227    23.190306    21.393321    21.687607    10759.605    2012.6536    1302.0455    1920.0691    786.20142    248.68965   -94.561728   -6299.0907 
 3936000    88.232409   -6796.4487   -6569.4762   -6796.4487            0    1135.1406    23.273106    21.334247    21.729336    10788.924    694.67711    1779.8222    930.92268    662.87258      358.516   -276.11608   -6390.8671 
 3937000    82.735533   -6805.5608   -6592.7287   -6805.5608            0    1316.8921    23.242505    21.386849    21.664579    10769.114    900.97023    1770.1584    1279.5476    241.13022    759.33286    398.01823   -6385.9023 
 3938000    86.979597   -6791.5329   -6567.7832   -6791.5329            0    800.97955    23.329523     21.37136    21.663479    10801.056    321.81137    693.25764    1387.8697    135.71459   -246.57654     553.2764    -6441.611 
 3939000      85.4499    -6813.989   -6594.1744    -6813.989            0    1149.7696    23.244583    21.439269     21.59664    10762.618    1062.0186    1088.7758    1298.5144    432.29992   -963.34203   -209.07235   -6413.7045 
 3940000    89.084707   -6788.3086   -6559.1436   -6788.3086            0    977.68481    23.290007    21.397702    21.673279    10800.935    692.57848    783.23808    1457.2379    148.23468   -378.47288    536.74475   -6405.1382 
 3941000    89.099851   -6799.9157   -6570.7118   -6799.9157            0    908.19684    23.231259    21.386909    21.722645    10792.784     582.3053    2128.7367    13.548558    428.18334   -75.696906   -485.89578   -6427.7601 
 3942000     84.42496   -6792.9393   -6575.7612   -6792.9393            0    1112.9636    23.215414    21.355608    21.765397    10790.833    1169.7339    1506.1254    663.03154   -363.73178      -90.587    462.92659   -6400.6105 
 3943000    83.441359    -6797.494   -6582.8461    -6797.494            0    2054.6587    23.122161    21.343259    21.798781    10757.748    2294.2143    2237.1349    1632.6269   -313.45978   -42.001418    370.34198   -6260.4893 
 3944000    88.481406   -6806.8069   -6579.1938   -6806.8069            0    828.56582    23.227722    21.399683    21.732075    10802.273    1385.7888    120.24123    979.66746   -445.40745    258.70661    422.81334   -6448.6615 
 3945000    88.051594   -6799.9429   -6573.4355   -6799.9429            0    716.14656    23.345578    21.326761    21.726128    10817.126    309.08023    795.49836    1043.8611    259.56658    316.33142    177.38098   -6460.4586 
 3946000    84.632902    -6801.782    -6584.069    -6801.782            0    2061.4634    23.196104     21.42115    21.639565    10752.424    2090.0643    1256.1386    2838.1872    386.98135    525.12172    -566.8719   -6260.8046 
 3947000    82.819853   -6791.4713   -6578.4223   -6791.4713            0    931.10111    23.343747    21.336657    21.673658    10795.162    637.62768    821.82259    1333.8531    186.23767    403.68399   -391.30395   -6431.8331 
 3948000     87.00263   -6797.6243   -6573.8153   -6797.6243            0    886.95852    23.320087    21.431966    21.581389    10786.277    665.33698    371.45051    1624.0881   -68.695014    733.96376   -276.88651   -6434.2907 
 3949000    87.764384   -6799.6958   -6573.9272   -6799.6958            0    196.68297    23.378309    21.370487    21.652232    10817.582    388.10097     102.3028    99.645146   -525.27103    122.06584   -208.95281   -6542.8979 
 3950000    85.031655   -6805.0141   -6586.2754   -6805.0141            0    969.30398    23.227969    21.471858    21.619523    10782.686    762.86065    402.94974    1742.1015     1028.122   -62.319027    559.87441    -6433.848 
 3951000    86.954796   -6798.6315   -6574.9456   -6798.6315            0    1478.6731    23.341105    21.266935    21.691923    10767.735    1069.4035    1696.1601    1670.4558    -454.7075     333.4995   -121.27208   -6342.7401 
 3952000    86.522033   -6804.1994   -6581.6267   -6804.1994            0    1532.6178    23.112015    21.491309    21.664574    10760.956    2611.0718    1305.2953    681.48621   -902.66981   -32.107761    192.69829   -6341.1015 
 3953000    82.914219    -6811.666   -6598.3743    -6811.666            0    979.30311    23.317893    21.235484    21.778055    10783.769    796.49734    1586.3763    555.03572   -475.77605   -371.60317   -43.649472    -6444.359 
 3954000    85.280658   -6803.1919   -6583.8126   -6803.1919            0     1530.929    23.123453    21.479393    21.682565    10769.248    1735.8664    1565.4664     1291.454    616.59023   -687.18229   -529.02019   -6343.3673 
 3955000    86.767874   -6810.4854   -6587.2804   -6810.4854            0    1299.8027    23.353161    21.284849     21.67795    10775.426    2139.2659    398.77597    1361.3663   -445.32624   -791.33508    251.44243   -6383.0183 
 3956000    85.638346   -6814.5443   -6594.2449   -6814.5443            0    574.73179    23.171257    21.483859    21.696346    10800.615    887.54313    241.12775    595.52449    275.25107    397.00243   -510.96397   -6503.7155 
 3957000    82.858903   -6803.5104   -6590.3609   -6803.5104            0    737.61469     23.33381    21.298118    21.725753    10796.966   -245.96263    1503.4059    955.40084   -239.99202   -190.55451   -180.01367   -6474.2141 
 3958000    88.219478   -6804.4883   -6577.5491   -6804.4883            0    1505.4476    23.116455    21.500427    21.669127    10769.852    2339.4561    825.19334    1351.6934    482.70856   -378.54523   -631.74665   -6341.0926 
 3959000    86.783103   -6796.6392    -6573.395   -6796.6392            0    1205.1902    23.356414    21.312766    21.701008     10802.54    1106.2263    856.86601    1652.4784   -337.63118   -601.66092    143.72703   -6383.5245 
 3960000    86.672027   -6804.0561   -6581.0976   -6804.0561            0    802.44831    23.208091    21.505967    21.624603    10793.108    674.15647    45.615335    1687.5731    154.50623    243.73547    907.77904   -6454.7871 
 3961000    86.036176   -6794.4258   -6573.1029   -6794.4258            0    1945.6596    23.338469    21.263985    21.649746    10744.095    1515.3274    2789.7111    1531.9403   -717.50534    578.43233   -767.02648   -6268.2344 
 3962000    84.705927   -6804.3067   -6586.4058   -6804.3067            0    974.98307    23.157992    21.471452    21.697536     10788.79    1603.1886    115.73507    1206.0256   -486.78679    380.56995   -101.40547   -6432.9987 
 3963000    82.375758   -6795.6072   -6583.7006   -6795.6072            0    863.08473    23.312883    21.327153    21.754089    10816.077     1258.267    747.91532    583.07184    368.07004   -190.85532    211.69269   -6447.5564 
 3964000    85.731683   -6800.1525   -6579.6129   -6800.1525            0    1557.8146     23.20225    21.392213    21.674709    10758.187    1535.5116    1387.5264    1750.4058    214.36285   -404.92931    81.715294   -6335.1963 
 3965000    83.452322   -6809.0769   -6594.4009   -6809.0769            0    616.48043    23.294853    21.330745    21.714804    10790.012   -198.93745    1278.1894    770.18934    284.45454     235.4003    331.94802   -6497.3907 
 3966000    83.586042   -6796.3618   -6581.3418   -6796.3618            0    1223.8706     23.23367    21.374848    21.710293    10781.682    1532.6955     885.1058    1253.8103   -728.75435   -75.913972    544.86405   -6388.9006 
 3967000    83.927642   -6797.6919   -6581.7931   -6797.6919            0    1350.9749    23.251133    21.326013    21.707494    10763.747    1465.2448    1335.7811     1251.899    261.01183    398.59681    163.80058   -6369.7195 
 3968000    86.679359   -6793.9112   -6570.9338   -6793.9112            0    1468.8088    23.210534    21.357701    21.691945     10753.21    1913.1637    1038.8232    1454.4394    87.389484    1010.2925    427.40174   -6340.5886 
 3969000    84.105668   -6799.4503   -6583.0936   -6799.4503            0    201.96795    23.261104    21.353551    21.796407    10826.432    1018.9662   -359.36376   -53.698589    -348.8131    -540.8988    277.27874   -6551.2043 
 3970000    83.412283   -6807.3375   -6592.7645   -6807.3375            0    949.42441     23.24351    21.363593    21.735541    10793.106    264.56002    1176.1646    1407.5486    362.53117    144.98232    177.41243    -6443.319 
 3971000    83.812622   -6803.2259    -6587.623   -6803.2259            0    1579.3091    23.179662    21.398872    21.709129    10768.132    1780.6115    1515.3248    1441.9909    -496.7887    266.18176   -368.61729   -6339.6049 
 3972000    86.845799    -6809.631   -6586.2255    -6809.631            0    961.14291    23.277732    21.348449     21.71294    10790.104    1115.3901    1026.1339    741.90468    21.236453   -203.58676   -197.83658   -6434.9775 
 3973000    85.991578   -6808.7191    -6587.511   -6808.7191            0    884.91274    23.249307    21.389511    21.701865    10792.149    982.67718    419.56277    1252.4983    441.03926    230.56918    106.52107   -6448.2325 
 3974000    88.124162   -6795.2703   -6568.5763   -6795.2703            0    1158.7699    23.269499    21.417328    21.654547    10791.987    1388.2243     1094.555    993.53057   -314.22237   -664.16607    61.630053   -6386.1974 
 3975000    84.037936   -6803.2233   -6587.0408   -6803.2233            0    607.47193    23.244422    21.467275      21.6491     10802.78    1567.4812   -304.10633    559.04096   -967.89722   -1015.9421   -250.95173   -6491.3352 
 3976000    85.303411   -6799.1776   -6579.7398   -6799.1776            0    1318.9322    23.266526    21.405702    21.618521    10766.809    812.80674    1138.6624    2005.3274   -453.46676    633.43268   -443.60811   -6372.6373 
 3977000    85.963304   -6781.9094   -6560.7741   -6781.9094            0    1329.9794    23.268266    21.414318    21.663522     10794.37    449.35331    1356.2859    2184.2989    202.94831    124.59542    68.345448   -6351.4023 
 3978000    89.682938   -6795.2804   -6564.5765   -6795.2804            0    1437.7676    23.370417     21.31184    21.625899    10771.137    1280.5166    1180.5677    1852.2184   -192.01122   -411.35281    50.878806   -6338.7234 
 3979000    86.189436   -6794.7477   -6573.0306   -6794.7477            0    1606.8397    23.187393    21.439413    21.627241    10751.423    1932.0419    1009.9647    1878.5126    569.62392   -247.70379    249.39372   -6321.0806 
 3980000     89.15297   -6797.5238   -6568.1832   -6797.5238            0    1544.7809    23.350249    21.286928    21.683707    10777.996    1358.1977    2073.5199     1202.625   -441.61047     485.1431   -104.63489   -6325.3653 
 3981000    86.442786   -6791.2808    -6568.912   -6791.2808            0    847.17169    23.106101    21.581509    21.638898    10790.551    1134.6905   -462.23741     1869.062    -117.8946    258.29765    614.82032   -6435.5934 
 3982000    83.207656   -6790.0069   -6575.9603   -6790.0069            0    1765.0886    23.345771     21.24502    21.695754     10760.69    1215.9067    1890.6522    2188.7068    231.00056   -467.88889    129.36222   -6298.9586 
 3983000    85.539856   -6808.1722   -6588.1261   -6808.1722            0    918.96127    23.140329      21.4888    21.714909     10797.91     1218.089    529.59804    1009.1968     246.3635   -409.92678   -467.90577   -6443.4114 
 3984000    82.697488   -6790.6927   -6577.9584   -6790.6927            0    1582.5086    23.337428    21.218256    21.754729    10772.496     1418.959    2229.4103    1099.1566   -203.91151   -345.03706   -5.2468471   -6329.3371 
 3985000    84.479219   -6798.9837    -6581.666   -6798.9837            0    1254.4869    23.112764     21.49139    21.687558    10772.761    2584.9803    998.05271    180.42765    312.48371    -772.7793   -117.74599    -6384.574 
 3986000    86.001745   -6805.0388   -6583.8046   -6805.0388            0    786.14791    23.365922    21.271924    21.721274    10796.301   -148.90785    1978.6189     528.7327   -60.042339    81.844208    40.766454   -6460.0232 
 3987000    84.281506   -6803.8899   -6587.0809   -6803.8899            0    1234.3602    23.114913    21.536901    21.637376    10771.596    991.18931    455.27127      2256.62    462.54605    685.55935    95.307709   -6393.1719 
 3988000    86.983569   -6792.9734   -6569.2135   -6792.9734            0    1612.0665    23.330322    21.268842    21.685209    10760.394    1830.6061    1736.0132    1269.5802   -225.37658   -276.43516   -577.22982    -6316.233 
 3989000    84.728448   -6802.6825   -6584.7237   -6802.6825            0    1630.0771    23.111825    21.493625    21.663031     10761.26    1633.4574    1199.6429    2057.1311    920.60763    425.80273    20.478491   -6328.8963 
 3990000    86.925521   -6799.3845   -6575.7739   -6799.3845            0     1350.352     23.38871    21.180648    21.728413    10763.996    784.50181    2524.0413    742.51299    188.07891   -686.30665   -93.201478   -6363.7931 
 3991000    84.987897   -6802.4355   -6583.8094   -6802.4355            0    1197.5289    23.183838    21.449979    21.649412    10766.098    1318.3629    893.91642    1380.3073    347.72643    746.98672    3.4938274   -6395.7824 
 3992000     87.36467   -6810.8482   -6586.1079   -6810.8482            0    312.45882    23.409172    21.276803    21.710806    10813.552    69.876867    208.31179    659.18782    -581.0832   -263.36649    381.01332   -6536.8317 
 3993000    86.403905   -6799.3212   -6577.0524   -6799.3212            0    1111.2864    23.185913    21.466345    21.688212    10794.588    1865.9987    115.46223    1352.3982   -396.76262   -46.234064    406.92796   -6402.1048 
 3994000    86.447175   -6804.7822   -6582.4021   -6804.7822            0    992.91847    23.269409    21.329064    21.733601    10786.706    1378.3187    410.39148    1190.0452     -145.638   -220.00331   -331.33483   -6426.2031 
 3995000    85.439136    -6780.468    -6560.681    -6780.468            0    1289.6542    23.085319    21.466626    21.765568     10786.23    2079.4055    1217.2776    572.27944    147.45595   -537.44047   -794.71224   -6357.8105 
 3996000    83.685099   -6797.9122   -6582.6373   -6797.9122            0    1193.0212     23.28941    21.253926    21.814996    10798.235    1860.9993    1523.8462    194.21812   -234.23981   -127.22168   -297.82429    -6394.759 
 3997000      84.6256   -6798.7077   -6581.0135   -6798.7077            0    1599.9364    23.119364    21.454467    21.733684    10780.203    2112.5101     1470.765    1216.5342    156.85103   -87.506032   -364.61583   -6329.4743 
 3998000    83.409972   -6790.8973   -6576.3303   -6790.8973            0    753.31343    23.377117    21.272562    21.748195    10815.186   -104.52926    1536.3467    828.12283    41.924134   -781.32738   -471.45412   -6457.5114 
 3999000    85.290948   -6803.1087    -6583.703   -6803.1087            0     1463.254    23.131853     21.48083     21.65556    10760.462    2085.2004    567.40253    1737.1592    490.19626    237.95633   -244.48503   -6354.0741 
 4000000    89.933443   -6792.3009   -6560.9526   -6792.3009            0    1581.6436    23.370435    21.230683    21.672202    10753.103    897.43608    1919.8703    1927.6246    266.08839    374.08211    341.52752   -6312.9145 
Loop time of 537.911 on 64 procs for 250000 steps with 1296 atoms

Performance: 80.311 ns/day, 0.299 hours/ns, 464.761 timesteps/s
99.1% CPU use with 64 MPI tasks x 1 OpenMP threads

MPI task timing breakdown:
Section |  min time  |  avg time  |  max time  |%varavg| %total
---------------------------------------------------------------
Pair    | 28.942     | 40.459     | 52.406     | 117.6 |  7.52
Bond    | 0.28216    | 0.29126    | 0.29937    |   0.7 |  0.05
Kspace  | 272.51     | 285.3      | 296.93     |  44.5 | 53.04
Neigh   | 0.97065    | 0.9875     | 1.001      |   0.7 |  0.18
Comm    | 90.413     | 92.421     | 95.389     |  15.9 | 17.18
Output  | 0.59853    | 0.59942    | 0.6008     |   0.0 |  0.11
Modify  | 104.12     | 106.35     | 109.8      |  12.7 | 19.77
Other   |            | 11.5       |            |       |  2.14

Nlocal:        20.2500 ave          27 max          12 min
Histogram: 1 3 8 7 9 3 13 3 14 3
Nghost:        2604.20 ave        2630 max        2575 min
Histogram: 3 2 9 2 9 10 13 9 5 2
Neighs:        6493.88 ave        8689 max        3826 min
Histogram: 1 4 7 11 5 3 13 10 7 3

Total # of neighbors = 415608
Ave neighs/atom = 320.68519
Ave special neighs/atom = 2.0000000
Neighbor list builds = 1805
Dangerous builds = 0

unfix		3
unfix		2
unfix		1

write_data	data.final.${pid}
write_data	data.final.0
System init for write_data ...
PPPM initialization ...
  extracting TIP4P info from pair style
  using 12-bit tables for long-range coulomb (../kspace.cpp:340)
  G vector (1/distance) = 0.36801619
  grid = 30 40 32
  stencil order = 5
  estimated absolute RMS force accuracy = 0.004372741
  estimated relative force accuracy = 1.316838e-05
  using double precision FFTW3
  3d grid and FFT values/proc = 5168 640
Last active /omp style is kspace_style pppm/tip4p/omp
WARNING: Not all mixed pair coeffs generated from mixing. Use write_data with 'pair ij' option to store all pair coeffs. (../write_data.cpp:312)

write_restart   restart.lmp.${pid}
write_restart   restart.lmp.0
System init for write_restart ...
PPPM initialization ...
  extracting TIP4P info from pair style
  using 12-bit tables for long-range coulomb (../kspace.cpp:340)
  G vector (1/distance) = 0.36801619
  grid = 30 40 32
  stencil order = 5
  estimated absolute RMS force accuracy = 0.004372741
  estimated relative force accuracy = 1.316838e-05
  using double precision FFTW3
  3d grid and FFT values/proc = 5168 640
Last active /omp style is kspace_style pppm/tip4p/omp
Total wall time: 0:08:58
