LAMMPS (30 Jul 2021)
  using 1 OpenMP thread(s) per MPI task
package omp 0
using multi-threaded neighbor list subroutines
echo both

include		in.partitions
variable        pid world 0
include		in.temp
variable        temperature equal 239.11
variable	tempDamp equal 100.0
include		in.pressure
variable        pressure equal 2000.0
variable        pressureDamp equal 1000.0 # This is 1 ps
include		in.seed
variable        seed world 745823

units		real
atom_style	full
box tilt large
read_restart	restart.lmp.${pid}
read_restart	restart.lmp.0
Reading restart file ...
  restart file = 30 Jul 2021, LAMMPS = 30 Jul 2021
  restoring atom style full from restart
  triclinic box = (-10.812327 -9.2320780 -0.11139434) to (12.792327 12.222076 21.971393) with tilt (-9.3498014 2.2205460 2.8405011)
  4 by 4 by 4 MPI processor grid
  restoring pair style lj/cut/tip4p/long/omp from restart
  restoring bond style harmonic/omp from restart
  restoring angle style harmonic/omp from restart
  1296 atoms
  864 bonds
  432 angles
Finding 1-2 1-3 1-4 neighbors ...
  special bond factors lj:    0        0        0       
  special bond factors coul:  0        0        0       
     2 = max # of 1-2 neighbors
     1 = max # of 1-3 neighbors
     1 = max # of 1-4 neighbors
     2 = max # of special neighbors
  special bonds CPU = 0.726 seconds
  read_restart CPU = 0.893 seconds
include 	in.setup
variable	out_freq equal 1000
variable	out_freq2 equal 10000
variable	out_freq3 equal 1000

timestep	2.0

neigh_modify    delay 7 every 1

include		in.tip4p
# This is TIP4P/Ice

# create groups ###
group ox type 2
432 atoms in group ox
group hy type 1
864 atoms in group hy

# set charges - beside manually ###
set group ox charge -1.1794
Setting atom values ...
  432 settings made for charge
set group hy charge 0.5897
Setting atom values ...
  864 settings made for charge

# ### TIP3P Potential Parameters ###
pair_style lj/cut/tip4p/long/omp 2 1 1 1 0.1577 8.5
pair_coeff 1 1*2 0.000 0.000
pair_coeff 2 2 0.21084 3.1668
bond_style  harmonic
bond_coeff  1 450 0.9572
angle_style harmonic
angle_coeff 1 55 104.52
kspace_style pppm/tip4p/omp 1.0e-5
pair_modify tail yes

thermo          ${out_freq}
thermo          1000
thermo_style    custom step temp pe etotal epair emol press lx ly lz vol pxx pyy pzz pxy pxz pyz enthalpy

restart 	${out_freq3} restart.lmp.${pid} restart2.lmp.${pid}
restart 	1000 restart.lmp.${pid} restart2.lmp.${pid}
restart 	1000 restart.lmp.0 restart2.lmp.${pid}
restart 	1000 restart.lmp.0 restart2.lmp.0


include         in.dump
dump            myDump all atom ${out_freq2} dump.water.${pid}
dump            myDump all atom 10000 dump.water.${pid}
dump            myDump all atom 10000 dump.water.0
dump            myDump2 all dcd ${out_freq2} dump.dcd
dump            myDump2 all dcd 10000 dump.dcd
dump_modify     myDump append yes
dump_modify     myDump2 append yes


variable natoms 	equal  "count(all)"                        # NUMBER ATOMS
variable H      	equal  "enthalpy/v_natoms"                 # ENTHALPY-per-atom
variable Vol      	equal  "vol/v_natoms"                 # volume-per-atom
fix AVG all 		ave/time ${out_freq} 1 ${out_freq} v_Vol v_H file vol_enthalpy.dat
fix AVG all 		ave/time 1000 1 ${out_freq} v_Vol v_H file vol_enthalpy.dat
fix AVG all 		ave/time 1000 1 1000 v_Vol v_H file vol_enthalpy.dat


timer           timeout 10:00:00 every 1000
New timer settings: style=normal  mode=nosync  timeout=10:00:00

fix 		1 all shake 1e-6 200 0 b 1 a 1
       0 = # of size 2 clusters
       0 = # of size 3 clusters
       0 = # of size 4 clusters
     432 = # of frozen angles
  find clusters CPU = 0.005 seconds
fix             2 all nph tri ${pressure} ${pressure} ${pressureDamp}
fix             2 all nph tri 2000 ${pressure} ${pressureDamp}
fix             2 all nph tri 2000 2000 ${pressureDamp}
fix             2 all nph tri 2000 2000 1000
fix             3 all temp/csvr ${temperature} ${temperature} ${tempDamp} ${seed}
fix             3 all temp/csvr 239.11 ${temperature} ${tempDamp} ${seed}
fix             3 all temp/csvr 239.11 239.11 ${tempDamp} ${seed}
fix             3 all temp/csvr 239.11 239.11 100 ${seed}
fix             3 all temp/csvr 239.11 239.11 100 745823


run             250000
PPPM initialization ...
  extracting TIP4P info from pair style
  using 12-bit tables for long-range coulomb (../kspace.cpp:340)
  G vector (1/distance) = 0.36486565
  grid = 30 40 32
  stencil order = 5
  estimated absolute RMS force accuracy = 0.0050658202
  estimated relative force accuracy = 1.5255567e-05
  using double precision FFTW3
  3d grid and FFT values/proc = 5168 640
Last active /omp style is kspace_style pppm/tip4p/omp
Neighbor list info ...
  update every 1 steps, delay 7 steps, check yes
  max neighbors/atom: 2000, page size: 100000
  master list distance cutoff = 10.8154
  ghost atom cutoff = 10.8154
  binsize = 5.4077, bins = 7 5 5
  1 neighbor lists, perpetual/occasional/extra = 1 0 0
  (1) pair lj/cut/tip4p/long/omp, perpetual
      attributes: half, newton on, omp
      pair build: half/bin/newton/tri/omp
      stencil: half/bin/3d/tri
      bin: standard
Per MPI rank memory allocation (min/avg/max) = 9.434 | 9.439 | 9.445 Mbytes
Step Temp PotEng TotEng E_pair E_mol Press Lx Ly Lz Volume Pxx Pyy Pzz Pxy Pxz Pyz Enthalpy 
 4250000    247.14773   -6313.2946   -5677.5221   -6313.2946            0    1226.4156    23.604654    21.454154    22.082788    11183.119    2044.5953    1102.7117    531.93991   -105.83778   -352.92112    1056.3229   -5477.5006 
 4251000     238.8935    -6347.533   -5732.9941    -6347.533            0    1654.0834    23.327212    21.739826    21.851475    11081.528    3142.5329     546.2108    1273.5066   -261.76701   -287.58424    368.75263   -5465.6731 
 4252000    236.36215   -6327.3456   -5719.3184   -6327.3456            0    2373.0431    23.679477    21.399184    21.857579    11075.705    1800.3762    2121.9269    3196.8261    53.457677   -843.47945   -215.77783    -5336.006 
 4253000    242.45011   -6348.1142   -5724.4261   -6348.1142            0    1507.1992    23.301365    21.789217    21.895211    11116.604    1628.0489    1328.3464    1565.2023     778.4458    327.97396   -731.85402   -5480.0725 
 4254000    226.26569   -6338.2988   -5756.2441   -6338.2988            0    354.20256     23.78726    21.420358    21.923619    11170.778   -725.09876    1351.3912    436.31524   -497.76708     661.1651    885.65706   -5698.5394 
 4255000    241.41016   -6356.0402   -5735.0272   -6356.0402            0     1040.681    23.356773    21.768576    21.866753    11118.012    1329.6954    71.167457      1721.18   -1095.4919    970.53387    476.58867   -5566.2862 
 4256000    250.51744   -6352.1202   -5707.6793   -6352.1202            0    1595.8635    23.590519    21.430164    21.970305    11107.059    1801.6828    1319.4055    1666.5021   -622.05572   -585.62984   -622.83764   -5449.1733 
 4257000    236.83871   -6349.1282    -5739.875   -6349.1282            0    2201.6717    23.425722    21.676989    21.768357    11053.953    2830.2127    1387.0693    2387.7331    372.15653   -885.08883    240.16161   -5384.9423 
 4258000    248.54371   -6365.2326    -5725.869   -6365.2326            0    2892.5516    23.509765    21.485829    21.925648    11075.233    3590.6165    3179.4558    1907.5825   -165.40709    43.458326    176.07028   -5258.6614 
 4259000    251.56274   -6326.8327   -5679.7028   -6326.8327            0    2633.1973    23.347384    21.568565    21.965504    11061.159    2914.7681    1885.5755    3099.2484   -484.55969   -755.19165   -479.35598   -5254.9269 
 4260000    243.69888   -6331.5892   -5704.6887   -6331.5892            0    1269.9684    23.535316     21.62362    21.921699    11156.363    1374.2314    1737.9521    697.72148    794.53575   -243.78582    111.50785   -5498.0596 
 4261000    245.86852   -6361.5987   -5729.1169   -6361.5987            0    692.45414    23.598875    21.606192    21.839074    11135.347   -215.22471    781.44145    1511.1457    1020.4459   -546.59174     1480.824    -5616.664 
 4262000    253.34229   -6338.1073   -5686.3996   -6338.1073            0    3137.5107    23.285122    21.567555    21.967278    11032.036    3837.5417    2874.1029    2700.8874   -336.98964   -456.49831    774.25281   -5181.6026 
 4263000    245.93721   -6336.3296   -5703.6711   -6336.3296            0    1779.1877    23.462938     21.36771    22.172531    11116.182    2211.8852     3088.083    37.594914    103.56243    406.94433   -348.79223   -5415.2325 
 4264000    224.62139   -6325.9065   -5748.0817   -6325.9065            0    2211.7131    23.411676     21.74084    21.748816     11069.92    3009.0857    1056.3449    2569.7088   -201.72222     292.6953      -535.39   -5391.0152 
 4265000     246.5488   -6355.6698    -5721.438   -6355.6698            0    2576.8885    23.694694    21.389362    21.784602     11040.75    1725.6469    1756.6032    4248.4155   -200.20636   -329.17203    749.88423   -5306.5126 
 4266000      251.055    -6376.573   -5730.7493    -6376.573            0    2114.3253    23.259312    21.698381    21.890443    11047.874    2881.5862    1599.6007    1861.7891   -538.51135    29.140077    108.85148   -5390.0851 
 4267000    241.18575   -6343.2076   -5722.7719   -6343.2076            0    2769.8663    23.443667    21.395068    22.053167    11061.402    2466.9348    3653.6749    2188.9891    1076.9855    187.24988    822.24073   -5275.9393 
 4268000    232.22726   -6349.7608   -5752.3704   -6349.7608            0    1066.5109    23.411048    21.704773    21.906531    11131.398    48.043484     1426.001    1725.4883   -466.46403    108.18427    1095.6068    -5579.233 
 4269000    232.96364   -6339.8167    -5740.532   -6339.8167            0    2201.3835    23.737898    21.488338    21.696569    11067.159    1202.7767    2397.2824    3004.0913   -1366.1349    291.43178   -800.71527   -5385.2217 
 4270000    235.64138   -6349.7318   -5743.5587   -6349.7318            0      3175.36    23.334514    21.590944    21.938411    11052.883    4712.7421    2937.7792    1875.5587    -49.51541   -402.76106   -1504.8348   -5231.7067 
 4271000    238.01346    -6365.667   -5753.3918    -6365.667            0    2549.2376    23.507334    21.491627    21.877081    11052.539     2434.971    2670.1416    2542.6001    -516.1692    -290.0798   -259.03314   -5342.4804 
 4272000    238.11047   -6327.4502   -5714.9255   -6327.4502            0    823.57311    23.506272    21.676086    21.863911    11140.187    968.72691    1366.2309    135.76154    1134.2875   -290.87254    831.65914   -5581.1211 
 4273000    233.04151   -6346.7368   -5747.2517   -6346.7368            0    2344.8927    23.643954    21.415815     21.89931    11088.815    1620.6022    2939.6379    2474.4381    487.13605   -76.103868    1217.6404    -5368.038 
 4274000    261.97638   -6332.2719   -5658.3536   -6332.2719            0    1902.5002    23.372087     21.71865    21.884044    11108.564    2976.7612     1416.251    1314.4883    497.91475    -1446.726   -1079.4781   -5350.1353 
 4275000    244.27861   -6314.7022   -5686.3103   -6314.7022            0    2835.7781    23.588275    21.462052    21.923457    11098.811    2243.6713     3011.025    3252.6379    66.093403    227.11237    -312.9875   -5227.2977 
 4276000    246.99483   -6321.8928   -5686.5137   -6321.8928            0    2324.9512    23.406693     21.57208    21.926458    11071.349    2697.0318    2230.6337    2047.1881   -788.50106     1093.993    24.298128   -5311.1171 
 4277000    241.89455   -6327.4254   -5705.1664   -6327.4254            0    2083.4145    23.437199    21.596707    21.965493    11118.193    2362.1686    1796.6078    2091.4671    786.93665    312.02568    791.58463    -5367.346 
 4278000    228.82546   -6347.2583   -5758.6188   -6347.2583            0    2746.0736    23.606197    21.468979    21.813921    11055.316    2262.8016    3175.6213     2799.798    -39.34177   -326.10929   -62.577478   -5315.8681 
 4279000    232.92791   -6343.6796   -5744.4868   -6343.6796            0    1745.7998    23.221541    21.791591    21.997995     11131.74     2735.559    1482.1679    1019.6724   -1374.3913    1716.4771   -681.00579   -5461.0649 
 4280000     250.5949   -6331.0921    -5686.452   -6331.0921            0    1215.9846    23.657116    21.408534    22.004555    11144.519    2204.9023     1220.677    222.37441    411.76675   -787.00789   -796.15762   -5488.8164 
 4281000    246.52645   -6332.6693    -5698.495   -6332.6693            0    1190.1468    23.274055    21.813881    21.908758    11123.021    1783.9504    1363.6778    422.81225   -458.44911    503.59274   -241.67129   -5505.4319 
 4282000    246.83296    -6348.114   -5713.1512    -6348.114            0    2147.3378    23.583263    21.332579    22.030032    11083.129    1774.2336    3198.6582    1469.1216   -1103.0467    485.68301   -910.74293    -5366.064 
 4283000    243.47596    -6352.325   -5725.9979    -6352.325            0    2201.9589    23.203698    21.818475    21.850901    11062.441    3561.7488    483.31744    2560.8105   -420.45183    646.75553    435.66339   -5370.7463 
 4284000    239.20234   -6363.6562   -5748.3228   -6363.6562            0    1424.9396    23.610025    21.468736    21.932258    11116.966    709.54007    1781.4889    1783.7898   -1123.2283    349.37889   -79.242434    -5517.298 
 4285000     239.7046   -6369.6413   -5753.0158   -6369.6413            0    2343.3962    23.451413    21.545538    21.865714    11048.162    2244.9845    2059.4539    2725.7503    33.663634    546.77787    22.957594   -5375.4335 
 4286000    239.51976   -6356.9909   -5740.8409   -6356.9909            0    1813.1239    23.433516    21.788835    21.672995    11065.993    1723.1145    478.51319     3237.744     881.8746    631.01181   -464.64506   -5448.2278 
 4287000    238.86186   -6332.0895    -5717.632   -6332.0895            0    2303.7719    23.576724    21.451741    21.901593    11076.989    1888.4016    3846.8843    1176.0296   -574.83305    268.03384   -1635.6159   -5345.4656 
 4288000    239.78765   -6338.2905   -5721.4513   -6338.2905            0    1840.9646    23.267216    21.742971    21.947382    11103.145     1754.299    963.18891    2805.4058   -462.78247   -245.83539   -535.94414   -5423.3477 
 4289000    236.69878   -6328.0693   -5719.1761   -6328.0693            0    1594.8494    23.746696    21.362954    21.883494    11101.487    980.10136    2964.7947    839.65202   -318.17354   -133.70504    1131.7892   -5460.9639 
 4290000    244.72653   -6365.4028   -5735.8587   -6365.4028            0     1398.065    23.241406    21.831512    21.840185    11081.601     2207.028    692.16846    1294.9984    763.02604   -76.104785   -156.86754   -5509.9122 
 4291000    234.02756   -6345.0587    -5743.037   -6345.0587            0    1076.7794     23.54947    21.560297     21.96996    11154.886    1077.5919    727.20853    1425.5378   -135.46909    324.84932     75.60271   -5567.8638 
 4292000    238.23237   -6345.5297   -5732.6914   -6345.5297            0    1869.9066    23.436384    21.717751    21.786762    11089.147    2824.8121    926.53063    1858.3771   -373.10592    1391.5237    90.037775    -5430.283 
 4293000    242.16755   -6328.5011   -5705.5399   -6328.5011            0    3403.8895    23.398113    21.389597     22.02525    11023.113    3381.9483    3755.2481    3074.4722    585.69661    834.70016   -96.547325   -5158.3279 
 4294000    249.78032   -6362.5191   -5719.9745   -6362.5191            0    1945.9277      23.3655    21.522472     22.03578    11081.427    2420.5422    2219.3052    1197.9357   -816.88393    1588.3656   -274.91274   -5405.4907 
 4295000    226.27685   -6371.0164   -5788.9329   -6371.0164            0    1130.7752     23.47975    21.570592    21.895085     11089.25    1510.2159    196.99337    1685.1164   -764.34107    123.87662    743.48665   -5606.0579 
 4296000    241.07038   -6334.2641   -5714.1252   -6334.2641            0    1685.4559    23.319789    21.675626    21.971044    11105.726    2116.4862    1823.6233    1116.2583    -427.1601   -326.58587   -458.40146   -5441.1393 
 4297000    233.33465   -6347.4997   -5747.2605   -6347.4997            0    3778.0679    23.593242     21.42097    21.779213    11006.999    2723.2097    4993.5145    3617.4795    564.01347    1284.2386    154.24992   -5140.7832 
 4298000    239.38843   -6326.7229   -5710.9107   -6326.7229            0    2764.3503    23.502832    21.603677    21.749854    11043.436    2100.1859    3192.5994    3000.2655   -105.64994    -491.1861   -755.25538   -5265.6922 
 4299000    247.01488   -6343.1312   -5707.7005   -6343.1312            0    2611.4262    23.377641    21.509292    22.007872    11066.361    3973.0016    2401.5055    1459.7715    543.27654   -1054.8509    -730.2175   -5286.2384 
 4300000    247.25143   -6353.2294   -5717.1901   -6353.2294            0    3493.2047    23.450504    21.497734    21.807249    10993.747    3701.7114    3491.0711    3286.8317    486.63086   -908.37692   -613.06273   -5157.1158 
 4301000    244.94372   -6320.7383   -5690.6355   -6320.7383            0     1716.768    23.471376    21.769785    21.759392    11118.327    1897.6347    1188.0618    2064.6076    1302.6745   -1397.8004    520.22084   -5412.2626 
 4302000    233.13863   -6352.6699    -5752.935   -6352.6699            0    1540.1242     23.56903     21.47072    21.953691    11109.535    1667.7421    1216.7912    1735.8393    97.427697    -256.4645    1516.8888   -5503.4023 
 4303000    233.50703   -6348.4885   -5747.8059   -6348.4885            0    3035.1163    23.275576    21.631582    21.931759    11042.367    3839.3104    2356.5694    2909.4693    437.58567    -514.1147     446.2167   -5259.0259 
 4304000    252.59146   -6359.9174   -5710.1413   -6359.9174            0    2123.1054    23.600442    21.444413    21.909739    11088.467    1867.7106    3020.1407    1481.4648   -470.28447   -671.26726   -740.67852   -5366.8056 
 4305000    240.91966   -6334.1934   -5714.4422   -6334.1934            0    1010.8801    23.437744    21.745532    21.820668    11121.257     1010.367    275.66698    1746.6064    213.61847   -38.746061   -756.83325   -5550.4854 
 4306000    238.80474   -6300.7113   -5686.4007   -6300.7113            0    2886.7037    23.559512    21.435048    21.938946    11079.151    2580.1737    4113.2088    1966.7286   -116.64816    121.88914    77.301487   -5219.9727 
 4307000     242.1373   -6351.1963   -5728.3128   -6351.1963            0    2298.3858    23.285298    21.549838    22.026207    11052.628    2899.3677    2329.0818    1666.7079    246.55046     352.8319    1589.8089   -5357.8332 
 4308000    235.66589   -6334.3107   -5728.0746   -6334.3107            0    2501.9502    23.408274    21.479526    21.972251    11047.618    2218.6977    3184.9282    2102.2247    71.178741   -76.335774    218.36056   -5324.9649 
 4309000     232.9093   -6314.2057   -5715.0607   -6314.2057            0     2388.246    23.433258    21.579243    21.842127    11044.951    2165.0119    3361.8142    1637.9118    575.13998    496.48089   -834.58751   -5330.3637 
 4310000    232.78568    -6354.719    -5755.892    -6354.719            0    582.91689     23.42962    21.719843    21.946563    11168.336    700.12316    282.61631    766.01121   -385.71924    1180.7131    -371.9274   -5660.9472 
 4311000    236.12852   -6343.8683   -5736.4421   -6343.8683            0    534.56144    23.529813    21.512446    22.087338    11180.253    1092.1377    1162.8614   -651.31483    556.44777    179.95622    57.938732   -5649.2805 
 4312000    235.99107   -6321.7196    -5714.647   -6321.7196            0     1974.666    23.304322    21.702129    21.972785    11112.811    3437.6116     1671.179    815.20747   -936.63347    892.77497   -878.70061   -5394.6149 
 4313000    253.38648   -6332.9967   -5681.1754   -6332.9967            0    1046.9301    23.573988    21.513478    21.975389    11145.005    1032.8439    1351.8101    756.13641   -362.24152    554.93903    444.81402    -5511.009 
 4314000    228.52404   -6326.2414   -5738.3772   -6326.2414            0    1401.5156     23.35921    21.789621    21.836842    11114.698    1530.5647    1029.1168    1644.8655    160.14556   -215.17355    89.170314   -5511.1965 
 4315000    229.83177   -6367.3371   -5776.1089   -6367.3371            0    2282.1191     23.59691    21.413584    21.886503    11059.127    1871.8795    3697.3967    1277.0811    1155.7716   -1824.7664   -1262.0271    -5408.035 
 4316000    240.08555   -6304.9242   -5687.3187   -6304.9242            0    2223.2744     23.42498    21.783335    21.748459    11097.677    2685.3246    1842.7195    2141.7792    964.05988   -180.28104   -24.976123   -5327.4857 
 4317000     233.3918   -6369.2319   -5768.8457   -6369.2319            0    1774.8384    23.624624    21.486229    21.783673    11057.481    135.75117    2321.7081    2867.0558    185.43536    22.822687    365.38048   -5482.6317 
 4318000    231.49757   -6351.6837   -5756.1703   -6351.6837            0    840.12358    23.290075    21.752339    21.997136    11144.049     644.2355    843.50301    1032.6322    852.56549     233.8785   -684.63251   -5619.6296 
 4319000    238.13948   -6389.1088   -5776.5095   -6389.1088            0    1695.1523    23.616801    21.370283     21.89877     11052.26     2024.153    2925.9842    135.31971   -410.00216   -1019.2822   -1122.9633   -5503.2749 
 4320000    241.26463   -6354.8999   -5734.2613   -6354.8999            0    1933.9849    23.433044    21.652475    21.820578    11071.399    1322.4931    950.03899    3529.4226    656.16555   -1.1918682    364.62375   -5421.9904 
 4321000    227.62142   -6305.4758   -5719.9335   -6305.4758            0    1308.9719    23.635261    21.522282    21.928008    11154.443    563.19305    2040.2455    1323.4772   -1159.9639   -719.79124    42.064566   -5506.9951 
 4322000    256.11325   -6324.8492   -5666.0135   -6324.8492            0    2216.6311    23.219637    21.807063    21.928543    11103.563    2954.3424    2140.5591    1554.9917   -208.12904   -37.377938   -377.31892   -5307.0654 
 4323000    241.78347   -6379.4085   -5757.4353   -6379.4085            0    2487.5996    23.664083    21.391827    21.772346    11021.553    364.15977    2894.6054    4204.0335   -226.33941   -41.672589    -91.98489   -5357.5834 
 4324000    241.02244   -6352.7902   -5732.7747   -6352.7902            0    3229.3044    23.220781    21.685944    21.946187    11051.322     4012.233    2445.6117    3230.0686   -61.492918    293.49487    420.67511   -5212.3006 
 4325000    246.10614   -6361.9501    -5728.857   -6361.9501            0    2171.9381    23.614625    21.416161    21.943996    11097.838    2430.1526    2744.8467    1340.8149   -171.17528     -135.913   -1189.9782   -5377.3276 
 4326000    236.57799   -6334.4244    -5725.842   -6334.4244            0    2226.8788    23.420843    21.663839    21.797702    11059.835    2296.6001    1716.9678    2667.0684   -649.98262   -556.13494   -344.67866   -5366.6546 
 4327000    244.62762   -6378.3897      -5749.1   -6378.3897            0     2250.013    23.317664    21.468104    22.025248    11025.532    3203.2083    2206.0709    1340.7599    30.236623    804.69491    1128.6745   -5387.3068 
 4328000    240.86947   -6307.2392   -5687.6172   -6307.2392            0    2074.5904    23.380198    21.607733    21.970278    11099.232    2106.4718    2013.3961    2103.9034    189.57615   -159.25502    -508.9045   -5351.8013 
 4329000    233.92878   -6356.1671   -5754.3996   -6356.1671            0    2370.1544    23.512809    21.539814    21.850228      11066.3     2553.652    2548.4014    2008.4098   -451.73612   -32.951182   -580.78831   -5371.8789 
 4330000    245.40735   -6329.3655     -5698.07   -6329.3655            0    2256.9046    23.365147    21.654306     21.93497    11098.131    4361.7923    1133.0834    1275.8382   -90.867659   -1830.4756    114.51492    -5332.779 
 4331000    242.68087   -6369.3561   -5745.0743   -6369.3561            0    2766.4749    23.313701    21.520911    21.978441    11027.289    3352.0797    2545.6987    2401.6461    816.14988    -762.4116    805.93393   -5300.1651 
 4332000    248.85042   -6385.1527   -5745.0001   -6385.1527            0    1907.0883    23.559205    21.488539     21.85865    11066.005    1684.5215    2118.1534      1918.59     513.9137    -284.7179    710.80583   -5437.2221 
 4333000    234.18169   -6332.9385   -5730.5204   -6332.9385            0    1759.6424     23.40638     21.63331    21.863295    11070.643    2683.2101    768.63563    1827.0814   -505.94228   -1345.8503    440.95657   -5446.4191 
 4334000    246.39203   -6309.5698   -5675.7413   -6309.5698            0    1459.1088     23.72324    21.600017    21.813342    11177.645    849.88324     985.4472    2541.9958   -107.47133   -111.15109   -1338.9133   -5437.8854 
 4335000    236.50232   -6353.1514   -5744.7636   -6353.1514            0    1286.1724    23.392028    21.614534    21.994051    11120.363    913.04157    837.45815    2108.0174    1035.8771    104.12214    1298.9382   -5536.1733 
 4336000    237.74411   -6361.5125   -5749.9303   -6361.5125            0    3106.0968    23.454662    21.365576    21.965238    11007.272    2738.9572    3804.0031    2775.3302    641.52774   -17.014001    345.19627   -5251.3092 
 4337000    233.16075   -6365.2067   -5765.4149   -6365.2067            0    2161.0601    23.362802    21.635302    21.853762     11046.23    2399.4028    920.47941     3163.298    836.90942    42.261394   -379.90557   -5417.2725 
 4338000     242.9146   -6340.4043   -5715.5213   -6340.4043            0    1955.7006    23.536381    21.592498    21.876184     11117.68    2171.2499    1931.2357    1764.6162   -61.667696   -1513.4875   -461.14595   -5398.4241 
 4339000    224.94284   -6356.1817   -5777.5299   -6356.1817            0    2277.6091    23.424391    21.653357    21.802331    11058.506    1707.9199    2374.8783     2750.029    1056.1693   -239.16773   -235.14818    -5410.204 
 4340000    236.73222    -6358.327   -5749.3478    -6358.327            0    2069.7786    23.443683    21.430729    21.996067    11051.158    1860.2453    2510.9343    1838.1563    1026.6877    723.18544    455.55492    -5415.762 
 4341000    231.69335   -6360.7074   -5764.6904   -6360.7074            0    2468.6453    23.362058    21.515246    21.968704    11042.359    3085.4651    2774.6991    1545.7715   -114.13959    142.57198    939.02086   -5367.1361 
 4342000    231.04861   -6318.1961   -5723.8376   -6318.1961            0    2973.4349    23.486623    21.699698    21.722927    11071.147    2013.8737     3316.724    3589.7071   -702.07477    109.57941   -287.26377   -5243.7429 
 4343000    235.87947    -6334.102   -5727.3164    -6334.102            0    1033.7549    23.551405    21.553767    21.883406    11108.488    659.08542   -84.494603     2526.674    12.444819    28.612132    864.30119    -5559.842 
 4344000    243.33117    -6352.298   -5726.3434    -6352.298            0    2308.6875    23.461926    21.541948    21.947349    11092.533     2345.611     2243.535    2336.9165    477.76254    1378.0238    151.19083   -5352.8596 
 4345000    226.95682   -6364.3872   -5780.5546   -6364.3872            0    2841.8306    23.368519    21.564402    21.872229    11022.031    2266.4826    3361.0239    2897.9853      261.142      994.913    121.91466   -5323.7445 
 4346000    245.66667   -6331.8547   -5699.8921   -6331.8547            0    1926.2633    23.495787    21.704024    21.781091    11107.335    453.50407    1597.4413    3727.8444    672.75645    668.67546   -471.02914   -5387.8585 
 4347000    232.70831   -6330.8806   -5732.2527   -6330.8806            0    2877.4076    23.428648    21.579545    21.832769    11038.202    2482.5323    3090.4809    3059.2097   -867.78271     189.9248   -528.70337   -5269.0451 
 4348000    228.82939   -6357.6845   -5769.0349   -6357.6845            0     2061.113    23.380753     21.56118    21.934716    11057.654    2494.3214    2446.5852    1242.4323    167.27177    801.30787    968.88869   -5436.6504 
 4349000    235.40155   -6330.1643   -5724.6082   -6330.1643            0    1553.2964    23.496215     21.59498    21.948065    11136.455    1372.8886     1919.722    1367.2786    551.35796   -292.95723    368.90557   -5472.3314 
 4350000    235.25864   -6357.1444   -5751.9559   -6357.1444            0    2611.2303    23.584573    21.562521      21.7354    11053.383    1462.5203    3065.1535    3306.0169    -271.4289   -249.05289   -234.09035   -5331.0197 
 4351000    242.39857   -6383.3414   -5759.7858   -6383.3414            0    2690.3111    23.240144    21.602906    21.936937    11013.541    4508.4446    1696.2196    1866.2691   -165.89955    -1522.708   -2.0950503   -5327.6648 
 4352000    238.12642   -6346.5038   -5733.9381   -6346.5038            0    832.18213    23.564484    21.631614    21.877333    11151.704   -280.75726    383.36391    2393.9397   -144.90107   -172.34307    1109.6444   -5598.5952 
 4353000    241.38167   -6322.5743   -5701.6347   -6322.5743            0    1886.4796    23.532596    21.554856    21.859893     11088.25    1115.7241    1218.9138     3324.801    541.36342     1342.876    926.77277   -5396.5707 
 4354000    237.82908   -6339.2421   -5727.4413   -6339.2421            0    2699.0909    23.397394    21.638205    21.873696    11074.163    4021.9569    1339.6329    2735.6829    716.85946   -920.39509   -1071.8081   -5291.5238 
 4355000    249.16856   -6353.8849    -5712.914   -6353.8849            0    2804.6855     23.47711    21.538865    21.879565    11063.846    2237.5792    3924.2896    2252.1876    65.929599     100.4629   -587.74137   -5260.3644 
 4356000    233.67915   -6342.7268   -5741.6015   -6342.7268            0    2851.4388    23.450415    21.508854    21.908583    11050.504    2397.7133    4467.1867    1689.4164   -1271.2843   -305.61732    125.74407   -5282.0628 
 4357000    241.43312   -6357.7174   -5736.6454   -6357.7174            0    727.08984    23.523245    21.565935     21.94627     11133.36    1180.7648   -41.364885    1041.8696   -1393.7092   -662.55268    1314.5909   -5618.5888 
 4358000    242.24324   -6358.0891   -5734.9331   -6358.0891            0    1260.3952    23.469748    21.627858    21.911383    11122.227    820.49228     1422.771    1537.9223   -343.23555    1433.7524    395.90904   -5530.4891 
 4359000    230.73158   -6348.4981   -5754.9552   -6348.4981            0    968.73266    23.574606    21.556275    21.937391    11148.158   -568.53743    1940.0369    1534.6986    83.495071    696.45841    183.66969   -5597.4543 
 4360000    224.11598   -6317.3249   -5740.8002   -6317.3249            0    1824.7415    23.403684    21.719717    21.802587    11082.721    2599.7455    76.545652    2797.9335    539.72585    695.37697    76.319702    -5445.867 
 4361000    234.51909   -6324.7689   -5721.4828   -6324.7689            0    2029.0138     23.64296    21.495177    21.873419    11116.282    1141.2308    2517.8406    2427.9699     91.27839    129.57651   -781.13086     -5392.54 
 4362000    246.70232   -6362.1253   -5727.4986   -6362.1253            0     1764.455    23.413439    21.684466     21.88007    11108.685    1586.7129    2992.0989    714.55327    193.68256   -514.95918   -573.65835   -5441.6414 
 4363000    244.12705   -6351.7026   -5723.7006   -6351.7026            0    3729.2429    23.561411    21.420383    21.784778    10994.656    2061.3659    4900.7422    4225.6207    299.96494    -744.0562   -326.88257   -5125.7322 
 4364000    243.48804   -6331.6024   -5705.2442   -6331.6024            0    3823.9473    23.293992    21.577225    21.891248    11002.972    4371.2488    3851.5728    3249.0204   -631.78175    -109.3249    316.72295   -5091.6266 
 4365000    239.58401   -6330.7441   -5714.4288   -6330.7441            0    1290.9498    23.638617    21.535148    21.885186    11140.897    29.711225    2532.4773     1310.661    1377.9905   -578.29988   -500.77477   -5504.6772 
 4366000    235.50052   -6374.5405   -5768.7298   -6374.5405            0    203.62126    23.526869    21.735721    21.858462    11177.838    24.490614   -583.41523    1169.7884   -309.58074    417.77617    1078.6001    -5735.536 
 4367000    233.54447   -6403.5027   -5802.7238   -6403.5027            0    1428.2363     23.43996     21.49158    21.994338    11079.907    1367.4505    2152.6051    764.65328    366.41524   -156.25994     -356.327   -5571.9364 
 4368000    235.43398   -6360.2576    -5754.618   -6360.2576            0       1859.3     23.42132    21.528561    21.861167    11022.998    1311.8352    3114.7355    1151.3294   -640.81969    33.298727    749.12504   -5455.7186 
 4369000    236.52466    -6345.552   -5737.1067    -6345.552            0    1767.6889    23.479875    21.667422    21.789608    11085.427    507.09751    2131.8997    2664.0694    59.124473    174.62957   -297.79617   -5451.3252 
 4370000    237.68838   -6349.6434   -5738.2045   -6349.6434            0     1622.225    23.494209    21.587843     21.93806    11126.749    1870.3406    1486.9967    1509.3379   -181.25409   -774.01584      -153.94   -5474.9625 
 4371000    230.16348   -6326.8295    -5734.748   -6326.8295            0    2035.7339    23.341338    21.638672    22.046651    11135.225    4227.6353    1526.1653    353.40127   -356.77115   -753.75624   -379.91985   -5404.1533 
 4372000    249.18141   -6339.1621   -5698.1582   -6339.1621            0    1832.2977    23.603534    21.436212     21.95821    11110.203    1943.1159    1394.5152    2159.2619   -668.43267     857.7373   -50.155973   -5401.2693 
 4373000    228.67703   -6333.2519   -5744.9942   -6333.2519            0    2312.2198    23.434184    21.635582     21.78903    11047.304    1827.6058    2389.7432    2719.3104    521.16237     112.9497    670.22639   -5372.4641 
 4374000    238.36901   -6332.9143   -5719.7245   -6332.9143            0     3081.825    23.445284    21.470982    21.930062    11039.445     1561.822    4207.4827    3476.1701    887.85011     476.7257    1554.7074   -5223.5538 
 4375000    243.51496   -6321.5008   -5695.0734   -6321.5008            0    3208.0997    23.245043    21.729047    21.924703    11074.006    4536.1571    2118.6401    2969.5018    166.90527    -1039.154   -748.98348   -5176.9556 
 4376000    244.58393   -6363.2813    -5734.104   -6363.2813            0    1683.3971    23.647821    21.480656    21.850197    11099.261    981.83643    2629.6889     1438.666    174.43783   -586.54631   -516.14152   -5461.6103 
 4377000    234.68255   -6335.7336    -5732.027   -6335.7336            0    2213.6307    23.528682    21.596834    21.827859    11091.718    575.14244    2191.6526    3874.0972    763.66351    83.667769   -558.41895   -5373.9472 
 4378000    241.92192   -6354.4667   -5732.1373   -6354.4667            0    1908.1737    23.314012    21.592078    22.018398    11084.017     2378.635    1804.8114    1541.0748    552.39358    515.84163    310.21555   -5423.6829 
 4379000    246.71006   -6317.6504   -5683.0039   -6317.6504            0    1754.7842    23.627247    21.464218    21.921539    11117.298     1626.985    1517.5267    2119.8409    1297.7273   -240.68816   -60.595947    -5398.493 
 4380000    227.45999   -6373.8526   -5788.7257   -6373.8526            0     1690.182    23.328101    21.762137    21.851633    11093.404    2592.9176     979.4501    1498.1783    207.37642   -689.94603    210.13253    -5515.278 
 4381000    217.61722   -6334.4496   -5774.6425   -6334.4496            0    3021.6383    23.597635    21.447939    21.841206    11054.285    3646.7227    3082.8896    2335.3027   -1274.9588    -591.8722   -1032.5874   -5287.5079 
 4382000    240.93355   -6315.6886   -5695.9018   -6315.6886            0    2267.9254    23.226591    21.768447    21.985881    11116.211    3542.4839    1741.8939    1519.3984    162.82565    -106.7818    49.384657    -5328.229 
 4383000    241.66864   -6335.6703   -5713.9925   -6335.6703            0    2390.2012    23.843589    21.259672    21.880336    11091.293    1057.4623    4082.7491    2030.3922    663.34832    187.07906    662.93118   -5327.3652 
 4384000    233.14608   -6371.2237   -5771.4696   -6371.2237            0    1619.4733    23.381163     21.78027    21.759277    11080.869    1218.9285    460.25164    3179.2397    1029.3519    1283.2083    502.38557   -5509.7577 
 4385000     236.0581   -6379.3544   -5772.1094   -6379.3544            0    2443.8852    23.586133    21.338963     21.92047    11032.652    1248.3406    3060.4896    3022.8254   -568.49255    720.56759   -307.39173   -5378.8885 
 4386000    251.19452   -6348.4232   -5702.2406   -6348.4232            0    1383.0275    23.305988    21.804457    21.870712    11114.137    1358.0157    1331.7112    1459.3557    1053.9539   -1309.0039   -1521.5103    -5478.068 
 4387000    238.13865   -6358.3742    -5745.777   -6358.3742            0    2525.2343     23.57324    21.437133    21.885081    11059.466    2257.6188    2067.5513    3250.5327   -559.53483   -694.67409    426.87175   -5338.4795 
 4388000    233.74812   -6364.9016   -5763.5988   -6364.9016            0    1157.7227    23.381188     21.59554    21.967908    11092.242    1480.9074    785.51221    1206.7486    640.73895    69.556483    1040.7663   -5576.3152 
 4389000    243.02878   -6367.9055   -5742.7288   -6367.9055            0    2297.8242    23.454234    21.560468    21.854212    11051.331    1933.6207     2374.742    2585.1097   -614.19386    761.53656    1119.9948   -5372.3831 
 4390000    236.50857   -6341.4069    -5733.003   -6341.4069            0    915.72199    23.552934    21.608052    21.948047    11170.086    287.84006    1779.5834     679.7425   -1261.6932    633.30492   -526.31074    -5583.828 
 4391000    237.46203    -6371.374   -5760.5173    -6371.374            0    504.28542    23.493863    21.523745    22.044579    11147.413   -583.86183     2116.996   -20.277889   -414.28796    748.50859   -691.45196   -5678.5339 
 4392000    237.58116   -6344.3345   -5733.1714   -6344.3345            0    2870.4369    23.440761    21.515229    21.854891     11022.15    2399.5533    2558.6807    3653.0767    486.70018    925.26835     1429.086    -5271.758 
 4393000    239.20095   -6341.8898     -5726.56   -6341.8898            0    2018.1199    23.449626    21.591916    21.886476    11081.612    1564.4401    2481.1064    2008.8132    1015.5829    601.53763     661.7603   -5400.4037 
 4394000    229.04924   -6326.5641   -5737.3489   -6326.5641            0    1927.1312    23.522974    21.530936    21.980055    11132.275    983.00497    2945.5184    1852.8702   -237.29855    819.32513   -486.15621   -5424.4737 
 4395000    251.98932   -6345.0848   -5696.8576   -6345.0848            0    1412.2575    23.472525     21.74886    21.807356     11132.67      1213.58    1164.6029    1858.5897    33.657582   -137.52776    188.76946   -5467.5655 
 4396000    241.66674   -6365.1498   -5743.4768   -6365.1498            0    2577.8697    23.523992    21.417133    21.861736    11014.302    1309.5888    3106.6331    3317.3873   -698.25872   -30.265754    1100.4329   -5329.3877 
 4397000    238.26217   -6370.7982   -5757.8832   -6370.7982            0     2420.318    23.437999    21.618352    21.789851    11040.719    2729.2239    2426.4898    2105.2404    1416.7252   -908.25267   -108.16466   -5368.1695 
 4398000    238.26972    -6377.899   -5764.9647    -6377.899            0    2323.6069    23.440852    21.498896    21.931811     11052.59    1873.9734    2353.9973      2742.85    655.08001    46.596706   -641.85882   -5390.4209 
 4399000    243.58993   -6324.4749   -5697.8547   -6324.4749            0    1483.9171    23.414402    21.612716    22.047743    11157.235    1765.6786    2176.3899    509.68278    718.18316   -793.66005   -917.12993   -5456.3964 
 4400000    231.66425   -6341.5703   -5745.6281   -6341.5703            0    1852.1898    23.511992    21.729794    21.690429    11081.873    692.69785     1631.407    3232.4645   -433.38833     1856.551   -215.06576   -5446.2814 
 4401000    241.07185   -6327.3059   -5707.1632   -6327.3059            0    1542.4436    23.610345    21.489011    21.840501    11081.061    1384.5156    1081.9942     2160.821   -796.87316   -157.82188   -22.939081   -5457.8952 
 4402000    236.65647   -6369.9803    -5761.196   -6369.9803            0    2114.3865     23.27103    21.664483    21.961157    11071.824     1766.153     2891.092    1685.9146    183.42444   -708.17489    54.169746   -5419.7835 
 4403000     244.1569   -6325.4253   -5697.3466   -6325.4253            0    1818.3172    23.599935    21.297943    22.132472    11124.445    1197.3812    3676.9769    580.59339   -404.21967    98.150226    83.238565   -5402.3453 
 4404000    240.33343   -6349.0261    -5730.783   -6349.0261            0    1716.1935    23.413248    21.776592    21.740717    11084.738    1623.1288     1017.286    2508.1657   -184.64616    54.885681   -93.962722   -5453.3439 
 4405000    227.02026   -6346.5619   -5762.5661   -6346.5619            0    1236.1174    23.574866    21.525777     21.91834    11122.841     -105.358    1940.4873    1873.2228    704.99295      810.329   -811.96262   -5562.0491 
 4406000    226.39462   -6365.8399   -5783.4535   -6365.8399            0    958.57407    23.410164    21.650853    21.910046    11105.107    1558.5059    303.28916    1013.9272    289.69738    751.03036   -75.834709   -5628.2061 
 4407000    232.03611    -6355.365   -5758.4663    -6355.365            0    926.89673    23.443131    21.616021    21.954468    11125.366    1407.5411    1421.6167   -48.467643    1142.5502     92.80876    81.686826   -5608.0754 
 4408000    237.83725   -6373.7472   -5761.9253   -6373.7472            0    2553.9882     23.51879    21.482204    21.822823    11025.664      2247.39    2986.1466    2428.4279   -722.90056    109.40506    187.45585   -5351.2491 
 4409000    253.49258   -6380.6423   -5728.5481   -6380.6423            0    2497.1169    23.488153    21.597808    21.734445    11025.723    2278.0098    1499.6633    3713.6776   -1107.3275   -1765.4857    55.331361   -5327.0145 
 4410000    237.80277   -6349.3172   -5737.5841   -6349.3172            0    1530.9352    23.377845    21.595947     22.03685    11125.672    1411.8195    2042.2107    1138.7755   -818.94761   -177.66752   -879.95641   -5489.1799 
 4411000    231.32462   -6361.8217   -5766.7532   -6361.8217            0    480.04732    23.569584    21.633663    21.855059    11143.817    111.58601    888.53533    440.02062    755.45018    970.05931    -306.1396   -5688.7354 
 4412000    242.89418   -6358.5971   -5733.7666   -6358.5971            0    400.87433    23.562303    21.678934    21.891952    11182.532    887.50235    155.49311    159.62753     429.9457    613.35477   -567.82809   -5668.3897 
 4413000    236.90577   -6348.3088   -5738.8831   -6348.3088            0    2397.0347    23.403856    21.551657    21.934883    11063.777    3254.0499    1285.1923     2651.862   -157.06499    -151.7964    732.91227   -5352.1124 
 4414000    234.15337   -6353.1753     -5750.83   -6353.1753            0    3641.9517    23.410686    21.473917    21.913679    11016.425    3952.0376    3337.4942    3636.3233   -757.33476    -193.2744   -109.35736   -5165.7022 
 4415000    249.94145   -6372.5135   -5729.5543   -6372.5135            0    924.86507    23.578139    21.663744    21.718865    11093.796   -1030.4169     949.1311     2855.881    18.469301    489.63924    1226.9563   -5579.9189 
 4416000    237.23531   -6313.6619   -5703.3886   -6313.6619            0     2234.416    23.541793    21.490765    21.907363    11083.617    1102.2325     2815.617    2785.3986    950.06326    709.43919   -311.07083   -5342.2104 
 4417000    239.21974   -6358.4571   -5743.0789   -6358.4571            0    1712.0754    23.348892    21.600534    21.997471    11094.392    2395.7394    1483.6428    1256.8442    445.76018    396.05887   -518.78039   -5466.0645 
 4418000    243.74557   -6322.1314   -5695.1108   -6322.1314            0    2444.0569    23.543105      21.5885    21.757973    11058.714    2300.5502    2358.6777    2672.9428    587.46824   -1057.6648    75.613258   -5300.9333 
 4419000    251.45126   -6325.1305   -5678.2875   -6325.1305            0    1893.4776    23.584717    21.652968    21.768883    11116.913    702.48188    2324.7297    2653.2212    718.94322    934.51804    444.84974   -5371.3003 
 4420000    243.25063   -6363.6822   -5737.9348   -6363.6822            0    1959.2209    23.392307    21.592088     21.95993    11091.714    2098.9479    2133.5644    1645.1504   -123.54986     628.0096    223.49228   -5421.0087 
 4421000    240.91367   -6354.7136   -5734.9779   -6354.7136            0    950.95827    23.473571    21.499341    22.080179    11143.123    442.27881    2087.3075    323.28853   -146.87453   -1186.9282   -163.68492   -5580.4367 
 4422000    243.19809   -6352.6676   -5727.0554   -6352.6676            0    2754.6638    23.537818    21.554605    21.712679    11015.892    2051.4829    3332.7538    2879.7547   -1724.1952   -527.84036    120.89799   -5284.5035 
 4423000    234.52204   -6349.1719   -5745.8783   -6349.1719            0    3288.5766    23.365628    21.643236    21.830179    11039.692    4097.8605    2632.0055    3135.8637   -581.15662   -1096.2752   -535.00509    -5216.409 
 4424000    231.31565   -6346.3949   -5751.3494   -6346.3949            0    1338.0452    23.600215    21.457995    21.920911    11101.041   -386.70402    2008.7236    2392.1161    329.84759    547.56896    134.02923   -5534.7235 
 4425000    239.12096   -6340.0238   -5724.8997   -6340.0238            0    2148.6935    23.323308    21.727702    21.912043    11104.189    1973.9449    1661.7017     2810.434    1959.5924    1165.3878    598.19527   -5376.9334 
 4426000    227.17252   -6342.7328   -5758.3453   -6342.7328            0    3245.8272    23.583525    21.360312    21.857373    11010.684    2763.3944    4280.2823     2693.805    357.65598    442.46643   -1575.4944   -5237.1319 
 4427000    249.89428   -6338.2801   -5695.4423   -6338.2801            0    2385.9557    23.256724    21.680441    21.991955    11088.696    3625.0743     1636.877    1895.9159   -443.81299    318.16054   -928.17844   -5309.5921 
 4428000    241.85355    -6345.175   -5723.0215    -6345.175            0    1110.6044    23.551648     21.46089    21.965245    11102.099     524.8229     1138.349    1668.6414   -654.34869   -127.88611    1433.7593   -5543.2005 
 4429000    244.89205   -6361.9723   -5732.0024   -6361.9723            0    237.34877    23.446432    21.690386    21.951026    11163.461    68.986797    719.69635   -76.636827     448.1599    1056.4983    709.68277   -5693.3603 
 4430000    245.36078   -6353.8459   -5722.6703   -6353.8459            0    1752.5429    23.498588    21.592089    21.878922    11101.007    630.42418    1778.5345    2848.6699   -539.19597    1050.6308    -175.7602   -5438.9392 
 4431000    233.35393    -6343.365   -5743.0762    -6343.365            0    1109.1721    23.447451    21.667318    21.927675     11140.21    990.46369    21.196466    2315.8561    -686.3685   -78.997777   -281.48268   -5562.8707 
 4432000    246.04263   -6343.0611   -5710.1315   -6343.0611            0     1893.016    23.561842    21.448471    21.963017    11099.351    2403.8501    753.90826    2521.2896    70.824259    570.94562    54.033795    -5403.704 
 4433000    240.36934   -6378.7562   -5760.4207   -6378.7562            0     1742.811    23.402938    21.637741    21.859006    11069.111    1319.8894    2293.7776    1614.7661    964.63262     736.0903    360.98404   -5479.0759 
 4434000    223.92766   -6322.4548   -5746.4146   -6322.4548            0    1325.2649    23.577068    21.606175    21.919517    11166.027   -132.16471     2877.574    1230.3856    252.17872    268.51927    573.50281   -5530.6017 
 4435000     241.1947   -6337.5735   -5717.1149   -6337.5735            0    1238.0038     23.42238    21.606855    21.990034    11128.804    1314.5792    1384.4626    1014.9695   -317.06558   -1178.6997   -549.73566   -5516.1841 
 4436000    242.03329   -6325.2188   -5702.6029   -6325.2188            0    2674.8425    23.492357    21.503467    21.868168    11047.079    1739.7244    2636.6118    3648.1913   -883.45533   -189.00853    1081.0236   -5271.6582 
 4437000    232.84428   -6359.4142   -5760.4365   -6359.4142            0    1894.1762    23.374348    21.720656    21.818906    11077.594    2464.8845    1108.3175    2109.3266    290.12057   -144.42091    1353.4687   -5454.4222 
 4438000    249.09262   -6347.1507   -5706.3751   -6347.1507            0    2749.1204    23.455722    21.417837    22.028794    11066.623    2537.3435    3957.0518    1752.9657    946.15711    223.93448    291.58712   -5262.6798 
 4439000    229.17402   -6367.9941   -5778.4579   -6367.9941            0    3107.7432    23.323306    21.614181    21.874593    11027.292    4609.1231     2031.796    2682.3105   -3.9922699   -880.02364   -1.4442544   -5278.6652 
 4440000    250.02234   -6317.5318   -5674.3646   -6317.5318            0     1437.207    23.632498    21.539956    21.829307    11112.055     1142.011    2129.3162     1040.294   -1212.7641    239.17698   -1571.7752   -5441.4538 
 4441000    237.52626   -6316.6183   -5705.5965   -6316.6183            0    2948.7966    23.313822     21.61496    21.881276    11026.573    2820.1901    3798.6267    2227.5731   -118.88576   -644.78756    628.27034   -5231.3968 
 4442000    237.89823    -6330.269   -5718.2902    -6330.269            0    2655.0833    23.580621    21.444998    21.844129    11046.278    1493.6259    3385.0304    3086.5936    1004.1928    241.47483    717.13375   -5290.5599 
 4443000    240.61357   -6360.8388    -5741.875   -6360.8388            0     136.9356    23.415029    21.698989    21.924366    11139.386    501.33433    138.92892   -229.45644    455.16241    274.38042   -880.26815   -5719.6289 
 4444000    236.07939   -6339.1776   -5731.8777   -6339.1776            0    1360.2554    23.487024    21.571395    21.919194    11105.313     1268.182    1549.2529    1263.3312    307.89538    109.58111    15.283478   -5511.5713 
 4445000     245.3703   -6345.1172   -5713.9171   -6345.1172            0    2433.3276    23.469909    21.609078    21.876162    11094.782    2228.8033     1775.685    3295.4944   -289.72438    128.86217    494.87726     -5320.19 
 4446000    236.95717   -6353.1939    -5743.636   -6353.1939            0    2114.4545    23.479602    21.603903    21.854269    11085.601    2635.1564    986.76765    2721.4396   -1271.2483   -1407.8554   -83.062371   -5401.7877 
 4447000     238.4673   -6343.3345   -5729.8919   -6343.3345            0    998.52278    23.501965     21.58485    21.961054    11140.544    1473.7012    157.33017     1364.537   -534.77284   -1533.1656    1013.8359   -5567.6585 
 4448000    246.47656   -6348.4398   -5714.3938   -6348.4398            0    2729.6071    23.516542    21.589711    21.724322    11029.772    3511.7236    2178.7225    2498.3751   -998.19691    297.11456    47.561604    -5275.315 
 4449000    237.41793     -6315.57   -5704.8268     -6315.57            0    2029.0806    23.412675    21.488026     22.06992    11103.204    1528.9278    3013.3633    1544.9509    793.53111    553.46915   -147.11119   -5376.2601 
 4450000    232.46545   -6344.7994   -5746.7962   -6344.7994            0     2577.139    23.401051     21.55178    21.952732    11071.516    1984.6376    3156.4452    2590.3341    1591.4972    756.23107   -996.86388   -5330.6741 
 4451000    244.99594   -6354.8048   -5724.5677   -6354.8048            0    1933.4972    23.516017    21.576252     21.79514    11058.582    2566.9085    868.79557    2364.7875   -420.73991     160.9703    345.15255    -5412.737 
 4452000    236.71577   -6337.9919    -5729.055   -6337.9919            0    1957.3037    23.443759    21.544058     21.97605    11099.525    1867.5469    1830.9353    2173.4288   -798.95278   -362.84914    597.75881   -5412.2161 
 4453000    227.49627   -6368.3195   -5783.0992   -6368.3195            0    1494.6185    23.379998    21.635444    21.941685    11098.908    1471.6656    736.28506    2275.9049    -1712.022    328.43795   -341.67273    -5541.171 
 4454000    228.97085   -6339.9077   -5750.8942   -6339.9077            0    2240.2584    23.518937     21.57705    21.763856    11044.488    1878.7725    2611.7535    2230.2492    264.59727   -414.56089    106.64859   -5390.0501 
 4455000    242.97259    -6379.565   -5754.5328    -6379.565            0     2304.326    23.435709    21.516092    21.902762    11044.356    1799.9474    3142.7737    1970.2568    785.26027   -480.51132   -422.47612   -5383.3737 
 4456000    237.77018    -6380.131   -5768.4817    -6380.131            0    3054.7417    23.265443    21.492443     22.05096    11026.169    5428.3955    2638.3255    1097.5041    471.93698   -473.59079   -216.40232   -5277.2628 
 4457000    238.06035   -6364.0013   -5751.6056   -6364.0013            0    3631.4214    23.507944    21.476205    21.812076    11012.076    4663.2672    3091.3605    3139.6365    488.71673   -771.57944    -867.8791   -5168.3999 
 4458000    239.79783   -6347.6379   -5730.7726   -6347.6379            0    1705.7622    23.467248    21.575828    21.935328    11106.412    904.98917    2229.8149    1982.4825   -374.71313   -337.67918    92.853791   -5454.4807 
 4459000    251.99854   -6366.6856   -5718.4347   -6366.6856            0    1104.5813    23.438345     21.58541    21.910565    11085.131    1851.3796    189.08054    1273.2838   -843.50078   -1266.8129    782.43771   -5539.8623 
 4460000    237.55373    -6352.278   -5741.1855    -6352.278            0    1039.8005    23.541179    21.594008    21.852973    11108.924    813.59286   -162.71011    2468.5187    -164.0956     137.4672    431.78206   -5572.7251 
 4461000    238.56275   -6339.1834   -5725.4953   -6339.1834            0    1014.6631    23.370321    21.736385    21.909887    11129.922    1215.9348    849.12897    978.92546    748.03214    748.80479   -1568.2106   -5560.7967 
 4462000     229.2971   -6345.1627   -5755.3099   -6345.1627            0    2692.0836    23.481968    21.494098    21.864168    11035.364    3111.9881    1652.1098    3312.1531    707.96647    631.48116   -165.01284   -5322.0474 
 4463000    232.99443   -6332.5585   -5733.1945   -6332.5585            0    3241.7951    23.351786    21.579199    21.950099    11060.936     2947.606    3463.7679    3314.0113     540.8539    1403.1383     524.9702   -5210.2527 
 4464000    239.19645    -6343.176   -5727.8578    -6343.176            0    2314.1362    23.471302    21.501047    21.871871    11037.805    2639.9392    2642.9393      1659.53    98.709569    530.50364    337.72054   -5355.3395 
 4465000    229.20516   -6366.6302   -5777.0139   -6366.6302            0    1176.7873    23.504805    21.609493    21.803232    11074.448   -32.494993    1752.4852    1810.3718    447.86426    342.98747      562.277   -5586.9516 
 4466000    239.59205   -6364.5811   -5748.2451   -6364.5811            0    857.96792    23.592188     21.62224    21.845113     11143.54   -278.89839    1685.3205    1167.4816   -411.37895    609.77432   -807.42282   -5608.8107 
 4467000    238.37232    -6349.353   -5736.1547    -6349.353            0    2738.9938    23.386035    21.577141    21.925785    11063.834    2675.1887     3422.707    2119.0857    815.95554   -925.56963   -1213.9689   -5294.2053 
 4468000    244.27257   -6344.8248   -5716.4485   -6344.8248            0    2809.1016    23.537718    21.447185    21.948544    11080.016    2708.2559    2752.6365    2966.4123   -434.34112    922.90591    780.02543   -5262.5239 
 4469000    231.51566   -6329.7926   -5734.2327   -6329.7926            0    2889.5939    23.330242     21.65475    21.843292    11035.462    2680.2916    2475.0629    3513.4271    1217.7609   -58.716563    550.87115   -5269.1789 
 4470000    218.23031   -6334.5226   -5773.1384   -6334.5226            0     2495.642    23.698934     21.40223    21.813807    11064.182    1365.1222    3269.8641    2851.9396   -130.09106   -247.58518    349.27283   -5370.4423 
 4471000    237.86076   -6358.6728   -5746.7905   -6358.6728            0    2284.8084    23.391801    21.683303    21.861953    11088.634    2408.6516    2092.8574    2352.9163   -1515.1864   -770.81972   -391.20607   -5377.2996 
 4472000    240.86776   -6369.6243   -5750.0067   -6369.6243            0    2365.8274     23.57038    21.456739    21.908823    11080.245    1683.1183    2128.4405    3285.9234   -1051.7696    297.22006   -649.29869   -5367.7032 
 4473000    237.32135   -6361.9792   -5751.4845   -6361.9792            0    800.30479    23.399598    21.723149    21.826147    11094.514     1541.933    270.10645     588.8749     296.1141   -816.19946    461.95175   -5621.9935 
 4474000    236.97704   -6314.7784   -5705.1694   -6314.7784            0    2353.8156    23.598354    21.483208    21.833078    11068.679    1902.4885    2363.0493    2795.9089    748.35345   -426.09995    742.21054   -5325.2039 
 4475000    240.02808   -6363.4321   -5745.9745   -6363.4321            0    1845.0644    23.383138    21.594599    21.962324    11089.864    2487.3646    1337.3097    1710.5189   -623.30709   -94.307984   -770.75713   -5447.5643 
 4476000    233.56923   -6343.5003   -5742.6577   -6343.5003            0    1318.1913    23.387837    21.587078     22.06728     11141.22    1925.7085    695.19003    1333.6752   -1020.6251   -664.56106    279.80795   -5528.4737 
 4477000    250.66142   -6325.7679   -5680.9567   -6325.7679            0    2071.6484    23.341631    21.604827    22.018446    11103.724    2943.6586    2103.4594    1167.8274   -591.56353    193.45025    531.14752   -5345.4813 
 4478000    242.34196   -6317.2417   -5693.8317   -6317.2417            0    1907.1288    23.467748     21.52654    22.031463    11129.842    1478.5177    2318.7339    1924.1347    -828.7889    732.31004    3.6929704   -5384.2717 
 4479000    239.43577   -6336.3984   -5720.4645   -6336.3984            0    1838.4803    23.504751    21.589331    21.859916    11092.855    1268.7801     2001.017    2245.6436   -314.64012    633.71262    490.27017    -5423.039 
 4480000    247.80242   -6333.6663   -5696.2097   -6333.6663            0    2818.5255    23.490235    21.583216    21.802189    11053.597    1754.8959    3178.4627    3522.2179    365.39697    1225.2941   -228.54545   -5241.8482 
 4481000    241.35827    -6324.349   -5703.4696    -6324.349            0    3928.5969    23.495813    21.428032    21.923035    11037.569    4054.4718    3668.2278     4063.091    753.28627   -474.08939    143.65916   -5071.0769 
 4482000    243.40558   -6345.4349   -5719.2889   -6345.4349            0    2236.9519    23.344575    21.772739    21.820054    11090.595    3547.0702    990.04884    2173.7367    1198.9169   -915.14918    95.031111   -5357.4732 
 4483000    226.63522   -6324.9734   -5741.9681   -6324.9734            0    2850.0672    23.666365    21.292156    21.952806    11062.193    3887.2296    3439.3349    1223.6372   -707.92364   -668.64853   -980.76114   -5282.1646 
 4484000    238.89735   -6343.7989     -5729.25   -6343.7989            0    2161.6514    23.297415    21.754915    21.886754    11092.935    2539.3922    2070.3316    1875.2303    1981.0564   -854.15591   -38.478788     -5379.54 
 4485000    230.82895   -6335.2818   -5741.4884   -6335.2818            0    1725.7855     23.67825    21.421371     21.94941    11133.192    1296.1995    2440.1224    1441.0345    773.86119    24.911619   -545.42546   -5461.2791 
 4486000    234.26685     -6339.38   -5736.7428     -6339.38            0    923.61023    23.324203    21.754969    21.916069    11120.593    864.56034    965.29697    940.97338    643.48426    -61.05811    500.02642   -5586.9495 
 4487000    229.29102    -6346.368   -5756.5308    -6346.368            0    424.24459    23.642266    21.429142    22.056629    11174.627    1440.2761   -137.10476    -30.43759   -461.09689   -1553.1842    927.57125   -5687.3915 
 4488000    242.53706   -6326.8097   -5702.8979   -6326.8097            0    3719.1782     23.32252    21.720537    21.735008    11010.469    4615.3992     2585.698    3956.4373   -67.015826    1654.6932    1138.6076   -5105.6856 
 4489000    236.78856   -6348.5051   -5739.3809   -6348.5051            0    1695.8849    23.538876    21.539299    21.940491    11124.068    1500.4375    1207.5623     2379.655   -498.78254   -345.29004      802.485   -5464.2522 
 4490000    241.32035    -6345.915   -5725.1331    -6345.915            0    2194.7218    23.338629    21.625493    21.977877     11092.44    3276.9762    1328.9119    1978.2773   -766.45152    4.0633481   -324.40974   -5370.0889 
 4491000     237.5388   -6362.9434   -5751.8893   -6362.9434            0    3722.5693    23.442603    21.490655     21.83735     11001.59    3859.3262    2492.0078    4816.3737   -876.06111    753.87982    1704.7071   -5154.6146 
 4492000    242.03961   -6364.9778   -5742.3457   -6364.9778            0    1944.5387    23.482996    21.537345      21.9089    11080.676    1955.1449    1926.0201     1952.451    762.55885   -509.42622   -718.68473   -5428.1076 
 4493000    234.46844   -6318.7871   -5715.6313   -6318.7871            0    717.00291    23.471851    21.578639    22.085108      11185.9    510.00119    1956.8534   -315.84587     697.0394    783.72531   -852.23349   -5598.6632 
 4494000    238.64885   -6355.7517   -5741.8421   -6355.7517            0    380.78586    23.513698    21.646954    21.914465    11154.462   -211.05546    1502.7418   -149.32876   -25.760627   -1.3452324   -1389.5254   -5679.8972 
 4495000    250.93792   -6331.8207   -5686.2981   -6331.8207            0    1793.6284    23.554488    21.609877    21.830934    11112.155    2243.0676    968.65498    2169.1625   -706.90859    1255.4938    288.91656   -5395.6238 
 4496000     237.4678   -6366.9987   -5756.1272   -6366.9987            0    969.51185    23.418978    21.475254    22.062316    11095.767    949.31418    739.29193    1219.9294   -3.0108926    701.70892    619.30902   -5599.2405 
 4497000    241.98994   -6345.6817   -5723.1774   -6345.6817            0    2458.1494    23.388711    21.587974    21.915345    11065.384    2855.6317    2614.5685     1904.248    1008.8731      541.974    357.20014   -5326.4879 
 4498000    244.91019   -6354.8765     -5724.86   -6354.8765            0    1702.9559    23.596027    21.555283    21.852296    11114.494     1170.968     2648.113    1289.7868    99.980266   -93.207049      -469.91   -5448.8219 
 4499000    236.38931   -6356.5457   -5748.4486   -6356.5457            0     2385.486    23.451345    21.667947    21.801084    11078.057    2747.9607    1791.9557    2616.5418   -583.95901   -1994.1312    815.82825   -5363.0444 
 4500000    242.08671   -6302.3811   -5679.6278   -6302.3811            0    1338.8226    23.478149    21.575077    22.091266    11190.173     1643.634    1592.9869    779.84675   -627.03723    321.08003   -509.34966   -5461.1357 
Loop time of 553.379 on 64 procs for 250000 steps with 1296 atoms

Performance: 78.066 ns/day, 0.307 hours/ns, 451.770 timesteps/s
99.3% CPU use with 64 MPI tasks x 1 OpenMP threads

MPI task timing breakdown:
Section |  min time  |  avg time  |  max time  |%varavg| %total
---------------------------------------------------------------
Pair    | 29.254     | 38.345     | 47.076     |  95.3 |  6.93
Bond    | 0.27159    | 0.2787     | 0.28631    |   0.7 |  0.05
Kspace  | 282.91     | 294.61     | 307.5      |  39.9 | 53.24
Neigh   | 4.157      | 4.5706     | 5.0302     |   9.6 |  0.83
Comm    | 88.061     | 97.464     | 105.87     |  34.9 | 17.61
Output  | 1.2069     | 1.2085     | 1.2131     |   0.1 |  0.22
Modify  | 107.81     | 110.04     | 113.1      |  15.9 | 19.89
Other   |            | 6.857      |            |       |  1.24

Nlocal:        20.2500 ave          26 max          13 min
Histogram: 1 2 7 13 6 6 9 6 3 11
Nghost:        2503.42 ave        2529 max        2470 min
Histogram: 1 4 5 8 6 8 12 10 7 3
Neighs:        6233.23 ave        8036 max        3987 min
Histogram: 1 2 8 11 7 6 8 7 4 10

Total # of neighbors = 398927
Ave neighs/atom = 307.81404
Ave special neighs/atom = 2.0000000
Neighbor list builds = 8771
Dangerous builds = 1

unfix		3
unfix		2
unfix		1

write_data	data.final.${pid}
write_data	data.final.0
System init for write_data ...
PPPM initialization ...
  extracting TIP4P info from pair style
  using 12-bit tables for long-range coulomb (../kspace.cpp:340)
  G vector (1/distance) = 0.37597825
  grid = 30 40 36
  stencil order = 5
  estimated absolute RMS force accuracy = 0.0027925208
  estimated relative force accuracy = 8.4095935e-06
  using double precision FFTW3
  3d grid and FFT values/proc = 5472 750
Last active /omp style is kspace_style pppm/tip4p/omp
WARNING: Not all mixed pair coeffs generated from mixing. Use write_data with 'pair ij' option to store all pair coeffs. (../write_data.cpp:312)

write_restart   restart.lmp.${pid}
write_restart   restart.lmp.0
System init for write_restart ...
PPPM initialization ...
  extracting TIP4P info from pair style
  using 12-bit tables for long-range coulomb (../kspace.cpp:340)
  G vector (1/distance) = 0.37597825
  grid = 30 40 36
  stencil order = 5
  estimated absolute RMS force accuracy = 0.0027925208
  estimated relative force accuracy = 8.4095935e-06
  using double precision FFTW3
  3d grid and FFT values/proc = 5472 750
Last active /omp style is kspace_style pppm/tip4p/omp
Total wall time: 0:09:14
