LAMMPS (30 Jul 2021)
  using 1 OpenMP thread(s) per MPI task
package omp 0
using multi-threaded neighbor list subroutines
echo both

include		in.partitions
variable        pid world 0
include		in.temp
variable        temperature equal 258.32
variable	tempDamp equal 100.0
include		in.pressure
variable        pressure equal 9125.0
variable        pressureDamp equal 1000.0 # This is 1 ps
include		in.seed
variable        seed world 745823

units		real
atom_style	full

read_restart	restart.lmp.${pid}
read_restart	restart.lmp.0
Reading restart file ...
  restart file = 30 Jul 2021, LAMMPS = 30 Jul 2021
  restoring atom style full from restart
  orthogonal box = (0.091031588 -0.0093509134 0.19496018) to (19.908969 20.009352 20.505038)
  4 by 4 by 4 MPI processor grid
  restoring pair style lj/cut/tip4p/long/omp from restart
  restoring bond style harmonic/omp from restart
  restoring angle style harmonic/omp from restart
  972 atoms
  648 bonds
  324 angles
Finding 1-2 1-3 1-4 neighbors ...
  special bond factors lj:    0        0        0       
  special bond factors coul:  0        0        0       
     2 = max # of 1-2 neighbors
     1 = max # of 1-3 neighbors
     1 = max # of 1-4 neighbors
     2 = max # of special neighbors
  special bonds CPU = 2.069 seconds
  read_restart CPU = 2.561 seconds
include 	in.setup
variable	out_freq equal 1000
variable	out_freq2 equal 10000
variable	out_freq3 equal 1000

timestep	2.0

neigh_modify    delay 7 every 1

include		in.tip4p
# This is TIP4P/Ice

# create groups ###
group ox type 2
324 atoms in group ox
group hy type 1
648 atoms in group hy

# set charges - beside manually ###
set group ox charge -1.1794
Setting atom values ...
  324 settings made for charge
set group hy charge 0.5897
Setting atom values ...
  648 settings made for charge

# ### TIP3P Potential Parameters ###
pair_style lj/cut/tip4p/long/omp 2 1 1 1 0.1577 8.5
pair_coeff 1 1*2 0.000 0.000
pair_coeff 2 2 0.21084 3.1668
bond_style  harmonic
bond_coeff  1 450 0.9572
angle_style harmonic
angle_coeff 1 55 104.52
kspace_style pppm/tip4p/omp 1.0e-5
pair_modify tail yes

thermo          ${out_freq}
thermo          1000
thermo_style    custom step temp pe etotal epair emol press lx ly lz vol pxx pyy pzz pxy pxz pyz enthalpy

restart 	${out_freq3} restart.lmp.${pid} restart2.lmp.${pid}
restart 	1000 restart.lmp.${pid} restart2.lmp.${pid}
restart 	1000 restart.lmp.0 restart2.lmp.${pid}
restart 	1000 restart.lmp.0 restart2.lmp.0


include         in.dump
dump            myDump all atom ${out_freq2} dump.water.${pid}
dump            myDump all atom 10000 dump.water.${pid}
dump            myDump all atom 10000 dump.water.0
dump            myDump2 all dcd ${out_freq2} dump.dcd
dump            myDump2 all dcd 10000 dump.dcd
dump_modify     myDump append yes
dump_modify     myDump2 append yes


variable natoms 	equal  "count(all)"                        # NUMBER ATOMS
variable H      	equal  "enthalpy/v_natoms"                 # ENTHALPY-per-atom
variable Vol      	equal  "vol/v_natoms"                 # volume-per-atom
fix AVG all 		ave/time ${out_freq} 1 ${out_freq} v_Vol v_H file vol_enthalpy.dat
fix AVG all 		ave/time 1000 1 ${out_freq} v_Vol v_H file vol_enthalpy.dat
fix AVG all 		ave/time 1000 1 1000 v_Vol v_H file vol_enthalpy.dat


timer           timeout 02:55:00 every 1000
New timer settings: style=normal  mode=nosync  timeout=02:55:00

fix 		1 all shake 1e-6 200 0 b 1 a 1
       0 = # of size 2 clusters
       0 = # of size 3 clusters
       0 = # of size 4 clusters
     324 = # of frozen angles
  find clusters CPU = 1.066 seconds
fix             2 all nph aniso ${pressure} ${pressure} ${pressureDamp}
fix             2 all nph aniso 9125 ${pressure} ${pressureDamp}
fix             2 all nph aniso 9125 9125 ${pressureDamp}
fix             2 all nph aniso 9125 9125 1000
fix             3 all temp/csvr ${temperature} ${temperature} ${tempDamp} ${seed}
fix             3 all temp/csvr 258.32 ${temperature} ${tempDamp} ${seed}
fix             3 all temp/csvr 258.32 258.32 ${tempDamp} ${seed}
fix             3 all temp/csvr 258.32 258.32 100 ${seed}
fix             3 all temp/csvr 258.32 258.32 100 745823


run             250000
PPPM initialization ...
  extracting TIP4P info from pair style
  using 12-bit tables for long-range coulomb (../kspace.cpp:340)
  G vector (1/distance) = 0.37213848
  grid = 24 24 24
  stencil order = 5
  estimated absolute RMS force accuracy = 0.003512635
  estimated relative force accuracy = 1.0578196e-05
  using double precision FFTW3
  3d grid and FFT values/proc = 2197 216
Last active /omp style is kspace_style pppm/tip4p/omp
Neighbor list info ...
  update every 1 steps, delay 7 steps, check yes
  max neighbors/atom: 2000, page size: 100000
  master list distance cutoff = 10.8154
  ghost atom cutoff = 10.8154
  binsize = 5.4077, bins = 4 4 4
  1 neighbor lists, perpetual/occasional/extra = 1 0 0
  (1) pair lj/cut/tip4p/long/omp, perpetual
      attributes: half, newton on, omp
      pair build: half/bin/newton/omp
      stencil: half/bin/3d
      bin: standard
Per MPI rank memory allocation (min/avg/max) = 9.224 | 9.225 | 9.228 Mbytes
Step Temp PotEng TotEng E_pair E_mol Press Lx Ly Lz Volume Pxx Pyy Pzz Pxy Pxz Pyz Enthalpy 
20500000    272.68931   -4683.3014   -4157.3972   -4683.3014            0    9188.9897    19.817938    20.018703    20.310078    8057.6051    9883.7529    7778.3431    9904.8731   -109.48569    701.29922    864.57312   -3077.5815 
20501000    258.06616   -4718.9461   -4221.2438   -4718.9461            0    9070.6429     19.87794    19.843776    20.476806    8077.1458    10287.658    9492.6816    7431.5896   -452.06775    1027.1679    62.156992   -3152.7503 
20502000    259.92534   -4703.5103   -4202.2224   -4703.5103            0    9783.6642    19.697794     19.83026    20.704373    8087.3844    9307.5047     10880.83    9162.6577   -157.50593    662.21205   -285.74246   -3048.2763 
20503000    258.57344   -4715.0975   -4216.4169   -4715.0975            0    9079.1566    19.795266    19.794304    20.651715    8092.0341    9910.4786    8762.5975    8564.3936   -196.01697   -1799.2344    1050.4942   -3144.9491 
20504000    247.43386   -4719.6973   -4242.5003   -4719.6973            0    10269.794    19.994279      19.7578    20.277595    8010.5217    8503.0709    10862.257    11444.055   -544.95266    517.67709    1400.2994   -3042.7291 
20505000    250.40663   -4689.6838   -4206.7535   -4689.6838            0    8135.7102    19.868431    19.733051    20.649786    8096.0538    8306.2277    8920.7738    7180.1293   -182.79705    668.90494    446.21496   -3246.1487 
20506000    273.48345   -4714.8922   -4187.4564   -4714.8922            0    8647.6206    19.825553    19.772321    20.617346    8081.9422    8422.9914    10172.985    7346.8861   -423.70029    1000.5886    214.49661   -3168.1887 
20507000    267.29569   -4706.2361   -4190.7339   -4706.2361            0    9579.2143    19.529115    20.045433     20.38121    7978.6233    10167.715    8117.2541    10452.674    388.38307    492.49478   -4.2216697   -3076.0961 
20508000    257.17891   -4694.2071    -4198.216   -4694.2071            0    9282.0775    19.895234    19.820809    20.336114    8019.3355    7841.3702    10131.337    9873.5251   -823.79316   -628.98949    172.62748   -3112.6419 
20509000    273.96966   -4711.5841   -4183.2105   -4711.5841            0    8317.4915    19.748322    20.043043    20.519214    8121.8427    10431.949    6653.3009    7867.2249    20.434497    1200.7803    -126.9803   -3198.0141 
20510000    263.79906   -4690.1221   -4181.3634   -4690.1221            0    10046.158    19.705735     19.81308    20.479085    7995.6761    11311.772    9288.8487    9537.8523    435.88148   -1943.5415   -458.00827   -3009.8936 
20511000    249.35403   -4682.3556   -4201.4554   -4682.3556            0    9715.1964    19.484387    19.880916    20.602521    7980.7462    10133.753    9155.0813    9856.7553   -50.513682   -1252.8523     1332.092    -3070.694 
20512000    261.12791   -4667.9545   -4164.3474   -4667.9545            0    7939.1187    19.904681    19.860618     20.52332    8113.2639       7281.8    7759.4424    8776.1139   -109.20286    1845.4103    899.73679    -3224.962 
20513000    259.77653   -4652.6927   -4151.6918   -4652.6927            0    10051.641    19.657342    19.628098    20.672077    7976.0365    10341.646    11047.337    8765.9397   -428.88968    242.61491    -1243.061   -2982.4617 
20514000    266.87207   -4731.7738   -4217.0885   -4731.7738            0    7964.3821     19.63644    19.758216    20.682071    8024.2511    6654.5545    10320.066    6918.5254   -397.63978    623.46191   -867.23958    -3285.053 
20515000     252.4573   -4701.8775   -4214.9924   -4701.8775            0    7934.6948    19.995781    19.666891    20.570131    8089.3036    7317.4784    8703.3245    7783.2815   -278.90121   -581.11744    472.40508   -3278.9032 
20516000    250.70311    -4689.252   -4205.7499    -4689.252            0    8918.4787    19.664139    19.928085    20.563614    8058.2351    10363.535    8613.4866    7778.4143   -17.917277    1520.0462    74.645023   -3157.6406 
20517000    264.49854   -4708.3299   -4198.2222   -4708.3299            0    9709.8357    19.824067    19.860957    20.341611    8008.9998    10843.428    7668.7075    10617.372   -63.795115   -907.58424    256.56429   -3064.0838 
20518000    255.52153   -4719.7479   -4226.9531   -4719.7479            0    9018.1771    19.883154    19.944288     20.30099    8050.4661    7660.3081    10113.215     9281.008     404.5205   -187.54003   -326.11755   -3168.1489 
20519000    255.74601    -4691.865   -4198.6373    -4691.865            0    8427.4962    19.729463     19.65109    20.661236    8010.4738    9351.2685     8687.301    7243.9191   -36.419573   -883.63299    769.01794   -3214.0989 
20520000    250.21927   -4697.1483   -4214.5794   -4697.1483            0    8988.4616     20.03209    19.968416    20.186543    8074.8008    8935.6362    9037.1984    8992.5502    113.51105   -183.94064     1158.345    -3156.074 
20521000    249.20311   -4719.7578   -4239.1486   -4719.7578            0    8732.6181    19.848957    19.840079    20.502834    8074.1157    8851.5484    8980.7923    8365.5134   -620.70228   -396.40893   -88.369682   -3210.8593 
20522000    258.01914   -4699.2937   -4201.6821   -4699.2937            0    9445.4292    19.647798    19.892348    20.608687    8054.7163    10419.019    9348.1266    8569.1418   -260.09655   -210.51154   -1006.9578   -3092.1297 
20523000    252.59236   -4722.7347   -4235.5891   -4722.7347            0    9420.1802    19.850709    19.944828    20.277129    8028.1002    10430.589     7959.776    9870.1755    110.06502    923.12178    211.03282   -3132.6593 
20524000    261.50728   -4660.7046   -4156.3659   -4660.7046            0    8871.7374    19.810892    19.879521    20.594415    8110.7201    9141.5117    9006.5531    8467.1474     632.4685   -1689.2325   -121.51738   -3106.9588 
20525000    270.81463   -4691.2915   -4169.0027   -4691.2915            0    11868.978    19.836792    19.695831    20.522811    8018.3056    12741.432    12031.711    10833.792     480.8283    192.27291   -2534.2134   -2781.0591 
20526000    268.68466   -4700.8279   -4182.6469   -4700.8279            0    7118.4857    20.085823    19.851531    20.385404    8128.3604    4862.4541    7895.3213    8597.6818    436.42695    27.363764   -533.40082   -3338.7946 
20527000    268.79189   -4684.0604   -4165.6726   -4684.0604            0    10194.801    19.806939     19.79517    20.509372    8041.3499    11666.985    8389.4918    10527.927   -610.30615   -170.54325    443.43955   -2970.0789 
20528000    260.03669   -4701.2868   -4199.7842   -4701.2868            0    8915.2468    19.601123     19.57349     20.67248    7931.2531    10081.558    9698.8495    6965.3331    91.278153   -623.46006   -921.84419   -3168.5648 
20529000    264.65447   -4705.7224    -4195.314   -4705.7224            0    9184.7679    19.858311    19.825792    20.415823    8037.8467    8559.9742    9483.6729    9510.6565    282.42123    956.21149    786.47448    -3118.641 
20530000    263.94438   -4696.7535   -4187.7146   -4696.7535            0    7712.6193    19.804282    20.179157    20.281479    8105.1626    8741.4194    7630.4119    6766.0267   -180.77497    818.13532   -190.05726   -3276.0407 
20531000    261.42089   -4687.8115   -4183.6393   -4687.8115            0    8031.2245    20.025384    19.941027    20.288268    8101.6475    8287.2486    7167.0972    8639.3277    49.464273   -518.89009    1165.9229   -3234.7162 
20532000    263.82012   -4704.7011   -4195.9018   -4704.7011            0    7153.4267    19.973182     19.78655    20.566675    8127.9575    7684.8347    7012.7973    6762.6482    540.18623    1054.0881    445.30996   -3347.9495 
20533000    263.14418   -4708.7027    -4201.207   -4708.7027            0    8333.1801    19.893345    19.670895    20.538757    8037.2242    9143.2232     8294.629    7561.6881    173.12344    -938.5751    545.21431    -3224.436 
20534000    264.55506   -4723.1074   -4212.8907   -4723.1074            0    9576.7193    19.642429    19.863572    20.435953    7973.4712    9928.1859    9577.1105    9224.8616   -520.44818    248.98908   -106.80029   -3099.2629 
20535000    251.81839   -4736.2951   -4250.6422   -4736.2951            0    9682.0544    19.806023    19.898587    20.472826     8068.584    9453.3933    9222.2525    10370.517     145.2105    -1618.273    213.74928   -3111.3353 
20536000    255.69891    -4730.397   -4237.2601    -4730.397            0    9552.8663    19.972726    19.637456    20.565567    8066.0936     7840.456    9990.6267    10827.516    396.31726    977.20061    1340.0352    -3113.502 
20537000    258.80933   -4702.9816    -4203.846   -4702.9816            0    10023.777    19.639859    19.997433    20.354332    7994.0979    11760.558    7884.5562    10426.216    821.79309    -1219.899    69.295182   -3035.2168 
20538000    262.31566   -4686.9337   -4181.0359   -4686.9337            0    10332.264      19.8635    19.735255    20.548481    8055.2356    11315.716    10303.013    9378.0646   -629.53294    788.37858   -373.72072   -2967.2289 
20539000    252.86986   -4705.2326   -4217.5518   -4705.2326            0     9677.338    19.881716    19.487641    20.695305    8018.3491    11792.741    8664.5265     8574.746    595.15989    55.091785    347.09185   -3085.8898 
20540000    244.86631   -4686.7909   -4214.5457   -4686.7909            0    8651.2458    19.847168    19.891033    20.580907    8124.9445    8636.0918     8733.991    8583.6546    401.15738   -880.46592   -277.79309   -3189.4251 
20541000    259.55143   -4699.9691   -4199.4023   -4699.9691            0    9706.0079    19.802029     19.94618    20.324977    8027.8544    7577.3475    10382.814    11157.862   -202.08845    877.82415   -500.15577   -3063.0421 
20542000    258.05594   -4712.8719   -4215.1894   -4712.8719            0    10026.494    19.616751    19.961564    20.608856    8070.0371    10964.883    10204.154    8910.4444    139.92545    1138.1185   -607.61124   -3035.1391 
20543000    268.71544   -4694.4553    -4176.215   -4694.4553            0    9617.1074    19.926741    19.701162    20.476943    8038.8373    9124.2294    10769.571    8957.5213    1004.5213    -1408.634   -166.77054   -3048.7226 
20544000    246.99817   -4711.5921   -4235.2354   -4711.5921            0    8969.2483    19.806927    19.903702     20.49775     8080.852    10718.887     7739.162    8449.6961    38.086505    80.809409    592.24491   -3178.2011 
20545000     243.2191   -4716.0387   -4246.9702   -4716.0387            0    8902.8527    20.068292    19.904014    20.277613    8099.6811    9720.1825    7806.6394    9181.7362    1136.5741    1535.1767   -1172.2568   -3195.3159 
20546000     264.0426   -4734.6103    -4225.382   -4734.6103            0    8105.2017    19.676023    19.895271    20.629913    8075.7819    9203.4664    6550.7221    8561.4168    569.54989    670.44281   -981.72375   -3270.7756 
20547000    261.54658   -4724.7488   -4220.3343   -4724.7488            0    7168.7736    19.904533    19.763527    20.603247    8104.9831    6804.0377    7142.3578    7559.9251    476.28233   -216.05687    305.51039   -3372.9647 
20548000    260.70705   -4736.0083   -4233.2128   -4736.0083            0    9980.1209    19.771173    19.779654    20.580979    8048.5411    9861.3161    11061.127    9017.9192    864.12573    1629.5383   -292.94022   -3061.7491 
20549000    266.60876   -4710.0878   -4195.9103   -4710.0878            0    10068.456    19.885753    19.967858    20.326557    8071.1855    10920.816    8092.3038    11192.247   -694.33601    835.58606   -1214.9141   -3010.7528 
20550000     248.4291   -4707.0941   -4227.9777   -4707.0941            0    11420.582    19.899298    19.830412    20.329122    8022.1009    10411.888     11997.48    11852.379   -304.55832    2659.2387   -302.44842   -2891.8368 
20551000    268.55685   -4654.9136   -4136.9792   -4654.9136            0    10844.285    19.857026    19.658677    20.615832    8047.6548    10413.887    10937.543    11181.426   -293.80117   -49.076289    614.55592   -2864.2202 
20552000    250.46435     -4713.56   -4230.5184     -4713.56            0    8161.4737    19.911424    19.937924    20.345725    8077.0994    7451.6951    7526.2809     9506.445   -695.74608    710.46694    398.05418   -3269.1278 
20553000    252.63505   -4719.4357   -4232.2078   -4719.4357            0    9464.7017    19.816053    19.801195    20.327258    7976.0405    12317.391    7316.4448    8760.2692   -314.59256     509.0632   -861.27654   -3131.2513 
20554000    253.90986   -4665.5667   -4175.8802   -4665.5667            0    10242.916    19.580731    19.852802    20.571481    7996.8007    11199.757    10182.695    9346.2971   -715.39507    552.21673   -474.16846   -2981.2987 
20555000    261.85275   -4715.0572   -4210.0522   -4715.0572            0    7053.0872     19.95429    19.691499    20.676538    8124.4298    7779.6836    6221.8595    7157.7186    357.92978    510.35439   -498.98743   -3374.3567 
20556000     255.2263   -4629.5456   -4137.3202   -4629.5456            0    11769.806    19.864272    19.758683    20.374613    7996.8698    12134.514    12546.809    10628.096   -60.235185   -623.29424    584.51558   -2764.6531 
20557000    262.78636   -4749.3916    -4242.586   -4749.3916            0    8675.7319    19.857011    19.797038    20.503964    8060.3134    9193.7488    8266.7955    8566.6515   -853.93439    886.98713    596.46118   -3222.7416 
20558000    260.42397   -4710.4984   -4208.2488   -4710.4984            0    8633.2103    20.002921    19.921011    20.323411    8098.4405    10667.259    7088.5878    8143.7836   -125.78937    565.32032   -834.28971   -3188.6024 
20559000    259.41494   -4711.0493   -4210.7458   -4711.0493            0    7871.2264    19.953903    19.721074    20.584672    8100.3238    9590.6078    6679.0595    7344.0118    -441.0982    818.68244    1896.2585   -3280.8791 
20560000      256.331   -4704.6233   -4210.2674   -4704.6233            0    8207.6183    19.934713    19.605874    20.729527    8101.8757     7872.753     9229.633    7520.4689   -87.623881    -1337.169   -1766.7259   -3240.4754 
20561000    265.39222   -4705.7851   -4193.9539   -4705.7851            0    5845.4221    19.978556    19.602096    20.714032    8112.0616    6685.2699    4770.3664    6080.6299   -564.71687    138.51471   -107.51545   -3502.4048 
20562000    263.48862   -4664.9711   -4156.8111   -4664.9711            0    8279.4839    19.629739    20.022395    20.555497    8079.0172    9823.3418    7895.2472    7119.8626   -160.47148   -646.59962   -906.16887   -3181.2877 
20563000    266.10665   -4693.7881   -4180.5791   -4693.7881            0    8673.7711      20.0477    19.823249    20.341712    8084.0111    7364.5643    10329.016    8327.7327    1125.7304    696.39939    224.46663   -3157.9674 
20564000    264.76505   -4715.2789   -4204.6572   -4715.2789            0    8844.5594    19.643805    20.028378    20.456138    8048.1306    10041.008    7676.6642    8816.0057    26.137835    811.80576   -1433.3421   -3166.5383 
20565000    264.77617   -4724.5811   -4213.9379   -4724.5811            0    8631.4386    19.974608    19.839692    20.262343    8029.7655    8749.7435    7766.9759    9377.5964   -595.17123   -25.506968   -532.38965   -3203.1456 
20566000    261.62834    -4669.714   -4165.1418    -4669.714            0    10894.515    19.900187    19.663449    20.516136    8028.0936    11898.198     10374.35    10410.997    632.04164    -576.9162    872.61906   -2889.5955 
20567000    261.63144   -4724.5809   -4220.0027   -4724.5809            0    9240.0173    19.856043     19.79608    20.426099    8028.9233    11582.669    8289.5205    7847.8628   -327.16275   -410.13296   -760.03917   -3138.0557 
20568000    256.39466   -4703.9993   -4209.5206   -4703.9993            0    7247.2707     19.79698    20.112756    20.472372    8151.5222     7840.513    5590.5808    8310.7184     376.8605   -1031.1533    -224.1719   -3347.9535 
20569000    237.83619   -4707.0139   -4248.3268   -4707.0139            0     9295.967    19.765021    19.842729    20.546616    8058.2176    9935.7546    9588.8347    8363.3116   -161.86853    624.31866    605.82025    -3155.857 
20570000    256.73895   -4687.1889   -4192.0462   -4687.1889            0    10695.344     19.83633    19.949408    20.300027    8033.1885    11345.806    9676.0817    11064.145    635.92715   -1131.1058   -859.20896   -2939.0244 
20571000    258.42487   -4696.1292   -4197.7351   -4696.1292            0    11815.383    19.815722    19.869349    20.417321    8038.8196    12620.749    10921.425    11903.974    516.31089    601.18937    362.16673    -2812.524 
20572000    280.98671   -4695.4537   -4153.5472   -4695.4537            0    9165.7563    19.874249     19.72185     20.58749    8069.4103    9236.1901    9788.9112    8472.1675   -510.48863   -115.72245   -863.86549   -3074.8837 
20573000    257.74046   -4724.7418   -4227.6676   -4724.7418            0    9739.9275    19.715788    19.690396    20.456027    7941.2684    9014.4629    10335.032     9870.288   -263.16111    558.79843    228.33706   -3099.6354 
20574000    256.62413   -4727.5122    -4232.591   -4727.5122            0    9933.0958    19.939167    19.729117    20.378664     8016.603    8602.6954     11887.28    9309.3126    45.564885    182.21029   -1078.2839   -3071.2737 
20575000    247.09884    -4673.418   -4196.8671    -4673.418            0    11255.593    19.997123    19.589608    20.289528    7948.1347    12145.927     9857.834    11763.017   -18.728988     704.8375    1289.0336   -2892.1707 
20576000    247.77674   -4692.6195   -4214.7612   -4692.6195            0    8691.1737    19.744026    20.020693    20.469732    8091.4616    9911.1512     7464.212     8698.158    1140.7724    320.64789   -119.61083   -3189.1535 
20577000    245.37261   -4724.7101   -4251.4884   -4724.7101            0    10639.168    19.800426    19.855264    20.374793    8010.2008    9671.5129      12070.3    10175.691    366.36551   -129.92392   -119.14081   -3008.6148 
20578000    266.96651   -4677.9181   -4163.0508   -4677.9181            0     9869.205    19.676757    19.578312    20.765879    7999.7993    11454.764    9977.9742    8174.8766    -36.40025    42.843816    930.66281   -3011.6218 
20579000    255.90305   -4715.9771   -4222.4465   -4715.9771            0    9377.4316    19.897991    19.675973    20.571655    8054.0569    10514.853    8010.8146    9606.6274   -245.03632   -780.29671    1131.4939   -3120.9719 
20580000    266.51056   -4688.6856   -4174.6976   -4688.6856            0    11022.157    19.824322    19.813531    20.324921    7983.4222    9426.1847     12055.82    11584.467   -526.31489   -333.08157   -1373.7418   -2891.3876 
20581000    251.51315   -4681.8528   -4196.7885   -4681.8528            0    7655.5967    19.748681    20.110264    20.365586    8088.2166     9669.762    5962.0428    7334.9852   -475.16609   -54.164687    620.06412    -3293.747 
20582000    254.55826   -4731.6068   -4240.6698   -4731.6068            0      8666.64    19.976614    19.790518    20.568156    8131.5701    10149.623     9323.757    6526.5399    525.87306    227.82572   -713.37583   -3212.8877 
20583000    267.78004   -4709.2528   -4192.8165   -4709.2528            0    9954.6814    19.755773    19.729944    20.586317    8024.1408    9791.2519    8935.7899    11137.002   -544.69054     2113.408   -120.36021   -3027.8812 
20584000    265.95131   -4672.7804   -4159.8709   -4672.7804            0     9736.074    19.916397    19.968726    20.190459    8029.8479    8689.3474     7817.968    12700.906    287.36614    313.62847    2207.2931   -3019.7075 
20585000    254.11177   -4716.5787   -4226.5027   -4716.5787            0    10126.785    19.873343    19.834628     20.44744    8059.9795    11266.466    10032.868    9081.0214    285.43602   -1834.9692    1533.1543   -3036.1343 
20586000    269.11471   -4737.6669   -4218.6565   -4737.6669            0    9720.3213     19.87341    19.772734    20.530444    8067.4722    8573.4197    9516.4067    11071.138   -699.68051    163.39431   -13.496699   -3075.0043 
20587000     258.8399   -4708.9308   -4209.7363   -4708.9308            0    10523.227    19.706372    20.012336    20.281235    7998.3212    10936.808    8342.7916    12290.082    354.01782   -1152.1657   -949.65819   -2982.2301 
20588000    255.54909    -4713.585   -4220.7371    -4713.585            0     9126.419    19.828169    19.909226    20.475693    8083.0562    9494.1794    8612.9912    9272.0866   -767.38855    1623.8514   -175.26063   -3144.8866 
20589000    256.02312   -4757.7462   -4263.9841   -4757.7462            0    8192.5229    19.884267    19.829558    20.502707    8084.1401     7861.568    8328.9964    8387.0044    63.066657   -448.79636   -451.71546   -3298.0947 
20590000    251.34319    -4705.657   -4220.9206    -4705.657            0    8974.7364    19.681687    19.882927    20.672629    8089.8107    10041.133    9226.3974    7656.6786    954.37293    30.335415   -129.61387   -3162.0669 
20591000    246.78827   -4705.7689    -4229.817   -4705.7689            0    8087.0316    19.995734    19.729368    20.510035    8091.2746    7885.2001    8050.2627    8325.6319    212.92148   -689.76595    70.491017   -3275.5235 
20592000    257.72949   -4704.6592   -4207.6063   -4704.6592            0    10118.653    20.001735    19.791843    20.349039    8055.5982    11720.682    9219.2479    9416.0302     295.9997    1380.6685    617.37457   -3018.8402 
20593000     277.5463   -4711.2656   -4175.9942   -4711.2656            0    8828.1529    19.580424     19.96301    20.483137    8006.5349    9226.3286     8946.712    8311.4181    516.68195   -476.77703   -354.23768   -3145.1564 
20594000    259.39954   -4686.4455   -4186.1717   -4686.4455            0    10821.918    19.908771    19.589025    20.437036    7970.3097    8932.6101    12184.223    11348.921    1295.9858    695.52086    1032.7684    -2928.245 
20595000     257.1298   -4743.0749   -4247.1785   -4743.0749            0    9356.7426    19.709246    19.849567    20.467293    8007.2146    11158.784    8322.4345    8589.0091   -538.38384    607.05086   -301.79181    -3154.526 
20596000    269.06036   -4708.1648   -4189.2593   -4708.1648            0    9637.7523    19.751934    19.838471    20.475591    8023.3228    9467.7204    9648.9383    9796.5982   -667.80754   -114.96367    382.38349   -3061.5273 
20597000    260.93233   -4707.2462   -4204.0163   -4707.2462            0    8687.6948    19.736512    19.798953    20.595348    8047.8851    8976.9114    10347.009    6739.1637   -177.22065    209.15912   -120.51915   -3184.3403 
20598000     264.7164   -4720.3922   -4209.8644   -4720.3922            0    9543.1743    20.047007    19.869602    20.272615    8075.1107     10336.58    7652.4614    10640.482   -672.67071   -311.32397   -787.41743   -3085.9914 
20599000     243.9283   -4683.6135   -4213.1772   -4683.6135            0    9201.3222     19.71389    19.824568    20.670544    8078.4484     8544.683    10134.656    8924.6277   -290.07159    1679.4957    176.81117   -3129.1153 
20600000    250.92816   -4689.7192   -4205.7832   -4689.7192            0    8179.2938    20.064748    19.757314    20.371233    8075.6771    7023.1318    9909.5763    7605.1734   -1331.3402   -27.298765    677.26663    -3242.463 
20601000    245.55983   -4724.8846   -4251.3019   -4724.8846            0     7933.122    19.750591    19.962577    20.472918    8071.9124    8325.1246    8561.4242    6912.8172   -844.34043   -606.71983    269.87598   -3317.4103 
20602000     261.9787   -4710.3736   -4205.1256   -4710.3736            0    8754.0745     19.65602    19.778265    20.733831    8060.5252    11049.732    7250.8899    7961.6014   -416.43236    1145.4624    474.70526   -3176.0448 
20603000     267.4617   -4716.3835   -4200.5611   -4716.3835            0    7208.8211     19.92918    19.796273    20.595176    8125.2802    6767.8961    8023.7388    6834.8283      132.777    316.82839     1645.848   -3346.3239 
20604000     254.5954   -4669.2895   -4178.2809   -4669.2895            0    9732.9327    19.658403    19.820786    20.565319    8013.1733    10412.315      9707.59    9078.8926    108.83742    150.61779    1693.6228   -3040.8523 
20605000    266.91075   -4675.4818    -4160.722   -4675.4818            0    10094.535     19.89455    19.727522     20.49257    8042.7225    9910.1424    9520.1304    10853.332    -1072.531   -552.49213   -1445.8355    -2976.685 
20606000    245.86872   -4703.4355    -4229.257   -4703.4355            0    10075.568    19.691905    19.748819    20.540688    7988.1063    9714.1707    10703.277    9809.2565   -805.21848     82.70241    -78.96645   -3055.4701 
20607000    257.71543   -4699.8894   -4202.8635   -4699.8894            0    10852.915    19.923655    19.665335    20.526719    8042.4785    10217.159     11745.15    10596.437   -520.86182    32.627856    467.66196    -2929.911 
20608000    246.18318   -4672.2704   -4197.4854   -4672.2704            0    8779.7236    19.884261    19.884843    20.500422    8105.7724    10718.048    7033.3923    8587.7307   -30.165396   -142.77518   -577.57857   -3159.5959 
20609000    247.28877   -4673.1497   -4196.2325   -4673.1497            0    9262.9166    19.910304    19.929971    20.219578    8023.3665    6465.1205    11047.239     10276.39    154.00237    1740.5037    208.33144   -3112.3549 
20610000    272.37851   -4702.4615   -4177.1566   -4702.4615            0    10004.622    19.862198    19.827972    20.430173    8045.9559     9370.791     10862.85     9780.224    534.22317     697.8734    737.46102   -3003.1942 
20611000    267.33783   -4686.2479   -4170.6644   -4686.2479            0    11258.843    19.834589    19.996974     20.24699    8030.5992    13641.773    8021.6266     12113.13    672.33262    74.831931    396.80429   -2852.0506 
20612000    259.31304   -4701.1477   -4201.0407   -4701.1477            0    9156.1968    19.969001    19.890823    20.360135    8087.0427    9153.9643    9179.2095    9135.4164    994.17642    1257.9298  -0.13358698   -3121.1476 
20613000    258.06803   -4733.1098   -4235.4039   -4733.1098            0    10007.425    19.987487    19.619766    20.468504    8026.7202     6815.786    13427.499    9778.9903   -241.55645    432.45416   -89.434136   -3063.9199 
20614000    270.28942   -4729.3324   -4208.0565   -4729.3324            0    8624.7451       19.701    20.042242    20.547684    8113.2989     9468.401    7392.1008    9013.7336    1084.4332   -387.42507   -1122.2714    -3187.541 
20615000    268.65059   -4738.5631   -4220.4479   -4738.5631            0    7127.7365    19.972253    20.042442    20.378879    8157.5172    6746.1579    6758.5785     7878.473    -96.08175    695.97736    1118.1973   -3372.4681 
20616000     250.2313   -4711.6198   -4229.0277   -4711.6198            0    9528.0645    19.887793    19.707775    20.580305    8066.3298    8106.2081    11527.935    8950.0501   -231.73484   -390.66453    1410.9177   -3108.1543 
20617000    243.94841     -4708.28   -4237.8049     -4708.28            0    10846.022    19.778672    19.926838    20.397889    8039.3464    11187.298    11005.512    10345.257     106.3874    534.38466    1279.0184   -2966.1563 
20618000    259.01006   -4722.4395   -4222.9168   -4722.4395            0    9582.2372     19.99876    19.815729    20.235013    8018.9336    9145.4312    9955.3333    9645.9472   -209.99232    1507.7338    293.10416   -3102.2941 
20619000    246.02637   -4701.3608   -4226.8782   -4701.3608            0    9991.8888    19.723315    19.577735    20.734682    8006.4453    11660.213    9800.4592    8514.9947    820.28773    1496.8653   -181.20089   -3060.1674 
20620000    266.13405   -4722.7083   -4209.4464   -4722.7083            0    9014.6184    19.899212    19.807225    20.463274     8065.562    8319.0904    9151.5843    9573.1805    308.03222    1596.6229    1276.6696   -3149.0753 
20621000    252.31477   -4722.0152    -4235.405   -4722.0152            0    11163.659     19.84192    19.779922    20.330687    7979.2176    10897.714    11200.173    11393.092    -805.0768    429.91378    1261.2729   -2936.3044 
20622000    263.38944   -4690.9076   -4182.9389   -4690.9076            0    8988.2202    19.917529    19.796167    20.463839    8068.7019    8238.3696    8591.9398    10134.351   -411.71266    374.84636   -497.50022   -3125.2614 
20623000    256.03285    -4699.836   -4206.0551    -4699.836            0    9472.1608    20.075713    19.734541    20.319971    8050.4674    8776.1201    10730.511    8909.8511   -373.20349   -313.67454    458.21261   -3093.9494 
20624000    267.14269   -4715.9139   -4200.7067   -4715.9139            0    11261.745    19.724283    19.995847    20.394696    8043.7445    12293.167    10308.427    11183.641    125.82305    396.74519    1208.2227   -2879.5941 
20625000    266.01353   -4682.9332   -4169.9038   -4682.9332            0     10204.61    19.746788    19.841104    20.418076    7999.7627    8709.0062    11404.907    10499.915    632.25425    18.933043    691.87386    -2979.349 
20626000    252.37069   -4732.8061    -4246.088   -4732.8061            0    9419.4399    19.981957     19.66412    20.667582    8120.8632    9922.2484    9695.7737    8640.2977    191.41864   -868.69369   -233.84138   -3130.5017 
20627000    255.81622   -4717.0281    -4223.665   -4717.0281            0    6714.8572    19.881162     20.04078    20.553813     8189.338     6250.769    6325.5854    7568.2172   -711.21159    644.55261   -253.01829   -3421.6888 
20628000     254.3196   -4714.0181   -4223.5413   -4714.0181            0    9085.4684    20.023682    19.850366    20.271226    8057.3544    8834.0939    8722.6022    9699.7093    332.70338    491.29684   -720.92004   -3155.9239 
20629000     278.7502   -4702.8329   -4165.2397   -4702.8329            0    8853.5425    19.898848     19.87455    20.439489    8083.4225    9979.1997    8262.2619     8319.166    -56.55396    -342.0773   -796.45009   -3121.5095 
20630000    242.29261   -4709.4435   -4242.1618   -4709.4435            0    9666.0415    19.901877    19.751852    20.374526    8009.2042     9895.487    8703.1173     10399.52   -287.05088   -986.57224   -973.09439   -3113.1099 
20631000    243.10988   -4719.0094   -4250.1515   -4719.0094            0    9045.0535    19.692769    19.734156    20.594776    8003.5455    10011.491    8956.8813    8166.7886    50.948955   -23.422108    531.88599   -3194.3812 
20632000    275.74316   -4703.9532   -4172.1593   -4703.9532            0    9152.2801     19.83684    19.741886     20.55112    8048.1606    9836.3786    7321.8838    10298.578   -556.25249    1144.5628     1053.332    -3097.918 
20633000    270.69258   -4696.5342   -4174.4808   -4696.5342            0    8128.1174    20.005058      19.6672    20.478881    8057.2822    7504.7662    9169.6942    7709.8917    -8.955601   -1174.8771    1156.6217   -3219.3685 
20634000    253.29143   -4721.2978   -4232.8039   -4721.2978            0    7465.0284    19.775373    19.834575    20.602471    8081.0334    9527.7282    5428.5999     7438.757   -603.55017   -20.858949    -127.3847   -3353.0236 
20635000     261.1843   -4721.9138   -4218.1979   -4721.9138            0    9051.8316    19.872494     19.63115    20.619772    8044.1832    7500.5467    10185.943    9469.0045   -748.54473    292.24811     816.5575   -3156.2717 
20636000    261.01141   -4707.2397   -4203.8573   -4707.2397            0    9346.5868    19.951023      19.8598    20.426677    8093.5261    11178.271     7780.059    9081.4301   -917.53966    149.39747   -1325.6686   -3100.6256 
20637000    257.92088    -4720.949   -4223.5268    -4720.949            0    9560.3886    19.996247    19.870091    20.244506    8043.6935    9389.3831     9002.957    10288.826     216.5229    1661.8242    1373.9542    -3102.007 
20638000    248.71348   -4704.0025   -4224.3377   -4704.0025            0    9900.3694    19.846029    19.733469    20.551703    8048.6836     10806.06    9314.0642    9580.9841     167.6793   -1716.0088    403.64205   -3062.2145 
20639000    247.85635   -4730.9117   -4252.8998   -4730.9117            0    10368.218    19.819254    19.826066    20.502317    8056.1362     10750.62    9337.1992    11016.835   -346.16362    759.13933    669.32485   -3034.7328 
20640000    260.78121   -4693.3962   -4190.4577   -4693.3962            0    11080.004    19.807805    20.052993    20.252923    8044.5779    11300.473    9205.7576    12733.782   -290.32241   -791.81513   -490.28504   -2890.5303 
20641000    254.24231   -4701.8145   -4211.4868   -4701.8145            0    9373.4137     19.81915    19.836785    20.404207    8021.8776    8485.1234    9784.0735    9851.0442    229.13221    1092.2536    150.52864   -3114.8831 
20642000    257.67434   -4702.4119   -4205.4653   -4702.4119            0    9001.9751    19.812081    19.752498    20.567008    8048.6538    7495.8915    9881.9414    9628.0923   -108.58861   -95.458935   -468.12581   -3148.8012 
20643000    253.12805   -4707.0122   -4218.8335   -4707.0122            0    8651.5753    19.923423    19.787587    20.551278    8102.0632    5477.4086      10152.9    10324.418   -287.11976    897.94911     698.2963   -3196.5609 
20644000    243.00378   -4681.2469   -4212.5936   -4681.2469            0     7976.955    20.112311    19.714215    20.538005    8143.2862    6743.1449    9136.7125    8051.0077    282.90481    872.16402   -458.12517   -3265.2387 
20645000    255.84535   -4710.9331   -4217.5138   -4710.9331            0    8529.4542    19.809477    20.003041    20.490562    8119.3804    8586.1078    8256.7267    8745.5282    356.27679   -21.208692   -737.59645    -3207.517 
20646000    260.01036   -4719.1022   -4217.6503   -4719.1022            0    10715.116    19.755952    19.670484      20.5311    7978.5729    10281.515    11251.314     10612.52    27.986766   -596.19293     314.1939   -2970.8469 
20647000    251.49093   -4724.0434   -4239.0219   -4724.0434            0    8840.6404    19.845897    19.946039    20.347306    8054.4209    8320.4571    8666.0593    9535.4049    282.89988    1067.9629    295.72786    -3200.552 
20648000    240.46748   -4691.7363   -4227.9745   -4691.7363            0    8820.5784    19.863503    19.880217    20.437529    8070.5909    8729.2843    8119.7696    9612.6812   -422.94703    389.41071    911.61908   -3189.7811 
20649000    273.17887   -4706.8784     -4180.03   -4706.8784            0    9078.4107    19.933913    19.798902    20.324768     8021.568     8907.245    8112.9493    10215.038    568.64667    354.21475   -597.36746   -3117.9799 
20650000    261.95116   -4722.4576   -4217.2628   -4722.4576            0    9638.0375    19.899831    19.955858      20.2345    8035.4882    9470.8595    8147.3317    11295.921   -63.360592   -2058.0439    416.91053   -3087.7874 
20651000    270.41122   -4697.6816   -4176.1708   -4697.6816            0    9428.1112    19.954942    19.834282    20.469854    8101.8034    8503.9564    10633.486    9146.8911    235.79955   -50.592717    620.78761   -3062.1783 
20652000    259.50351   -4693.0569   -4192.5825   -4693.0569            0     8436.581    19.940976    19.982993    20.377867    8120.1807    7831.8608    8734.7216    8743.1606    338.89091   -434.28123    344.87687   -3193.4846 
20653000    260.80615   -4714.8211   -4211.8345   -4714.8211            0    9797.0746    19.794517    19.856985    20.441218    8034.6134    10346.112    9739.5753    9305.5363   -138.94678   -290.00501     159.4663   -3063.8466 
20654000    268.31055   -4721.1908   -4203.7313   -4721.1908            0    11097.095    19.750526    19.723986    20.473289     7975.556    10672.888    11390.509    11227.887   -103.61099    241.46844   -996.10554   -2912.9694 
20655000    259.17871   -4717.8635   -4218.0155   -4717.8635            0    8928.3613    19.751372    19.820813    20.637631    8079.3899    11746.728    6903.6317    8134.7247   -410.40712   -226.43238   -1066.5276   -3165.9901 
20656000    257.12149   -4726.8458   -4230.9654   -4726.8458            0    8549.3788    19.785188     19.99318     20.43777    8084.5448    8816.7947    9215.9495    7615.3921    592.73284    5.9875903   -477.75492   -3222.9527 
20657000    261.85026   -4711.7378   -4206.7375   -4711.7378            0    8828.3692    20.000358    19.663071    20.537876     8076.899    9407.8265    8872.5031    8204.7778    620.39056    492.88265    863.53623   -3166.8149 
20658000    251.20714   -4724.2452   -4239.7712   -4724.2452            0    9041.3132    19.712439    19.824517    20.515563    8017.2688    9634.3787    7915.7619    9573.7991   -416.27829   -762.70147    1394.0702   -3182.6279 
20659000    252.65592   -4721.3104   -4234.0422   -4721.3104            0    9453.1264    19.902062    19.977451    20.265604    8057.4517    8407.7304    10584.237    9367.4116   -288.22734    822.28704    481.81161   -3123.2085 
20660000    257.26376    -4698.879   -4202.7242    -4698.879            0    8443.3585    19.979406    19.889883    20.287868    8062.1566    7210.9541    9545.8355     8573.286    74.096745   -476.72482   -820.95505   -3209.9686 
20661000    255.21103   -4717.7639    -4225.568   -4717.7639            0    9226.2111      19.7728    19.795121    20.527758    8034.6667    7660.7566    11678.812    8339.0643   -371.41215   -196.41882   -798.72047   -3144.4648 
20662000    263.67859   -4720.2943   -4211.7679   -4720.2943            0    6755.1362    19.831174    19.813519    20.741647    8149.9187    7104.7291    6333.7236    6826.9558    373.93606   -144.51019    601.24293   -3408.8646 
20663000     257.0288   -4689.1527   -4193.4511   -4689.1527            0    9756.8002    19.619013     19.89809    20.429987    7975.4764    11542.964    9136.0009    8591.4352     150.6244    166.94734   -1018.0045   -3058.5972 
20664000    256.61382   -4711.0916   -4216.1903   -4711.0916            0    9636.9111    19.960239     19.72846    20.341508    8010.1762    10806.606     9115.724    8988.4031    347.38705   -347.00441   -490.32843   -3090.4043 
20665000    258.09988   -4710.1843    -4212.417   -4710.1843            0    9840.2638    19.778837    19.854737    20.456539    8033.3569    10893.481    8182.7039    10444.607   -511.63003    672.48371    1253.3541   -3059.5487 
20666000    256.64023   -4685.3636   -4190.4113   -4685.3636            0    10365.862    19.737503    19.878171    20.596475    8080.9334    12386.268     9850.324    8860.9938     257.8492   -1048.7667    586.47972   -2968.7725 
20667000    253.16634   -4691.2463   -4202.9938   -4691.2463            0     10388.79    20.089247    19.741956    20.258874    8034.6899    8157.7166    10717.329    12291.325   -62.073819    232.55047    1740.0146   -2985.6591 
20668000    281.97776   -4721.0507   -4177.2329   -4721.0507            0    11098.357      19.6834     19.98426    20.383222    8017.9069    11794.153    10361.111    11139.808   -381.30184   -901.64143     103.1656   -2879.4693 
20669000    263.41501   -4699.0435   -4191.0255   -4699.0435            0    7993.0955    19.972614    19.794021    20.609608    8147.7684    5499.3083    10051.105    8428.8728    279.10551   -164.12977    516.12201   -3241.2312 
20670000    265.64078   -4711.6793   -4199.3688   -4711.6793            0    10974.545    19.809714    19.822574    20.453601    8031.7102    10135.025    12105.291     10683.32   -52.145014   -1055.9064   -895.39046   -2913.8736 
20671000    266.52402   -4697.7827   -4183.7688   -4697.7827            0    10936.143      20.0915    19.585045     20.29471    7985.8249    10469.802    11553.024    10785.603   -729.24418   -332.75574   -1558.4509   -2910.0902 
20672000    260.62643   -4723.0636   -4220.4236   -4723.0636            0    8897.0896    19.678916    19.954339    20.600691    8089.4745    10666.768    7413.1664    8611.3345    719.11038    409.18157     845.0601   -3170.7744 
20673000    242.69505   -4708.4303   -4240.3725   -4708.4303            0    8752.5752    19.986572    19.535935    20.734843    8096.0518    8214.2889    10462.994    7580.4425    1195.3448   -403.30818    544.82121   -3206.9331 
20674000    263.88778   -4705.3581   -4196.4284   -4705.3581            0    10357.001    19.532824    20.065306    20.452389    8015.9477    10931.875     10241.18    9897.9487    229.02525   -906.50531   -801.69402   -2985.6496 
20675000    247.06671   -4690.9531   -4214.4642   -4690.9531            0    10482.412    19.922459    19.788934    20.331107    8015.4218    9630.2546    11260.116    10556.867     628.2966    57.960043    1288.4769   -2989.1047 
20676000    260.27773   -4731.0946   -4229.1272   -4731.0946            0    10304.099    19.715094    19.684655    20.617416    8001.3061    10908.437    10136.873    9866.9875   -760.11341    1039.7046   -335.05299   -3026.7332 
20677000    261.94934   -4717.7942   -4212.6029   -4717.7942            0    8158.6821    19.955948    19.775016    20.497063    8088.7393    7253.3038    9578.5837    7644.1589   -366.30601   -926.24588   -1170.0816   -3250.1561 
20678000     263.8323   -4701.3252   -4192.5024   -4701.3252            0    10852.453    19.885975    19.562346    20.432915    7948.7374    9703.2922    12572.252    10281.814    803.40365    579.01173     1346.994   -2934.4407 
20679000    248.32103   -4669.5326   -4190.6246   -4669.5326            0    8473.2191    19.656074    19.929496    20.720639    8117.0131    10020.961    9075.4127    6323.2836    262.98291   -1046.5326    2365.4703   -3187.5793 
20680000    260.48062   -4691.6438    -4189.285   -4691.6438            0    10526.373    19.968318    19.602358    20.565572    8049.9025    7915.2704    12411.776    11252.071    330.58861   -1643.0187   -273.15629   -2953.4934 
20681000     259.5314   -4711.3321   -4210.8039   -4711.3321            0    8894.2447    19.806636    19.777004    20.530253    8042.0268    6893.7797      9105.52    10683.434      160.437    927.85508     -61.7085    -3167.645 
20682000    247.32468   -4685.7739   -4208.7875   -4685.7739            0    8695.6738    20.029835    19.998534    20.137558    8066.4477    7424.9859    9867.7883    8794.2472    520.80221    -263.9435     492.0355   -3185.8209 
20683000    249.96257   -4718.8561   -4236.7823   -4718.8561            0    7614.2838     19.62773    19.887119    20.706355    8082.4982    8043.7532    7555.0531    7244.0452   -1031.7996    664.83557     345.8334    -3339.249 
20684000    243.71803   -4703.0834   -4233.0527   -4703.0834            0    9575.8807    19.828559    19.940774    20.402336    8067.0187    9734.5795     9172.936    9820.1267     254.7923    933.53624   -711.84752    -3106.458 
20685000    274.49356   -4702.1794   -4172.7955   -4702.1794            0    10138.939    19.955004    19.860915    20.211115     8010.163    8582.6011    10601.753    11232.463   -143.79169     589.5505   -210.67728   -2988.3645 
20686000    267.23734   -4699.7396   -4184.3499   -4699.7396            0    8796.7529    19.729809    19.928034    20.599264    8099.1427    9409.8254    8613.2086    8367.2245    781.83748    934.56105   -455.09201   -3145.2978 
20687000    262.68163   -4740.4436     -4233.84   -4740.4436            0    6149.0827    20.142341    19.800159    20.534641    8189.6578    6020.1131    5662.2142    6764.9208    580.99509    1547.1531    368.77032   -3499.4074 
20688000    267.03965   -4704.2026   -4189.1942   -4704.2026            0    9692.0174    19.995717    19.795856    20.274592    8025.3391    9932.5931    8612.8248    10530.634    620.30805   -2133.6744   -961.17074   -3054.8275 
20689000    249.87004   -4728.1919   -4246.2965   -4728.1919            0    8766.4631    19.750482    20.034449    20.479299    8103.4543      9399.24    8308.6537    8591.4955   -484.58721    1009.4824   -1015.0065   -3210.2709 
20690000    258.66864   -4668.0676   -4169.2034   -4668.0676            0    9670.3872    19.945186    19.692433    20.567948    8078.4574    7378.1059    10944.688    10688.368   -382.49511     183.9875     546.5119   -3029.8769 
20691000    252.87327   -4694.4964   -4206.8091   -4694.4964            0    9230.8923    20.059084    19.816768    20.377185    8100.0576    8870.7515    8761.6479    10060.277   -11.189815    1021.3443   -2709.3152   -3116.3543 
20692000    268.81528   -4716.5032   -4198.0703   -4716.5032            0    9167.0189    19.891459    19.924079    20.314691     8051.098    8383.4827    10710.028    8407.5456    101.39063     344.3544    399.82916   -3121.7064 
20693000    265.25074   -4699.3899   -4187.8316   -4699.3899            0    9319.0834    19.762935    19.620151    20.596742    7986.4233    8867.8356    8818.7875    10270.627    47.719441   -509.79503   -1000.0955   -3102.4026 
20694000    260.61999   -4687.6304   -4185.0028   -4687.6304            0    9039.6154     19.75489    19.877435    20.546714    8068.2127    9410.0525    8599.1407    9109.6529    239.42342    144.07787   -3227.5612    -3121.342 
20695000    261.95448   -4711.9535   -4206.7522   -4711.9535            0     7789.311     19.91109    19.950526    20.437434    8118.4993    6738.1057    8820.5135    7809.3139   -322.30965    524.67081   -530.87975   -3284.4979 
20696000    244.50563   -4677.7727    -4206.223   -4677.7727            0     8681.242    19.931623    19.921275    20.286567    8055.0519    7595.5891    9271.3627    9176.7742   -3.2503831    1058.1021     179.9977    -3186.397 
20697000    253.67401   -4702.7336   -4213.5019   -4702.7336            0    8863.0027    19.871506    19.880257    20.482295    8091.5439    9395.3167    9047.0557    8146.6357   -705.65241   -27.158739   -574.24617   -3167.6068 
20698000    259.03073   -4702.1885   -4202.6259   -4702.1885            0    8947.3616    19.645403    19.942401    20.636922    8085.0614    7423.9955     10577.28    8840.8093    378.28469    1174.8399   -1003.0195   -3147.6217 
20699000    255.89281   -4668.7018    -4175.191   -4668.7018            0    9843.8821    19.885064    19.788491    20.415982    8033.5949    9956.3874    10037.334    9537.9246   -403.81486    1987.8663    -485.1535   -3021.8646 
20700000    247.68701   -4691.7548   -4214.0695   -4691.7548            0    10279.755    19.845435      19.8682    20.345203    8021.9726    12558.078     8368.214    9912.9731    398.80064    277.67028    1276.3147   -3011.4179 
20701000    258.10291   -4717.3929   -4219.6197   -4717.3929            0    8572.6682      19.7212    19.762528     20.75179    8087.8184    8903.6635    9014.0763    7800.2649   -782.27454    1006.9476   -1292.5136   -3208.4517 
20702000    260.20887   -4705.2489   -4203.4142   -4705.2489            0    7937.6319    19.784236    19.842039    20.619838    8094.5152    7912.5607    9199.3953    6700.9396     92.22818   -459.35906   -4.5218522   -3266.3751 
20703000    258.41011   -4731.9043   -4233.5386   -4731.9043            0    8684.9187    20.031539    19.794617    20.265971    8035.7946    6144.9173    11700.075     8209.764    444.69349   -175.99627    1296.4715   -3215.7198 
20704000    247.10089   -4708.9066   -4232.3517   -4708.9066            0    7869.4988    19.834875    19.967323    20.499142     8118.672    7628.0204    8675.0767    7305.3994    288.53502    921.18983   -290.52622   -3300.5833 
20705000    259.19406   -4739.6093   -4239.7318   -4739.6093            0    7558.2187    19.580703    19.846651    20.731337    8056.4335     9009.766    7030.5549    6634.3352    356.64774   -382.12555    -53.05244   -3351.6802 
20706000    262.05007   -4730.9698   -4225.5842   -4730.9698            0    9224.4443    20.051813    19.425479    20.557128    8007.3317    7932.6766    11140.346    8600.3107   -88.925284    279.51646    247.78664   -3148.3654 
20707000    254.45543   -4697.3275   -4206.5888   -4697.3275            0    11394.015    19.763277    19.912258    20.417605    8034.9705    11550.399    10170.146    12461.499    303.16197   -916.87746    489.35212   -2871.4176 
20708000    253.47168   -4694.8636   -4206.0222   -4694.8636            0    10130.824    19.793144     20.05495    20.362534    8082.9183    8414.1145    10522.796    11455.561   -241.13743   -484.19769    612.32363   -3011.7898 
20709000      263.126   -4718.5726    -4211.112   -4718.5726            0    9861.4344    19.851534    19.787355    20.445683    8031.2558    10366.571    10199.924    9017.8084    281.97277    542.59615    269.98763   -3056.0656 
20710000    275.19833   -4693.7006   -4162.9574   -4693.7006            0    10258.167    19.990235    19.802743    20.245478    8014.4048    12299.746    8320.3166    10154.439    639.59595    429.67209    537.00023   -2963.9637 
20711000    267.77699   -4716.6113   -4200.1808   -4716.6113            0    11726.962    19.904925    19.789032    20.313068    8001.3011    11893.024    10907.656    12380.205   -441.77441   -1151.7501   -45.965739   -2831.7527 
20712000    258.37735   -4710.4153   -4212.1129   -4710.4153            0    10423.373     19.72457    19.819127    20.602576    8054.0365    11113.317    10912.334    9244.4676   -1835.0237    1050.1968    1621.1246    -2987.785 
20713000    267.19124   -4692.3492   -4177.0484   -4692.3492            0    10424.989    19.669529    19.907519    20.532385    8039.8974    13372.097    7837.1045    10065.766    121.79014    1762.8833   -236.47973   -2954.6803 
20714000    259.85053   -4704.3989   -4203.2553   -4704.3989            0    8889.2802    20.010355    19.736611    20.494058    8093.8538    7907.7776    9869.4642    8890.5988    180.78451    1857.6764    562.02078   -3153.9597 
20715000    252.91851    -4744.793   -4257.0183    -4744.793            0    9381.8983    19.961611    19.768402     20.37738    8041.1008    11454.925    8240.2435    8450.5261   -247.95287    1713.1254   -279.36775   -3156.7918 
20716000     256.2086   -4727.5507   -4233.4309   -4727.5507            0    9179.8877    19.879348    19.859315    20.535451    8107.1953    9442.1086    7993.3712    10104.183   -743.20484    892.47072    -934.9364   -3148.0457 
20717000    251.88354   -4726.2567   -4240.4781   -4726.2567            0     10956.95    19.883824    19.888518    20.299698    8027.7146     10998.71    10342.051    11530.088    599.78295   -668.37395    840.16935   -2957.6824 
20718000    248.53767    -4657.832   -4178.5062    -4657.832            0     10304.85    19.900851    19.883703    20.309125    8036.3737    9302.4309    8992.2522    12619.866    594.87724   -473.33254    68.248657   -2970.7545 
20719000    266.96209   -4705.6583   -4190.7994   -4705.6583            0      8832.24     19.91798    19.605143    20.680716    8075.7129    7245.7155    11187.487    8063.5172     471.8861   -339.61036    -774.0982   -3150.5736 
20720000      250.383   -4723.7588   -4240.8741   -4723.7588            0      8247.64    19.901359    19.821957     20.34848    8027.1477    6759.2434    8649.0095     9334.667   -138.89135   -230.51355    648.36709   -3275.3417 
20721000    248.47005   -4693.0217   -4213.8263   -4693.0217            0    8614.2615    19.668778    19.895634    20.540196    8037.8473     8932.177    7783.1845     9127.423    264.30569   -171.12197    1118.4116   -3204.0302 
20722000    255.81514   -4716.2554   -4222.8943   -4716.2554            0    9398.4318    19.870239    19.741544    20.441044    8018.3917    9134.6626    8716.4085    10344.224    390.04254   -535.41886    1286.8528   -3123.8416 
20723000     262.2539   -4729.3528   -4223.5741   -4729.3528            0    9018.3217    20.046948    19.525351    20.532426    8036.8781    8067.0563    9945.7496    9042.1593    354.57874   -847.72187    78.446365     -3166.54 
20724000    248.25013   -4680.5875   -4201.8162   -4680.5875            0    10094.175    19.842354    19.832153    20.454707    8049.2669    10009.198    11295.651    8977.6753   -283.27758   -462.14293   -65.920027    -3016.858 
20725000     246.6667   -4714.7431   -4239.0256   -4714.7431            0    9020.0738    20.058962    19.946371    20.199784    8082.0046    9059.4779    7247.0405    10753.703    214.85193   -537.05205    846.72576   -3175.8499 
20726000    257.43522   -4716.8253   -4220.3398   -4716.8253            0    8766.7755    19.801289    19.959352    20.584534    8135.4379     9419.667    8548.9434    8331.7161   -743.36556     1312.523   -84.475095    -3180.188 
20727000    275.38986   -4685.5918   -4154.4793   -4685.5918            0    7553.2746    20.075528    19.505939     20.70691    8108.6612    5672.5769    9226.8806    7760.3662    143.42975   -84.277185    125.51347   -3261.2554 
20728000    257.17783   -4672.5152   -4176.5261   -4672.5152            0    10638.978    19.838762     19.77031    20.527621    8051.3122    11498.803      11004.4    9413.7327    -355.6323    536.33377    708.79041   -2927.2959 
20729000    253.35059   -4681.6641   -4193.0562   -4681.6641            0    9657.5254    20.076443    19.595512     20.61245    8109.1061    11872.239    8611.7317     8488.606   -37.054413    449.99844   -1473.1601   -3050.9283 
20730000    266.96756   -4672.2705   -4157.4011   -4672.2705            0    11227.573    19.615951    19.904951    20.482784    7997.5961    12554.524    10074.657    11053.536    507.93293    111.52473   -1152.2704   -2847.8537 
20731000    278.68666   -4726.2789   -4188.8082   -4726.2789            0     8278.881    20.023901     19.81562    20.384236      8088.18    7508.6408    9368.2147    7959.7875   -144.58849   -463.43291   -1053.9693   -3212.2496 
20732000    263.62663   -4720.3118   -4211.8857   -4720.3118            0    7328.8814    19.720122    20.152059    20.324527     8076.989    7454.1158    5062.7093    9469.8191   -648.71596   -1692.3433     360.1878    -3348.583 
20733000    266.04141   -4740.0339   -4226.9506   -4740.0339            0     8767.827     19.74655    19.794729    20.585678    8046.4809    10205.514    8782.9085    7315.0589    404.32176    34.970504    583.06431    -3198.049 
20734000    253.70253   -4674.0405   -4184.7539   -4674.0405            0      8229.46    19.829818     19.80268      20.6121    8094.0327    10186.459     5938.379    8563.5419    604.93051   -1018.1082    819.91001   -3213.3224 
20735000    242.59445   -4714.6829   -4246.8191   -4714.6829            0    8078.0904    19.837814    19.759191    20.752728    8134.6368    7178.0052    9791.4883    7264.7775   -800.78345   -619.21879    39.358339   -3288.4722 
20736000    252.70354   -4714.4018   -4227.0417   -4714.4018            0    8781.0248    19.643194    19.993792    20.515996     8057.492     8509.086    7644.1394    10189.849    813.54158     866.3209   -688.62158   -3195.1813 
20737000     259.0237   -4708.5371   -4208.9881   -4708.5371            0    9090.0733    19.946999    20.011959    20.279547    8095.1599    7803.8663    8391.4841     11074.87    164.46927    1579.7521   -577.82773   -3135.8176 
20738000    275.42772   -4719.0726   -4187.8871   -4719.0726            0    9479.2664    19.769896    19.983275    20.360981    8043.9569    8782.1687    8897.0814    10758.549   -1108.1677     813.5584   -1293.3461   -3075.8472 
20739000    245.27812   -4686.3349   -4213.2954   -4686.3349            0    7503.6735    19.650018    19.838627    20.709724    8073.2586    9008.2865    7712.6303    5790.1038   -177.17739   -579.24465   -73.260319   -3329.8114 
20740000    254.39666   -4685.1035   -4194.4782   -4685.1035            0    8388.6494    19.846198    19.672024    20.610967    8046.8282    7194.0071    10554.606    7417.3347    756.65806    102.30622    1002.5534   -3210.0305 
20741000    257.44523   -4720.5244   -4224.0197   -4720.5244            0     8115.085    19.671374    20.035734    20.340908    8016.9706     8585.814    6081.8279    9677.6131    381.66956   -427.74848    945.40718   -3275.2097 
20742000    258.38055   -4695.5525   -4197.2439   -4695.5525            0    10546.002    19.926067    19.792865      20.2458    7984.8215    7732.8295     11384.94    12520.237   -31.610011     1216.141    358.78719   -2969.1574 
20743000    263.96772   -4702.0589    -4192.975   -4702.0589            0    10256.641    19.672222    19.820079    20.652726    8052.6013    11239.082    9862.4281    9668.4139   -10.743412     841.9183   -1105.4207    -2988.446 
20744000    260.94965    -4698.851   -4195.5877    -4698.851            0    8113.8783    20.000251    19.730074    20.454945    8071.6527    8963.8345    7412.5383    7965.2622    112.19318    41.956022   -893.75471   -3240.4481 
20745000    278.44308   -4704.6744   -4167.6735   -4704.6744            0    8617.8571    19.711456    20.243131    20.227931    8071.3813    10812.504    6459.2057    8581.8621   -76.244938    767.89627     76.16394   -3153.2412 
20746000     253.1624   -4665.2977   -4177.0527   -4665.2977            0    10145.592    19.823898    19.644755    20.520783    7991.5235    10121.429    10255.969    10059.377    233.17721    398.72203   -29.613343   -2994.6025 
20747000    255.91699   -4711.6154   -4218.0579   -4711.6154            0     7176.865    19.699879    19.986268    20.564998    8096.9961    6018.9116    7589.5149    7922.1684    757.85633   -909.77083   -615.61243   -3370.5679 
20748000    261.36283   -4687.1718   -4183.1116   -4687.1718            0    8913.0991    19.897184    20.061699    20.260331    8087.3429    7690.0431    8619.8398    10429.414    274.76638     265.4705   -126.08455   -3131.8508 
20749000    252.58361    -4732.375   -4245.2463    -4732.375            0    7030.1061    19.807608    19.862144    20.633779    8117.7737    7197.5052    6612.4436    7280.3694    263.14475    1379.6888   -232.03937   -3412.9562 
20750000    256.62646   -4667.7717    -4172.846   -4667.7717            0    7744.9492    19.968102    19.890884    20.463646    8127.8166    6989.7348    8997.2291    7247.8838    -162.1516    1030.9935   -680.13095   -3254.7918 
Loop time of 485.323 on 64 procs for 250000 steps with 972 atoms

Performance: 89.013 ns/day, 0.270 hours/ns, 515.120 timesteps/s
99.1% CPU use with 64 MPI tasks x 1 OpenMP threads

MPI task timing breakdown:
Section |  min time  |  avg time  |  max time  |%varavg| %total
---------------------------------------------------------------
Pair    | 20.821     | 29.121     | 38.687     |  79.6 |  6.00
Bond    | 0.27315    | 0.28212    | 0.30157    |   1.1 |  0.06
Kspace  | 200.23     | 213.67     | 230.6      |  44.5 | 44.03
Neigh   | 3.2647     | 3.5787     | 4.3067     |  15.7 |  0.74
Comm    | 98.502     | 109.83     | 117.97     |  45.3 | 22.63
Output  | 1.1167     | 1.12       | 1.1274     |   0.2 |  0.23
Modify  | 118.57     | 121.3      | 122.95     |   7.5 | 24.99
Other   |            | 6.42       |            |       |  1.32

Nlocal:        15.1875 ave          21 max          10 min
Histogram: 5 2 7 9 11 9 13 7 0 1
Nghost:        2281.78 ave        2309 max        2248 min
Histogram: 3 4 2 9 8 6 13 9 6 4
Neighs:        4834.28 ave        6436 max        2882 min
Histogram: 2 4 5 6 6 11 15 5 5 5

Total # of neighbors = 309394
Ave neighs/atom = 318.30658
Ave special neighs/atom = 2.0000000
Neighbor list builds = 7611
Dangerous builds = 0

unfix		3
unfix		2
unfix		1

write_data	data.final.${pid}
write_data	data.final.0
System init for write_data ...
PPPM initialization ...
  extracting TIP4P info from pair style
  using 12-bit tables for long-range coulomb (../kspace.cpp:340)
  G vector (1/distance) = 0.37188169
  grid = 24 24 24
  stencil order = 5
  estimated absolute RMS force accuracy = 0.0035461077
  estimated relative force accuracy = 1.0678998e-05
  using double precision FFTW3
  3d grid and FFT values/proc = 2197 216
Last active /omp style is kspace_style pppm/tip4p/omp
WARNING: Not all mixed pair coeffs generated from mixing. Use write_data with 'pair ij' option to store all pair coeffs. (../write_data.cpp:312)

write_restart   restart.lmp.${pid}
write_restart   restart.lmp.0
System init for write_restart ...
PPPM initialization ...
  extracting TIP4P info from pair style
  using 12-bit tables for long-range coulomb (../kspace.cpp:340)
  G vector (1/distance) = 0.37188169
  grid = 24 24 24
  stencil order = 5
  estimated absolute RMS force accuracy = 0.0035461077
  estimated relative force accuracy = 1.0678998e-05
  using double precision FFTW3
  3d grid and FFT values/proc = 2197 216
Last active /omp style is kspace_style pppm/tip4p/omp
Total wall time: 0:08:10
